 vasp.5.4.4.18Apr17-6-g9f103f2a35 (build May 12 2020 04:58:55) complex

 MD_VERSION_INFO: Compiled 2020-05-12T11:58:55-UTC in devlin.sd.materialsdesign.
 com:/home/medea2/data/build/wwolf/vasp-gpu5.4.4/13047/x86_64/src/src/build/std
 from svn 13047

 executed on                        Lin64 date 2023.03.24  18:41:01

 INCAR:
 POTCAR:    PAW_PBE Ni 02Aug2007
 POTCAR:    PAW_PBE O 08Apr2002

 POTCAR:    PAW_PBE Ni 02Aug2007

 POTCAR:    PAW_PBE O 08Apr2002

 Optimization of the real space projectors (new method)

 maximal supplied QI-value         = 16.25
 optimisation between [QCUT,QGAM] = [ 11.38, 22.75] = [ 36.24,144.96] Ry
 Optimized for a Real-space Cutoff    1.47 Angstroem

   l    n(q)    QCUT    max X(q) W(low)/X(q) W(high)/X(q)  e(spline)
   2      9    11.376    60.317    0.17E-03    0.16E-04    0.16E-06
   2      9    11.376    55.921    0.17E-03    0.16E-04    0.17E-06
   0     10    11.376    51.690    0.45E-04    0.60E-04    0.21E-06
   0     10    11.376    30.015    0.37E-04    0.55E-04    0.19E-06
   1     10    11.376    18.849    0.83E-04    0.11E-03    0.92E-07
   1     10    11.376    14.624    0.69E-04    0.92E-04    0.82E-07
 Optimization of the real space projectors (new method)

 maximal supplied QI-value         = 24.76
 optimisation between [QCUT,QGAM] = [ 11.39, 22.77] = [ 36.31,145.25] Ry
 Optimized for a Real-space Cutoff    1.10 Angstroem

   l    n(q)    QCUT    max X(q) W(low)/X(q) W(high)/X(q)  e(spline)
   0      7    11.387    20.381    0.22E-03    0.48E-03    0.18E-06
   0      7    11.387    15.268    0.22E-03    0.52E-03    0.19E-06
   1      7    11.387     5.964    0.22E-03    0.73E-03    0.24E-06
   1      7    11.387     5.382    0.19E-03    0.60E-03    0.21E-06

  PAW_PBE Ni 02Aug2007                  :
  PAW_PBE O 08Apr2002                   :

 POSCAR: NiO2_Fd-3m_scale_1_050_disp_0_20_round_2
  positions in direct lattice
 exchange correlation table for  LEXCH =       14
   RHO(1)=    0.500       N(1)  =     2000
   RHO(2)=  100.500       N(2)  =     4000

 ion  position               nearest neighbor table
   1  0.153  0.601  0.116-  41 1.81  22 1.82  47 1.91  24 2.14  28 2.32   3 2.57   2 2.74   4 2.90

   2  0.360  0.848  0.177-  18 1.37  46 1.82  24 1.83  41 2.22  19 2.30   4 2.58  13 2.74   1 2.74

   3  0.311  0.537  0.373-  47 1.10  21 1.47  27 1.51  18 2.05  41 2.23  44 2.40   1 2.57  16 2.58
                             6 2.71   4 2.90
   4  0.124  0.830  0.376-  30 1.66  18 1.74  24 2.02  47 2.06  45 2.29  20 2.44   2 2.58   3 2.90
                             1 2.90  10 3.02
   5  0.086  0.136  0.621-  39 1.67  33 1.92  20 1.93  32 1.93  35 2.00   8 2.41  30 2.47   6 2.84
                             7 2.95  10 3.06
   6  0.364  0.334  0.620-  21 1.59  33 1.80  26 1.88  27 1.93  38 1.96  32 2.04   7 2.39   8 2.67
                             3 2.71  16 2.84   5 2.84
   7  0.386  0.118  0.807-  36 1.60  33 1.70  39 1.92  26 2.00  29 2.12   6 2.39   8 2.78   5 2.95
                            12 2.96
   8  0.127  0.324  0.836-  39 1.53  26 1.80  32 1.84  28 1.89  22 2.22   5 2.41   6 2.67   7 2.78

   9  0.609  0.642  0.645-  31 1.34  40 1.58  25 1.80  12 2.16  27 2.49  11 2.59  10 2.70
  10  0.847  0.857  0.608-  40 1.82  30 1.98  35 2.17  25 2.18  34 2.18  45 2.41  12 2.63   9 2.70
                             4 3.02   5 3.06
  11  0.811  0.531  0.852-  37 1.24  31 1.60  25 1.70  34 1.90  43 2.12  14 2.49   9 2.59
  12  0.607  0.840  0.812-  40 1.63  34 1.93  29 1.97  31 2.05  36 2.07   9 2.16  10 2.63   7 2.96

  13  0.572  0.094  0.129-  19 1.71  23 1.86  46 1.97  17 2.05  48 2.11  36 2.39  15 2.71   2 2.74
                            16 3.06
  14  0.817  0.372  0.104-  43 1.61  48 1.62  17 1.85  22 2.26  37 2.32  42 2.36  11 2.49  15 2.70
                            16 2.92
  15  0.812  0.150  0.340-  42 1.56  23 1.62  17 1.97  35 1.99  20 2.28  48 2.47  14 2.70  13 2.71
                            16 2.74
  16  0.578  0.380  0.360-  44 1.39  38 1.64  48 1.65  42 1.92  21 1.95  23 1.96   3 2.58  15 2.74
                             6 2.84  14 2.92  13 3.06
  17  0.810  0.150  0.105-  14 1.85  15 1.97  13 2.05
  18  0.318  0.778  0.320-   2 1.37   4 1.74  47 1.83   3 2.05
  19  0.369  0.120  0.132-  13 1.71   2 2.30
  20  0.079  0.118  0.390-   5 1.93  15 2.28   4 2.44
  21  0.357  0.379  0.435-   3 1.47   6 1.59  27 1.75  16 1.95
  22  0.087  0.394  0.090-   1 1.82   8 2.22  14 2.26
  23  0.617  0.149  0.341-  15 1.62  13 1.86  16 1.96
  24  0.145  0.856  0.135-   2 1.83   4 2.02   1 2.14
  25  0.821  0.603  0.662-  11 1.70   9 1.80  31 1.88  10 2.18
  26  0.341  0.350  0.844-   8 1.80   6 1.88   7 2.00
  27  0.340  0.553  0.551-   3 1.51  21 1.75   6 1.93   9 2.49
  28  0.126  0.551  0.843-   8 1.89   1 2.32
  29  0.373  0.866  0.837-  12 1.97   7 2.12
  30  0.081  0.844  0.569-   4 1.66  10 1.98   5 2.47
  31  0.640  0.597  0.796-   9 1.34  11 1.60  25 1.88  12 2.05
  32  0.121  0.365  0.620-   8 1.84   5 1.93   6 2.04
  33  0.316  0.123  0.616-   7 1.70   6 1.80   5 1.92
  34  0.821  0.759  0.849-  11 1.90  12 1.93  10 2.18
  35  0.852  0.115  0.573-  15 1.99   5 2.00  10 2.17
  36  0.572  0.084  0.843-   7 1.60  12 2.07  13 2.39
  37  0.812  0.384  0.827-  11 1.24  14 2.32
  38  0.589  0.351  0.554-  16 1.64   6 1.96
  39  0.157  0.146  0.808-   8 1.53   5 1.67   7 1.92
  40  0.631  0.828  0.619-   9 1.58  12 1.63  10 1.82
  41  0.370  0.589  0.117-   1 1.81   2 2.22   3 2.23
  42  0.801  0.331  0.384-  15 1.56  16 1.92  14 2.36
  43  0.834  0.563  0.104-  14 1.61  11 2.12
  44  0.596  0.544  0.333-  16 1.39   3 2.40
  45  0.855  0.811  0.323-   4 2.29  10 2.41
  46  0.572  0.858  0.127-   2 1.82  13 1.97
  47  0.198  0.596  0.340-   3 1.10  18 1.83   1 1.91   4 2.06
  48  0.643  0.332  0.179-  14 1.62  16 1.65  13 2.11  15 2.47

  LATTYP: Found a simple cubic cell.
 ALAT       =     8.3389845000

  Lattice vectors:

 A1 = (   8.3389845000,   0.0000000000,   0.0000000000)
 A2 = (   0.0000000000,   8.3389845000,   0.0000000000)
 A3 = (   0.0000000000,   0.0000000000,   8.3389845000)

Analysis of symmetry for initial positions (statically):
 Subroutine PRICEL returns:
 Original cell was already a primitive cell.

 Routine SETGRP: Setting up the symmetry group for a
 simple cubic supercell.

 Subroutine GETGRP returns: Found  1 space group operations
 (whereof  1 operations were pure point group operations)
 out of a pool of 48 trial point group operations.

The static configuration has the point symmetry C_1 .

Analysis of symmetry for dynamics (positions and initial velocities):
 Subroutine PRICEL returns:
 Original cell was already a primitive cell.

[...]

The dynamic configuration has the point symmetry C_1 .

Analysis of structural, dynamic, and magnetic symmetry:
 Subroutine PRICEL returns:
 Original cell was already a primitive cell.

 Routine SETGRP: Setting up the symmetry group for a
 simple cubic supercell.

 Subroutine GETGRP returns: Found  1 space group operations
 (whereof  1 operations were pure point group operations)
 out of a pool of 48 trial point group operations.

The magnetic configuration has the point symmetry C_1 .

 Subroutine INISYM returns: Found  1 space group operations
 (whereof  1 operations are pure point group operations),
 and found     1 'primitive' translations

 KPOINTS: Automatic mesh

Automatic generation of k-mesh.
Space group operators:
 irot       det(A)        alpha          n_x          n_y          n_z        tau_x        tau_y        tau_z
    1     1.000000     0.000001     1.000000     0.000000     0.000000     0.000000     0.000000     0.000000

 Subroutine IBZKPT returns following result:

 Found     36 irreducible k-points:

 Following reciprocal coordinates:
            Coordinates               Weight
  0.000000  0.000000  0.000000      1.000000
  0.250000  0.000000  0.000000      2.000000
  0.500000  0.000000  0.000000      1.000000
  0.000000  0.250000  0.000000      2.000000
  0.250000  0.250000  0.000000      2.000000
  0.500000  0.250000  0.000000      2.000000
 -0.250000  0.250000  0.000000      2.000000
  0.000000  0.500000  0.000000      1.000000
  0.250000  0.500000  0.000000      2.000000
  0.500000  0.500000  0.000000      1.000000
  0.000000  0.000000  0.250000      2.000000
  0.250000  0.000000  0.250000      2.000000
  0.500000  0.000000  0.250000      2.000000
 -0.250000  0.000000  0.250000      2.000000
  0.000000  0.250000  0.250000      2.000000
  0.250000  0.250000  0.250000      2.000000
  0.500000  0.250000  0.250000      2.000000
 -0.250000  0.250000  0.250000      2.000000
  0.000000  0.500000  0.250000      2.000000
  0.250000  0.500000  0.250000      2.000000
  0.500000  0.500000  0.250000      2.000000
 -0.250000  0.500000  0.250000      2.000000
  0.000000 -0.250000  0.250000      2.000000
  0.250000 -0.250000  0.250000      2.000000
  0.500000 -0.250000  0.250000      2.000000
 -0.250000 -0.250000  0.250000      2.000000
  0.000000  0.000000  0.500000      1.000000
  0.250000  0.000000  0.500000      2.000000
  0.500000  0.000000  0.500000      1.000000
  0.000000  0.250000  0.500000      2.000000
  0.250000  0.250000  0.500000      2.000000
  0.500000  0.250000  0.500000      2.000000
 -0.250000  0.250000  0.500000      2.000000
  0.000000  0.500000  0.500000      1.000000
  0.250000  0.500000  0.500000      2.000000
  0.500000  0.500000  0.500000      1.000000

 Following cartesian coordinates:
            Coordinates               Weight
  0.000000  0.000000  0.000000      1.000000
  0.029980  0.000000  0.000000      2.000000
  0.059959  0.000000  0.000000      1.000000
  0.000000  0.029980  0.000000      2.000000
  0.029980  0.029980  0.000000      2.000000
  0.059959  0.029980  0.000000      2.000000
 -0.029980  0.029980  0.000000      2.000000
  0.000000  0.059959  0.000000      1.000000
  0.029980  0.059959  0.000000      2.000000
  0.059959  0.059959  0.000000      1.000000
  0.000000  0.000000  0.029980      2.000000
  0.029980  0.000000  0.029980      2.000000
  0.059959  0.000000  0.029980      2.000000
 -0.029980  0.000000  0.029980      2.000000
  0.000000  0.029980  0.029980      2.000000
  0.029980  0.029980  0.029980      2.000000
  0.059959  0.029980  0.029980      2.000000
 -0.029980  0.029980  0.029980      2.000000
  0.000000  0.059959  0.029980      2.000000
  0.029980  0.059959  0.029980      2.000000
  0.059959  0.059959  0.029980      2.000000
 -0.029980  0.059959  0.029980      2.000000
  0.000000 -0.029980  0.029980      2.000000
  0.029980 -0.029980  0.029980      2.000000
  0.059959 -0.029980  0.029980      2.000000
 -0.029980 -0.029980  0.029980      2.000000
  0.000000  0.000000  0.059959      1.000000
  0.029980  0.000000  0.059959      2.000000
  0.059959  0.000000  0.059959      1.000000
  0.000000  0.029980  0.059959      2.000000
  0.029980  0.029980  0.059959      2.000000
  0.059959  0.029980  0.059959      2.000000
 -0.029980  0.029980  0.059959      2.000000
  0.000000  0.059959  0.059959      1.000000
  0.029980  0.059959  0.059959      2.000000
  0.059959  0.059959  0.059959      1.000000

 SYSTEM =  unknown system
 POSCAR =  NiO2_Fd-3m_scale_1_050_disp_0_20_round_2

 Startparameter for this run:
[...]
  Alpha Z   945.17957   945.17957   945.17957
  Ewald   -5792.76786 -5205.05025 -5687.19661 -1260.58279  -910.28125  -109.50413
  Hartree  4633.60238  4803.77718  4666.67538  -788.27765  -525.98811  -172.31953
  E(xc)   -1803.66671 -1804.83088 -1804.42120     0.37600     0.46074    -0.42248
  Local   -5578.30821 -6290.41030 -5712.77915  1974.40539  1372.41360   314.59043
  n-local  -694.55891  -667.84662  -693.81548   -24.49450   -19.15760    12.16642
  augment  2981.91642  2967.68639  2983.51731    29.11563    27.07586   -13.05181
  Kinetic  5431.79639  5433.23558  5434.12334    17.64135    19.59071    -5.84893
  Fock        0.00000     0.00000     0.00000     0.00000     0.00000     0.00000
  Total      123.1930841    181.7406715    131.2831638    -51.8165575    -35.8860526     25.6099820
  in kB      340.3748087    502.1381417    362.7271945   -143.1659170    -99.1509253     70.7587831

 VOLUME and BASIS-vectors are now :
  energy-cutoff  :      500.00
  volume of cell :      579.88
      direct lattice vectors                 reciprocal lattice vectors
     8.338984500  0.000000000  0.000000000     0.119918678  0.000000000  0.000000000
     0.000000000  8.338984500  0.000000000     0.000000000  0.119918678  0.000000000
     0.000000000  0.000000000  8.338984500     0.000000000  0.000000000  0.119918678

  length of vectors
     8.338984500  8.338984500  8.338984500     0.119918678  0.119918678  0.119918678

 FORCES acting on ions
    electron-ion (+dipol)            ewald-force                    non-local-force                 convergence-correction
   0.281E+03 -.113E+03 0.294E+03   -.280E+03 0.110E+03 -.303E+03   -.234E+01 0.233E+01 0.530E+01   -.652E-02 -.114E-01 -.596E-01
   -.136E+03 -.299E+03 0.305E+03   0.146E+03 0.310E+03 -.330E+03   -.318E+01 -.125E+01 0.390E+01   -.226E-01 -.311E-01 -.155E-01
   -.120E+03 0.634E+02 0.176E+03   0.211E+03 -.101E+03 -.166E+03   -.406E+01 0.272E+00 0.148E+01   -.460E-01 0.269E-01 -.193E-01
   0.258E+03 -.204E+03 -.106E+02   -.265E+03 0.209E+03 0.104E+02   0.329E+01 -.214E+01 -.260E+01   0.244E-02 -.174E-01 -.176E-01
   0.281E+03 0.290E+03 0.652E+02   -.285E+03 -.291E+03 -.755E+02   0.316E+01 -.531E+00 0.307E+01   -.228E-02 0.867E-02 0.167E-01
   -.126E+03 0.340E+02 -.188E+03   0.127E+03 -.339E+02 0.195E+03   -.191E+01 0.185E+01 -.269E+01   -.493E-01 0.396E-02 0.413E-01
   -.588E+02 0.230E+03 -.249E+03   0.575E+02 -.234E+03 0.253E+03   -.244E+01 0.182E+01 -.106E+01   -.959E-02 -.168E-01 0.590E-02
   0.317E+03 -.677E+02 -.386E+03   -.317E+03 0.846E+02 0.392E+03   -.222E+01 -.456E+01 -.187E+01   -.600E-02 0.842E-01 0.594E-02
   0.340E+03 0.479E+02 0.420E+03   -.349E+03 -.514E+02 -.453E+03   0.138E+01 0.319E+01 0.747E+01   -.121E-01 0.175E-01 0.232E-01
   -.209E+03 -.157E+03 0.374E+02   0.213E+03 0.159E+03 -.407E+02   -.222E+01 -.215E+01 0.133E+01   0.749E-02 0.578E-02 -.242E-02
   -.247E+03 -.135E+03 -.293E+03   0.258E+03 0.185E+03 0.309E+03   -.547E+01 -.451E+01 -.293E+01   0.549E-01 -.133E-01 0.634E-02
   0.759E+02 -.263E+03 -.382E+03   -.802E+02 0.272E+03 0.392E+03   0.147E+01 -.642E+01 -.254E+01   -.293E-01 0.395E-02 0.305E-02
   -.302E+02 0.186E+03 0.195E+03   0.308E+02 -.188E+03 -.195E+03   0.158E+01 0.267E+01 -.737E+00   -.434E-02 -.260E-01 -.286E-01
   -.277E+03 0.486E+02 0.139E+03   0.281E+03 -.518E+02 -.138E+03   0.375E+00 0.466E+00 -.215E+01   0.496E-01 0.224E-01 -.494E-01
   -.397E+03 0.461E+03 0.316E+02   0.406E+03 -.469E+03 -.303E+02   -.146E+01 0.121E+00 -.841E+00   0.351E-01 -.524E-01 0.670E-02
   0.630E+02 0.759E+02 0.818E+02   -.634E+02 -.967E+02 -.772E+02   -.237E+00 0.274E+01 -.301E+00   -.248E-01 0.117E-01 -.122E-01
   -.272E+03 0.319E+03 0.268E+03   0.283E+03 -.334E+03 -.281E+03   -.107E+02 0.138E+02 0.147E+02   0.179E-01 -.892E-02 -.170E-01
   -.183E+03 -.158E+03 -.288E+03   0.190E+03 0.140E+03 0.329E+03   -.922E+01 0.130E+02 -.208E+02   -.870E-02 -.629E-02 -.116E-01
   0.315E+03 -.773E+02 -.199E+02   -.337E+03 0.860E+02 0.211E+02   0.223E+02 -.102E+02 -.117E+01   -.196E-01 -.539E-02 -.169E-01
   -.794E+02 -.110E+02 0.264E+03   0.861E+02 0.139E+02 -.277E+03   -.809E+01 -.353E+01 0.133E+02   0.109E-02 -.135E-02 0.619E-02
   0.149E+03 0.354E+03 0.230E+03   -.149E+03 -.392E+03 -.245E+03   0.270E+01 0.214E+02 0.953E+01   -.454E-01 0.709E-02 0.188E-03
   -.284E+02 0.227E+03 -.978E+02   0.301E+02 -.243E+03 0.104E+03   -.220E+01 0.151E+02 -.684E+01   0.143E-01 0.377E-01 -.213E-01
   0.224E+03 0.341E+03 -.174E+03   -.247E+03 -.350E+03 0.191E+03   0.181E+02 0.610E+01 -.161E+02   -.278E-02 -.346E-01 0.674E-02
   0.303E+03 -.234E+03 0.294E+03   -.320E+03 0.246E+03 -.309E+03   0.174E+02 -.142E+02 0.158E+02   0.155E-02 -.279E-01 -.132E-01
   -.356E+03 0.572E+02 0.314E+03   0.377E+03 -.595E+02 -.337E+03   -.171E+02 0.305E+01 0.158E+02   0.200E-01 -.101E-01 0.209E-01
   -.209E+03 -.198E+03 -.320E+03   0.224E+03 0.215E+03 0.339E+03   -.124E+02 -.172E+02 -.195E+02   -.244E-01 0.195E-01 0.820E-02
   0.713E+02 -.357E+03 -.393E+03   -.715E+02 0.377E+03 0.434E+03   0.327E+01 -.144E+02 -.257E+02   -.277E-01 0.179E-01 0.237E-01
   -.381E+02 -.324E+03 0.369E+02   0.410E+02 0.339E+03 -.434E+02   -.366E+01 -.156E+02 0.803E+01   0.341E-02 0.747E-02 0.154E-01
   0.258E+03 0.143E+03 -.788E+01   -.272E+03 -.151E+03 0.896E+01   0.165E+02 0.100E+02 -.171E+01   -.112E-01 -.573E-02 0.257E-02
   -.808E+02 0.638E+02 -.270E+03   0.890E+02 -.672E+02 0.294E+03   -.971E+01 0.433E+01 -.210E+02   0.781E-02 -.548E-02 0.965E-02
   0.289E+03 0.146E+03 -.388E+03   -.310E+03 -.162E+03 0.439E+03   0.156E+02 0.783E+01 -.259E+02   -.156E-03 -.259E-02 0.971E-02
   0.271E+03 -.216E+03 0.189E+03   -.280E+03 0.235E+03 -.206E+03   0.881E+01 -.197E+02 0.163E+02   -.737E-02 0.183E-01 0.240E-01
   -.938E+02 0.360E+03 0.275E+03   0.970E+02 -.379E+03 -.299E+03   -.277E+01 0.183E+02 0.214E+02   -.855E-02 -.130E-01 0.244E-01
   -.316E+03 -.298E+03 -.297E+03   0.331E+03 0.306E+03 0.309E+03   -.138E+02 -.456E+01 -.111E+02   0.162E-01 -.141E-01 0.122E-01
   0.100E+03 0.892E+01 -.182E+03   -.112E+03 -.139E+01 0.193E+03   0.128E+02 -.914E+01 -.992E+01   0.138E-01 -.412E-02 0.149E-01
   -.312E+03 -.547E+02 -.162E+02   0.339E+03 0.600E+02 0.173E+02   -.228E+02 -.633E+01 0.715E+00   -.184E-01 -.411E-02 -.747E-02
   0.332E+01 0.550E+03 0.101E+03   -.515E+01 -.635E+03 -.121E+03   0.339E+01 0.363E+02 0.129E+02   0.222E-01 0.184E-01 0.515E-02
   -.216E+03 0.135E+03 -.307E+03   0.231E+03 -.143E+03 0.329E+03   -.161E+02 0.662E+01 -.173E+02   0.269E-02 -.278E-02 0.442E-01
   0.197E+03 0.421E+03 -.348E+03   -.198E+03 -.453E+03 0.368E+03   0.452E+00 0.226E+02 -.158E+02   0.563E-02 -.405E-02 -.139E-02
   0.148E+03 -.321E+03 0.344E+03   -.158E+03 0.348E+03 -.373E+03   0.111E+02 -.199E+02 0.233E+02   -.102E-01 0.217E-02 0.631E-02
   -.218E+03 0.811E+02 0.283E+03   0.237E+03 -.863E+02 -.292E+03   -.199E+02 0.538E+01 0.870E+01   -.422E-01 0.912E-02 -.223E-01
   -.338E+03 -.263E+03 -.177E+03   0.350E+03 0.292E+03 0.190E+03   -.967E+01 -.226E+02 -.115E+02   0.412E-01 -.679E-03 0.988E-02
   -.308E+02 -.377E+03 -.131E+03   0.317E+02 0.407E+03 0.140E+03   -.465E+00 -.266E+02 -.967E+01   0.316E-01 0.123E-01 -.220E-01
   -.187E+03 -.512E+03 0.143E+03   0.198E+03 0.563E+03 -.154E+03   -.976E+01 -.307E+02 0.884E+01   -.346E-02 0.523E-01 -.114E-01
   0.810E+02 0.286E+02 0.153E+03   -.876E+02 -.319E+02 -.161E+03   0.832E+01 0.452E+01 0.998E+01   0.101E-01 -.214E-02 -.913E-02
   -.250E+03 0.132E+03 -.396E+01   0.268E+03 -.145E+03 0.253E+01   -.185E+02 0.149E+02 0.127E+01   -.756E-02 -.125E-01 -.778E-02
   0.616E+03 -.685E+02 0.929E+01   -.746E+03 0.128E+03 -.351E+02   0.340E+02 -.139E+02 -.101E+01   -.142E-01 0.695E-02 -.268E-01
   0.184E+03 -.671E+02 0.301E+03   -.200E+03 0.630E+02 -.315E+03   0.108E+02 0.395E+01 0.753E+01   -.288E-02 0.296E-02 -.424E-01
   0.158E+02 0.274E+02 0.221E+02   0.938E-12 0.838E-12 -.227E-12   -.157E+02 -.274E+02 -.220E+02   -.109E+00 0.631E-01 -.817E-01

 POSITION                                       TOTAL-FORCE (eV/Angst)
      1.27370      5.00791      0.96367        -1.605775     -0.405913     -3.435546
      3.00285      7.07036      1.47729         6.663018     10.324177    -21.516307
      2.59489      4.47918      3.10747        87.782889    -37.574229     12.274612
      1.03304      6.91781      3.13262        -4.621475      2.581319     -2.802655
      0.72121      1.13308      5.17435        -1.157539     -1.698071     -7.144365
      3.03219      2.78404      5.17326        -0.791295      1.986066      4.116493
      3.22204      0.98240      6.72750        -3.748840     -2.580229      2.719603
      1.05900      2.70586      6.97191        -1.895799     12.426584      4.147960
      5.07568      5.35529      5.37639        -7.507342     -0.222681    -25.774042
      7.06535      7.14936      5.07124         2.013048     -0.440999     -1.967342
      6.76434      4.43138      7.10651         5.156427     45.023789     12.408981
      5.06325      7.00106      6.77050        -2.841001      2.660944      7.451112
      4.76852      0.78529      1.07409         2.197460      0.402433     -0.630439
      6.81542      3.09878      0.86978         4.405636     -2.778543     -1.149220
      6.77148      1.25099      2.83866         7.291389     -8.125255      0.416393
      4.81597      3.16829      2.99798        -0.625512    -18.022274      4.308477
      6.75655      1.25376      0.87348         0.254215     -1.006919      1.056031
      2.65595      6.48552      2.67087        -1.322152     -5.075209     20.353325
      3.07436      1.00203      1.10050        -0.050733     -1.538068     -0.029009
      0.65756      0.98376      3.24945        -1.397784     -0.576642      0.778794
      2.97301      3.15916      3.63046         2.696801    -16.301333     -5.377102
      0.72761      3.28943      0.75192        -0.550530     -0.656178     -0.914997
      5.14810      1.23963      2.84234        -4.948181     -2.938099      0.672966
      1.21194      7.14144      1.12895        -0.006904     -2.128593      0.908643
      6.84259      5.02798      5.51809         4.192534      0.802630     -7.094025
      2.84428      2.91727      7.03656         1.873407     -0.701469     -0.312811
      2.83330      4.61522      4.59102         3.001327      5.340498     14.544627
      1.04880      4.59804      7.03349        -0.720855     -0.744863      1.537924
      3.11422      7.21826      6.97776         2.190446      1.725620     -0.616051
      0.67590      7.03832      4.74476        -1.515219      0.975577      2.605849
      5.34011      4.97869      6.64003        -5.567528     -7.982847     25.619578
      1.00727      3.04378      5.16830         0.161445     -1.233924     -0.006283
      2.63482      1.02574      5.13651         0.419197     -0.476239     -2.861635
      6.84464      6.32591      7.07700         1.107512      3.826102      0.946751
      7.10676      0.95952      4.77968         0.765461     -1.624490      0.305514
      4.76674      0.69928      7.02657         4.056269     -0.993992      1.792741
      6.77435      3.20631      6.89377         1.583021    -48.840958     -7.107264
      4.90991      2.92407      4.61974        -0.632951     -0.496633      4.879400
      1.31233      1.21587      6.73906         0.075616     -9.245473      3.783248
      5.26377      6.90858      5.15877         1.054100      7.150909     -6.248603
      3.08158      4.90874      0.97618        -0.683403      0.160145     -0.101044
      6.68350      2.76320      3.20146         1.839653      6.459111      1.752170
      6.95611      4.69782      0.86435         0.476830      3.503096     -0.782790
      4.96874      4.53571      2.77434         1.316201     20.419146     -2.239136
      7.12927      6.76187      2.69223         1.658805      1.246763      2.178993
      4.76683      7.15528      1.05749        -0.610511      1.913735     -0.169858
      1.64852      4.97209      2.83832       -96.444763     45.700917    -26.795867
      5.35864      2.77200      1.49232        -4.986618     -0.219438     -6.483793
    total drift:                               -0.021930     -0.008510     -0.028829

  FREE ENERGIE OF THE ION-ELECTRON SYSTEM (eV)
  free  energy   TOTEN  =      -215.3130024860 eV

  energy  without entropy=     -215.2634827604  energy(sigma->0) =     -215.28824262

volume of typ            1:    17.6 %

volume of typ            2:     9.0 %

total charge

# of ion       s       p       d       tot
    1        0.253   0.263   7.869   8.386
    2        0.400   0.505   7.991   8.895
    3        0.662   1.112   8.463  10.238
    4        0.283   0.338   7.892   8.513
    5        0.276   0.353   7.869   8.499
    6        0.321   0.458   7.918   8.697
    7        0.329   0.425   7.887   8.641
    8        0.326   0.465   7.926   8.716
    9        0.424   0.622   8.177   9.224
   10        0.209   0.221   7.876   8.306
   11        0.506   0.816   8.164   9.486
   12        0.281   0.335   7.934   8.550
   13        0.268   0.307   7.841   8.416
   14        0.343   0.440   7.926   8.709
   15        0.342   0.428   7.906   8.676
   16        0.450   0.701   8.020   9.171
   17        1.284   2.703   0.006   3.993
   18        1.315   2.879   0.035   4.230
   19        1.298   2.652   0.006   3.956
   20        1.299   2.610   0.003   3.913
   21        1.297   2.911   0.031   4.239
   22        1.288   2.659   0.004   3.951
   23        1.292   2.765   0.013   4.071
   24        1.293   2.670   0.006   3.970
   25        1.312   2.716   0.013   4.040
   26        1.292   2.704   0.009   4.004
   27        1.301   2.788   0.019   4.109
   28        1.304   2.608   0.003   3.915
   29        1.300   2.608   0.003   3.911
   30        1.285   2.705   0.009   3.998
   31        1.310   2.921   0.043   4.275
   32        1.298   2.676   0.007   3.982
   33        1.288   2.751   0.013   4.052
   34        1.294   2.693   0.007   3.994
   35        1.292   2.643   0.004   3.938
   36        1.290   2.718   0.010   4.018
   37        1.331   2.880   0.039   4.250
   38        1.300   2.718   0.010   4.028
   39        1.281   2.861   0.022   4.164
   40        1.278   2.846   0.024   4.147
   41        1.302   2.648   0.006   3.955
   42        1.312   2.725   0.015   4.051
   43        1.301   2.689   0.010   4.000
   44        1.314   2.784   0.023   4.121
   45        1.311   2.543   0.001   3.856
   46        1.291   2.661   0.005   3.957
   47        1.356   3.022   0.067   4.445
   48        1.289   2.826   0.018   4.133
tot          47.27   95.38  128.14  270.79

magnetization (x)

# of ion       s       p       d       tot
    1        0.002  -0.007  -0.329  -0.334
    2       -0.009  -0.003  -0.447  -0.460
    3        0.001   0.002   0.005   0.008
    4        0.001  -0.003   0.328   0.326
    5       -0.003  -0.006  -0.141  -0.150
    6        0.001   0.002  -0.053  -0.050
    7        0.002   0.003   0.237   0.242
    8        0.002  -0.003  -0.254  -0.256
    9       -0.003   0.005   0.012   0.013
   10       -0.004  -0.002   0.063   0.058
   11       -0.005  -0.007   0.290   0.278
   12       -0.002   0.003   0.286   0.287
   13        0.001   0.000   0.101   0.103
   14        0.003  -0.000   0.480   0.483
   15       -0.002  -0.006   0.013   0.005
   16        0.002   0.003   0.450   0.455
   17       -0.000  -0.020   0.000  -0.021
   18       -0.003  -0.107  -0.000  -0.111
   19        0.003   0.190  -0.000   0.193
   20        0.008   0.391  -0.000   0.399
   21        0.001   0.022   0.000   0.023
   22       -0.001  -0.040  -0.000  -0.041
   23        0.000   0.002   0.000   0.002
   24       -0.001  -0.014  -0.000  -0.014
   25        0.014   0.268   0.000   0.282
   26       -0.002  -0.055  -0.000  -0.057
   27       -0.000  -0.009  -0.000  -0.009
   28       -0.004  -0.217   0.000  -0.221
   29        0.002   0.081   0.000   0.083
   30        0.003   0.177  -0.000   0.180
   31        0.004   0.025   0.000   0.029
   32       -0.003  -0.132  -0.000  -0.135
   33       -0.001  -0.035   0.000  -0.036
   34        0.006   0.266  -0.000   0.271
   35        0.003   0.163  -0.000   0.166
   36        0.006   0.251   0.000   0.257
   37        0.003   0.167   0.001   0.171
   38        0.002   0.031   0.000   0.033
   39       -0.000  -0.060   0.000  -0.060
   40        0.000   0.009   0.000   0.009
   41       -0.008  -0.385   0.000  -0.393
   42        0.005   0.201  -0.000   0.206
   43        0.006   0.322  -0.000   0.328
   44        0.006   0.293   0.000   0.299
   45        0.002   0.128  -0.000   0.130
   46       -0.003  -0.147   0.000  -0.150
   47       -0.000  -0.007   0.000  -0.007
   48        0.008   0.208   0.000   0.216
tot           0.04    1.95    1.04    3.03