 vasp.5.4.4.18Apr17-6-g9f103f2a35 (build May 12 2020 04:58:55) complex

 MD_VERSION_INFO: Compiled 2020-05-12T11:58:55-UTC in devlin.sd.materialsdesign.
 com:/home/medea2/data/build/wwolf/vasp-gpu5.4.4/13047/x86_64/src/src/build/std
 from svn 13047

 executed on                        Lin64 date 2023.03.24  21:43:21

 INCAR:
 POTCAR:    PAW_PBE Ni 02Aug2007
 POTCAR:    PAW_PBE O 08Apr2002

 POTCAR:    PAW_PBE Ni 02Aug2007

 POTCAR:    PAW_PBE O 08Apr2002

 Optimization of the real space projectors (new method)

 maximal supplied QI-value         = 16.25
 optimisation between [QCUT,QGAM] = [ 11.38, 22.75] = [ 36.24,144.96] Ry
 Optimized for a Real-space Cutoff    1.47 Angstroem

   l    n(q)    QCUT    max X(q) W(low)/X(q) W(high)/X(q)  e(spline)
   2      9    11.376    60.317    0.17E-03    0.16E-04    0.16E-06
   2      9    11.376    55.921    0.17E-03    0.16E-04    0.17E-06
   0     10    11.376    51.690    0.45E-04    0.60E-04    0.21E-06
   0     10    11.376    30.015    0.37E-04    0.55E-04    0.19E-06
   1     10    11.376    18.849    0.83E-04    0.11E-03    0.92E-07
   1     10    11.376    14.624    0.69E-04    0.92E-04    0.82E-07
 Optimization of the real space projectors (new method)

 maximal supplied QI-value         = 24.76
 optimisation between [QCUT,QGAM] = [ 11.39, 22.77] = [ 36.31,145.25] Ry
 Optimized for a Real-space Cutoff    1.10 Angstroem

   l    n(q)    QCUT    max X(q) W(low)/X(q) W(high)/X(q)  e(spline)
   0      7    11.387    20.381    0.22E-03    0.48E-03    0.18E-06
   0      7    11.387    15.268    0.22E-03    0.52E-03    0.19E-06
   1      7    11.387     5.964    0.22E-03    0.73E-03    0.24E-06
   1      7    11.387     5.382    0.19E-03    0.60E-03    0.21E-06

  PAW_PBE Ni 02Aug2007                  :
  PAW_PBE O 08Apr2002                   :

 POSCAR: NiO2_C2_m_scale_1_050_disp_0_20_round_1
  positions in direct lattice
 exchange correlation table for  LEXCH =       14
   RHO(1)=    0.500       N(1)  =     2000
   RHO(2)=  100.500       N(2)  =     4000

 ion  position               nearest neighbor table
   1  0.952  0.989  0.984-  19 1.89  46 2.00  51 2.02  54 2.25  22 2.33  27 2.51  13 2.73   9 2.77
                             7 2.78   3 2.96
   2  0.017  0.001  0.452-  29 1.97  20 2.00  21 2.03  44 2.22  52 2.36   8 2.50   4 2.80  10 3.00

   3  0.018  0.352  0.024-  23 1.55  19 2.01  43 2.24  26 2.32  46 2.44  11 2.59   9 2.60   5 2.74
                             1 2.96
   4  0.026  0.325  0.443-  24 1.67  21 1.94  44 2.02  25 2.04  48 2.21   6 2.50  10 2.62   2 2.80
                            12 3.03
   5  0.027  0.668  0.016-  23 1.82  27 1.91  30 2.15  47 2.16  50 2.36  11 2.69   3 2.74   7 2.96

   6  0.947  0.556  0.496-  25 1.77  48 1.84  49 1.89  28 2.18  29 2.24  16 2.37   4 2.50  18 2.90
                            12 3.07
   7  0.288  0.048  0.038-  31 1.48  27 1.66  22 1.97   9 2.23   1 2.78  15 2.80   5 2.96
   8  0.305  0.038  0.529-  33 1.70  29 1.88  20 1.99   2 2.50  10 2.72  16 2.88  14 2.96
   9  0.277  0.292  0.998-  31 1.89  19 1.96  35 1.98  26 2.00  22 2.11  38 2.18   7 2.23   3 2.60
                             1 2.77  17 2.83  15 2.86  11 2.92
  10  0.336  0.358  0.486-  37 1.76  36 1.88  24 2.05  20 2.08  21 2.12  33 2.16   4 2.62   8 2.72
                            18 2.75  16 2.82  12 2.84   2 3.00
  11  0.318  0.641  0.025-  35 1.49  23 1.83  39 1.84  30 2.08  42 2.47   3 2.59   5 2.69  17 2.80
                             9 2.92  13 2.92
  12  0.343  0.684  0.498-  41 1.15  40 1.69  28 1.90  25 2.20  37 2.24  24 2.36  10 2.84  14 2.87
                             4 3.03  18 3.07   6 3.07
  13  0.640  0.984  0.015-  46 1.78  43 1.91  39 1.95  51 2.05  34 2.30   1 2.73  11 2.92
  14  0.639  0.032  0.522-  45 1.43  41 1.82  32 1.93  44 1.93  40 2.44  16 2.68  12 2.87   8 2.96

  15  0.622  0.335  0.983-  31 1.88  50 1.94  34 2.00  43 2.13  47 2.16  38 2.31  17 2.37   7 2.80
                             9 2.86
  16  0.647  0.338  0.479-  36 1.69  49 1.86  33 2.02  45 2.17  32 2.29  48 2.31   6 2.37  18 2.61
                            14 2.68  10 2.82   8 2.88
  17  0.612  0.598  0.003-  51 1.78  38 1.96  47 2.00  42 2.07  35 2.11  15 2.37  11 2.80   9 2.83

  18  0.671  0.645  0.494-  53 1.38  49 1.65  52 1.74  36 2.01  37 2.18  40 2.22  16 2.61  10 2.75
                             6 2.90  12 3.07
  19  0.066  0.174  0.113-   1 1.89   9 1.96   3 2.01
  20  0.253  0.137  0.363-   8 1.99   2 2.00  10 2.08
  21  0.088  0.207  0.582-   4 1.94   2 2.03  10 2.12
  22  0.208  0.083  0.858-   7 1.97   9 2.11   1 2.33
  23  0.099  0.531  0.101-   3 1.55   5 1.82  11 1.83
  24  0.210  0.438  0.352-   4 1.67  10 2.05  12 2.36
  25  0.087  0.508  0.595-   6 1.77   4 2.04  12 2.20
  26  0.205  0.390  0.842-   9 2.00   3 2.32
  27  0.123  0.881  0.119-   7 1.66   5 1.91   1 2.51
  28  0.190  0.731  0.389-  12 1.90   6 2.18
  29  0.078  0.842  0.548-   8 1.88   2 1.97   6 2.24
  30  0.219  0.715  0.860-  11 2.08   5 2.15
  31  0.419  0.221  0.094-   7 1.48  15 1.88   9 1.89
  32  0.575  0.092  0.350-  14 1.93  16 2.29
  33  0.442  0.228  0.612-   8 1.70  16 2.02  10 2.16
  34  0.562  0.130  0.860-  15 2.00  13 2.30
  35  0.366  0.519  0.094-  11 1.49   9 1.98  17 2.11
  36  0.543  0.421  0.386-  16 1.69  10 1.88  18 2.01
  37  0.429  0.521  0.614-  10 1.76  18 2.18  12 2.24
  38  0.483  0.445  0.848-  17 1.96   9 2.18  15 2.31
  39  0.444  0.835  0.135-  11 1.84  13 1.95
  40  0.521  0.757  0.395-  12 1.69  41 1.84  18 2.22  14 2.44
  41  0.434  0.824  0.540-  12 1.15  14 1.82  40 1.84
  42  0.546  0.714  0.847-  17 2.07  11 2.47
  43  0.739  0.212  0.097-  13 1.91  15 2.13   3 2.24
  44  0.826  0.085  0.392-  14 1.93   4 2.02   2 2.22
  45  0.730  0.188  0.605-  14 1.43  16 2.17
  46  0.815  0.089  0.895-  13 1.78   1 2.00   3 2.44
  47  0.775  0.555  0.118-  17 2.00   5 2.16  15 2.16
  48  0.884  0.436  0.332-   6 1.84   4 2.21  16 2.31
  49  0.749  0.540  0.585-  18 1.65  16 1.86   6 1.89
  50  0.826  0.449  0.864-  15 1.94   5 2.36
  51  0.724  0.813  0.074-  17 1.78   1 2.02  13 2.05
  52  0.825  0.719  0.362-  18 1.74   2 2.36
  53  0.703  0.773  0.590-  18 1.38
  54  0.871  0.780  0.822-   1 2.25

  LATTYP: Found a hexagonal cell.
 ALAT       =     8.7810134983
 C/A-ratio  =     1.1065328053

  Lattice vectors:

 A1 = (   8.7810135000,   0.0000000000,   0.0000000000)
 A2 = (  -4.3905067500,   7.6045807600,   0.0000000000)
 A3 = (   0.0000000000,   0.0000000000,   9.7164795000)

Analysis of symmetry for initial positions (statically):
 Subroutine PRICEL returns:
 Original cell was already a primitive cell.

 Routine SETGRP: Setting up the symmetry group for a
 hexagonal supercell.

 Subroutine GETGRP returns: Found  1 space group operations
 (whereof  1 operations were pure point group operations)
 out of a pool of 24 trial point group operations.

The static configuration has the point symmetry C_1 .

Analysis of symmetry for dynamics (positions and initial velocities):
 Subroutine PRICEL returns:
 Original cell was already a primitive cell.

[...]

The dynamic configuration has the point symmetry C_1 .

Analysis of structural, dynamic, and magnetic symmetry:
 Subroutine PRICEL returns:
 Original cell was already a primitive cell.

 Routine SETGRP: Setting up the symmetry group for a
 hexagonal supercell.

 Subroutine GETGRP returns: Found  1 space group operations
 (whereof  1 operations were pure point group operations)
 out of a pool of 24 trial point group operations.

The magnetic configuration has the point symmetry C_1 .

 Subroutine INISYM returns: Found  1 space group operations
 (whereof  1 operations are pure point group operations),
 and found     1 'primitive' translations

 KPOINTS: Automatic mesh

Automatic generation of k-mesh.
Space group operators:
 irot       det(A)        alpha          n_x          n_y          n_z        tau_x        tau_y        tau_z
    1     1.000000     0.000000     1.000000     0.000000     0.000000     0.000000     0.000000     0.000000

 Subroutine IBZKPT returns following result:

 Found     26 irreducible k-points:

 Following reciprocal coordinates:
            Coordinates               Weight
  0.000000  0.000000  0.000000      1.000000
  0.250000  0.000000  0.000000      2.000000
  0.500000  0.000000  0.000000      1.000000
  0.000000  0.250000  0.000000      2.000000
  0.250000  0.250000  0.000000      2.000000
  0.500000  0.250000  0.000000      2.000000
 -0.250000  0.250000  0.000000      2.000000
  0.000000  0.500000  0.000000      1.000000
  0.250000  0.500000  0.000000      2.000000
  0.500000  0.500000  0.000000      1.000000
  0.000000  0.000000  0.333333      2.000000
  0.250000  0.000000  0.333333      2.000000
  0.500000  0.000000  0.333333      2.000000
 -0.250000  0.000000  0.333333      2.000000
  0.000000  0.250000  0.333333      2.000000
  0.250000  0.250000  0.333333      2.000000
  0.500000  0.250000  0.333333      2.000000
 -0.250000  0.250000  0.333333      2.000000
  0.000000  0.500000  0.333333      2.000000
  0.250000  0.500000  0.333333      2.000000
  0.500000  0.500000  0.333333      2.000000
 -0.250000  0.500000  0.333333      2.000000
  0.000000 -0.250000  0.333333      2.000000
  0.250000 -0.250000  0.333333      2.000000
  0.500000 -0.250000  0.333333      2.000000
 -0.250000 -0.250000  0.333333      2.000000

 Following cartesian coordinates:
            Coordinates               Weight
  0.000000  0.000000  0.000000      1.000000
  0.028471  0.016437  0.000000      2.000000
  0.056941  0.032875  0.000000      1.000000
  0.000000  0.032875  0.000000      2.000000
  0.028471  0.049312  0.000000      2.000000
  0.056941  0.065750  0.000000      2.000000
 -0.028471  0.016437  0.000000      2.000000
  0.000000  0.065750  0.000000      1.000000
  0.028471  0.082187  0.000000      2.000000
  0.056941  0.098625  0.000000      1.000000
  0.000000  0.000000  0.034306      2.000000
  0.028471  0.016437  0.034306      2.000000
  0.056941  0.032875  0.034306      2.000000
 -0.028471 -0.016437  0.034306      2.000000
  0.000000  0.032875  0.034306      2.000000
  0.028471  0.049312  0.034306      2.000000
  0.056941  0.065750  0.034306      2.000000
 -0.028471  0.016437  0.034306      2.000000
  0.000000  0.065750  0.034306      2.000000
  0.028471  0.082187  0.034306      2.000000
  0.056941  0.098625  0.034306      2.000000
 -0.028471  0.049312  0.034306      2.000000
  0.000000 -0.032875  0.034306      2.000000
  0.028471 -0.016437  0.034306      2.000000
  0.056941  0.000000  0.034306      2.000000
 -0.028471 -0.049312  0.034306      2.000000

 SYSTEM =  unknown system
 POSCAR =  NiO2_C2_m_scale_1_050_disp_0_20_round_1

 Startparameter for this run:
   NWRITE =      1    write-flag & timer
   PREC   = accura    normal or accurate (medium, high low for compatibility)
   ISTART =      0    job   : 0-new  1-cont  2-samecut
   ICHARG =      2    charge: 1-file 2-atom 10-const
   ISPIN  =      2    spin polarized calculation?
   LNONCOLLINEAR =      F non collinear calculations
   LSORBIT =      F    spin-orbit coupling
   INIWAV =      1    electr: 0-lowe 1-rand  2-diag
   LASPH  =      F    aspherical Exc in radial PAW
[...]
   0.185E+03 0.193E+03 0.185E+03   -.187E+03 -.203E+03 -.186E+03   0.767E+00 0.213E+01 -.216E+01   -.810E-02 0.368E-01 0.303E-01
   0.132E+03 0.159E+03 0.160E+02   -.133E+03 -.162E+03 -.155E+02   -.220E+01 0.758E+00 0.110E+01   0.348E-01 0.357E-01 -.149E-01
   0.143E+03 -.109E+03 0.168E+03   -.145E+03 0.110E+03 -.168E+03   0.226E+00 -.782E+00 -.151E+01   0.271E-01 -.133E-02 -.949E-02
   -.326E+02 -.179E+03 -.155E+03   0.352E+02 0.184E+03 0.154E+03   -.247E+01 -.130E+01 -.630E+00   0.299E-01 -.293E-01 0.635E-03
   -.193E+03 0.342E+03 0.703E+02   0.192E+03 -.357E+03 -.760E+02   -.195E+00 0.477E+01 0.107E+00   0.201E-02 -.299E-01 0.167E-01
   -.771E+02 0.251E+03 -.191E+03   0.744E+02 -.251E+03 0.190E+03   0.121E+01 -.160E+01 0.114E+00   0.103E-01 -.353E-02 -.203E-02
   0.471E+02 0.276E+02 0.852E+02   -.509E+02 -.246E+02 -.888E+02   0.250E+01 -.419E+00 0.999E+00   -.667E-02 -.177E-03 0.554E-01
   0.978E+02 0.105E+03 -.166E+02   -.977E+02 -.106E+03 0.161E+02   0.774E-01 -.181E+01 -.443E+00   -.448E-01 0.429E-01 -.300E-01
   0.993E+02 -.295E+03 0.204E+03   -.106E+03 0.308E+03 -.210E+03   0.273E+00 -.454E+01 -.895E+00   -.390E-01 0.237E-01 0.242E-01
   0.205E+03 0.292E+03 -.822E+02   -.223E+03 -.374E+03 0.528E+02   0.212E+01 0.725E+01 0.167E+01   -.843E-02 -.430E-01 -.138E-01
   0.121E+03 0.476E+02 0.334E+02   -.122E+03 -.457E+02 -.311E+02   0.420E+00 -.212E+01 -.202E+01   -.259E-01 -.207E-01 0.145E-01
   -.872E+02 0.162E+03 -.186E+03   0.892E+02 -.172E+03 0.173E+03   -.219E+01 -.110E+01 0.356E+01   0.153E-01 -.158E-01 -.200E-02
   -.139E+03 0.262E+02 0.836E+02   0.146E+03 -.273E+02 -.862E+02   -.363E+01 0.546E+00 0.194E+01   0.201E-01 0.326E-02 0.524E-03
   -.156E+03 0.205E+03 0.236E+02   0.155E+03 -.208E+03 -.235E+02   0.298E+01 -.488E-02 0.135E+01   0.314E-02 0.342E-01 -.978E-02
   -.129E+03 -.928E+02 -.132E+02   0.130E+03 0.968E+02 0.127E+02   -.736E+00 -.193E+01 -.103E+01   -.151E-02 0.110E-01 0.139E-01
   0.283E+02 -.115E+03 0.133E+03   -.274E+02 0.101E+03 -.153E+03   -.126E+01 0.201E+01 0.442E+01   -.139E-01 -.208E-01 -.268E-02
   0.662E+02 0.948E+02 -.265E+03   -.666E+02 -.973E+02 0.289E+03   0.393E+00 0.310E+01 -.261E+02   0.444E-02 0.152E-01 0.522E-02
   -.322E+02 0.829E+02 0.270E+03   0.376E+02 -.806E+02 -.291E+03   -.608E+01 -.254E+01 0.242E+02   -.152E-01 0.272E-01 -.302E-01
   0.663E+02 0.114E+03 -.351E+03   -.677E+02 -.117E+03 0.373E+03   0.210E+01 0.264E+01 -.248E+02   -.225E-01 0.321E-01 -.229E-01
   -.429E+01 0.145E+03 0.328E+03   0.481E+01 -.148E+03 -.349E+03   -.103E+01 0.278E+01 0.243E+02   0.412E-02 -.105E-01 0.233E-01
   0.103E+03 -.872E+02 -.251E+03   -.107E+03 0.966E+02 0.283E+03   0.276E+01 -.375E+01 -.293E+02   -.174E-01 0.260E-01 -.141E-01
   -.557E+02 -.651E+02 0.272E+03   0.638E+02 0.767E+02 -.296E+03   -.560E+01 -.105E+02 0.239E+02   -.186E-01 -.366E-02 0.112E-01
   -.209E+02 -.859E+01 -.391E+03   0.299E+02 0.636E+01 0.413E+03   -.823E+01 0.206E+01 -.233E+02   0.180E-01 -.103E-01 -.159E-01
   0.145E+03 0.729E+01 0.277E+03   -.148E+03 -.406E+01 -.294E+03   0.274E+01 -.361E+01 0.187E+02   -.137E-01 0.122E-01 0.120E-01
   0.635E+02 0.892E+02 -.228E+03   -.725E+02 -.965E+02 0.250E+03   0.802E+01 0.488E+01 -.228E+02   0.118E-01 -.361E-01 -.214E-01
   0.904E+02 -.127E+03 0.220E+03   -.980E+02 0.133E+03 -.235E+03   0.761E+01 -.649E+01 0.155E+02   0.255E-01 -.286E-01 -.139E-01
   0.971E+01 0.556E+02 -.237E+03   -.122E+02 -.679E+02 0.247E+03   0.282E+01 0.138E+02 -.106E+02   -.206E-02 -.313E-01 0.858E-02
   0.419E+02 -.115E+03 0.274E+03   -.416E+02 0.119E+03 -.290E+03   -.588E+00 -.397E+01 0.189E+02   -.186E-01 -.482E-02 0.275E-01
   -.143E+03 -.816E+02 -.313E+03   0.154E+03 0.104E+03 0.343E+03   -.807E+01 -.125E+02 -.266E+02   -.146E-01 0.669E-03 0.178E-02
   0.657E+02 0.421E+02 0.264E+03   -.694E+02 -.445E+02 -.282E+03   0.324E+01 0.340E+01 0.194E+02   0.387E-02 0.357E-02 -.193E-01
   -.281E+02 0.362E+02 -.352E+03   0.304E+02 -.247E+02 0.375E+03   -.207E+01 -.109E+02 -.246E+02   0.131E-01 0.383E-01 0.268E-02
   -.130E+01 0.135E+03 0.221E+03   0.160E+01 -.141E+03 -.235E+03   -.558E+00 0.639E+01 0.152E+02   0.261E-02 -.799E-02 0.821E-02
   -.137E+03 0.471E+02 -.286E+03   0.155E+03 -.623E+02 0.317E+03   -.901E+01 0.795E+01 -.259E+02   -.152E-01 0.354E-03 0.128E-01
   0.367E+02 -.235E+01 0.376E+03   -.422E+02 0.551E+01 -.405E+03   0.330E+01 -.162E+01 0.285E+02   0.507E-03 0.610E-02 0.260E-02
   0.710E+02 -.478E+02 -.326E+03   -.705E+02 0.546E+02 0.349E+03   -.113E+01 -.621E+01 -.242E+02   -.136E-01 0.975E-02 -.206E-01
   -.513E+02 0.317E+02 0.249E+03   0.492E+02 -.346E+02 -.269E+03   0.281E+01 0.219E+01 0.226E+02   0.828E-02 0.876E-02 0.844E-02
   0.593E+02 -.120E+03 -.189E+03   -.642E+02 0.125E+03 0.210E+03   0.530E+01 -.413E+01 -.234E+02   -.122E-01 -.149E-01 -.404E-02
   -.128E+03 -.893E+02 0.335E+03   0.143E+03 0.984E+02 -.360E+03   -.108E+02 -.943E+01 0.215E+02   -.158E-01 -.237E-01 -.612E-02
   0.612E+02 -.352E+03 -.372E+03   -.505E+02 0.452E+03 0.422E+03   0.522E+00 -.256E+02 -.182E+02   -.403E-02 -.470E-01 -.372E-02
   0.668E+02 -.162E+03 0.212E+03   -.695E+02 0.166E+03 -.224E+03   0.291E+01 -.467E+01 0.138E+02   -.989E-02 0.888E-02 0.429E-02
   0.276E+01 -.123E+02 -.166E+03   -.343E+01 0.184E+02 0.181E+03   0.363E+00 -.611E+01 -.164E+02   0.740E-02 0.625E-02 -.231E-02
   -.522E+02 0.968E+02 0.198E+03   0.508E+02 -.102E+03 -.214E+03   0.326E+01 0.592E+01 0.170E+02   0.175E-01 0.259E-01 -.119E-01
   -.110E+03 -.143E+03 -.404E+03   0.118E+03 0.174E+03 0.434E+03   -.774E+01 -.183E+02 -.233E+02   0.113E-01 0.274E-01 0.474E-02
   -.166E+02 -.620E+02 0.331E+03   0.170E+02 0.710E+02 -.352E+03   0.104E+01 -.916E+01 0.225E+02   -.593E-02 0.131E-02 0.714E-02
   -.495E+02 -.435E+02 -.174E+03   0.531E+02 0.440E+02 0.193E+03   -.433E+01 -.116E+01 -.216E+02   0.268E-01 0.135E-01 -.134E-01
   0.203E+02 0.306E+02 0.274E+03   -.226E+02 -.329E+02 -.296E+03   0.284E+01 0.150E+01 0.249E+02   0.221E-01 -.245E-02 -.251E-02
   -.130E+03 -.360E+02 -.412E+03   0.136E+03 0.346E+02 0.445E+03   -.260E+01 -.133E+01 -.314E+02   -.441E-02 -.106E-01 -.364E-02
   -.109E+03 -.422E+02 0.233E+03   0.115E+03 0.443E+02 -.248E+03   -.637E+01 -.212E+01 0.166E+02   0.180E-01 0.230E-01 0.138E-01
   -.524E+02 -.709E+02 -.204E+03   0.528E+02 0.750E+02 0.223E+03   -.342E+00 -.229E+01 -.196E+02   -.364E-02 -.254E-02 0.585E-02
   -.849E+02 -.144E+03 0.299E+03   0.948E+02 0.146E+03 -.319E+03   -.941E+01 -.128E+01 0.210E+02   -.726E-02 -.115E-01 -.108E-01
   0.230E+01 -.358E+03 -.385E+03   -.127E+02 0.394E+03 0.423E+03   0.682E+01 -.207E+02 -.249E+02   -.618E-02 -.124E-01 0.774E-03
   -.799E+02 -.299E+02 0.150E+03   0.806E+02 0.262E+02 -.159E+03   -.972E+00 0.454E+01 0.109E+02   0.118E-01 -.148E-01 0.132E-01
   0.269E+02 0.108E+03 0.514E+02   -.108E-11 -.998E-12 -.512E-12   -.268E+02 -.108E+03 -.514E+02   -.437E-01 0.539E-01 0.343E-01

 POSITION                                       TOTAL-FORCE (eV/Angst)
      4.01256      7.52186      9.56327         0.014548     -1.406752     -1.316515
      0.14450      0.01060      4.39059        -0.763419     -0.311344      0.101706
     -1.39008      2.67724      0.23295        -1.292719     -8.038817     -3.781613
     -1.19727      2.47187      4.30743        -3.020984     -2.351456      1.514183
     -2.70065      5.08164      0.15159        -1.442263     -0.399653     -0.953847
      5.87592      4.22500      4.82336         0.207919      3.031582     -1.098617
      2.32065      0.36264      0.36635        -1.728395    -10.372343     -5.555030
      2.51174      0.28534      5.14466        -1.426629     -1.738266     -1.163208
      1.15394      2.21843      9.70042        -1.342075      2.507799     -2.569940
      1.38219      2.72205      4.72460         0.085892     -3.182328     -0.992990
     -0.01876      4.87634      0.24067        -6.747675      7.958641     -6.557428
      0.00409      5.20518      4.83996       -16.120594    -74.863572    -27.745731
      1.30041      7.48427      0.14925        -0.538041     -0.233696      0.262111
      5.47179      0.24502      5.07569        -0.181949    -11.596667     -9.536388
      3.99238      2.54467      9.55430         3.644188     -0.484451     -0.641034
      4.19557      2.56827      4.65289         2.309981     -3.118857      1.445174
      2.75042      4.54978      0.02808         0.054354      2.127469     -1.539464
      3.05548      4.90737      4.79958        -0.374290    -11.792030    -15.669338
     -0.18483      1.32510      1.09596        -0.076722      0.571703     -2.145171
      1.62357      1.03860      3.53158        -0.758299     -0.222010      2.914520
     -0.13523      1.57617      5.65529         0.715344      0.267044     -2.745425
      1.46054      0.63478      8.33262        -0.512724      0.023954      3.312501
     -1.46191      4.03487      0.98009        -0.981686      5.694290      3.013024
     -0.07512      3.32950      3.41780         2.495491      1.073762      0.773729
     -1.46125      3.86026      5.77774         0.746021     -0.182946     -1.102709
      0.08583      2.96923      8.18245        -0.401628     -0.367323      2.227064
     -2.78987      6.70145      1.16067        -1.000833     -2.423642     -1.101585
     -1.53937      5.56088      3.78256         0.029801     -0.452972      0.844902
     -3.01105      6.40037      5.32514         0.302450      1.508906     -0.503454
     -1.21955      5.44053      8.35549        -0.325828     -0.365595      3.059311
      2.71222      1.67904      0.91165         3.088034     10.100204      3.464489
      4.64294      0.70211      3.39818        -0.497094      1.035135      1.644455
      2.87442      1.73689      5.94262         0.192949      0.669595     -1.701747
      4.36229      0.98487      8.35500        -0.256648      0.621816      1.958220
      0.92917      3.95044      0.91638         8.646782     -7.222152      4.566143
      2.91532      3.20487      3.74798        -2.228709      1.552560     -0.283660
      1.48197      3.96022      5.96564        -0.580353      0.650756     -1.541438
      2.28909      3.38050      8.23965         0.739772     -0.753750      2.894004
      0.22682      6.35247      1.31246         0.398101      1.051615     -2.153821
      1.24837      5.75646      3.83374         4.341370     -0.290175     -3.238750
      0.19316      6.26720      5.24781        11.243453     73.909067     31.762312
      1.65652      5.43317      8.23057         0.194938     -0.449655      2.053973
      5.55479      1.61180      0.93911        -0.299478     -0.053665     -1.252844
      6.87825      0.64420      3.81042         1.864860      0.861863      1.165027
      5.58261      1.42886      5.87449         0.509272     12.204601      7.057227
      6.76527      0.67585      8.69526         1.493944     -0.220396      1.461988
      4.37213      4.21983      1.14804        -0.629040     -0.637010     -2.628397
      5.85110      3.31788      3.22314         0.614780     -0.858524      2.162905
      4.20191      4.10973      5.68662         3.428284     -2.737941      1.529870
      5.28454      3.41378      8.39656        -0.503234      0.035813      2.094457
      2.78281      6.18502      0.72243         0.065326      1.864492     -0.366041
      4.08853      5.47006      3.51795         0.498202      1.063551      0.588055
      2.77380      5.88089      5.72945        -3.625841     15.930191     13.972393
      4.22733      5.93114      7.99161        -0.268904      0.811580      2.042442
    total drift:                                0.010454      0.000215      0.010560

  FREE ENERGIE OF THE ION-ELECTRON SYSTEM (eV)
  free  energy   TOTEN  =      -268.8067529302 eV

  energy  without entropy=     -268.7550769779  energy(sigma->0) =     -268.78091495

volume of typ            1:    17.7 %

volume of typ            2:     9.0 %

total charge

# of ion       s       p       d       tot
    1        0.217   0.210   7.836   8.263
    2        0.211   0.194   7.835   8.240
    3        0.277   0.301   7.917   8.495
    4        0.276   0.316   7.836   8.428
    5        0.219   0.220   7.850   8.290
    6        0.277   0.321   7.815   8.413
    7        0.380   0.473   7.973   8.826
    8        0.271   0.268   7.896   8.435
    9        0.247   0.298   7.871   8.416
   10        0.263   0.311   7.831   8.405
   11        0.340   0.439   7.918   8.697
   12        0.511   0.742   8.231   9.484
   13        0.249   0.279   7.808   8.337
   14        0.356   0.470   7.957   8.783
   15        0.236   0.267   7.825   8.328
   16        0.264   0.309   7.893   8.466
   17        0.254   0.289   7.837   8.380
   18        0.437   0.629   7.964   9.030
   19        1.288   2.673   0.006   3.968
   20        1.296   2.638   0.005   3.939
   21        1.298   2.633   0.005   3.936
   22        1.306   2.597   0.004   3.907
   23        1.292   2.777   0.019   4.088
   24        1.297   2.680   0.009   3.985
   25        1.296   2.664   0.007   3.967
   26        1.321   2.548   0.003   3.872
   27        1.289   2.703   0.009   4.002
   28        1.315   2.591   0.004   3.909
   29        1.293   2.652   0.005   3.950
   30        1.306   2.576   0.002   3.884
   31        1.287   2.813   0.021   4.121
   32        1.316   2.566   0.003   3.886
   33        1.299   2.670   0.009   3.978
   34        1.313   2.562   0.002   3.877
   35        1.294   2.781   0.018   4.093
   36        1.289   2.729   0.010   4.029
   37        1.310   2.639   0.007   3.956
   38        1.325   2.559   0.005   3.888
   39        1.298   2.639   0.005   3.942
   40        1.312   2.670   0.009   3.991
   41        1.338   2.964   0.059   4.362
   42        1.322   2.539   0.002   3.863
   43        1.302   2.611   0.004   3.916
   44        1.300   2.631   0.004   3.935
   45        1.306   2.762   0.019   4.087
   46        1.299   2.645   0.006   3.951
   47        1.302   2.601   0.004   3.907
   48        1.307   2.605   0.005   3.917
   49        1.290   2.750   0.013   4.053
   50        1.310   2.569   0.003   3.882
   51        1.289   2.679   0.007   3.974
   52        1.304   2.635   0.006   3.945
   53        1.323   2.765   0.024   4.112
   54        1.320   2.516   0.001   3.837
tot          52.24  101.97  142.42  296.62

magnetization (x)

# of ion       s       p       d       tot
    1       -0.006  -0.008  -0.488  -0.502
    2       -0.001  -0.008  -1.032  -1.041
    3        0.004   0.012   0.875   0.891
    4       -0.008  -0.021  -0.697  -0.726
    5       -0.004  -0.006   0.144   0.133
    6        0.002   0.020   1.386   1.408
    7        0.001   0.014   0.377   0.392
    8        0.007   0.005   0.420   0.432
    9       -0.004  -0.004   0.123   0.115
   10        0.001   0.003  -0.013  -0.010
   11       -0.005  -0.006   0.290   0.279
   12       -0.006   0.001   0.421   0.416
   13       -0.006  -0.001   0.574   0.567
   14       -0.001   0.019   0.740   0.758
   15       -0.008  -0.003   0.140   0.130
   16       -0.004  -0.006   0.075   0.065
   17       -0.000   0.000   0.717   0.717
   18        0.000  -0.005   0.409   0.404
   19        0.001   0.028   0.000   0.029
   20       -0.004  -0.228   0.000  -0.232
   21       -0.003  -0.123  -0.000  -0.126
   22        0.003   0.212  -0.000   0.215
   23        0.002   0.087   0.000   0.089
   24       -0.006  -0.296  -0.000  -0.301
   25        0.006   0.346  -0.000   0.352
   26        0.014   0.735   0.000   0.749
   27        0.002   0.062   0.000   0.064
   28        0.013   0.607   0.000   0.620
   29        0.008   0.331  -0.000   0.339
   30        0.011   0.607  -0.000   0.618
   31        0.002   0.020   0.001   0.023
   32        0.014   0.691  -0.000   0.705
   33        0.002   0.088   0.000   0.091
   34        0.012   0.661  -0.000   0.673
   35        0.004   0.115   0.000   0.119
   36       -0.000   0.006  -0.000   0.005
   37        0.007   0.378  -0.000   0.385
   38        0.011   0.402   0.000   0.413
   39        0.005   0.203  -0.000   0.208
   40        0.005   0.224   0.000   0.229
   41        0.008   0.184   0.002   0.193
   42        0.015   0.728   0.000   0.743
   43        0.009   0.386  -0.000   0.395
   44        0.005   0.103   0.000   0.108
   45        0.004   0.220   0.001   0.224
   46        0.002   0.105  -0.000   0.107
   47       -0.000  -0.055   0.000  -0.055
   48        0.008   0.459  -0.000   0.467
   49        0.004   0.094   0.000   0.099
   50        0.012   0.641  -0.000   0.652
   51        0.003   0.144   0.000   0.147
   52        0.004   0.190   0.000   0.194
   53        0.008   0.431   0.000   0.439
   54        0.016   0.890   0.000   0.907
tot           0.17    9.68    4.47   14.32