 vasp.5.4.4.18Apr17-6-g9f103f2a35 (build May 12 2020 04:58:55) complex

 MD_VERSION_INFO: Compiled 2020-05-12T11:58:55-UTC in devlin.sd.materialsdesign.
 com:/home/medea2/data/build/wwolf/vasp-gpu5.4.4/13047/x86_64/src/src/build/std
 from svn 13047

 executed on                        Lin64 date 2023.03.24  21:49:25

 INCAR:
 POTCAR:    PAW_PBE Ni 02Aug2007
 POTCAR:    PAW_PBE O 08Apr2002

 POTCAR:    PAW_PBE Ni 02Aug2007

 POTCAR:    PAW_PBE O 08Apr2002

 Optimization of the real space projectors (new method)

 maximal supplied QI-value         = 16.25
 optimisation between [QCUT,QGAM] = [ 11.38, 22.75] = [ 36.24,144.96] Ry
 Optimized for a Real-space Cutoff    1.47 Angstroem

   l    n(q)    QCUT    max X(q) W(low)/X(q) W(high)/X(q)  e(spline)
   2      9    11.376    60.317    0.17E-03    0.16E-04    0.16E-06
   2      9    11.376    55.921    0.17E-03    0.16E-04    0.17E-06
   0     10    11.376    51.690    0.45E-04    0.60E-04    0.21E-06
   0     10    11.376    30.015    0.37E-04    0.55E-04    0.19E-06
   1     10    11.376    18.849    0.83E-04    0.11E-03    0.92E-07
   1     10    11.376    14.624    0.69E-04    0.92E-04    0.82E-07
 Optimization of the real space projectors (new method)

 maximal supplied QI-value         = 24.76
 optimisation between [QCUT,QGAM] = [ 11.39, 22.77] = [ 36.31,145.25] Ry
 Optimized for a Real-space Cutoff    1.10 Angstroem

   l    n(q)    QCUT    max X(q) W(low)/X(q) W(high)/X(q)  e(spline)
   0      7    11.387    20.381    0.22E-03    0.48E-03    0.18E-06
   0      7    11.387    15.268    0.22E-03    0.52E-03    0.19E-06
   1      7    11.387     5.964    0.22E-03    0.73E-03    0.24E-06
   1      7    11.387     5.382    0.19E-03    0.60E-03    0.21E-06

  PAW_PBE Ni 02Aug2007                  :
  PAW_PBE O 08Apr2002                   :

 POSCAR: NiO2_C2_m_scale_1_050_disp_0_15_round_1
  positions in direct lattice
 exchange correlation table for  LEXCH =       14
   RHO(1)=    0.500       N(1)  =     2000
   RHO(2)=  100.500       N(2)  =     4000

 ion  position               nearest neighbor table
   1  0.997  0.985  0.976-  19 1.94  22 2.01  54 2.03  27 2.10  51 2.25  46 2.35   7 2.58   9 2.96
                             3 2.99
   2  0.015  0.015  0.468-  21 1.74  20 1.79  53 1.88  52 2.07  29 2.11  44 2.24  10 2.61   8 2.67
                             4 2.87
   3  0.973  0.312  0.001-  19 1.89  23 1.99  43 2.10  46 2.24  26 2.38  50 2.43   5 2.72  13 2.96
                             9 2.99   1 2.99  11 3.04  15 3.04
   4  0.004  0.336  0.460-  24 1.88  25 1.92  21 1.98  48 2.02  44 2.21  45 2.39   6 2.68  10 2.76
                            12 2.80   2 2.87
   5  0.020  0.643  0.009-  23 1.72  27 1.76  50 2.03  30 2.05  54 2.46  47 2.50   3 2.72  11 2.74
                             7 2.92  15 2.95
   6  0.000  0.639  0.480-  25 1.70  49 1.90  28 1.98  48 2.00  29 2.08  52 2.16   4 2.68  12 3.00
                            16 3.01
   7  0.300  0.011  0.007-  22 1.66  27 1.79  31 1.80  34 2.15  39 2.46   1 2.58   9 2.72  13 2.77
                             5 2.92  15 3.06
   8  0.320  0.016  0.473-  20 1.75  33 1.94  41 2.05  29 2.12  32 2.23  28 2.26   2 2.67  10 2.69
                            16 2.74  14 2.86
   9  0.322  0.331  0.998-  31 1.85  26 1.85  35 1.89  19 1.89  38 2.06  22 2.38  11 2.71   7 2.72
                            17 2.77  15 2.78   1 2.96   3 2.99
  10  0.308  0.316  0.464-  20 1.64  37 1.82  24 1.93  21 1.95  33 2.04  36 2.10   2 2.61  12 2.67
                             8 2.69   4 2.76  18 2.79  16 2.81
  11  0.332  0.644  0.997-  39 1.69  42 1.97  35 2.10  30 2.14  23 2.22  26 2.28   9 2.71   5 2.74
                            13 2.88  17 2.89   3 3.04
  12  0.340  0.634  0.468-  24 1.72  37 1.75  40 1.95  41 1.98  25 2.16  28 2.19  18 2.27  10 2.67
                             4 2.80  14 2.80   6 3.00
  13  0.612  0.005  1.000-  39 1.65  43 1.79  34 1.83  51 2.32  46 2.40   7 2.77  11 2.88  15 2.93
                             3 2.96
  14  0.623  0.978  0.440-  40 1.80  44 1.87  32 1.92  41 1.99  45 2.31  53 2.32  12 2.80  18 2.83
                             8 2.86  16 3.05
  15  0.651  0.357  0.999-  47 1.65  31 1.90  38 1.98  50 2.11  43 2.18  34 2.25  17 2.38   9 2.78
                            13 2.93   5 2.95   3 3.04   7 3.06
  16  0.633  0.328  0.473-  36 1.84  32 1.86  45 1.96  49 1.98  48 2.01  33 2.05   8 2.74  10 2.81
                            18 2.96   6 3.01  14 3.05
  17  0.652  0.628  0.009-  47 1.71  35 2.09  38 2.10  51 2.13  42 2.25  54 2.29  15 2.38   9 2.77
                            11 2.89
  18  0.605  0.650  0.480-  40 1.58  53 1.78  37 1.80  36 1.81  52 1.99  12 2.27  49 2.31  10 2.79
                            14 2.83  16 2.96
  19  0.094  0.205  0.076-   3 1.89   9 1.89   1 1.94
  20  0.226  0.125  0.387-  10 1.64   8 1.75   2 1.79
  21  0.090  0.203  0.569-   2 1.74  10 1.95   4 1.98
  22  0.222  0.065  0.872-   7 1.66   1 2.01   9 2.38
  23  0.083  0.529  0.116-   5 1.72   3 1.99  11 2.22
  24  0.223  0.451  0.368-  12 1.72   4 1.88  10 1.93
  25  0.092  0.542  0.573-   6 1.70   4 1.92  12 2.16
  26  0.225  0.401  0.859-   9 1.85  11 2.28   3 2.38
  27  0.099  0.851  0.086-   5 1.76   7 1.79   1 2.10
  28  0.211  0.757  0.360-   6 1.98  12 2.19   8 2.26
  29  0.092  0.869  0.594-   6 2.08   2 2.11   8 2.12
  30  0.207  0.736  0.857-   5 2.05  11 2.14
  31  0.429  0.223  0.087-   7 1.80   9 1.85  15 1.90
  32  0.570  0.141  0.353-  16 1.86  14 1.92   8 2.23
  33  0.415  0.215  0.597-   8 1.94  10 2.04  16 2.05
  34  0.528  0.104  0.878-  13 1.83   7 2.15  15 2.25
  35  0.423  0.516  0.127-   9 1.89  17 2.09  11 2.10
  36  0.560  0.460  0.377-  18 1.81  16 1.84  10 2.10
  37  0.404  0.513  0.571-  12 1.75  18 1.80  10 1.82
  38  0.530  0.427  0.862-  15 1.98   9 2.06  17 2.10
  39  0.442  0.841  0.076-  13 1.65  11 1.69   7 2.46
  40  0.566  0.763  0.375-  18 1.58  14 1.80  12 1.95
  41  0.410  0.862  0.559-  12 1.98  14 1.99   8 2.05
  42  0.518  0.714  0.857-  11 1.97  17 2.25
  43  0.733  0.193  0.108-  13 1.79   3 2.10  15 2.18
  44  0.841  0.086  0.349-  14 1.87   4 2.21   2 2.24
  45  0.736  0.217  0.587-  16 1.96  14 2.31   4 2.39
  46  0.854  0.099  0.842-   3 2.24   1 2.35  13 2.40
  47  0.721  0.517  0.113-  15 1.65  17 1.71   5 2.50
  48  0.858  0.424  0.366-   6 2.00  16 2.01   4 2.02
  49  0.783  0.551  0.573-   6 1.90  16 1.98  18 2.31
  50  0.866  0.470  0.862-   5 2.03  15 2.11   3 2.43
  51  0.755  0.877  0.108-  17 2.13   1 2.25  13 2.32
  52  0.850  0.757  0.408-  53 1.72  18 1.99   2 2.07   6 2.16
  53  0.786  0.858  0.529-  52 1.72  18 1.78   2 1.88  14 2.32
  54  0.882  0.765  0.858-   1 2.03  17 2.29   5 2.46

  LATTYP: Found a hexagonal cell.
 ALAT       =     8.7810134983
 C/A-ratio  =     1.1065328053

  Lattice vectors:

 A1 = (   8.7810135000,   0.0000000000,   0.0000000000)
 A2 = (  -4.3905067500,   7.6045807600,   0.0000000000)
 A3 = (   0.0000000000,   0.0000000000,   9.7164795000)

Analysis of symmetry for initial positions (statically):
 Subroutine PRICEL returns:
 Original cell was already a primitive cell.

 Routine SETGRP: Setting up the symmetry group for a
 hexagonal supercell.

 Subroutine GETGRP returns: Found  1 space group operations
 (whereof  1 operations were pure point group operations)
 out of a pool of 24 trial point group operations.

The static configuration has the point symmetry C_1 .

Analysis of symmetry for dynamics (positions and initial velocities):
 Subroutine PRICEL returns:
 Original cell was already a primitive cell.

[...]

The dynamic configuration has the point symmetry C_1 .

Analysis of structural, dynamic, and magnetic symmetry:
 Subroutine PRICEL returns:
 Original cell was already a primitive cell.

 Routine SETGRP: Setting up the symmetry group for a
 hexagonal supercell.

 Subroutine GETGRP returns: Found  1 space group operations
 (whereof  1 operations were pure point group operations)
 out of a pool of 24 trial point group operations.

The magnetic configuration has the point symmetry C_1 .

 Subroutine INISYM returns: Found  1 space group operations
 (whereof  1 operations are pure point group operations),
 and found     1 'primitive' translations

 KPOINTS: Automatic mesh

Automatic generation of k-mesh.
Space group operators:
 irot       det(A)        alpha          n_x          n_y          n_z        tau_x        tau_y        tau_z
    1     1.000000     0.000000     1.000000     0.000000     0.000000     0.000000     0.000000     0.000000

 Subroutine IBZKPT returns following result:

 Found     26 irreducible k-points:

 Following reciprocal coordinates:
            Coordinates               Weight
  0.000000  0.000000  0.000000      1.000000
  0.250000  0.000000  0.000000      2.000000
  0.500000  0.000000  0.000000      1.000000
  0.000000  0.250000  0.000000      2.000000
  0.250000  0.250000  0.000000      2.000000
  0.500000  0.250000  0.000000      2.000000
 -0.250000  0.250000  0.000000      2.000000
  0.000000  0.500000  0.000000      1.000000
  0.250000  0.500000  0.000000      2.000000
  0.500000  0.500000  0.000000      1.000000
  0.000000  0.000000  0.333333      2.000000
  0.250000  0.000000  0.333333      2.000000
  0.500000  0.000000  0.333333      2.000000
 -0.250000  0.000000  0.333333      2.000000
  0.000000  0.250000  0.333333      2.000000
  0.250000  0.250000  0.333333      2.000000
  0.500000  0.250000  0.333333      2.000000
 -0.250000  0.250000  0.333333      2.000000
  0.000000  0.500000  0.333333      2.000000
  0.250000  0.500000  0.333333      2.000000
  0.500000  0.500000  0.333333      2.000000
 -0.250000  0.500000  0.333333      2.000000
  0.000000 -0.250000  0.333333      2.000000
  0.250000 -0.250000  0.333333      2.000000
  0.500000 -0.250000  0.333333      2.000000
 -0.250000 -0.250000  0.333333      2.000000

 Following cartesian coordinates:
            Coordinates               Weight
  0.000000  0.000000  0.000000      1.000000
  0.028471  0.016437  0.000000      2.000000
  0.056941  0.032875  0.000000      1.000000
  0.000000  0.032875  0.000000      2.000000
  0.028471  0.049312  0.000000      2.000000
  0.056941  0.065750  0.000000      2.000000
 -0.028471  0.016437  0.000000      2.000000
  0.000000  0.065750  0.000000      1.000000
  0.028471  0.082187  0.000000      2.000000
  0.056941  0.098625  0.000000      1.000000
  0.000000  0.000000  0.034306      2.000000
  0.028471  0.016437  0.034306      2.000000
  0.056941  0.032875  0.034306      2.000000
 -0.028471 -0.016437  0.034306      2.000000
  0.000000  0.032875  0.034306      2.000000
  0.028471  0.049312  0.034306      2.000000
  0.056941  0.065750  0.034306      2.000000
 -0.028471  0.016437  0.034306      2.000000
  0.000000  0.065750  0.034306      2.000000
  0.028471  0.082187  0.034306      2.000000
  0.056941  0.098625  0.034306      2.000000
 -0.028471  0.049312  0.034306      2.000000
  0.000000 -0.032875  0.034306      2.000000
  0.028471 -0.016437  0.034306      2.000000
  0.056941  0.000000  0.034306      2.000000
 -0.028471 -0.049312  0.034306      2.000000

 SYSTEM =  unknown system
 POSCAR =  NiO2_C2_m_scale_1_050_disp_0_15_round_1

 Startparameter for this run:
[...]
   0.594E+02 0.558E+02 0.172E+03   -.578E+02 -.582E+02 -.171E+03   -.173E+01 0.217E+01 -.253E+01   0.115E-01 0.820E-02 -.421E-02
   0.131E+03 0.160E+03 -.733E+02   -.134E+03 -.161E+03 0.736E+02   0.875E-01 -.650E+00 0.873E+00   -.213E-01 -.258E-01 -.275E-02
   0.985E+02 -.325E+01 0.839E+02   -.986E+02 0.393E+01 -.874E+02   -.189E+01 -.484E+00 -.157E+00   0.142E-01 -.204E-01 -.123E-01
   0.535E+02 -.128E+03 -.323E+02   -.555E+02 0.130E+03 0.326E+02   -.182E+01 0.211E+00 -.110E+01   -.161E-01 -.122E-02 0.123E-01
   -.137E+03 0.152E+03 -.493E+02   0.139E+03 -.152E+03 0.489E+02   0.190E+01 -.124E+01 0.524E+00   -.167E-01 0.118E-01 -.254E-01
   -.111E+03 0.178E+03 -.673E+02   0.114E+03 -.182E+03 0.708E+02   -.405E+00 0.354E+00 -.218E+01   0.108E-01 -.776E-02 0.118E-01
   0.975E+02 0.503E+02 0.113E+03   -.991E+02 -.493E+02 -.114E+03   0.136E+01 -.134E+01 -.139E+01   -.179E-01 -.127E-01 -.218E-01
   -.132E+02 0.143E+02 -.451E+02   0.141E+02 -.101E+02 0.484E+02   0.904E-01 -.236E+00 0.409E+00   0.642E-02 0.124E-02 0.142E-02
   0.685E+02 0.383E+02 0.130E+03   -.673E+02 -.387E+02 -.134E+03   -.152E+01 -.176E+01 0.801E+00   -.147E-01 -.258E-01 -.211E-01
   0.196E+03 -.190E+03 -.128E+03   -.205E+03 0.195E+03 0.129E+03   0.270E+01 -.263E+00 -.558E+00   0.144E-01 0.208E-01 0.171E-01
   -.209E+03 0.344E+02 0.209E+03   0.212E+03 -.313E+02 -.211E+03   0.448E+00 -.163E+01 -.585E+00   -.493E-02 0.251E-01 -.211E-01
   0.307E+00 -.989E+02 -.130E+03   -.899E+00 0.103E+03 0.129E+03   0.117E+01 -.183E+01 0.191E+01   0.120E-01 0.114E-01 0.165E-01
   -.211E+03 0.113E+03 0.191E+03   0.213E+03 -.119E+03 -.195E+03   -.356E+00 0.685E+00 0.812E+00   0.631E-02 -.835E-02 -.184E-01
   -.768E+02 0.323E+02 -.171E+03   0.808E+02 -.315E+02 0.172E+03   -.342E+00 0.318E+00 0.251E-01   0.177E-01 0.126E-02 0.117E-01
   0.111E+02 -.307E+03 0.136E+03   -.143E+02 0.313E+03 -.137E+03   0.254E+00 -.247E+01 -.942E+00   0.818E-03 -.161E-01 -.313E-01
   -.170E+03 -.316E+02 -.310E+03   0.179E+03 0.254E+02 0.314E+03   -.207E+01 0.279E+01 0.308E+00   0.172E-01 0.924E-02 0.183E-01
   0.631E+02 0.702E+02 -.210E+03   -.636E+02 -.732E+02 0.233E+03   0.455E+00 0.245E+01 -.235E+02   -.233E-01 0.154E-01 -.373E-01
   0.243E+01 0.114E+03 0.365E+03   -.819E+00 -.120E+03 -.397E+03   -.179E+01 0.265E+01 0.286E+02   -.127E-01 -.131E-02 -.183E-01
   0.116E+03 0.130E+02 -.437E+03   -.120E+03 -.836E+01 0.465E+03   0.276E+01 -.238E+01 -.292E+02   -.615E-02 -.112E-01 0.173E-01
   0.614E+02 -.493E+01 0.410E+03   -.644E+02 0.109E+02 -.440E+03   -.182E-01 -.516E+01 0.295E+02   -.762E-02 0.382E-02 0.162E-01
   -.399E+02 0.315E+02 -.233E+03   0.472E+02 -.349E+02 0.260E+03   -.553E+01 0.239E+01 -.277E+02   -.108E-03 -.317E-01 -.381E-01
   0.703E+02 0.482E+02 0.338E+03   -.718E+02 -.505E+02 -.367E+03   0.157E+01 -.374E+00 0.282E+02   -.233E-02 -.127E-01 -.271E-01
   -.347E+02 0.116E+02 -.426E+03   0.433E+02 -.123E+02 0.453E+03   -.652E+01 -.623E+00 -.273E+02   -.439E-02 -.416E-02 0.292E-01
   0.119E+03 0.198E+01 0.335E+03   -.125E+03 -.983E+00 -.355E+03   0.437E+01 -.108E+00 0.232E+02   -.826E-02 -.992E-02 0.306E-01
   0.823E+02 0.271E+01 -.271E+03   -.906E+02 -.180E+01 0.293E+03   0.780E+01 0.964E-01 -.223E+02   -.317E-02 0.753E-02 -.236E-01
   0.270E+02 -.706E+02 0.243E+03   -.242E+02 0.726E+02 -.260E+03   -.327E+01 -.192E+01 0.183E+02   -.108E-02 0.419E-02 -.194E-01
   0.391E+00 0.185E+02 -.334E+03   -.149E+01 -.197E+02 0.353E+03   0.203E+01 0.188E+01 -.215E+02   -.790E-02 0.956E-03 0.279E-01
   -.217E+02 -.286E+02 0.310E+03   0.217E+02 0.328E+02 -.327E+03   0.426E+00 -.486E+01 0.194E+02   -.756E-03 -.191E-02 0.106E-01
   -.266E+02 0.598E+02 -.267E+03   0.307E+02 -.585E+02 0.291E+03   -.412E+01 -.877E+00 -.237E+02   -.870E-02 -.721E-03 -.249E-01
   0.153E+02 0.517E+02 0.247E+03   -.156E+02 -.509E+02 -.270E+03   -.157E+01 -.223E+01 0.240E+02   0.177E-01 -.593E-02 -.114E-01
   -.495E+02 0.238E+02 -.410E+03   0.492E+02 -.218E+02 0.434E+03   0.649E+00 -.165E+01 -.271E+02   0.352E-02 0.271E-02 0.315E-01
   -.424E+02 0.116E+02 0.373E+03   0.375E+02 -.810E+01 -.394E+03   0.509E+01 -.334E+01 0.239E+02   -.619E-02 0.632E-02 0.302E-02
   0.424E+02 -.575E+02 -.222E+03   -.427E+02 0.600E+02 0.245E+03   0.529E-01 -.170E+01 -.256E+02   -.747E-02 -.137E-01 -.265E-01
   -.535E+02 0.143E+02 0.278E+03   0.548E+02 -.138E+02 -.303E+03   -.257E+01 -.258E+01 0.252E+02   -.104E-02 0.132E-01 -.589E-02
   -.107E+01 0.813E+01 -.508E+03   0.146E+01 -.154E+02 0.541E+03   0.176E+00 0.684E+01 -.318E+02   0.193E-01 0.511E-02 0.249E-01
   -.133E+02 -.245E+02 0.384E+03   0.111E+02 0.247E+02 -.407E+03   0.226E+01 0.221E+00 0.263E+02   -.532E-02 -.635E-02 0.110E-01
   0.530E+02 -.153E+02 -.219E+03   -.593E+02 0.147E+02 0.244E+03   0.439E+01 0.389E+00 -.232E+02   -.117E-01 -.659E-02 -.164E-01
   0.357E+02 -.102E+03 0.346E+03   -.376E+02 0.109E+03 -.381E+03   -.299E+01 -.441E+01 0.300E+02   0.167E-01 0.136E-01 0.725E-02
   0.710E+01 -.430E+02 -.370E+03   -.100E+02 0.434E+02 0.391E+03   0.410E+01 0.641E+00 -.226E+02   0.134E-01 0.120E-01 0.222E-01
   -.498E+02 -.120E+03 0.313E+03   0.534E+02 0.124E+03 -.329E+03   -.349E+01 -.428E+01 0.190E+02   -.316E-02 -.645E-02 0.255E-02
   -.603E+02 -.272E+02 -.182E+03   0.610E+02 0.323E+02 0.203E+03   -.110E+00 -.341E+01 -.237E+02   0.239E-01 0.215E-01 -.231E-01
   -.632E+02 -.292E+02 0.213E+03   0.683E+02 0.307E+02 -.231E+03   -.443E+01 -.520E+00 0.196E+02   -.608E-02 0.161E-03 -.630E-02
   -.870E+02 0.719E+02 -.354E+03   0.916E+02 -.748E+02 0.370E+03   -.444E+01 0.298E+01 -.185E+02   0.554E-02 -.116E-01 0.166E-01
   0.226E+02 0.406E+02 0.258E+03   -.241E+02 -.426E+02 -.270E+03   0.208E+01 0.251E+01 0.160E+02   0.757E-02 0.190E-01 0.245E-01
   -.133E+03 -.112E+03 -.307E+03   0.142E+03 0.117E+03 0.340E+03   -.755E+01 -.350E+01 -.308E+02   0.678E-02 -.718E-02 -.177E-01
   -.995E+01 -.456E+01 0.245E+03   0.730E+01 0.303E+01 -.266E+03   0.350E+01 0.226E+01 0.229E+02   0.591E-03 -.948E-02 -.181E-01
   0.129E+02 -.228E+02 -.369E+03   -.185E+02 0.267E+02 0.388E+03   0.537E+01 -.549E+01 -.188E+02   -.956E-02 0.426E-02 0.177E-01
   -.470E+02 0.443E+02 0.314E+03   0.467E+02 -.453E+02 -.333E+03   0.651E+00 0.307E+00 0.232E+02   0.123E-01 -.115E-01 0.183E-01
   -.380E+02 -.493E+02 -.110E+03   0.367E+02 0.529E+02 0.124E+03   0.197E+01 -.420E+01 -.168E+02   0.102E-01 0.108E-01 -.145E-01
   -.119E+03 -.143E+02 0.240E+03   0.124E+03 0.842E+01 -.258E+03   -.410E+01 0.777E+01 0.184E+02   -.135E-01 0.187E-02 0.223E-02
   0.344E+02 -.126E+03 -.379E+03   -.392E+02 0.136E+03 0.398E+03   0.643E+01 -.900E+01 -.183E+02   -.115E-01 -.889E-05 0.631E-02
   0.427E+02 -.644E+01 0.269E+03   -.422E+02 0.128E+01 -.284E+03   -.758E+00 0.574E+01 0.188E+02   0.375E-02 0.893E-02 0.777E-02
   -.199E+01 0.301E+02 0.230E+02   -.334E-12 0.115E-11 0.171E-12   0.200E+01 -.301E+02 -.229E+02   -.735E-02 -.142E-01 -.823E-01

 POSITION                                       TOTAL-FORCE (eV/Angst)
      4.42708      7.49248      9.48230        -1.700211     -0.989816     -1.148437
      0.06762      0.11287      4.55031        -2.106239     -3.830934     -0.076965
      7.17209      2.37239      0.00893        -0.127805     -0.229431     -1.219033
     -1.43846      2.55842      4.46633        -2.929498     -1.863439      1.160298
     -2.64880      4.88941      0.08365        -1.914548      0.170111     -3.704550
     -2.80218      4.86006      4.65974        -3.832712      2.289256     -0.829474
      2.58712      0.08062      0.07287         3.448908     -1.611842      0.105299
      2.74031      0.12399      4.59451         2.474999     -3.727550      1.321580
      1.37376      2.51540      9.69563        -0.261396     -0.375498     -2.168322
      1.31858      2.40555      4.50773         0.984493      3.989258      3.706149
      0.08926      4.89627      9.68764        -0.319147     -2.127808     -2.707270
      0.19761      4.82477      4.55068        -5.906987      4.520755     -0.037445
      5.35286      0.04098      9.71400         3.124349      1.464969     -1.853681
      1.18165      7.43538      4.27669         0.587408      2.496091      0.979152
      4.14699      2.71255      9.70262         1.593259     -4.804999     -3.694545
      4.12131      2.49175      4.59553         3.639277      1.092103      1.717262
      2.96990      4.77484      0.09068        -2.938526      3.480660     -2.109619
      2.46250      4.94205      4.66256         6.998597     -3.403503      3.829358
     -0.06964      1.55661      0.74269        -0.112254     -0.521626     -0.736937
      1.43719      0.95171      3.76367        -0.189951     -3.190553     -3.445168
     -0.10586      1.54577      5.52698        -0.332018      2.208721     -0.963025
      1.66607      0.49050      8.47427        -2.983812      0.825887     -0.097355
     -1.59009      4.02343      1.12407         1.740247     -1.082471     -1.230327
     -0.02795      3.43333      3.57332         0.128202     -2.712249     -0.805243
     -1.57466      4.12022      5.57034         2.045079     -1.393938     -0.635948
      0.21278      3.04740      8.35125        -0.769044      0.877227      3.059406
     -2.86944      6.46875      0.83815        -0.563915      1.016534     -0.011349
     -1.47313      5.75887      3.49695        -0.399348      0.142642      2.148930
     -3.00723      6.60696      5.77275         0.924595      0.674386     -2.519377
     -1.41428      5.59430      8.32852         0.396677     -0.702208      2.776046
      2.78742      1.69270      0.84289        -0.004294      0.445155      0.306927
      4.38455      1.07245      3.42897        -1.772359     -1.391786      1.765142
      2.69792      1.63869      5.80078         0.312424      0.308435     -3.160777
      4.18119      0.79193      8.52777         0.151770      0.143549      2.501826
      1.44864      3.92175      1.23796        -0.204029      0.800802     -3.030845
      2.89730      3.49834      3.66081        -1.312652     -2.083265     -0.008619
      1.29414      3.90151      5.55039         0.582916     -0.442052      1.222284
      2.77810      3.25022      8.37526         0.036564      0.447457      3.432278
      0.18531      6.39770      0.74208        -1.945530     -0.210327      1.736324
      1.61690      5.80549      3.64418        -4.898669      2.182038     -4.875535
     -0.18439      6.55821      5.43256         1.196766      1.039295     -1.663369
      1.41379      5.42918      8.32677         0.095768     -0.603860      2.904658
      5.58650      1.46983      1.05331         0.562160      1.771366     -2.018989
      7.00448      0.65673      3.39458         0.616417      0.996709      1.503537
      5.51039      1.65089      5.70155         0.135583      0.039654     -2.693180
      7.06219      0.75564      8.18094         0.563983      0.510559      3.114629
      4.06062      3.93312      1.09808         1.418397      2.073727      1.435290
      5.67259      3.22407      3.55457         0.847948      0.721798      1.658629
      4.45456      4.19008      5.56554        -0.290609     -1.548061     -0.078626
      5.54094      3.57044      8.37816         0.333506     -0.675340      3.625371
      2.77753      6.67060      1.05364         0.720706     -0.579826     -2.689745
      4.13639      5.75827      3.96539         0.802686      1.941292     -0.257827
      3.13616      6.52407      5.14032         1.650509      0.841534      1.120645
      4.38842      5.81405      8.33751        -0.298639      0.590412      3.340565
    total drift:                                0.005593     -0.008421      0.009200

  FREE ENERGIE OF THE ION-ELECTRON SYSTEM (eV)
  free  energy   TOTEN  =      -299.8228561242 eV

  energy  without entropy=     -299.7890650766  energy(sigma->0) =     -299.80596060

volume of typ            1:    17.7 %

volume of typ            2:     9.0 %

total charge

# of ion       s       p       d       tot
    1        0.216   0.225   7.806   8.246
    2        0.270   0.334   7.867   8.471
    3        0.212   0.204   7.820   8.236
    4        0.237   0.262   7.815   8.315
    5        0.281   0.315   7.836   8.431
    6        0.276   0.335   7.797   8.408
    7        0.307   0.349   7.879   8.536
    8        0.244   0.277   7.828   8.349
    9        0.275   0.340   7.811   8.426
   10        0.301   0.414   7.863   8.578
   11        0.251   0.280   7.830   8.361
   12        0.292   0.381   7.868   8.541
   13        0.302   0.347   7.822   8.470
   14        0.261   0.295   7.812   8.368
   15        0.277   0.334   7.844   8.456
   16        0.266   0.342   7.782   8.390
   17        0.245   0.274   7.824   8.343
   18        0.336   0.469   7.933   8.739
   19        1.280   2.699   0.007   3.987
   20        1.272   2.820   0.016   4.108
   21        1.292   2.694   0.009   3.995
   22        1.305   2.659   0.009   3.974
   23        1.292   2.675   0.008   3.975
   24        1.286   2.730   0.010   4.025
   25        1.298   2.681   0.009   3.988
   26        1.307   2.599   0.004   3.911
   27        1.280   2.729   0.009   4.018
   28        1.296   2.620   0.003   3.919
   29        1.306   2.594   0.003   3.904
   30        1.314   2.562   0.003   3.879
   31        1.281   2.733   0.009   4.023
   32        1.295   2.655   0.006   3.956
   33        1.301   2.630   0.005   3.936
   34        1.304   2.624   0.005   3.933
   35        1.302   2.624   0.005   3.931
   36        1.291   2.698   0.008   3.997
   37        1.285   2.755   0.012   4.052
   38        1.308   2.603   0.005   3.916
   39        1.287   2.755   0.013   4.055
   40        1.292   2.773   0.017   4.081
   41        1.287   2.662   0.005   3.953
   42        1.311   2.570   0.003   3.884
   43        1.298   2.644   0.006   3.947
   44        1.298   2.623   0.004   3.925
   45        1.306   2.584   0.003   3.893
   46        1.312   2.547   0.001   3.860
   47        1.296   2.723   0.014   4.033
   48        1.298   2.635   0.005   3.938
   49        1.299   2.639   0.005   3.943
   50        1.310   2.578   0.003   3.891
   51        1.304   2.579   0.002   3.886
   52        1.317   2.605   0.007   3.929
   53        1.306   2.663   0.010   3.980
   54        1.311   2.564   0.002   3.877
tot          51.58  101.30  141.28  294.17

magnetization (x)

# of ion       s       p       d       tot
    1       -0.002  -0.003   0.438   0.433
    2       -0.000  -0.000  -0.116  -0.117
    3       -0.005  -0.009  -0.465  -0.479
    4       -0.002  -0.005  -0.115  -0.122
    5       -0.003   0.002   0.285   0.284
    6       -0.000   0.002   0.074   0.075
    7       -0.001   0.001   0.325   0.325
    8       -0.000  -0.002  -0.094  -0.096
    9       -0.000  -0.006  -0.154  -0.160
   10        0.000  -0.000  -0.003  -0.003
   11       -0.004  -0.002   0.165   0.159
   12        0.000   0.001   0.281   0.282
   13        0.000   0.011   0.696   0.707
   14       -0.001   0.002   0.518   0.519
   15       -0.003  -0.003  -0.192  -0.198
   16       -0.002  -0.003  -0.033  -0.037
   17       -0.004  -0.009  -0.297  -0.310
   18       -0.000  -0.002   0.162   0.161
   19       -0.003  -0.059  -0.000  -0.062
   20       -0.000  -0.000   0.000  -0.001
   21       -0.001  -0.022   0.000  -0.023
   22        0.003   0.163  -0.000   0.166
   23       -0.002  -0.096   0.000  -0.097
   24       -0.001  -0.028  -0.000  -0.029
   25        0.003   0.143  -0.000   0.146
   26        0.004   0.253  -0.000   0.257
   27        0.005   0.022   0.000   0.027
   28        0.001   0.037   0.000   0.038
   29       -0.004  -0.236   0.000  -0.240
   30        0.011   0.635  -0.000   0.646
   31        0.001  -0.009   0.000  -0.008
   32        0.005   0.208  -0.000   0.213
   33       -0.001  -0.044   0.000  -0.045
   34        0.003   0.164   0.000   0.167
   35       -0.005  -0.252   0.000  -0.257
   36        0.000   0.024  -0.000   0.025
   37        0.002   0.077   0.000   0.079
   38        0.002   0.136  -0.000   0.138
   39        0.008   0.205   0.000   0.213
   40        0.002   0.035   0.000   0.038
   41        0.001   0.032  -0.000   0.032
   42        0.010   0.509  -0.000   0.518
   43        0.001   0.047   0.000   0.048
   44        0.002   0.135  -0.000   0.137
   45        0.005   0.287  -0.000   0.292
   46        0.011   0.628  -0.000   0.639
   47       -0.004  -0.207   0.000  -0.211
   48        0.001   0.066  -0.000   0.067
   49        0.004   0.236  -0.000   0.240
   50        0.006   0.329  -0.000   0.335
   51        0.001   0.084  -0.000   0.085
   52        0.003   0.032   0.000   0.035
   53        0.004   0.060   0.000   0.064
   54        0.007   0.394  -0.000   0.401
tot           0.06    3.96    1.48    5.50