 vasp.5.4.4.18Apr17-6-g9f103f2a35 (build May 12 2020 04:58:55) complex

 MD_VERSION_INFO: Compiled 2020-05-12T11:58:55-UTC in devlin.sd.materialsdesign.
 com:/home/medea2/data/build/wwolf/vasp-gpu5.4.4/13047/x86_64/src/src/build/std
 from svn 13047

 executed on                        Lin64 date 2023.03.24  21:50:56

 INCAR:
 POTCAR:    PAW_PBE Ni 02Aug2007
 POTCAR:    PAW_PBE O 08Apr2002

 POTCAR:    PAW_PBE Ni 02Aug2007

 POTCAR:    PAW_PBE O 08Apr2002

 Optimization of the real space projectors (new method)

 maximal supplied QI-value         = 16.25
 optimisation between [QCUT,QGAM] = [ 11.38, 22.75] = [ 36.24,144.96] Ry
 Optimized for a Real-space Cutoff    1.47 Angstroem

   l    n(q)    QCUT    max X(q) W(low)/X(q) W(high)/X(q)  e(spline)
   2      9    11.376    60.317    0.17E-03    0.16E-04    0.16E-06
   2      9    11.376    55.921    0.17E-03    0.16E-04    0.17E-06
   0     10    11.376    51.690    0.45E-04    0.60E-04    0.21E-06
   0     10    11.376    30.015    0.37E-04    0.55E-04    0.19E-06
   1     10    11.376    18.849    0.83E-04    0.11E-03    0.92E-07
   1     10    11.376    14.624    0.69E-04    0.92E-04    0.82E-07
 Optimization of the real space projectors (new method)

 maximal supplied QI-value         = 24.76
 optimisation between [QCUT,QGAM] = [ 11.39, 22.77] = [ 36.31,145.25] Ry
 Optimized for a Real-space Cutoff    1.10 Angstroem

   l    n(q)    QCUT    max X(q) W(low)/X(q) W(high)/X(q)  e(spline)
   0      7    11.387    20.381    0.22E-03    0.48E-03    0.18E-06
   0      7    11.387    15.268    0.22E-03    0.52E-03    0.19E-06
   1      7    11.387     5.964    0.22E-03    0.73E-03    0.24E-06
   1      7    11.387     5.382    0.19E-03    0.60E-03    0.21E-06

  PAW_PBE Ni 02Aug2007                  :
  PAW_PBE O 08Apr2002                   :

 POSCAR: NiO2_C2_m_scale_1_050_disp_0_10_round_2
  positions in direct lattice
 exchange correlation table for  LEXCH =       14
   RHO(1)=    0.500       N(1)  =     2000
   RHO(2)=  100.500       N(2)  =     4000

 ion  position               nearest neighbor table
   1  0.004  0.009  0.004-  19 1.97  22 2.07  27 2.26  46 2.27  51 2.37   9 2.56   7 2.62   3 2.72
                             5 3.08
   2  0.994  0.007  0.489-  21 1.75  20 1.92  53 2.11  44 2.16  52 2.30  29 2.35  10 2.67   4 2.75
                             8 2.87
   3  0.006  0.320  0.997-  23 1.74  19 1.76  26 1.83  46 2.06  43 2.18   9 2.66   1 2.72  11 2.86
                             5 2.98  13 3.01
   4  0.978  0.312  0.489-  25 1.85  21 1.96  45 1.98  24 1.98  44 2.07  48 2.09  14 2.73   2 2.75
                             6 2.85  10 2.86  12 2.89  16 3.08
   5  0.003  0.658  0.001-  27 1.74  23 1.86  30 2.14  47 2.16  54 2.40  50 2.42   7 2.97   3 2.98
                            11 3.07   1 3.08
   6  0.002  0.648  0.480-  29 1.61  28 1.69  48 1.90  25 1.95  49 2.10  52 2.18  12 2.64   4 2.85
                             8 2.89
   7  0.308  0.021  0.997-  31 1.86  22 1.87  27 1.92  34 2.29  39 2.44   9 2.49  15 2.62   1 2.62
                             5 2.97  13 2.99
   8  0.313  0.992  0.487-  29 1.75  33 1.79  32 1.85  20 1.85  41 1.97  28 2.29  16 2.70  10 2.82
                            14 2.84   2 2.87   6 2.89  12 2.99
   9  0.297  0.298  0.010-  35 1.77  19 1.78  22 1.86  31 2.06  26 2.21  38 2.45   7 2.49   1 2.56
                             3 2.66  15 2.77  11 2.80  17 2.90
  10  0.301  0.307  0.485-  21 1.67  33 1.82  20 1.83  24 1.89  37 2.00  36 2.11   2 2.67   8 2.82
                            16 2.85   4 2.86  18 2.86  12 2.97
  11  0.341  0.636  0.992-  39 1.87  35 1.94  42 2.01  26 2.05  23 2.05  30 2.27  17 2.54   9 2.80
                             3 2.86  13 3.01   5 3.07
  12  0.302  0.646  0.487-  28 1.60  25 1.74  24 1.88  41 1.91  40 1.95  37 2.02   6 2.64   4 2.89
                            18 2.90  10 2.97   8 2.99
  13  0.641  0.007  0.017-  43 1.85  39 1.90  51 2.10  46 2.13  34 2.28  15 2.74   7 2.99  11 3.01
                             3 3.01
  14  0.650  0.024  0.467-  44 1.71  45 1.77  32 1.80  41 1.94  40 2.24  53 2.27  16 2.56   4 2.73
                             8 2.84
  15  0.617  0.307  0.014-  31 1.62  43 1.82  47 1.89  50 2.21  38 2.22  34 2.24   7 2.62  13 2.74
                             9 2.77  17 2.79
  16  0.621  0.298  0.494-  33 1.67  49 1.74  36 1.75  32 1.84  45 1.94  48 2.15  14 2.56   8 2.70
                            10 2.85  18 2.93   4 3.08
  17  0.627  0.629  0.004-  35 1.66  51 1.68  47 1.92  42 2.13  54 2.16  38 2.23  11 2.54  15 2.79
                             9 2.90
  18  0.626  0.634  0.481-  52 1.72  37 1.72  40 1.82  53 1.86  36 1.94  49 2.00  10 2.86  12 2.90
                            16 2.93
  19  0.101  0.232  0.106-   3 1.76   9 1.78   1 1.97
  20  0.212  0.100  0.390-  10 1.83   8 1.85   2 1.92
  21  0.111  0.211  0.572-  10 1.67   2 1.75   4 1.96
  22  0.222  0.125  0.876-   9 1.86   7 1.87   1 2.07
  23  0.094  0.526  0.075-   3 1.74   5 1.86  11 2.05
  24  0.208  0.431  0.393-  12 1.88  10 1.89   4 1.98
  25  0.105  0.527  0.577-  12 1.74   4 1.85   6 1.95
  26  0.187  0.420  0.873-   3 1.83  11 2.05   9 2.21
  27  0.110  0.847  0.100-   5 1.74   7 1.92   1 2.26
  28  0.195  0.714  0.397-  12 1.60   6 1.69   8 2.29
  29  0.113  0.832  0.559-   6 1.61   8 1.75   2 2.35
  30  0.208  0.742  0.851-   5 2.14  11 2.27
  31  0.445  0.211  0.112-  15 1.62   7 1.86   9 2.06
  32  0.517  0.100  0.384-  14 1.80  16 1.84   8 1.85
  33  0.419  0.208  0.562-  16 1.67   8 1.79  10 1.82
  34  0.536  0.108  0.846-  15 2.24  13 2.28   7 2.29
  35  0.436  0.506  0.085-  17 1.66   9 1.77  11 1.94
  36  0.549  0.412  0.388-  16 1.75  18 1.94  10 2.11
  37  0.436  0.542  0.577-  18 1.72  10 2.00  12 2.02
  38  0.539  0.422  0.843-  15 2.22  17 2.23   9 2.45
  39  0.421  0.841  0.096-  11 1.87  13 1.90   7 2.44
  40  0.527  0.746  0.392-  18 1.82  12 1.95  14 2.24
  41  0.435  0.876  0.567-  12 1.91  14 1.94   8 1.97
  42  0.533  0.734  0.850-  11 2.01  17 2.13
  43  0.752  0.229  0.096-  15 1.82  13 1.85   3 2.18
  44  0.837  0.088  0.372-  14 1.71   4 2.07   2 2.16
  45  0.748  0.199  0.586-  14 1.77  16 1.94   4 1.98
  46  0.853  0.105  0.875-   3 2.06  13 2.13   1 2.27
  47  0.748  0.529  0.100-  15 1.89  17 1.92   5 2.16
  48  0.863  0.435  0.381-   6 1.90   4 2.09  16 2.15
  49  0.744  0.510  0.559-  16 1.74  18 2.00   6 2.10
  50  0.822  0.409  0.854-  15 2.21   5 2.42
  51  0.712  0.825  0.084-  17 1.68  13 2.10   1 2.37
  52  0.824  0.730  0.397-  18 1.72   6 2.18   2 2.30
  53  0.739  0.850  0.571-  18 1.86   2 2.11  14 2.27
  54  0.827  0.720  0.847-  17 2.16   5 2.40

  LATTYP: Found a hexagonal cell.
 ALAT       =     8.7810134983
 C/A-ratio  =     1.1065328053

  Lattice vectors:

 A1 = (   8.7810135000,   0.0000000000,   0.0000000000)
 A2 = (  -4.3905067500,   7.6045807600,   0.0000000000)
 A3 = (   0.0000000000,   0.0000000000,   9.7164795000)

Analysis of symmetry for initial positions (statically):
 Subroutine PRICEL returns:
 Original cell was already a primitive cell.

 Routine SETGRP: Setting up the symmetry group for a
 hexagonal supercell.

 Subroutine GETGRP returns: Found  1 space group operations
 (whereof  1 operations were pure point group operations)
 out of a pool of 24 trial point group operations.

The static configuration has the point symmetry C_1 .

Analysis of symmetry for dynamics (positions and initial velocities):
 Subroutine PRICEL returns:
 Original cell was already a primitive cell.

[...]

The dynamic configuration has the point symmetry C_1 .

Analysis of structural, dynamic, and magnetic symmetry:
 Subroutine PRICEL returns:
 Original cell was already a primitive cell.

 Routine SETGRP: Setting up the symmetry group for a
 hexagonal supercell.

 Subroutine GETGRP returns: Found  1 space group operations
 (whereof  1 operations were pure point group operations)
 out of a pool of 24 trial point group operations.

The magnetic configuration has the point symmetry C_1 .

 Subroutine INISYM returns: Found  1 space group operations
 (whereof  1 operations are pure point group operations),
 and found     1 'primitive' translations

 KPOINTS: Automatic mesh

Automatic generation of k-mesh.
Space group operators:
 irot       det(A)        alpha          n_x          n_y          n_z        tau_x        tau_y        tau_z
    1     1.000000     0.000000     1.000000     0.000000     0.000000     0.000000     0.000000     0.000000

 Subroutine IBZKPT returns following result:

 Found     26 irreducible k-points:

 Following reciprocal coordinates:
            Coordinates               Weight
  0.000000  0.000000  0.000000      1.000000
  0.250000  0.000000  0.000000      2.000000
  0.500000  0.000000  0.000000      1.000000
  0.000000  0.250000  0.000000      2.000000
  0.250000  0.250000  0.000000      2.000000
  0.500000  0.250000  0.000000      2.000000
 -0.250000  0.250000  0.000000      2.000000
  0.000000  0.500000  0.000000      1.000000
  0.250000  0.500000  0.000000      2.000000
  0.500000  0.500000  0.000000      1.000000
  0.000000  0.000000  0.333333      2.000000
  0.250000  0.000000  0.333333      2.000000
  0.500000  0.000000  0.333333      2.000000
 -0.250000  0.000000  0.333333      2.000000
  0.000000  0.250000  0.333333      2.000000
  0.250000  0.250000  0.333333      2.000000
  0.500000  0.250000  0.333333      2.000000
 -0.250000  0.250000  0.333333      2.000000
  0.000000  0.500000  0.333333      2.000000
  0.250000  0.500000  0.333333      2.000000
  0.500000  0.500000  0.333333      2.000000
 -0.250000  0.500000  0.333333      2.000000
  0.000000 -0.250000  0.333333      2.000000
  0.250000 -0.250000  0.333333      2.000000
  0.500000 -0.250000  0.333333      2.000000
 -0.250000 -0.250000  0.333333      2.000000

 Following cartesian coordinates:
            Coordinates               Weight
  0.000000  0.000000  0.000000      1.000000
  0.028471  0.016437  0.000000      2.000000
  0.056941  0.032875  0.000000      1.000000
  0.000000  0.032875  0.000000      2.000000
  0.028471  0.049312  0.000000      2.000000
  0.056941  0.065750  0.000000      2.000000
 -0.028471  0.016437  0.000000      2.000000
  0.000000  0.065750  0.000000      1.000000
  0.028471  0.082187  0.000000      2.000000
  0.056941  0.098625  0.000000      1.000000
  0.000000  0.000000  0.034306      2.000000
  0.028471  0.016437  0.034306      2.000000
  0.056941  0.032875  0.034306      2.000000
 -0.028471 -0.016437  0.034306      2.000000
  0.000000  0.032875  0.034306      2.000000
  0.028471  0.049312  0.034306      2.000000
  0.056941  0.065750  0.034306      2.000000
 -0.028471  0.016437  0.034306      2.000000
  0.000000  0.065750  0.034306      2.000000
  0.028471  0.082187  0.034306      2.000000
  0.056941  0.098625  0.034306      2.000000
 -0.028471  0.049312  0.034306      2.000000
  0.000000 -0.032875  0.034306      2.000000
  0.028471 -0.016437  0.034306      2.000000
  0.056941  0.000000  0.034306      2.000000
 -0.028471 -0.049312  0.034306      2.000000

 SYSTEM =  unknown system
 POSCAR =  NiO2_C2_m_scale_1_050_disp_0_10_round_2

 Startparameter for this run:
   NWRITE =      1    write-flag & timer
[...]
   0.213E+03 0.865E+02 0.873E+02   -.215E+03 -.873E+02 -.905E+02   -.749E+00 -.150E+00 0.469E+00   -.605E-01 0.136E+00 0.355E-01
   0.393E+02 0.888E+02 -.505E+02   -.408E+02 -.874E+02 0.491E+02   0.844E+00 -.605E+00 -.367E+00   -.533E-02 0.788E-02 -.110E-01
   0.108E+03 -.215E+02 0.116E+03   -.106E+03 0.210E+02 -.117E+03   -.200E+01 -.745E+00 -.140E+01   0.391E-02 -.229E+00 -.272E-01
   0.234E+03 0.830E+00 -.123E+02   -.240E+03 -.815E+01 0.993E+01   0.600E+00 0.114E+01 0.119E+01   -.637E-02 -.253E-01 0.422E-03
   -.843E+02 0.255E+03 0.938E+02   0.848E+02 -.258E+03 -.946E+02   0.936E+00 0.100E+01 -.857E-01   0.761E-02 -.526E-01 0.322E-01
   0.462E+02 0.145E+03 -.532E+02   -.448E+02 -.148E+03 0.533E+02   0.107E+01 0.433E+00 -.207E+01   -.140E-02 -.529E-02 -.283E-02
   -.614E+01 0.131E+02 0.403E+02   0.598E+01 -.119E+02 -.417E+02   0.197E+01 -.932E+00 -.145E+01   -.116E+00 0.198E+00 0.659E-01
   0.181E+02 -.756E+02 -.806E+01   -.153E+02 0.808E+02 0.572E+01   0.526E+00 -.547E+00 -.163E+00   -.148E-01 0.158E-01 -.113E-01
   0.984E+02 -.130E+03 0.634E+02   -.101E+03 0.132E+03 -.659E+02   0.495E+00 -.166E+01 0.135E+00   -.673E-01 -.139E+00 -.139E-01
   -.146E+03 -.593E+02 -.105E+03   0.156E+03 0.592E+02 0.108E+03   -.162E+01 -.577E+00 -.573E+00   -.337E-02 -.187E-01 0.188E-02
   -.747E+02 0.813E+02 0.360E+02   0.758E+02 -.816E+02 -.365E+02   0.133E+00 -.122E+01 -.156E+01   0.147E+00 0.544E-01 0.115E-01
   -.119E+03 0.172E+03 0.225E+02   0.120E+03 -.178E+03 -.215E+02   -.330E+00 -.120E+01 0.155E+00   0.204E-01 0.131E-01 -.276E-02
   -.135E+03 -.566E+02 0.119E+03   0.142E+03 0.616E+02 -.122E+03   -.224E+01 -.179E+01 -.175E+01   0.137E+00 0.238E+00 0.328E-01
   -.169E+03 -.405E+02 -.122E+03   0.174E+03 0.444E+02 0.121E+03   -.510E+00 -.467E+00 -.176E+01   0.235E-01 0.288E-01 -.110E-01
   -.164E+03 -.150E+03 0.106E+03   0.169E+03 0.152E+03 -.110E+03   -.162E+01 -.180E+01 -.181E+01   0.835E-01 -.315E-01 -.537E-02
   -.613E+02 -.988E+02 -.366E+02   0.625E+02 0.997E+02 0.367E+02   0.822E+00 0.652E-01 0.368E+00   0.818E-02 -.235E-02 0.429E-02
   0.622E+02 0.923E+02 -.348E+03   -.639E+02 -.944E+02 0.379E+03   0.164E+01 0.421E+00 -.300E+02   -.794E-01 0.790E-01 -.172E-02
   0.703E+02 0.993E+02 0.376E+03   -.699E+02 -.101E+03 -.403E+03   -.173E+01 0.881E+00 0.264E+02   -.188E-01 0.756E-02 0.167E-01
   0.862E+02 0.570E+02 -.425E+03   -.924E+02 -.553E+02 0.455E+03   0.290E+01 -.259E+01 -.282E+02   -.157E-01 0.149E-02 -.149E-01
   0.540E+02 0.103E+03 0.395E+03   -.560E+02 -.103E+03 -.424E+03   0.160E+01 -.134E+01 0.303E+02   -.970E-01 0.664E-01 -.762E-01
   0.403E+02 -.752E+02 -.249E+03   -.390E+02 0.811E+02 0.272E+03   -.442E+00 -.441E+01 -.224E+02   -.608E-01 -.428E-01 -.716E-01
   0.134E+02 0.233E+02 0.360E+03   -.142E+02 -.228E+02 -.383E+03   0.407E+00 -.178E+01 0.238E+02   -.111E-01 0.140E-02 -.141E-01
   0.551E+02 0.365E+02 -.437E+03   -.594E+02 -.384E+02 0.466E+03   0.231E+01 0.870E+00 -.268E+02   -.456E-02 -.308E-02 0.118E-01
   0.113E+02 -.119E+02 0.362E+03   -.770E+01 0.131E+02 -.385E+03   -.270E+01 -.972E+00 0.255E+02   -.740E-01 0.208E-01 0.447E-01
   0.524E+02 -.854E+01 -.256E+03   -.519E+02 0.116E+02 0.279E+03   -.110E+01 -.119E+01 -.249E+02   -.715E-01 -.179E+00 0.352E-01
   0.385E+02 -.105E+03 0.430E+03   -.405E+02 0.117E+03 -.463E+03   0.127E+00 -.734E+01 0.275E+02   -.379E-03 -.269E-01 0.228E-02
   0.137E+03 -.685E+02 -.382E+03   -.143E+03 0.757E+02 0.410E+03   0.362E+01 -.250E+01 -.234E+02   -.940E-02 -.183E-01 -.297E-03
   0.287E+02 -.555E+02 0.227E+03   -.266E+02 0.576E+02 -.239E+03   -.221E+01 -.222E+01 0.155E+02   -.333E-01 -.122E+00 -.180E-02
   0.397E+02 0.785E+02 -.332E+03   -.467E+02 -.819E+02 0.364E+03   0.334E+01 0.129E+01 -.312E+02   0.349E-01 0.145E+00 0.847E-01
   -.107E+02 0.604E+02 0.397E+03   0.652E+01 -.596E+02 -.425E+03   0.443E+01 -.813E+00 0.283E+02   0.148E-01 0.198E-01 0.170E-01
   0.536E+02 0.329E+02 -.427E+03   -.600E+02 -.335E+02 0.456E+03   0.417E+01 -.809E+00 -.250E+02   0.685E-02 0.195E-01 -.249E-01
   -.317E+02 0.798E+02 0.243E+03   0.336E+02 -.803E+02 -.258E+03   -.234E+01 0.320E+00 0.180E+02   0.881E-01 0.473E-01 -.564E-01
   0.459E+02 -.322E+02 -.310E+03   -.504E+02 0.302E+02 0.341E+03   0.845E+00 0.202E+01 -.285E+02   0.475E-02 0.131E-01 -.453E-02
   0.395E+02 -.585E+02 0.364E+03   -.425E+02 0.610E+02 -.390E+03   0.167E-01 -.229E+01 0.246E+02   0.127E-01 0.937E-02 -.187E-02
   0.357E+02 -.904E+01 -.391E+03   -.409E+02 0.726E+01 0.416E+03   0.281E+01 -.423E-02 -.244E+02   -.152E-02 0.421E-02 0.211E-02
   -.555E+01 -.121E+02 0.266E+03   0.439E+01 0.116E+02 -.281E+03   0.136E+01 0.572E+00 0.178E+02   0.344E-01 0.786E-01 0.589E-02
   0.660E+02 -.229E+02 -.212E+03   -.745E+02 0.233E+02 0.231E+03   0.887E+01 0.685E+00 -.206E+02   0.438E-01 -.737E-01 0.298E-01
   -.759E+01 -.832E+02 0.322E+03   0.528E+01 0.898E+02 -.342E+03   0.116E+01 -.612E+01 0.195E+02   0.503E-02 -.901E-02 0.674E-02
   -.456E+02 0.371E+01 -.365E+03   0.492E+02 -.385E+01 0.386E+03   -.462E+01 0.921E+00 -.216E+02   0.580E-02 -.175E-01 -.747E-02
   -.129E+02 -.120E+03 0.275E+03   0.154E+02 0.126E+03 -.292E+03   -.266E+01 -.695E+01 0.201E+02   0.275E-01 -.305E-01 -.496E-02
   -.109E+03 -.186E+02 -.227E+03   0.117E+03 0.245E+02 0.249E+03   -.714E+01 -.683E+01 -.215E+02   0.595E-01 0.826E-01 -.565E-02
   -.111E+03 0.392E+02 0.342E+03   0.120E+03 -.397E+02 -.366E+03   -.709E+01 0.253E+01 0.247E+02   0.649E-02 0.114E-01 -.243E-02
   -.725E+02 -.739E+01 -.418E+03   0.745E+02 0.971E+01 0.445E+03   -.162E+01 -.133E+01 -.284E+02   0.991E-02 0.202E-01 -.806E-02
   -.972E+01 0.865E+02 0.278E+03   0.795E+01 -.897E+02 -.296E+03   0.219E+01 0.331E+01 0.214E+02   0.337E-03 0.495E-01 0.123E-01
   -.103E+03 -.110E+03 -.227E+03   0.109E+03 0.114E+03 0.248E+03   -.611E+01 -.374E+01 -.224E+02   0.524E-01 0.182E-01 -.570E-01
   -.877E+01 0.111E+02 0.325E+03   0.478E+01 -.147E+02 -.344E+03   0.519E+01 0.213E+01 0.200E+02   0.169E-02 0.252E-03 -.205E-01
   -.648E+02 -.130E+03 -.352E+03   0.684E+02 0.141E+03 0.371E+03   -.383E+01 -.839E+01 -.173E+02   0.769E-02 -.191E-02 0.900E-02
   -.560E+02 -.384E+02 0.222E+03   0.572E+02 0.375E+02 -.234E+03   -.154E+01 0.126E+01 0.143E+02   0.402E-01 0.632E-01 0.427E-01
   -.753E+02 -.152E+03 -.211E+03   0.766E+02 0.163E+03 0.229E+03   -.101E+01 -.815E+01 -.185E+02   0.230E-01 -.347E-01 -.101E-01
   -.954E+02 -.127E+03 0.291E+03   0.104E+03 0.133E+03 -.311E+03   -.530E+01 -.350E+01 0.185E+02   0.567E-03 -.748E-02 -.480E-02
   -.399E+02 -.872E+02 -.332E+03   0.360E+02 0.927E+02 0.351E+03   0.418E+01 -.374E+01 -.184E+02   0.799E-02 -.227E-02 0.427E-02
   -.623E+02 -.103E+03 0.216E+03   0.624E+02 0.105E+03 -.229E+03   -.105E+00 -.159E+01 0.148E+02   0.131E-01 -.546E-01 0.224E-01
   -.418E-01 0.721E+02 0.524E+02   0.895E-12 0.455E-12 -.654E-12   0.441E-01 -.725E+02 -.525E+02   -.105E-01 0.307E+00 0.784E-01

 POSITION                                       TOTAL-FORCE (eV/Angst)
     -0.00545      0.06743      0.03466        -0.773801     -0.568917     -0.536817
      8.69826      0.05347      4.74973        -1.454680     -4.520375     -1.603993
     -1.35349      2.43337      9.68611        -3.334485     -0.824669     -2.656936
      7.21557      2.37454      4.75427        -0.641653      0.722339     -1.835783
     -2.86695      5.00423      0.00605        -0.583430     -1.494674     -2.192255
     -2.82908      4.92438      4.66119        -5.398860     -6.204983     -1.197626
      2.61380      0.15939      9.68635         1.415856     -2.106100     -0.875190
     -1.60882      7.54129      4.73364         2.433972     -2.075314     -2.040415
      1.29920      2.26884      0.09349         1.689861      0.480786     -2.817926
      1.29279      2.33705      4.71286         3.242047      4.606797     -2.509104
      0.20054      4.83652      9.63413        -2.477145      0.672052     -2.330970
     -0.18864      4.91354      4.73675         8.545118     -0.689389      1.856486
      5.59193      0.05622      0.16643         1.366477     -1.502066     -1.998740
      5.60523      0.17980      4.53646         0.331351     -6.677501      1.145170
      4.06727      2.33406      0.13902         4.768184      3.450732     -5.203311
      4.14066      2.26701      4.79844         4.786057      3.542748     -3.147303
      2.74169      4.78276      0.04058         3.953479      0.161138     -6.058626
      2.71065      4.82432      4.67355         2.069995      0.985338      0.439754
     -0.13003      1.76127      1.03389        -0.153036     -1.643246      0.502472
      1.42157      0.75985      3.78818        -1.333938     -1.201194     -0.210871
      0.05196      1.60308      5.55833        -3.250597     -0.852641      2.388065
      1.39835      0.94951      8.50823        -0.498165     -0.970175      2.132638
     -1.47982      3.99689      0.72800         0.797339      1.459341      0.267029
     -0.07101      3.28099      3.81413        -0.425340     -1.287557      0.377165
     -1.39481      4.00982      5.60622        -1.984230     -1.010460      1.554294
     -0.20471      3.19623      8.48167         0.873848      0.313947      1.996927
     -2.75188      6.44441      0.97116        -0.691169      1.659249     -1.216078
     -1.42395      5.42776      3.85977        -1.876111      3.867342     -5.443219
     -2.66193      6.32969      5.42685        -2.350118      4.612481      4.099605
     -1.43103      5.64325      8.27070        -0.226408     -0.226358      2.801111
      2.98224      1.60150      1.08620        -3.642927     -2.042359      1.780932
      4.09805      0.76412      3.73454         0.276614     -0.052702     -0.132408
      2.76646      1.57965      5.45581        -2.200959     -1.368165      4.100330
      4.23837      0.81772      8.21551        -0.340997     -0.156790      2.865456
      1.60818      3.84970      0.82150        -3.616399      0.006770      2.053646
      3.01051      3.13067      3.77365        -3.006032      0.297728     -0.668242
      1.45180      4.11917      5.60980        -2.347218     -1.779159      0.326997
      2.88058      3.20804      8.18956         0.225950      0.200299      2.991932
      0.00331      6.39388      0.93177         0.443113      0.988837     -1.372857
      1.35042      5.67301      3.80517        -1.142610      0.418969     -0.508203
     -0.02897      6.65886      5.50504        -1.090938      0.760651     -0.041917
      1.46158      5.58177      8.25438        -0.196141     -0.832644      3.255961
      5.59641      1.74218      0.93253         0.710824     -0.885120     -0.455473
      6.96410      0.67017      3.61530         2.193217      2.085037      0.974195
      5.69562      1.51671      5.69388         0.376329      1.018539     -0.609787
      7.02747      0.79498      8.49723         0.416070      0.183034      3.424336
      4.24501      4.02517      0.97290        -0.116887      0.209138     -1.328244
      5.67050      3.30577      3.70560         1.203074     -1.453661      1.737957
      4.29560      3.88161      5.43512        -0.152663      2.225205      2.185430
      5.42299      3.11320      8.29702        -0.255846      0.364507      2.338556
      2.63267      6.27164      0.81480         0.233537      3.338544      0.281059
      4.03242      5.55344      3.85453         2.910825      2.259463     -1.017490
      2.76200      6.46016      5.55032         0.274139      1.777381     -0.185449
      4.09552      5.47789      8.22784         0.025505     -0.242173      2.317732
    total drift:                               -0.008165     -0.006710      0.011896

  FREE ENERGIE OF THE ION-ELECTRON SYSTEM (eV)
  free  energy   TOTEN  =      -302.7769840066 eV

  energy  without entropy=     -302.7382670054  energy(sigma->0) =     -302.75762551

volume of typ            1:    17.7 %

volume of typ            2:     9.0 %

total charge

# of ion       s       p       d       tot
    1        0.191   0.168   7.864   8.222
    2        0.239   0.249   7.854   8.342
    3        0.289   0.352   7.829   8.469
    4        0.251   0.295   7.811   8.356
    5        0.244   0.258   7.813   8.315
    6        0.321   0.436   7.860   8.618
    7        0.244   0.259   7.864   8.367
    8        0.304   0.395   7.843   8.541
    9        0.280   0.347   7.872   8.499
   10        0.311   0.420   7.845   8.576
   11        0.243   0.279   7.797   8.319
   12        0.333   0.473   7.850   8.656
   13        0.235   0.237   7.795   8.267
   14        0.304   0.387   7.826   8.517
   15        0.298   0.376   7.839   8.514
   16        0.334   0.479   7.857   8.670
   17        0.310   0.400   7.824   8.533
   18        0.322   0.469   7.808   8.599
   19        1.284   2.727   0.011   4.022
   20        1.284   2.724   0.008   4.017
   21        1.281   2.766   0.013   4.060
   22        1.294   2.669   0.008   3.972
   23        1.284   2.714   0.009   4.007
   24        1.291   2.693   0.007   3.990
   25        1.290   2.723   0.010   4.023
   26        1.302   2.636   0.006   3.944
   27        1.287   2.688   0.008   3.982
   28        1.294   2.776   0.016   4.086
   29        1.281   2.781   0.013   4.075
   30        1.312   2.553   0.002   3.867
   31        1.290   2.739   0.013   4.042
   32        1.287   2.734   0.010   4.031
   33        1.281   2.786   0.014   4.080
   34        1.318   2.542   0.002   3.862
   35        1.279   2.772   0.013   4.065
   36        1.295   2.696   0.008   3.998
   37        1.286   2.718   0.008   4.011
   38        1.320   2.539   0.002   3.862
   39        1.291   2.657   0.005   3.953
   40        1.293   2.671   0.006   3.969
   41        1.287   2.690   0.006   3.983
   42        1.314   2.564   0.003   3.881
   43        1.287   2.687   0.007   3.981
   44        1.291   2.684   0.007   3.982
   45        1.288   2.698   0.008   3.995
   46        1.303   2.596   0.003   3.902
   47        1.294   2.651   0.005   3.951
   48        1.297   2.646   0.004   3.947
   49        1.292   2.692   0.007   3.992
   50        1.317   2.536   0.002   3.855
   51        1.290   2.683   0.007   3.981
   52        1.295   2.667   0.006   3.969
   53        1.300   2.628   0.004   3.932
   54        1.317   2.535   0.002   3.854
tot          51.65  102.54  141.31  295.50

magnetization (x)

# of ion       s       p       d       tot
    1       -0.004   0.005   1.384   1.386
    2       -0.000  -0.002  -0.060  -0.062
    3       -0.004  -0.007  -0.054  -0.065
    4       -0.001  -0.001  -0.018  -0.019
    5       -0.006  -0.006   0.593   0.581
    6       -0.002  -0.005  -0.255  -0.262
    7       -0.005   0.000   0.568   0.564
    8        0.001   0.001  -0.007  -0.005
    9       -0.001   0.001   0.531   0.531
   10        0.000  -0.000  -0.003  -0.003
   11       -0.004  -0.005  -0.059  -0.068
   12        0.000   0.000  -0.006  -0.005
   13       -0.003   0.002   0.838   0.837
   14       -0.000  -0.002   0.018   0.016
   15       -0.006  -0.017   0.028   0.005
   16       -0.001  -0.001   0.011   0.009
   17       -0.004  -0.016  -0.019  -0.040
   18       -0.001  -0.003   0.013   0.010
   19        0.004   0.159  -0.000   0.163
   20       -0.000  -0.009  -0.000  -0.010
   21       -0.001  -0.017   0.000  -0.017
   22        0.006   0.241  -0.000   0.247
   23        0.003   0.076   0.000   0.079
   24        0.000   0.002  -0.000   0.002
   25       -0.003  -0.075  -0.000  -0.077
   26        0.003   0.120  -0.000   0.122
   27        0.006   0.186   0.000   0.192
   28       -0.001  -0.038  -0.000  -0.039
   29       -0.002  -0.108   0.000  -0.110
   30        0.011   0.617  -0.000   0.628
   31        0.002   0.050  -0.000   0.053
   32       -0.001  -0.022   0.000  -0.022
   33       -0.000   0.009  -0.000   0.009
   34        0.014   0.769  -0.000   0.783
   35       -0.001  -0.055   0.000  -0.056
   36       -0.000  -0.001  -0.000  -0.001
   37        0.000   0.003   0.000   0.004
   38        0.011   0.625   0.000   0.636
   39        0.004   0.137   0.000   0.140
   40        0.000   0.008  -0.000   0.008
   41       -0.000  -0.003   0.000  -0.003
   42        0.007   0.434  -0.000   0.441
   43        0.003   0.165  -0.000   0.168
   44        0.002   0.112  -0.000   0.114
   45        0.000   0.001  -0.000   0.001
   46        0.006   0.321  -0.000   0.327
   47        0.001  -0.004   0.000  -0.002
   48        0.001   0.080  -0.000   0.082
   49        0.003   0.188  -0.000   0.191
   50        0.013   0.669   0.000   0.682
   51        0.007   0.231  -0.000   0.238
   52        0.002   0.133  -0.000   0.134
   53        0.002   0.114  -0.000   0.116
   54        0.016   0.828   0.000   0.844
tot           0.08    5.89    3.50    9.47