 vasp.5.4.4.18Apr17-6-g9f103f2a35 (build May 12 2020 04:58:55) complex

 MD_VERSION_INFO: Compiled 2020-05-12T11:58:55-UTC in devlin.sd.materialsdesign.
 com:/home/medea2/data/build/wwolf/vasp-gpu5.4.4/13047/x86_64/src/src/build/std
 from svn 13047

 executed on                        Lin64 date 2023.03.24  22:10:01

 INCAR:
 POTCAR:    PAW_PBE Ni 02Aug2007
 POTCAR:    PAW_PBE O 08Apr2002

 POTCAR:    PAW_PBE Ni 02Aug2007

 POTCAR:    PAW_PBE O 08Apr2002

 Optimization of the real space projectors (new method)

 maximal supplied QI-value         = 16.25
 optimisation between [QCUT,QGAM] = [ 11.38, 22.75] = [ 36.24,144.96] Ry
 Optimized for a Real-space Cutoff    1.47 Angstroem

   l    n(q)    QCUT    max X(q) W(low)/X(q) W(high)/X(q)  e(spline)
   2      9    11.376    60.317    0.17E-03    0.16E-04    0.16E-06
   2      9    11.376    55.921    0.17E-03    0.16E-04    0.17E-06
   0     10    11.376    51.690    0.45E-04    0.60E-04    0.21E-06
   0     10    11.376    30.015    0.37E-04    0.55E-04    0.19E-06
   1     10    11.376    18.849    0.83E-04    0.11E-03    0.92E-07
   1     10    11.376    14.624    0.69E-04    0.92E-04    0.82E-07
 Optimization of the real space projectors (new method)

 maximal supplied QI-value         = 24.76
 optimisation between [QCUT,QGAM] = [ 11.39, 22.77] = [ 36.31,145.25] Ry
 Optimized for a Real-space Cutoff    1.10 Angstroem

   l    n(q)    QCUT    max X(q) W(low)/X(q) W(high)/X(q)  e(spline)
   0      7    11.387    20.381    0.22E-03    0.48E-03    0.18E-06
   0      7    11.387    15.268    0.22E-03    0.52E-03    0.19E-06
   1      7    11.387     5.964    0.22E-03    0.73E-03    0.24E-06
   1      7    11.387     5.382    0.19E-03    0.60E-03    0.21E-06

  PAW_PBE Ni 02Aug2007                  :
  PAW_PBE O 08Apr2002                   :

 POSCAR: NiO2_C2_m_scale_1_050_disp_0_05_round_2
  positions in direct lattice
 exchange correlation table for  LEXCH =       14
   RHO(1)=    0.500       N(1)  =     2000
   RHO(2)=  100.500       N(2)  =     4000

 ion  position               nearest neighbor table
   1  0.009  0.010  0.997-  19 1.76  22 1.98  51 2.18  27 2.23  54 2.46  46 2.48   9 2.73   7 2.81
                             3 2.82
   2  0.999  0.996  0.470-  20 1.86  21 1.87  52 2.19  29 2.20  53 2.26  44 2.29   4 2.75   8 2.79
                            10 2.86
   3  0.993  0.323  0.996-  23 1.92  19 2.00  26 2.14  43 2.23  46 2.24  50 2.35   5 2.65  11 2.82
                             1 2.82   9 2.87  13 3.00  15 3.04
   4  0.987  0.303  0.475-  21 1.77  44 1.83  24 1.92  25 2.03  45 2.14  48 2.21   2 2.75   6 2.80
                            14 2.81  12 2.85  10 2.87
   5  0.986  0.621  0.999-  23 1.90  27 2.03  50 2.09  47 2.13  30 2.17  54 2.46   3 2.65  15 2.78
                            11 2.81
   6  0.005  0.630  0.475-  25 1.71  28 1.81  29 1.88  48 1.92  52 2.22  49 2.34  12 2.75   4 2.80
                            16 3.03   8 3.05
   7  0.329  0.010  0.997-  31 1.84  27 1.99  34 2.00  22 2.06  39 2.16  30 2.48   9 2.79  15 2.81
                             1 2.81  13 2.87
   8  0.320  0.003  0.468-  33 1.81  32 1.85  20 1.87  29 2.02  28 2.18  41 2.31  16 2.76   2 2.79
                            10 2.80  14 2.86   6 3.05
   9  0.318  0.321  0.012-  31 1.75  19 1.76  35 1.80  22 2.19  38 2.23  26 2.26   1 2.73   7 2.79
                            17 2.82  11 2.83   3 2.87  15 2.88
  10  0.323  0.323  0.474-  24 1.83  36 1.83  37 1.84  33 1.85  20 1.92  21 1.94  12 2.69  18 2.73
                            16 2.76   8 2.80   2 2.86   4 2.87
  11  0.316  0.642  0.994-  39 1.81  35 1.96  23 1.96  30 2.03  26 2.08  42 2.09   5 2.81   3 2.82
                             9 2.83  17 2.86  13 2.98
  12  0.315  0.625  0.484-  25 1.80  37 1.83  41 1.89  28 1.91  24 1.92  40 1.98  18 2.69  10 2.69
                             6 2.75   4 2.85
  13  0.645  0.990  0.998-  39 1.93  43 1.98  51 2.00  46 2.11  34 2.21  42 2.32   7 2.87  15 2.95
                            11 2.98   3 3.00  17 3.05
  14  0.647  0.007  0.483-  45 1.70  44 1.90  41 1.97  32 1.97  53 2.07  40 2.31  16 2.79   4 2.81
                             8 2.86
  15  0.650  0.329  0.002-  43 1.82  47 1.87  50 2.02  31 2.03  38 2.08  34 2.17  17 2.78   5 2.78
                             7 2.81   9 2.88  13 2.95   3 3.04
  16  0.634  0.318  0.476-  48 1.75  32 1.79  33 1.86  45 1.88  49 1.89  36 1.89  10 2.76   8 2.76
                            14 2.79  18 2.85   6 3.03
  17  0.640  0.640  0.995-  35 1.85  51 1.88  47 1.92  54 2.07  42 2.14  38 2.19  15 2.78   9 2.82
                            11 2.86  13 3.05
  18  0.628  0.639  0.490-  53 1.79  37 1.80  40 1.81  49 1.89  36 2.01  52 2.03  12 2.69  10 2.73
                            16 2.85
  19  0.110  0.208  0.092-   9 1.76   1 1.76   3 2.00
  20  0.210  0.106  0.373-   2 1.86   8 1.87  10 1.92
  21  0.096  0.210  0.565-   4 1.77   2 1.87  10 1.94
  22  0.209  0.102  0.866-   1 1.98   7 2.06   9 2.19
  23  0.104  0.533  0.108-   5 1.90   3 1.92  11 1.96
  24  0.207  0.413  0.377-  10 1.83  12 1.92   4 1.92
  25  0.106  0.541  0.570-   6 1.71  12 1.80   4 2.03
  26  0.210  0.433  0.856-  11 2.08   3 2.14   9 2.26
  27  0.111  0.853  0.102-   7 1.99   5 2.03   1 2.23
  28  0.213  0.739  0.385-   6 1.81  12 1.91   8 2.18
  29  0.100  0.842  0.574-   6 1.88   8 2.02   2 2.20
  30  0.208  0.737  0.858-  11 2.03   5 2.17   7 2.48
  31  0.414  0.214  0.098-   9 1.75   7 1.84  15 2.03
  32  0.535  0.118  0.380-  16 1.79   8 1.85  14 1.97
  33  0.419  0.205  0.566-   8 1.81  10 1.85  16 1.86
  34  0.527  0.106  0.863-   7 2.00  15 2.17  13 2.21
  35  0.432  0.534  0.093-   9 1.80  17 1.85  11 1.96
  36  0.526  0.421  0.374-  10 1.83  16 1.89  18 2.01
  37  0.422  0.524  0.580-  18 1.80  12 1.83  10 1.84
  38  0.533  0.412  0.857-  15 2.08  17 2.19   9 2.23
  39  0.422  0.847  0.089-  11 1.81  13 1.93   7 2.16
  40  0.536  0.737  0.378-  18 1.81  12 1.98  14 2.31
  41  0.428  0.843  0.578-  12 1.89  14 1.97   8 2.31
  42  0.527  0.744  0.855-  11 2.09  17 2.14  13 2.32
  43  0.734  0.211  0.102-  15 1.82  13 1.98   3 2.23
  44  0.847  0.113  0.366-   4 1.83  14 1.90   2 2.29
  45  0.735  0.202  0.570-  14 1.70  16 1.88   4 2.14
  46  0.843  0.105  0.847-  13 2.11   3 2.24   1 2.48
  47  0.745  0.535  0.106-  15 1.87  17 1.92   5 2.13
  48  0.834  0.417  0.387-  16 1.75   6 1.92   4 2.21
  49  0.732  0.525  0.583-  16 1.89  18 1.89   6 2.34
  50  0.841  0.421  0.857-  15 2.02   5 2.09   3 2.35
  51  0.747  0.857  0.088-  17 1.88  13 2.00   1 2.18
  52  0.850  0.736  0.375-  18 2.03   2 2.19   6 2.22
  53  0.734  0.850  0.573-  18 1.79  14 2.07   2 2.26
  54  0.845  0.746  0.854-  17 2.07   1 2.46   5 2.46

  LATTYP: Found a hexagonal cell.
 ALAT       =     8.7810134983
 C/A-ratio  =     1.1065328053

  Lattice vectors:

 A1 = (   8.7810135000,   0.0000000000,   0.0000000000)
 A2 = (  -4.3905067500,   7.6045807600,   0.0000000000)
 A3 = (   0.0000000000,   0.0000000000,   9.7164795000)

Analysis of symmetry for initial positions (statically):
 Subroutine PRICEL returns:
 Original cell was already a primitive cell.

 Routine SETGRP: Setting up the symmetry group for a
 hexagonal supercell.

 Subroutine GETGRP returns: Found  1 space group operations
 (whereof  1 operations were pure point group operations)
 out of a pool of 24 trial point group operations.

The static configuration has the point symmetry C_1 .

Analysis of symmetry for dynamics (positions and initial velocities):
 Subroutine PRICEL returns:
 Original cell was already a primitive cell.

[...]

The dynamic configuration has the point symmetry C_1 .

Analysis of structural, dynamic, and magnetic symmetry:
 Subroutine PRICEL returns:
 Original cell was already a primitive cell.

 Routine SETGRP: Setting up the symmetry group for a
 hexagonal supercell.

 Subroutine GETGRP returns: Found  1 space group operations
 (whereof  1 operations were pure point group operations)
 out of a pool of 24 trial point group operations.

The magnetic configuration has the point symmetry C_1 .

 Subroutine INISYM returns: Found  1 space group operations
 (whereof  1 operations are pure point group operations),
 and found     1 'primitive' translations

 KPOINTS: Automatic mesh

Automatic generation of k-mesh.
Space group operators:
 irot       det(A)        alpha          n_x          n_y          n_z        tau_x        tau_y        tau_z
    1     1.000000     0.000000     1.000000     0.000000     0.000000     0.000000     0.000000     0.000000

 Subroutine IBZKPT returns following result:

 Found     26 irreducible k-points:

 Following reciprocal coordinates:
            Coordinates               Weight
  0.000000  0.000000  0.000000      1.000000
  0.250000  0.000000  0.000000      2.000000
  0.500000  0.000000  0.000000      1.000000
  0.000000  0.250000  0.000000      2.000000
  0.250000  0.250000  0.000000      2.000000
  0.500000  0.250000  0.000000      2.000000
 -0.250000  0.250000  0.000000      2.000000
  0.000000  0.500000  0.000000      1.000000
  0.250000  0.500000  0.000000      2.000000
  0.500000  0.500000  0.000000      1.000000
  0.000000  0.000000  0.333333      2.000000
  0.250000  0.000000  0.333333      2.000000
  0.500000  0.000000  0.333333      2.000000
 -0.250000  0.000000  0.333333      2.000000
  0.000000  0.250000  0.333333      2.000000
  0.250000  0.250000  0.333333      2.000000
  0.500000  0.250000  0.333333      2.000000
 -0.250000  0.250000  0.333333      2.000000
  0.000000  0.500000  0.333333      2.000000
  0.250000  0.500000  0.333333      2.000000
  0.500000  0.500000  0.333333      2.000000
 -0.250000  0.500000  0.333333      2.000000
  0.000000 -0.250000  0.333333      2.000000
  0.250000 -0.250000  0.333333      2.000000
  0.500000 -0.250000  0.333333      2.000000
 -0.250000 -0.250000  0.333333      2.000000

 Following cartesian coordinates:
            Coordinates               Weight
  0.000000  0.000000  0.000000      1.000000
  0.028471  0.016437  0.000000      2.000000
  0.056941  0.032875  0.000000      1.000000
  0.000000  0.032875  0.000000      2.000000
  0.028471  0.049312  0.000000      2.000000
  0.056941  0.065750  0.000000      2.000000
 -0.028471  0.016437  0.000000      2.000000
  0.000000  0.065750  0.000000      1.000000
  0.028471  0.082187  0.000000      2.000000
  0.056941  0.098625  0.000000      1.000000
  0.000000  0.000000  0.034306      2.000000
  0.028471  0.016437  0.034306      2.000000
  0.056941  0.032875  0.034306      2.000000
 -0.028471 -0.016437  0.034306      2.000000
  0.000000  0.032875  0.034306      2.000000
  0.028471  0.049312  0.034306      2.000000
  0.056941  0.065750  0.034306      2.000000
 -0.028471  0.016437  0.034306      2.000000
  0.000000  0.065750  0.034306      2.000000
  0.028471  0.082187  0.034306      2.000000
  0.056941  0.098625  0.034306      2.000000
 -0.028471  0.049312  0.034306      2.000000
  0.000000 -0.032875  0.034306      2.000000
  0.028471 -0.016437  0.034306      2.000000
  0.056941  0.000000  0.034306      2.000000
 -0.028471 -0.049312  0.034306      2.000000

 SYSTEM =  unknown system
 POSCAR =  NiO2_C2_m_scale_1_050_disp_0_05_round_2

[...]
   0.728E+02 0.108E+03 0.880E+02   -.724E+02 -.109E+03 -.893E+02   -.832E+00 -.505E+00 -.254E+00   -.277E-03 0.118E-01 0.133E-01
   0.113E+03 0.591E+01 -.755E+02   -.115E+03 -.548E+01 0.742E+02   -.154E+01 0.171E+01 0.789E+00   -.863E-03 0.849E-02 -.583E-02
   0.898E+02 -.129E+03 0.900E+02   -.897E+02 0.132E+03 -.902E+02   -.892E+00 -.639E+00 -.116E+01   0.796E-02 -.808E-02 0.258E-01
   0.191E+03 -.755E+02 -.192E+02   -.196E+03 0.777E+02 0.179E+02   -.720E+00 0.312E-01 0.989E+00   0.796E-02 -.117E-01 -.105E-01
   0.215E+00 0.176E+03 0.837E+02   -.716E+00 -.178E+03 -.854E+02   0.344E+00 -.900E+00 -.799E+00   0.616E-02 -.244E-03 0.166E-01
   0.660E+01 0.233E+03 -.408E+02   -.682E+01 -.235E+03 0.414E+02   0.120E+01 -.803E+00 0.214E+00   0.427E-02 0.697E-02 -.373E-02
   0.483E+02 -.462E+00 0.125E+03   -.477E+02 0.171E+01 -.128E+03   -.383E+00 -.669E+00 -.276E+01   0.328E-02 0.725E-02 0.227E-01
   0.497E+02 0.826E+02 -.841E+02   -.500E+02 -.839E+02 0.837E+02   -.457E+00 -.545E+00 0.447E+00   0.601E-02 0.882E-02 -.964E-02
   0.351E+02 -.460E+02 0.803E+02   -.353E+02 0.474E+02 -.832E+02   0.465E+00 -.137E+01 -.422E+00   -.914E-02 -.112E-01 0.167E-01
   0.378E+02 -.117E+03 -.429E+02   -.376E+02 0.122E+03 0.419E+02   0.867E-01 -.504E+00 -.917E+00   -.988E-03 -.694E-02 -.834E-02
   -.814E+02 -.474E+00 0.648E+02   0.823E+02 -.298E-01 -.655E+02   -.719E+00 -.294E+00 -.217E+01   -.301E-02 0.415E-02 0.788E-02
   -.711E+02 0.161E+03 -.453E+02   0.721E+02 -.166E+03 0.447E+02   -.439E+00 -.482E+00 -.196E+01   -.697E-02 0.470E-02 -.474E-02
   -.545E+02 0.170E+02 0.672E+02   0.550E+02 -.172E+02 -.696E+02   -.167E+01 -.889E+00 -.101E+01   -.624E-02 0.617E-02 0.161E-01
   -.736E+02 -.514E+02 -.107E+03   0.739E+02 0.542E+02 0.108E+03   -.205E+00 -.129E+01 0.308E+00   -.401E-02 0.109E-02 -.904E-02
   -.856E+02 -.130E+03 0.109E+03   0.872E+02 0.132E+03 -.111E+03   -.698E+00 -.174E+01 -.134E+01   -.314E-02 -.171E-01 0.259E-01
   -.159E+03 -.150E+03 -.832E+02   0.163E+03 0.152E+03 0.820E+02   -.670E+00 -.112E+01 -.135E+01   -.721E-02 -.154E-01 -.161E-01
   0.106E+03 0.522E+02 -.265E+03   -.111E+03 -.515E+02 0.293E+03   0.391E+01 -.583E+00 -.280E+02   -.438E-02 0.451E-02 0.349E-01
   0.446E+02 0.951E+02 0.329E+03   -.451E+02 -.932E+02 -.355E+03   0.415E+00 -.221E+01 0.265E+02   -.876E-03 -.933E-03 0.235E-01
   0.161E+02 0.886E+02 -.422E+03   -.127E+02 -.892E+02 0.449E+03   -.252E+01 -.478E+00 -.268E+02   -.231E-02 -.429E-03 -.283E-01
   0.332E+02 0.653E+02 0.347E+03   -.317E+02 -.630E+02 -.368E+03   -.146E+01 -.249E+01 0.250E+02   0.737E-02 0.245E-02 -.213E-01
   0.239E+02 -.124E+02 -.277E+03   -.222E+02 0.136E+02 0.303E+03   -.188E+01 -.165E+01 -.284E+02   -.415E-02 0.420E-02 0.266E-01
   0.708E+02 -.539E+01 0.356E+03   -.735E+02 0.694E+01 -.382E+03   0.190E+01 -.108E+01 0.267E+02   -.457E-03 0.769E-02 0.227E-01
   0.451E+02 0.401E+02 -.414E+03   -.440E+02 -.446E+02 0.443E+03   -.210E+00 0.157E+01 -.283E+02   0.105E-01 -.820E-03 -.283E-01
   0.221E+02 0.445E+02 0.303E+03   -.203E+02 -.458E+02 -.321E+03   -.206E+01 0.117E+01 0.227E+02   -.217E-02 0.343E-02 -.237E-01
   0.586E+02 0.224E+02 -.197E+03   -.614E+02 -.233E+02 0.216E+03   0.254E+01 0.127E+01 -.210E+02   0.572E-02 -.669E-02 0.251E-01
   0.958E+01 -.941E+02 0.315E+03   -.585E+01 0.100E+03 -.337E+03   -.353E+01 -.570E+01 0.225E+02   0.771E-02 -.551E-02 0.198E-01
   0.709E+02 -.303E+02 -.349E+03   -.728E+02 0.320E+02 0.371E+03   0.164E+01 -.290E+00 -.233E+02   0.247E-02 0.431E-02 -.301E-01
   0.718E+02 -.683E+02 0.279E+03   -.731E+02 0.718E+02 -.295E+03   0.944E+00 -.383E+01 0.207E+02   0.719E-03 -.367E-02 -.147E-01
   -.547E+02 0.534E+02 -.269E+03   0.603E+02 -.544E+02 0.297E+03   -.364E+01 0.615E+00 -.278E+02   0.638E-02 -.379E-02 0.318E-01
   -.444E+02 0.105E+03 0.349E+03   0.482E+02 -.107E+03 -.376E+03   -.345E+01 0.378E+00 0.270E+02   -.285E-02 0.619E-02 0.256E-01
   0.129E+02 0.683E+02 -.446E+03   -.128E+02 -.684E+02 0.474E+03   -.412E+00 0.360E+00 -.277E+02   0.620E-02 0.294E-02 -.283E-01
   -.299E+02 0.448E+02 0.308E+03   0.321E+02 -.432E+02 -.327E+03   -.201E+01 -.140E+01 0.237E+02   -.176E-02 0.144E-03 -.193E-01
   0.165E+02 -.690E+02 -.265E+03   -.177E+02 0.743E+02 0.293E+03   0.453E+00 -.455E+01 -.281E+02   -.693E-02 -.471E-03 0.347E-01
   -.405E+02 -.628E+02 0.354E+03   0.429E+02 0.676E+02 -.380E+03   -.218E+01 -.413E+01 0.272E+02   0.340E-02 -.534E-02 0.201E-01
   0.994E+01 -.647E+01 -.445E+03   -.103E+02 0.433E+01 0.475E+03   -.329E+00 0.179E+01 -.302E+02   -.986E-02 -.510E-03 -.288E-01
   0.976E+01 -.760E+01 0.303E+03   -.114E+02 0.666E+01 -.321E+03   0.167E+01 0.162E+01 0.225E+02   0.333E-03 -.614E-02 -.266E-01
   0.247E+02 -.507E+02 -.244E+03   -.279E+02 0.531E+02 0.268E+03   0.305E+01 -.598E+00 -.245E+02   -.538E-02 -.118E-02 0.243E-01
   0.777E+01 -.133E+03 0.335E+03   -.949E+01 0.140E+03 -.357E+03   0.311E+00 -.649E+01 0.238E+02   -.902E-02 -.624E-02 0.213E-01
   0.416E+02 -.608E+02 -.334E+03   -.455E+02 0.629E+02 0.355E+03   0.322E+01 -.684E+00 -.220E+02   0.248E-03 -.517E-02 -.294E-01
   -.236E+02 -.701E+02 0.276E+03   0.243E+02 0.722E+02 -.294E+03   -.629E+00 -.205E+01 0.215E+02   -.970E-02 -.421E-03 -.243E-01
   -.860E+02 0.369E+02 -.233E+03   0.904E+02 -.376E+02 0.257E+03   -.287E+01 0.209E+00 -.250E+02   -.102E-02 0.318E-02 0.285E-01
   -.402E+02 0.955E+02 0.324E+03   0.407E+02 -.995E+02 -.348E+03   0.707E+00 0.330E+01 0.255E+02   0.119E-02 0.275E-02 0.272E-01
   -.697E+02 -.396E+02 -.410E+03   0.725E+02 0.484E+02 0.437E+03   -.170E+01 -.688E+01 -.255E+02   -.426E-02 0.436E-03 -.284E-01
   -.465E+02 0.306E+02 0.251E+03   0.475E+02 -.316E+02 -.267E+03   -.107E+01 0.143E+01 0.196E+02   -.292E-02 0.415E-02 -.242E-01
   -.600E+02 -.991E+02 -.249E+03   0.617E+02 0.103E+03 0.274E+03   -.845E+00 -.417E+01 -.271E+02   0.957E-02 -.337E-02 0.339E-01
   -.730E+02 -.464E+02 0.293E+03   0.775E+02 0.463E+02 -.317E+03   -.153E+01 0.758E+00 0.234E+02   -.509E-02 -.364E-02 0.191E-01
   -.103E+03 -.937E+02 -.367E+03   0.110E+03 0.976E+02 0.389E+03   -.618E+01 -.403E+01 -.226E+02   -.452E-03 -.131E-01 -.303E-01
   -.467E+02 -.135E+02 0.301E+03   0.469E+02 0.118E+02 -.320E+03   0.410E+00 0.201E+01 0.237E+02   0.296E-02 0.505E-03 -.184E-01
   -.628E+02 -.693E+02 -.210E+03   0.653E+02 0.717E+02 0.231E+03   -.255E+01 -.114E+01 -.224E+02   -.159E-02 0.468E-02 0.322E-01
   -.417E+02 -.688E+02 0.243E+03   0.428E+02 0.676E+02 -.259E+03   -.588E+00 0.218E+01 0.182E+02   0.164E-02 0.255E-03 0.166E-01
   -.820E+02 -.110E+03 -.319E+03   0.845E+02 0.117E+03 0.340E+03   -.190E+01 -.515E+01 -.213E+02   -.319E-02 0.604E-02 -.277E-01
   -.658E+02 -.826E+02 0.241E+03   0.682E+02 0.840E+02 -.255E+03   -.226E+01 -.145E+01 0.182E+02   0.658E-02 -.325E-02 -.190E-01
   0.339E+02 0.526E+02 0.532E+02   -.142E-13 0.441E-12 0.256E-12   -.339E+02 -.526E+02 -.533E+02   -.126E-01 -.151E-01 0.106E+00

 POSITION                                       TOTAL-FORCE (eV/Angst)
      0.03382      0.07605      9.69089        -0.269578     -2.641784     -1.877810
      4.40190      7.57507      4.56205        -1.465507     -3.032796      0.013107
      7.30197      2.45980      9.68188        -0.408341     -0.589369     -1.578742
      7.33611      2.30427      4.61426        -3.081454      2.149600     -0.488188
      5.92822      4.72621      9.70404        -0.789272      2.231563     -1.399297
     -2.72630      4.79180      4.61828        -5.631484      2.141598     -0.248299
      2.84602      0.07239      9.69062        -0.150675     -2.849403     -2.436355
      2.79646      0.02238      4.54374         0.978845     -3.524612      0.768166
      1.38514      2.44272      0.12095         0.260642      0.587369     -5.678212
      1.41713      2.45521      4.60470        -0.769407     -1.810827      0.030746
     -0.04528      4.88247      9.65605         0.261274      0.006666     -3.352577
      0.02319      4.74927      4.70675         0.264844      3.569632     -1.891575
      1.31994      7.52548      9.69608         0.119972     -0.793789     -2.885793
      5.65261      0.05655      4.69624         0.499364     -5.164160     -2.504451
      4.26690      2.49874      0.01606        -1.163362     -1.119915     -3.408566
      4.17336      2.41747      4.62831         0.095603      1.533261      1.356201
      2.81597      4.86351      9.66370         0.843644      0.967623     -3.331691
      2.70642      4.86143      4.76144         3.907816      0.823359     -2.514544
      0.05751      1.57988      0.89647        -1.958839      0.189383      0.103875
      1.37705      0.80936      3.62311        -0.129515     -0.343955      0.628247
     -0.07990      1.59455      5.48923         0.885316     -1.021613      0.111659
      1.38380      0.77707      8.41680        -0.023289     -0.109859      3.991132
     -1.42742      4.05085      1.04677        -0.156052     -0.423106     -2.420503
      0.00784      3.13783      3.66719        -0.732395      0.476106      0.503147
     -1.44696      4.11576      5.53587         0.918513     -2.893284      1.119843
     -0.05477      3.28960      8.31472        -0.309638     -0.158865      4.352018
     -2.77235      6.48493      0.99297        -0.315749      0.369340     -2.211182
     -1.37465      5.61781      3.73938         0.218123      0.582053     -0.256055
     -2.82233      6.40650      5.58154        -0.266177      1.392959     -1.935232
     -1.40605      5.60599      8.33965        -0.276514     -0.320842      3.825354
      2.69223      1.62990      0.95083         1.958625     -0.401854      0.087826
      4.18147      0.89726      3.68885         0.349656     -1.899800     -0.082979
      2.77322      1.56231      5.49932        -0.319557      0.227627      0.404908
      4.16673      0.80291      8.38218         0.220879      0.121724      4.154837
      1.44628      4.06126      0.90056        -0.683115      0.696681     -0.135577
      2.77074      3.20351      3.63477         0.263493      0.650074      1.179978
      1.40205      3.98386      5.63633        -0.706489     -0.349359      0.115876
      2.87535      3.13139      8.32235        -0.010798      0.669400      4.288814
     -0.01010      6.43916      0.85995        -0.163668      1.858658     -0.593653
      1.47076      5.60524      3.66868        -1.415029      0.423275      1.233516
      0.05596      6.40986      5.61706        -0.654589      1.340405     -0.874031
      1.36019      5.66154      8.31190         0.033974      0.022912      3.969524
      5.51812      1.60473      0.99403         1.528613     -0.420098     -1.363104
      6.93934      0.86125      3.55396         1.279922     -0.674998      1.746275
      5.56430      1.53367      5.54147         1.002236      1.884446      1.193636
      6.94252      0.79848      8.22688        -0.095888      0.433551      3.637933
      4.19156      4.06665      1.03057         0.786963      0.143834     -2.032307
      5.49469      3.17079      3.76019         2.928209      0.701357     -0.415517
      4.12277      3.99436      5.66437         0.550710     -0.172934     -0.812428
      5.53775      3.20063      8.32321         0.612355      0.323288      3.954522
      2.80169      6.51418      0.85394        -0.033523      1.261854     -1.200157
      4.22797      5.59844      3.64267         0.508121      0.919701      2.022498
      2.71529      6.46491      5.56698         0.535011      2.043719     -0.365285
      4.14081      5.67469      8.30230         0.167180     -0.025800      3.500473
    total drift:                               -0.011910      0.002446     -0.002392

  FREE ENERGIE OF THE ION-ELECTRON SYSTEM (eV)
  free  energy   TOTEN  =      -310.5103932445 eV

  energy  without entropy=     -310.5039927396  energy(sigma->0) =     -310.50719299

volume of typ            1:    17.7 %

volume of typ            2:     9.0 %

total charge

# of ion       s       p       d       tot
    1        0.230   0.225   7.826   8.281
    2        0.227   0.235   7.815   8.277
    3        0.213   0.213   7.823   8.249
    4        0.271   0.320   7.823   8.413
    5        0.221   0.225   7.795   8.241
    6        0.288   0.351   7.808   8.448
    7        0.237   0.257   7.795   8.289
    8        0.264   0.309   7.817   8.390
    9        0.291   0.357   7.823   8.472
   10        0.305   0.421   7.823   8.548
   11        0.257   0.315   7.779   8.351
   12        0.294   0.397   7.805   8.496
   13        0.228   0.240   7.779   8.246
   14        0.275   0.328   7.808   8.411
   15        0.259   0.313   7.785   8.357
   16        0.317   0.454   7.816   8.587
   17        0.253   0.303   7.774   8.330
   18        0.301   0.410   7.790   8.501
   19        1.284   2.722   0.011   4.016
   20        1.287   2.702   0.008   3.996
   21        1.284   2.720   0.009   4.014
   22        1.305   2.602   0.004   3.911
   23        1.292   2.664   0.007   3.963
   24        1.288   2.706   0.008   4.002
   25        1.286   2.732   0.010   4.029
   26        1.308   2.582   0.003   3.893
   27        1.294   2.625   0.004   3.923
   28        1.291   2.678   0.006   3.975
   29        1.297   2.634   0.005   3.936
   30        1.311   2.568   0.003   3.881
   31        1.287   2.709   0.009   4.005
   32        1.288   2.714   0.009   4.011
   33        1.285   2.730   0.009   4.024
   34        1.308   2.588   0.003   3.899
   35        1.285   2.712   0.009   4.005
   36        1.292   2.696   0.007   3.995
   37        1.287   2.731   0.010   4.028
   38        1.312   2.574   0.003   3.889
   39        1.288   2.676   0.006   3.970
   40        1.297   2.658   0.006   3.961
   41        1.295   2.644   0.005   3.943
   42        1.312   2.566   0.003   3.881
   43        1.291   2.658   0.006   3.955
   44        1.295   2.660   0.006   3.961
   45        1.290   2.707   0.009   4.006
   46        1.311   2.557   0.002   3.870
   47        1.294   2.652   0.006   3.953
   48        1.287   2.701   0.007   3.995
   49        1.294   2.660   0.005   3.959
   50        1.312   2.570   0.003   3.886
   51        1.289   2.651   0.005   3.945
   52        1.299   2.605   0.003   3.907
   53        1.293   2.650   0.005   3.949
   54        1.312   2.553   0.002   3.867
tot          51.36  101.23  140.70  293.29

magnetization (x)

# of ion       s       p       d       tot
    1       -0.001  -0.003   0.663   0.658
    2       -0.000  -0.000  -0.022  -0.022
    3       -0.004  -0.006  -0.289  -0.299
    4       -0.000  -0.000  -0.002  -0.002
    5       -0.003  -0.007  -0.164  -0.175
    6       -0.000  -0.000  -0.001  -0.002
    7       -0.001  -0.003  -0.046  -0.049
    8       -0.000  -0.000  -0.006  -0.006
    9        0.000  -0.002  -0.062  -0.064
   10        0.000   0.000   0.000   0.000
   11       -0.000  -0.001  -0.046  -0.047
   12       -0.000   0.000   0.001   0.001
   13       -0.002  -0.004  -0.019  -0.025
   14       -0.000  -0.000  -0.003  -0.003
   15       -0.001  -0.001  -0.036  -0.038
   16       -0.000   0.000   0.000   0.000
   17       -0.002  -0.003  -0.053  -0.057
   18       -0.000  -0.000   0.002   0.002
   19       -0.001  -0.009  -0.000  -0.010
   20       -0.000  -0.001  -0.000  -0.001
   21       -0.000  -0.002  -0.000  -0.002
   22        0.001   0.052  -0.000   0.053
   23       -0.003  -0.135   0.000  -0.138
   24       -0.000  -0.001  -0.000  -0.001
   25        0.000   0.001  -0.000   0.001
   26        0.001   0.064  -0.000   0.065
   27        0.005   0.247  -0.000   0.252
   28        0.000   0.005  -0.000   0.005
   29        0.000   0.006  -0.000   0.006
   30        0.002   0.119  -0.000   0.121
   31       -0.001  -0.068   0.000  -0.069
   32       -0.000  -0.001  -0.000  -0.001
   33       -0.000  -0.001  -0.000  -0.001
   34       -0.000  -0.017   0.000  -0.017
   35       -0.001  -0.051   0.000  -0.052
   36       -0.000   0.001  -0.000   0.001
   37        0.000   0.002  -0.000   0.002
   38        0.000   0.026  -0.000   0.026
   39       -0.001  -0.059   0.000  -0.059
   40        0.000   0.002  -0.000   0.002
   41        0.000   0.009  -0.000   0.009
   42        0.001   0.097  -0.000   0.098
   43       -0.001  -0.039   0.000  -0.040
   44       -0.000  -0.005  -0.000  -0.005
   45        0.000   0.002   0.000   0.002
   46        0.010   0.553  -0.000   0.563
   47       -0.001  -0.043   0.000  -0.044
   48       -0.000   0.001  -0.000   0.001
   49        0.000   0.009  -0.000   0.009
   50        0.005   0.295  -0.000   0.300
   51        0.001   0.083  -0.000   0.085
   52        0.000   0.016  -0.000   0.016
   53        0.000   0.012  -0.000   0.012
   54        0.006   0.394  -0.000   0.400
tot           0.01    1.54   -0.08    1.46