 vasp.5.4.4.18Apr17-6-g9f103f2a35 (build May 12 2020 04:58:55) complex

 MD_VERSION_INFO: Compiled 2020-05-12T11:58:55-UTC in devlin.sd.materialsdesign.
 com:/home/medea2/data/build/wwolf/vasp-gpu5.4.4/13047/x86_64/src/src/build/std
 from svn 13047

 executed on                        Lin64 date 2023.03.24  22:11:36

 INCAR:
 POTCAR:    PAW_PBE Ni 02Aug2007
 POTCAR:    PAW_PBE O 08Apr2002

 POTCAR:    PAW_PBE Ni 02Aug2007

 POTCAR:    PAW_PBE O 08Apr2002

 Optimization of the real space projectors (new method)

 maximal supplied QI-value         = 16.25
 optimisation between [QCUT,QGAM] = [ 11.38, 22.75] = [ 36.24,144.96] Ry
 Optimized for a Real-space Cutoff    1.47 Angstroem

   l    n(q)    QCUT    max X(q) W(low)/X(q) W(high)/X(q)  e(spline)
   2      9    11.376    60.317    0.17E-03    0.16E-04    0.16E-06
   2      9    11.376    55.921    0.17E-03    0.16E-04    0.17E-06
   0     10    11.376    51.690    0.45E-04    0.60E-04    0.21E-06
   0     10    11.376    30.015    0.37E-04    0.55E-04    0.19E-06
   1     10    11.376    18.849    0.83E-04    0.11E-03    0.92E-07
   1     10    11.376    14.624    0.69E-04    0.92E-04    0.82E-07
 Optimization of the real space projectors (new method)

 maximal supplied QI-value         = 24.76
 optimisation between [QCUT,QGAM] = [ 11.39, 22.77] = [ 36.31,145.25] Ry
 Optimized for a Real-space Cutoff    1.10 Angstroem

   l    n(q)    QCUT    max X(q) W(low)/X(q) W(high)/X(q)  e(spline)
   0      7    11.387    20.381    0.22E-03    0.48E-03    0.18E-06
   0      7    11.387    15.268    0.22E-03    0.52E-03    0.19E-06
   1      7    11.387     5.964    0.22E-03    0.73E-03    0.24E-06
   1      7    11.387     5.382    0.19E-03    0.60E-03    0.21E-06

  PAW_PBE Ni 02Aug2007                  :
  PAW_PBE O 08Apr2002                   :

 POSCAR: NiO2_C2_m_scale_1_025_disp_0_20_round_2
  positions in direct lattice
 exchange correlation table for  LEXCH =       14
   RHO(1)=    0.500       N(1)  =     2000
   RHO(2)=  100.500       N(2)  =     4000

 ion  position               nearest neighbor table
   1  0.986  0.991  0.002-  19 1.80  27 1.88  22 1.90  54 2.13  46 2.23  51 2.34   9 2.35   7 2.62
                            13 2.69   3 2.75  17 2.95
   2  0.002  0.008  0.485-  21 1.83  20 1.98  44 2.07  52 2.13  29 2.38  53 2.46  10 2.70   4 2.83

   3  0.977  0.306  0.980-  46 1.67  19 1.81  50 1.86  26 2.00  43 2.09  23 2.42   5 2.65  13 2.67
                             9 2.70   1 2.75  11 2.87  15 3.03
   4  0.009  0.342  0.482-  44 1.81  24 1.82  25 2.03  21 2.04  45 2.21  48 2.25  10 2.38   6 2.65
                             2 2.83  12 2.95  16 2.97
   5  0.984  0.618  0.977-  50 1.67  47 1.91  54 1.92  23 2.02  30 2.14  27 2.18   3 2.65  15 2.66
                            11 2.68  17 2.91
   6  0.979  0.632  0.515-  29 1.83  25 1.91  49 2.04  52 2.07  48 2.18  28 2.25   4 2.65  18 2.66
                            16 2.78  12 3.00
   7  0.321  0.065  0.005-  31 1.39  22 1.66   9 1.98  27 2.08  34 2.31   1 2.62  15 2.62
   8  0.374  0.990  0.485-  32 1.71  28 1.79  33 1.79  14 1.91  41 1.92  29 2.07  12 2.50  16 2.61

   9  0.263  0.260  0.021-  19 1.47  31 1.85   7 1.98  22 2.01  35 2.08  26 2.19  38 2.32   1 2.35
                             3 2.70  15 2.99
  10  0.286  0.344  0.510-  37 1.76  24 1.76  21 1.89  20 1.90  33 2.20  36 2.36   4 2.38   2 2.70
                            12 2.80  18 2.88
  11  0.308  0.644  0.993-  23 1.38  39 1.73  35 1.74  30 1.96  26 2.01  42 2.38   5 2.68   3 2.87
                            17 3.00  13 3.05
  12  0.346  0.688  0.449-  40 1.33  41 1.73  28 1.88  24 2.06  37 2.20  25 2.22  14 2.35   8 2.50
                            10 2.80   4 2.95   6 3.00
  13  0.672  0.990  0.992-  42 1.72  51 1.82  46 1.85  43 1.85  34 1.93  39 2.10   3 2.67   1 2.69
                            17 2.96  11 3.05
  14  0.591  0.980  0.487-  32 1.31  41 1.84   8 1.91  53 2.09  45 2.12  44 2.16  12 2.35  40 2.45
                            16 2.66
  15  0.646  0.348  0.995-  38 1.34  47 1.59  31 1.81  50 2.05  34 2.18  43 2.33  17 2.44   7 2.62
                             5 2.66   9 2.99   3 3.03
  16  0.651  0.316  0.478-  36 1.46  45 1.75  32 1.92  48 1.96  49 2.00  33 2.05  18 2.53   8 2.61
                            14 2.66   6 2.78   4 2.97
  17  0.654  0.636  0.000-  54 1.67  38 1.76  51 1.81  47 1.86  35 2.14  15 2.44   5 2.91   1 2.95
                            13 2.96  11 3.00
  18  0.661  0.616  0.494-  49 1.36  36 1.84  52 1.85  37 1.90  53 2.05  40 2.49  16 2.53   6 2.66
                            10 2.88
  19  0.087  0.211  0.082-   9 1.47   1 1.80   3 1.81
  20  0.224  0.158  0.374-  10 1.90   2 1.98
  21  0.073  0.192  0.612-   2 1.83  10 1.89   4 2.04
  22  0.185  0.061  0.878-   7 1.66   1 1.90   9 2.01
  23  0.171  0.595  0.089-  11 1.38   5 2.02   3 2.42
  24  0.211  0.428  0.373-  10 1.76   4 1.82  12 2.06
  25  0.130  0.561  0.610-   6 1.91   4 2.03  12 2.22
  26  0.209  0.422  0.872-   3 2.00  11 2.01   9 2.19
  27  0.084  0.868  0.097-   1 1.88   7 2.08   5 2.18
  28  0.222  0.802  0.380-   8 1.79  12 1.88   6 2.25
  29  0.133  0.850  0.595-   6 1.83   8 2.07   2 2.38
  30  0.211  0.720  0.838-  11 1.96   5 2.14
  31  0.437  0.211  0.088-   7 1.39  15 1.81   9 1.85
  32  0.572  0.084  0.395-  14 1.31   8 1.71  16 1.92
  33  0.409  0.184  0.581-   8 1.79  16 2.05  10 2.20
  34  0.567  0.100  0.878-  13 1.93  15 2.18   7 2.31
  35  0.390  0.527  0.089-  11 1.74   9 2.08  17 2.14
  36  0.558  0.397  0.405-  16 1.46  18 1.84  10 2.36
  37  0.441  0.549  0.589-  10 1.76  18 1.90  12 2.20
  38  0.553  0.415  0.931-  15 1.34  17 1.76   9 2.32
  39  0.418  0.843  0.088-  11 1.73  13 2.10
  40  0.464  0.696  0.355-  12 1.33  14 2.45  18 2.49
  41  0.403  0.821  0.599-  12 1.73  14 1.84   8 1.92
  42  0.569  0.837  0.858-  13 1.72  11 2.38
  43  0.754  0.184  0.115-  13 1.85   3 2.09  15 2.33
  44  0.861  0.124  0.403-   4 1.81   2 2.07  14 2.16
  45  0.748  0.228  0.592-  16 1.75  14 2.12   4 2.21
  46  0.868  0.126  0.876-   3 1.67  13 1.85   1 2.23
  47  0.767  0.524  0.086-  15 1.59  17 1.86   5 1.91
  48  0.855  0.433  0.347-  16 1.96   6 2.18   4 2.25
  49  0.725  0.541  0.589-  18 1.36  16 2.00   6 2.04
  50  0.880  0.427  0.885-   5 1.67   3 1.86  15 2.05
  51  0.698  0.832  0.103-  17 1.81  13 1.82   1 2.34
  52  0.868  0.750  0.388-  18 1.85   6 2.07   2 2.13
  53  0.702  0.846  0.594-  18 2.05  14 2.09   2 2.46
  54  0.849  0.728  0.913-  17 1.67   5 1.92   1 2.13

  LATTYP: Found a hexagonal cell.
 ALAT       =     8.5719417516
 C/A-ratio  =     1.1065328049

  Lattice vectors:

 A1 = (   8.5719417500,   0.0000000000,   0.0000000000)
 A2 = (  -4.2859708800,   7.4235193200,   0.0000000000)
 A3 = (   0.0000000000,   0.0000000000,   9.4851347500)

Analysis of symmetry for initial positions (statically):
 Subroutine PRICEL returns:
 Original cell was already a primitive cell.

 Routine SETGRP: Setting up the symmetry group for a
 hexagonal supercell.

 Subroutine GETGRP returns: Found  1 space group operations
 (whereof  1 operations were pure point group operations)
 out of a pool of 24 trial point group operations.

The static configuration has the point symmetry C_1 .

Analysis of symmetry for dynamics (positions and initial velocities):
 Subroutine PRICEL returns:
 Original cell was already a primitive cell.

[...]

The dynamic configuration has the point symmetry C_1 .

Analysis of structural, dynamic, and magnetic symmetry:
 Subroutine PRICEL returns:
 Original cell was already a primitive cell.

 Routine SETGRP: Setting up the symmetry group for a
 hexagonal supercell.

 Subroutine GETGRP returns: Found  1 space group operations
 (whereof  1 operations were pure point group operations)
 out of a pool of 24 trial point group operations.

The magnetic configuration has the point symmetry C_1 .

 Subroutine INISYM returns: Found  1 space group operations
 (whereof  1 operations are pure point group operations),
 and found     1 'primitive' translations

 KPOINTS: Automatic mesh

Automatic generation of k-mesh.
Space group operators:
 irot       det(A)        alpha          n_x          n_y          n_z        tau_x        tau_y        tau_z
    1     1.000000     0.000000     1.000000     0.000000     0.000000     0.000000     0.000000     0.000000

 Subroutine IBZKPT returns following result:

 Found     26 irreducible k-points:

 Following reciprocal coordinates:
            Coordinates               Weight
  0.000000  0.000000  0.000000      1.000000
  0.250000  0.000000  0.000000      2.000000
  0.500000  0.000000  0.000000      1.000000
  0.000000  0.250000  0.000000      2.000000
  0.250000  0.250000  0.000000      2.000000
  0.500000  0.250000  0.000000      2.000000
 -0.250000  0.250000  0.000000      2.000000
  0.000000  0.500000  0.000000      1.000000
  0.250000  0.500000  0.000000      2.000000
  0.500000  0.500000  0.000000      1.000000
  0.000000  0.000000  0.333333      2.000000
  0.250000  0.000000  0.333333      2.000000
  0.500000  0.000000  0.333333      2.000000
 -0.250000  0.000000  0.333333      2.000000
  0.000000  0.250000  0.333333      2.000000
  0.250000  0.250000  0.333333      2.000000
  0.500000  0.250000  0.333333      2.000000
 -0.250000  0.250000  0.333333      2.000000
  0.000000  0.500000  0.333333      2.000000
  0.250000  0.500000  0.333333      2.000000
  0.500000  0.500000  0.333333      2.000000
 -0.250000  0.500000  0.333333      2.000000
  0.000000 -0.250000  0.333333      2.000000
  0.250000 -0.250000  0.333333      2.000000
  0.500000 -0.250000  0.333333      2.000000
 -0.250000 -0.250000  0.333333      2.000000

 Following cartesian coordinates:
            Coordinates               Weight
  0.000000  0.000000  0.000000      1.000000
  0.029165  0.016838  0.000000      2.000000
  0.058330  0.033677  0.000000      1.000000
  0.000000  0.033677  0.000000      2.000000
  0.029165  0.050515  0.000000      2.000000
  0.058330  0.067353  0.000000      2.000000
 -0.029165  0.016838  0.000000      2.000000
  0.000000  0.067353  0.000000      1.000000
  0.029165  0.084192  0.000000      2.000000
  0.058330  0.101030  0.000000      1.000000
  0.000000  0.000000  0.035143      2.000000
  0.029165  0.016838  0.035143      2.000000
  0.058330  0.033677  0.035143      2.000000
 -0.029165 -0.016838  0.035143      2.000000
  0.000000  0.033677  0.035143      2.000000
  0.029165  0.050515  0.035143      2.000000
  0.058330  0.067353  0.035143      2.000000
 -0.029165  0.016838  0.035143      2.000000
  0.000000  0.067353  0.035143      2.000000
  0.029165  0.084192  0.035143      2.000000
  0.058330  0.101030  0.035143      2.000000
 -0.029165  0.050515  0.035143      2.000000
  0.000000 -0.033677  0.035143      2.000000
  0.029165 -0.016838  0.035143      2.000000
  0.058330  0.000000  0.035143      2.000000
 -0.029165 -0.050515  0.035143      2.000000

 SYSTEM =  unknown system
 POSCAR =  NiO2_C2_m_scale_1_025_disp_0_20_round_2

 Startparameter for this run:
   NWRITE =      1    write-flag & timer
   PREC   = accura    normal or accurate (medium, high low for compatibility)
   ISTART =      0    job   : 0-new  1-cont  2-samecut
[...]
   0.431E+02 -.101E+03 -.499E+02   -.452E+02 0.103E+03 0.482E+02   0.122E+01 0.155E+01 0.343E+01   0.107E-02 0.496E-02 0.721E-01
   0.116E+03 0.168E+02 -.234E+02   -.120E+03 -.185E+02 0.236E+02   0.770E+00 0.625E+00 0.151E+01   -.382E-01 0.103E+00 -.147E+00
   -.581E+02 -.228E+03 0.834E+01   0.581E+02 0.234E+03 -.861E+01   0.722E+00 -.769E+00 0.197E+01   -.304E-01 -.102E-01 0.520E-01
   0.612E+02 -.377E+02 -.678E+02   -.586E+02 0.417E+02 0.673E+02   -.187E+01 -.176E+01 -.134E+01   -.199E-02 -.917E-01 -.815E-01
   -.208E+03 0.434E+03 0.800E+02   0.211E+03 -.465E+03 -.928E+02   -.312E+01 0.927E+01 0.194E+01   -.154E-01 0.472E-01 0.366E-01
   0.399E+03 -.775E+02 -.132E+02   -.421E+03 0.764E+02 0.177E+02   0.990E+01 -.174E+00 -.274E+01   -.291E-01 0.537E-01 -.525E-01
   -.701E+02 -.206E+03 0.402E+01   0.753E+02 0.223E+03 -.992E+01   0.323E+01 -.681E+01 -.374E+00   0.250E-01 -.984E-02 0.466E-01
   -.123E+03 0.106E+03 -.194E+03   0.127E+03 -.108E+03 0.195E+03   -.277E+00 -.651E+00 -.141E+01   0.156E-01 0.786E-02 -.132E+00
   -.161E+03 -.124E+03 0.261E+03   0.180E+03 0.131E+03 -.281E+03   -.185E+01 -.144E+01 0.201E+01   -.373E-03 -.172E-01 0.407E-01
   0.145E+03 0.149E+03 0.438E+02   -.170E+03 -.156E+03 -.242E+02   0.447E+01 0.369E+01 -.139E+01   -.508E-01 -.635E-01 -.525E-01
   0.383E+02 0.337E+02 -.652E+02   -.426E+02 -.334E+02 0.665E+02   -.892E-01 -.286E+00 -.138E+01   -.744E-03 0.204E-01 0.497E-01
   -.498E+03 0.115E+03 -.156E+03   0.534E+03 -.134E+03 0.185E+03   -.104E+02 0.822E+00 -.532E+01   -.312E-01 0.254E-01 -.728E-01
   -.242E+03 0.237E+03 0.991E+01   0.273E+03 -.257E+03 -.771E+00   -.339E+01 0.923E+00 0.120E+00   -.326E-01 0.224E-01 0.721E-01
   -.943E+02 -.474E+01 -.521E+02   0.107E+03 -.680E+00 0.591E+02   -.351E+01 0.347E+00 0.398E+00   -.966E-01 0.132E+00 -.234E+00
   0.188E+03 -.113E+03 0.267E+02   -.193E+03 0.118E+03 -.242E+02   -.725E+00 -.341E+01 -.997E+00   0.301E-01 -.431E-01 0.464E-01
   0.145E+03 -.299E+03 0.129E+03   -.164E+03 0.316E+03 -.145E+03   0.164E+01 -.318E+01 0.382E+00   0.714E-01 -.118E+00 -.134E+00
   0.158E+03 0.271E+02 -.401E+03   -.181E+03 -.287E+02 0.436E+03   0.116E+02 -.207E+01 -.290E+02   0.266E-01 0.137E-02 -.229E-04
   -.377E+02 0.111E+03 0.270E+03   0.457E+02 -.112E+03 -.287E+03   -.901E+01 0.190E+00 0.191E+02   0.235E-01 0.235E-01 -.740E-01
   0.216E+02 0.936E+02 -.351E+03   -.270E+02 -.958E+02 0.377E+03   0.538E+01 0.295E+01 -.280E+02   -.214E-01 0.397E-01 -.239E-01
   0.166E+02 0.824E+02 0.475E+03   -.212E+02 -.866E+02 -.509E+03   0.298E+01 0.446E+01 0.332E+02   0.655E-02 0.362E-02 0.706E-01
   0.213E+03 0.491E+02 -.398E+03   -.243E+03 -.600E+02 0.446E+03   0.105E+02 0.280E+01 -.337E+02   -.126E-01 -.170E-01 0.601E-02
   0.275E+02 0.230E+02 0.353E+03   -.258E+02 -.197E+02 -.382E+03   -.256E+01 -.331E+01 0.288E+02   -.666E-01 -.386E-01 -.496E-01
   0.231E+01 0.430E+02 -.284E+03   0.634E+01 -.410E+02 0.305E+03   -.995E+01 -.336E+01 -.235E+02   -.299E-01 -.409E-01 -.198E-01
   -.943E+02 -.109E+01 0.336E+03   0.101E+03 0.662E+00 -.355E+03   -.764E+01 0.429E+00 0.197E+02   0.891E-02 -.436E-02 0.566E-01
   -.414E+02 0.859E+02 -.286E+03   0.465E+02 -.940E+02 0.304E+03   -.464E+01 0.816E+01 -.197E+02   -.102E-01 0.594E-02 -.152E-01
   0.214E+03 0.236E+02 0.348E+03   -.229E+03 -.281E+02 -.368E+03   0.163E+02 0.302E+01 0.196E+02   -.448E-01 -.623E-02 -.531E-01
   0.137E+03 -.102E+03 -.274E+03   -.135E+03 0.111E+03 0.291E+03   -.369E+01 -.720E+01 -.176E+02   -.153E-02 -.129E-01 0.129E-01
   0.452E+02 -.120E+03 0.218E+03   -.459E+02 0.127E+03 -.235E+03   -.199E+00 -.767E+01 0.195E+02   -.149E-01 0.206E-02 0.405E-01
   -.117E+03 -.631E+02 -.441E+03   0.129E+03 0.894E+02 0.486E+03   -.688E+01 -.119E+02 -.305E+02   -.467E-02 0.214E-01 -.601E-02
   0.133E+02 -.167E+03 0.527E+03   -.259E+02 0.201E+03 -.587E+03   -.209E+01 -.140E+02 0.359E+02   -.244E-01 0.684E-01 -.641E-01
   0.116E+03 -.291E+02 -.345E+03   -.123E+03 0.344E+02 0.363E+03   0.854E+01 -.383E+01 -.178E+02   0.279E-01 0.221E-01 -.290E-01
   0.898E+02 0.151E+02 0.281E+03   -.930E+02 -.160E+02 -.297E+03   0.251E+01 0.142E+01 0.180E+02   -.215E-01 0.126E-01 0.664E-01
   -.101E+03 0.154E+02 -.243E+03   0.108E+03 -.192E+02 0.264E+03   -.397E+01 0.307E+01 -.208E+02   0.229E-01 -.265E-01 0.232E-02
   0.190E+03 -.219E+02 0.369E+03   -.220E+03 0.243E+02 -.399E+03   0.189E+02 0.325E+01 0.220E+02   0.687E-01 -.262E-01 -.673E-01
   -.183E+02 -.332E+02 -.358E+03   0.136E+02 0.451E+02 0.379E+03   0.434E+01 -.123E+02 -.214E+02   0.778E-02 -.146E-01 0.116E-01
   0.260E+03 -.493E+02 0.440E+03   -.307E+03 0.574E+02 -.479E+03   0.218E+02 0.283E+01 0.231E+02   0.122E-01 0.311E-02 0.661E-01
   0.590E+02 -.149E+03 -.224E+03   -.629E+02 0.162E+03 0.242E+03   0.498E+01 -.103E+02 -.179E+02   -.931E-02 0.675E-02 -.788E-02
   -.314E+03 -.338E+02 0.415E+03   0.357E+03 0.355E+02 -.462E+03   -.224E+02 0.114E+00 0.272E+02   0.337E-01 -.330E-01 -.894E-01
   -.874E+01 0.231E+02 -.457E+03   0.728E+01 -.292E+02 0.492E+03   0.168E+01 0.759E+01 -.344E+02   -.296E-01 0.678E-02 0.391E-01
   -.219E+02 0.116E+03 0.305E+03   0.194E+02 -.125E+03 -.327E+03   0.274E+01 0.673E+01 0.218E+02   -.914E-03 -.101E-01 0.561E-01
   0.227E+02 -.237E+02 -.308E+03   -.255E+02 0.285E+02 0.329E+03   0.367E+01 -.375E+01 -.227E+02   -.147E-01 0.311E-01 0.834E-02
   -.456E+02 0.126E+03 0.242E+03   0.407E+02 -.133E+03 -.259E+03   0.685E+01 0.604E+01 0.170E+02   0.641E-02 0.929E-01 -.611E-01
   -.113E+03 0.106E+01 -.363E+03   0.123E+03 -.578E+01 0.384E+03   -.809E+01 0.512E+01 -.213E+02   -.143E-01 0.674E-01 -.593E-01
   -.486E+02 0.969E+02 0.395E+03   0.491E+02 -.104E+03 -.426E+03   0.783E+00 0.386E+01 0.310E+02   0.732E-02 0.799E-03 0.618E-01
   -.728E+02 -.116E+03 -.419E+03   0.800E+02 0.129E+03 0.454E+03   -.496E+01 -.895E+01 -.293E+02   -.191E-01 -.167E-01 0.190E-01
   -.629E+02 -.606E+02 0.291E+03   0.652E+02 0.630E+02 -.311E+03   -.138E+01 -.223E+01 0.232E+02   -.143E-01 -.154E-01 -.147E-01
   -.135E+03 0.145E+02 -.490E+03   0.159E+03 -.327E+02 0.540E+03   -.704E+01 0.802E+01 -.331E+02   0.378E-01 -.438E-01 -.285E-01
   0.379E+02 0.507E+02 0.367E+03   -.416E+02 -.610E+02 -.396E+03   0.348E+01 0.772E+01 0.282E+02   -.170E-01 0.112E-01 0.555E-01
   -.560E+02 -.191E+02 -.329E+03   0.553E+02 0.188E+02 0.353E+03   0.277E+01 0.146E+01 -.247E+02   0.228E-01 -.204E-01 -.165E-01
   -.139E+02 -.129E+03 0.281E+03   0.187E+02 0.133E+03 -.303E+03   -.409E+01 -.296E+01 0.237E+02   0.246E-01 -.519E-01 -.643E-01
   -.120E+03 -.668E+02 -.232E+03   0.121E+03 0.689E+02 0.247E+03   0.567E+00 -.156E+01 -.167E+02   0.123E-01 -.112E-02 0.124E-01
   -.357E+02 -.127E+03 0.349E+03   0.419E+02 0.136E+03 -.372E+03   -.403E+01 -.644E+01 0.213E+02   -.784E-02 -.159E-01 0.553E-01
   -.219E+02 0.213E+02 0.127E+02   0.583E-12 0.568E-13 0.114E-12   0.221E+02 -.213E+02 -.120E+02   -.156E+00 0.778E-01 -.652E+00

 POSITION                                       TOTAL-FORCE (eV/Angst)
      4.20302      7.35685      0.01622        -1.708819     -4.132383     -1.179908
     -0.01721      0.05759      4.60062        -1.207731     -1.528724      0.065313
      7.06376      2.27402      9.29811        -0.961077      3.499505      1.786252
     -1.38580      2.53648      4.57413        -3.101043     -0.979860      1.510861
      5.78075      4.59026      9.26802         0.720161      5.992257      1.758349
      5.68018      4.68960      4.88064         0.718476      2.151669     -1.911702
      2.47667      0.48261      0.04606         0.304843    -21.560099    -10.809962
     -1.04030      7.34778      4.60266       -12.841177     -1.167000      1.752495
      1.13774      1.93004      0.20051         8.464490     10.626133     -6.227623
      0.98157      2.55095      4.83874         3.598494     -2.739883     -0.571973
     -0.11776      4.78172      9.42119        16.575023      6.159579    -18.344002
      0.01268      5.10976      4.26087       -20.697496     -3.867622     18.134967
      1.51808      7.35033      9.40841        -4.461300      0.108640      0.028876
      0.86336      7.27531      4.61543        26.172076    -18.815647     23.247459
      4.04972      2.57976      9.43667        27.205980    -19.140009      9.327741
      4.22454      2.34610      4.53662         9.479234     -4.937227      7.151047
      2.88038      4.71842      0.00170        -5.529828      1.280344      1.568326
      3.02886      4.57511      4.68777       -17.962419     13.471778    -15.644926
     -0.15821      1.56570      0.78227       -11.531014     -3.737882      5.998660
      1.23837      1.17458      3.55086        -1.068938     -1.359354      1.731343
     -0.19655      1.42566      5.80169        -0.043874      0.758338     -1.526795
      1.32552      0.45299      8.32910        -1.618244      0.285736     -1.043197
     -1.08694      4.41911      0.84789       -18.956469     -8.152240     14.157715
     -0.02691      3.17693      3.53861        -0.937302     -0.007357      0.405435
     -1.29038      4.16096      5.78190        -1.330996     -1.378729     -2.989714
     -0.01842      3.13550      8.27492        -1.026710     -0.007386      1.517715
     -3.00262      6.44063      0.91707         0.477595      0.051986     -1.000866
     -1.52889      5.95096      3.60249         0.694603     -1.508154     -0.558633
     -2.50755      6.31316      5.63912        -1.968254      1.002614     -0.662790
     -1.28003      5.34771      7.95270        -0.969897     -0.807522      2.507553
      2.83904      1.56588      0.83151         5.666889     14.355301     14.030711
      4.54413      0.62576      3.74482       -14.759408     20.136339    -23.696092
      2.71382      1.36647      5.51456         0.984527      1.434304      0.255871
      4.43379      0.73894      8.32465        -0.769094      0.544152      1.650481
      1.08791      3.91050      0.84755         2.977649     -0.770140      0.187245
      3.08038      2.94474      3.84516       -10.832942      5.700620     -8.171838
      1.42982      4.07734      5.58363        -0.369161     -0.415027     -0.146224
      2.96458      3.08196      8.83240       -24.651498     10.950907    -15.827911
     -0.03010      6.26106      0.83347         1.028827      3.101498      0.134200
      0.99880      5.16516      3.37084        21.190862      1.783437    -19.292630
     -0.06323      6.09633      5.67946         0.181200      1.542125      1.180013
      1.29006      6.21322      8.13681         0.296058     -2.254548      0.100854
      5.67755      1.36604      1.08647         0.835969      1.152851     -1.966758
      6.84450      0.92280      3.81929         1.998013     -0.999129      0.126305
      5.43556      1.69370      5.61729         1.654015      0.468273     -0.185765
      6.89879      0.93818      8.30820         1.352498     -3.254496     -0.163064
      4.33398      3.88636      0.81695         2.209805      4.496502      5.192849
      5.46924      3.21731      3.29227         0.953125      0.178598      3.367538
      3.89239      4.01792      5.58427        17.495371    -10.190778     16.746687
      5.71053      3.16966      8.39839        -0.235048     -2.551515     -0.780162
      2.42241      6.17290      0.97633         2.148699      1.203188     -0.483251
      4.23089      5.56533      3.68185         0.722803      0.647419      1.468828
      2.39249      6.28163      5.63761         1.332761      0.614085     -1.890268
      4.15556      5.40450      8.66070         2.099690      2.564532     -2.015634
    total drift:                                0.021778      0.008031     -0.001031

  FREE ENERGIE OF THE ION-ELECTRON SYSTEM (eV)
  free  energy   TOTEN  =      -272.0902095855 eV

  energy  without entropy=     -272.0501355601  energy(sigma->0) =     -272.07017257

volume of typ            1:    19.0 %

volume of typ            2:     9.7 %

total charge

# of ion       s       p       d       tot
    1        0.252   0.287   7.886   8.425
    2        0.223   0.227   7.813   8.262
    3        0.298   0.370   7.873   8.541
    4        0.258   0.312   7.826   8.396
    5        0.280   0.342   7.855   8.478
    6        0.244   0.266   7.837   8.347
    7        0.403   0.572   8.069   9.044
    8        0.319   0.451   7.955   8.724
    9        0.342   0.465   8.053   8.860
   10        0.294   0.373   7.850   8.518
   11        0.418   0.587   7.970   8.975
   12        0.428   0.621   8.031   9.080
   13        0.309   0.436   7.803   8.549
   14        0.417   0.604   8.155   9.176
   15        0.446   0.633   8.093   9.172
   16        0.360   0.556   7.928   8.844
   17        0.315   0.405   7.880   8.601
   18        0.405   0.539   8.004   8.948
   19        1.288   2.844   0.025   4.158
   20        1.301   2.631   0.005   3.937
   21        1.295   2.669   0.008   3.971
   22        1.295   2.708   0.012   4.015
   23        1.313   2.801   0.027   4.141
   24        1.302   2.694   0.010   4.006
   25        1.308   2.622   0.005   3.935
   26        1.302   2.635   0.004   3.940
   27        1.293   2.652   0.005   3.950
   28        1.299   2.677   0.008   3.985
   29        1.303   2.632   0.005   3.939
   30        1.314   2.579   0.003   3.896
   31        1.304   2.868   0.032   4.204
   32        1.315   2.902   0.042   4.259
   33        1.293   2.677   0.006   3.976
   34        1.308   2.610   0.004   3.922
   35        1.291   2.695   0.007   3.993
   36        1.300   2.809   0.020   4.128
   37        1.297   2.700   0.008   4.004
   38        1.303   2.906   0.034   4.243
   39        1.303   2.660   0.006   3.970
   40        1.323   2.809   0.029   4.162
   41        1.313   2.681   0.013   4.007
   42        1.310   2.623   0.006   3.939
   43        1.292   2.658   0.004   3.954
   44        1.297   2.656   0.005   3.958
   45        1.298   2.678   0.006   3.982
   46        1.300   2.696   0.011   4.008
   47        1.293   2.773   0.015   4.081
   48        1.304   2.610   0.004   3.918
   49        1.311   2.824   0.030   4.165
   50        1.290   2.735   0.011   4.036
   51        1.292   2.691   0.007   3.990
   52        1.291   2.662   0.005   3.958
   53        1.303   2.610   0.003   3.916
   54        1.286   2.732   0.010   4.027
tot          52.84  105.46  143.32  301.61

magnetization (x)

# of ion       s       p       d       tot
    1       -0.000  -0.001  -0.143  -0.144
    2       -0.003  -0.002   0.000  -0.004
    3       -0.001  -0.002  -0.047  -0.050
    4       -0.001  -0.002   0.133   0.129
    5       -0.002  -0.002  -0.030  -0.034
    6        0.001  -0.000   0.080   0.081
    7       -0.004  -0.006  -0.041  -0.051
    8       -0.002   0.000   0.231   0.229
    9       -0.004  -0.004   0.092   0.084
   10       -0.002   0.005   0.345   0.348
   11       -0.004  -0.008   0.148   0.136
   12       -0.002  -0.002   0.306   0.302
   13       -0.001  -0.002   0.112   0.109
   14       -0.003  -0.003   0.151   0.145
   15        0.001  -0.001   0.146   0.146
   16       -0.001  -0.002   0.092   0.089
   17       -0.005  -0.007  -0.339  -0.351
   18       -0.000   0.002  -0.093  -0.091
   19       -0.000   0.009  -0.000   0.009
   20        0.006   0.281  -0.000   0.286
   21        0.003   0.128  -0.000   0.131
   22       -0.001  -0.043  -0.000  -0.045
   23        0.002   0.092   0.000   0.094
   24        0.003   0.133   0.000   0.135
   25        0.000   0.023   0.000   0.023
   26        0.004   0.216  -0.000   0.220
   27        0.000   0.023  -0.000   0.023
   28        0.005   0.206   0.000   0.211
   29        0.003   0.165  -0.000   0.167
   30        0.008   0.431  -0.000   0.439
   31        0.000  -0.023  -0.000  -0.023
   32        0.000   0.020   0.000   0.020
   33        0.005   0.228  -0.000   0.233
   34        0.003   0.135   0.000   0.137
   35        0.002   0.104  -0.000   0.105
   36       -0.000   0.014   0.000   0.014
   37        0.001   0.024   0.000   0.024
   38        0.001   0.102   0.000   0.103
   39        0.003   0.183  -0.000   0.187
   40        0.004   0.212   0.001   0.216
   41        0.001   0.029   0.000   0.030
   42        0.007   0.375  -0.000   0.382
   43        0.000   0.013   0.000   0.013
   44        0.003   0.167  -0.000   0.170
   45        0.005   0.257  -0.000   0.262
   46       -0.001  -0.025  -0.000  -0.026
   47       -0.006  -0.152  -0.000  -0.158
   48       -0.000   0.003  -0.000   0.003
   49       -0.001  -0.063  -0.000  -0.064
   50        0.001   0.060  -0.000   0.061
   51        0.000   0.038  -0.000   0.038
   52       -0.000  -0.008  -0.000  -0.009
   53        0.001   0.069  -0.000   0.070
   54       -0.003  -0.087   0.000  -0.089
tot           0.03    3.30    1.14    4.47