 vasp.5.4.4.18Apr17-6-g9f103f2a35 (build May 12 2020 04:58:55) complex

 MD_VERSION_INFO: Compiled 2020-05-12T11:58:55-UTC in devlin.sd.materialsdesign.
 com:/home/medea2/data/build/wwolf/vasp-gpu5.4.4/13047/x86_64/src/src/build/std
 from svn 13047

 executed on                        Lin64 date 2023.03.24  23:06:45

 INCAR:
 POTCAR:    PAW_PBE Ni 02Aug2007
 POTCAR:    PAW_PBE O 08Apr2002

 POTCAR:    PAW_PBE Ni 02Aug2007

 POTCAR:    PAW_PBE O 08Apr2002

 Optimization of the real space projectors (new method)

 maximal supplied QI-value         = 16.25
 optimisation between [QCUT,QGAM] = [ 11.38, 22.75] = [ 36.24,144.96] Ry
 Optimized for a Real-space Cutoff    1.47 Angstroem

   l    n(q)    QCUT    max X(q) W(low)/X(q) W(high)/X(q)  e(spline)
   2      9    11.376    60.317    0.17E-03    0.16E-04    0.16E-06
   2      9    11.376    55.921    0.17E-03    0.16E-04    0.17E-06
   0     10    11.376    51.690    0.45E-04    0.60E-04    0.21E-06
   0     10    11.376    30.015    0.37E-04    0.55E-04    0.19E-06
   1     10    11.376    18.849    0.83E-04    0.11E-03    0.92E-07
   1     10    11.376    14.624    0.69E-04    0.92E-04    0.82E-07
 Optimization of the real space projectors (new method)

 maximal supplied QI-value         = 24.76
 optimisation between [QCUT,QGAM] = [ 11.39, 22.77] = [ 36.31,145.25] Ry
 Optimized for a Real-space Cutoff    1.10 Angstroem

   l    n(q)    QCUT    max X(q) W(low)/X(q) W(high)/X(q)  e(spline)
   0      7    11.387    20.381    0.22E-03    0.48E-03    0.18E-06
   0      7    11.387    15.268    0.22E-03    0.52E-03    0.19E-06
   1      7    11.387     5.964    0.22E-03    0.73E-03    0.24E-06
   1      7    11.387     5.382    0.19E-03    0.60E-03    0.21E-06

  PAW_PBE Ni 02Aug2007                  :
  PAW_PBE O 08Apr2002                   :

 POSCAR: NiO2_C2_m_scale_1_000_disp_0_20_round_2
  positions in direct lattice
 exchange correlation table for  LEXCH =       14
   RHO(1)=    0.500       N(1)  =     2000
   RHO(2)=  100.500       N(2)  =     4000

 ion  position               nearest neighbor table
   1  0.016  0.001  0.983-  22 1.49  46 1.75  54 1.79  19 1.95  27 1.96  51 2.18   5 2.52   7 2.62
                             3 2.92  17 2.94   9 2.99
   2  0.038  0.990  0.514-  29 1.49  20 1.77  52 1.81  21 1.81  53 2.07   6 2.38   8 2.38  44 2.51
                             4 2.95  10 2.95  18 2.98
   3  0.943  0.307  0.996-  50 1.72  46 1.91  43 2.02  15 2.05  19 2.15  23 2.29  13 2.74   1 2.92
                             5 3.05
   4  0.033  0.338  0.474-  24 1.50  48 1.64  44 1.75  21 1.75  45 1.98  25 2.13  12 2.66  10 2.81
                             2 2.95  14 2.97   6 3.08
   5  0.942  0.671  0.013-  47 1.18  54 1.53  27 1.94  50 2.03  30 2.36  23 2.43   1 2.52  17 2.56
                            15 2.60   7 2.75   3 3.05
   6  0.013  0.695  0.498-  29 1.59  52 1.81  28 1.88  49 2.03  25 2.21   2 2.38  48 2.41   8 2.52
                            18 2.75  16 2.82   4 3.08
   7  0.303  0.955  0.013-  30 1.57  27 1.73  39 2.01  34 2.06  22 2.13  31 2.18  13 2.39  11 2.59
                             1 2.62   5 2.75
   8  0.320  0.987  0.527-  29 1.77  41 1.80  28 1.87  32 1.97  20 2.13   2 2.38  33 2.40   6 2.52
                            14 2.76  10 2.93  16 3.06
   9  0.349  0.377  0.004-  26 1.50  35 1.55  19 1.67  38 1.99  22 1.99  31 2.05  11 2.46  17 2.49
                             1 2.99
  10  0.370  0.359  0.542-  33 1.41  37 1.61  21 1.85  36 1.86  24 2.10  12 2.32  16 2.45  18 2.47
                             4 2.81   8 2.93   2 2.95
  11  0.345  0.669  0.001-  35 1.71  39 1.73  23 1.82  42 1.90  30 1.93  26 2.07  17 2.43   9 2.46
                            13 2.47   7 2.59
  12  0.359  0.630  0.535-  37 1.54  25 1.72  41 1.77  40 2.00  24 2.03  10 2.32  28 2.40  18 2.49
                             4 2.66  14 2.94
  13  0.605  0.991  0.007-  39 1.44  34 1.52  46 1.92  43 2.08  51 2.16  42 2.20   7 2.39  15 2.44
                            11 2.47   3 2.74  17 2.76
  14  0.656  0.009  0.476-  32 1.47  44 1.56  40 1.85  53 2.16  45 2.17  41 2.22   8 2.76  12 2.94
                             4 2.97  16 2.99  18 3.05
  15  0.705  0.319  0.002-  43 1.54  34 1.62   3 2.05  50 2.06  47 2.11  38 2.25  31 2.40  13 2.44
                             5 2.60
  16  0.667  0.369  0.512-  33 1.34  49 1.34  36 1.72  48 1.91  45 1.95  32 2.23  18 2.37  10 2.45
                             6 2.82  14 2.99   8 3.06
  17  0.642  0.680  0.000-  42 1.69  35 1.83  47 1.86  51 1.87  54 1.93  38 1.99  11 2.43   9 2.49
                             5 2.56  13 2.76   1 2.94
  18  0.666  0.652  0.517-  49 1.58  53 1.85  36 1.97  52 2.01  37 2.20  16 2.37  40 2.44  10 2.47
                            12 2.49   6 2.75   2 2.98  14 3.05
  19  0.143  0.242  0.078-   9 1.67  22 1.95   1 1.95   3 2.15
  20  0.198  0.080  0.370-   2 1.77   8 2.13
  21  0.120  0.224  0.578-   4 1.75   2 1.81  10 1.85
  22  0.204  0.123  0.923-   1 1.49  19 1.95   9 1.99   7 2.13
  23  0.144  0.570  0.119-  11 1.82   3 2.29   5 2.43
  24  0.215  0.418  0.396-   4 1.50  12 2.03  10 2.10
  25  0.151  0.568  0.617-  12 1.72   4 2.13   6 2.21
  26  0.262  0.429  0.884-   9 1.50  11 2.07
  27  0.111  0.889  0.121-   7 1.73   5 1.94   1 1.96
  28  0.238  0.789  0.397-   8 1.87   6 1.88  12 2.40
  29  0.093  0.874  0.598-   2 1.49   6 1.59   8 1.77
  30  0.234  0.792  0.902-   7 1.57  11 1.93   5 2.36
  31  0.418  0.218  0.127-   9 2.05   7 2.18  15 2.40
  32  0.550  0.089  0.414-  14 1.47   8 1.97  16 2.23
  33  0.505  0.310  0.578-  16 1.34  10 1.41  36 1.90   8 2.40
  34  0.562  0.123  0.928-  13 1.52  15 1.62   7 2.06
  35  0.426  0.552  0.101-   9 1.55  11 1.71  17 1.83
  36  0.545  0.429  0.395-  16 1.72  10 1.86  33 1.90  18 1.97
  37  0.411  0.528  0.648-  12 1.54  10 1.61  18 2.20
  38  0.572  0.457  0.881-   9 1.99  17 1.99  15 2.25
  39  0.463  0.868  0.105-  13 1.44  11 1.73   7 2.01
  40  0.521  0.791  0.376-  14 1.85  12 2.00  18 2.44
  41  0.403  0.845  0.606-  12 1.77   8 1.80  14 2.22
  42  0.548  0.752  0.872-  17 1.69  11 1.90  13 2.20
  43  0.731  0.226  0.136-  15 1.54   3 2.02  13 2.08
  44  0.855  0.127  0.411-  14 1.56   4 1.75   2 2.51
  45  0.811  0.267  0.594-  48 1.87  16 1.95   4 1.98  14 2.17
  46  0.846  0.055  0.939-   1 1.75   3 1.91  13 1.92
  47  0.794  0.593  0.067-   5 1.18  17 1.86  54 1.95  15 2.11
  48  0.874  0.382  0.413-   4 1.64  45 1.87  16 1.91   6 2.41
  49  0.753  0.535  0.575-  16 1.34  18 1.58   6 2.03
  50  0.944  0.474  0.886-   3 1.72   5 2.03  15 2.06
  51  0.768  0.892  0.115-  17 1.87  13 2.16   1 2.18
  52  0.897  0.795  0.399-   2 1.81   6 1.81  18 2.01
  53  0.777  0.880  0.605-  18 1.85   2 2.07  14 2.16
  54  0.881  0.773  0.910-   5 1.53   1 1.79  17 1.93  47 1.95

  LATTYP: Found a hexagonal cell.
 ALAT       =     8.3628700013
 C/A-ratio  =     1.1065328050

  Lattice vectors:

 A1 = (   8.3628700000,   0.0000000000,   0.0000000000)
 A2 = (  -4.1814350000,   7.2424578700,   0.0000000000)
 A3 = (   0.0000000000,   0.0000000000,   9.2537900000)

Analysis of symmetry for initial positions (statically):
 Subroutine PRICEL returns:
 Original cell was already a primitive cell.

 Routine SETGRP: Setting up the symmetry group for a
 hexagonal supercell.

 Subroutine GETGRP returns: Found  1 space group operations
 (whereof  1 operations were pure point group operations)
 out of a pool of 24 trial point group operations.

The static configuration has the point symmetry C_1 .

Analysis of symmetry for dynamics (positions and initial velocities):
 Subroutine PRICEL returns:
 Original cell was already a primitive cell.

[...]

The dynamic configuration has the point symmetry C_1 .

Analysis of structural, dynamic, and magnetic symmetry:
 Subroutine PRICEL returns:
 Original cell was already a primitive cell.

 Routine SETGRP: Setting up the symmetry group for a
 hexagonal supercell.

 Subroutine GETGRP returns: Found  1 space group operations
 (whereof  1 operations were pure point group operations)
 out of a pool of 24 trial point group operations.

The magnetic configuration has the point symmetry C_1 .

 Subroutine INISYM returns: Found  1 space group operations
 (whereof  1 operations are pure point group operations),
 and found     1 'primitive' translations

 KPOINTS: Automatic mesh

Automatic generation of k-mesh.
Space group operators:
 irot       det(A)        alpha          n_x          n_y          n_z        tau_x        tau_y        tau_z
    1     1.000000     0.000000     1.000000     0.000000     0.000000     0.000000     0.000000     0.000000

 Subroutine IBZKPT returns following result:

 Found     26 irreducible k-points:

 Following reciprocal coordinates:
            Coordinates               Weight
  0.000000  0.000000  0.000000      1.000000
  0.250000  0.000000  0.000000      2.000000
  0.500000  0.000000  0.000000      1.000000
  0.000000  0.250000  0.000000      2.000000
  0.250000  0.250000  0.000000      2.000000
  0.500000  0.250000  0.000000      2.000000
 -0.250000  0.250000  0.000000      2.000000
  0.000000  0.500000  0.000000      1.000000
  0.250000  0.500000  0.000000      2.000000
  0.500000  0.500000  0.000000      1.000000
  0.000000  0.000000  0.333333      2.000000
  0.250000  0.000000  0.333333      2.000000
  0.500000  0.000000  0.333333      2.000000
 -0.250000  0.000000  0.333333      2.000000
  0.000000  0.250000  0.333333      2.000000
  0.250000  0.250000  0.333333      2.000000
  0.500000  0.250000  0.333333      2.000000
 -0.250000  0.250000  0.333333      2.000000
  0.000000  0.500000  0.333333      2.000000
  0.250000  0.500000  0.333333      2.000000
  0.500000  0.500000  0.333333      2.000000
 -0.250000  0.500000  0.333333      2.000000
  0.000000 -0.250000  0.333333      2.000000
  0.250000 -0.250000  0.333333      2.000000
  0.500000 -0.250000  0.333333      2.000000
 -0.250000 -0.250000  0.333333      2.000000

 Following cartesian coordinates:
            Coordinates               Weight
  0.000000  0.000000  0.000000      1.000000
  0.029894  0.017259  0.000000      2.000000
  0.059788  0.034519  0.000000      1.000000
  0.000000  0.034519  0.000000      2.000000
  0.029894  0.051778  0.000000      2.000000
  0.059788  0.069037  0.000000      2.000000
 -0.029894  0.017259  0.000000      2.000000
  0.000000  0.069037  0.000000      1.000000
  0.029894  0.086297  0.000000      2.000000
  0.059788  0.103556  0.000000      1.000000
  0.000000  0.000000  0.036021      2.000000
  0.029894  0.017259  0.036021      2.000000
  0.059788  0.034519  0.036021      2.000000
 -0.029894 -0.017259  0.036021      2.000000
  0.000000  0.034519  0.036021      2.000000
  0.029894  0.051778  0.036021      2.000000
  0.059788  0.069037  0.036021      2.000000
 -0.029894  0.017259  0.036021      2.000000
  0.000000  0.069037  0.036021      2.000000
  0.029894  0.086297  0.036021      2.000000
  0.059788  0.103556  0.036021      2.000000
 -0.029894  0.051778  0.036021      2.000000
  0.000000 -0.034519  0.036021      2.000000
  0.029894 -0.017259  0.036021      2.000000
  0.059788  0.000000  0.036021      2.000000
 -0.029894 -0.051778  0.036021      2.000000

 SYSTEM =  unknown system
[...]
   -.201E+03 -.117E+02 0.246E+01   0.211E+03 0.126E+02 -.321E+01   -.452E+01 -.740E+00 0.159E+01   0.108E+00 -.755E-01 0.185E-01
   0.739E+02 -.380E+01 0.468E+02   -.804E+02 0.949E+00 -.406E+02   -.147E+00 -.428E+00 0.963E+00   0.311E-01 -.171E-01 0.190E-01
   -.459E+03 0.527E+01 -.275E+02   0.527E+03 0.243E+02 0.239E+01   -.561E+01 -.123E+01 0.169E+01   -.889E-01 0.142E+00 0.653E-01
   -.885E+02 0.286E+03 0.935E+02   0.937E+02 -.295E+03 -.100E+03   -.196E+01 0.643E+00 0.260E+01   -.360E-02 -.191E-02 -.108E-01
   0.443E+02 -.183E+03 -.321E+02   -.488E+02 0.191E+03 0.374E+02   0.354E+01 0.904E+00 -.914E+00   -.178E-01 -.764E-02 0.155E-01
   -.810E+02 -.210E+03 -.182E+03   0.870E+02 0.208E+03 0.176E+03   -.379E+01 0.276E+01 0.244E+01   0.322E-01 -.192E-01 -.276E-01
   -.204E+03 0.221E+03 -.685E+02   0.218E+03 -.235E+03 0.705E+02   -.292E+01 0.123E+01 -.116E+01   0.434E-01 0.324E-01 -.279E-01
   0.196E+03 0.249E+03 -.219E+01   -.219E+03 -.254E+03 -.556E+01   0.629E+01 0.456E+01 -.107E+01   -.338E-01 0.340E-01 -.254E-01
   0.230E+03 0.816E+02 0.870E+02   -.239E+03 -.847E+02 -.908E+02   0.361E+01 0.137E+01 0.431E+00   0.813E-01 0.735E-01 -.248E-01
   0.592E+02 -.160E+03 0.116E+03   -.679E+02 0.170E+03 -.124E+03   0.263E+01 -.426E+01 -.290E+00   0.175E-01 -.780E-02 -.832E-02
   -.202E+03 -.867E+02 0.102E+03   0.222E+03 0.904E+02 -.107E+03   -.398E+01 -.158E+01 0.113E+01   -.284E-01 -.147E+00 0.261E-02
   -.116E+03 0.117E+03 -.157E+03   0.124E+03 -.128E+03 0.164E+03   -.163E+01 0.268E+01 0.144E+01   0.237E-01 -.685E-02 0.166E-01
   0.180E+03 -.197E+03 0.942E+02   -.192E+03 0.205E+03 -.993E+02   0.479E+01 0.297E+00 0.804E+00   -.159E+00 -.534E-02 -.876E-02
   -.361E+03 0.265E+03 0.155E+03   0.397E+03 -.290E+03 -.184E+03   -.795E+01 0.415E+01 0.262E+01   -.947E-02 0.111E-02 -.108E-01
   -.107E+03 0.260E+01 -.888E+02   0.110E+03 -.944E+00 0.877E+02   0.136E+01 -.270E+01 0.144E+01   -.129E-01 0.459E-01 0.204E-01
   0.120E+03 -.281E+03 0.881E+02   -.125E+03 0.295E+03 -.912E+02   -.127E+01 -.702E+01 -.741E+00   -.337E-01 0.319E-02 -.126E-01
   0.141E+03 0.412E+02 -.334E+03   -.153E+03 -.468E+02 0.358E+03   0.731E+01 0.379E+01 -.203E+02   0.435E-01 -.282E-01 0.472E-01
   -.243E+02 -.867E+02 0.341E+03   0.292E+02 0.938E+02 -.364E+03   -.353E+01 -.668E+01 0.247E+02   -.227E-01 0.967E-02 0.382E-01
   0.673E+02 0.986E+02 -.321E+03   -.711E+02 -.101E+03 0.344E+03   0.455E+01 0.293E+00 -.191E+02   0.242E-02 0.221E-01 -.636E-01
   -.153E+03 -.591E+02 0.357E+03   0.176E+03 0.764E+02 -.381E+03   -.134E+02 -.122E+02 0.172E+02   0.424E-01 -.208E-01 -.351E-01
   0.113E+03 0.774E+02 -.295E+03   -.121E+03 -.809E+02 0.312E+03   0.678E+01 0.249E+01 -.176E+02   0.334E-01 0.604E-01 0.941E-01
   -.927E+02 -.507E+02 0.435E+03   0.115E+03 0.590E+02 -.468E+03   -.142E+02 -.339E+01 0.274E+02   -.704E-03 -.869E-02 0.817E-01
   0.187E+03 0.400E+02 -.295E+03   -.201E+03 -.448E+02 0.317E+03   0.110E+02 0.359E+01 -.221E+02   0.417E-01 0.197E-02 -.781E-01
   0.217E+03 0.563E+02 0.374E+03   -.237E+03 -.538E+02 -.409E+03   0.126E+02 0.180E+01 0.275E+02   0.464E-01 0.244E-01 -.873E-01
   0.280E+02 0.182E+01 -.378E+03   -.330E+02 -.745E+00 0.407E+03   0.451E+01 -.133E+01 -.292E+02   0.530E-02 0.693E-02 0.432E-01
   -.399E+02 0.707E+02 0.341E+03   0.511E+02 -.756E+02 -.360E+03   -.123E+02 0.436E+01 0.194E+02   0.226E-01 -.191E-01 0.305E-01
   -.379E+02 0.171E+02 -.492E+03   0.464E+02 -.247E+02 0.538E+03   -.181E+01 0.570E+01 -.343E+02   -.309E-01 -.553E-02 -.329E-01
   0.704E+02 0.873E+02 0.390E+03   -.751E+02 -.103E+03 -.420E+03   0.555E+01 0.104E+02 0.261E+02   0.200E-01 0.585E-01 -.305E-01
   -.325E+02 -.220E+02 -.259E+03   0.353E+02 0.218E+02 0.273E+03   -.234E+01 0.274E+00 -.150E+02   -.348E-01 -.256E-01 0.552E-01
   0.156E+03 -.878E+02 0.285E+03   -.182E+03 0.102E+03 -.315E+03   0.136E+02 -.891E+01 0.250E+02   0.644E-01 -.213E-01 0.568E-01
   -.158E+02 0.324E+03 -.406E+03   0.920E+01 -.358E+03 0.454E+03   -.199E+01 0.138E+02 -.256E+02   -.198E-01 0.310E-01 -.468E-01
   0.158E+03 -.557E+02 0.441E+03   -.181E+03 0.610E+02 -.475E+03   0.160E+02 -.305E+01 0.259E+02   -.550E-01 -.955E-01 -.659E-01
   -.415E+02 0.975E+01 -.492E+03   0.424E+02 -.281E+01 0.533E+03   0.889E+00 -.802E+00 -.356E+02   0.326E-01 0.427E-01 0.455E-01
   0.440E+02 -.154E+02 0.538E+03   -.531E+02 0.147E+02 -.575E+03   0.699E+01 0.335E+01 0.320E+02   -.157E-01 0.716E-02 0.634E-01
   -.295E+02 -.466E+02 -.414E+03   0.362E+02 0.503E+02 0.460E+03   -.227E+01 -.288E+01 -.377E+02   -.689E-02 0.309E-02 -.757E-01
   -.112E+03 0.117E+03 0.263E+03   0.117E+03 -.120E+03 -.281E+03   -.477E+01 0.305E+01 0.202E+02   -.484E-01 0.330E-01 -.587E-01
   0.822E+02 0.376E+02 -.464E+03   -.928E+02 -.511E+02 0.512E+03   0.249E+01 0.582E+01 -.366E+02   0.793E-02 -.997E-02 0.367E-01
   -.514E+02 0.554E+02 0.285E+03   0.493E+02 -.611E+02 -.307E+03   0.350E+01 0.460E+01 0.227E+02   0.134E-01 0.192E-01 0.659E-01
   -.452E+02 -.122E+03 -.321E+03   0.493E+02 0.125E+03 0.343E+03   -.273E+01 -.978E+00 -.198E+02   0.476E-01 -.269E-01 -.446E-01
   0.131E+02 -.127E+03 0.409E+03   -.151E+02 0.134E+03 -.439E+03   -.533E+00 -.530E+01 0.294E+02   0.359E-02 -.731E-02 -.473E-01
   -.667E+02 -.210E+01 -.441E+03   0.731E+02 -.837E+01 0.479E+03   -.239E+01 0.811E+01 -.324E+02   -.328E-02 -.575E-01 0.130E+00
   -.139E+03 0.746E+02 0.293E+03   0.155E+03 -.769E+02 -.317E+03   -.986E+01 0.175E+01 0.192E+02   -.233E-01 -.141E-01 0.754E-01
   -.307E+02 0.757E+02 -.406E+03   0.347E+02 -.797E+02 0.423E+03   -.442E+01 0.300E+01 -.150E+02   0.999E-02 -.333E-01 -.961E-01
   0.131E+02 -.580E+02 0.289E+03   -.196E+02 0.545E+02 -.305E+03   0.536E+01 0.687E+01 0.143E+02   0.253E-02 -.746E-01 -.332E-01
   0.198E+03 0.243E+03 -.444E+03   -.271E+03 -.295E+03 0.499E+03   0.201E+02 0.165E+02 -.226E+02   -.465E-01 0.820E-01 0.473E-01
   0.619E+02 -.117E+03 0.339E+03   -.746E+02 0.119E+03 -.362E+03   0.907E+01 0.213E+01 0.190E+02   0.205E-01 -.212E-01 0.739E-01
   -.213E+03 -.195E+03 -.386E+03   0.232E+03 0.233E+03 0.433E+03   -.115E+02 -.108E+02 -.292E+02   -.226E-01 -.910E-02 -.523E-01
   -.365E+02 -.464E+02 0.351E+03   0.389E+02 0.587E+02 -.375E+03   -.314E+01 -.132E+02 0.240E+02   -.523E-02 0.519E-01 -.105E+00
   -.600E+02 -.750E+02 -.369E+03   0.609E+02 0.834E+02 0.387E+03   -.935E+00 -.939E+01 -.188E+02   -.305E-02 -.531E-01 0.624E-01
   0.103E+03 0.162E+02 0.395E+03   -.113E+03 -.157E+02 -.422E+03   0.959E+01 -.208E+01 0.263E+02   -.176E-01 0.104E-01 0.311E-01
   0.475E+02 -.126E+03 -.281E+03   -.512E+02 0.134E+03 0.299E+03   0.388E+01 -.838E+01 -.182E+02   -.238E-01 0.475E-02 -.600E-01
   0.285E+02 -.648E+02 0.449E+03   -.437E+02 0.703E+02 -.488E+03   0.964E+01 -.374E+00 0.306E+02   -.239E-01 0.957E-02 -.143E-01
   -.554E+02 -.972E+01 0.209E+01   0.284E-12 -.639E-12 -.512E-12   0.554E+02 0.977E+01 -.213E+01   0.161E-01 -.663E-01 0.412E-01

 POSITION                                       TOTAL-FORCE (eV/Angst)
      0.13340      0.00516      9.09827        -9.259150     -4.097517      7.796166
     -3.82698      7.17297      4.76092       -11.291639      7.534337     -6.568983
      6.60146      2.22637      9.21342         5.359917      0.102430      0.854520
     -1.14035      2.44886      4.38224        -6.565890     -3.293669      7.209680
      5.07399      4.85772      0.12124        61.921062     28.474443    -23.331136
     -2.79672      5.03651      4.60809         3.216949     -7.718343     -3.853718
     -1.46016      6.91598      0.12382        -0.963296      8.368251      4.390209
     -1.44747      7.14595      4.87582         2.205718      0.175240     -3.268128
      1.34357      2.73275      0.03416        10.637503    -12.556919      0.830361
      1.59601      2.59833      5.01351       -16.695353     -0.025726     -8.846047
      0.08754      4.84827      0.01308        -5.087858     -1.702669     -3.343910
      0.36463      4.56176      4.95437        -6.093101      6.371103     -8.056228
      0.91587      7.17580      0.06870        15.717109      1.990355     -4.347885
      5.45225      0.06471      4.40626         6.927097     -8.450379      8.521357
      4.55612      2.31384      0.01802        -7.882248      8.259195     -4.279796
      4.03231      2.67549      4.73676        28.206395    -20.547685    -26.433936
      2.52093      4.92754      0.00264         3.925453     -0.998828      0.329950
      2.84203      4.72000      4.78565        -6.131600      7.015895     -3.843976
      0.18973      1.74975      0.72469        -4.777982     -1.847093      3.218405
      1.32029      0.57722      3.42756         1.262621      0.382744      1.344671
      0.06445      1.62149      5.35312         0.773953     -1.794849      2.922564
      1.19181      0.89306      8.54465        10.141069      5.151350     -6.864180
     -1.18477      4.13125      1.09733        -0.899597     -0.911186     -0.664580
      0.04822      3.02834      3.66473         7.879984      4.905602     -5.189866
     -1.11078      4.11516      5.70758        -2.846717     -1.176237     -0.154247
      0.39369      3.10928      8.18300        -7.630253      4.363142     -7.225527
     -2.79215      6.44043      1.12210        -0.459871     -0.248591     -0.073343
     -1.30972      5.71536      3.67772        -1.072869     -0.546241      0.398069
     -2.87181      6.32735      5.53759         6.612468     -1.877125     11.099030
     -1.35581      5.73547      8.34519         0.904876     -4.972859     -3.416020
      2.58908      1.57715      1.17339         0.424818     -0.004858     -1.124089
      4.23162      0.64199      3.83271       -11.745694      5.519077     -4.284826
      2.92297      2.24692      5.34569        -8.650802    -19.884724     22.017509
      4.18352      0.89228      8.58444        -6.958843      2.072755     -8.053010
      1.25191      3.99701      0.93144         1.851995      6.172224      5.917489
      2.76746      3.10603      3.65618        -2.120001      2.690748     -4.397381
      1.23468      3.82131      5.99196         4.355986      0.768538      7.950666
      2.87271      3.30707      8.15539         0.004185     -0.073213      1.705175
      0.24484      6.28383      0.97333        -8.068745     -7.713907     11.050713
      1.04919      5.72529      3.47491         1.471112     -1.033667      1.359661
     -0.16463      6.11813      5.60711         1.397709      2.464903      1.899956
      1.44062      5.44359      8.06656        -2.491916      1.330717     -0.324669
      5.16970      1.63570      1.25556         3.946702     -2.419242      5.954270
      6.61621      0.91801      3.80174         5.967798     -0.550632     -4.491722
      5.66539      1.93291      5.49333        -0.428640     -1.053488      2.176232
      6.84438      0.40175      8.69306        -1.145292      3.290960     -1.835963
      4.16265      4.29572      0.62094       -52.949009    -35.232731     32.425943
      5.71056      2.76766      3.82271        -3.593709      4.595583     -3.460971
      4.05900      3.87625      5.32273         7.797210     27.226340     17.156209
      5.91168      3.43192      8.19777        -0.757473     -0.860989     -0.143019
      2.69060      6.46091      1.06793        -0.084329     -1.084946     -0.507885
      4.17612      5.75768      3.69124        -0.802482     -1.578621     -1.042859
      2.81884      6.37683      5.59978         0.131890     -0.128494     -0.376013
      4.13502      5.59497      8.42396        -5.587216      5.159491     -8.724895
    total drift:                               -0.013506     -0.016120      0.000008

  FREE ENERGIE OF THE ION-ELECTRON SYSTEM (eV)
  free  energy   TOTEN  =      -258.6277545897 eV

  energy  without entropy=     -258.5811304947  energy(sigma->0) =     -258.60444254

volume of typ            1:    20.5 %

volume of typ            2:    10.5 %

total charge

# of ion       s       p       d       tot
    1        0.367   0.516   7.945   8.828
    2        0.373   0.529   7.948   8.850
    3        0.277   0.316   7.901   8.493
    4        0.399   0.601   7.945   8.945
    5        0.549   0.789   8.292   9.630
    6        0.300   0.376   7.951   8.627
    7        0.320   0.407   7.948   8.675
    8        0.264   0.333   7.930   8.527
    9        0.423   0.644   7.974   9.041
   10        0.422   0.621   8.082   9.125
   11        0.321   0.459   7.897   8.676
   12        0.358   0.504   7.934   8.797
   13        0.429   0.619   8.071   9.119
   14        0.399   0.539   7.947   8.884
   15        0.362   0.475   8.011   8.848
   16        0.546   0.882   8.268   9.697
   17        0.316   0.437   7.891   8.644
   18        0.307   0.380   7.963   8.650
   19        1.305   2.706   0.010   4.021
   20        1.306   2.641   0.006   3.953
   21        1.278   2.790   0.010   4.078
   22        1.303   2.780   0.019   4.101
   23        1.297   2.649   0.004   3.950
   24        1.301   2.766   0.017   4.083
   25        1.301   2.674   0.008   3.982
   26        1.307   2.745   0.016   4.068
   27        1.301   2.697   0.010   4.008
   28        1.309   2.639   0.007   3.955
   29        1.286   2.887   0.032   4.204
   30        1.288   2.765   0.013   4.066
   31        1.302   2.614   0.003   3.919
   32        1.296   2.800   0.019   4.115
   33        1.309   3.031   0.055   4.395
   34        1.285   2.857   0.024   4.166
   35        1.291   2.825   0.021   4.138
   36        1.301   2.736   0.012   4.049
   37        1.305   2.793   0.024   4.122
   38        1.292   2.666   0.004   3.962
   39        1.304   2.833   0.027   4.165
   40        1.302   2.646   0.005   3.953
   41        1.291   2.716   0.009   4.016
   42        1.298   2.709   0.010   4.016
   43        1.303   2.738   0.016   4.057
   44        1.300   2.775   0.016   4.090
   45        1.311   2.655   0.006   3.973
   46        1.289   2.735   0.010   4.033
   47        1.327   2.979   0.054   4.360
   48        1.300   2.733   0.012   4.044
   49        1.299   2.975   0.043   4.317
   50        1.300   2.681   0.009   3.990
   51        1.306   2.646   0.005   3.957
   52        1.295   2.708   0.009   4.012
   53        1.286   2.685   0.005   3.976
   54        1.289   2.835   0.019   4.143
tot          53.49  108.54  144.47  306.49

magnetization (x)

# of ion       s       p       d       tot
    1        0.000  -0.001   0.163   0.163
    2       -0.000  -0.001  -0.002  -0.004
    3       -0.002  -0.003   0.097   0.092
    4        0.000  -0.002   0.090   0.088
    5        0.003   0.007   0.442   0.452
    6       -0.000  -0.001  -0.016  -0.017
    7       -0.003  -0.006  -0.075  -0.083
    8       -0.001  -0.002  -0.079  -0.083
    9       -0.001  -0.004   0.061   0.056
   10        0.001  -0.000   0.023   0.024
   11       -0.001  -0.000   0.044   0.043
   12        0.000   0.001   0.007   0.008
   13       -0.000  -0.001  -0.038  -0.040
   14       -0.000  -0.000   0.185   0.185
   15       -0.002  -0.000   0.117   0.115
   16       -0.002  -0.001   0.025   0.023
   17       -0.000  -0.001  -0.023  -0.024
   18        0.000   0.000   0.001   0.001
   19        0.002   0.058   0.000   0.061
   20        0.001   0.041   0.000   0.042
   21        0.000  -0.007  -0.000  -0.007
   22        0.001   0.077   0.000   0.078
   23        0.006   0.323  -0.000   0.329
   24        0.000   0.023   0.000   0.023
   25        0.001   0.045   0.000   0.046
   26        0.002   0.101   0.000   0.103
   27        0.002   0.097   0.000   0.100
   28       -0.000   0.015  -0.000   0.014
   29       -0.000  -0.006  -0.000  -0.006
   30       -0.000  -0.003  -0.000  -0.003
   31        0.008   0.391  -0.000   0.398
   32       -0.000   0.009   0.000   0.008
   33        0.000   0.027  -0.000   0.027
   34        0.001   0.038  -0.000   0.039
   35        0.000   0.010  -0.000   0.010
   36        0.001   0.013   0.000   0.013
   37       -0.000  -0.016   0.000  -0.016
   38        0.000   0.028  -0.000   0.028
   39       -0.000  -0.008  -0.000  -0.008
   40        0.001   0.036   0.000   0.037
   41        0.002   0.072  -0.000   0.073
   42       -0.001  -0.041   0.000  -0.042
   43       -0.001  -0.030  -0.000  -0.030
   44        0.005   0.131   0.000   0.136
   45        0.011   0.361   0.000   0.372
   46        0.004   0.015   0.000   0.019
   47        0.003   0.158   0.002   0.163
   48        0.008   0.218   0.000   0.226
   49       -0.000   0.009   0.000   0.009
   50        0.006   0.235  -0.000   0.240
   51        0.002   0.054  -0.000   0.056
   52        0.000   0.017  -0.000   0.017
   53        0.000   0.020  -0.000   0.021
   54        0.001   0.034   0.000   0.035
tot           0.06    2.53    1.03    3.61