 vasp.5.4.4.18Apr17-6-g9f103f2a35 (build May 12 2020 04:58:55) complex

 MD_VERSION_INFO: Compiled 2020-05-12T11:58:55-UTC in devlin.sd.materialsdesign.
 com:/home/medea2/data/build/wwolf/vasp-gpu5.4.4/13047/x86_64/src/src/build/std
 from svn 13047

 executed on                        Lin64 date 2023.03.25  01:02:27

 INCAR:
 POTCAR:    PAW_PBE Ni 02Aug2007
 POTCAR:    PAW_PBE O 08Apr2002

 POTCAR:    PAW_PBE Ni 02Aug2007

 POTCAR:    PAW_PBE O 08Apr2002

 Optimization of the real space projectors (new method)

 maximal supplied QI-value         = 16.25
 optimisation between [QCUT,QGAM] = [ 11.38, 22.75] = [ 36.24,144.96] Ry
 Optimized for a Real-space Cutoff    1.47 Angstroem

   l    n(q)    QCUT    max X(q) W(low)/X(q) W(high)/X(q)  e(spline)
   2      9    11.376    60.317    0.17E-03    0.16E-04    0.16E-06
   2      9    11.376    55.921    0.17E-03    0.16E-04    0.17E-06
   0     10    11.376    51.690    0.45E-04    0.60E-04    0.21E-06
   0     10    11.376    30.015    0.37E-04    0.55E-04    0.19E-06
   1     10    11.376    18.849    0.83E-04    0.11E-03    0.92E-07
   1     10    11.376    14.624    0.69E-04    0.92E-04    0.82E-07
 Optimization of the real space projectors (new method)

 maximal supplied QI-value         = 24.76
 optimisation between [QCUT,QGAM] = [ 11.39, 22.77] = [ 36.31,145.25] Ry
 Optimized for a Real-space Cutoff    1.10 Angstroem

   l    n(q)    QCUT    max X(q) W(low)/X(q) W(high)/X(q)  e(spline)
   0      7    11.387    20.381    0.22E-03    0.48E-03    0.18E-06
   0      7    11.387    15.268    0.22E-03    0.52E-03    0.19E-06
   1      7    11.387     5.964    0.22E-03    0.73E-03    0.24E-06
   1      7    11.387     5.382    0.19E-03    0.60E-03    0.21E-06

  PAW_PBE Ni 02Aug2007                  :
  PAW_PBE O 08Apr2002                   :

 POSCAR: NiO2_C2_m_pris
  positions in direct lattice
 exchange correlation table for  LEXCH =       14
   RHO(1)=    0.500       N(1)  =     2000
   RHO(2)=  100.500       N(2)  =     4000

 ion  position               nearest neighbor table
   1  0.000  0.000  0.000-  27 1.86  46 1.86  22 1.86  51 1.86  19 1.86  54 1.86   7 2.79  13 2.79
                             5 2.79  17 2.79   3 2.79   9 2.79
   2  0.000  0.000  0.500-  29 1.86  44 1.86  20 1.86  53 1.86  52 1.86  21 1.86   8 2.79  14 2.79
                             6 2.79  18 2.79   4 2.79  10 2.79
   3  0.000  0.333  0.000-  19 1.86  50 1.86  43 1.86  26 1.86  46 1.86  23 1.86   9 2.79  15 2.79
                            13 2.79   1 2.79  11 2.79   5 2.79
   4  0.000  0.333  0.500-  21 1.86  48 1.86  45 1.86  24 1.86  44 1.86  25 1.86  10 2.79  16 2.79
                            14 2.79   2 2.79  12 2.79   6 2.79
   5  0.000  0.667  0.000-  54 1.86  23 1.86  47 1.86  30 1.86  27 1.86  50 1.86  11 2.79  17 2.79
                             1 2.79   7 2.79  15 2.79   3 2.79
   6  0.000  0.667  0.500-  52 1.86  25 1.86  49 1.86  28 1.86  29 1.86  48 1.86  12 2.79  18 2.79
                             2 2.79   8 2.79  16 2.79   4 2.79
   7  0.333  0.000  0.000-  22 1.86  39 1.86  27 1.86  31 1.86  30 1.86  34 1.86   1 2.79   5 2.79
                             9 2.79  11 2.79  15 2.79  13 2.79
   8  0.333  0.000  0.500-  20 1.86  41 1.86  29 1.86  33 1.86  28 1.86  32 1.86   2 2.79   6 2.79
                            10 2.79  12 2.79  16 2.79  14 2.79
   9  0.333  0.333  0.000-  26 1.86  31 1.86  19 1.86  22 1.86  38 1.86  35 1.86   3 2.79   1 2.79
                             7 2.79  15 2.79  11 2.79  17 2.79
  10  0.333  0.333  0.500-  24 1.86  33 1.86  21 1.86  20 1.86  36 1.86  37 1.86   4 2.79   2 2.79
                             8 2.79  16 2.79  12 2.79  18 2.79
  11  0.333  0.667  0.000-  30 1.86  23 1.86  35 1.86  39 1.86  42 1.86  26 1.86   5 2.79   7 2.79
                            13 2.79   3 2.79  17 2.79   9 2.79
  12  0.333  0.667  0.500-  28 1.86  25 1.86  37 1.86  41 1.86  40 1.86  24 1.86   6 2.79   8 2.79
                            14 2.79   4 2.79  18 2.79  10 2.79
  13  0.667  0.000  0.000-  51 1.86  34 1.86  46 1.86  42 1.86  43 1.86  39 1.86   1 2.79   3 2.79
                            15 2.79  17 2.79  11 2.79   7 2.79
  14  0.667  0.000  0.500-  53 1.86  32 1.86  44 1.86  45 1.86  40 1.86  41 1.86   2 2.79   4 2.79
                            16 2.79  18 2.79  12 2.79   8 2.79
  15  0.667  0.333  0.000-  43 1.86  50 1.86  38 1.86  34 1.86  31 1.86  47 1.86   3 2.79  13 2.79
                             7 2.79   5 2.79   9 2.79  17 2.79
  16  0.667  0.333  0.500-  45 1.86  48 1.86  36 1.86  32 1.86  33 1.86  49 1.86   4 2.79  14 2.79
                             8 2.79   6 2.79  10 2.79  18 2.79
  17  0.667  0.667  0.000-  42 1.86  47 1.86  54 1.86  51 1.86  35 1.86  38 1.86   5 2.79   1 2.79
                            13 2.79  11 2.79   9 2.79  15 2.79
  18  0.667  0.667  0.500-  40 1.86  49 1.86  52 1.86  53 1.86  37 1.86  36 1.86   6 2.79   2 2.79
                            14 2.79  12 2.79  10 2.79  16 2.79
  19  0.111  0.222  0.101-   3 1.86   9 1.86   1 1.86
  20  0.222  0.111  0.399-   8 1.86   2 1.86  10 1.86
  21  0.111  0.222  0.601-   4 1.86  10 1.86   2 1.86
  22  0.222  0.111  0.899-   7 1.86   1 1.86   9 1.86
  23  0.111  0.556  0.101-   5 1.86  11 1.86   3 1.86
  24  0.222  0.444  0.399-  10 1.86   4 1.86  12 1.86
  25  0.111  0.556  0.601-   6 1.86  12 1.86   4 1.86
  26  0.222  0.444  0.899-   9 1.86   3 1.86  11 1.86
  27  0.111  0.889  0.101-   1 1.86   7 1.86   5 1.86
  28  0.222  0.778  0.399-  12 1.86   6 1.86   8 1.86
  29  0.111  0.889  0.601-   2 1.86   8 1.86   6 1.86
  30  0.222  0.778  0.899-  11 1.86   5 1.86   7 1.86
  31  0.444  0.222  0.101-   9 1.86   7 1.86  15 1.86
  32  0.556  0.111  0.399-  14 1.86  16 1.86   8 1.86
  33  0.444  0.222  0.601-  10 1.86   8 1.86  16 1.86
  34  0.556  0.111  0.899-  13 1.86  15 1.86   7 1.86
  35  0.444  0.556  0.101-  11 1.86  17 1.86   9 1.86
  36  0.556  0.444  0.399-  16 1.86  10 1.86  18 1.86
  37  0.444  0.556  0.601-  12 1.86  18 1.86  10 1.86
  38  0.556  0.444  0.899-  15 1.86   9 1.86  17 1.86
  39  0.444  0.889  0.101-   7 1.86  11 1.86  13 1.86
  40  0.556  0.778  0.399-  18 1.86  14 1.86  12 1.86
  41  0.444  0.889  0.601-   8 1.86  12 1.86  14 1.86
  42  0.556  0.778  0.899-  17 1.86  13 1.86  11 1.86
  43  0.778  0.222  0.101-  15 1.86   3 1.86  13 1.86
  44  0.889  0.111  0.399-   2 1.86  14 1.86   4 1.86
  45  0.778  0.222  0.601-  16 1.86   4 1.86  14 1.86
  46  0.889  0.111  0.899-   1 1.86  13 1.86   3 1.86
  47  0.778  0.556  0.101-  17 1.86   5 1.86  15 1.86
  48  0.889  0.444  0.399-   4 1.86  16 1.86   6 1.86
  49  0.778  0.556  0.601-  18 1.86   6 1.86  16 1.86
  50  0.889  0.444  0.899-   3 1.86  15 1.86   5 1.86
  51  0.778  0.889  0.101-  13 1.86   1 1.86  17 1.86
  52  0.889  0.778  0.399-   6 1.86  18 1.86   2 1.86
  53  0.778  0.889  0.601-  14 1.86   2 1.86  18 1.86
  54  0.889  0.778  0.899-   5 1.86  17 1.86   1 1.86

  LATTYP: Found a hexagonal cell.
 ALAT       =     8.3628700013
 C/A-ratio  =     1.1065328050

  Lattice vectors:

 A1 = (   8.3628700000,   0.0000000000,   0.0000000000)
 A2 = (  -4.1814350000,   7.2424578700,   0.0000000000)
 A3 = (   0.0000000000,   0.0000000000,   9.2537900000)

Analysis of symmetry for initial positions (statically):
 Subroutine PRICEL returns following result:

[...]

   2 primitive cells build up your supercell.

 Routine SETGRP: Setting up the symmetry group for a
 hexagonal supercell.

 Subroutine GETGRP returns: Found  4 space group operations
 (whereof  4 operations were pure point group operations)
 out of a pool of 24 trial point group operations.

The static configuration has the point symmetry C_2h.

Analysis of symmetry for dynamics (positions and initial velocities):
 Subroutine PRICEL returns following result:

[...]

The dynamic configuration has the point symmetry C_2h.

Analysis of structural, dynamic, and magnetic symmetry:
 Subroutine PRICEL returns following result:

  LATTYP: Found a hexagonal cell.
 ALAT       =     8.3628700013
 C/A-ratio  =     0.5532664025

  Lattice vectors:

 A1 = (   8.3628700000,   0.0000000000,   0.0000000000)
 A2 = (  -4.1814350000,   7.2424578700,   0.0000000000)
 A3 = (   0.0000000000,   0.0000000000,   4.6268950000)

   2 primitive cells build up your supercell.

 Routine SETGRP: Setting up the symmetry group for a
 hexagonal supercell.

 Subroutine GETGRP returns: Found  4 space group operations
 (whereof  4 operations were pure point group operations)
 out of a pool of 24 trial point group operations.

The magnetic configuration has the point symmetry C_2h.

 Subroutine INISYM returns: Found  4 space group operations
 (whereof  4 operations are pure point group operations),
 and found     2 'primitive' translations

 KPOINTS: Automatic mesh

Automatic generation of k-mesh.
Space group operators:
 irot       det(A)        alpha          n_x          n_y          n_z        tau_x        tau_y        tau_z
    1     1.000000     0.000000     1.000000     0.000000     0.000000     0.000000     0.000000     0.000000
    2    -1.000000     0.000000     1.000000     0.000000     0.000000     0.000000     0.000000     0.000000
    3     1.000000   180.000000    -0.500000    -0.866025     0.000000     0.000000     0.000000     0.000000
    4    -1.000000   180.000000    -0.500000    -0.866025     0.000000     0.000000     0.000000     0.000000

 Subroutine IBZKPT returns following result:

 Found     17 irreducible k-points:

 Following reciprocal coordinates:
            Coordinates               Weight
  0.000000  0.000000  0.000000      1.000000
  0.250000  0.000000  0.000000      4.000000
  0.500000  0.000000  0.000000      2.000000
  0.250000  0.250000  0.000000      2.000000
  0.500000  0.250000  0.000000      4.000000
 -0.250000  0.250000  0.000000      2.000000
  0.500000  0.500000  0.000000      1.000000
  0.000000  0.000000  0.333333      2.000000
  0.250000  0.000000  0.333333      4.000000
  0.500000  0.000000  0.333333      4.000000
 -0.250000  0.000000  0.333333      4.000000
  0.250000  0.250000  0.333333      4.000000
  0.500000  0.250000  0.333333      4.000000
 -0.250000  0.250000  0.333333      2.000000
  0.250000  0.500000  0.333333      4.000000
  0.500000  0.500000  0.333333      2.000000
  0.250000 -0.250000  0.333333      2.000000

 Following cartesian coordinates:
            Coordinates               Weight
  0.000000  0.000000  0.000000      1.000000
  0.029894  0.017259  0.000000      4.000000
  0.059788  0.034519  0.000000      2.000000
  0.029894  0.051778  0.000000      2.000000
  0.059788  0.069037  0.000000      4.000000
 -0.029894  0.017259  0.000000      2.000000
  0.059788  0.103556  0.000000      1.000000
  0.000000  0.000000  0.036021      2.000000
  0.029894  0.017259  0.036021      4.000000
  0.059788  0.034519  0.036021      4.000000
 -0.029894 -0.017259  0.036021      4.000000
  0.029894  0.051778  0.036021      4.000000
  0.059788  0.069037  0.036021      4.000000
 -0.029894  0.017259  0.036021      2.000000
  0.029894  0.086297  0.036021      4.000000
  0.059788  0.103556  0.036021      2.000000
  0.029894 -0.017259  0.036021      2.000000

 SYSTEM =  unknown system
[...]
   -.384E-02 -.315E-01 -.121E-01   0.155E-02 0.397E-01 0.119E-01   -.167E-05 0.709E-04 0.586E-04   0.239E-02 -.783E-02 0.456E-03
   -.384E-02 -.315E-01 -.121E-01   0.155E-02 0.397E-01 0.119E-01   -.167E-05 0.709E-04 0.586E-04   0.239E-02 -.783E-02 0.456E-03
   0.384E-02 0.315E-01 0.121E-01   -.155E-02 -.397E-01 -.119E-01   0.167E-05 -.709E-04 -.586E-04   -.239E-02 0.783E-02 -.456E-03
   0.384E-02 0.315E-01 0.121E-01   -.155E-02 -.397E-01 -.119E-01   0.167E-05 -.709E-04 -.586E-04   -.239E-02 0.783E-02 -.456E-03
   -.254E-01 -.191E-01 0.121E-01   0.336E-01 0.212E-01 -.119E-01   0.622E-04 0.340E-04 -.586E-04   -.798E-02 -.185E-02 -.456E-03
   -.254E-01 -.191E-01 0.121E-01   0.336E-01 0.212E-01 -.119E-01   0.622E-04 0.340E-04 -.586E-04   -.798E-02 -.185E-02 -.456E-03
   -.292E-01 -.507E-01 -.208E-08   0.351E-01 0.608E-01 -.160E-11   0.137E-03 0.238E-03 -.212E-21   -.567E-02 -.981E-02 0.634E-12
   -.292E-01 -.507E-01 -.207E-08   0.351E-01 0.608E-01 -.155E-11   0.137E-03 0.238E-03 -.212E-21   -.567E-02 -.981E-02 -.139E-11
   -.282E-01 0.163E-01 0.242E-01   0.320E-01 -.185E-01 -.237E-01   0.364E-03 -.210E-03 0.713E-04   -.327E-02 0.189E-02 -.562E-03
   -.282E-01 0.163E-01 0.242E-01   0.320E-01 -.185E-01 -.237E-01   0.364E-03 -.210E-03 0.713E-04   -.327E-02 0.189E-02 -.562E-03
   0.254E-01 0.191E-01 -.121E-01   -.336E-01 -.212E-01 0.119E-01   -.622E-04 -.340E-04 0.586E-04   0.798E-02 0.185E-02 0.456E-03
   0.254E-01 0.191E-01 -.121E-01   -.336E-01 -.212E-01 0.119E-01   -.622E-04 -.340E-04 0.586E-04   0.798E-02 0.185E-02 0.456E-03
   0.282E-01 -.163E-01 -.242E-01   -.320E-01 0.185E-01 0.237E-01   -.364E-03 0.210E-03 -.713E-04   0.327E-02 -.189E-02 0.562E-03
   0.282E-01 -.163E-01 -.242E-01   -.320E-01 0.185E-01 0.237E-01   -.364E-03 0.210E-03 -.713E-04   0.327E-02 -.189E-02 0.562E-03
   0.292E-01 0.507E-01 0.210E-08   -.351E-01 -.608E-01 0.162E-11   -.137E-03 -.238E-03 0.000E+00   0.567E-02 0.981E-02 0.124E-11
   0.292E-01 0.507E-01 0.213E-08   -.351E-01 -.608E-01 0.168E-11   -.137E-03 -.238E-03 0.212E-21   0.567E-02 0.981E-02 -.503E-12
   -.218E-02 -.672E-02 -.373E+03   0.468E-02 0.168E-01 0.400E+03   0.180E-04 -.399E-02 -.278E+02   -.259E-02 -.101E-01 0.446E-03
   -.473E-02 -.525E-02 0.373E+03   0.122E-01 0.125E-01 -.400E+03   -.347E-02 -.198E-02 0.278E+02   -.748E-02 -.731E-02 -.446E-03
   -.218E-02 -.672E-02 -.373E+03   0.468E-02 0.168E-01 0.400E+03   0.180E-04 -.399E-02 -.278E+02   -.259E-02 -.101E-01 0.446E-03
   -.473E-02 -.525E-02 0.373E+03   0.122E-01 0.125E-01 -.400E+03   -.347E-02 -.198E-02 0.278E+02   -.748E-02 -.731E-02 -.446E-03
   0.272E-02 0.196E-01 -.373E+03   0.385E-02 -.178E-01 0.400E+03   0.211E-02 0.195E-02 -.278E+02   -.707E-02 -.346E-02 0.601E-02
   -.101E-01 -.169E-01 0.373E+03   0.134E-01 0.274E-01 -.400E+03   -.271E-03 -.325E-02 0.278E+02   -.318E-02 -.916E-02 -.706E-02
   0.272E-02 0.196E-01 -.373E+03   0.385E-02 -.178E-01 0.400E+03   0.211E-02 0.195E-02 -.278E+02   -.707E-02 -.346E-02 0.601E-02
   -.101E-01 -.169E-01 0.373E+03   0.134E-01 0.274E-01 -.400E+03   -.271E-03 -.325E-02 0.278E+02   -.318E-02 -.916E-02 -.706E-02
   0.208E-02 -.120E-02 -.373E+03   0.496E-02 -.287E-02 0.400E+03   -.360E-02 0.208E-02 -.278E+02   -.697E-02 0.403E-02 -.824E-03
   -.379E-02 0.219E-02 0.373E+03   0.125E-01 -.723E-02 -.400E+03   -.193E-02 0.111E-02 0.278E+02   -.892E-02 0.515E-02 -.572E-02
   0.208E-02 -.120E-02 -.373E+03   0.496E-02 -.287E-02 0.400E+03   -.360E-02 0.208E-02 -.278E+02   -.697E-02 0.403E-02 -.824E-03
   -.379E-02 0.219E-02 0.373E+03   0.125E-01 -.723E-02 -.400E+03   -.193E-02 0.111E-02 0.278E+02   -.892E-02 0.515E-02 -.572E-02
   -.957E-02 -.172E-01 -.373E+03   0.170E-01 0.252E-01 0.400E+03   -.268E-02 -.186E-02 -.278E+02   -.635E-02 -.733E-02 0.706E-02
   0.156E-01 0.122E-01 0.373E+03   -.173E-01 -.555E-02 -.400E+03   0.628E-03 0.280E-02 0.278E+02   0.539E-03 -.785E-02 -.601E-02
   -.957E-02 -.172E-01 -.373E+03   0.170E-01 0.252E-01 0.400E+03   -.268E-02 -.186E-02 -.278E+02   -.635E-02 -.733E-02 0.706E-02
   0.156E-01 0.122E-01 0.373E+03   -.173E-01 -.555E-02 -.400E+03   0.628E-03 0.280E-02 0.278E+02   0.539E-03 -.785E-02 -.601E-02
   -.191E-01 0.110E-01 -.373E+03   0.162E-01 -.935E-02 0.400E+03   -.182E-02 0.105E-02 -.278E+02   0.390E-02 -.225E-02 0.853E-02
   0.191E-01 -.110E-01 0.373E+03   -.162E-01 0.935E-02 -.400E+03   0.182E-02 -.105E-02 0.278E+02   -.390E-02 0.225E-02 -.853E-02
   -.191E-01 0.110E-01 -.373E+03   0.162E-01 -.935E-02 0.400E+03   -.182E-02 0.105E-02 -.278E+02   0.390E-02 -.225E-02 0.853E-02
   0.191E-01 -.110E-01 0.373E+03   -.162E-01 0.935E-02 -.400E+03   0.182E-02 -.105E-02 0.278E+02   -.390E-02 0.225E-02 -.853E-02
   -.156E-01 -.122E-01 -.373E+03   0.173E-01 0.555E-02 0.400E+03   -.628E-03 -.280E-02 -.278E+02   -.539E-03 0.785E-02 0.601E-02
   0.957E-02 0.172E-01 0.373E+03   -.170E-01 -.252E-01 -.400E+03   0.268E-02 0.186E-02 0.278E+02   0.635E-02 0.733E-02 -.706E-02
   -.156E-01 -.122E-01 -.373E+03   0.173E-01 0.555E-02 0.400E+03   -.628E-03 -.280E-02 -.278E+02   -.539E-03 0.785E-02 0.601E-02
   0.957E-02 0.172E-01 0.373E+03   -.170E-01 -.252E-01 -.400E+03   0.268E-02 0.186E-02 0.278E+02   0.635E-02 0.733E-02 -.706E-02
   0.379E-02 -.219E-02 -.373E+03   -.125E-01 0.723E-02 0.400E+03   0.193E-02 -.111E-02 -.278E+02   0.892E-02 -.515E-02 0.572E-02
   -.208E-02 0.120E-02 0.373E+03   -.496E-02 0.287E-02 -.400E+03   0.360E-02 -.208E-02 0.278E+02   0.697E-02 -.403E-02 0.824E-03
   0.379E-02 -.219E-02 -.373E+03   -.125E-01 0.723E-02 0.400E+03   0.193E-02 -.111E-02 -.278E+02   0.892E-02 -.515E-02 0.572E-02
   -.208E-02 0.120E-02 0.373E+03   -.496E-02 0.287E-02 -.400E+03   0.360E-02 -.208E-02 0.278E+02   0.697E-02 -.403E-02 0.824E-03
   0.101E-01 0.169E-01 -.373E+03   -.134E-01 -.274E-01 0.400E+03   0.271E-03 0.325E-02 -.278E+02   0.318E-02 0.916E-02 0.706E-02
   -.272E-02 -.196E-01 0.373E+03   -.385E-02 0.178E-01 -.400E+03   -.211E-02 -.195E-02 0.278E+02   0.707E-02 0.346E-02 -.601E-02
   0.101E-01 0.169E-01 -.373E+03   -.134E-01 -.274E-01 0.400E+03   0.271E-03 0.325E-02 -.278E+02   0.318E-02 0.916E-02 0.706E-02
   -.272E-02 -.196E-01 0.373E+03   -.385E-02 0.178E-01 -.400E+03   -.211E-02 -.195E-02 0.278E+02   0.707E-02 0.346E-02 -.601E-02
   0.473E-02 0.525E-02 -.373E+03   -.122E-01 -.125E-01 0.400E+03   0.347E-02 0.198E-02 -.278E+02   0.748E-02 0.731E-02 0.446E-03
   0.218E-02 0.672E-02 0.373E+03   -.468E-02 -.168E-01 -.400E+03   -.180E-04 0.399E-02 0.278E+02   0.259E-02 0.101E-01 -.446E-03
   0.473E-02 0.525E-02 -.373E+03   -.122E-01 -.125E-01 0.400E+03   0.347E-02 0.198E-02 -.278E+02   0.748E-02 0.731E-02 0.446E-03
   0.218E-02 0.672E-02 0.373E+03   -.468E-02 -.168E-01 -.400E+03   -.180E-04 0.399E-02 0.278E+02   0.259E-02 0.101E-01 -.446E-03
   0.538E-10 0.345E-10 0.343E-09   -.359E-12 -.106E-12 -.568E-13   0.867E-18 -.304E-16 0.000E+00   -.661E-12 -.522E-12 0.952E-13

 POSITION                                       TOTAL-FORCE (eV/Angst)
      0.00000      0.00000      0.00000         0.000000      0.000000     -0.000000
      0.00000      0.00000      4.62690         0.000000      0.000000     -0.000000
     -1.39380      2.41413      0.00000         0.000091      0.000398      0.000268
     -1.39380      2.41413      4.62690         0.000091      0.000398      0.000268
     -2.78764      4.82833      0.00000        -0.000091     -0.000398     -0.000268
     -2.78764      4.82833      4.62690        -0.000091     -0.000398     -0.000268
      2.78760      0.00000      0.00000         0.000300      0.000278     -0.000268
      2.78760      0.00000      4.62690         0.000300      0.000278     -0.000268
      1.39380      2.41413      0.00000         0.000346      0.000599     -0.000000
      1.39380      2.41413      4.62690         0.000346      0.000599     -0.000000
     -0.00004      4.82833      0.00000         0.000915     -0.000528      0.000001
     -0.00004      4.82833      4.62690         0.000915     -0.000528      0.000001
      5.57527      0.00000      0.00000        -0.000300     -0.000278      0.000268
      5.57527      0.00000      4.62690        -0.000300     -0.000278      0.000268
      4.18148      2.41413      0.00000        -0.000915      0.000528     -0.000001
      4.18148      2.41413      4.62690        -0.000915      0.000528     -0.000001
      2.78764      4.82833      0.00000        -0.000346     -0.000599     -0.000000
      2.78764      4.82833      4.62690        -0.000346     -0.000599     -0.000000
     -0.00000      1.60942      0.93491        -0.000073     -0.004023     -0.006950
      1.39380      0.80471      3.69198        -0.003447     -0.002075      0.006950
     -0.00000      1.60942      5.56181        -0.000073     -0.004023     -0.006950
      1.39380      0.80471      8.31888        -0.003447     -0.002075      0.006950
     -1.39384      4.02362      0.93491         0.001612      0.000323     -0.005837
      0.00000      3.21884      3.69198        -0.000200     -0.001925      0.006375
     -1.39384      4.02362      5.56181         0.001612      0.000323     -0.005837
      0.00000      3.21884      8.31888        -0.000200     -0.001925      0.006375
     -2.78764      6.43775      0.93491        -0.003536      0.002041     -0.007026
     -1.39384      5.63304      3.69198        -0.002121      0.001225      0.006248
     -2.78764      6.43775      5.56181        -0.003536      0.002041     -0.007026
     -1.39384      5.63304      8.31888        -0.002121      0.001225      0.006248
      2.78760      1.60942      0.93491        -0.001567     -0.001136     -0.006375
      4.18148      0.80471      3.69198        -0.000526      0.001557      0.005837
      2.78760      1.60942      5.56181        -0.001567     -0.001136     -0.006375
      4.18148      0.80471      8.31888        -0.000526      0.001557      0.005837
      1.39376      4.02362      0.93491        -0.000840      0.000485     -0.005895
      2.78768      3.21884      3.69198         0.000840     -0.000485      0.005895
      1.39376      4.02362      5.56181        -0.000840      0.000485     -0.005895
      2.78768      3.21884      8.31888         0.000840     -0.000485      0.005895
     -0.00004      6.43775      0.93491         0.000526     -0.001557     -0.005837
      1.39384      5.63304      3.69198         0.001567      0.001136      0.006375
     -0.00004      6.43775      5.56181         0.000526     -0.001557     -0.005837
      1.39384      5.63304      8.31888         0.001567      0.001136      0.006375
      5.57527      1.60942      0.93491         0.002121     -0.001225     -0.006248
      6.96907      0.80471      3.69198         0.003536     -0.002041      0.007026
      5.57527      1.60942      5.56181         0.002121     -0.001225     -0.006248
      6.96907      0.80471      8.31888         0.003536     -0.002041      0.007026
      4.18143      4.02362      0.93491         0.000200      0.001925     -0.006375
      5.57527      3.21884      3.69198        -0.001612     -0.000323      0.005837
      4.18143      4.02362      5.56181         0.000200      0.001925     -0.006375
      5.57527      3.21884      8.31888        -0.001612     -0.000323      0.005837
      2.78764      6.43775      0.93491         0.003447      0.002075     -0.006950
      4.18144      5.63304      3.69198         0.000073      0.004023      0.006950
      2.78764      6.43775      5.56181         0.003447      0.002075     -0.006950
      4.18144      5.63304      8.31888         0.000073      0.004023      0.006950
    total drift:                                0.000000      0.000000      0.000000

  FREE ENERGIE OF THE ION-ELECTRON SYSTEM (eV)
  free  energy   TOTEN  =      -337.1149138011 eV

  energy  without entropy=     -337.1149138011  energy(sigma->0) =     -337.11491380

volume of typ            1:    20.5 %

volume of typ            2:    10.5 %

total charge

# of ion       s       p       d       tot
    1        0.306   0.426   7.817   8.550
    2        0.306   0.426   7.817   8.550
    3        0.306   0.426   7.818   8.550
    4        0.306   0.426   7.818   8.550
    5        0.306   0.426   7.818   8.550
    6        0.306   0.426   7.818   8.550
    7        0.306   0.426   7.818   8.550
    8        0.306   0.426   7.818   8.550
    9        0.306   0.426   7.818   8.550
   10        0.306   0.426   7.818   8.550
   11        0.306   0.426   7.818   8.550
   12        0.306   0.426   7.818   8.550
   13        0.306   0.426   7.818   8.550
   14        0.306   0.426   7.818   8.550
   15        0.306   0.426   7.818   8.550
   16        0.306   0.426   7.818   8.550
   17        0.306   0.426   7.818   8.550
   18        0.306   0.426   7.818   8.550
   19        1.285   2.725   0.008   4.018
   20        1.285   2.725   0.008   4.018
   21        1.285   2.725   0.008   4.018
   22        1.285   2.725   0.008   4.018
   23        1.285   2.725   0.008   4.018
   24        1.285   2.725   0.008   4.018
   25        1.285   2.725   0.008   4.018
   26        1.285   2.725   0.008   4.018
   27        1.285   2.725   0.008   4.018
   28        1.285   2.725   0.008   4.018
   29        1.285   2.725   0.008   4.018
   30        1.285   2.725   0.008   4.018
   31        1.285   2.725   0.008   4.018
   32        1.285   2.725   0.008   4.018
   33        1.285   2.725   0.008   4.018
   34        1.285   2.725   0.008   4.018
   35        1.285   2.725   0.008   4.018
   36        1.285   2.725   0.008   4.018
   37        1.285   2.725   0.008   4.018
   38        1.285   2.725   0.008   4.018
   39        1.285   2.725   0.008   4.018
   40        1.285   2.725   0.008   4.018
   41        1.285   2.725   0.008   4.018
   42        1.285   2.725   0.008   4.018
   43        1.285   2.725   0.008   4.018
   44        1.285   2.725   0.008   4.018
   45        1.285   2.725   0.008   4.018
   46        1.285   2.725   0.008   4.018
   47        1.285   2.725   0.008   4.018
   48        1.285   2.725   0.008   4.018
   49        1.285   2.725   0.008   4.018
   50        1.285   2.725   0.008   4.018
   51        1.285   2.725   0.008   4.018
   52        1.285   2.725   0.008   4.018
   53        1.285   2.725   0.008   4.018
   54        1.285   2.725   0.008   4.018
tot          51.76  105.79  141.01  298.56

magnetization (x)

# of ion       s       p       d       tot
    1        0.000   0.000   0.000   0.000
    2        0.000   0.000   0.000   0.000
    3        0.000   0.000   0.000   0.000
    4        0.000   0.000   0.000   0.000
    5        0.000   0.000   0.000   0.000
    6        0.000   0.000   0.000   0.000
    7        0.000   0.000   0.000   0.000
    8        0.000   0.000   0.000   0.000
    9        0.000   0.000   0.000   0.000
   10        0.000   0.000   0.000   0.000
   11        0.000   0.000   0.000   0.000
   12        0.000   0.000   0.000   0.000
   13        0.000   0.000   0.000   0.000
   14        0.000   0.000   0.000   0.000
   15        0.000   0.000   0.000   0.000
   16        0.000   0.000   0.000   0.000
   17        0.000   0.000   0.000   0.000
   18        0.000   0.000   0.000   0.000
   19       -0.000  -0.000  -0.000  -0.000
   20       -0.000  -0.000  -0.000  -0.000
   21       -0.000  -0.000  -0.000  -0.000
   22       -0.000  -0.000  -0.000  -0.000
   23       -0.000  -0.000   0.000  -0.000
   24       -0.000  -0.000   0.000  -0.000
   25       -0.000  -0.000   0.000  -0.000
   26       -0.000  -0.000   0.000  -0.000
   27       -0.000  -0.000  -0.000  -0.000
   28       -0.000  -0.000   0.000  -0.000
   29       -0.000  -0.000  -0.000  -0.000
   30       -0.000  -0.000   0.000  -0.000
   31       -0.000  -0.000   0.000  -0.000
   32       -0.000  -0.000   0.000  -0.000
   33       -0.000  -0.000   0.000  -0.000
   34       -0.000  -0.000   0.000  -0.000
   35       -0.000  -0.000   0.000  -0.000
   36       -0.000  -0.000   0.000  -0.000
   37       -0.000  -0.000   0.000  -0.000
   38       -0.000  -0.000   0.000  -0.000
   39       -0.000  -0.000   0.000  -0.000
   40       -0.000  -0.000   0.000  -0.000
   41       -0.000  -0.000   0.000  -0.000
   42       -0.000  -0.000   0.000  -0.000
   43       -0.000  -0.000   0.000  -0.000
   44       -0.000  -0.000  -0.000  -0.000
   45       -0.000  -0.000   0.000  -0.000
   46       -0.000  -0.000  -0.000  -0.000
   47       -0.000  -0.000   0.000  -0.000
   48       -0.000  -0.000   0.000  -0.000
   49       -0.000  -0.000   0.000  -0.000
   50       -0.000  -0.000   0.000  -0.000
   51       -0.000  -0.000  -0.000  -0.000
   52       -0.000  -0.000  -0.000  -0.000
   53       -0.000  -0.000  -0.000  -0.000
   54       -0.000  -0.000  -0.000  -0.000
tot          -0.00   -0.00    0.00   -0.00