 vasp.5.4.4.18Apr17-6-g9f103f2a35 (build May 12 2020 04:58:55) complex

 MD_VERSION_INFO: Compiled 2020-05-12T11:58:55-UTC in devlin.sd.materialsdesign.
 com:/home/medea2/data/build/wwolf/vasp-gpu5.4.4/13047/x86_64/src/src/build/std
 from svn 13047

 executed on                        Lin64 date 2022.11.15  09:44:10

 INCAR:
 POTCAR:    PAW_PBE Li_sv 10Sep2004
 POTCAR:    PAW_PBE Ni 02Aug2007
 POTCAR:    PAW_PBE Ta_pv 07Sep2000
 POTCAR:    PAW_PBE Mn_pv 02Aug2007
 POTCAR:    PAW_PBE O 08Apr2002
 POTCAR:    PAW_PBE Co 02Aug2007

 POTCAR:    PAW_PBE Li_sv 10Sep2004

 POTCAR:    PAW_PBE Ni 02Aug2007

 POTCAR:    PAW_PBE Ta_pv 07Sep2000

 POTCAR:    PAW_PBE Mn_pv 02Aug2007

 POTCAR:    PAW_PBE O 08Apr2002

 POTCAR:    PAW_PBE Co 02Aug2007

 Optimization of the real space projectors (new method)

 maximal supplied QI-value         = 22.11
 optimisation between [QCUT,QGAM] = [ 11.28, 22.77] = [ 35.61,145.23] Ry
 Optimized for a Real-space Cutoff    1.10 Angstroem

   l    n(q)    QCUT    max X(q) W(low)/X(q) W(high)/X(q)  e(spline)
   0      7    11.276    10.506    0.54E-04    0.58E-04    0.16E-07
   0      7    11.276     8.367    0.11E-03    0.14E-03    0.35E-07
   1      7    11.276     8.983    0.23E-03    0.43E-03    0.86E-07
 Optimization of the real space projectors (new method)

[...]

   l    n(q)    QCUT    max X(q) W(low)/X(q) W(high)/X(q)  e(spline)
   0      7    11.387    20.381    0.22E-03    0.48E-03    0.18E-06
   0      7    11.387    15.268    0.22E-03    0.52E-03    0.19E-06
   1      7    11.387     5.964    0.22E-03    0.73E-03    0.24E-06
   1      7    11.387     5.382    0.19E-03    0.60E-03    0.21E-06
 Optimization of the real space projectors (new method)

 maximal supplied QI-value         = 16.25
 optimisation between [QCUT,QGAM] = [ 11.38, 22.75] = [ 36.24,144.96] Ry
 Optimized for a Real-space Cutoff    1.43 Angstroem

   l    n(q)    QCUT    max X(q) W(low)/X(q) W(high)/X(q)  e(spline)
   2      9    11.376    65.824    0.18E-03    0.28E-04    0.14E-06
   2      9    11.376    61.429    0.18E-03    0.29E-04    0.14E-06
   0     10    11.376    56.174    0.51E-04    0.12E-03    0.20E-06
   0     10    11.376    31.263    0.46E-04    0.11E-03    0.18E-06
   1      9    11.376    19.828    0.23E-03    0.17E-03    0.10E-06
   1      9    11.376    15.139    0.20E-03    0.14E-03    0.89E-07

  PAW_PBE Li_sv 10Sep2004               :
  PAW_PBE Ni 02Aug2007                  :
  PAW_PBE Ta_pv 07Sep2000               :
  PAW_PBE Mn_pv 02Aug2007               :
  PAW_PBE O 08Apr2002                   :
  PAW_PBE Co 02Aug2007                  :

 POSCAR: ce524693_1
  positions in direct lattice

 METAGGA = SCAN     LMAXTAU =  6    LMIXTAU =  T

 ion  position               nearest neighbor table
   1  0.267  0.312  0.253-  31 2.02  39 2.02  47 2.05  55 2.09  54 2.14  62 2.22  11 2.76  14 2.83
                            20 3.01
   2  0.733  0.312  0.747-  32 2.02  40 2.02  48 2.05  56 2.09  53 2.14  61 2.22  11 2.76  14 2.83
                            20 3.01
   3  0.741  0.803  0.251-  51 1.99  35 2.03  43 2.06  58 2.11  59 2.19  50 2.20   7 2.81  17 2.82

   4  0.259  0.803  0.749-  52 1.99  36 2.03  44 2.06  57 2.11  60 2.19  49 2.20   7 2.81  17 2.82

   5  0.000  0.404  0.000-  31 1.86  32 1.86  25 1.86  26 1.86  47 1.87  48 1.87   6 2.75  22 2.79
                            22 2.79  14 2.80  14 2.80  20 2.88
   6  0.000  0.600  0.000-  25 1.85  26 1.85  49 1.87  50 1.87  33 1.87  34 1.87  13 2.73   5 2.75
                            22 2.78  22 2.78  19 2.79  19 2.79
   7  0.500  0.894  0.000-  51 1.85  52 1.85  23 1.85  24 1.85  35 1.86  36 1.86  19 2.74  21 2.77
                            21 2.77   8 2.78  13 2.80  13 2.80   3 2.81   4 2.81
   8  0.500  0.093  0.000-  37 1.85  38 1.85  23 1.94  24 1.94  53 2.05  54 2.05   7 2.78  21 2.82
                            21 2.82  20 2.84  20 2.84  14 2.97
   9  0.000  0.902  0.500-  27 1.85  28 1.85  43 1.86  44 1.86  59 1.89  60 1.89  10 2.79  64 2.80
                            64 2.80  17 2.81  17 2.81  16 2.83
  10  0.000  0.101  0.500-  27 1.85  28 1.85  45 1.87  46 1.87  61 1.91  62 1.91   9 2.79  18 2.80
                            18 2.80  64 2.80  64 2.80  15 2.81
  11  0.500  0.402  0.500-  29 1.85  30 1.85  39 1.86  40 1.86  55 1.89  56 1.89   1 2.76   2 2.76
                            12 2.78  63 2.80  63 2.80  15 2.81  15 2.81  18 2.84
  12  0.500  0.601  0.500-  29 1.85  30 1.85  41 1.87  42 1.87  57 1.90  58 1.90  11 2.78  16 2.80
                            16 2.80  63 2.80  63 2.80  17 2.80
  13  0.000  0.795  0.000-  49 1.86  50 1.86  35 1.87  36 1.87  51 2.03  52 2.03   6 2.73  21 2.73
                            19 2.78  19 2.78   7 2.80   7 2.80
  14  0.500  0.305  0.000-  31 1.87  32 1.87  53 1.88  54 1.88  47 2.07  48 2.07  22 2.78   5 2.80
                             5 2.80   2 2.83   1 2.83  20 2.85  20 2.85   8 2.97
  15  0.000  0.301  0.500-  39 1.86  40 1.86  61 1.87  62 1.87  55 1.88  56 1.88  10 2.81  63 2.81
                            18 2.81  18 2.81  11 2.81  11 2.81
  16  0.000  0.700  0.500-  41 1.85  42 1.85  57 1.86  58 1.86  59 1.89  60 1.89  63 2.78  12 2.80
                            12 2.80  17 2.81  17 2.81   9 2.83
  17  0.500  0.801  0.500-  43 1.86  44 1.86  57 1.87  58 1.87  59 1.89  60 1.89  12 2.80  64 2.81
                            16 2.81  16 2.81   9 2.81   9 2.81   3 2.82   4 2.82
  18  0.500  0.200  0.500-  45 1.85  46 1.85  61 1.87  62 1.87  55 1.89  56 1.89  64 2.79  10 2.80
                            10 2.80  15 2.81  15 2.81  11 2.84
  19  0.500  0.698  0.000-  51 1.83  52 1.83  49 1.85  50 1.85  33 1.87  34 1.87  22 2.73   7 2.74
                            13 2.78  13 2.78   6 2.79   6 2.79
  20  0.000  0.199  0.000-  53 1.96  54 1.96  37 1.99  38 1.99  47 2.00  48 2.00   8 2.84   8 2.84
                            14 2.85  14 2.85   5 2.88  21 2.93   1 3.01   2 3.01
  21  0.000  0.990  0.000-  35 1.88  36 1.88  23 1.88  24 1.88  37 1.92  38 1.92  13 2.73   7 2.77
                             7 2.77   8 2.82   8 2.82  20 2.93
  22  0.500  0.503  0.000-  33 1.86  34 1.86  25 1.90  26 1.90  31 1.91  32 1.91  19 2.73  14 2.78
                             6 2.78   6 2.78   5 2.79   5 2.79
  23  0.362  0.989  0.105-   7 1.85  21 1.88   8 1.94
  24  0.638  0.989  0.895-   7 1.85  21 1.88   8 1.94
  25  0.868  0.503  0.102-   6 1.85   5 1.86  22 1.90
  26  0.132  0.503  0.898-   6 1.85   5 1.86  22 1.90
  27  0.131  0.001  0.401-  10 1.85   9 1.85  64 1.89
  28  0.869  0.001  0.599-  10 1.85   9 1.85  64 1.89
  29  0.631  0.502  0.401-  12 1.85  11 1.85  63 1.89
  30  0.369  0.502  0.599-  12 1.85  11 1.85  63 1.89
  31  0.359  0.402  0.102-   5 1.86  14 1.87  22 1.91   1 2.02
  32  0.641  0.402  0.898-   5 1.86  14 1.87  22 1.91   2 2.02
  33  0.638  0.600  0.898-  22 1.86  19 1.87   6 1.87
  34  0.362  0.600  0.102-  22 1.86  19 1.87   6 1.87
  35  0.858  0.892  0.103-   7 1.86  13 1.87  21 1.88   3 2.03
  36  0.142  0.892  0.897-   7 1.86  13 1.87  21 1.88   4 2.03
  37  0.144  0.091  0.897-   8 1.85  21 1.92  20 1.99
  38  0.856  0.091  0.103-   8 1.85  21 1.92  20 1.99
  39  0.140  0.399  0.399-  15 1.86  11 1.86  63 1.92   1 2.02
  40  0.860  0.399  0.601-  15 1.86  11 1.86  63 1.92   2 2.02
  41  0.864  0.602  0.599-  16 1.85  12 1.87  63 1.87
  42  0.136  0.602  0.401-  16 1.85  12 1.87  63 1.87
  43  0.639  0.898  0.399-  17 1.86   9 1.86  64 1.92   3 2.06
  44  0.361  0.898  0.601-  17 1.86   9 1.86  64 1.92   4 2.06
  45  0.364  0.102  0.599-  18 1.85  10 1.87  64 1.87
  46  0.636  0.102  0.401-  18 1.85  10 1.87  64 1.87
  47  0.897  0.308  0.116-   5 1.87  20 2.00   1 2.05  14 2.07
  48  0.103  0.308  0.884-   5 1.87  20 2.00   2 2.05  14 2.07
  49  0.141  0.698  0.899-  19 1.85  13 1.86   6 1.87   4 2.20
  50  0.859  0.698  0.101-  19 1.85  13 1.86   6 1.87   3 2.20
  51  0.395  0.795  0.109-  19 1.83   7 1.85   3 1.99  13 2.03
  52  0.605  0.795  0.891-  19 1.83   7 1.85   4 1.99  13 2.03
  53  0.623  0.207  0.891-  14 1.88  20 1.96   8 2.05   2 2.14
  54  0.377  0.207  0.109-  14 1.88  20 1.96   8 2.05   1 2.14
  55  0.634  0.301  0.399-  15 1.88  11 1.89  18 1.89   1 2.09
  56  0.366  0.301  0.601-  15 1.88  11 1.89  18 1.89   2 2.09
  57  0.361  0.702  0.601-  16 1.86  17 1.87  12 1.90   4 2.11
  58  0.639  0.702  0.399-  16 1.86  17 1.87  12 1.90   3 2.11
  59  0.134  0.801  0.399-  16 1.89  17 1.89   9 1.89   3 2.19
  60  0.866  0.801  0.601-  16 1.89  17 1.89   9 1.89   4 2.19
  61  0.861  0.203  0.601-  18 1.87  15 1.87  10 1.91   2 2.22
  62  0.139  0.203  0.399-  18 1.87  15 1.87  10 1.91   1 2.22
  63  0.000  0.502  0.500-  41 1.87  42 1.87  29 1.89  30 1.89  39 1.92  40 1.92  16 2.78  11 2.80
                            11 2.80  12 2.80  12 2.80  15 2.81
  64  0.500  0.001  0.500-  45 1.87  46 1.87  27 1.89  28 1.89  43 1.92  44 1.92  18 2.79   9 2.80
                             9 2.80  10 2.80  10 2.80  17 2.81

  LATTYP: Found a simple monoclinic cell.
 ALAT       =    10.0305503354
 B/A-ratio  =     1.3966238543
 C/A-ratio  =     1.8940784319
 COS(beta)  =    -0.9705573690

  Lattice vectors:

 A1 = (  -3.3506571000,   0.0000000000,  -9.4543660300)
 A2 = (   0.0000000000, -14.0089058700,   0.0000000000)
 A3 = (   1.8462171100,   0.0000000000,  18.9087320600)

Analysis of symmetry for initial positions (statically):
 Subroutine PRICEL returns:
 Original cell was already a primitive cell.

 Routine SETGRP: Setting up the symmetry group for a
 simple monoclinic supercell.

 Subroutine GETGRP returns: Found  2 space group operations
 (whereof  2 operations were pure point group operations)
 out of a pool of  4 trial point group operations.

The static configuration has the point symmetry C_2 .

Analysis of symmetry for dynamics (positions and initial velocities):
 Subroutine PRICEL returns:
 Original cell was already a primitive cell.

[...]

The dynamic configuration has the point symmetry C_2 .

Analysis of structural, dynamic, and magnetic symmetry:
 Subroutine PRICEL returns:
 Original cell was already a primitive cell.

 Routine SETGRP: Setting up the symmetry group for a
 simple monoclinic supercell.

 Subroutine GETGRP returns: Found  2 space group operations
 (whereof  2 operations were pure point group operations)
 out of a pool of  4 trial point group operations.

The magnetic configuration has the point symmetry C_2 .

 Subroutine INISYM returns: Found  2 space group operations
 (whereof  2 operations are pure point group operations),
 and found     1 'primitive' translations

 KPOINTS: Automatic mesh

Automatic generation of k-mesh.
Space group operators:
 irot       det(A)        alpha          n_x          n_y          n_z        tau_x        tau_y        tau_z
    1     1.000000     0.000000     1.000000     0.000000     0.000000     0.000000     0.000000     0.000000
    2     1.000000   180.000000     0.000000     1.000000     0.000000     0.000000     0.000000     0.000000

 Subroutine IBZKPT returns following result:

 Found      5 irreducible k-points:

 Following reciprocal coordinates:
            Coordinates               Weight
  0.000000  0.000000  0.000000      1.000000
[...]
   -.283E-06 0.839E+00 -.231E-05   0.133E-12 -.128E+01 -.945E-13   0.542E-19 0.485E+00 0.000E+00
   0.368E-07 0.130E+03 -.354E-06   0.106E-13 -.130E+03 -.836E-13   0.136E-18 0.682E-01 0.000E+00
   0.301E-07 0.239E+02 0.323E-06   0.119E-12 -.238E+02 0.285E-13   0.407E-19 -.141E+00 0.000E+00
   0.430E-06 0.365E+02 0.460E-05   -.586E-13 -.373E+02 -.292E-13   -.136E-19 0.957E+00 0.000E+00
   -.167E-06 -.292E+02 -.174E-05   0.869E-13 0.294E+02 0.573E-13   -.407E-19 -.248E+00 0.000E+00
   0.502E-06 0.572E+02 0.524E-05   0.859E-13 -.581E+02 -.853E-13   -.136E-19 0.104E+01 0.000E+00
   -.452E-07 0.246E+02 0.435E-06   0.221E-12 -.238E+02 -.782E-13   0.853E-19 -.990E+00 0.000E+00
   0.405E-08 0.664E+02 0.101E-06   -.834E-13 -.655E+02 0.971E-13   0.000E+00 -.969E+00 0.000E+00
   -.302E-07 -.169E+03 -.340E-05   0.526E-13 0.167E+03 -.186E-12   0.000E+00 0.182E+01 0.000E+00
   0.575E-07 0.623E+02 -.193E-05   0.102E-12 -.614E+02 -.156E-12   0.000E+00 -.928E+00 0.000E+00
   -.353E+02 -.805E+02 -.414E+03   0.376E+02 0.825E+02 0.440E+03   -.226E+01 -.204E+01 -.265E+02
   0.353E+02 -.805E+02 0.414E+03   -.376E+02 0.825E+02 -.440E+03   0.226E+01 -.204E+01 0.265E+02
   -.252E+02 0.114E+02 -.427E+03   0.256E+02 -.112E+02 0.456E+03   -.437E+00 -.220E+00 -.287E+02
   0.252E+02 0.114E+02 0.427E+03   -.256E+02 -.112E+02 -.456E+03   0.437E+00 -.220E+00 0.287E+02
   -.267E+02 -.307E+02 0.354E+03   0.281E+02 0.307E+02 -.381E+03   -.139E+01 -.384E-01 0.276E+02
   0.267E+02 -.307E+02 -.354E+03   -.281E+02 0.307E+02 0.381E+03   0.139E+01 -.384E-01 -.276E+02
   -.278E+02 0.138E+01 0.348E+03   0.293E+02 -.120E+01 -.376E+03   -.148E+01 -.174E+00 0.274E+02
   0.278E+02 0.138E+01 -.348E+03   -.293E+02 -.120E+01 0.376E+03   0.148E+01 -.174E+00 -.274E+02
   -.704E+01 0.397E+02 -.376E+03   0.813E+01 -.376E+02 0.399E+03   -.109E+01 -.212E+01 -.235E+02
   0.704E+01 0.397E+02 0.376E+03   -.813E+01 -.376E+02 -.399E+03   0.109E+01 -.212E+01 0.235E+02
   -.300E+02 -.260E+02 0.430E+03   0.316E+02 0.277E+02 -.458E+03   -.151E+01 -.163E+01 0.286E+02
   0.300E+02 -.260E+02 -.430E+03   -.316E+02 0.277E+02 0.458E+03   0.151E+01 -.163E+01 -.286E+02
   -.436E+01 -.260E+02 -.393E+03   0.495E+01 0.271E+02 0.416E+03   -.593E+00 -.110E+01 -.239E+02
   0.436E+01 -.260E+02 0.393E+03   -.495E+01 0.271E+02 -.416E+03   0.593E+00 -.110E+01 0.239E+02
   -.738E+01 -.780E+02 0.376E+03   0.913E+01 0.736E+02 -.404E+03   -.176E+01 0.441E+01 0.273E+02
   0.738E+01 -.780E+02 -.376E+03   -.913E+01 0.736E+02 0.404E+03   0.176E+01 0.441E+01 -.273E+02
   0.334E+02 -.448E+02 0.320E+03   -.362E+02 0.490E+02 -.343E+03   0.275E+01 -.418E+01 0.226E+02
   -.334E+02 -.448E+02 -.320E+03   0.362E+02 0.490E+02 0.343E+03   -.275E+01 -.418E+01 -.226E+02
   -.478E+01 0.353E+02 -.351E+03   0.424E+01 -.361E+02 0.379E+03   0.541E+00 0.758E+00 -.277E+02
   0.478E+01 0.353E+02 0.351E+03   -.424E+01 -.361E+02 -.379E+03   -.541E+00 0.758E+00 0.277E+02
   0.294E+02 -.848E+02 0.320E+03   -.317E+02 0.892E+02 -.343E+03   0.223E+01 -.441E+01 0.229E+02
   -.294E+02 -.848E+02 -.320E+03   0.317E+02 0.892E+02 0.343E+03   -.223E+01 -.441E+01 -.229E+02
   -.494E+01 0.237E+02 -.363E+03   0.445E+01 -.246E+02 0.390E+03   0.494E+00 0.902E+00 -.278E+02
   0.494E+01 0.237E+02 0.363E+03   -.445E+01 -.246E+02 -.390E+03   -.494E+00 0.902E+00 0.278E+02
   0.483E+02 0.720E+02 -.334E+03   -.562E+02 -.680E+02 0.357E+03   0.797E+01 -.401E+01 -.228E+02
   -.483E+02 0.720E+02 0.334E+03   0.562E+02 -.680E+02 -.357E+03   -.797E+01 -.401E+01 0.228E+02
   0.255E+02 0.234E+02 0.377E+03   -.261E+02 -.250E+02 -.402E+03   0.603E+00 0.159E+01 0.251E+02
   -.255E+02 0.234E+02 -.377E+03   0.261E+02 -.250E+02 0.402E+03   -.603E+00 0.159E+01 -.251E+02
   0.636E+02 -.787E+01 -.378E+03   -.713E+02 0.826E+01 0.400E+03   0.768E+01 -.393E+00 -.221E+02
   -.636E+02 -.787E+01 0.378E+03   0.713E+02 0.826E+01 -.400E+03   -.768E+01 -.393E+00 0.221E+02
   0.240E+02 0.736E+02 0.314E+03   -.331E+02 -.781E+02 -.336E+03   0.914E+01 0.452E+01 0.219E+02
   -.240E+02 0.736E+02 -.314E+03   0.331E+02 -.781E+02 0.336E+03   -.914E+01 0.452E+01 -.219E+02
   -.280E+02 0.202E+02 0.346E+03   0.300E+02 -.208E+02 -.369E+03   -.207E+01 0.555E+00 0.228E+02
   0.280E+02 0.202E+02 -.346E+03   -.300E+02 -.208E+02 0.369E+03   0.207E+01 0.555E+00 -.228E+02
   -.173E+02 0.420E+02 -.333E+03   0.192E+02 -.451E+02 0.356E+03   -.196E+01 0.316E+01 -.235E+02
   0.173E+02 0.420E+02 0.333E+03   -.192E+02 -.451E+02 -.356E+03   0.196E+01 0.316E+01 0.235E+02
   -.249E+02 -.148E+02 0.343E+03   0.267E+02 0.147E+02 -.367E+03   -.181E+01 0.757E-01 0.234E+02
   0.249E+02 -.148E+02 -.343E+03   -.267E+02 0.147E+02 0.367E+03   0.181E+01 0.757E-01 -.234E+02
   -.180E+02 0.546E+02 -.351E+03   0.199E+02 -.575E+02 0.375E+03   -.184E+01 0.290E+01 -.236E+02
   0.180E+02 0.546E+02 0.351E+03   -.199E+02 -.575E+02 -.375E+03   0.184E+01 0.290E+01 0.236E+02
   0.249E-06 0.220E+02 0.326E-05   -.196E-13 -.214E+02 -.324E-14   0.000E+00 -.753E+00 0.000E+00
   0.238E-06 -.233E+02 0.294E-05   -.160E-13 0.237E+02 0.386E-13   -.136E-19 -.693E+00 0.000E+00
   0.218E-05 0.534E+01 0.358E-05   0.106E-13 0.576E-12 0.923E-13   -.136E-19 -.523E+01 0.000E+00

 POSITION                                       TOTAL-FORCE (eV/Angst)
      0.91339      4.36817      2.39280        -0.001794     -0.009904      0.001839
      2.43726      4.36817      7.06157         0.001794     -0.009904     -0.001839
      3.21902     11.25221      2.37169         0.006278     -0.002339     -0.006302
      0.13163     11.25221      7.08267        -0.006278     -0.002339      0.006302
      0.00000      5.66424      0.00000         0.000000     -0.003349      0.000000
      0.00000      8.41170      0.00000         0.000000     -0.007690      0.000000
      2.42755     12.52504      0.00000         0.000000      0.003725      0.000000
      2.42755      1.30093      0.00000         0.000000     -0.005630      0.000000
     -0.75222     12.63132      4.72718         0.000000      0.003989      0.000000
     -0.75222      1.40943      4.72718         0.000000      0.000434      0.000000
      1.67533      5.63562      4.72718         0.000000      0.005642      0.000000
      1.67533      8.41603      4.72718         0.000000      0.007796      0.000000
      0.00000     11.13823      0.00000         0.000000      0.003079      0.000000
      2.42755      4.27101      0.00000         0.000000     -0.004764      0.000000
     -0.75222      4.21638      4.72718         0.000000      0.006612      0.000000
     -0.75222      9.80430      4.72718         0.000000      0.006016      0.000000
      1.67533     11.21650      4.72718         0.000000      0.000113      0.000000
      1.67533      2.80016      4.72718         0.000000      0.001686      0.000000
      2.42755      9.78138      0.00000         0.000000     -0.004742      0.000000
      0.00000      2.78389      0.00000         0.000000     -0.009334      0.000000
      0.00000     13.86630      0.00000         0.000000      0.021264      0.000000
      2.42755      7.04726      0.00000         0.000000      0.007061      0.000000
      1.59859     13.85481      0.98881        -0.000051     -0.001624      0.004216
      1.75206     13.85481      8.46555         0.000051     -0.001624     -0.004216
      4.06258      7.04056      0.96473        -0.001769     -0.005112      0.001649
     -0.71192      7.04056      8.48964         0.001769     -0.005112     -0.001649
      0.03318      0.01864      3.79468         0.003179      0.003301     -0.005255
      3.31748      0.01864      5.65969        -0.003179      0.003301      0.005255
      2.46141      7.02782      3.79158         0.002150      0.005233     -0.001776
      0.88925      7.02782      5.66279        -0.002150      0.005233      0.001776
      1.58815      5.63069      0.96398         0.000408     -0.003430      0.000754
      1.76250      5.63069      8.49038        -0.000408     -0.003430     -0.000754
      1.74593      8.40521      8.48532         0.000012     -0.006884     -0.002609
      1.60473      8.40521      0.96904        -0.000012     -0.006884      0.002609
      4.01198     12.49537      0.97025        -0.000830     -0.003214      0.004730
     -0.66133     12.49537      8.48411         0.000830     -0.003214     -0.004730
     -0.64936      1.27755      8.48215         0.002941     -0.006282     -0.003906
      4.00002      1.27755      0.97221        -0.002941     -0.006282      0.003906
      0.07673      5.58385      3.77605         0.000016      0.005612     -0.001780
      3.27393      5.58385      5.67831        -0.000016      0.005612      0.001780
      3.29427      8.42852      5.66138        -0.001205      0.005064      0.001416
      0.05639      8.42852      3.79298         0.001205      0.005064     -0.001416
      2.50236     12.57826      3.77438         0.000859      0.004125     -0.004739
      0.84830     12.57826      5.67999        -0.000859      0.004125      0.004739
      0.86823      1.42390      5.65910        -0.000499      0.001257      0.004818
      2.48242      1.42390      3.79527         0.000499      0.001257     -0.004818
      4.17994      4.31060      1.09504        -0.003602     -0.000501      0.003399
     -0.82928      4.31060      8.35932         0.003602     -0.000501     -0.003399
     -0.66802      9.78180      8.50398         0.001783     -0.002871     -0.005733
      4.01868      9.78180      0.95038        -0.001783     -0.002871      0.005733
      1.75270     11.14062      1.02759        -0.003881     -0.000901      0.005480
      1.59795     11.14062      8.42678         0.003881     -0.000901     -0.005480
      1.68363      2.89536      8.42215        -0.002135     -0.006868     -0.003338
      1.66702      2.89536      1.03222         0.002135     -0.006868      0.003338
      2.47912      4.22078      3.77293         0.001676      0.002385     -0.003089
      0.87154      4.22078      5.68144        -0.001676      0.002385      0.003089
      0.84771      9.84005      5.68314        -0.001506      0.002337      0.000690
      2.50295      9.84005      3.77123         0.001506      0.002337     -0.000690
      0.05006     11.21759      3.76965         0.001706      0.000619     -0.002360
      3.30060     11.21759      5.68472        -0.001706      0.000619      0.002360
      3.27658      2.84047      5.68511        -0.001817      0.002125      0.004865
      0.07407      2.84047      3.76926         0.001817      0.002125     -0.004865
     -0.75222      7.02578      4.72718         0.000000      0.001541      0.000000
      1.67533      0.01501      4.72718         0.000000      0.002293      0.000000
    total drift:                                0.000002      0.110118      0.000004

  FREE ENERGIE OF THE ION-ELECTRON SYSTEM (eV)
  free  energy   TOTEN  =     -1791.0440613591 eV

  energy  without entropy=    -1791.0440613591  energy(sigma->0) =    -1791.04406136

volume of typ            1:     4.8 %

[...]

volume of typ            6:     2.0 %

total charge

# of ion       s       p       d       tot
    1        2.075   0.247   0.105   2.426
    2        2.075   0.247   0.105   2.426
    3        2.074   0.238   0.101   2.413
    4        2.074   0.238   0.101   2.413
    5        0.296   0.427   7.777   8.500
    6        0.294   0.416   7.766   8.476
    7        0.303   0.438   7.777   8.518
    8        0.252   0.333   7.806   8.390
    9        0.298   0.417   7.772   8.487
   10        0.291   0.400   7.761   8.452
   11        0.300   0.420   7.776   8.496
   12        0.292   0.402   7.760   8.454
   13        0.272   0.363   7.811   8.447
   14        0.262   0.352   7.815   8.429
   15        0.294   0.412   7.761   8.467
   16        0.299   0.419   7.771   8.489
   17        0.295   0.413   7.764   8.473
   18        0.298   0.416   7.770   8.484
   19        0.305   0.439   7.778   8.523
   20        0.302   6.210   1.894   8.405
   21        0.232   6.260   4.567  11.059
   22        0.239   6.266   4.563  11.069
   23        1.284   2.785   0.007   4.076
   24        1.284   2.785   0.007   4.076
   25        1.288   2.778   0.008   4.073
   26        1.288   2.777   0.008   4.073
   27        1.288   2.764   0.008   4.059
   28        1.288   2.764   0.008   4.059
   29        1.287   2.766   0.008   4.060
   30        1.287   2.766   0.008   4.061
   31        1.275   2.819   0.007   4.101
   32        1.275   2.819   0.007   4.101
   33        1.287   2.781   0.008   4.076
   34        1.287   2.782   0.008   4.076
   35        1.275   2.821   0.007   4.103
   36        1.275   2.821   0.007   4.103
   37        1.275   2.835   0.008   4.119
   38        1.275   2.835   0.008   4.119
   39        1.277   2.799   0.007   4.083
   40        1.277   2.799   0.007   4.083
   41        1.287   2.767   0.008   4.062
   42        1.287   2.766   0.008   4.062
   43        1.278   2.795   0.007   4.080
   44        1.278   2.795   0.007   4.080
   45        1.288   2.765   0.008   4.061
   46        1.288   2.765   0.008   4.060
   47        1.274   2.831   0.006   4.112
   48        1.274   2.832   0.006   4.112
   49        1.281   2.793   0.007   4.081
   50        1.281   2.793   0.007   4.082
   51        1.281   2.794   0.007   4.082
   52        1.281   2.794   0.007   4.082
   53        1.272   2.838   0.007   4.118
   54        1.272   2.838   0.007   4.118
   55        1.280   2.786   0.006   4.073
   56        1.280   2.787   0.006   4.073
   57        1.280   2.787   0.007   4.074
   58        1.280   2.787   0.007   4.074
   59        1.281   2.781   0.007   4.068
   60        1.281   2.781   0.007   4.068
   61        1.281   2.782   0.007   4.070
   62        1.281   2.782   0.007   4.069
   63        0.259   0.365   6.821   7.444
   64        0.258   0.363   6.819   7.440
tot          65.18  138.24  142.02  345.44

magnetization (x)

# of ion       s       p       d       tot
    1        0.001   0.004   0.001   0.006
    2        0.001   0.004   0.001   0.006
    3        0.001   0.003   0.001   0.005
    4        0.001   0.003   0.001   0.005
    5        0.003   0.003  -0.009  -0.003
    6        0.005   0.005   0.069   0.078
    7        0.003   0.003  -0.021  -0.015
    8        0.006   0.005   0.822   0.832
    9        0.000   0.000   0.010   0.011
   10        0.000   0.000   0.019   0.020
   11        0.000   0.000   0.008   0.008
   12        0.000   0.000   0.012   0.012
   13        0.006   0.002   0.841   0.849
   14        0.008   0.002   0.880   0.890
   15        0.000   0.000   0.009   0.010
   16        0.000   0.000   0.008   0.008
   17        0.000   0.000   0.007   0.007
   18        0.000   0.000   0.007   0.007
   19        0.001   0.002   0.000   0.004
   20        0.001   0.000  -0.001   0.001
   21        0.013   0.014   2.689   2.715
   22        0.014   0.014   2.691   2.720
   23        0.006   0.074   0.001   0.081
   24        0.006   0.074   0.001   0.081
   25        0.001   0.001   0.000   0.002
   26        0.001   0.001   0.000   0.002
   27       -0.000  -0.006   0.000  -0.006
   28       -0.000  -0.006   0.000  -0.006
   29       -0.000  -0.004   0.000  -0.004
   30       -0.000  -0.004   0.000  -0.004
   31        0.002  -0.002   0.000   0.001
   32        0.002  -0.002   0.000   0.001
   33        0.002   0.005   0.000   0.007
   34        0.002   0.005   0.000   0.007
   35        0.002   0.006   0.001   0.008
   36        0.002   0.005   0.001   0.008
   37        0.001  -0.020   0.000  -0.019
   38        0.001  -0.020   0.000  -0.019
   39        0.000  -0.002   0.000  -0.002
   40        0.000  -0.002   0.000  -0.002
   41        0.000  -0.003   0.000  -0.003
   42        0.000  -0.003   0.000  -0.003
   43        0.000  -0.002   0.000  -0.002
   44        0.000  -0.002   0.000  -0.002
   45       -0.000  -0.004   0.000  -0.004
   46       -0.000  -0.004   0.000  -0.004
   47        0.007   0.093   0.000   0.101
   48        0.007   0.093   0.000   0.101
   49        0.001  -0.016   0.000  -0.015
   50        0.001  -0.016   0.000  -0.015
   51        0.007   0.095   0.000   0.102
   52        0.007   0.094   0.000   0.102
   53        0.005   0.016   0.000   0.022
   54        0.005   0.016   0.000   0.022
   55        0.000  -0.001   0.000  -0.001
   56        0.000  -0.001   0.000  -0.001
   57        0.000  -0.001   0.000  -0.001
   58        0.000  -0.001   0.000  -0.001
   59        0.000  -0.001   0.000  -0.001
   60        0.000  -0.001   0.000  -0.001
   61        0.000  -0.002   0.000  -0.002
   62        0.000  -0.002   0.000  -0.002
   63        0.000   0.000  -0.004  -0.003
   64        0.000   0.000  -0.004  -0.004
tot           0.14    0.52    8.05    8.70