 vasp.5.4.4.18Apr17-6-g9f103f2a35 (build May 12 2020 04:58:55) complex

 MD_VERSION_INFO: Compiled 2020-05-12T11:58:55-UTC in devlin.sd.materialsdesign.
 com:/home/medea2/data/build/wwolf/vasp-gpu5.4.4/13047/x86_64/src/src/build/std
 from svn 13047

 executed on                        Lin64 date 2022.03.08  01:51:08

 INCAR:
 POTCAR:    PAW_PBE Ni 02Aug2007
 POTCAR:    PAW_PBE Ta_pv 07Sep2000
 POTCAR:    PAW_PBE Li_sv 10Sep2004
 POTCAR:    PAW_PBE Mn_pv 02Aug2007
 POTCAR:    PAW_PBE O 08Apr2002
 POTCAR:    PAW_PBE Co 02Aug2007

 POTCAR:    PAW_PBE Ni 02Aug2007

 POTCAR:    PAW_PBE Ta_pv 07Sep2000

 POTCAR:    PAW_PBE Li_sv 10Sep2004

 POTCAR:    PAW_PBE Mn_pv 02Aug2007

 POTCAR:    PAW_PBE O 08Apr2002

 POTCAR:    PAW_PBE Co 02Aug2007

 Optimization of the real space projectors (new method)

 maximal supplied QI-value         = 16.25
 optimisation between [QCUT,QGAM] = [ 11.38, 22.75] = [ 36.24,144.96] Ry
 Optimized for a Real-space Cutoff    1.47 Angstroem

   l    n(q)    QCUT    max X(q) W(low)/X(q) W(high)/X(q)  e(spline)
   2      9    11.376    60.317    0.17E-03    0.16E-04    0.16E-06
   2      9    11.376    55.921    0.17E-03    0.16E-04    0.17E-06
   0     10    11.376    51.690    0.45E-04    0.60E-04    0.21E-06
   0     10    11.376    30.015    0.37E-04    0.55E-04    0.19E-06
   1     10    11.376    18.849    0.83E-04    0.11E-03    0.92E-07
   1     10    11.376    14.624    0.69E-04    0.92E-04    0.82E-07
 Optimization of the real space projectors (new method)

[...]

   l    n(q)    QCUT    max X(q) W(low)/X(q) W(high)/X(q)  e(spline)
   0      7    11.387    20.381    0.22E-03    0.48E-03    0.18E-06
   0      7    11.387    15.268    0.22E-03    0.52E-03    0.19E-06
   1      7    11.387     5.964    0.22E-03    0.73E-03    0.24E-06
   1      7    11.387     5.382    0.19E-03    0.60E-03    0.21E-06
 Optimization of the real space projectors (new method)

 maximal supplied QI-value         = 16.25
 optimisation between [QCUT,QGAM] = [ 11.38, 22.75] = [ 36.24,144.96] Ry
 Optimized for a Real-space Cutoff    1.43 Angstroem

   l    n(q)    QCUT    max X(q) W(low)/X(q) W(high)/X(q)  e(spline)
   2      9    11.376    65.824    0.18E-03    0.28E-04    0.14E-06
   2      9    11.376    61.429    0.18E-03    0.29E-04    0.14E-06
   0     10    11.376    56.174    0.51E-04    0.12E-03    0.20E-06
   0     10    11.376    31.263    0.46E-04    0.11E-03    0.18E-06
   1      9    11.376    19.828    0.23E-03    0.17E-03    0.10E-06
   1      9    11.376    15.139    0.20E-03    0.14E-03    0.89E-07

  PAW_PBE Ni 02Aug2007                  :
  PAW_PBE Ta_pv 07Sep2000               :
  PAW_PBE Li_sv 10Sep2004               :
  PAW_PBE Mn_pv 02Aug2007               :
  PAW_PBE O 08Apr2002                   :
  PAW_PBE Co 02Aug2007                  :

 POSCAR: ce7249_1
  positions in direct lattice

 METAGGA = SCAN     LMAXTAU =  6    LMIXTAU =  T

 ion  position               nearest neighbor table
   1  0.396  0.208  0.000-  32 2.01  33 2.01  24 2.05  25 2.05  21 2.11  20 2.11   5 2.80   4 2.82
                             4 2.82  16 2.84  15 2.84  19 2.85  19 2.85   8 3.07
   2  0.900  0.199  0.500-  23 1.92  22 1.92  37 1.93  36 1.93  28 2.04  29 2.04  10 2.75   9 2.75
                             6 2.86   6 2.86  40 2.86  40 2.86   3 2.89   7 2.93
   3  0.099  0.803  0.500-  31 1.89  30 1.89  23 2.00  22 2.00  39 2.01  38 2.01  14 2.80  13 2.80
                            10 2.84   9 2.84   7 2.88   7 2.88  40 2.88  40 2.88   2 2.89   6 2.97
   4  0.803  0.394  0.000-  33 2.02  32 2.02  24 2.04  25 2.04  35 2.12  34 2.12  19 2.77   1 2.82
                             1 2.82   8 2.84   5 2.87   5 2.87
   5  0.204  0.593  0.000-  33 1.98  32 1.98  34 2.10  35 2.10  27 2.13  26 2.13   1 2.80   8 2.84
                             8 2.84   4 2.87   4 2.87  19 3.06
   6  0.303  0.395  0.500-  37 1.88  36 1.88  28 1.98  29 1.98  39 2.04  38 2.04  18 2.75  17 2.75
                            40 2.84   2 2.86   2 2.86   7 2.90   7 2.90   3 2.97
   7  0.699  0.602  0.500-  38 1.89  39 1.89  30 2.01  31 2.01  36 2.02  37 2.02  13 2.82  14 2.82
                             3 2.88   3 2.88   6 2.90   6 2.90  40 2.92   2 2.93
   8  0.608  0.785  0.000-  34 1.93  35 1.93  26 1.99  27 1.99  20 2.06  21 2.06   4 2.84   5 2.84
                             5 2.84  19 2.98  19 2.98  13 3.00  14 3.00  18 3.01  17 3.01   1 3.07
   9  0.231  0.013  0.262-  28 1.99  24 2.04  22 2.05  31 2.11  27 2.14  20 2.26   2 2.75  40 2.83
                             3 2.84   8 3.10
  10  0.756  0.013  0.738-  29 1.99  25 2.04  23 2.05  30 2.11  26 2.14  21 2.26   2 2.75  40 2.83
                             3 2.84   8 3.10
  11  0.638  0.205  0.250-  28 2.00  32 2.05  24 2.06  36 2.12  20 2.13  22 2.15  19 2.88
  12  0.158  0.205  0.750-  29 2.00  33 2.05  25 2.06  37 2.12  21 2.13  23 2.15  19 2.88
  13  0.347  0.802  0.739-  38 2.04  34 2.10  23 2.11  21 2.11  26 2.13  30 2.13   3 2.80   7 2.82
                            40 2.83   8 3.00
  14  0.851  0.802  0.261-  39 2.04  35 2.10  22 2.11  20 2.11  27 2.13  31 2.13   3 2.80   7 2.82
                            40 2.83   8 3.00
  15  0.064  0.399  0.249-  32 1.98  39 2.10  35 2.13  28 2.16  24 2.21  36 2.25   1 2.84
  16  0.536  0.399  0.751-  33 1.98  38 2.10  34 2.13  29 2.16  25 2.21  37 2.25   1 2.84
  17  0.976  0.577  0.741-  33 1.97  37 2.05  34 2.06  38 2.08  30 2.28   6 2.75   8 3.01
  18  0.447  0.577  0.259-  32 1.97  36 2.05  35 2.06  39 2.08  31 2.28   6 2.75   8 3.01
  19  0.993  0.014  0.000-  24 1.84  25 1.84  21 1.91  20 1.91  27 1.99  26 1.99   4 2.77   1 2.85
                             1 2.85  12 2.88  11 2.88   8 2.98   8 2.98   5 3.06
  20  0.649  0.992  0.113-  19 1.91   8 2.06   1 2.11  14 2.11  11 2.13   9 2.26
  21  0.359  0.992  0.887-  19 1.91   8 2.06   1 2.11  13 2.11  12 2.13  10 2.26
  22  0.860  0.008  0.394-  40 1.91   2 1.92   3 2.00   9 2.05  14 2.11  11 2.15
  23  0.132  0.008  0.606-  40 1.91   2 1.92   3 2.00  10 2.05  13 2.11  12 2.15
  24  0.022  0.185  0.118-  19 1.84   4 2.04   9 2.04   1 2.05  11 2.06  15 2.21
  25  0.793  0.185  0.882-  19 1.84   4 2.04  10 2.04   1 2.05  12 2.06  16 2.21
  26  0.962  0.817  0.884-   8 1.99  19 1.99  13 2.13   5 2.13  10 2.14
  27  0.221  0.817  0.116-   8 1.99  19 1.99  14 2.13   5 2.13   9 2.14
  28  0.291  0.191  0.386-  40 1.90   6 1.98   9 1.99  11 2.00   2 2.04  15 2.16
  29  0.517  0.191  0.614-  40 1.90   6 1.98  10 1.99  12 2.00   2 2.04  16 2.16
  30  0.736  0.809  0.606-   3 1.89  40 1.94   7 2.01  10 2.11  13 2.13  17 2.28
  31  0.455  0.809  0.394-   3 1.89  40 1.94   7 2.01   9 2.11  14 2.13  18 2.28
  32  0.423  0.403  0.121-  18 1.97   5 1.98  15 1.98   1 2.01   4 2.02  11 2.05
  33  0.174  0.403  0.879-  17 1.97   5 1.98  16 1.98   1 2.01   4 2.02  12 2.05
  34  0.585  0.608  0.872-   8 1.93  17 2.06   5 2.10  13 2.10   4 2.12  16 2.13
  35  0.806  0.608  0.128-   8 1.93  18 2.06   5 2.10  14 2.10   4 2.12  15 2.13
  36  0.662  0.392  0.396-   6 1.88   2 1.93   7 2.02  18 2.05  11 2.12  15 2.25
  37  0.946  0.392  0.604-   6 1.88   2 1.93   7 2.02  17 2.05  12 2.12  16 2.25
  38  0.344  0.601  0.610-   7 1.89   3 2.01  13 2.04   6 2.04  17 2.08  16 2.10
  39  0.054  0.601  0.390-   7 1.89   3 2.01  14 2.04   6 2.04  18 2.08  15 2.10
  40  0.498  0.003  0.500-  29 1.90  28 1.90  22 1.91  23 1.91  30 1.94  31 1.94  13 2.83  14 2.83
                            10 2.83   9 2.83   6 2.84   2 2.86   2 2.86   3 2.88   3 2.88   7 2.92

  LATTYP: Found a base centered monoclinic cell.
 ALAT       =     4.9560188300
 B/A-ratio  =     2.9341546227
 C/A-ratio  =     3.0247389854
 COS(beta)  =    -0.2499272624

  Lattice vectors:

 A1 = (   2.4780094100,   7.2708627800,   0.0000000000)
 A2 = (   2.4780094200,  -7.2708627800,   0.0000000000)
 A3 = ( -11.6139387400,   0.0000000000,  -9.4782073800)

Analysis of symmetry for initial positions (statically):
 Subroutine PRICEL returns:
 Original cell was already a primitive cell.

 Routine SETGRP: Setting up the symmetry group for a
 base centered monoclinic supercell.

 Subroutine GETGRP returns: Found  2 space group operations
 (whereof  2 operations were pure point group operations)
 out of a pool of  4 trial point group operations.

The static configuration has the point symmetry C_2 .

Analysis of symmetry for dynamics (positions and initial velocities):
 Subroutine PRICEL returns:
 Original cell was already a primitive cell.

[...]

The dynamic configuration has the point symmetry C_2 .

Analysis of structural, dynamic, and magnetic symmetry:
 Subroutine PRICEL returns:
 Original cell was already a primitive cell.

 Routine SETGRP: Setting up the symmetry group for a
 base centered monoclinic supercell.

 Subroutine GETGRP returns: Found  2 space group operations
 (whereof  2 operations were pure point group operations)
 out of a pool of  4 trial point group operations.

The magnetic configuration has the point symmetry C_2 .

 Subroutine INISYM returns: Found  2 space group operations
 (whereof  2 operations are pure point group operations),
 and found     1 'primitive' translations

 KPOINTS: Automatic mesh

Automatic generation of k-mesh.
Space group operators:
 irot       det(A)        alpha          n_x          n_y          n_z        tau_x        tau_y        tau_z
    1     1.000000     0.000000     1.000000     0.000000     0.000000     0.000000     0.000000     0.000000
    2     1.000000   180.000000     0.000000     1.000000     0.000000     0.000000     0.000000     0.000000

 Subroutine IBZKPT returns following result:

 Found     10 irreducible k-points:

 Following reciprocal coordinates:
            Coordinates               Weight
  0.000000  0.000000  0.000000      1.000000
  0.333333  0.000000 -0.000000      4.000000
  0.000000  0.333333  0.000000      2.000000
 -0.333333  0.333333  0.000000      2.000000
  0.000000  0.000000  0.333333      2.000000
  0.333333  0.000000  0.333333      4.000000
 -0.333333  0.000000  0.333333      4.000000
  0.000000  0.333333  0.333333      4.000000
 -0.333333  0.333333  0.333333      2.000000
  0.333333 -0.333333  0.333333      2.000000

 Following cartesian coordinates:
            Coordinates               Weight
  0.000000  0.000000  0.000000      1.000000
  0.067258 -0.022923 -0.012077      4.000000
  0.000000  0.045845  0.000000      2.000000
 -0.067258  0.068768  0.012077      2.000000
  0.000000  0.000000  0.035168      2.000000
  0.067258 -0.022923  0.023092      4.000000
 -0.067258  0.022923  0.047245      4.000000
  0.000000  0.045845  0.035168      4.000000
 -0.067258  0.068768  0.047245      2.000000
  0.067258 -0.068768  0.023092      2.000000

 SYSTEM =  unknown system
 POSCAR =  ce7249_1

 Startparameter for this run:
   NWRITE =      1    write-flag & timer
   PREC   = accura    normal or accurate (medium, high low for compatibility)
   ISTART =      0    job   : 0-new  1-cont  2-samecut
   ICHARG =      2    charge: 1-file 2-atom 10-const
   ISPIN  =      2    spin polarized calculation?
   LNONCOLLINEAR =      F non collinear calculations
   LSORBIT =      F    spin-orbit coupling
   INIWAV =      1    electr: 0-lowe 1-rand  2-diag
[...]
    243      29.0424      0.00000
    244      29.3417      0.00000
    245      29.4460      0.00000
    246      29.4696      0.00000
    247      29.6716      0.00000
    248      29.7108      0.00000
    249      30.0253      0.00000
    250      30.1619      0.00000
    251      30.3165      0.00000
    252      30.4223      0.00000
    253      30.7273      0.00000
    254      30.8451      0.00000
    255      30.9677      0.00000
    256      31.2649      0.00000

[...]

 spin component 2

[...]

 k-point    10 :       0.3333   -0.3333    0.3333
  band No.  band energies     occupation
      1     -44.4337      1.00000
      2     -44.3844      1.00000
      3     -44.3782      1.00000
      4     -40.6842      1.00000
      5     -40.6827      1.00000
      6     -40.6001      1.00000
      7     -40.5998      1.00000
      8     -40.4937      1.00000
      9     -40.4932      1.00000
     10     -40.4557      1.00000
     11     -40.4528      1.00000
     12     -40.0314      1.00000
     13     -40.0313      1.00000
     14     -31.2273      1.00000
     15     -31.2004      1.00000
     16     -31.1239      1.00000
     17     -15.2727      1.00000
     18     -14.8816      1.00000
     19     -14.8572      1.00000
     20     -14.7645      1.00000
     21     -14.7296      1.00000
     22     -14.4864      1.00000
     23     -14.4264      1.00000
     24     -14.2538      1.00000
     25     -14.1273      1.00000
     26     -14.0672      1.00000
     27     -13.9443      1.00000
     28     -13.9154      1.00000
     29     -13.8690      1.00000
     30     -13.8257      1.00000
     31     -13.7872      1.00000
     32     -13.7637      1.00000
     33     -13.5597      1.00000
     34     -13.4209      1.00000
     35     -13.0139      1.00000
     36     -12.8046      1.00000
     37      -1.8305      1.00000
     38      -1.7035      1.00000
     39      -1.5537      1.00000
     40      -1.5032      1.00000
     41      -1.2739      1.00000
     42      -1.1162      1.00000
     43      -1.0905      1.00000
     44      -1.0317      1.00000
     45      -1.0013      1.00000
     46      -0.7961      1.00000
     47      -0.6722      1.00000
     48      -0.6467      1.00000
     49      -0.5972      1.00000
     50      -0.5030      1.00000
     51      -0.4314      1.00000
     52      -0.3721      1.00000
     53      -0.2613      1.00000
     54      -0.2202      1.00000
     55      -0.2018      1.00000
     56      -0.1355      1.00000
     57       0.2239      1.00000
     58       0.3440      1.00000
     59       0.3536      1.00000
     60       0.4333      1.00000
[...]
    242      29.3335      0.00000
    243      29.5951      0.00000
    244      29.7642      0.00000
    245      30.3194      0.00000
    246      30.4826      0.00000
    247      30.7084      0.00000
    248      30.8312      0.00000
    249      31.0024      0.00000
    250      31.0711      0.00000
    251      31.2385      0.00000
    252      31.3686      0.00000
    253      31.4871      0.00000
    254      31.6377      0.00000
    255      31.7216      0.00000
    256      32.1250      0.00000

 soft charge-density along one line, spin component           1
         0         1         2         3         4         5         6         7         8         9
 total charge-density along one line

 soft charge-density along one line, spin component           2
         0         1         2         3         4         5         6         7         8         9
 total charge-density along one line

------------------------ aborting loop because EDIFF is reached ----------------------------------------

  FORCE on cell =-STRESS in cart. coord.  units (eV):
  Direction    XX          YY          ZZ          XY          YZ          ZX
  Alpha Z   922.34936   922.34936   922.34936
  Ewald   -3989.61786 -4184.43612 -8130.70047     0.00000     0.00000  -100.88221
  Hartree  2999.29801  2913.56114   -35.87573    -0.00005    -0.00003   -43.06152
  E(xc)    -727.10090  -726.50221  -725.27993     0.00112    -0.02377     0.46210
  Local   -3580.62696 -3320.36298  3533.77085     0.00023     0.00001   126.91061
  n-local  -935.03435  -939.27215  -949.17269    -0.05838     0.21265    -3.81198
  augment  1422.44599  1432.60031  1442.44355     0.00004     0.00005     8.41238
  Kinetic  3888.33629  3902.10140  3942.54213    -0.02144    -0.74929    11.91359
  Fock        0.00000     0.00000     0.00000     0.00000     0.00000     0.00000
  Total        0.0495763      0.0387465      0.0770821     -0.0000000      0.0000000     -0.0570358
  in kB        0.2325624      0.1817600      0.3615922     -0.0000000      0.0000000     -0.2675548

 VOLUME and BASIS-vectors are now :
  energy-cutoff  :      500.00
  volume of cell :      341.54
      direct lattice vectors                 reciprocal lattice vectors
     4.956018830  0.000000000  0.000000000     0.201774859 -0.068767630 -0.036230569
     2.478009410  7.270862780  0.000000000     0.000000000  0.137535260  0.000000000
     1.701901080  0.000000000  9.478207380     0.000000000  0.000000000  0.105505183

  length of vectors
     4.956018830  7.681534756  9.629791401     0.216228432  0.137535260  0.105505183

 FORCES acting on ions:
    Electron-Ion                     Ewald-Force                    Non-Local-Force
   -.370E-05 -.228E+02 -.277E-04   0.983E-05 0.277E+02 -.134E-05   0.341E-08 -.496E+01 0.000E+00
   -.498E-04 -.257E+02 -.147E-04   -.115E-04 0.254E+02 0.102E-05   -.200E-09 0.291E+00 0.000E+00
   -.107E-05 0.415E+02 -.228E-05   0.275E-05 -.413E+02 0.377E-05   0.161E-09 -.234E+00 0.000E+00
   -.807E-05 -.872E+02 -.163E-04   -.129E-04 0.844E+02 0.213E-05   -.198E-08 0.288E+01 0.000E+00
   -.594E-04 -.140E+02 0.496E-05   0.313E-05 0.716E+01 -.414E-06   -.479E-08 0.696E+01 0.000E+00
   -.455E-04 -.555E+02 -.909E-05   0.133E-04 0.542E+02 -.424E-05   -.982E-09 0.143E+01 0.000E+00
   0.655E-04 -.258E+01 0.388E-06   0.671E-05 0.251E+01 -.541E-05   -.386E-10 0.561E-01 0.000E+00
   -.770E-05 0.325E+02 0.112E-04   0.412E-05 -.307E+02 0.442E-06   0.105E-08 -.152E+01 0.000E+00
   -.110E+02 0.108E+02 0.126E+02   0.107E+02 -.100E+02 -.120E+02   0.335E+00 -.838E+00 -.618E+00
   0.110E+02 0.108E+02 -.126E+02   -.107E+02 -.100E+02 0.120E+02   -.335E+00 -.838E+00 0.618E+00
   -.359E+00 -.582E+01 -.547E+01   -.179E+00 0.628E+01 0.564E+01   0.539E+00 -.471E+00 -.176E+00
   0.359E+00 -.582E+01 0.547E+01   0.179E+00 0.628E+01 -.564E+01   -.539E+00 -.471E+00 0.176E+00
   -.151E+01 0.870E+01 -.635E+01   0.136E+01 -.905E+01 0.608E+01   0.145E+00 0.347E+00 0.267E+00
   0.151E+01 0.870E+01 0.635E+01   -.136E+01 -.905E+01 -.608E+01   -.145E+00 0.347E+00 -.267E+00
   0.137E+02 -.264E+01 -.416E+01   -.122E+02 0.312E+01 0.354E+01   -.157E+01 -.483E+00 0.614E+00
   -.137E+02 -.264E+01 0.416E+01   0.122E+02 0.312E+01 -.354E+01   0.157E+01 -.483E+00 -.614E+00
   0.173E+01 -.177E+02 -.560E+01   -.141E+01 0.160E+02 0.631E+01   -.332E+00 0.170E+01 -.699E+00
   -.173E+01 -.177E+02 0.560E+01   0.141E+01 0.160E+02 -.631E+01   0.332E+00 0.170E+01 0.699E+00
   -.605E-06 0.775E+02 -.222E-04   -.171E-04 -.737E+02 0.751E-06   0.264E-08 -.383E+01 0.000E+00
   0.817E+02 0.118E+02 -.264E+03   -.842E+02 -.688E+01 0.279E+03   0.250E+01 -.488E+01 -.152E+02
   -.817E+02 0.118E+02 0.264E+03   0.842E+02 -.688E+01 -.279E+03   -.250E+01 -.488E+01 0.152E+02
   0.542E+01 0.204E+02 0.234E+03   -.462E+01 -.211E+02 -.246E+03   -.797E+00 0.746E+00 0.126E+02
   -.542E+01 0.204E+02 -.234E+03   0.462E+01 -.211E+02 0.246E+03   0.797E+00 0.746E+00 -.126E+02
   -.569E+02 -.855E+02 -.285E+03   0.603E+02 0.903E+02 0.300E+03   -.337E+01 -.481E+01 -.141E+02
   0.569E+02 -.855E+02 0.285E+03   -.603E+02 0.903E+02 -.300E+03   0.337E+01 -.481E+01 0.141E+02
   0.125E+02 0.758E+02 0.259E+03   -.587E+01 -.774E+02 -.274E+03   -.662E+01 0.162E+01 0.155E+02
   -.125E+02 0.758E+02 -.259E+03   0.587E+01 -.774E+02 0.274E+03   0.662E+01 0.162E+01 -.155E+02
   0.144E+02 -.106E+02 0.238E+03   -.156E+02 0.124E+02 -.250E+03   0.124E+01 -.183E+01 0.114E+02
   -.144E+02 -.106E+02 -.238E+03   0.156E+02 0.124E+02 0.250E+03   -.124E+01 -.183E+01 -.114E+02
   0.118E+02 0.185E+02 -.242E+03   -.138E+02 -.199E+02 0.256E+03   0.191E+01 0.137E+01 -.137E+02
   -.118E+02 0.185E+02 0.242E+03   0.138E+02 -.199E+02 -.256E+03   -.191E+01 0.137E+01 0.137E+02
   0.359E+01 -.207E+02 -.216E+03   -.270E+01 0.198E+02 0.226E+03   -.883E+00 0.845E+00 -.984E+01
   -.359E+01 -.207E+02 0.216E+03   0.270E+01 0.198E+02 -.226E+03   0.883E+00 0.845E+00 0.984E+01
   0.133E+02 0.295E+02 0.228E+03   -.179E+02 -.374E+02 -.244E+03   0.458E+01 0.793E+01 0.158E+02
   -.133E+02 0.295E+02 -.228E+03   0.179E+02 -.374E+02 0.244E+03   -.458E+01 0.793E+01 -.158E+02
   -.240E+02 -.262E+02 0.243E+03   0.273E+02 0.273E+02 -.255E+03   -.327E+01 -.103E+01 0.125E+02
   0.240E+02 -.262E+02 -.243E+03   -.273E+02 0.273E+02 0.255E+03   0.327E+01 -.103E+01 -.125E+02
   0.179E+02 0.383E+00 -.234E+03   -.210E+02 -.114E+01 0.245E+03   0.312E+01 0.760E+00 -.111E+02
   -.179E+02 0.383E+00 0.234E+03   0.210E+02 -.114E+01 -.245E+03   -.312E+01 0.760E+00 0.111E+02
   0.430E-04 0.413E+02 -.131E-04   -.785E-05 -.403E+02 0.243E-06   0.794E-09 -.115E+01 0.000E+00
   0.129E-03 -.189E+01 0.790E-04   -.660E-13 0.284E-13 0.160E-12   -.127E-08 0.184E+01 0.000E+00

 POSITION                                       TOTAL-FORCE (eV/Angst)
      2.47801      1.50956      0.00000         0.000000     -0.003384      0.000000
      5.80697      1.44931      4.73910        -0.000000      0.001416      0.000000
      3.32896      5.83489      4.73910        -0.000000      0.002370      0.000000
      4.95602      2.86409      0.00000         0.000000     -0.005528      0.000000
      2.47801      4.31136      0.00000        -0.000000      0.006976      0.000000
      3.32896      2.86951      4.73910        -0.000000      0.002130      0.000000
      5.80697      4.37572      4.73910        -0.000000      0.001193      0.000000
      4.95602      5.70647      0.00000         0.000000     -0.000006      0.000000
      1.62116      0.09382      2.47879         0.000493      0.002099     -0.000130
      5.03676      0.09382      6.99942        -0.000493      0.002099      0.000130
      4.09272      1.48828      2.36572         0.001348     -0.001641     -0.000949
      2.56520      1.48828      7.11249        -0.001348     -0.001641      0.000949
      4.96422      5.83174      7.00716         0.000039     -0.002732      0.001351
      6.64972      5.83174      2.47104        -0.000039     -0.002732     -0.001351
      1.73209      2.90259      2.35883         0.007541     -0.001500     -0.000377
      4.92583      2.90259      7.11937        -0.007541     -0.001500      0.000377
      7.52867      4.19225      7.02576        -0.006206     -0.005740      0.001551
      4.08527      4.19225      2.45245         0.006206     -0.005740     -0.001551
      4.95602      0.09886      0.00000        -0.000000      0.004002      0.000000
      5.86882      7.21165      1.07465        -0.000013      0.001336     -0.000635
      5.74512      7.21165      8.40356         0.000013      0.001336      0.000635
      4.95127      0.06127      3.73001        -0.002280     -0.001112      0.000924
      1.70665      0.06127      5.74820         0.002280     -0.001112     -0.000924
      0.76760      1.34600      1.11713         0.001955     -0.005366     -0.003010
      5.89032      1.34600      8.36108        -0.001955     -0.005366      0.003010
      8.29764      5.93733      8.38166        -0.004070      0.000241     -0.001181
      3.31630      5.93733      1.09655         0.004070      0.000241      0.001181
      2.57441      1.39108      3.65670        -0.002220      0.000593      0.003538
      4.08351      1.39108      5.82151         0.002220      0.000593     -0.003538
      6.68208      5.88161      5.74498         0.000936      0.000893      0.000517
      4.93186      5.88161      3.73323        -0.000936      0.000893     -0.000517
      3.30193      2.93197      1.14994         0.000862     -0.000267      0.002930
      3.35599      2.93197      8.32827        -0.000862     -0.000267     -0.002930
      5.89191      4.42186      8.26260        -0.002584      0.003445     -0.003697
      5.72203      4.42186      1.21561         0.002584      0.003445      0.003697
      4.92546      2.85303      3.75433        -0.001290      0.003108     -0.000233
      6.68848      2.85303      5.72388         0.001290      0.003108      0.000233
      4.23519      4.37070      5.78320         0.002824      0.000827     -0.002725
      2.42273      4.37070      3.69501        -0.002824      0.000827      0.002725
      3.32896      0.02538      4.73910        -0.000000      0.002466      0.000000
    total drift:                                0.000129     -0.051988      0.000079

  FREE ENERGIE OF THE ION-ELECTRON SYSTEM (eV)
  free  energy   TOTEN  =     -1034.1124677192 eV

  energy  without entropy=    -1034.1124677039  energy(sigma->0) =    -1034.11246771

volume of typ            1:    13.1 %

[...]

volume of typ            6:     1.9 %

total charge

# of ion       s       p       d       tot
    1        0.208   0.238   7.871   8.316
    2        0.250   0.316   7.798   8.364
    3        0.247   0.311   7.797   8.355
    4        0.208   0.242   7.868   8.318
    5        0.210   0.239   7.874   8.323
    6        0.250   0.317   7.794   8.361
    7        0.246   0.308   7.793   8.348
    8        0.296   6.201   1.916   8.414
    9        2.084   0.272   0.113   2.468
   10        2.084   0.272   0.113   2.468
   11        2.088   0.282   0.117   2.488
   12        2.088   0.282   0.117   2.488
   13        2.078   0.256   0.105   2.438
   14        2.078   0.256   0.105   2.438
   15        2.074   0.242   0.096   2.412
   16        2.073   0.242   0.097   2.412
   17        2.081   0.263   0.106   2.451
   18        2.081   0.263   0.106   2.451
   19        0.228   6.245   4.582  11.055
   20        1.259   2.873   0.005   4.137
   21        1.259   2.873   0.005   4.137
   22        1.260   2.839   0.005   4.104
   23        1.260   2.841   0.005   4.106
   24        1.259   2.854   0.005   4.118
   25        1.259   2.857   0.005   4.121
   26        1.261   2.869   0.005   4.135
   27        1.261   2.870   0.005   4.136
   28        1.258   2.845   0.004   4.107
   29        1.258   2.849   0.004   4.111
   30        1.260   2.828   0.005   4.093
   31        1.260   2.830   0.005   4.095
   32        1.249   2.863   0.004   4.115
   33        1.249   2.864   0.004   4.117
   34        1.262   2.867   0.005   4.134
   35        1.262   2.870   0.005   4.137
   36        1.262   2.832   0.005   4.098
   37        1.262   2.832   0.005   4.098
   38        1.259   2.833   0.004   4.096
   39        1.259   2.833   0.004   4.096
   40        0.248   0.345   6.814   7.407
tot          48.38   74.42   69.27  192.07

magnetization (x)

# of ion       s       p       d       tot
    1        0.004   0.003   1.637   1.643
    2        0.003   0.001   0.946   0.950
    3        0.002   0.002   0.940   0.944
    4        0.005  -0.000   1.626   1.631
    5        0.003   0.003   1.601   1.607
    6        0.001   0.001   0.893   0.896
    7        0.003   0.002   0.948   0.952
    8        0.001   0.001  -0.006  -0.004
    9        0.004   0.008   0.002   0.013
   10        0.004   0.008   0.002   0.013
   11        0.005   0.012   0.003   0.020
   12        0.005   0.012   0.003   0.020
   13        0.003   0.005   0.000   0.008
   14        0.003   0.005   0.000   0.008
   15        0.001   0.002  -0.000   0.004
   16        0.001   0.002   0.000   0.004
   17        0.002   0.004   0.000   0.007
   18        0.002   0.004   0.000   0.007
   19        0.011   0.012   2.637   2.660
   20        0.006   0.057   0.001   0.063
   21        0.006   0.057   0.001   0.063
   22        0.007   0.018   0.000   0.025
   23        0.007   0.020   0.000   0.027
   24        0.012   0.136   0.001   0.149
   25        0.012   0.137   0.001   0.150
   26        0.005   0.038   0.000   0.043
   27        0.005   0.037   0.000   0.043
   28        0.011   0.103   0.000   0.114
   29        0.011   0.106   0.000   0.118
   30        0.004  -0.008   0.000  -0.003
   31        0.004  -0.006   0.000  -0.001
   32        0.014   0.154   0.000   0.169
   33        0.014   0.155   0.000   0.170
   34        0.009   0.076   0.000   0.085
   35        0.009   0.075   0.000   0.085
   36        0.007  -0.009   0.000  -0.002
   37        0.006  -0.009   0.000  -0.002
   38        0.009   0.030   0.000   0.039
   39        0.009   0.030   0.000   0.039
   40       -0.001  -0.000  -0.113  -0.115
tot           0.23    1.28   11.13   12.64