 vasp.5.4.4.18Apr17-6-g9f103f2a35 (build May 12 2020 05:39:39) gamma-only

 MD_VERSION_INFO: Compiled 2020-05-12T12:39:39-UTC in devlin.sd.materialsdesign.
 com:/home/medea2/data/build/wwolf/vasp-gpu5.4.4/13047/x86_64/src/src/build/gam
 from svn 13047

 executed on                        Lin64 date 2023.01.19  16:50:16

 INCAR:
 POTCAR:    PAW_PBE Li_sv 10Sep2004
 POTCAR:    PAW_PBE Ni 02Aug2007
 POTCAR:    PAW_PBE O 08Apr2002

 POTCAR:    PAW_PBE Li_sv 10Sep2004

 POTCAR:    PAW_PBE Ni 02Aug2007

 POTCAR:    PAW_PBE O 08Apr2002

 Optimization of the real space projectors (new method)

 maximal supplied QI-value         = 22.11
 optimisation between [QCUT,QGAM] = [ 11.28, 22.77] = [ 35.61,145.23] Ry
 Optimized for a Real-space Cutoff    1.10 Angstroem

   l    n(q)    QCUT    max X(q) W(low)/X(q) W(high)/X(q)  e(spline)
   0      7    11.276    10.506    0.54E-04    0.58E-04    0.16E-07
   0      7    11.276     8.367    0.11E-03    0.14E-03    0.35E-07
   1      7    11.276     8.983    0.23E-03    0.43E-03    0.86E-07
 Optimization of the real space projectors (new method)

[...]

   l    n(q)    QCUT    max X(q) W(low)/X(q) W(high)/X(q)  e(spline)
   2      9    11.376    60.317    0.17E-03    0.16E-04    0.16E-06
   2      9    11.376    55.921    0.17E-03    0.16E-04    0.17E-06
   0     10    11.376    51.690    0.45E-04    0.60E-04    0.21E-06
   0     10    11.376    30.015    0.37E-04    0.55E-04    0.19E-06
   1     10    11.376    18.849    0.83E-04    0.11E-03    0.92E-07
   1     10    11.376    14.624    0.69E-04    0.92E-04    0.82E-07
 Optimization of the real space projectors (new method)

 maximal supplied QI-value         = 24.76
 optimisation between [QCUT,QGAM] = [ 11.39, 22.77] = [ 36.31,145.25] Ry
 Optimized for a Real-space Cutoff    1.10 Angstroem

   l    n(q)    QCUT    max X(q) W(low)/X(q) W(high)/X(q)  e(spline)
   0      7    11.387    20.381    0.22E-03    0.48E-03    0.18E-06
   0      7    11.387    15.268    0.22E-03    0.52E-03    0.19E-06
   1      7    11.387     5.964    0.22E-03    0.73E-03    0.24E-06
   1      7    11.387     5.382    0.19E-03    0.60E-03    0.21E-06

  PAW_PBE Li_sv 10Sep2004               :
  PAW_PBE Ni 02Aug2007                  :
  PAW_PBE O 08Apr2002                   :

 POSCAR: ce425756_1
  positions in direct lattice
 exchange correlation table for  LEXCH =       14
   RHO(1)=    0.500       N(1)  =     2000
   RHO(2)=  100.500       N(2)  =     4000

 ion  position               nearest neighbor table
   1  0.999  0.498  0.999-  84 2.11  71 2.12  83 2.12  35 2.12  48 2.12  36 2.12
   2  0.113  0.834  0.226-  50 2.10  56 2.10  55 2.10  32 2.12  49 2.13  37 2.13
   3  0.665  0.499  0.330-  47 2.10  41 2.10  42 2.10  65 2.12  66 2.13  60 2.13
   4  0.778  0.836  0.557-  85 2.11  80 2.12  68 2.12  62 2.12  67 2.12  61 2.12
   5  1.000  0.003  0.999-  82 1.86  70 1.86  34 1.87  49 1.87  37 1.87  85 1.89  23 2.79  29 2.79
                             8 2.79  11 2.79  14 2.80  17 2.80
   6  0.112  0.329  0.223-  51 1.86  57 1.86  54 1.87  33 1.87  48 1.87  36 1.87  15 2.78  18 2.78
                             9 2.79  12 2.79  24 2.81  30 2.81
   7  0.224  0.666  0.111-  71 1.86  38 1.86  56 1.87  32 1.87  35 1.88  41 1.89  10 2.78  19 2.78
                            25 2.78  31 2.80  16 2.81  13 2.82
   8  0.333  0.002  0.000-  76 1.86  43 1.86  70 1.87  73 1.87  40 1.87  37 1.89  20 2.78  23 2.79
                            17 2.79   5 2.79  11 2.79  26 2.79
   9  0.444  0.330  0.222-  57 1.86  39 1.86  63 1.87  60 1.87  42 1.87  36 1.89   6 2.79  24 2.79
                            18 2.79  27 2.79  21 2.80  12 2.80
  10  0.555  0.669  0.110-  44 1.86  38 1.86  77 1.87  47 1.88  41 1.88  62 1.91  13 2.78   7 2.78
                            28 2.79  25 2.79  19 2.81  22 2.81
  11  0.667  0.002  0.000-  76 1.86  43 1.86  82 1.87  79 1.87  46 1.87  49 1.89  20 2.78  29 2.79
                            14 2.79   5 2.79   8 2.79  26 2.79
  12  0.778  0.330  0.222-  51 1.86  45 1.86  63 1.87  66 1.87  42 1.87  48 1.89   6 2.79  30 2.79
                            15 2.79  27 2.79  21 2.80   9 2.80
  13  0.887  0.666  0.111-  83 1.86  44 1.86  50 1.87  32 1.87  35 1.88  47 1.89  10 2.78  22 2.78
                            28 2.78  31 2.80  16 2.81   7 2.82
  14  1.000  0.003  0.334-  46 1.86  52 1.86  34 1.87  49 1.87  55 1.87  67 1.89  20 2.79  23 2.79
                            11 2.79  26 2.79   5 2.80  17 2.80
  15  0.111  0.332  0.555-  75 1.86  54 1.86  69 1.87  72 1.87  51 1.87  66 1.89   6 2.78  24 2.79
                            12 2.79  21 2.79  18 2.79  27 2.79
  16  0.223  0.664  0.446-  59 1.86  53 1.86  74 1.87  56 1.88  50 1.88  35 1.91  22 2.78  19 2.78
                            25 2.79  28 2.79   7 2.81  13 2.81
  17  0.334  0.003  0.334-  40 1.86  58 1.86  34 1.87  37 1.87  55 1.87  61 1.89  20 2.79  29 2.79
                             8 2.79  26 2.79   5 2.80  14 2.80
  18  0.444  0.332  0.555-  75 1.86  54 1.86  81 1.87  78 1.87  57 1.87  60 1.89   6 2.78  30 2.79
                             9 2.79  21 2.79  15 2.79  27 2.79
  19  0.554  0.667  0.444-  80 1.86  59 1.86  41 1.87  65 1.87  62 1.88  56 1.89  16 2.78   7 2.78
                            28 2.78  31 2.80  10 2.81  22 2.82
  20  0.666  0.004  0.332-  46 1.86  40 1.86  43 1.87  64 1.87  67 1.87  61 1.87  11 2.78   8 2.78
                            14 2.79  17 2.79  23 2.81  29 2.81
  21  0.778  0.330  0.556-  69 1.86  81 1.86  63 1.87  60 1.87  66 1.87  84 1.89  30 2.79  24 2.79
                            15 2.79  18 2.79  12 2.80   9 2.80
  22  0.890  0.667  0.444-  68 1.86  53 1.86  47 1.87  65 1.87  62 1.88  50 1.89  16 2.78  13 2.78
                            25 2.78  31 2.80  10 2.81  19 2.82
  23  0.001  0.004  0.667-  52 1.86  70 1.86  73 1.87  85 1.87  64 1.87  67 1.87  26 2.78   8 2.79
                             5 2.79  14 2.79  29 2.81  20 2.81
  24  0.112  0.329  0.888-  39 1.86  69 1.86  72 1.87  84 1.87  33 1.87  36 1.87  27 2.78  15 2.79
                            21 2.79   9 2.79  30 2.81   6 2.81
  25  0.221  0.667  0.778-  38 1.86  53 1.86  74 1.87  77 1.87  68 1.90  71 1.90   7 2.78  22 2.78
                            31 2.78  10 2.79  16 2.79  28 2.81
  26  0.333  0.002  0.667-  76 1.86  73 1.87  79 1.87  52 1.87  58 1.87  55 1.89  23 2.78  29 2.78
                            14 2.79  17 2.79   8 2.79  11 2.79
  27  0.444  0.332  0.889-  75 1.86  72 1.87  78 1.87  39 1.87  45 1.87  42 1.89  24 2.78  30 2.78
                             9 2.79  12 2.79  18 2.79  15 2.79
  28  0.556  0.667  0.778-  44 1.86  59 1.86  74 1.87  77 1.87  80 1.90  83 1.90  13 2.78  19 2.78
                            31 2.78  10 2.79  16 2.79  25 2.81
  29  0.666  0.004  0.667-  58 1.86  82 1.86  79 1.87  85 1.87  64 1.87  61 1.87  26 2.78  11 2.79
                             5 2.79  17 2.79  23 2.81  20 2.81
  30  0.777  0.329  0.888-  45 1.86  81 1.86  78 1.87  84 1.87  33 1.87  48 1.87  27 2.78  18 2.79
                            21 2.79  12 2.79  24 2.81   6 2.81
  31  0.889  0.667  0.778-  68 1.86  80 1.86  83 1.86  71 1.86  32 1.91  65 1.91  28 2.78  25 2.78
                            13 2.80   7 2.80  19 2.80  22 2.80
  32  0.003  0.735  0.006-  13 1.87   7 1.87  31 1.91   2 2.12
  33  0.000  0.262  0.001-   6 1.87  24 1.87  30 1.87
  34  0.111  0.070  0.222-   5 1.87  17 1.87  14 1.87
  35  0.109  0.597  0.218-   7 1.88  13 1.88  16 1.91   1 2.12
  36  0.218  0.398  0.109-   6 1.87  24 1.87   9 1.89   1 2.12
  37  0.220  0.934  0.113-   5 1.87  17 1.87   8 1.89   2 2.13
  38  0.332  0.734  0.999-  10 1.86   7 1.86  25 1.86
  39  0.334  0.264  1.000-  24 1.86   9 1.86  27 1.87
  40  0.444  0.070  0.221-  20 1.86  17 1.86   8 1.87
  41  0.449  0.599  0.224-  19 1.87  10 1.88   7 1.89   3 2.10
  42  0.557  0.399  0.115-  12 1.87   9 1.87  27 1.89   3 2.10
  43  0.556  0.935  0.112-  11 1.86   8 1.86  20 1.87
  44  0.667  0.734  0.999-  10 1.86  13 1.86  28 1.86
  45  0.666  0.264  1.000-  30 1.86  12 1.86  27 1.87
  46  0.777  0.070  0.221-  20 1.86  14 1.86  11 1.87
  47  0.775  0.599  0.224-  22 1.87  10 1.88  13 1.89   3 2.10
  48  0.891  0.398  0.109-   6 1.87  30 1.87  12 1.89   1 2.12
  49  0.893  0.934  0.113-   5 1.87  14 1.87  11 1.89   2 2.13
  50  0.003  0.734  0.332-  13 1.87  16 1.88  22 1.89   2 2.10
  51  0.001  0.263  0.335-   6 1.86  12 1.86  15 1.87
  52  0.112  0.070  0.556-  23 1.86  14 1.86  26 1.87
  53  0.111  0.599  0.557-  16 1.86  22 1.86  25 1.86
  54  0.222  0.398  0.443-  15 1.86  18 1.86   6 1.87
  55  0.220  0.934  0.441-  17 1.87  14 1.87  26 1.89   2 2.10
  56  0.328  0.734  0.332-   7 1.87  16 1.88  19 1.89   2 2.10
  57  0.334  0.263  0.335-   6 1.86   9 1.86  18 1.87
  58  0.444  0.070  0.556-  29 1.86  17 1.86  26 1.87
  59  0.446  0.599  0.557-  16 1.86  19 1.86  28 1.86
  60  0.557  0.399  0.442-  21 1.87   9 1.87  18 1.89   3 2.13
  61  0.560  0.935  0.447-  20 1.87  29 1.87  17 1.89   4 2.12
  62  0.669  0.737  0.338-  19 1.88  22 1.88  10 1.91   4 2.12
  63  0.667  0.264  0.334-  21 1.87  12 1.87   9 1.87
  64  0.778  0.071  0.555-  20 1.87  29 1.87  23 1.87
  65  0.775  0.599  0.550-  22 1.87  19 1.87  31 1.91   3 2.12
  66  0.885  0.399  0.442-  21 1.87  12 1.87  15 1.89   3 2.13
  67  0.887  0.935  0.447-  20 1.87  23 1.87  14 1.89   4 2.12
  68  0.995  0.735  0.664-  22 1.86  31 1.86  25 1.90   4 2.12
  69  0.001  0.264  0.666-  24 1.86  21 1.86  15 1.87
  70  0.112  0.070  0.890-  23 1.86   5 1.86   8 1.87
  71  0.109  0.598  0.891-   7 1.86  31 1.86  25 1.90   1 2.12
  72  0.222  0.398  0.778-  27 1.87  15 1.87  24 1.87
  73  0.221  0.935  0.778-  26 1.87   8 1.87  23 1.87
  74  0.333  0.732  0.666-  25 1.87  28 1.87  16 1.87
  75  0.333  0.266  0.667-  15 1.86  18 1.86  27 1.86
  76  0.444  0.068  0.889-   8 1.86  11 1.86  26 1.86
  77  0.445  0.601  0.890-  25 1.87  28 1.87  10 1.87
  78  0.556  0.398  0.778-  27 1.87  18 1.87  30 1.87
  79  0.556  0.935  0.778-  26 1.87  11 1.87  29 1.87
  80  0.669  0.735  0.664-  19 1.86  31 1.86  28 1.90   4 2.12
  81  0.665  0.264  0.666-  30 1.86  21 1.86  18 1.87
  82  0.777  0.070  0.890-  29 1.86   5 1.86  11 1.87
  83  0.782  0.598  0.891-  13 1.86  31 1.86  28 1.90   1 2.12
  84  0.891  0.398  0.781-  30 1.87  24 1.87  21 1.89   1 2.11
  85  0.887  0.935  0.774-  23 1.87  29 1.87   5 1.89   4 2.11

  LATTYP: Found a base centered monoclinic cell.
 ALAT       =    14.5062434250
 B/A-ratio  =     0.5772133831
 C/A-ratio  =     1.3942416165
 COS(beta)  =    -0.6223225132

  Lattice vectors:

 A1 = (   4.1880852862,   7.2522602234,   0.0069704118)
 A2 = (   8.3746842083,   0.0008581809,   0.0069704118)
 A3 = ( -12.5741438783,  -7.2596853542, -14.0800186206)

Analysis of symmetry for initial positions (statically):
 Subroutine PRICEL returns:
 Original cell was already a primitive cell.

 Routine SETGRP: Setting up the symmetry group for a
 base centered monoclinic supercell.

 Subroutine GETGRP returns: Found  4 space group operations
 (whereof  2 operations were pure point group operations)
 out of a pool of  4 trial point group operations.

The static configuration has the point symmetry C_1h.
[...]
   -.360E+02 -.208E+02 0.353E+03   0.385E+02 0.222E+02 -.376E+03   -.253E+01 -.146E+01 0.227E+02   0.562E-02 0.325E-02 -.108E-02
   -.587E+01 -.275E+02 -.351E+03   0.609E+01 0.299E+02 0.374E+03   -.212E+00 -.238E+01 -.226E+02   -.868E-02 0.962E-02 0.258E-01
   -.633E+01 -.491E+01 0.366E+03   0.674E+01 0.558E+01 -.393E+03   -.416E+00 -.653E+00 0.279E+02   0.487E-02 -.273E-01 0.183E-01
   -.736E+01 0.541E+01 -.366E+03   0.769E+01 -.607E+01 0.394E+03   -.335E+00 0.647E+00 -.278E+02   -.637E-03 0.947E-02 -.335E-02
   -.164E+02 0.226E+01 0.382E+03   0.167E+02 -.175E+01 -.410E+03   -.281E+00 -.537E+00 0.275E+02   0.130E-01 0.246E-01 -.179E-01
   -.333E+02 0.195E+02 -.353E+03   0.357E+02 -.209E+02 0.376E+03   -.239E+01 0.140E+01 -.231E+02   0.812E-02 -.133E-01 0.467E-02
[...]
   0.982E+01 -.677E+01 -.382E+03   -.967E+01 0.660E+01 0.410E+03   -.151E+00 0.164E+00 -.273E+02   -.894E-03 -.195E-02 -.178E-02
   0.953E+00 -.119E+02 0.382E+03   -.886E+00 0.117E+02 -.410E+03   -.668E-01 0.212E+00 0.273E+02   0.214E-02 -.201E-03 0.178E-02
   -.101E+02 -.580E+01 -.376E+03   0.100E+02 0.579E+01 0.403E+03   -.737E-02 -.426E-02 -.264E+02   0.232E-01 0.134E-01 0.164E-01
   -.237E+01 -.137E+01 0.361E+03   0.245E+01 0.141E+01 -.389E+03   -.702E-01 -.405E-01 0.279E+02   -.657E-02 -.379E-02 0.801E-02
   0.237E+01 0.137E+01 -.361E+03   -.245E+01 -.141E+01 0.389E+03   0.702E-01 0.405E-01 -.279E+02   0.657E-02 0.379E-02 -.801E-02
   0.101E+02 0.580E+01 0.376E+03   -.100E+02 -.579E+01 -.403E+03   0.737E-02 0.426E-02 0.264E+02   -.231E-01 -.134E-01 -.164E-01
   -.953E+00 0.119E+02 -.382E+03   0.886E+00 -.117E+02 0.410E+03   0.668E-01 -.212E+00 -.273E+02   -.214E-02 0.200E-03 -.178E-02
   -.982E+01 0.677E+01 0.382E+03   0.967E+01 -.660E+01 -.410E+03   0.151E+00 -.164E+00 0.273E+02   0.894E-03 0.195E-02 0.178E-02
   -.412E+02 0.236E+02 -.354E+03   0.442E+02 -.251E+02 0.377E+03   -.298E+01 0.148E+01 -.228E+02   0.707E-02 0.182E-01 -.130E-02
   -.132E+01 0.753E+01 0.364E+03   0.105E+01 -.812E+01 -.392E+03   0.255E+00 0.590E+00 0.280E+02   0.135E-01 -.708E-02 0.247E-02
   -.586E+01 0.491E+01 -.364E+03   0.650E+01 -.497E+01 0.392E+03   -.639E+00 0.741E-01 -.280E+02   -.613E-03 -.152E-01 -.247E-02
   0.140E+00 0.475E+02 0.354E+03   -.335E+00 -.509E+02 -.377E+03   0.213E+00 0.332E+01 0.228E+02   -.193E-01 0.296E-02 0.130E-02
   0.258E+02 0.149E+02 -.351E+03   -.282E+02 -.163E+02 0.374E+03   0.246E+01 0.142E+01 -.229E+02   0.177E-01 0.102E-01 0.480E-02
   -.258E+02 -.149E+02 0.351E+03   0.282E+02 0.163E+02 -.374E+03   -.246E+01 -.142E+01 0.229E+02   -.177E-01 -.102E-01 -.480E-02
   0.777E-03 -.110E-02 -.279E-02   -.682E-12 -.426E-13 0.796E-12   0.444E-15 0.222E-14 -.107E-13   -.114E-06 -.615E-07 0.114E-05

 POSITION                                       TOTAL-FORCE (eV/Angst)
      4.18901      7.25137      7.00837        -0.001687     -0.000974      0.003751
      1.42809      0.82451     11.74111        -0.000700     -0.000404      0.016819
     -0.01433      4.82457      7.02077         0.000700      0.000404     -0.016819
      1.41457      5.64955     11.76094         0.001687      0.000974     -0.003751
      4.18537      7.24927      0.05527         0.000859      0.000496      0.015305
      1.40643      0.81200      4.62834         0.002083      0.001202     -0.016542
      0.00312      1.62617      9.36818         0.000957     -0.003506     -0.001630
     -1.39301      2.41635      0.02296        -0.000868      0.003067      0.009220
      0.00560      3.21835      4.64160         0.000336     -0.000340     -0.016203
     -1.39199      4.02918      9.41774        -0.003523     -0.002034      0.005684
     -2.78925      4.83471      0.02296         0.002222     -0.002286      0.009220
     -1.39539      5.64494      4.64160        -0.000126      0.000461     -0.016203
     -2.77550      6.43889      9.36818        -0.002558      0.002582     -0.001630
     -1.38834      7.24641      0.05196         0.000126     -0.000461      0.016203
      4.19089      0.80737      4.67060        -0.002222      0.002286     -0.009220
      2.80575      1.61990      9.34415         0.003523      0.002034     -0.005684
      1.39604      2.42373      0.05196        -0.000336      0.000340      0.016203
      2.79465      3.22573      4.67060         0.000868     -0.003067     -0.009220
      1.41064      4.02292      9.39370        -0.000957      0.003506      0.001630
     -0.00479      4.83008      0.06523        -0.002083     -0.001202      0.016542
      1.40608      5.64465      4.64571        -0.000859     -0.000496     -0.015305
      0.00390      6.45946      9.39370         0.002558     -0.002582      0.001630
      5.58386      0.00878      0.06820         0.000411      0.002877      0.015797
      6.97728      0.81327      4.63278        -0.002697      0.001082     -0.015797
      5.59611      1.61055      9.38465         0.000810     -0.001403      0.000000
      4.18786      2.41786      0.02748         0.002842      0.001641      0.007755
      5.58896      3.22679      4.67350        -0.002842     -0.001641     -0.007755
      4.19283      4.04110      9.38465        -0.000810      0.001403     -0.000000
      2.79954      4.83138      0.06820         0.002697     -0.001082      0.015797
      4.19295      5.63586      4.63278        -0.000411     -0.002877     -0.015797
      2.80179      6.45046      9.38465         0.000000      0.000000      0.000000
      0.04674      0.02699     10.34033         0.005257      0.003035      0.000539
      0.00621      0.00359      3.68515        -0.000433     -0.000250     -0.014400
      1.39500      0.80540      0.98340         0.000965      0.000557      0.010757
      1.37444      0.79353      8.39581        -0.008001     -0.004620     -0.005231
      0.00430      1.58564      5.59694         0.000264     -0.001529     -0.016957
      0.03805      1.60524     13.14630        -0.000107      0.001996      0.015857
      6.98551      2.41142     10.33575         0.003378     -0.002342      0.000381
      6.97754      2.42666      3.71380        -0.000341      0.000034     -0.009010
     -0.00734      3.21836      0.98674        -0.002193      0.003203      0.011498
      0.00192      3.26150      8.42673         0.002305      0.000992      0.004890
     -1.36702      4.04360      5.61269         0.001737      0.001003     -0.016035
     -1.37341      4.03991     13.16130         0.005158      0.002978      0.015103
      5.58110      4.84392     10.33575        -0.000339      0.004096      0.000381
      5.59032      4.82939      3.71380        -0.000141     -0.000312     -0.009010
     -1.40186      5.63374      0.98674         0.001677     -0.003501      0.011498
     -1.35987      5.62018      8.42673         0.002012      0.001500      0.004890
     -2.81002      6.46018      5.59694        -0.001192      0.000993     -0.016957
     -2.77616      6.47960     13.14630         0.001675     -0.001090      0.015857
      2.77363      0.02890     10.33515        -0.002012     -0.001500     -0.004890
      2.80349      0.00834      3.70683        -0.001677      0.003501     -0.011498
      4.18649      0.81525      0.98718         0.000141      0.000312      0.009010
      4.20784      0.80773      8.43355         0.000339     -0.004096     -0.000381
      2.78717      1.60917      5.60059        -0.005158     -0.002978     -0.015103
      2.78079      1.60549     13.14919        -0.001737     -0.001003      0.016035
      1.41184      2.38758     10.33515        -0.002305     -0.000992     -0.004890
      1.40897      2.42372      3.70683         0.002193     -0.003203     -0.011498
      2.79928      3.21798      0.98718         0.000341     -0.000034      0.009010
      2.80344      3.24023      8.43355        -0.003378      0.002342     -0.000381
      1.37571      4.04384      5.61558         0.000107     -0.001996     -0.015857
[...]
      7.01369      0.79631      8.41930        -0.003181     -0.000485      0.004020
      5.59405      1.60960      5.60442         0.001266     -0.003425     -0.015419
      5.59796      1.61186     13.16489         0.002333     -0.002809      0.015419
      4.19067      2.41949     10.30891        -0.007510     -0.004336     -0.009943
      4.19201      2.42026      3.73899        -0.001274     -0.000736     -0.005372
      5.58481      3.22439      0.96199         0.001274      0.000736      0.005372
      5.59827      3.23216      8.46040         0.007510      0.004336      0.009943
      4.19099      4.03979      5.60442        -0.002333      0.002809     -0.015419
      4.19489      4.04204     13.16489        -0.001266      0.003425      0.015419
      2.77526      4.85534     10.35000         0.003181      0.000485     -0.004020
      2.79603      4.82790      3.71195         0.001530      0.000455     -0.010422
      4.19772      5.63717      0.98903        -0.001159     -0.001098      0.010422
      4.19647      5.67587      8.41930        -0.002011     -0.002513      0.004020
      2.81984      6.46088      5.60306         0.000538      0.000311     -0.014892
      2.78374      6.44004     13.16625        -0.000538     -0.000311      0.014892
    total drift:                                0.000777     -0.001103     -0.002788

  FREE ENERGIE OF THE ION-ELECTRON SYSTEM (eV)
  free  energy   TOTEN  =      -529.0165222762 eV

  energy  without entropy=     -528.9645735091  energy(sigma->0) =     -528.99054789

 d Force = 0.6835234E-03[ 0.623E-03, 0.744E-03]  d Energy = 0.6586693E-03 0.249E-04
 d Force = 0.1202366E+01[ 0.119E+01, 0.122E+01]  d Ewald  =-0.1433400E+01 0.264E+01

 Quasi-Newton relaxation of ions (Broydens 2nd method)
  g(Force)  = 0.584E-03   g(Stress)= 0.610E-04

 retain information from N=  3 steps
 eigenvalues of (default step * inverse Hessian matrix)
  average eigenvalue of G=   0.5623
 eigenvalue spectrum of G is  0.9222  0.5084  0.2564

 reached required accuracy - stopping structural energy minimisation

volume of typ            1:     3.6 %

[...]

volume of typ            3:    10.3 %

total charge

# of ion       s       p       d       tot
    1        2.067   0.221   0.087   2.376
    2        2.068   0.224   0.087   2.380
    3        2.068   0.224   0.087   2.380
    4        2.067   0.221   0.087   2.376
    5        0.298   0.415   7.825   8.538
    6        0.303   0.425   7.822   8.549
    7        0.298   0.416   7.832   8.547
    8        0.298   0.416   7.819   8.532
    9        0.298   0.415   7.825   8.538
   10        0.297   0.413   7.828   8.538
   11        0.298   0.416   7.819   8.532
   12        0.298   0.415   7.825   8.538
   13        0.298   0.416   7.832   8.547
   14        0.298   0.415   7.825   8.538
   15        0.298   0.416   7.819   8.532
   16        0.297   0.413   7.828   8.538
   17        0.298   0.415   7.825   8.538
   18        0.298   0.416   7.819   8.532
   19        0.298   0.416   7.832   8.547
   20        0.303   0.425   7.822   8.549
   21        0.298   0.415   7.825   8.538
   22        0.298   0.416   7.832   8.547
   23        0.302   0.423   7.824   8.549
   24        0.302   0.423   7.824   8.549
   25        0.293   0.405   7.822   8.521
   26        0.298   0.415   7.820   8.532
   27        0.298   0.415   7.820   8.532
   28        0.293   0.405   7.822   8.521
   29        0.302   0.423   7.824   8.549
   30        0.302   0.423   7.824   8.549
   31        0.291   0.403   7.837   8.531
   32        1.279   2.744   0.007   4.030
   33        1.287   2.718   0.008   4.013
   34        1.289   2.712   0.008   4.009
   35        1.275   2.751   0.007   4.033
   36        1.275   2.754   0.007   4.036
   37        1.275   2.752   0.007   4.034
   38        1.285   2.725   0.008   4.018
   39        1.287   2.721   0.008   4.016
   40        1.286   2.721   0.008   4.016
   41        1.274   2.756   0.007   4.038
   42        1.275   2.753   0.007   4.035
   43        1.285   2.723   0.008   4.017
   44        1.285   2.725   0.008   4.018
   45        1.287   2.721   0.008   4.016
   46        1.286   2.721   0.008   4.016
   47        1.274   2.756   0.007   4.038
   48        1.275   2.754   0.007   4.036
   49        1.275   2.752   0.007   4.034
   50        1.274   2.756   0.007   4.038
   51        1.286   2.721   0.008   4.016
   52        1.287   2.721   0.008   4.016
   53        1.285   2.725   0.008   4.018
   54        1.285   2.723   0.008   4.017
   55        1.275   2.753   0.007   4.035
   56        1.274   2.756   0.007   4.038
   57        1.286   2.721   0.008   4.016
   58        1.287   2.721   0.008   4.016
   59        1.285   2.725   0.008   4.018
   60        1.275   2.752   0.007   4.034
[...]
   71        1.274   2.755   0.007   4.037
   72        1.286   2.722   0.008   4.016
   73        1.286   2.722   0.008   4.016
   74        1.288   2.715   0.008   4.012
   75        1.289   2.713   0.008   4.010
   76        1.289   2.713   0.008   4.010
   77        1.288   2.715   0.008   4.012
   78        1.286   2.722   0.008   4.016
   79        1.286   2.722   0.008   4.016
   80        1.274   2.755   0.007   4.037
   81        1.286   2.721   0.008   4.016
   82        1.286   2.721   0.008   4.016
   83        1.274   2.755   0.007   4.037
   84        1.275   2.754   0.007   4.036
   85        1.275   2.754   0.007   4.036
tot          85.52  159.79  212.04  457.35

magnetization (x)

# of ion       s       p       d       tot
    1        0.004   0.003  -0.000   0.007
    2        0.005   0.005  -0.000   0.009
    3        0.005   0.005  -0.000   0.009
    4        0.004   0.003  -0.000   0.007
    5       -0.000  -0.000   0.091   0.091
    6       -0.000  -0.000   0.053   0.053
    7       -0.000  -0.000   0.147   0.147
    8       -0.000  -0.000   0.065   0.065
    9       -0.000  -0.000   0.105   0.105
   10       -0.000  -0.000   0.127   0.127
   11       -0.000  -0.000   0.065   0.065
   12       -0.000  -0.000   0.105   0.105
   13       -0.000  -0.000   0.147   0.147
   14       -0.000  -0.000   0.105   0.105
   15       -0.000  -0.000   0.065   0.065
   16       -0.000  -0.000   0.127   0.127
   17       -0.000  -0.000   0.105   0.105
   18       -0.000  -0.000   0.065   0.065
   19       -0.000  -0.000   0.147   0.147
   20       -0.000  -0.000   0.053   0.053
   21       -0.000  -0.000   0.091   0.091
   22       -0.000  -0.000   0.147   0.147
   23       -0.000  -0.000   0.070   0.070
   24       -0.000  -0.000   0.070   0.070
   25       -0.000  -0.000   0.136   0.136
   26       -0.000  -0.000   0.082   0.081
   27       -0.000  -0.000   0.082   0.081
   28       -0.000  -0.000   0.136   0.136
   29       -0.000  -0.000   0.070   0.070
   30       -0.000  -0.000   0.070   0.070
   31       -0.000  -0.000   0.273   0.272
   32        0.008   0.050   0.000   0.057
   33        0.001   0.007   0.000   0.008
   34        0.003   0.023   0.000   0.026
   35        0.003   0.015   0.000   0.018
   36        0.002   0.006   0.000   0.009
   37        0.002   0.006   0.000   0.008
   38        0.002   0.004   0.000   0.006
   39        0.002   0.008   0.000   0.010
   40        0.001   0.007   0.000   0.009
   41        0.003   0.011   0.000   0.015
   42        0.003   0.008   0.000   0.011
   43        0.001   0.001   0.000   0.002
   44        0.002   0.004   0.000   0.006
   45        0.002   0.008   0.000   0.010
   46        0.001   0.007   0.000   0.009
   47        0.003   0.011   0.000   0.015
   48        0.002   0.006   0.000   0.009
   49        0.002   0.006   0.000   0.008
   50        0.003   0.011   0.000   0.015
   51        0.001   0.007   0.000   0.009
   52        0.002   0.008   0.000   0.010
   53        0.002   0.004   0.000   0.006
   54        0.001   0.001   0.000   0.002
   55        0.003   0.008   0.000   0.011
   56        0.003   0.011   0.000   0.015
   57        0.001   0.007   0.000   0.009
   58        0.002   0.008   0.000   0.010
   59        0.002   0.004   0.000   0.006
   60        0.002   0.006   0.000   0.008
[...]
   71        0.003   0.014   0.000   0.017
   72        0.001   0.005   0.000   0.006
   73        0.001   0.005   0.000   0.006
   74        0.004   0.046   0.000   0.050
   75        0.002   0.019   0.000   0.021
   76        0.002   0.019   0.000   0.021
   77        0.004   0.046   0.000   0.050
   78        0.001   0.005   0.000   0.006
   79        0.001   0.005   0.000   0.006
   80        0.003   0.014   0.000   0.017
   81        0.001   0.006   0.000   0.008
   82        0.001   0.006   0.000   0.008
   83        0.003   0.014   0.000   0.017
   84        0.002   0.007   0.000   0.009
   85        0.002   0.007   0.000   0.009
tot           0.15    0.63    2.81    3.58