 vasp.5.4.4.18Apr17-6-g9f103f2a35 (build May 12 2020 05:39:39) gamma-only

 MD_VERSION_INFO: Compiled 2020-05-12T12:39:39-UTC in devlin.sd.materialsdesign.
 com:/home/medea2/data/build/wwolf/vasp-gpu5.4.4/13047/x86_64/src/src/build/gam
 from svn 13047

 executed on                        Lin64 date 2023.01.19  17:49:55

 INCAR:
 POTCAR:    PAW_PBE Li_sv 10Sep2004
 POTCAR:    PAW_PBE Ni 02Aug2007
 POTCAR:    PAW_PBE O 08Apr2002

 POTCAR:    PAW_PBE Li_sv 10Sep2004

 POTCAR:    PAW_PBE Ni 02Aug2007

 POTCAR:    PAW_PBE O 08Apr2002

 Optimization of the real space projectors (new method)

 maximal supplied QI-value         = 22.11
 optimisation between [QCUT,QGAM] = [ 11.28, 22.77] = [ 35.61,145.23] Ry
 Optimized for a Real-space Cutoff    1.10 Angstroem

   l    n(q)    QCUT    max X(q) W(low)/X(q) W(high)/X(q)  e(spline)
   0      7    11.276    10.506    0.54E-04    0.58E-04    0.16E-07
   0      7    11.276     8.367    0.11E-03    0.14E-03    0.35E-07
   1      7    11.276     8.983    0.23E-03    0.43E-03    0.86E-07
 Optimization of the real space projectors (new method)

[...]

   l    n(q)    QCUT    max X(q) W(low)/X(q) W(high)/X(q)  e(spline)
   2      9    11.376    60.317    0.17E-03    0.16E-04    0.16E-06
   2      9    11.376    55.921    0.17E-03    0.16E-04    0.17E-06
   0     10    11.376    51.690    0.45E-04    0.60E-04    0.21E-06
   0     10    11.376    30.015    0.37E-04    0.55E-04    0.19E-06
   1     10    11.376    18.849    0.83E-04    0.11E-03    0.92E-07
   1     10    11.376    14.624    0.69E-04    0.92E-04    0.82E-07
 Optimization of the real space projectors (new method)

 maximal supplied QI-value         = 24.76
 optimisation between [QCUT,QGAM] = [ 11.39, 22.77] = [ 36.31,145.25] Ry
 Optimized for a Real-space Cutoff    1.10 Angstroem

   l    n(q)    QCUT    max X(q) W(low)/X(q) W(high)/X(q)  e(spline)
   0      7    11.387    20.381    0.22E-03    0.48E-03    0.18E-06
   0      7    11.387    15.268    0.22E-03    0.52E-03    0.19E-06
   1      7    11.387     5.964    0.22E-03    0.73E-03    0.24E-06
   1      7    11.387     5.382    0.19E-03    0.60E-03    0.21E-06

  PAW_PBE Li_sv 10Sep2004               :
  PAW_PBE Ni 02Aug2007                  :
  PAW_PBE O 08Apr2002                   :

 POSCAR: ce425595_1
  positions in direct lattice
 exchange correlation table for  LEXCH =       14
   RHO(1)=    0.500       N(1)  =     2000
   RHO(2)=  100.500       N(2)  =     4000

 ion  position               nearest neighbor table
   1  0.999  0.500  0.997-  72 2.09  84 2.09  37 2.10  49 2.10  85 2.10  36 2.12   7 2.84
   2  0.111  0.833  0.221-  33 2.10  50 2.11  38 2.11  56 2.11  51 2.12  57 2.12
   3  0.556  0.167  0.113-  47 2.11  41 2.11  46 2.11  40 2.11  77 2.12  64 2.12
   4  0.223  0.168  0.446-  76 2.11  59 2.11  53 2.11  35 2.11  58 2.12  52 2.12
   5  0.445  0.832  0.890-  39 2.10  45 2.10  44 2.10  80 2.12  74 2.12  75 2.13
   6  1.000  0.003  0.999-  83 1.86  71 1.86  86 1.87  50 1.87  38 1.87  35 1.90  12 2.78   9 2.78
                            24 2.79  30 2.79  15 2.80  18 2.80
   7  0.111  0.334  0.222-  37 1.86  49 1.86  52 1.87  58 1.87  55 1.87  34 1.87  13 2.79  10 2.79
                            25 2.80  31 2.80  19 2.80  16 2.80   1 2.84
   8  0.223  0.667  0.111-  42 1.86  57 1.87  72 1.87  36 1.87  33 1.88  39 1.89  11 2.78  20 2.79
                            26 2.79  32 2.80  17 2.80  14 2.81
   9  0.332  0.999  0.000-  74 1.87  71 1.87  41 1.87  77 1.87  44 1.88  38 1.88   6 2.78  18 2.78
                            24 2.79  27 2.80  21 2.81  12 2.82
  10  0.444  0.336  0.223-  61 1.86  43 1.87  64 1.87  40 1.88  37 1.89  58 1.90  19 2.79   7 2.79
                            22 2.79  25 2.79  13 2.80  28 2.80
  11  0.556  0.664  0.112-  48 1.86  42 1.86  63 1.87  45 1.87  39 1.87  78 1.87  14 2.78   8 2.78
                            23 2.79  20 2.79  29 2.81  26 2.81
  12  0.668  0.999  0.000-  80 1.87  83 1.87  47 1.87  77 1.87  44 1.88  50 1.88   6 2.78  15 2.78
                            30 2.79  27 2.80  21 2.81   9 2.82
  13  0.778  0.336  0.223-  67 1.86  43 1.87  64 1.87  46 1.88  49 1.89  52 1.90  16 2.79   7 2.79
                            22 2.79  31 2.79  10 2.80  28 2.80
  14  0.888  0.667  0.111-  48 1.86  51 1.87  84 1.87  36 1.87  33 1.88  45 1.89  11 2.78  23 2.79
                            29 2.79  32 2.80  17 2.80   8 2.81
  15  0.999  0.001  0.333-  53 1.86  68 1.87  50 1.87  56 1.87  35 1.88  47 1.88  21 2.78  12 2.78
                            24 2.79  27 2.80   6 2.80  18 2.82
  16  0.110  0.336  0.556-  67 1.86  73 1.86  70 1.87  52 1.87  76 1.87  55 1.88  25 2.78  22 2.78
                            13 2.79  28 2.79   7 2.80  19 2.81
  17  0.223  0.664  0.445-  60 1.86  54 1.86  57 1.88  51 1.88  75 1.90  36 1.90  26 2.79  29 2.79
                            23 2.79  20 2.79  14 2.80   8 2.80
  18  0.335  0.001  0.333-  59 1.86  62 1.87  38 1.87  56 1.87  35 1.88  41 1.88  21 2.78   9 2.78
                            30 2.79  27 2.80   6 2.80  15 2.82
  19  0.446  0.336  0.556-  61 1.86  79 1.86  82 1.87  58 1.87  76 1.87  55 1.88  31 2.78  22 2.78
                            10 2.79  28 2.79   7 2.80  16 2.81
  20  0.555  0.667  0.444-  66 1.86  81 1.87  63 1.87  60 1.87  42 1.87  57 1.89   8 2.79  29 2.79
                            17 2.79  11 2.79  32 2.79  23 2.80
  21  0.667  0.997  0.335-  68 1.86  62 1.86  65 1.87  47 1.88  41 1.88  44 1.90  15 2.78  18 2.78
                            24 2.79  30 2.79  12 2.81   9 2.81
  22  0.778  0.334  0.555-  61 1.87  67 1.87  82 1.87  70 1.87  64 1.89  85 1.89  16 2.78  19 2.78
                            10 2.79  13 2.79  31 2.80  25 2.80
  23  0.889  0.667  0.444-  66 1.86  69 1.87  63 1.87  54 1.87  48 1.87  51 1.89  14 2.79  26 2.79
                            17 2.79  11 2.79  32 2.79  20 2.80
  24  0.001  1.000  0.667-  65 1.86  86 1.87  68 1.87  71 1.87  74 1.90  53 1.90   9 2.79  15 2.79
                            27 2.79  21 2.79   6 2.79  30 2.80
  25  0.112  0.331  0.889-  70 1.86  85 1.87  73 1.87  34 1.87  37 1.87  40 1.89  16 2.78  28 2.79
                            10 2.79   7 2.80  22 2.80  31 2.80
  26  0.221  0.663  0.777-  54 1.86  75 1.87  78 1.87  69 1.87  39 1.88  72 1.88  23 2.79  32 2.79
                            17 2.79   8 2.79  29 2.80  11 2.81
  27  0.333  1.000  0.667-  74 1.87  80 1.87  59 1.87  53 1.87  56 1.91  77 1.91  30 2.79  24 2.79
                            18 2.80  15 2.80   9 2.80  12 2.80
  28  0.444  0.335  0.888-  73 1.87  79 1.87  43 1.87  40 1.87  46 1.87  76 1.89  25 2.79  31 2.79
                            19 2.79  16 2.79  10 2.80  13 2.80
  29  0.556  0.663  0.777-  60 1.86  75 1.87  78 1.87  81 1.87  45 1.88  84 1.88  20 2.79  32 2.79
                            17 2.79  14 2.79  26 2.80  11 2.81
  30  0.666  1.000  0.667-  65 1.86  86 1.87  62 1.87  83 1.87  80 1.90  59 1.90  12 2.79  18 2.79
                            27 2.79  21 2.79   6 2.79  24 2.80
  31  0.777  0.331  0.889-  82 1.86  85 1.87  79 1.87  34 1.87  49 1.87  46 1.89  19 2.78  28 2.79
                            13 2.79   7 2.80  22 2.80  25 2.80
  32  0.888  0.669  0.777-  81 1.86  69 1.86  66 1.86  84 1.88  72 1.88  33 1.90  29 2.79  26 2.79
                            20 2.79  23 2.79  14 2.80   8 2.80
  33  0.002  0.736  0.004-  14 1.88   8 1.88  32 1.90   2 2.10
  34  0.001  0.265  0.002-  25 1.87  31 1.87   7 1.87
  35  0.113  0.070  0.227-  15 1.88  18 1.88   6 1.90   4 2.11
  36  0.109  0.598  0.217-  14 1.87   8 1.87  17 1.90   1 2.12
  37  0.217  0.402  0.107-   7 1.86  25 1.87  10 1.89   1 2.10
  38  0.219  0.933  0.113-  18 1.87   6 1.87   9 1.88   2 2.11
  39  0.336  0.733  0.997-  11 1.87  26 1.88   8 1.89   5 2.10
  40  0.339  0.266  0.003-  28 1.87  10 1.88  25 1.89   3 2.11
  41  0.448  0.068  0.221-   9 1.87  21 1.88  18 1.88   3 2.11
  42  0.444  0.599  0.223-  11 1.86   8 1.86  20 1.87
  43  0.555  0.402  0.110-  28 1.87  10 1.87  13 1.87
  44  0.554  0.930  0.107-  12 1.88   9 1.88  21 1.90   5 2.10
  45  0.661  0.733  0.997-  11 1.87  29 1.88  14 1.89   5 2.10
  46  0.664  0.266  0.003-  28 1.87  13 1.88  31 1.89   3 2.11
  47  0.773  0.068  0.221-  12 1.87  21 1.88  15 1.88   3 2.11
  48  0.779  0.599  0.223-  11 1.86  14 1.86  23 1.87
  49  0.890  0.402  0.107-   7 1.86  31 1.87  13 1.89   1 2.10
  50  0.894  0.933  0.113-  15 1.87   6 1.87  12 1.88   2 2.11
  51  0.003  0.734  0.332-  14 1.87  17 1.88  23 1.89   2 2.12
  52  0.003  0.267  0.336-   7 1.87  16 1.87  13 1.90   4 2.12
  53  0.113  0.069  0.553-  15 1.86  27 1.87  24 1.90   4 2.11
  54  0.110  0.598  0.555-  26 1.86  17 1.86  23 1.87
  55  0.222  0.403  0.443-   7 1.87  19 1.88  16 1.88
  56  0.220  0.932  0.439-  18 1.87  15 1.87  27 1.91   2 2.11
  57  0.330  0.734  0.332-   8 1.87  17 1.88  20 1.89   2 2.12
  58  0.333  0.267  0.336-   7 1.87  19 1.87  10 1.90   4 2.12
  59  0.441  0.069  0.553-  18 1.86  27 1.87  30 1.90   4 2.11
  60  0.445  0.598  0.555-  29 1.86  17 1.86  20 1.87
  61  0.556  0.402  0.445-  19 1.86  10 1.86  22 1.87
  62  0.555  0.932  0.446-  21 1.86  18 1.87  30 1.87
  63  0.666  0.733  0.331-  23 1.87  20 1.87  11 1.87
  64  0.665  0.268  0.329-  13 1.87  10 1.87  22 1.89   3 2.12
  65  0.777  0.065  0.554-  24 1.86  30 1.86  21 1.87
  66  0.778  0.601  0.557-  20 1.86  23 1.86  32 1.86
  67  0.888  0.402  0.445-  16 1.86  13 1.86  22 1.87
  68  0.891  0.932  0.446-  21 1.86  15 1.87  24 1.87
  69  0.002  0.733  0.666-  32 1.86  23 1.87  26 1.87
  70  0.000  0.267  0.665-  25 1.86  16 1.87  22 1.87
  71  0.112  0.067  0.888-   6 1.86   9 1.87  24 1.87
  72  0.108  0.598  0.891-   8 1.87  32 1.88  26 1.88   1 2.09
  73  0.221  0.401  0.779-  16 1.86  28 1.87  25 1.87
  74  0.226  0.931  0.780-   9 1.87  27 1.87  24 1.90   5 2.12
  75  0.335  0.731  0.671-  26 1.87  29 1.87  17 1.90   5 2.13
  76  0.332  0.268  0.663-  19 1.87  16 1.87  28 1.89   4 2.11
  77  0.447  0.068  0.894-   9 1.87  12 1.87  27 1.91   3 2.12
  78  0.445  0.596  0.890-  26 1.87  29 1.87  11 1.87
  79  0.558  0.401  0.779-  19 1.86  28 1.87  31 1.87
  80  0.554  0.931  0.780-  12 1.87  27 1.87  30 1.90   5 2.12
  81  0.664  0.733  0.666-  32 1.86  20 1.87  29 1.87
  82  0.665  0.267  0.665-  31 1.86  19 1.87  22 1.87
  83  0.776  0.067  0.888-   6 1.86  12 1.87  30 1.87
  84  0.783  0.598  0.891-  14 1.87  32 1.88  29 1.88   1 2.09
  85  0.891  0.400  0.782-  31 1.87  25 1.87  22 1.89   1 2.10
  86  0.890  0.934  0.779-  24 1.87  30 1.87   6 1.87

  LATTYP: Found a base centered monoclinic cell.
 ALAT       =    14.5194125992
 B/A-ratio  =     0.5769761208
 C/A-ratio  =     1.3951850727
 COS(beta)  =    -0.6222604638

  Lattice vectors:

 A1 = (   4.1927468825,   7.2573513420,   0.0087923949)
 A2 = (   8.3814240484,   0.0023496438,   0.0087923949)
 A3 = ( -12.5884659175,  -7.2679541661, -14.1090135620)

Analysis of symmetry for initial positions (statically):
 Subroutine PRICEL returns:
 Original cell was already a primitive cell.

 Routine SETGRP: Setting up the symmetry group for a
 base centered monoclinic supercell.

 Subroutine GETGRP returns: Found  2 space group operations
 (whereof  2 operations were pure point group operations)
[...]
   -.880E+01 -.508E+01 -.381E+03   0.864E+01 0.499E+01 0.408E+03   0.151E+00 0.871E-01 -.270E+02   -.858E-03 -.495E-03 0.209E-01
   -.304E+02 -.176E+02 0.360E+03   0.333E+02 0.192E+02 -.382E+03   -.292E+01 -.169E+01 0.219E+02   0.505E-04 0.292E-04 -.171E-01
   -.705E+01 -.413E+02 -.347E+03   0.773E+01 0.440E+02 0.370E+03   -.690E+00 -.271E+01 -.229E+02   0.108E-01 -.752E-02 -.273E-01
   0.252E+02 -.248E+02 0.344E+03   -.280E+02 0.269E+02 -.366E+03   0.278E+01 -.209E+01 0.227E+02   0.182E-01 -.179E-01 0.104E-02
   -.134E+01 -.474E+02 -.352E+03   0.165E+01 0.508E+02 0.374E+03   -.316E+00 -.344E+01 -.227E+02   -.238E-02 0.175E-02 -.194E-01
   0.652E+01 -.456E+01 0.375E+03   -.723E+01 0.472E+01 -.403E+03   0.720E+00 -.135E+00 0.275E+02   -.108E-01 -.204E-01 0.272E-01
[...]
   0.336E+01 0.246E+00 -.373E+03   -.258E+01 -.403E+00 0.400E+03   -.781E+00 0.158E+00 -.274E+02   -.788E-02 -.111E-02 0.238E-01
   0.144E+01 0.450E+02 0.353E+03   -.169E+01 -.483E+02 -.375E+03   0.254E+00 0.325E+01 0.227E+02   0.222E-02 0.134E-02 -.138E-01
   0.278E+02 0.161E+02 -.344E+03   -.305E+02 -.176E+02 0.367E+03   0.272E+01 0.157E+01 -.226E+02   -.235E-01 -.136E-01 -.148E-01
   -.265E+02 -.153E+02 0.341E+03   0.290E+02 0.167E+02 -.364E+03   -.251E+01 -.145E+01 0.226E+02   -.543E-02 -.313E-02 0.626E-02
   0.288E+02 0.166E+02 -.358E+03   -.318E+02 -.183E+02 0.379E+03   0.294E+01 0.170E+01 -.217E+02   0.416E-02 0.240E-02 -.220E-01
   0.379E+00 0.219E+00 0.383E+03   -.275E+00 -.159E+00 -.410E+03   -.981E-01 -.566E-01 0.270E+02   -.284E-02 -.164E-02 0.136E-01
   0.189E+01 0.279E+01 -.373E+03   -.164E+01 -.203E+01 0.400E+03   -.254E+00 -.755E+00 -.274E+02   -.490E-02 -.627E-02 0.238E-01
   0.397E+02 -.213E+02 0.353E+03   -.426E+02 0.227E+02 -.375E+03   0.295E+01 -.141E+01 0.227E+02   0.227E-02 0.125E-02 -.138E-01
   0.961E+01 0.800E+00 -.376E+03   -.913E+01 -.160E+01 0.403E+03   -.471E+00 0.809E+00 -.270E+02   -.126E-01 -.915E-02 -.538E-02
   0.768E+01 -.827E+01 0.376E+03   -.836E+01 0.803E+01 -.403E+03   0.664E+00 0.239E+00 0.271E+02   0.197E-01 -.992E-02 -.105E-01
   0.162E+02 0.105E+01 -.378E+03   -.164E+02 -.172E+01 0.405E+03   0.290E+00 0.679E+00 -.272E+02   -.679E-03 -.164E-01 -.125E-01
   0.812E+01 0.346E+02 0.346E+03   -.847E+01 -.368E+02 -.369E+03   0.341E+00 0.219E+01 0.228E+02   0.835E-02 0.621E-02 0.163E-01
   0.375E+02 0.216E+02 -.342E+03   -.400E+02 -.231E+02 0.365E+03   0.256E+01 0.148E+01 -.229E+02   0.168E-01 0.971E-02 0.325E-01
   0.103E+02 0.596E+01 0.373E+03   -.101E+02 -.584E+01 -.400E+03   -.184E+00 -.106E+00 0.266E+02   -.167E-01 -.962E-02 -.223E-01
   0.626E-01 0.361E-01 -.119E+00   0.142E-13 0.301E-12 -.284E-12   -.720E-01 -.416E-01 0.150E+00   0.127E-02 0.736E-03 -.715E-02

 POSITION                                       TOTAL-FORCE (eV/Angst)
      4.18296      7.25100      7.05200        -0.003415     -0.001971      0.003292
      1.40470      0.81100     11.74454        -0.002171     -0.001253     -0.010240
     -1.38217      4.03798      2.35477         0.003067      0.001771      0.005526
      2.80849      1.62148      2.37473         0.002243      0.001295     -0.005050
      5.60861      3.23813     11.73301        -0.000262     -0.000151      0.007604
      4.18948      7.25477      0.05126        -0.000962     -0.000555      0.000713
      1.40053      0.80860      4.71113         0.000152      0.000088      0.007685
      0.00478      1.62689      9.39653         0.000236      0.001589     -0.007634
     -1.37376      2.41714     14.08124         0.001752     -0.005801      0.003036
      0.01030      3.22470      4.74093        -0.004001      0.004765      0.003535
     -1.38068      4.03884      9.35392        -0.000060     -0.000035     -0.004580
     -2.78165      4.85568     14.08124        -0.004148      0.004418      0.003036
     -1.39025      5.65053      4.74093         0.002126     -0.005848      0.003535
     -2.77676      6.44466      9.39653         0.001494     -0.000590     -0.007634
     -1.38837      7.24561      0.01746         0.005364     -0.001092     -0.003348
      4.20227      0.80494      4.74418         0.005180     -0.004051      0.005413
      2.80907      1.62182      9.35824         0.000616      0.000356     -0.009072
      1.39262      2.42879      0.01746         0.001736      0.005191     -0.003348
      2.79823      3.23680      4.74418        -0.000918      0.006511      0.005413
      1.40939      4.03367      9.40046         0.001138      0.002439     -0.008146
      0.02445      4.85009     14.05520         0.001365      0.000788      0.002371
      1.40239      5.64564      4.71443        -0.004172     -0.002409      0.002214
      0.00988      6.45770      9.40046         0.002681     -0.000233     -0.008146
      5.60097      0.01549     14.09923         0.003999     -0.004557      0.000277
      6.98575      0.81561      4.67556        -0.004442      0.002106      0.009689
      5.59819      1.61410      9.34877        -0.005433     -0.001153     -0.002724
      4.20633      2.42853     14.09928        -0.000228     -0.000132      0.001405
      5.59030      3.22756      4.73450         0.003292      0.001901      0.003198
      4.19694      4.04113      9.34877        -0.003715     -0.004128     -0.002724
      2.81390      4.84284     14.09923        -0.001947      0.005742      0.000277
      4.19922      5.64203      4.67556        -0.000397     -0.004900      0.009689
      2.80148      6.45341      9.43460        -0.004366     -0.002521     -0.006232
      0.03579      0.02067     10.36876        -0.002382     -0.001375     -0.000314
      0.01472      0.00850      3.73477         0.005423      0.003131      0.001611
      1.42579      0.82318      0.99198        -0.000763     -0.000440      0.004368
      1.37310      0.79276      8.42683        -0.001669     -0.000964     -0.000012
     -0.00410      1.57651      5.66482         0.000188     -0.004475      0.003746
      0.04372      1.59922     13.14620         0.004395      0.002788      0.002056
      6.96167      2.44506     10.33636         0.001567     -0.001808     -0.004151
     -1.38813      2.46011      3.75060         0.001337     -0.001212      0.004296
     -0.02227      3.24867      0.95433         0.001949     -0.004376     -0.002149
      0.02000      3.22855      8.44092        -0.004157     -0.002317     -0.004575
     -1.39599      4.03000      5.67185        -0.001989     -0.001148      0.004903
     -1.40612      4.02415     13.10865         0.004771      0.002755     -0.000690
      5.59832      4.80645     10.33636        -0.000782      0.002261     -0.004151
     -2.75162      4.82175      3.75060        -0.000381      0.001764      0.004296
     -1.38578      5.61034      0.95433        -0.002815      0.003876     -0.002149
     -1.38207      5.65700      8.44092        -0.004085     -0.002441     -0.004575
     -2.82483      6.46216      5.66482        -0.003782      0.002400      0.003746
     -2.78125      6.49221     13.14620         0.004611      0.002412      0.002056
      2.78458      0.02559     10.34550        -0.002349     -0.001044     -0.006882
      2.80737      0.02723      3.76650        -0.001045      0.001969      0.004740
      4.16813      0.81946      0.97225        -0.002946     -0.001230     -0.002729
      4.20211      0.80252      8.43031         0.000040      0.003041     -0.002681
      2.79156      1.61171      5.67802        -0.007004     -0.004043      0.003315
      2.77556      1.60247     13.14396        -0.004701     -0.002714      0.002285
      1.41445      2.39872     10.34550        -0.002079     -0.001513     -0.006882
      1.42727      2.41764      3.76650         0.001183     -0.001890      0.004740
      2.79374      3.19998      0.97225        -0.002538     -0.001936     -0.002729
      2.79606      3.23787      8.43031         0.002654     -0.001486     -0.002681
[...]
      7.02286      0.78964      8.43870         0.004488      0.001581     -0.003531
      5.60733      1.60841      5.66032        -0.000636     -0.000515      0.001932
      5.60343      1.64797     13.13393         0.002721      0.000713      0.004490
      4.23002      2.44220     10.31001         0.000772      0.000446     -0.007724
      4.17449      2.41014      3.77691         0.004104      0.002369      0.004346
      5.62194      3.24583      0.96435         0.004826      0.002786     -0.006747
      5.60352      3.23519      8.41004         0.003309      0.001911     -0.008479
      4.19659      4.05189      5.66032        -0.000764     -0.000293      0.001932
      4.22890      4.02872     13.13393         0.001978      0.002000      0.004490
      2.81388      4.82667     10.34006         0.001468     -0.003801     -0.007762
      2.79370      4.82834      3.76660         0.004490     -0.003265      0.009245
      4.19071      5.63397      0.95988         0.004635     -0.001285     -0.002892
      4.19528      5.68716      8.43870         0.003613      0.003096     -0.003531
      2.83062      6.47023      5.64061         0.004726      0.002729      0.001856
      2.82154      6.46499     13.17651         0.008397      0.004848      0.003635
    total drift:                               -0.008130     -0.004741      0.024020

  FREE ENERGIE OF THE ION-ELECTRON SYSTEM (eV)
  free  energy   TOTEN  =      -534.5034757147 eV

  energy  without entropy=     -534.4609411427  energy(sigma->0) =     -534.48220843

 d Force = 0.1608224E-03[ 0.795E-04, 0.242E-03]  d Energy = 0.6163515E-03-0.456E-03
 d Force = 0.2476677E+01[ 0.248E+01, 0.248E+01]  d Ewald  =-0.4337160E+01 0.681E+01

 Quasi-Newton relaxation of ions (Broydens 2nd method)
  g(Force)  = 0.193E-03   g(Stress)= 0.285E-03

 retain information from N=  1 steps
 eigenvalues of (default step * inverse Hessian matrix)
  average eigenvalue of G=   0.4962
 eigenvalue spectrum of G is  0.4962

 reached required accuracy - stopping structural energy minimisation

volume of typ            1:     4.5 %

[...]

volume of typ            3:    10.3 %

total charge

# of ion       s       p       d       tot
    1        2.072   0.235   0.093   2.400
    2        2.069   0.227   0.089   2.386
    3        2.069   0.226   0.088   2.383
    4        2.068   0.225   0.088   2.382
    5        2.069   0.225   0.088   2.382
    6        0.297   0.413   7.827   8.537
    7        0.302   0.424   7.831   8.556
    8        0.297   0.415   7.831   8.543
    9        0.297   0.414   7.832   8.543
   10        0.293   0.405   7.828   8.526
   11        0.302   0.424   7.824   8.549
   12        0.297   0.414   7.832   8.543
   13        0.293   0.405   7.828   8.526
   14        0.297   0.415   7.831   8.543
   15        0.298   0.416   7.832   8.545
   16        0.301   0.422   7.824   8.547
   17        0.292   0.403   7.827   8.521
   18        0.298   0.416   7.832   8.545
   19        0.301   0.422   7.824   8.547
   20        0.297   0.414   7.819   8.530
   21        0.297   0.412   7.827   8.536
   22        0.292   0.405   7.823   8.520
   23        0.297   0.414   7.819   8.530
   24        0.293   0.405   7.822   8.520
   25        0.297   0.415   7.825   8.537
   26        0.298   0.415   7.825   8.538
   27        0.291   0.402   7.837   8.529
   28        0.297   0.413   7.825   8.536
   29        0.298   0.415   7.825   8.538
   30        0.293   0.405   7.822   8.520
   31        0.297   0.415   7.825   8.537
   32        0.297   0.412   7.826   8.535
   33        1.275   2.751   0.007   4.033
   34        1.286   2.721   0.008   4.014
   35        1.276   2.749   0.007   4.032
   36        1.278   2.743   0.007   4.029
   37        1.275   2.753   0.007   4.036
   38        1.274   2.756   0.007   4.038
   39        1.275   2.755   0.007   4.037
   40        1.275   2.753   0.007   4.036
   41        1.275   2.755   0.007   4.037
   42        1.286   2.722   0.008   4.016
   43        1.289   2.712   0.008   4.009
   44        1.275   2.750   0.007   4.033
   45        1.275   2.755   0.007   4.037
   46        1.275   2.753   0.007   4.036
   47        1.275   2.755   0.007   4.037
   48        1.286   2.722   0.008   4.016
   49        1.275   2.753   0.007   4.036
   50        1.274   2.756   0.007   4.038
   51        1.275   2.753   0.007   4.035
   52        1.275   2.753   0.007   4.036
   53        1.275   2.754   0.007   4.036
   54        1.286   2.721   0.008   4.016
   55        1.286   2.719   0.008   4.013
   56        1.278   2.745   0.007   4.030
   57        1.275   2.753   0.007   4.035
   58        1.275   2.753   0.007   4.036
   59        1.275   2.754   0.007   4.036
   60        1.286   2.721   0.008   4.016
[...]
   72        1.275   2.754   0.007   4.037
   73        1.286   2.722   0.008   4.016
   74        1.275   2.753   0.007   4.035
   75        1.277   2.747   0.007   4.032
   76        1.275   2.753   0.007   4.035
   77        1.278   2.744   0.007   4.029
   78        1.287   2.718   0.008   4.012
   79        1.286   2.722   0.008   4.016
   80        1.275   2.753   0.007   4.035
   81        1.286   2.721   0.008   4.016
   82        1.286   2.722   0.008   4.016
   83        1.285   2.724   0.008   4.017
   84        1.275   2.754   0.007   4.037
   85        1.277   2.747   0.007   4.031
   86        1.288   2.715   0.008   4.012
tot          87.49  160.14  212.18  459.81

magnetization (x)

# of ion       s       p       d       tot
    1        0.005   0.006  -0.000   0.010
    2        0.004   0.004  -0.000   0.008
    3        0.005   0.006  -0.000   0.011
    4        0.004   0.004  -0.000   0.008
    5        0.005   0.004  -0.000   0.009
    6       -0.000  -0.000   0.127   0.126
    7       -0.000  -0.000   0.108   0.107
    8       -0.000  -0.000   0.144   0.143
    9       -0.000  -0.000   0.157   0.157
   10       -0.000  -0.000   0.162   0.162
   11       -0.000  -0.000   0.071   0.071
   12       -0.000  -0.000   0.157   0.157
   13       -0.000  -0.000   0.162   0.162
   14       -0.000  -0.000   0.144   0.143
   15       -0.000  -0.000   0.143   0.142
   16       -0.000  -0.000   0.080   0.080
   17       -0.000  -0.000   0.193   0.193
   18       -0.000  -0.000   0.143   0.142
   19       -0.000  -0.000   0.080   0.080
   20       -0.000  -0.000   0.080   0.080
   21       -0.000  -0.000   0.134   0.133
   22       -0.000  -0.000   0.153   0.152
   23       -0.000  -0.000   0.080   0.080
   24       -0.000  -0.000   0.138   0.137
   25       -0.000  -0.000   0.108   0.108
   26       -0.000  -0.000   0.116   0.116
   27       -0.000  -0.000   0.265   0.264
   28       -0.000  -0.000   0.109   0.109
   29       -0.000  -0.000   0.116   0.116
   30       -0.000  -0.000   0.138   0.137
   31       -0.000  -0.000   0.108   0.108
   32       -0.000  -0.000   0.122   0.122
   33        0.003   0.007   0.000   0.010
   34        0.002   0.004   0.000   0.005
   35        0.003   0.015   0.000   0.018
   36        0.006   0.035   0.000   0.040
   37        0.004   0.011   0.000   0.014
   38        0.003   0.010   0.000   0.013
   39        0.003   0.008   0.000   0.011
   40        0.003   0.006   0.000   0.009
   41        0.004   0.011   0.000   0.014
   42        0.002   0.007   0.000   0.009
   43        0.003   0.029   0.000   0.033
   44        0.003   0.014   0.000   0.018
   45        0.003   0.008   0.000   0.011
   46        0.003   0.006   0.000   0.009
   47        0.004   0.011   0.000   0.014
   48        0.002   0.007   0.000   0.009
   49        0.004   0.011   0.000   0.014
   50        0.003   0.010   0.000   0.013
   51        0.003   0.009   0.000   0.012
   52        0.003   0.010   0.000   0.014
   53        0.004   0.015   0.000   0.019
   54        0.002   0.012   0.000   0.014
   55        0.002   0.007   0.000   0.008
   56        0.006   0.034   0.000   0.041
   57        0.003   0.009   0.000   0.012
   58        0.003   0.010   0.000   0.014
   59        0.004   0.015   0.000   0.019
   60        0.002   0.012   0.000   0.014
[...]
   72        0.003   0.010   0.000   0.014
   73        0.002   0.009   0.000   0.011
   74        0.004   0.015   0.000   0.019
   75        0.005   0.027   0.000   0.033
   76        0.003   0.007   0.000   0.010
   77        0.007   0.041   0.000   0.048
   78        0.002   0.007   0.000   0.009
   79        0.002   0.009   0.000   0.011
   80        0.004   0.015   0.000   0.019
   81        0.002   0.009   0.000   0.011
   82        0.002   0.008   0.000   0.010
   83        0.002   0.009   0.000   0.011
   84        0.003   0.010   0.000   0.014
   85        0.005   0.024   0.000   0.029
   86        0.004   0.040   0.000   0.045
tot           0.19    0.75    3.54    4.47