 vasp.5.4.4.18Apr17-6-g9f103f2a35 (build May 12 2020 05:39:39) gamma-only

 MD_VERSION_INFO: Compiled 2020-05-12T12:39:39-UTC in devlin.sd.materialsdesign.
 com:/home/medea2/data/build/wwolf/vasp-gpu5.4.4/13047/x86_64/src/src/build/gam
 from svn 13047

 executed on                        Lin64 date 2023.01.19  21:57:28

 INCAR:
 POTCAR:    PAW_PBE Li_sv 10Sep2004
 POTCAR:    PAW_PBE Ni 02Aug2007
 POTCAR:    PAW_PBE O 08Apr2002

 POTCAR:    PAW_PBE Li_sv 10Sep2004

 POTCAR:    PAW_PBE Ni 02Aug2007

 POTCAR:    PAW_PBE O 08Apr2002

 Optimization of the real space projectors (new method)

 maximal supplied QI-value         = 22.11
 optimisation between [QCUT,QGAM] = [ 11.28, 22.77] = [ 35.61,145.23] Ry
 Optimized for a Real-space Cutoff    1.10 Angstroem

   l    n(q)    QCUT    max X(q) W(low)/X(q) W(high)/X(q)  e(spline)
   0      7    11.276    10.506    0.54E-04    0.58E-04    0.16E-07
   0      7    11.276     8.367    0.11E-03    0.14E-03    0.35E-07
   1      7    11.276     8.983    0.23E-03    0.43E-03    0.86E-07
 Optimization of the real space projectors (new method)

[...]

   l    n(q)    QCUT    max X(q) W(low)/X(q) W(high)/X(q)  e(spline)
   2      9    11.376    60.317    0.17E-03    0.16E-04    0.16E-06
   2      9    11.376    55.921    0.17E-03    0.16E-04    0.17E-06
   0     10    11.376    51.690    0.45E-04    0.60E-04    0.21E-06
   0     10    11.376    30.015    0.37E-04    0.55E-04    0.19E-06
   1     10    11.376    18.849    0.83E-04    0.11E-03    0.92E-07
   1     10    11.376    14.624    0.69E-04    0.92E-04    0.82E-07
 Optimization of the real space projectors (new method)

 maximal supplied QI-value         = 24.76
 optimisation between [QCUT,QGAM] = [ 11.39, 22.77] = [ 36.31,145.25] Ry
 Optimized for a Real-space Cutoff    1.10 Angstroem

   l    n(q)    QCUT    max X(q) W(low)/X(q) W(high)/X(q)  e(spline)
   0      7    11.387    20.381    0.22E-03    0.48E-03    0.18E-06
   0      7    11.387    15.268    0.22E-03    0.52E-03    0.19E-06
   1      7    11.387     5.964    0.22E-03    0.73E-03    0.24E-06
   1      7    11.387     5.382    0.19E-03    0.60E-03    0.21E-06

  PAW_PBE Li_sv 10Sep2004               :
  PAW_PBE Ni 02Aug2007                  :
  PAW_PBE O 08Apr2002                   :

 POSCAR: ce213062_1
  positions in direct lattice
 exchange correlation table for  LEXCH =       14
   RHO(1)=    0.500       N(1)  =     2000
   RHO(2)=  100.500       N(2)  =     4000

 ion  position               nearest neighbor table
   1  0.976  0.500  0.975-  95 1.98  94 1.99  82 2.13  59 2.13  46 2.24  47 2.28  41 2.78  42 2.78

   2  0.084  0.833  0.196-  60 2.00  43 2.01  61 2.09  48 2.12  67 2.28  16 2.74  24 2.76
   3  0.222  0.165  0.112-  51 2.09  45 2.10  44 2.10  81 2.11  50 2.12  68 2.15
   4  0.334  0.500  0.001-  88 2.08  53 2.09  47 2.11  83 2.12  82 2.12  52 2.13
   5  0.445  0.833  0.221-  49 2.08  48 2.11  73 2.11  67 2.11  54 2.12  72 2.14
   6  0.556  0.166  0.089-  56 2.02  87 2.02  57 2.11  50 2.12  74 2.21  51 2.23  38 2.78  22 2.78

[...]

  10  0.666  0.500  0.360-  71 2.00  76 2.01  52 2.09  77 2.12  58 2.28  32 2.74  30 2.76
  11  0.778  0.833  0.580-  96 1.98  91 1.99  79 2.13  72 2.13  73 2.24  78 2.28  40 2.78  42 2.78

  12  0.888  0.169  0.444-  62 2.09  74 2.10  75 2.10  80 2.11  63 2.12  57 2.15
  13  0.357  0.501  0.666-  70 2.00  89 2.02  65 2.08  88 2.11  64 2.27  39 2.76  29 2.78
  14  0.469  0.832  0.889-  55 2.00  90 2.02  54 2.08  85 2.11  49 2.27  39 2.76  22 2.78
  15  0.861  0.167  0.778-  92 2.02  93 2.02  44 2.08  75 2.08  41 2.77  40 2.77
  16  0.001  0.998  0.003-  60 1.86  81 1.88  93 1.88  48 1.92  96 1.95  45 1.97   2 2.74  19 2.80
                            25 2.81  22 2.82  28 2.83  34 2.84  40 2.85
  17  0.112  0.333  0.223-  68 1.86  59 1.86  62 1.93  47 1.94  44 1.99  65 1.99  20 2.81  23 2.81
                            29 2.81  41 2.82  35 2.85  26 2.85
  18  0.223  0.665  0.112-  67 1.87  82 1.87  49 1.91  43 1.91  46 1.92  52 1.95  27 2.80  36 2.81
                            30 2.82  42 2.83  21 2.83  24 2.84
  19  0.329  0.998  0.996-  51 1.87  54 1.87  87 1.89  84 1.89  81 1.90  48 1.93  34 2.77  16 2.80
                            37 2.81  22 2.84  28 2.85  31 2.85
  20  0.443  0.331  0.222-  71 1.87  50 1.88  53 1.88  47 1.91  74 1.91  68 1.91  17 2.81  32 2.81
                            29 2.82  38 2.82  35 2.82  23 2.85
  21  0.559  0.665  0.113-  49 1.87  55 1.87  52 1.88  58 1.89  73 1.95  88 1.95  24 2.78  33 2.80
                            39 2.82  18 2.83  30 2.84  36 2.86
  22  0.667  0.999  0.000-  90 1.88  87 1.89  93 1.90  60 1.91  54 1.91  57 1.92  14 2.78   6 2.78
                            31 2.81  25 2.82  16 2.82  37 2.84  19 2.84  40 2.84
  23  0.778  0.335  0.219-  56 1.87  74 1.87  77 1.88  59 1.90  53 1.95  62 1.95  41 2.78  17 2.81
                            38 2.82  32 2.83  20 2.85  26 2.85
  24  0.886  0.668  0.109-  94 1.87  46 1.88  43 1.88  55 1.89  61 1.92  58 1.92   2 2.76  21 2.78
                            39 2.81  42 2.82  33 2.82  18 2.84  27 2.84
  25  0.999  0.002  0.334-  60 1.87  63 1.88  66 1.88  78 1.91  45 1.91  57 1.91  31 2.81  16 2.81
                            22 2.82  37 2.82  34 2.82  28 2.85
  26  0.111  0.335  0.560-  62 1.87  65 1.87  86 1.89  83 1.89  80 1.90  77 1.93  35 2.77  32 2.80
                            38 2.81  29 2.84  23 2.85  17 2.85
  27  0.224  0.669  0.442-  64 1.87  70 1.87  61 1.88  67 1.89  46 1.95  85 1.95  30 2.78  18 2.80
                            39 2.82  33 2.83  24 2.84  36 2.86
  28  0.337  0.999  0.336-  69 1.87  45 1.87  48 1.88  72 1.90  66 1.95  51 1.95  40 2.78  31 2.81
                            37 2.82  16 2.83  25 2.85  19 2.85
  29  0.445  0.334  0.555-  89 1.88  86 1.89  92 1.90  71 1.91  65 1.91  68 1.92  13 2.78   9 2.78
                            17 2.81  20 2.82  32 2.82  38 2.84  26 2.84  41 2.84
  30  0.555  0.665  0.447-  91 1.87  73 1.88  76 1.88  70 1.89  52 1.92  67 1.92  10 2.76  27 2.78
                            39 2.81  42 2.82  18 2.82  33 2.84  21 2.84
  31  0.667  0.001  0.332-  57 1.86  72 1.86  51 1.93  78 1.94  75 1.99  54 1.99  25 2.81  28 2.81
                            22 2.81  40 2.82  34 2.85  19 2.85
  32  0.776  0.335  0.553-  71 1.86  80 1.88  92 1.88  77 1.92  95 1.95  74 1.97  10 2.74  26 2.80
                            20 2.81  29 2.82  23 2.83  35 2.84  41 2.85
  33  0.889  0.668  0.444-  58 1.87  79 1.87  64 1.91  76 1.91  73 1.92  61 1.95  21 2.80  36 2.81
                            24 2.82  42 2.83  27 2.83  30 2.84
  34  0.003  0.002  0.669-  75 1.86  96 1.87  78 1.87  84 1.89  81 1.90  63 1.92  19 2.77  37 2.80
                            25 2.82  40 2.84  16 2.84  31 2.85
  35  0.112  0.331  0.887-  44 1.86  95 1.87  47 1.87  83 1.89  80 1.90  50 1.92  26 2.77  38 2.80
                            20 2.82  41 2.84  32 2.84  17 2.85
  36  0.219  0.667  0.778-  85 1.87  88 1.87  79 1.90  82 1.90  49 1.96  64 1.96  42 2.78  18 2.81
                            33 2.81  39 2.83  21 2.86  27 2.86
  37  0.332  0.001  0.666-  69 1.87  84 1.88  90 1.88  87 1.90  66 1.90  63 1.92   9 2.78  34 2.80
                            19 2.81  28 2.82  25 2.82  40 2.83  22 2.84
  38  0.444  0.332  0.889-  56 1.87  83 1.88  89 1.88  86 1.90  53 1.90  50 1.92   6 2.78  35 2.80
                            26 2.81  23 2.82  20 2.82  41 2.83  29 2.84
  39  0.554  0.667  0.778-  55 1.86  70 1.86  91 1.94  94 1.94  85 1.95  88 1.95  14 2.76  13 2.76
                            24 2.81  30 2.81  21 2.82  27 2.82  36 2.83  42 2.85
  40  0.666  1.000  0.664-  96 1.87  93 1.88  69 1.90  72 1.91  90 1.92  75 1.95  15 2.77  11 2.78
                            28 2.78  31 2.82  37 2.83  34 2.84  22 2.84  16 2.85
  41  0.779  0.334  0.891-  95 1.87  92 1.88  56 1.90  59 1.91  89 1.92  44 1.95  15 2.77   1 2.78
                            23 2.78  17 2.82  38 2.83  35 2.84  29 2.84  32 2.85
  42  0.890  0.667  0.778-  91 1.87  94 1.87  43 1.89  76 1.89  79 1.91  82 1.91  11 2.78   1 2.78
                            36 2.78  24 2.82  30 2.82  18 2.83  33 2.83  39 2.85
  43  1.000  0.734  0.000-  24 1.88  42 1.89  18 1.91   2 2.01
  44  0.003  0.260  0.991-  35 1.86  41 1.95  17 1.99  15 2.08   3 2.10
  45  0.122  0.070  0.232-  28 1.87  25 1.91  16 1.97   3 2.10   9 2.21
  46  0.102  0.597  0.216-  24 1.88  18 1.92  27 1.95   7 2.11   1 2.24
  47  0.221  0.401  0.103-  35 1.87  20 1.91  17 1.94   4 2.11   1 2.28
  48  0.226  0.929  0.119-  28 1.88  16 1.92  19 1.93   5 2.11   2 2.12
  49  0.344  0.735  0.010-  21 1.87  18 1.91  36 1.96   5 2.08  14 2.27
  50  0.336  0.261  0.005-  20 1.88  35 1.92  38 1.92   6 2.12   3 2.12
  51  0.439  0.069  0.210-  19 1.87  31 1.93  28 1.95   3 2.09   6 2.23
  52  0.452  0.595  0.224-  21 1.88  30 1.92  18 1.95  10 2.09   4 2.13
  53  0.547  0.403  0.109-  20 1.88  38 1.90  23 1.95   4 2.09
  54  0.546  0.928  0.100-  19 1.87  22 1.91  31 1.99  14 2.08   5 2.12
  55  0.661  0.732  0.996-  39 1.86  21 1.87  24 1.89  14 2.00
  56  0.665  0.267  0.002-  38 1.87  23 1.87  41 1.90   6 2.02
  57  0.773  0.070  0.223-  31 1.86  25 1.91  22 1.92   6 2.11  12 2.15
  58  0.783  0.598  0.229-  33 1.87  21 1.89  24 1.92   7 2.11  10 2.28
  59  0.898  0.402  0.115-  17 1.86  23 1.90  41 1.91   1 2.13   7 2.14
  60  0.894  0.933  0.117-  16 1.86  25 1.87  22 1.91   2 2.00
  61  0.005  0.738  0.331-  27 1.88  24 1.92  33 1.95   2 2.09   8 2.13
  62  0.006  0.264  0.345-  26 1.87  17 1.93  23 1.95  12 2.09   9 2.23
  63  0.109  0.072  0.551-  25 1.88  34 1.92  37 1.92   9 2.12  12 2.12
  64  0.112  0.598  0.546-  27 1.87  33 1.91  36 1.96   7 2.08  13 2.27
  65  0.223  0.405  0.455-  26 1.87  29 1.91  17 1.99  13 2.08   7 2.12
  66  0.216  0.931  0.446-  25 1.88  37 1.90  28 1.95   8 2.09
  67  0.332  0.736  0.327-  18 1.87  27 1.89  30 1.92   5 2.11   2 2.28
  68  0.327  0.264  0.332-  17 1.86  20 1.91  29 1.92   9 2.11   3 2.15
  69  0.441  0.067  0.554-  37 1.87  28 1.87  40 1.90   9 2.02
  70  0.443  0.601  0.560-  39 1.86  27 1.87  30 1.89  13 2.00
  71  0.555  0.400  0.439-  32 1.86  20 1.87  29 1.91  10 2.00
  72  0.561  0.931  0.441-  31 1.86  28 1.90  40 1.91  11 2.13   5 2.14
  73  0.664  0.736  0.339-  30 1.88  33 1.92  21 1.95   5 2.11  11 2.24
  74  0.668  0.263  0.324-  23 1.87  20 1.91  32 1.97  12 2.10   6 2.21
  75  0.789  0.073  0.564-  34 1.86  40 1.95  31 1.99  15 2.08  12 2.10
  76  0.777  0.599  0.555-  30 1.88  42 1.89  33 1.91  10 2.01
  77  0.885  0.405  0.437-  23 1.88  32 1.92  26 1.93   7 2.11  10 2.12
  78  0.896  0.932  0.453-  34 1.87  25 1.91  31 1.94   8 2.11  11 2.28
  79  0.997  0.736  0.661-  33 1.87  36 1.90  42 1.91   8 2.12  11 2.13
  80  0.994  0.265  0.662-  32 1.88  26 1.90  35 1.90  12 2.11
  81  0.109  0.068  0.893-  16 1.88  19 1.90  34 1.90   3 2.11
  82  0.114  0.597  0.895-  18 1.87  36 1.90  42 1.91   4 2.12   1 2.13
  83  0.227  0.402  0.783-  38 1.88  35 1.89  26 1.89   4 2.12
  84  0.222  0.931  0.773-  37 1.88  34 1.89  19 1.89   8 2.12
  85  0.326  0.738  0.671-  36 1.87  27 1.95  39 1.95   8 2.08  14 2.11
  86  0.332  0.266  0.664-  26 1.89  29 1.89  38 1.90   9 2.02
[...]
   0.171E+01 -.524E+02 0.321E+03   -.280E+00 0.566E+02 -.335E+03   -.143E+01 -.422E+01 0.150E+02   -.143E-01 -.819E-02 0.278E-02
   0.159E+02 -.352E+02 -.335E+03   -.159E+02 0.381E+02 0.356E+03   -.478E-01 -.285E+01 -.207E+02   0.819E-02 0.195E-01 0.348E-02
   0.463E+02 -.204E+02 0.338E+03   -.492E+02 0.224E+02 -.359E+03   0.295E+01 -.201E+01 0.211E+02   -.492E-01 -.299E-02 -.301E-02
   0.400E+02 -.930E+01 -.314E+03   -.424E+02 0.104E+02 0.332E+03   0.236E+01 -.108E+01 -.181E+02   -.909E-02 -.148E-01 -.147E-02
   0.315E+02 0.188E+02 0.320E+03   -.332E+02 -.201E+02 -.340E+03   0.172E+01 0.135E+01 0.192E+02   0.866E-02 0.135E-01 0.195E-01
   0.144E+02 0.369E+02 -.315E+03   -.148E+02 -.391E+02 0.333E+03   0.428E+00 0.219E+01 -.180E+02   -.406E-01 -.821E-03 0.846E-02
   0.803E+01 0.505E+02 0.335E+03   -.742E+01 -.543E+02 -.355E+03   -.600E+00 0.386E+01 0.205E+02   -.120E-01 -.252E-01 -.135E-01
[...]
   0.629E+01 0.248E+02 -.324E+03   -.695E+01 -.267E+02 0.343E+03   0.666E+00 0.191E+01 -.193E+02   -.594E-02 -.120E-01 -.106E-01
   -.246E+02 0.695E+01 0.324E+03   0.266E+02 -.733E+01 -.343E+03   -.199E+01 0.378E+00 0.193E+02   0.134E-01 -.862E-03 0.106E-01
   0.312E+02 -.379E+02 -.318E+03   -.337E+02 0.396E+02 0.332E+03   0.255E+01 -.168E+01 -.143E+02   -.118E-01 -.362E-03 0.144E-01
   -.262E+02 -.329E+02 0.345E+03   0.292E+02 0.344E+02 -.363E+03   -.299E+01 -.155E+01 0.180E+02   0.465E-03 0.101E-02 0.136E-01
   0.416E+02 0.624E+01 -.345E+03   -.444E+02 -.804E+01 0.363E+03   0.284E+01 0.181E+01 -.180E+02   -.111E-02 0.102E-03 -.136E-01
   0.173E+02 -.459E+02 0.318E+03   -.175E+02 0.490E+02 -.332E+03   0.176E+00 -.305E+01 0.143E+02   0.620E-02 0.100E-01 -.144E-01
   0.671E+01 -.450E+02 -.335E+03   -.633E+01 0.482E+02 0.353E+03   -.373E+00 -.327E+01 -.181E+02   -.120E-01 0.143E-01 -.157E-01
   0.356E+02 -.283E+02 0.335E+03   -.386E+02 0.296E+02 -.353E+03   0.302E+01 -.131E+01 0.181E+02   -.638E-02 0.175E-01 0.157E-01
   -.504E+02 0.181E+02 -.331E+03   0.543E+02 -.203E+02 0.349E+03   -.391E+01 0.217E+01 -.180E+02   -.154E-01 -.477E-02 0.502E-02
   -.587E+01 0.407E+02 0.329E+03   0.557E+01 -.436E+02 -.347E+03   0.273E+00 0.294E+01 0.178E+02   0.317E-01 0.652E-02 0.124E-01
   -.323E+02 0.254E+02 -.329E+03   0.350E+02 -.266E+02 0.347E+03   -.268E+01 0.123E+01 -.178E+02   -.215E-01 -.242E-01 -.124E-01
   0.953E+01 0.527E+02 0.331E+03   -.962E+01 -.572E+02 -.349E+03   0.796E-01 0.447E+01 0.180E+02   0.118E-01 0.109E-01 -.502E-02
   0.331E+02 0.357E+02 -.346E+03   -.373E+02 -.379E+02 0.364E+03   0.426E+01 0.217E+01 -.175E+02   0.223E-01 -.730E-03 -.150E-01
   -.475E+02 -.108E+02 0.346E+03   0.515E+02 0.134E+02 -.364E+03   -.401E+01 -.261E+01 0.175E+02   -.105E-01 -.197E-01 0.150E-01
   -.217E+00 0.378E+00 -.164E-02   0.405E-12 0.229E-12 0.625E-12   0.216E+00 -.373E+00 0.654E-11   0.748E-02 -.129E-01 0.188E-06

 POSITION                                       TOTAL-FORCE (eV/Angst)
      4.15282      7.14386      7.16072        -0.001533     -0.009371      0.000284
      1.30619      0.62500     11.93490         0.012457      0.008364      0.009277
      0.01461      1.62126      2.36116         0.000964     -0.002112     -0.000262
     -1.40370      2.44891      7.14472        -0.007644     -0.004852     -0.003543
     -0.00623      3.26569     11.91915        -0.006596     -0.001932     -0.000193
     -1.60480      4.06840      2.37869        -0.005301     -0.000688      0.000746
      2.83092      0.02844      7.16454         0.004971      0.004746      0.000193
      4.23700      0.83029     11.93897         0.008024      0.004194      0.003543
      2.92582      1.80888      2.39454         0.003246      0.004247     -0.000746
      0.23949      4.88442      7.14879        -0.013472     -0.006607     -0.009277
      1.64048      5.69336     11.92850         0.008882     -0.003358     -0.000284
      0.01329      6.49578      2.41206         0.001347     -0.001890      0.000262
      4.13826      2.64681      7.16881        -0.004275      0.019781     -0.002519
      5.54232      3.45745     11.92041        -0.014993      0.013593      0.002519
      2.97110      6.27902      2.38938         0.007978     -0.013819      0.000000
      0.02431      0.02105     14.28367         0.000273      0.001235     -0.001106
      1.42160      0.82331      4.76605        -0.001168     -0.002651      0.001490
      0.01460      1.64571      9.51722         0.006372      0.001744     -0.001837
      7.06150      2.42903     14.28527        -0.000506      0.002038     -0.000937
      0.02225      3.24583      4.73891         0.003908     -0.001611     -0.001546
     -1.40265      4.08622      9.50770        -0.009892     -0.006536     -0.001103
     -2.80180      4.88992     14.30717         0.000886      0.000998      0.000872
     -1.42986      5.69591      4.79596         0.000161     -0.000518      0.000753
     -2.79707      6.49413      9.55938         0.003446      0.009236      0.002675
     -1.39745      7.30145      0.03432        -0.000559     -0.004190      0.001546
      4.26930      0.81696      4.80395        -0.001512      0.001457      0.000937
      2.81853      1.64804      9.57599         0.010606      0.005298      0.001103
      1.43810      2.47645     14.28773         0.000368     -0.000398     -0.000753
      2.82207      3.26159      4.77651        -0.001307     -0.000268     -0.000872
      1.43042      4.05959      9.52430        -0.009722      0.001633     -0.002675
      0.00084      4.87831      0.00718         0.002879     -0.000314     -0.001490
      1.40348      5.69259      4.80002        -0.001206      0.000381      0.001106
      0.00133      6.51332      9.56647        -0.004696     -0.004646      0.001837
      5.65052      0.03363      0.03588         0.003408     -0.001635      0.002588
      7.04007      0.83589      4.74288        -0.000288     -0.003769     -0.002588
      5.67629      1.60413      9.54461         0.002358     -0.004084      0.000000
      4.23437      2.43958      0.02630        -0.002852     -0.000720      0.002835
      5.66453      3.26528      4.75246         0.002049      0.002110     -0.002835
      4.25177      4.07148      9.54461        -0.002411      0.004175     -0.000000
      2.83181      4.88587     14.31164         0.003900      0.001105      0.001774
      4.25646      5.70840      4.77758        -0.002907     -0.002825     -0.001774
      2.83398      6.52716      9.54461        -0.001528      0.002647     -0.000000
     -4.16226      7.35438     10.50058         0.026105      0.025044      0.005244
      8.38413      0.02821      3.74091        -0.004309     -0.015168     -0.000861
      1.44364      0.90368      1.00438        -0.000020      0.001892      0.000580
      1.41539      0.76377      8.54586         0.003839      0.011561      0.001661
     -0.04947      1.60421      5.73412         0.001484     -0.006871     -0.003460
      0.07801      1.66755     13.29085        -0.000929      0.002437     -0.001211
     -1.38118      2.49958     10.50846         0.002976     -0.012526     -0.003291
     -1.35396      2.46575      3.74063         0.005551     -0.003199     -0.002264
     -0.06680      3.21861      0.97711         0.001651      0.003970     -0.005995
     -0.01850      3.29770      8.52224        -0.009079     -0.016610      0.003410
     -1.35235      4.01360      5.76324         0.010821      0.002534      0.002208
     -1.43834      3.98189     13.27950        -0.009355      0.000230     -0.003516
      5.65827      4.84576     10.47771        -0.002811      0.003186     -0.001302
     -2.78559      4.86436      3.82215        -0.000199      0.001317      0.000532
     -1.36926      5.64441      0.99354         0.002699     -0.001512     -0.000366
     -1.36004      5.73270      8.55907        -0.012409      0.000600      0.002145
     -2.82151      6.56927      5.75564        -0.002007     -0.004668      0.000814
     -2.78351      6.55385     13.36674         0.000932     -0.002432      0.000430
[...]
      7.11462      0.84905      8.55006         0.004364     -0.003987     -0.000833
      5.67714      1.68044      5.74779         0.002633      0.002653     -0.006576
      5.60978      1.64155     13.34143        -0.003614     -0.000953      0.006576
      4.32991      2.39958     10.56328         0.006776      0.005197      0.002932
      4.20814      2.42650      3.82096        -0.006659     -0.002362     -0.000347
      5.68897      3.28145      0.95780         0.005375      0.004586      0.000347
      5.66060      3.16785      8.52593        -0.007888     -0.003269     -0.002932
      4.23798      4.03915      5.71792        -0.002490      0.008849     -0.004613
      4.28666      4.06725     13.37130        -0.006418      0.006581      0.004613
      2.78401      4.92113     10.48810        -0.007803      0.003054     -0.008653
      2.83094      4.92591      3.84347        -0.001485     -0.006227     -0.000289
      4.21301      5.72385      0.93529         0.006136     -0.001827      0.000289
      4.24983      5.76742      8.60111         0.001257      0.008285      0.008653
      2.89028      6.55596      5.72942         0.001473     -0.001656     -0.000766
      2.78089      6.49280     13.35980         0.000697     -0.002104      0.000766
    total drift:                                0.005727     -0.007922     -0.001639

  FREE ENERGIE OF THE ION-ELECTRON SYSTEM (eV)
  free  energy   TOTEN  =      -586.8736197615 eV

  energy  without entropy=     -586.8237767983  energy(sigma->0) =     -586.84869828

 d Force = 0.5576436E-03[ 0.557E-03, 0.558E-03]  d Energy = 0.5364724E-03 0.212E-04
 d Force =-0.6687122E+00[-0.671E+00,-0.666E+00]  d Ewald  =-0.1124292E+01 0.456E+00

 Quasi-Newton relaxation of ions (Broydens 2nd method)
  g(Force)  = 0.483E-03   g(Stress)= 0.660E-04

 retain information from N=  1 steps
 eigenvalues of (default step * inverse Hessian matrix)
  average eigenvalue of G=   0.9889
 eigenvalue spectrum of G is  0.9889

volume of typ            1:    13.2 %

[...]

volume of typ            3:     9.9 %

total charge

# of ion       s       p       d       tot
    1        2.076   0.247   0.093   2.415
    2        2.078   0.250   0.095   2.423
    3        2.072   0.236   0.089   2.397
    4        2.074   0.241   0.091   2.406
    5        2.073   0.238   0.090   2.401
    6        2.075   0.243   0.092   2.411
    7        2.073   0.238   0.090   2.401
    8        2.074   0.241   0.091   2.406
    9        2.075   0.243   0.092   2.411
   10        2.078   0.250   0.095   2.423
   11        2.076   0.247   0.093   2.415
   12        2.072   0.236   0.089   2.397
   13        2.075   0.245   0.092   2.413
   14        2.075   0.245   0.092   2.413
   15        2.077   0.252   0.095   2.424
   16        0.277   0.370   7.848   8.494
   17        0.269   0.355   7.853   8.478
   18        0.284   0.386   7.841   8.511
   19        0.286   0.392   7.840   8.518
   20        0.284   0.387   7.842   8.512
   21        0.280   0.378   7.846   8.504
   22        0.278   0.373   7.837   8.488
   23        0.281   0.381   7.846   8.508
   24        0.286   0.389   7.838   8.513
   25        0.284   0.387   7.842   8.512
   26        0.286   0.392   7.840   8.518
   27        0.280   0.378   7.846   8.504
   28        0.281   0.381   7.846   8.508
   29        0.278   0.373   7.837   8.488
   30        0.286   0.389   7.838   8.513
   31        0.269   0.355   7.853   8.478
   32        0.277   0.370   7.848   8.494
   33        0.284   0.386   7.841   8.511
   34        0.287   0.394   7.839   8.520
   35        0.287   0.394   7.839   8.520
   36        0.278   0.374   7.845   8.496
   37        0.281   0.379   7.843   8.502
   38        0.281   0.379   7.843   8.502
   39        0.270   0.357   7.846   8.473
   40        0.278   0.373   7.837   8.488
   41        0.278   0.373   7.837   8.488
   42        0.275   0.365   7.844   8.484
   43        1.275   2.755   0.007   4.037
   44        1.268   2.766   0.006   4.040
   45        1.270   2.762   0.006   4.038
   46        1.271   2.759   0.006   4.037
   47        1.270   2.763   0.006   4.039
   48        1.264   2.777   0.006   4.047
   49        1.270   2.762   0.006   4.039
   50        1.265   2.774   0.006   4.045
   51        1.270   2.763   0.006   4.039
   52        1.264   2.775   0.006   4.046
   53        1.271   2.761   0.006   4.038
   54        1.268   2.768   0.006   4.042
   55        1.268   2.772   0.007   4.047
   56        1.269   2.767   0.007   4.043
   57        1.263   2.781   0.007   4.050
   58        1.266   2.773   0.007   4.045
   59        1.262   2.783   0.007   4.052
   60        1.268   2.770   0.007   4.046
[...]
   82        1.263   2.780   0.007   4.050
   83        1.266   2.773   0.007   4.046
   84        1.266   2.773   0.007   4.046
   85        1.267   2.769   0.006   4.043
   86        1.275   2.753   0.007   4.035
   87        1.275   2.753   0.007   4.035
   88        1.267   2.769   0.006   4.043
   89        1.274   2.756   0.007   4.036
   90        1.274   2.756   0.007   4.036
   91        1.273   2.759   0.007   4.039
   92        1.273   2.761   0.007   4.040
   93        1.273   2.761   0.007   4.040
   94        1.273   2.759   0.007   4.039
   95        1.275   2.755   0.007   4.036
   96        1.275   2.755   0.007   4.036
tot         107.19  163.28  213.49  483.96

magnetization (x)

# of ion       s       p       d       tot
    1        0.006   0.014   0.001   0.021
    2        0.007   0.011   0.001   0.018
    3        0.006   0.010   0.001   0.017
    4        0.006   0.011   0.001   0.018
    5        0.006   0.011   0.001   0.017
    6        0.006   0.012   0.001   0.019
    7        0.006   0.011   0.001   0.017
    8        0.006   0.011   0.001   0.018
    9        0.006   0.012   0.001   0.019
   10        0.007   0.011   0.001   0.018
   11        0.006   0.014   0.001   0.021
   12        0.006   0.010   0.001   0.017
   13        0.006   0.013   0.001   0.020
   14        0.006   0.013   0.001   0.020
   15        0.006   0.015   0.002   0.023
   16        0.000  -0.001   0.501   0.500
   17        0.000  -0.001   0.665   0.665
   18       -0.000  -0.001   0.335   0.334
   19       -0.001  -0.001   0.280   0.279
   20       -0.000  -0.001   0.320   0.319
   21       -0.000  -0.001   0.427   0.426
   22       -0.001  -0.001   0.389   0.388
   23       -0.000  -0.001   0.394   0.393
   24       -0.001  -0.001   0.262   0.261
   25       -0.000  -0.001   0.320   0.319
   26       -0.001  -0.001   0.280   0.279
   27       -0.000  -0.001   0.427   0.426
   28       -0.000  -0.001   0.394   0.393
   29       -0.001  -0.001   0.389   0.388
   30       -0.001  -0.001   0.262   0.261
   31        0.000  -0.001   0.665   0.665
   32        0.000  -0.001   0.501   0.500
   33       -0.000  -0.001   0.335   0.334
   34       -0.001  -0.001   0.255   0.254
   35       -0.001  -0.001   0.255   0.254
   36       -0.000  -0.001   0.439   0.438
   37       -0.000  -0.001   0.398   0.397
   38       -0.000  -0.001   0.398   0.397
   39       -0.000  -0.001   0.590   0.589
   40       -0.001  -0.001   0.385   0.384
   41       -0.001  -0.001   0.385   0.384
   42       -0.000  -0.001   0.508   0.507
   43        0.011   0.085   0.000   0.097
   44        0.012   0.091   0.000   0.103
   45        0.011   0.081   0.000   0.092
   46        0.011   0.068   0.000   0.079
   47        0.009   0.057   0.000   0.066
   48        0.006   0.025   0.000   0.031
   49        0.010   0.067   0.000   0.077
   50        0.005   0.015   0.000   0.020
   51        0.011   0.073   0.000   0.084
   52        0.004   0.013   0.000   0.017
   53        0.011   0.081   0.000   0.093
   54        0.011   0.087   0.000   0.099
   55        0.004   0.003   0.000   0.007
   56        0.004   0.002   0.000   0.006
   57        0.004   0.003   0.000   0.007
   58        0.004   0.002   0.000   0.007
   59        0.004   0.006   0.000   0.011
   60        0.004   0.009   0.000   0.013
[...]
   82        0.004   0.009   0.000   0.013
   83        0.004   0.000   0.000   0.004
   84        0.004   0.000   0.000   0.004
   85        0.012   0.094   0.000   0.106
   86        0.010   0.069   0.000   0.080
   87        0.010   0.069   0.000   0.080
   88        0.012   0.094   0.000   0.106
   89        0.010   0.065   0.000   0.075
   90        0.010   0.065   0.000   0.075
   91        0.010   0.071   0.000   0.081
   92        0.010   0.072   0.000   0.082
   93        0.010   0.072   0.000   0.082
   94        0.010   0.071   0.000   0.081
   95        0.011   0.081   0.000   0.093
   96        0.011   0.081   0.000   0.093
tot           0.51    2.62   10.78   13.92