 vasp.5.4.4.18Apr17-6-g9f103f2a35 (build May 12 2020 05:39:39) gamma-only

 MD_VERSION_INFO: Compiled 2020-05-12T12:39:39-UTC in devlin.sd.materialsdesign.
 com:/home/medea2/data/build/wwolf/vasp-gpu5.4.4/13047/x86_64/src/src/build/gam
 from svn 13047

 executed on                        Lin64 date 2023.01.19  23:12:03

 INCAR:
 POTCAR:    PAW_PBE Li_sv 10Sep2004
 POTCAR:    PAW_PBE Ni 02Aug2007
 POTCAR:    PAW_PBE O 08Apr2002

 POTCAR:    PAW_PBE Li_sv 10Sep2004

 POTCAR:    PAW_PBE Ni 02Aug2007

 POTCAR:    PAW_PBE O 08Apr2002

 Optimization of the real space projectors (new method)

 maximal supplied QI-value         = 22.11
 optimisation between [QCUT,QGAM] = [ 11.28, 22.77] = [ 35.61,145.23] Ry
 Optimized for a Real-space Cutoff    1.10 Angstroem

   l    n(q)    QCUT    max X(q) W(low)/X(q) W(high)/X(q)  e(spline)
   0      7    11.276    10.506    0.54E-04    0.58E-04    0.16E-07
   0      7    11.276     8.367    0.11E-03    0.14E-03    0.35E-07
   1      7    11.276     8.983    0.23E-03    0.43E-03    0.86E-07
 Optimization of the real space projectors (new method)

[...]

   l    n(q)    QCUT    max X(q) W(low)/X(q) W(high)/X(q)  e(spline)
   2      9    11.376    60.317    0.17E-03    0.16E-04    0.16E-06
   2      9    11.376    55.921    0.17E-03    0.16E-04    0.17E-06
   0     10    11.376    51.690    0.45E-04    0.60E-04    0.21E-06
   0     10    11.376    30.015    0.37E-04    0.55E-04    0.19E-06
   1     10    11.376    18.849    0.83E-04    0.11E-03    0.92E-07
   1     10    11.376    14.624    0.69E-04    0.92E-04    0.82E-07
 Optimization of the real space projectors (new method)

 maximal supplied QI-value         = 24.76
 optimisation between [QCUT,QGAM] = [ 11.39, 22.77] = [ 36.31,145.25] Ry
 Optimized for a Real-space Cutoff    1.10 Angstroem

   l    n(q)    QCUT    max X(q) W(low)/X(q) W(high)/X(q)  e(spline)
   0      7    11.387    20.381    0.22E-03    0.48E-03    0.18E-06
   0      7    11.387    15.268    0.22E-03    0.52E-03    0.19E-06
   1      7    11.387     5.964    0.22E-03    0.73E-03    0.24E-06
   1      7    11.387     5.382    0.19E-03    0.60E-03    0.21E-06

  PAW_PBE Li_sv 10Sep2004               :
  PAW_PBE Ni 02Aug2007                  :
  PAW_PBE O 08Apr2002                   :

 POSCAR: ce425760_1
  positions in direct lattice
 exchange correlation table for  LEXCH =       14
   RHO(1)=    0.500       N(1)  =     2000
   RHO(2)=  100.500       N(2)  =     4000

 ion  position               nearest neighbor table
   1  0.999  0.499  0.999-  35 2.10  84 2.11  36 2.12  48 2.12  71 2.12  83 2.12
   2  0.112  0.835  0.223-  32 2.10  55 2.11  49 2.12  37 2.12  50 2.12  56 2.12
   3  0.777  0.835  0.554-  68 2.11  80 2.11  61 2.12  67 2.12  62 2.12  85 2.12
   4  0.334  0.498  0.668-  53 2.11  59 2.11  72 2.12  78 2.12  77 2.12  54 2.12
   5  1.000  0.003  0.999-  70 1.86  82 1.86  49 1.87  37 1.87  34 1.87  85 1.90  11 2.79   8 2.79
                            23 2.79  29 2.79  17 2.80  14 2.80
   6  0.111  0.330  0.223-  51 1.86  57 1.86  36 1.87  48 1.87  33 1.87  54 1.90   9 2.79  12 2.79
                            15 2.79  18 2.79  30 2.80  24 2.80
   7  0.224  0.667  0.111-  38 1.86  41 1.86  56 1.86  71 1.86  32 1.88  35 1.88  10 2.78  25 2.78
                            19 2.78  16 2.80  31 2.80  13 2.82
   8  0.333  0.002  0.000-  76 1.86  43 1.86  73 1.87  70 1.87  40 1.87  37 1.89  23 2.79  20 2.79
                             5 2.79  17 2.79  11 2.80  26 2.80
   9  0.444  0.332  0.222-  63 1.86  42 1.86  60 1.87  57 1.87  39 1.87  36 1.89  18 2.79  27 2.79
                             6 2.79  24 2.79  12 2.80  21 2.80
  10  0.556  0.667  0.111-  44 1.87  38 1.87  47 1.87  41 1.87  62 1.90  77 1.90  13 2.78   7 2.78
                            28 2.79  19 2.79  22 2.79  25 2.79
  11  0.667  0.002  0.000-  76 1.86  43 1.86  79 1.87  82 1.87  46 1.87  49 1.89  29 2.79  20 2.79
                             5 2.79  14 2.79   8 2.80  26 2.80
  12  0.778  0.332  0.222-  63 1.86  42 1.86  66 1.87  51 1.87  45 1.87  48 1.89  15 2.79  27 2.79
                             6 2.79  30 2.79   9 2.80  21 2.80
  13  0.887  0.667  0.111-  44 1.86  47 1.86  50 1.86  83 1.86  32 1.88  35 1.88  10 2.78  22 2.78
                            28 2.78  31 2.80  16 2.80   7 2.82
  14  1.000  0.003  0.334-  52 1.86  46 1.86  34 1.87  49 1.87  55 1.87  67 1.89  23 2.78  20 2.79
                            26 2.79  11 2.79  17 2.80   5 2.80
  15  0.110  0.329  0.555-  69 1.86  51 1.86  66 1.87  75 1.87  54 1.87  72 1.87  21 2.78  24 2.78
                            12 2.79   6 2.79  27 2.80  18 2.80
  16  0.222  0.666  0.445-  59 1.86  53 1.86  56 1.87  50 1.87  74 1.88  35 1.91  22 2.78  19 2.78
                            28 2.80  25 2.80   7 2.80  13 2.80
  17  0.334  0.003  0.334-  58 1.86  40 1.86  34 1.87  37 1.87  55 1.87  61 1.89  29 2.78  20 2.79
                            26 2.79   8 2.79  14 2.80   5 2.80
  18  0.445  0.329  0.555-  81 1.86  57 1.86  60 1.87  75 1.87  54 1.87  78 1.87  21 2.78  30 2.78
                             9 2.79   6 2.79  27 2.80  15 2.80
  19  0.554  0.665  0.444-  41 1.86  65 1.87  80 1.87  62 1.87  59 1.90  56 1.90   7 2.78  16 2.78
                            28 2.79  10 2.79  31 2.80  22 2.81
  20  0.666  0.004  0.332-  46 1.86  40 1.86  43 1.87  64 1.87  61 1.87  67 1.87  17 2.79  14 2.79
                             8 2.79  11 2.79  29 2.80  23 2.80
  21  0.778  0.332  0.556-  60 1.86  66 1.86  63 1.86  81 1.87  69 1.87  84 1.89  15 2.78  18 2.78
                            30 2.79  24 2.79  12 2.80   9 2.80
  22  0.890  0.665  0.444-  47 1.86  65 1.87  68 1.87  62 1.87  53 1.90  50 1.90  13 2.78  16 2.78
                            25 2.79  10 2.79  31 2.80  19 2.81
  23  0.001  0.004  0.667-  52 1.86  70 1.86  73 1.87  64 1.87  85 1.87  67 1.87  26 2.78  14 2.78
                             8 2.79   5 2.79  20 2.80  29 2.80
  24  0.111  0.330  0.888-  69 1.86  39 1.86  33 1.87  36 1.87  84 1.87  72 1.89  15 2.78  27 2.79
                            21 2.79   9 2.79  30 2.80   6 2.80
  25  0.221  0.668  0.778-  38 1.86  74 1.87  53 1.87  77 1.87  68 1.90  71 1.90   7 2.78  31 2.78
                            22 2.79  10 2.79  16 2.80  28 2.81
  26  0.333  0.001  0.666-  73 1.86  79 1.86  76 1.86  58 1.87  52 1.87  55 1.89  23 2.78  29 2.78
                            17 2.79  14 2.79   8 2.80  11 2.80
  27  0.445  0.329  0.890-  39 1.86  45 1.86  42 1.87  75 1.87  78 1.87  72 1.87  30 2.79  24 2.79
                            12 2.79   9 2.79  18 2.80  15 2.80
  28  0.557  0.668  0.778-  44 1.86  74 1.87  59 1.87  77 1.87  80 1.90  83 1.90  13 2.78  31 2.78
                            19 2.79  10 2.79  16 2.80  25 2.81
  29  0.666  0.004  0.667-  58 1.86  82 1.86  79 1.87  64 1.87  85 1.87  61 1.87  26 2.78  17 2.78
                            11 2.79   5 2.79  20 2.80  23 2.80
  30  0.777  0.330  0.888-  81 1.86  45 1.86  33 1.87  48 1.87  84 1.87  78 1.89  18 2.78  27 2.79
                            21 2.79  12 2.79  24 2.80   6 2.80
  31  0.889  0.668  0.777-  80 1.86  68 1.86  83 1.87  71 1.87  65 1.88  32 1.91  28 2.78  25 2.78
                            19 2.80  22 2.80  13 2.80   7 2.80
  32  0.002  0.736  0.005-  13 1.88   7 1.88  31 1.91   2 2.10
  33  1.000  0.264  0.999-  30 1.87  24 1.87   6 1.87
  34  0.111  0.070  0.223-  17 1.87  14 1.87   5 1.87
  35  0.109  0.597  0.217-   7 1.88  13 1.88  16 1.91   1 2.10
  36  0.218  0.399  0.109-   6 1.87  24 1.87   9 1.89   1 2.12
  37  0.220  0.934  0.113-   5 1.87  17 1.87   8 1.89   2 2.12
  38  0.334  0.734  0.001-   7 1.86  25 1.86  10 1.87
  39  0.334  0.264  0.001-  27 1.86  24 1.86   9 1.87
  40  0.444  0.070  0.221-  20 1.86  17 1.86   8 1.87
  41  0.444  0.599  0.222-   7 1.86  19 1.86  10 1.87
  42  0.555  0.398  0.110-  12 1.86   9 1.86  27 1.87
  43  0.556  0.936  0.112-   8 1.86  11 1.86  20 1.87
  44  0.667  0.734  0.001-  13 1.86  28 1.86  10 1.87
  45  0.667  0.264  0.001-  27 1.86  30 1.86  12 1.87
  46  0.777  0.070  0.221-  20 1.86  14 1.86  11 1.87
  47  0.777  0.599  0.222-  13 1.86  22 1.86  10 1.87
  48  0.891  0.399  0.109-   6 1.87  30 1.87  12 1.89   1 2.12
  49  0.893  0.934  0.113-   5 1.87  14 1.87  11 1.89   2 2.12
  50  0.002  0.735  0.332-  13 1.86  16 1.87  22 1.90   2 2.12
  51  0.999  0.264  0.333-  15 1.86   6 1.86  12 1.87
  52  0.112  0.070  0.556-  23 1.86  14 1.86  26 1.87
  53  0.117  0.598  0.559-  16 1.86  25 1.87  22 1.90   4 2.11
  54  0.224  0.398  0.449-  18 1.87  15 1.87   6 1.90   4 2.12
  55  0.220  0.934  0.440-  17 1.87  14 1.87  26 1.89   2 2.11
  56  0.330  0.735  0.332-   7 1.86  16 1.87  19 1.90   2 2.12
  57  0.333  0.264  0.333-  18 1.86   6 1.86   9 1.87
  58  0.444  0.070  0.556-  29 1.86  17 1.86  26 1.87
  59  0.443  0.598  0.559-  16 1.86  28 1.87  19 1.90   4 2.11
  60  0.555  0.398  0.445-  21 1.86   9 1.87  18 1.87
  61  0.559  0.935  0.446-  20 1.87  29 1.87  17 1.89   3 2.12
  62  0.669  0.734  0.338-  19 1.87  22 1.87  10 1.90   3 2.12
  63  0.667  0.266  0.333-  12 1.86   9 1.86  21 1.86
  64  0.778  0.071  0.556-  23 1.87  29 1.87  20 1.87
  65  0.778  0.599  0.556-  19 1.87  22 1.87  31 1.88
  66  0.890  0.398  0.445-  21 1.86  12 1.87  15 1.87
  67  0.887  0.935  0.446-  20 1.87  23 1.87  14 1.89   3 2.12
  68  0.994  0.735  0.663-  31 1.86  22 1.87  25 1.90   3 2.11
  69  0.999  0.264  0.666-  15 1.86  24 1.86  21 1.87
  70  0.112  0.070  0.890-  23 1.86   5 1.86   8 1.87
  71  0.109  0.599  0.890-   7 1.86  31 1.87  25 1.90   1 2.12
  72  0.224  0.398  0.776-  27 1.87  15 1.87  24 1.89   4 2.12
  73  0.221  0.935  0.777-  26 1.86   8 1.87  23 1.87
  74  0.333  0.734  0.667-  25 1.87  28 1.87  16 1.88
  75  0.333  0.262  0.667-  15 1.87  18 1.87  27 1.87
  76  0.444  0.068  0.889-   8 1.86  11 1.86  26 1.86
  77  0.442  0.599  0.884-  28 1.87  25 1.87  10 1.90   4 2.12
  78  0.552  0.398  0.776-  27 1.87  18 1.87  30 1.89   4 2.12
  79  0.556  0.935  0.777-  26 1.86  11 1.87  29 1.87
  80  0.669  0.735  0.663-  31 1.86  19 1.87  28 1.90   3 2.11
  81  0.668  0.264  0.666-  18 1.86  30 1.86  21 1.87
  82  0.778  0.070  0.890-  29 1.86   5 1.86  11 1.87
  83  0.781  0.599  0.890-  13 1.86  31 1.87  28 1.90   1 2.12
  84  0.891  0.399  0.782-  30 1.87  24 1.87  21 1.89   1 2.11
  85  0.887  0.935  0.774-  23 1.87  29 1.87   5 1.90   3 2.12

  LATTYP: Found a base centered monoclinic cell.
 ALAT       =    14.5050706695
 B/A-ratio  =     0.5771009680
 C/A-ratio  =     1.3928898706
 COS(beta)  =    -0.6215542601

  Lattice vectors:

 A1 = (   4.1881570839,   7.2509694657,  -0.0015743682)
 A2 = (   8.3736022482,   0.0015657939,  -0.0015743682)
 A3 = ( -12.5591505865,  -7.2510291087, -14.0673578133)

Analysis of symmetry for initial positions (statically):
 Subroutine PRICEL returns:
 Original cell was already a primitive cell.

 Routine SETGRP: Setting up the symmetry group for a
 base centered monoclinic supercell.

 Subroutine GETGRP returns: Found  4 space group operations
 (whereof  2 operations were pure point group operations)
 out of a pool of  4 trial point group operations.

The static configuration has the point symmetry C_1h.
[...]
   -.343E+02 -.198E+02 0.352E+03   0.368E+02 0.212E+02 -.375E+03   -.248E+01 -.143E+01 0.228E+02   0.158E-01 0.911E-02 -.399E-01
   -.501E+00 -.378E+02 -.352E+03   0.771E+00 0.412E+02 0.375E+03   -.301E+00 -.341E+01 -.228E+02   0.334E-01 -.604E-02 -.112E-01
   0.656E+01 -.352E+01 0.366E+03   -.717E+01 0.359E+01 -.394E+03   0.605E+00 -.699E-01 0.279E+02   -.434E-02 0.543E-02 0.300E-01
   -.537E+01 0.234E+01 -.366E+03   0.577E+01 -.289E+01 0.394E+03   -.410E+00 0.541E+00 -.281E+02   0.186E-01 0.104E-01 -.124E-01
   0.300E+02 -.245E+02 0.354E+03   -.323E+02 0.266E+02 -.377E+03   0.228E+01 -.208E+01 0.227E+02   0.266E-02 -.131E-01 0.205E-01
   0.104E+02 -.446E+01 -.380E+03   -.103E+02 0.429E+01 0.407E+03   -.696E-01 0.175E+00 -.274E+02   -.757E-02 -.123E-02 0.900E-02
[...]
   -.250E+02 0.127E+02 -.351E+03   0.274E+02 -.141E+02 0.374E+03   -.239E+01 0.136E+01 -.229E+02   -.182E-01 0.177E-01 0.200E-01
   -.131E+01 -.112E+02 0.380E+03   0.142E+01 0.110E+02 -.407E+03   -.117E+00 0.148E+00 0.274E+02   0.485E-02 0.594E-02 -.900E-02
   -.940E+01 -.543E+01 -.391E+03   0.935E+01 0.540E+01 0.417E+03   0.679E-01 0.392E-01 -.262E+02   -.210E-01 -.121E-01 -.203E-01
   -.974E+00 -.562E+00 0.375E+03   0.909E+00 0.525E+00 -.402E+03   0.614E-01 0.354E-01 0.274E+02   0.584E-02 0.337E-02 0.255E-01
   -.143E+01 -.828E+00 -.360E+03   0.142E+01 0.817E+00 0.388E+03   0.138E-01 0.798E-02 -.277E+02   0.376E-02 0.217E-02 -.326E-01
   -.347E+02 -.200E+02 0.350E+03   0.371E+02 0.214E+02 -.371E+03   -.239E+01 -.138E+01 0.217E+02   -.464E-01 -.268E-01 -.151E-01
   -.149E+01 -.280E+02 -.351E+03   0.150E+01 0.308E+02 0.374E+03   -.204E-01 -.275E+01 -.229E+02   0.626E-02 -.246E-01 0.200E-01
   -.104E+02 0.446E+01 0.380E+03   0.103E+02 -.429E+01 -.407E+03   0.696E-01 -.175E+00 0.274E+02   0.757E-02 0.123E-02 -.900E-02
   -.300E+02 0.245E+02 -.354E+03   0.323E+02 -.266E+02 0.377E+03   -.228E+01 0.208E+01 -.227E+02   -.266E-02 0.131E-01 -.205E-01
   0.537E+01 -.234E+01 0.366E+03   -.577E+01 0.289E+01 -.394E+03   0.410E+00 -.541E+00 0.281E+02   -.186E-01 -.104E-01 0.124E-01
   -.656E+01 0.352E+01 -.366E+03   0.717E+01 -.359E+01 0.394E+03   -.605E+00 0.699E-01 -.279E+02   0.434E-02 -.543E-02 -.300E-01
   0.501E+00 0.378E+02 0.352E+03   -.771E+00 -.412E+02 -.375E+03   0.301E+00 0.341E+01 0.228E+02   -.334E-01 0.604E-02 0.111E-01
   0.343E+02 0.198E+02 -.352E+03   -.368E+02 -.212E+02 0.375E+03   0.248E+01 0.143E+01 -.228E+02   -.158E-01 -.911E-02 0.399E-01
   -.247E+02 -.143E+02 0.349E+03   0.272E+02 0.157E+02 -.372E+03   -.245E+01 -.142E+01 0.228E+02   -.325E-02 -.187E-02 -.202E-01
   -.601E-03 -.324E-03 -.200E-02   -.405E-12 -.176E-12 -.284E-12   -.444E-15 -.178E-14 -.142E-13   -.105E-07 -.607E-08 0.238E-05

 POSITION                                       TOTAL-FORCE (eV/Angst)
      4.17953      7.24608      7.01432        -0.001803     -0.001041     -0.009756
      1.39886      0.80763     11.74114         0.001803      0.001041      0.009756
      1.38457      5.63241     11.74920         0.002428      0.001402      0.007448
      4.19382      2.42130      7.00626        -0.002428     -0.001402     -0.007448
      4.18416      7.24875      0.04418         0.000587      0.000339      0.012039
      1.39806      0.80717      4.64258        -0.000587     -0.000339     -0.012039
     -0.00893      1.62115      9.37888        -0.000415      0.000719     -0.000000
     -1.39312      2.41475      0.02245        -0.000479      0.000161      0.011264
     -0.00027      3.21891      4.66661         0.000100      0.000495     -0.011264
     -1.39748      4.02619      9.37888         0.000000     -0.000000     -0.000000
     -2.79085      4.83569      0.02245        -0.000100     -0.000495      0.011264
     -1.39800      5.63985      4.66661         0.000479     -0.000161     -0.011264
     -2.78603      6.43123      9.37888         0.000415     -0.000719      0.000000
     -1.38894      7.24783      0.04646         0.001765      0.000919      0.011667
      4.18655      0.79826      4.62734         0.000362     -0.000132     -0.009349
      2.79087      1.61131      9.36603        -0.003164     -0.001827     -0.006839
      1.39681      2.42276      0.04646         0.001679      0.001069      0.011667
      2.78459      3.22653      4.62734         0.000066      0.000380     -0.009349
      1.39509      4.01708      9.35377         0.001463     -0.005058     -0.003732
     -0.00537      4.82993      0.06144         0.000865      0.000500      0.009317
      1.39775      5.64001      4.66756        -0.000792     -0.000457     -0.010332
     -0.00908      6.44918      9.35377        -0.003649      0.003796     -0.003732
      5.58120      0.00812      0.05941        -0.000362      0.000132      0.009349
      6.97116      0.80809      4.64029        -0.001765     -0.000919     -0.011667
      5.58747      1.60453      9.40169         0.003649     -0.003796      0.003732
      4.18447      2.41591      0.01920         0.000792      0.000457      0.010332
      5.58759      3.22600      4.62531        -0.000865     -0.000500     -0.009317
      4.18329      4.03662      9.40169        -0.001463      0.005058      0.003732
      2.79763      4.82940      0.05941        -0.000066     -0.000380      0.009349
      4.18541      5.63316      4.64029        -0.001679     -0.001069     -0.011667
      2.78752      6.44240      9.38943         0.003164      0.001827      0.006839
      0.02736      0.01580     10.35288        -0.010759     -0.006212     -0.002430
      4.18236      7.24772      3.70550         0.001859      0.001073     -0.016751
      1.39985      0.80821      0.98125        -0.001859     -0.001073      0.016751
      1.36321      0.78705      8.40488         0.010759      0.006212      0.002430
     -0.00215      1.57963      5.61217        -0.000454      0.003878     -0.012766
      0.02365      1.59452     13.14559        -0.003131      0.002332      0.012766
     -1.39398      2.41959     10.32871         0.013647     -0.000292      0.009635
     -1.38972      2.41804      3.70624         0.003543      0.002876     -0.019251
     -0.00482      3.21761      0.98281        -0.004262     -0.001631      0.019251
     -0.00787      3.21987      8.42905        -0.006571     -0.011964     -0.009635
     -1.40322      4.02288      5.59601        -0.002770     -0.001599     -0.006022
     -1.39173      4.02951     13.16175         0.002770      0.001599      0.006022
     -2.78708      4.83252     10.32871         0.006571      0.011964      0.009635
     -2.78629      4.83698      3.70624         0.004262      0.001631     -0.019251
     -1.40140      5.63655      0.98281        -0.003543     -0.002876      0.019251
     -1.40097      5.63279      8.42905        -0.013647      0.000292     -0.009635
     -2.81860      6.45786      5.61217         0.003131     -0.002332     -0.012766
     -2.79280      6.47276     13.14559         0.000454     -0.003878      0.012766
      2.76819      0.01350     10.33310         0.009681     -0.003081     -0.000002
     -1.39853      7.24284      3.70780         0.000492     -0.005961     -0.017486
      4.18388      0.81542      0.97932         0.001592      0.004984      0.017968
      4.19284      0.84517      8.41182         0.002706     -0.003458     -0.000143
      2.81559      1.62558      5.59872        -0.001350     -0.000779     -0.016257
      2.76212      1.59471     13.14012         0.003682      0.002126      0.010287
      1.39579      2.39057     10.33310         0.002172      0.009924     -0.000002
      1.38770      2.41696      3.70780        -0.004917      0.003407     -0.017486
      2.79811      3.21564      0.97932         0.005113     -0.001113      0.017968
      2.82835      3.20852      8.41182        -0.001642      0.004073     -0.000143
      1.40326      4.02489      5.59804         0.004369     -0.001945     -0.005422
[...]
      6.99572      0.79067      8.42236        -0.009681      0.003081      0.000002
      5.55924      1.62502      5.59779         0.002657      0.000190     -0.014826
      5.57662      1.60135     13.15742        -0.000500     -0.004756      0.005422
      4.18365      2.41543     10.32808        -0.006969     -0.004024      0.006331
      4.18544      2.41646      3.68648         0.002127      0.001228     -0.019653
      5.58222      3.22290      0.95152        -0.001029     -0.000594      0.011130
      5.55219      3.20556      8.43082         0.003983      0.002299      0.005560
      4.18693      4.00194      5.59779         0.001494      0.002206     -0.014826
      4.17512      4.02882     13.15742        -0.004369      0.001945      0.005422
      2.75003      4.84519     10.34363         0.001642     -0.004073      0.000143
      2.78411      4.84029      3.70743        -0.005113      0.001113     -0.017968
      4.19452      5.63896      0.97895         0.004917     -0.003407      0.017486
      4.18260      5.66313      8.42236        -0.002172     -0.009924      0.000002
      2.81626      6.45900      5.61533        -0.003682     -0.002126     -0.010287
      2.76280      6.42813     13.15674         0.001350      0.000779      0.016257
    total drift:                               -0.000601     -0.000324     -0.001996

  FREE ENERGIE OF THE ION-ELECTRON SYSTEM (eV)
  free  energy   TOTEN  =      -529.0072366878 eV

  energy  without entropy=     -528.9574489323  energy(sigma->0) =     -528.98234281

 d Force = 0.8832765E-03[ 0.645E-03, 0.112E-02]  d Energy = 0.8461223E-03 0.372E-04
 d Force = 0.1912918E+01[ 0.190E+01, 0.193E+01]  d Ewald  = 0.5683337E+01-0.377E+01

 Quasi-Newton relaxation of ions (Broydens 2nd method)
  g(Force)  = 0.656E-03   g(Stress)= 0.249E-04

 retain information from N=  1 steps
 eigenvalues of (default step * inverse Hessian matrix)
  average eigenvalue of G=   1.0407
 eigenvalue spectrum of G is  1.0407

 reached required accuracy - stopping structural energy minimisation

volume of typ            1:     3.7 %

[...]

volume of typ            3:    10.3 %

total charge

# of ion       s       p       d       tot
    1        2.068   0.223   0.088   2.379
    2        2.068   0.223   0.088   2.379
    3        2.067   0.221   0.086   2.374
    4        2.067   0.221   0.086   2.374
    5        0.298   0.415   7.825   8.538
    6        0.298   0.415   7.825   8.538
    7        0.302   0.425   7.832   8.558
    8        0.298   0.414   7.819   8.531
    9        0.298   0.414   7.819   8.531
   10        0.293   0.406   7.823   8.522
   11        0.298   0.414   7.819   8.531
   12        0.298   0.414   7.819   8.531
   13        0.302   0.425   7.832   8.558
   14        0.299   0.417   7.825   8.541
   15        0.302   0.423   7.824   8.549
   16        0.298   0.415   7.833   8.545
   17        0.299   0.417   7.825   8.541
   18        0.302   0.423   7.824   8.549
   19        0.293   0.405   7.829   8.527
   20        0.302   0.424   7.824   8.550
   21        0.299   0.417   7.818   8.533
   22        0.293   0.405   7.829   8.527
   23        0.302   0.423   7.824   8.549
   24        0.299   0.417   7.825   8.541
   25        0.293   0.405   7.829   8.527
   26        0.299   0.417   7.818   8.533
   27        0.302   0.424   7.824   8.550
   28        0.293   0.405   7.829   8.527
   29        0.302   0.423   7.824   8.549
   30        0.299   0.417   7.825   8.541
   31        0.298   0.415   7.833   8.545
   32        1.275   2.751   0.007   4.033
   33        1.289   2.712   0.008   4.009
   34        1.289   2.712   0.008   4.009
   35        1.275   2.751   0.007   4.033
   36        1.275   2.753   0.007   4.035
   37        1.275   2.753   0.007   4.035
   38        1.285   2.726   0.008   4.019
   39        1.287   2.721   0.008   4.016
   40        1.287   2.721   0.008   4.016
   41        1.285   2.726   0.008   4.019
   42        1.286   2.723   0.008   4.017
   43        1.286   2.723   0.008   4.017
   44        1.285   2.726   0.008   4.019
   45        1.287   2.721   0.008   4.016
   46        1.287   2.721   0.008   4.016
   47        1.285   2.726   0.008   4.019
   48        1.275   2.753   0.007   4.035
   49        1.275   2.753   0.007   4.035
   50        1.275   2.755   0.007   4.037
   51        1.286   2.722   0.008   4.016
   52        1.286   2.722   0.008   4.017
   53        1.275   2.754   0.007   4.036
   54        1.275   2.752   0.007   4.035
   55        1.275   2.753   0.007   4.035
   56        1.275   2.755   0.007   4.037
   57        1.286   2.722   0.008   4.016
   58        1.286   2.722   0.008   4.017
   59        1.275   2.754   0.007   4.036
   60        1.286   2.723   0.008   4.017
[...]
   71        1.275   2.755   0.007   4.037
   72        1.275   2.753   0.007   4.035
   73        1.286   2.723   0.008   4.017
   74        1.289   2.715   0.008   4.011
   75        1.287   2.718   0.008   4.013
   76        1.289   2.714   0.008   4.011
   77        1.278   2.745   0.007   4.031
   78        1.275   2.753   0.007   4.035
   79        1.286   2.723   0.008   4.017
   80        1.275   2.754   0.007   4.036
   81        1.286   2.722   0.008   4.017
   82        1.286   2.722   0.008   4.016
   83        1.275   2.755   0.007   4.037
   84        1.275   2.753   0.007   4.035
   85        1.275   2.752   0.007   4.035
tot          85.52  159.81  212.04  457.37

magnetization (x)

# of ion       s       p       d       tot
    1        0.004   0.003  -0.000   0.007
    2        0.004   0.003  -0.000   0.007
    3        0.005   0.004  -0.000   0.009
    4        0.005   0.004  -0.000   0.009
    5       -0.000  -0.000   0.093   0.093
    6       -0.000  -0.000   0.093   0.093
    7       -0.000  -0.000   0.094   0.094
    8       -0.000  -0.000   0.083   0.083
    9       -0.000  -0.000   0.083   0.083
   10       -0.000  -0.000   0.155   0.154
   11       -0.000  -0.000   0.083   0.083
   12       -0.000  -0.000   0.083   0.083
   13       -0.000  -0.000   0.094   0.094
   14       -0.000  -0.000   0.092   0.092
   15       -0.000  -0.000   0.068   0.068
   16       -0.000  -0.000   0.155   0.154
   17       -0.000  -0.000   0.092   0.092
   18       -0.000  -0.000   0.068   0.068
   19       -0.000  -0.000   0.184   0.183
   20       -0.000  -0.000   0.071   0.071
   21       -0.000  -0.000   0.063   0.063
   22       -0.000  -0.000   0.184   0.183
   23       -0.000  -0.000   0.068   0.068
   24       -0.000  -0.000   0.092   0.092
   25       -0.000  -0.000   0.184   0.183
   26       -0.000  -0.000   0.063   0.063
   27       -0.000  -0.000   0.071   0.071
   28       -0.000  -0.000   0.184   0.183
   29       -0.000  -0.000   0.068   0.068
   30       -0.000  -0.000   0.092   0.092
   31       -0.000  -0.000   0.155   0.154
   32        0.004   0.016   0.000   0.020
   33        0.003   0.022   0.000   0.025
   34        0.003   0.022   0.000   0.025
   35        0.004   0.016   0.000   0.020
   36        0.002   0.005   0.000   0.007
   37        0.002   0.005   0.000   0.007
   38        0.002   0.005   0.000   0.006
   39        0.002   0.009   0.000   0.011
   40        0.002   0.009   0.000   0.011
   41        0.002   0.005   0.000   0.006
   42        0.002   0.004   0.000   0.005
   43        0.002   0.004   0.000   0.005
   44        0.002   0.005   0.000   0.006
   45        0.002   0.009   0.000   0.011
   46        0.002   0.009   0.000   0.011
   47        0.002   0.005   0.000   0.006
   48        0.002   0.005   0.000   0.007
   49        0.002   0.005   0.000   0.007
   50        0.003   0.012   0.000   0.015
   51        0.001   0.008   0.000   0.009
   52        0.001   0.003   0.000   0.004
   53        0.004   0.012   0.000   0.016
   54        0.003   0.010   0.000   0.013
   55        0.003   0.008   0.000   0.011
   56        0.003   0.012   0.000   0.015
   57        0.001   0.008   0.000   0.009
   58        0.001   0.003   0.000   0.004
   59        0.004   0.012   0.000   0.016
   60        0.001   0.003   0.000   0.005
[...]
   71        0.003   0.012   0.000   0.015
   72        0.002   0.005   0.000   0.008
   73        0.001   0.003   0.000   0.005
   74        0.005   0.046   0.000   0.051
   75        0.001   0.008   0.000   0.009
   76        0.003   0.026   0.000   0.029
   77        0.007   0.049   0.000   0.056
   78        0.002   0.005   0.000   0.008
   79        0.001   0.003   0.000   0.005
   80        0.004   0.012   0.000   0.016
   81        0.001   0.003   0.000   0.004
   82        0.001   0.008   0.000   0.009
   83        0.003   0.012   0.000   0.015
   84        0.003   0.008   0.000   0.011
   85        0.003   0.010   0.000   0.013
tot           0.15    0.63    2.82    3.60