 vasp.5.4.4.18Apr17-6-g9f103f2a35 (build May 12 2020 05:39:39) gamma-only

 MD_VERSION_INFO: Compiled 2020-05-12T12:39:39-UTC in devlin.sd.materialsdesign.
 com:/home/medea2/data/build/wwolf/vasp-gpu5.4.4/13047/x86_64/src/src/build/gam
 from svn 13047

 executed on                        Lin64 date 2023.01.20  02:07:14

 INCAR:
 POTCAR:    PAW_PBE Li_sv 10Sep2004
 POTCAR:    PAW_PBE Ni 02Aug2007
 POTCAR:    PAW_PBE O 08Apr2002

 POTCAR:    PAW_PBE Li_sv 10Sep2004

 POTCAR:    PAW_PBE Ni 02Aug2007

 POTCAR:    PAW_PBE O 08Apr2002

 Optimization of the real space projectors (new method)

 maximal supplied QI-value         = 22.11
 optimisation between [QCUT,QGAM] = [ 11.28, 22.77] = [ 35.61,145.23] Ry
 Optimized for a Real-space Cutoff    1.10 Angstroem

   l    n(q)    QCUT    max X(q) W(low)/X(q) W(high)/X(q)  e(spline)
   0      7    11.276    10.506    0.54E-04    0.58E-04    0.16E-07
   0      7    11.276     8.367    0.11E-03    0.14E-03    0.35E-07
   1      7    11.276     8.983    0.23E-03    0.43E-03    0.86E-07
 Optimization of the real space projectors (new method)

[...]

   l    n(q)    QCUT    max X(q) W(low)/X(q) W(high)/X(q)  e(spline)
   2      9    11.376    60.317    0.17E-03    0.16E-04    0.16E-06
   2      9    11.376    55.921    0.17E-03    0.16E-04    0.17E-06
   0     10    11.376    51.690    0.45E-04    0.60E-04    0.21E-06
   0     10    11.376    30.015    0.37E-04    0.55E-04    0.19E-06
   1     10    11.376    18.849    0.83E-04    0.11E-03    0.92E-07
   1     10    11.376    14.624    0.69E-04    0.92E-04    0.82E-07
 Optimization of the real space projectors (new method)

 maximal supplied QI-value         = 24.76
 optimisation between [QCUT,QGAM] = [ 11.39, 22.77] = [ 36.31,145.25] Ry
 Optimized for a Real-space Cutoff    1.10 Angstroem

   l    n(q)    QCUT    max X(q) W(low)/X(q) W(high)/X(q)  e(spline)
   0      7    11.387    20.381    0.22E-03    0.48E-03    0.18E-06
   0      7    11.387    15.268    0.22E-03    0.52E-03    0.19E-06
   1      7    11.387     5.964    0.22E-03    0.73E-03    0.24E-06
   1      7    11.387     5.382    0.19E-03    0.60E-03    0.21E-06

  PAW_PBE Li_sv 10Sep2004               :
  PAW_PBE Ni 02Aug2007                  :
  PAW_PBE O 08Apr2002                   :

 POSCAR: ce74073_1
  positions in direct lattice
 exchange correlation table for  LEXCH =       14
   RHO(1)=    0.500       N(1)  =     2000
   RHO(2)=  100.500       N(2)  =     4000

 ion  position               nearest neighbor table
   1  0.000  0.500  0.002-  52 2.11  65 2.11  53 2.12 100 2.12 101 2.15  88 2.15
   2  0.104  0.834  0.215-  66 2.06  49 2.08  54 2.11  67 2.11  73 2.13  72 2.17  30 2.84
   3  0.217  0.167  0.113-  51 2.05  50 2.09  74 2.11  56 2.13  57 2.14  87 2.14  23 2.83
   4  0.340  0.501  0.000-  94 2.06  59 2.08  58 2.11  89 2.11  53 2.13  88 2.17  44 2.84
   5  0.443  0.833  0.215-  55 2.05  60 2.09  54 2.11  78 2.13  73 2.14  79 2.14  25 2.83
   6  0.554  0.167  0.110-  56 2.11  93 2.11  62 2.12  57 2.12  80 2.15  63 2.15
   7  0.660  0.500  0.999-  94 2.05  59 2.09  95 2.11  65 2.13 100 2.14  64 2.14  44 2.83
   8  0.896  0.166  0.111-  51 2.06  50 2.08  99 2.11  68 2.11  62 2.13  63 2.17  23 2.84
   9  0.000  0.500  0.341-  83 2.05  70 2.05  71 2.13  64 2.13  65 2.14  52 2.14  39 2.84  32 2.84

  10  0.102  0.833  0.556-  85 2.06  84 2.06  67 2.11  90 2.11  91 2.18  72 2.18  39 2.84  40 2.84

[...]

  17  0.214  0.167  0.770-  86 2.05  69 2.05  92 2.13  87 2.13  56 2.14  93 2.14  32 2.84  40 2.84

  18  0.445  0.833  0.896-  55 2.06  60 2.08  61 2.11  90 2.11  96 2.13  91 2.17  25 2.84
  19  0.557  0.167  0.772-  98 2.05  75 2.09  99 2.11  93 2.13  62 2.14  92 2.14  46 2.83
  20  0.660  0.499  0.660-  77 2.06  76 2.08  95 2.11  82 2.11 100 2.13 101 2.17  36 2.84
  21  0.783  0.833  0.896-  66 2.05  49 2.09  61 2.11  97 2.13  96 2.14 102 2.14  30 2.83
  22  0.000  0.000  0.997-  51 1.87  66 1.87  87 1.91 102 1.91  54 1.95  99 1.95  40 2.79  46 2.83
                            25 2.83  31 2.87  28 2.87  34 2.87
  23  0.111  0.332  0.223-  71 1.86  50 1.87  74 1.94  68 1.94  65 1.97  53 1.97  32 2.83  35 2.83
                             3 2.83  47 2.83  41 2.83   8 2.84  29 2.86  26 2.86
  24  0.220  0.669  0.110-  58 1.87  49 1.91  73 1.92  88 1.93  55 1.95  52 1.96  48 2.81  30 2.83
                            42 2.84  33 2.85  36 2.86  27 2.87
  25  0.333  0.999  1.000-  87 1.86  60 1.87  54 1.94  90 1.94  93 1.97  57 1.97  40 2.83  22 2.83
                             5 2.83  28 2.83  37 2.83  18 2.84  43 2.86  34 2.86
  26  0.446  0.335  0.221-  74 1.87  59 1.91  53 1.92  80 1.93  77 1.95  56 1.96  29 2.81  44 2.83
                            38 2.84  41 2.85  23 2.86  35 2.87
  27  0.559  0.667  0.114-  55 1.87  94 1.87  79 1.91  64 1.91  61 1.95  58 1.95  39 2.79  36 2.83
                            30 2.83  42 2.87  45 2.87  24 2.87
  28  0.666  0.998  0.002-  99 1.87  60 1.91  96 1.92  63 1.93  66 1.95  93 1.96  37 2.81  25 2.83
                            31 2.84  43 2.85  46 2.86  22 2.87
  29  0.775  0.335  0.221-  68 1.87  59 1.91  65 1.92  80 1.93  83 1.94  62 1.95  26 2.81  44 2.83
                            38 2.84  47 2.85  23 2.86  32 2.87
  30  0.889  0.668  0.112-  64 1.86  49 1.87  61 1.94  67 1.94  52 1.97 100 1.97  39 2.83  27 2.83
                            21 2.83  24 2.83  48 2.83   2 2.84  33 2.86  45 2.86
  31  0.000  0.000  0.333-  72 1.91  63 1.91  84 1.96  69 1.96  66 1.96  51 1.96  28 2.84  34 2.84
                            37 2.84  43 2.84  22 2.87  40 2.87
  32  0.114  0.333  0.556-  86 1.87  83 1.87  92 1.91  71 1.91  68 1.96  89 1.96  35 2.79  44 2.83
                            23 2.83  17 2.84   9 2.84  15 2.84  16 2.84  41 2.87  29 2.87  38 2.87
  33  0.225  0.665  0.446-  67 1.87  76 1.91  52 1.92  91 1.93  70 1.94  73 1.95  45 2.81  36 2.83
                            42 2.84  24 2.85  30 2.86  39 2.87
  34  0.334  0.002  0.336-  54 1.87  75 1.91  57 1.92  72 1.93  51 1.95  78 1.96  43 2.81  46 2.83
                            31 2.84  37 2.85  25 2.86  22 2.87
  35  0.441  0.333  0.556-  98 1.87  77 1.87  92 1.91  71 1.91  74 1.95  95 1.95  32 2.79  44 2.83
                            23 2.83  38 2.87  47 2.87  26 2.87
  36  0.556  0.666  0.444-  79 1.86  76 1.87  58 1.94  82 1.94  97 1.97  73 1.97  39 2.83  27 2.83
                            11 2.83  45 2.83  33 2.83  20 2.84  48 2.86  24 2.86
  37  0.666  0.998  0.331-  81 1.87  60 1.91  78 1.92  63 1.93  84 1.94  57 1.95  28 2.81  25 2.83
                            31 2.84  34 2.85  46 2.86  40 2.87
  38  0.778  0.333  0.556-  80 1.91 101 1.91  86 1.96  83 1.96  98 1.96  77 1.96  47 2.84  26 2.84
                            41 2.84  29 2.84  35 2.87  32 2.87
  39  0.886  0.667  0.441-  85 1.87  70 1.87  79 1.91  64 1.91  67 1.96  82 1.96  27 2.79  30 2.83
                            36 2.83  14 2.84   9 2.84  10 2.84  16 2.84  33 2.87  48 2.87  42 2.87
  40  0.000  0.000  0.670-  69 1.87  84 1.87  87 1.91 102 1.91  90 1.96  81 1.96  22 2.79  25 2.83
                            46 2.83  17 2.84  14 2.84  10 2.84  15 2.84  43 2.87  37 2.87  31 2.87
  41  0.109  0.331  0.890-  89 1.87  50 1.91  56 1.92 101 1.93  86 1.94  53 1.95  47 2.81  23 2.83
                            38 2.84  26 2.85  44 2.86  32 2.87
  42  0.222  0.667  0.778-  91 1.91  88 1.91  85 1.96  70 1.96  55 1.96  94 1.96  24 2.84  45 2.84
                            48 2.84  33 2.84  27 2.87  39 2.87
  43  0.334  0.002  0.665-  90 1.87  75 1.91  93 1.92  72 1.93  69 1.94  96 1.95  34 2.81  46 2.83
                            31 2.84  28 2.85  25 2.86  40 2.87
  44  0.444  0.334  0.888-  92 1.86  59 1.87  95 1.94  89 1.94  56 1.97  62 1.97  32 2.83  35 2.83
                             7 2.83  26 2.83  29 2.83   4 2.84  41 2.86  47 2.86
  45  0.554  0.665  0.775-  61 1.87  76 1.91 100 1.92  91 1.93  94 1.95  97 1.96  33 2.81  36 2.83
                            42 2.84  48 2.85  30 2.86  27 2.87
  46  0.667  0.001  0.667- 102 1.86  75 1.87  99 1.94  81 1.94  78 1.97  96 1.97  40 2.83  22 2.83
                            19 2.83  34 2.83  43 2.83  13 2.84  37 2.86  28 2.86
  47  0.780  0.331  0.890-  95 1.87  50 1.91  62 1.92 101 1.93  98 1.95  65 1.96  41 2.81  23 2.83
                            38 2.84  29 2.85  44 2.86  35 2.87
  48  0.891  0.669  0.780-  82 1.87  49 1.91  97 1.92  88 1.93  85 1.94 100 1.95  24 2.81  30 2.83
                            42 2.84  45 2.85  36 2.86  39 2.87
  49  0.996  0.736  0.004-  30 1.87  24 1.91  48 1.91   2 2.08  21 2.09
  50  0.004  0.264  0.007-  23 1.87  47 1.91  41 1.91   8 2.08   3 2.09
  51  0.106  0.071  0.211-  22 1.87  34 1.95  31 1.96   3 2.05   8 2.06
  52  0.114  0.593  0.226-  33 1.92  24 1.96  30 1.97   1 2.11  11 2.13   9 2.14
  53  0.225  0.407  0.111-  26 1.92  41 1.95  23 1.97   1 2.12   4 2.13  11 2.14
  54  0.228  0.931  0.123-  34 1.87  25 1.94  22 1.95   2 2.11   5 2.11
  55  0.344  0.738  0.006-  27 1.87  24 1.95  42 1.96   5 2.05  18 2.06
  56  0.330  0.260  0.999-  41 1.92  26 1.96  44 1.97   6 2.11   3 2.13  17 2.14
  57  0.445  0.074  0.225-  34 1.92  37 1.95  25 1.97   6 2.12  13 2.13   3 2.14
  58  0.433  0.598  0.216-  24 1.87  36 1.94  27 1.95   4 2.11  11 2.11
  59  0.552  0.403  0.104-  44 1.87  26 1.91  29 1.91   4 2.08   7 2.09
  60  0.548  0.930  0.107-  25 1.87  28 1.91  37 1.91  18 2.08   5 2.09
  61  0.661  0.736  0.988-  45 1.87  30 1.94  27 1.95  18 2.11  21 2.11
  62  0.670  0.260  0.000-  47 1.92  29 1.95  44 1.97   6 2.12   8 2.13  19 2.14
  63  0.779  0.070  0.223-  31 1.91  37 1.93  28 1.93   6 2.15   8 2.17  15 2.18
  64  0.781  0.598  0.219-  30 1.86  39 1.91  27 1.91   9 2.13   7 2.14
  65  0.886  0.407  0.112-  29 1.92  47 1.96  23 1.97   1 2.11   7 2.13   9 2.14
  66  0.894  0.929  0.105-  22 1.87  28 1.95  31 1.96  21 2.05   2 2.06
  67  0.012  0.736  0.339-  33 1.87  30 1.94  39 1.96  10 2.11   2 2.11
  68  0.988  0.264  0.327-  29 1.87  23 1.94  32 1.96  15 2.11   8 2.11
  69  0.107  0.070  0.562-  40 1.87  43 1.94  31 1.96  17 2.05  15 2.06
  70  0.101  0.596  0.549-  39 1.87  33 1.94  42 1.96   9 2.05  16 2.06
  71  0.219  0.402  0.437-  23 1.86  32 1.91  35 1.91   9 2.13  11 2.14
  72  0.221  0.930  0.444-  31 1.91  43 1.93  34 1.93  12 2.15   2 2.17  10 2.18
  73  0.330  0.740  0.331-  24 1.92  33 1.95  36 1.97  12 2.12   2 2.13   5 2.14
  74  0.339  0.264  0.328-  26 1.87  23 1.94  35 1.95  13 2.11   3 2.11
  75  0.452  0.070  0.559-  46 1.87  34 1.91  43 1.91  13 2.08  19 2.09
  76  0.448  0.597  0.552-  36 1.87  45 1.91  33 1.91  20 2.08  11 2.09
  77  0.550  0.404  0.450-  35 1.87  26 1.95  38 1.96  11 2.05  20 2.06
  78  0.556  0.926  0.442-  37 1.92  34 1.96  46 1.97  12 2.11   5 2.13  14 2.14
  79  0.663  0.735  0.337-  36 1.86  39 1.91  27 1.91  14 2.13   5 2.14
  80  0.667  0.263  0.335-  38 1.91  29 1.93  26 1.93   6 2.15  13 2.17  15 2.18
  81  0.772  0.070  0.543-  37 1.87  46 1.94  40 1.96  15 2.11  13 2.11
  82  0.784  0.597  0.568-  48 1.87  36 1.94  39 1.96  16 2.11  20 2.11
  83  0.899  0.404  0.449-  32 1.87  29 1.94  38 1.96   9 2.05  16 2.06
  84  0.893  0.930  0.455-  40 1.87  37 1.94  31 1.96  14 2.05  10 2.06
[...]
   -.140E+01 0.593E+00 -.274E+03   0.160E+01 -.990E+00 0.285E+03   -.202E+00 0.405E+00 -.108E+02   -.224E-02 -.392E-02 -.564E-04
   0.386E+02 0.262E+02 0.299E+03   -.410E+02 -.276E+02 -.313E+03   0.242E+01 0.141E+01 0.141E+02   -.413E-03 0.246E-02 -.304E-02
   0.927E+01 0.435E+02 -.297E+03   -.981E+01 -.477E+02 0.310E+03   0.556E+00 0.423E+01 -.129E+02   -.134E-01 -.116E-01 -.356E-02
   0.222E+01 -.625E-01 0.273E+03   -.229E+01 0.620E+00 -.284E+03   0.662E-01 -.558E+00 0.107E+02   -.309E-02 -.189E-02 0.133E-02
   0.121E+01 0.914E+00 -.274E+03   -.166E+01 -.893E+00 0.285E+03   0.452E+00 -.272E-01 -.108E+02   -.227E-02 0.390E-02 -.564E-04
   0.337E+01 -.465E+02 0.299E+03   -.338E+01 0.493E+02 -.313E+03   0.136E-01 -.280E+01 0.141E+02   0.233E-02 -.871E-03 -.304E-02
   -.321E+02 -.186E+02 -.305E+03   0.346E+02 0.200E+02 0.322E+03   -.256E+01 -.147E+01 -.169E+02   -.548E-03 0.251E-02 -.148E-02
   -.452E-01 -.370E+02 0.305E+03   0.382E-01 0.400E+02 -.322E+03   0.615E-02 -.295E+01 0.169E+02   0.245E-02 0.782E-03 0.148E-02
[...]
   0.425E+02 -.183E+02 -.303E+03   -.451E+02 0.197E+02 0.317E+03   0.258E+01 -.134E+01 -.139E+02   0.189E-02 -.466E-02 0.118E-02
   -.371E+02 0.277E+02 0.303E+03   0.396E+02 -.292E+02 -.317E+03   -.245E+01 0.157E+01 0.139E+02   -.498E-02 -.692E-03 -.118E-02
   -.919E+01 0.783E+01 -.268E+03   0.951E+01 -.803E+01 0.280E+03   -.317E+00 0.208E+00 -.123E+02   0.872E-02 -.110E-01 -.397E-02
   0.376E+02 0.225E+02 0.293E+03   -.396E+02 -.236E+02 -.310E+03   0.191E+01 0.107E+01 0.177E+02   0.603E-02 -.259E-02 -.364E-02
   -.116E+01 0.189E+01 -.273E+03   0.168E+01 -.167E+01 0.284E+03   -.517E+00 -.222E+00 -.107E+02   -.924E-04 -.362E-02 -.133E-02
   0.330E+02 0.298E+02 0.297E+03   -.364E+02 -.323E+02 -.310E+03   0.338E+01 0.260E+01 0.129E+02   -.336E-02 -.174E-01 0.356E-02
   0.337E+01 0.465E+02 -.299E+03   -.338E+01 -.493E+02 0.313E+03   0.136E-01 0.280E+01 -.141E+02   0.233E-02 0.872E-03 0.304E-02
   0.121E+01 -.914E+00 0.274E+03   -.166E+01 0.893E+00 -.285E+03   0.452E+00 0.272E-01 0.108E+02   -.227E-02 -.390E-02 0.565E-04
   0.222E+01 0.625E-01 -.273E+03   -.229E+01 -.620E+00 0.284E+03   0.662E-01 0.558E+00 -.107E+02   -.309E-02 0.189E-02 -.133E-02
   0.927E+01 -.435E+02 0.297E+03   -.981E+01 0.477E+02 -.310E+03   0.556E+00 -.423E+01 0.129E+02   -.134E-01 0.116E-01 0.356E-02
   0.386E+02 -.262E+02 -.299E+03   -.410E+02 0.276E+02 0.313E+03   0.242E+01 -.141E+01 -.141E+02   -.413E-03 -.246E-02 0.304E-02
   -.140E+01 -.593E+00 0.274E+03   0.160E+01 0.990E+00 -.285E+03   -.202E+00 -.405E+00 0.108E+02   -.224E-02 0.392E-02 0.563E-04
   0.114E+02 0.405E+01 -.268E+03   -.117E+02 -.422E+01 0.280E+03   0.338E+00 0.171E+00 -.123E+02   -.139E-01 -.204E-02 -.397E-02
   0.665E+00 -.439E+02 0.293E+03   -.631E+00 0.460E+02 -.310E+03   -.326E-01 -.219E+01 0.177E+02   -.525E-02 -.393E-02 -.364E-02
   0.727E-03 -.457E-03 0.406E-03   0.491E-13 -.547E-12 0.159E-11   -.147E-14 0.133E-14 0.000E+00   -.135E-05 -.241E-05 0.837E-08

 POSITION                                       TOTAL-FORCE (eV/Angst)
      0.01327      0.00000      7.05975         0.006734     -0.000000      0.000000
      1.39208      0.77175     11.77428        -0.001640     -0.006219      0.004398
      0.03584      1.60084      2.35145         0.010116      0.000565      0.003024
     -1.44936      2.51257      7.06779        -0.004566      0.004530      0.004398
     -0.05323      3.27256     11.76445        -0.004569     -0.009043      0.003024
     -1.42831      4.09254      2.35325        -0.003367     -0.005831      0.000000
      5.70409      4.87340      7.06154        -0.005547     -0.008479     -0.003024
     -2.87295      6.61549      2.34521        -0.001640      0.006219     -0.004398
      2.90985      0.00000      7.05975         0.005500     -0.000000      0.000000
      4.30371      0.75380     11.76625         0.007327     -0.012690      0.000000
      1.43906      2.51384      7.05795        -0.005547      0.008479      0.003024
      2.83672      3.29471     11.76625        -0.003367      0.005831      0.000000
      1.47896      4.10292      2.36129         0.006206      0.001689      0.004398
      1.38843      5.80322     11.76625        -0.002750      0.004763      0.000000
      0.03869      6.63345      2.35325         0.007327      0.012690      0.000000
      5.60933      0.00000      7.05975        -0.014653     -0.000000      0.000000
      5.65345      1.58402      2.35325        -0.002750     -0.004763      0.000000
      5.74398      3.28432     11.75821         0.006206     -0.001689     -0.004398
      4.21180      4.11468      2.35505        -0.004569      0.009043     -0.003024
      2.81567      4.87467      7.05171        -0.004566     -0.004530     -0.004398
      4.30087      5.78640     11.76804         0.010116     -0.000565     -0.003024
      8.50244      0.00000      0.00000         0.012518     -0.000000      0.000000
      1.42639      0.82201      4.69250         0.000777      0.002012     -0.008523
     -0.00338      1.62456      9.44336         0.004361      0.006200      0.005506
      7.10706      2.45773     14.10550         0.001354     -0.001679     -0.008523
     -0.01308      3.29467      4.73686         0.003189     -0.006876      0.005506
     -1.40787      4.12794      9.41300        -0.006259     -0.010841      0.000000
     -2.82689      4.91923     14.08913        -0.007550     -0.000676     -0.005506
     -1.41778      5.72808      4.73615        -0.003098      0.004637      0.001897
     -2.83864      6.56524      9.42699         0.000777     -0.002012      0.008523
      2.84193      0.00000      0.00000        -0.002759     -0.000000      0.000000
      4.25161      0.84404      4.70650         0.006661     -0.011537      0.000000
      2.84724      1.65916      9.38335        -0.003098     -0.004637     -0.001897
      1.43813      2.46801      0.03036        -0.007550      0.000676      0.005506
      2.85716      3.25930      4.70650        -0.006259      0.010841      0.000000
      1.41828      4.10750      9.39900        -0.002131     -0.000333     -0.008523
     -0.01714      4.91943     14.08985         0.005565     -0.000364     -0.001897
      1.42239      5.74440      4.70650         0.001379     -0.002389      0.000000
     -0.01341      6.54321      9.41300         0.006661      0.011537      0.000000
      5.71353      0.00000      0.00000        -0.013322     -0.000000      0.000000
      7.12163      0.80866      4.67685        -0.002467      0.005001     -0.001897
      5.68741      1.64284      9.41300         0.001379      0.002389      0.000000
      4.24788      2.46782      0.02965         0.005565      0.000364      0.001897
      5.68331      3.27974      4.72050        -0.002131      0.000333      0.008523
      4.25195      4.09257      9.38264         0.003189      0.006876     -0.005506
      2.84204      4.92951      0.01400         0.001354      0.001679      0.008523
      4.26165      5.76269      4.67614         0.004361     -0.006200     -0.005506
      2.85660      6.57858      9.44265        -0.002467     -0.005001      0.001897
     -4.21853      7.36126     10.39874         0.002763     -0.003363      0.003368
      0.04650      0.02598      3.72076         0.002763      0.003363     -0.003368
      1.34853      0.78283      1.00034        -0.005882     -0.002692     -0.001924
      1.43891      0.84136      8.37104         0.003445     -0.000197      0.010116
     -0.01480      1.66087      5.74595         0.000865      0.003408     -0.005027
      0.07555      1.68152     13.14305        -0.008763     -0.001293      0.005629
     -1.41799      2.54475     10.41333         0.000610      0.006441     -0.001924
      7.11756      2.43721      3.66454        -0.001894     -0.002885      0.010116
      0.02408      3.28641      1.03945         0.002519     -0.002453     -0.005027
     -0.00322      3.19784      8.43655         0.003262      0.008236      0.005629
     -1.46743      4.07675      5.69224        -0.004294     -0.000711      0.003368
     -1.42242      4.05076     13.13376         0.001531     -0.004074     -0.003368
[...]
      7.09916      0.82617      8.42643        -0.004924      0.007647     -0.001799
      5.76525      1.59650      5.68964        -0.007972      0.001211     -0.001916
      5.60836      1.68708     13.13636         0.005035     -0.006299      0.001916
      4.27428      2.45712     10.39956         0.009084     -0.000441      0.001799
      4.31173      2.48847      3.74310         0.004215     -0.001975     -0.011595
      5.66028      3.27857      1.04196        -0.001552     -0.003082     -0.010116
      5.75616      3.32758      8.41266         0.005273      0.003748      0.001924
      4.26181      4.18941      5.68295         0.003262     -0.008236     -0.005629
      4.28911      4.10084     13.08004         0.002519      0.002453      0.005027
      2.85254      4.95003     10.45496        -0.001894      0.002885     -0.010116
      2.84704      4.84249      3.70616         0.000610     -0.006441      0.001924
      4.34058      5.70573      0.97645        -0.008763      0.001293     -0.005629
      4.25022      5.72637      8.37354         0.000865     -0.003408      0.005027
      2.83414      6.56107      5.69307        -0.004924     -0.007647      0.001799
      2.84256      6.51297     13.15610        -0.003818     -0.002663     -0.011595
    total drift:                                0.000726     -0.000459      0.000406

  FREE ENERGIE OF THE ION-ELECTRON SYSTEM (eV)
  free  energy   TOTEN  =      -616.1024457786 eV

  energy  without entropy=     -616.0645221695  energy(sigma->0) =     -616.08348397

 Quasi-Newton relaxation of ions (Broydens 2nd method)
  g(Force)  = 0.390E-03   g(Stress)= 0.201E-03

 Reset! Starting new Quasi-Newton update for ions

 reached required accuracy - stopping structural energy minimisation

volume of typ            1:    18.4 %

[...]

volume of typ            3:     9.9 %

total charge

# of ion       s       p       d       tot
    1        2.075   0.246   0.092   2.414
    2        2.080   0.258   0.098   2.435
    3        2.080   0.257   0.098   2.435
    4        2.080   0.258   0.098   2.435
    5        2.080   0.257   0.098   2.435
    6        2.075   0.246   0.092   2.414
    7        2.080   0.257   0.098   2.435
    8        2.080   0.258   0.098   2.435
    9        2.080   0.258   0.098   2.437
   10        2.078   0.255   0.096   2.429
   11        2.080   0.257   0.098   2.435
   12        2.075   0.246   0.092   2.414
   13        2.080   0.258   0.098   2.435
   14        2.080   0.258   0.098   2.437
   15        2.078   0.255   0.096   2.429
   16        2.078   0.255   0.096   2.429
   17        2.080   0.258   0.098   2.437
   18        2.080   0.258   0.098   2.435
   19        2.080   0.257   0.098   2.435
   20        2.080   0.258   0.098   2.435
   21        2.080   0.257   0.098   2.435
   22        0.276   0.368   7.846   8.490
   23        0.268   0.354   7.857   8.479
   24        0.268   0.354   7.853   8.475
   25        0.268   0.354   7.857   8.479
   26        0.268   0.354   7.853   8.475
   27        0.276   0.368   7.846   8.490
   28        0.268   0.354   7.853   8.475
   29        0.269   0.357   7.851   8.478
   30        0.268   0.354   7.857   8.479
   31        0.256   0.329   7.853   8.438
   32        0.275   0.366   7.847   8.488
   33        0.269   0.357   7.851   8.478
   34        0.268   0.354   7.853   8.475
   35        0.276   0.368   7.846   8.490
   36        0.268   0.354   7.857   8.479
   37        0.269   0.357   7.851   8.478
   38        0.256   0.329   7.853   8.438
   39        0.275   0.366   7.847   8.488
   40        0.275   0.366   7.847   8.488
   41        0.269   0.357   7.851   8.478
   42        0.256   0.329   7.853   8.438
   43        0.269   0.357   7.851   8.478
   44        0.268   0.354   7.857   8.479
   45        0.268   0.354   7.853   8.475
   46        0.268   0.354   7.857   8.479
   47        0.268   0.354   7.853   8.475
   48        0.269   0.357   7.851   8.478
   49        1.260   2.788   0.007   4.054
   50        1.260   2.788   0.007   4.054
   51        1.265   2.776   0.006   4.047
   52        1.261   2.785   0.005   4.051
   53        1.261   2.784   0.005   4.051
   54        1.267   2.770   0.006   4.043
   55        1.265   2.776   0.006   4.047
   56        1.261   2.785   0.005   4.051
   57        1.261   2.784   0.005   4.051
   58        1.267   2.770   0.006   4.043
   59        1.260   2.788   0.007   4.054
   60        1.260   2.788   0.007   4.054
[...]
   88        1.260   2.788   0.006   4.054
   89        1.268   2.769   0.006   4.042
   90        1.268   2.769   0.006   4.042
   91        1.260   2.788   0.006   4.054
   92        1.262   2.783   0.007   4.051
   93        1.261   2.785   0.005   4.051
   94        1.265   2.776   0.006   4.047
   95        1.267   2.770   0.006   4.043
   96        1.261   2.784   0.005   4.051
   97        1.261   2.785   0.005   4.051
   98        1.265   2.776   0.006   4.047
   99        1.267   2.770   0.006   4.043
  100        1.261   2.784   0.005   4.051
  101        1.260   2.788   0.006   4.054
  102        1.262   2.783   0.007   4.051
tot         119.13  165.06  214.35  498.54

magnetization (x)

# of ion       s       p       d       tot
    1        0.006   0.011   0.001   0.018
    2        0.007   0.014   0.001   0.022
    3        0.007   0.012   0.001   0.020
    4        0.007   0.014   0.001   0.022
    5        0.007   0.012   0.001   0.020
    6        0.006   0.011   0.001   0.018
    7        0.007   0.012   0.001   0.020
    8        0.007   0.014   0.001   0.022
    9        0.007   0.013   0.001   0.021
   10        0.007   0.015   0.002   0.024
   11        0.007   0.012   0.001   0.020
   12        0.006   0.011   0.001   0.018
   13        0.007   0.014   0.001   0.022
   14        0.007   0.013   0.001   0.021
   15        0.007   0.015   0.002   0.024
   16        0.007   0.015   0.002   0.024
   17        0.007   0.013   0.001   0.021
   18        0.007   0.014   0.001   0.022
   19        0.007   0.012   0.001   0.020
   20        0.007   0.014   0.001   0.022
   21        0.007   0.012   0.001   0.020
   22       -0.001  -0.001   0.404   0.403
   23       -0.000  -0.001   0.615   0.614
   24       -0.000  -0.001   0.580   0.579
   25       -0.000  -0.001   0.615   0.614
   26       -0.000  -0.001   0.580   0.579
   27       -0.001  -0.001   0.404   0.403
   28       -0.000  -0.001   0.580   0.579
   29       -0.001  -0.001   0.549   0.547
   30       -0.000  -0.001   0.615   0.614
   31       -0.000  -0.001   0.819   0.818
   32       -0.000  -0.001   0.430   0.429
   33       -0.001  -0.001   0.549   0.547
   34       -0.000  -0.001   0.580   0.579
   35       -0.001  -0.001   0.404   0.403
   36       -0.000  -0.001   0.615   0.614
   37       -0.001  -0.001   0.549   0.547
   38       -0.000  -0.001   0.819   0.818
   39       -0.000  -0.001   0.430   0.429
   40       -0.000  -0.001   0.430   0.429
   41       -0.001  -0.001   0.549   0.547
   42       -0.000  -0.001   0.819   0.818
   43       -0.001  -0.001   0.549   0.547
   44       -0.000  -0.001   0.615   0.614
   45       -0.000  -0.001   0.580   0.579
   46       -0.000  -0.001   0.615   0.614
   47       -0.000  -0.001   0.580   0.579
   48       -0.001  -0.001   0.549   0.547
   49        0.004  -0.003   0.000   0.002
   50        0.004  -0.003   0.000   0.002
   51        0.013   0.084   0.000   0.098
   52        0.014   0.092   0.000   0.107
   53        0.014   0.088   0.000   0.102
   54        0.012   0.073   0.000   0.086
   55        0.013   0.084   0.000   0.098
   56        0.014   0.092   0.000   0.107
   57        0.014   0.088   0.000   0.102
   58        0.012   0.073   0.000   0.086
   59        0.004  -0.003   0.000   0.002
   60        0.004  -0.003   0.000   0.002
[...]
   88        0.011   0.051   0.000   0.062
   89        0.013   0.078   0.000   0.091
   90        0.013   0.078   0.000   0.091
   91        0.011   0.051   0.000   0.062
   92        0.004  -0.001   0.000   0.003
   93        0.014   0.092   0.000   0.107
   94        0.013   0.084   0.000   0.098
   95        0.012   0.073   0.000   0.086
   96        0.014   0.088   0.000   0.102
   97        0.014   0.092   0.000   0.107
   98        0.013   0.084   0.000   0.098
   99        0.012   0.073   0.000   0.086
  100        0.014   0.088   0.000   0.102
  101        0.011   0.051   0.000   0.062
  102        0.004  -0.001   0.000   0.003
tot           0.72    3.54   15.46   19.71