 vasp.5.4.4.18Apr17-6-g9f103f2a35 (build May 12 2020 04:58:55) complex

 MD_VERSION_INFO: Compiled 2020-05-12T11:58:55-UTC in devlin.sd.materialsdesign.
 com:/home/medea2/data/build/wwolf/vasp-gpu5.4.4/13047/x86_64/src/src/build/std
 from svn 13047

 executed on                        Lin64 date 2023.03.14  09:20:09

 INCAR:
 POTCAR:    PAW_PBE Li_sv 10Sep2004
 POTCAR:    PAW_PBE Ni 02Aug2007
 POTCAR:    PAW_PBE O 08Apr2002

 POTCAR:    PAW_PBE Li_sv 10Sep2004

 POTCAR:    PAW_PBE Ni 02Aug2007

 POTCAR:    PAW_PBE O 08Apr2002

  PAW_PBE Li_sv 10Sep2004               :
  PAW_PBE Ni 02Aug2007                  :
  PAW_PBE O 08Apr2002                   :

 POSCAR: 2
  positions in direct lattice
 exchange correlation table for  LEXCH =       14
   RHO(1)=    0.500       N(1)  =     2000
   RHO(2)=  100.500       N(2)  =     4000

 ion  position               nearest neighbor table
   1  0.997  0.500  0.000-  42 2.11  41 2.11  89 2.11  90 2.12  54 2.14  77 2.15  36 2.83  37 2.84
                            30 2.85
   2  0.219  0.832  0.112-  62 2.04  43 2.06  56 2.09  55 2.11  61 2.12  38 2.19
   3  0.109  0.167  0.887-  40 2.08  45 2.10  63 2.10  76 2.14  46 2.16  39 2.23
   4  0.998  0.500  0.618-  83 2.00  48 2.01  47 2.14  42 2.14  78 2.15  77 2.16  33 2.80  16 2.83

   5  0.381  0.501  0.381-  72 2.00  59 2.01  41 2.13  54 2.15  53 2.16  60 2.16  28 2.81  21 2.82

   6  0.568  0.835  0.783-  91 2.04  73 2.04  86 2.12  74 2.13  67 2.13  68 2.14  25 2.59  28 2.81
                            29 2.82  35 2.82
   7  0.446  0.165  0.553-  69 2.08  70 2.10  58 2.12  57 2.13  52 2.15  75 2.18
   8  0.891  0.834  0.446-  80 2.04  85 2.04  49 2.09  44 2.10  79 2.11  50 2.16  16 2.83
   9  0.779  0.165  0.218-  88 2.10  81 2.11  87 2.12  82 2.14  64 2.14  51 2.16  33 2.82
  10  0.614  0.502  0.997-  65 2.01  66 2.02  84 2.12  71 2.14  90 2.18  89 2.18  24 2.83
  11  0.997  0.999  0.998-  76 1.86  55 1.86  40 1.86  91 1.88  88 1.89  43 2.00  29 2.78  35 2.78
                            17 2.79  23 2.83  20 2.83  14 2.84
  12  0.226  0.337  0.122-  63 1.84  54 1.84  39 1.85  60 1.87  57 1.90  42 2.25  18 2.70  24 2.75
                            21 2.81  36 2.85  15 2.87  30 2.90
  13  0.103  0.663  0.878-  77 1.83  38 1.84  62 1.85  47 1.85  44 1.92  41 2.25  25 2.43  31 2.69
                            37 2.81  16 2.82  22 2.87  19 2.90
  14  0.000  0.000  0.663-  76 1.85  46 1.85  79 1.85  49 1.86  82 1.92  43 2.04  26 2.76  29 2.79
                            32 2.79  17 2.80  23 2.82  11 2.84
  15  0.216  0.335  0.777-  66 1.82  48 1.86  63 1.86  45 1.87  42 1.90  69 2.04  30 2.74  33 2.77
                            24 2.81  27 2.82  18 2.86  12 2.87
  16  0.114  0.673  0.549-  50 1.84  47 1.84  83 1.87  53 1.88  44 1.89  68 1.90  25 2.45  19 2.71
                            28 2.77  34 2.80  31 2.81  13 2.82   4 2.83   8 2.83
  17  0.002  0.999  0.332-  85 1.86  88 1.86  82 1.87  52 1.88  55 1.89  49 2.01  20 2.77  11 2.79
                            14 2.80  26 2.80  32 2.83  35 2.83
  18  0.224  0.334  0.442-  48 1.83  57 1.86  69 1.88  72 1.89  54 1.90  51 1.91  12 2.70  33 2.79
                            27 2.81  21 2.82  15 2.86  36 2.87
  19  0.115  0.662  0.228-  38 1.85  41 1.85  53 1.86  56 1.86  50 1.90  89 2.13  16 2.71  22 2.74
                            28 2.79  34 2.81  37 2.84  13 2.90
  20  0.333  0.998  0.333-  58 1.86  55 1.86  61 1.87  52 1.87  73 2.02  40 2.02  17 2.77  32 2.79
                            29 2.82  23 2.82  26 2.82  11 2.83
  21  0.564  0.329  0.449-  60 1.86  75 1.86  57 1.87  78 1.88  72 1.90  81 1.90  30 2.73  33 2.77
                            24 2.78  12 2.81  18 2.82   5 2.82  27 2.83
  22  0.439  0.667  0.223-  65 1.81  56 1.86  62 1.87  59 1.87  41 1.90  80 2.05  19 2.74  28 2.77
                            34 2.83  13 2.87  31 2.87
  23  0.334  0.998  0.998-  40 1.85  61 1.86  46 1.86  43 1.87  67 1.89  64 1.90  35 2.77  26 2.78
                            32 2.82  14 2.82  20 2.82  11 2.83
  24  0.548  0.328  0.112-  84 1.86  81 1.87  66 1.88  63 1.89  87 1.89  60 1.91  12 2.75  21 2.78
                            36 2.79  15 2.81  27 2.83  10 2.83  33 2.86
  25  0.324  0.754  0.836-  62 1.50  68 1.55  47 2.33  44 2.34  13 2.43  16 2.45   6 2.59
  26  0.332  0.998  0.667-  52 1.85  73 1.86  70 1.87  67 1.87  49 1.88  46 1.89  14 2.76  23 2.78
                            35 2.80  17 2.80  20 2.82  29 2.83
  27  0.554  0.334  0.779-  72 1.85  66 1.85  75 1.86  69 1.87  90 1.90  87 1.94  36 2.75  18 2.81
                            15 2.82  30 2.83  24 2.83  21 2.83
  28  0.448  0.677  0.555-  68 1.86  59 1.86  53 1.87  74 1.88  56 1.89  71 2.01  22 2.77  16 2.77
                            19 2.79  31 2.80   6 2.81  37 2.81   5 2.81
  29  0.668  0.998  0.666-  58 1.85  91 1.86  70 1.88  73 1.89  79 1.89  76 1.90  11 2.78  32 2.79
                            14 2.79  35 2.81  20 2.82   6 2.82  26 2.83
  30  0.887  0.339  0.772-  39 1.84  42 1.86  45 1.86  78 1.87  75 1.89  90 2.15  21 2.73  15 2.74
                            33 2.79  27 2.83   1 2.85  36 2.85  12 2.90
  31  0.784  0.668  0.560-  59 1.84  80 1.86  83 1.88  74 1.89  44 1.90  77 1.90  13 2.69  28 2.80
                            16 2.81  34 2.81  37 2.85  22 2.87
  32  0.666  0.999  0.334-  64 1.86  85 1.87  82 1.88  58 1.89  79 1.89  61 1.93  20 2.79  29 2.79
                            14 2.79  23 2.82  35 2.82  17 2.83
  33  0.893  0.325  0.445-  81 1.85  51 1.85  78 1.86  48 1.87  45 1.89  84 2.08  15 2.77  21 2.77
                            30 2.79  18 2.79   4 2.80  36 2.81   9 2.82  24 2.86
  34  0.776  0.668  0.222-  65 1.84  83 1.85  50 1.86  80 1.90  89 1.92  86 1.92  37 2.77  16 2.80
                            19 2.81  31 2.81  22 2.83
  35  0.665  0.999  0.998-  64 1.86  88 1.86  91 1.86  67 1.87  70 1.97  85 2.03  23 2.77  11 2.78
                            26 2.80  29 2.81  32 2.82   6 2.82  17 2.83
  36  0.878  0.339  0.106-  51 1.84  90 1.85  87 1.85  84 1.87  39 1.90  54 2.18  27 2.75  24 2.79
                            33 2.81   1 2.83  12 2.85  30 2.85  18 2.87
  37  0.775  0.662  0.893-  86 1.85  74 1.86  71 1.86  89 1.87  38 1.90  77 2.16  34 2.77  28 2.81
                            13 2.81   1 2.84  19 2.84  31 2.85
  38  0.007  0.723  0.006-  13 1.84  19 1.85  37 1.90   2 2.19
  39  0.999  0.278  0.994-  30 1.84  12 1.85  36 1.90   3 2.23
  40  0.214  0.068  0.093-  23 1.85  11 1.86  20 2.02   3 2.08
  41  0.234  0.585  0.143-  19 1.85  22 1.90   1 2.11   5 2.13  13 2.25
  42  0.091  0.416  0.857-  30 1.86  15 1.90   1 2.11   4 2.14  12 2.25
  43  0.124  0.923  0.895-  23 1.87  11 2.00  14 2.04   2 2.06
  44  0.004  0.740  0.663-  16 1.89  31 1.90  13 1.92   8 2.10  25 2.34
  45  0.000  0.265  0.674-  30 1.86  15 1.87  33 1.89   3 2.10
  46  0.220  0.065  0.780-  14 1.85  23 1.86  26 1.89   3 2.16
  47  0.208  0.602  0.758-  16 1.84  13 1.85   4 2.14  25 2.33
  48  0.112  0.394  0.552-  18 1.83  15 1.86  33 1.87   4 2.01
  49  0.114  0.926  0.566-  14 1.86  26 1.88  17 2.01   8 2.09
  50  0.997  0.734  0.330-  16 1.84  34 1.86  19 1.90   8 2.16
  51  0.994  0.270  0.316-  36 1.84  33 1.85  18 1.91   9 2.16
  52  0.228  0.063  0.450-  26 1.85  20 1.87  17 1.88   7 2.15
  53  0.235  0.603  0.452-  19 1.86  28 1.87  16 1.88   5 2.16
  54  0.140  0.415  0.238-  12 1.84  18 1.90   1 2.14   5 2.15  36 2.18
  55  0.112  0.933  0.215-  11 1.86  20 1.86  17 1.89   2 2.11
  56  0.326  0.736  0.326-  22 1.86  19 1.86  28 1.89   2 2.09
  57  0.340  0.265  0.340-  18 1.86  21 1.87  12 1.90   7 2.13
  58  0.554  0.064  0.448-  29 1.85  20 1.86  32 1.89   7 2.12
  59  0.560  0.607  0.450-  31 1.84  28 1.86  22 1.87   5 2.01
  60  0.451  0.399  0.237-  21 1.86  12 1.87  24 1.91   5 2.16
  61  0.436  0.931  0.215-  23 1.86  20 1.87  32 1.93   2 2.12
  62  0.315  0.733  0.005-  25 1.50  13 1.85  22 1.87   2 2.04
  63  0.316  0.270  0.996-  12 1.84  15 1.86  24 1.89   3 2.10
  64  0.561  0.064  0.115-  35 1.86  32 1.86  23 1.90   9 2.14
  65  0.556  0.605  0.123-  22 1.81  34 1.84  10 2.01
  66  0.438  0.394  0.889-  15 1.82  27 1.85  24 1.88  10 2.02
  67  0.445  0.931  0.886-  26 1.87  35 1.87  23 1.89   6 2.13
  68  0.333  0.746  0.657-  25 1.55  28 1.86  16 1.90   6 2.14
  69  0.338  0.263  0.657-  27 1.87  18 1.88  15 2.04   7 2.08
  70  0.548  0.068  0.766-  26 1.87  29 1.88  35 1.97   7 2.10
  71  0.553  0.598  0.782-  37 1.86  28 2.01  10 2.14
  72  0.452  0.397  0.560-  27 1.85  18 1.89  21 1.90   5 2.00
  73  0.450  0.927  0.571-  26 1.86  29 1.89  20 2.02   6 2.04
  74  0.680  0.733  0.682-  37 1.86  28 1.88  31 1.89   6 2.13
  75  0.667  0.268  0.672-  27 1.86  21 1.86  30 1.89   7 2.18
  76  0.895  0.064  0.779-  14 1.85  11 1.86  29 1.90   3 2.14
  77  0.902  0.587  0.763-  13 1.83  31 1.90   1 2.15  37 2.16   4 2.16
  78  0.784  0.398  0.546-  33 1.86  30 1.87  21 1.88   4 2.15
  79  0.783  0.932  0.555-  14 1.85  32 1.89  29 1.89   8 2.11
  80  0.682  0.739  0.348-  31 1.86  34 1.90   8 2.04  22 2.05
  81  0.671  0.262  0.330-  33 1.85  24 1.87  21 1.90   9 2.11
  82  0.888  0.067  0.436-  17 1.87  32 1.88  14 1.92   9 2.14
  83  0.893  0.605  0.442-  34 1.85  16 1.87  31 1.88   4 2.00
  84  0.757  0.404  0.208-  24 1.86  36 1.87  33 2.08  10 2.12
  85  0.787  0.929  0.238-  17 1.86  32 1.87  35 2.03   8 2.04
  86  0.676  0.739  0.000-  37 1.85  34 1.92   6 2.12
  87  0.670  0.265  0.005-  36 1.85  24 1.89  27 1.94   9 2.12
  88  0.886  0.065  0.113-  35 1.86  17 1.86  11 1.89   9 2.10
  89  0.862  0.587  0.099-  37 1.87  34 1.92   1 2.11  19 2.13  10 2.18
  90  0.761  0.414  0.902-  36 1.85  27 1.90   1 2.12  30 2.15  10 2.18
  91  0.773  0.933  0.885-  29 1.86  35 1.86  11 1.88   6 2.04

  LATTYP: Found a base centered monoclinic cell.
 ALAT       =    14.6249098366
 B/A-ratio  =     0.5731202362
 C/A-ratio  =     1.3956243751
 COS(beta)  =    -0.6170579448

  Lattice vectors:

 A1 = (   4.1909158800,  -0.0552290600,   7.3122463500)
 A2 = (  -4.1909159000,  -0.0552290600,   7.3122463500)
 A3 = (   0.0000000100, -14.2382675300, -14.6244927000)

Analysis of symmetry for initial positions (statically):
 Subroutine PRICEL returns:
 Original cell was already a primitive cell.

 Routine SETGRP: Setting up the symmetry group for a
 base centered monoclinic supercell.

 Subroutine GETGRP returns: Found  1 space group operations
 (whereof  1 operations were pure point group operations)
 out of a pool of  4 trial point group operations.

The static configuration has the point symmetry C_1 .

Analysis of symmetry for dynamics (positions and initial velocities):
 Subroutine PRICEL returns:
 Original cell was already a primitive cell.

[...]

The dynamic configuration has the point symmetry C_1 .

Analysis of structural, dynamic, and magnetic symmetry:
 Subroutine PRICEL returns:
 Original cell was already a primitive cell.

 Routine SETGRP: Setting up the symmetry group for a
 base centered monoclinic supercell.

 Subroutine GETGRP returns: Found  1 space group operations
 (whereof  1 operations were pure point group operations)
 out of a pool of  4 trial point group operations.

The magnetic configuration has the point symmetry C_1 .

[...]
   -.479E+02 0.347E+03 0.538E+01   0.521E+02 -.369E+03 -.531E+01   -.443E+01 0.217E+02 0.114E+01   0.417E+00 -.539E+00 -.101E+01
   0.203E+02 -.379E+03 0.266E+02   -.220E+02 0.402E+03 -.268E+02   0.164E+01 -.226E+02 0.491E+00   0.962E-01 -.449E+00 -.471E+00
   0.150E+02 0.380E+03 -.581E+02   -.157E+02 -.404E+03 0.613E+02   0.558E+00 0.240E+02 -.324E+01   -.220E+00 -.132E-01 -.555E-01
   0.664E+02 -.297E+03 -.631E+01   -.709E+02 0.317E+03 0.759E+01   0.384E+01 -.201E+02 -.124E+01   -.386E+00 -.654E+00 -.351E+00
   0.280E+02 0.322E+03 -.758E+01   -.303E+02 -.345E+03 0.782E+01   0.198E+01 0.225E+02 -.533E+00   0.207E+00 0.855E+00 0.406E+00
   -.134E+02 -.348E+03 -.181E+02   0.129E+02 0.370E+03 0.200E+02   0.865E+00 -.223E+02 -.199E+01   -.222E+00 0.837E+00 -.691E-01
   0.109E+02 0.381E+03 0.478E+02   -.108E+02 -.402E+03 -.529E+02   -.215E+00 0.214E+02 0.612E+01   -.647E-01 -.621E+00 -.527E-01
   -.204E+02 -.371E+03 0.195E+02   0.226E+02 0.393E+03 -.201E+02   -.179E+01 -.222E+02 0.100E+01   -.391E+00 -.190E+00 -.465E+00
   -.227E+02 0.351E+03 -.139E+02   0.245E+02 -.371E+03 0.143E+02   -.217E+01 0.193E+02 -.675E+00   -.496E-01 -.243E+00 0.573E-01
   -.449E+02 -.347E+03 0.250E+02   0.478E+02 0.370E+03 -.258E+02   -.261E+01 -.235E+02 0.646E+00   0.131E-01 -.534E+00 -.107E+00
[...]
   0.270E+02 -.346E+03 0.308E+02   -.274E+02 0.369E+03 -.337E+02   0.545E+00 -.236E+02 0.292E+01   -.570E+00 -.234E+00 0.385E+00
   0.430E+02 0.322E+03 -.475E+01   -.456E+02 -.345E+03 0.553E+01   0.185E+01 0.228E+02 -.113E+01   0.521E+00 0.627E+00 -.388E-02
   0.553E+02 -.318E+03 0.609E+02   -.608E+02 0.337E+03 -.634E+02   0.509E+01 -.202E+02 0.187E+01   0.192E+00 0.800E+00 -.956E-01
   0.283E+02 0.361E+03 -.245E+01   -.308E+02 -.382E+03 0.355E+01   0.256E+01 0.218E+02 -.682E+00   -.373E+00 -.806E+00 -.485E+00
   -.118E+01 -.385E+03 -.312E+02   0.746E+00 0.407E+03 0.350E+02   0.119E+00 -.210E+02 -.425E+01   0.286E+00 -.469E+00 0.165E+00
   0.884E+01 0.378E+03 0.514E+02   -.855E+01 -.399E+03 -.534E+02   -.104E+01 0.204E+02 0.235E+01   0.266E+00 0.186E-01 -.138E+00
   0.803E+01 -.345E+03 -.646E+02   -.962E+01 0.366E+03 0.727E+02   0.149E+01 -.217E+02 -.693E+01   0.415E+00 -.568E+00 -.926E+00
   -.690E+00 0.330E+03 0.594E+02   0.256E+00 -.352E+03 -.658E+02   0.324E-01 0.209E+02 0.617E+01   0.292E+00 0.769E+00 0.824E-01
   0.762E+02 -.239E+03 0.262E+01   -.844E+02 0.254E+03 -.396E+01   0.818E+01 -.158E+02 0.178E+01   0.164E+00 0.525E+00 0.823E-01
   -.677E+01 0.370E+03 0.429E+02   0.709E+01 -.392E+03 -.466E+02   -.151E+01 0.214E+02 0.310E+01   0.503E+00 0.391E-01 0.697E-01
   -.316E+02 -.381E+03 0.135E+02   0.341E+02 0.402E+03 -.149E+02   -.252E+01 -.210E+02 0.116E+01   -.878E-01 -.163E+00 0.319E+00
   0.229E+02 0.309E+03 -.248E+02   -.228E+02 -.328E+03 0.287E+02   0.698E+00 0.203E+02 -.333E+01   -.251E-01 -.154E+00 -.597E-01
   -.145E+02 -.307E+03 0.488E+02   0.156E+02 0.327E+03 -.535E+02   -.402E+00 -.205E+02 0.396E+01   -.193E-01 -.101E+01 0.372E+00
   -.347E+02 0.329E+03 -.261E+02   0.372E+02 -.352E+03 0.272E+02   -.234E+01 0.223E+02 -.152E+01   -.953E-01 0.412E+00 0.345E+00
   -.879E+01 -.118E+02 -.545E+01   -.109E-11 -.625E-12 -.458E-12   0.911E+01 0.115E+02 0.553E+01   -.332E+00 0.347E+00 -.964E-01

 POSITION                                       TOTAL-FORCE (eV/Angst)
      8.35922      7.17553      0.00138         0.062079      0.053355     -0.049182
      1.36949     11.93074      0.81969        -0.294721     -0.027447      0.096236
     -2.80926      2.35260      6.48898        -0.024257      0.076410      0.044702
      5.77687      7.13625      4.51807        -0.035090      0.157476      0.297567
      1.59338      7.17337      2.78594        -0.062825      0.114576     -0.155334
      1.48356     11.94339      5.72323         0.414549     -0.158741      0.131557
      1.41570      2.33731      4.04685        -0.033141      0.015050      0.022566
      5.60290     11.94679      3.25797         0.006355     -0.059926     -0.073737
      5.61259      2.35833      1.59505         0.041264     -0.006870     -0.018301
      0.96368      7.15435      7.29306        -0.107535      0.489235     -0.108739
      4.17047     14.28340      7.29687         1.051676     -0.658740     -0.361993
      1.37940      4.82888      0.89312         0.303843      0.723368     -1.259619
     -2.81890      9.46963      6.42033         0.002987     -1.499825      1.206956
     -2.77815     -0.03609      4.84972         0.043179     -0.910635      0.859488
     -1.44410      4.76291      5.68453         0.121679     -0.728067     -0.314258
     -1.34683      9.62313      4.01421        -0.015780     -1.165071     -0.099943
     -1.37024     14.31548      2.42558        -0.249825     -0.781976      0.820503
      0.02819      4.76124      3.23030         0.260442     -0.093423     -0.035475
      0.00637      9.49232      1.66460        -0.752215     -0.344467     -0.456237
      1.39832     14.30350      2.43434        -0.044903     -0.116410     -0.121621
      2.84626      4.69422      3.28041        -0.272919      0.539400     -0.323716
      2.74393      9.55424      1.63049         1.448811      0.145864      0.254937
     -1.38444     14.26635      7.29940        -0.269689     -0.215017      0.012670
      4.12852      4.70657      0.81690         0.363249      0.814353     -0.033767
     -0.78977     10.76886      6.11059         3.952778      2.921993     -1.634076
     -0.01520     14.27930      4.87978         0.157864     -0.232657      0.039770
      1.37568      4.74805      5.69590         0.125094     -0.279351      0.443785
      1.42411      9.67669      4.06066         0.016334     -1.813205      1.988609
      2.80980     14.28442      4.87082        -0.324943     -0.090427      0.066196
      4.20127      4.81600      5.64505        -0.662423      0.627168      0.484988
      4.22593      9.55196      4.09178         0.294423     -0.047031      0.129623
      4.18574     14.31615      2.44193         0.080481     -0.508347      0.008442
      5.61998      4.63944      3.25424         0.014017      1.327748     -1.108309
      5.57660      9.57745      1.62262        -0.960288      0.225051     -1.271505
      1.38771     14.28245      7.30019         0.193290     -0.235116      0.333561
      6.91798      4.86348      0.77671         0.918138      0.631596      0.535032
      2.75132      9.45320      6.53012        -0.969556     -0.437533     -0.658998
      0.03305     10.37589      0.04296        -0.378564      0.017752      0.047936
      4.20774      3.94110      7.26755        -0.327339      0.143186      0.248753
      1.40039      0.96387      0.67942        -0.000193     -0.019681     -0.048884
      1.35870      8.38391      1.04852        -0.006695      0.685415     -0.605936
     -2.82595      5.92410      6.26701        -0.209581     -0.614882      0.370422
     -2.71294     13.18882      6.54734        -0.568568      1.116406      0.155999
     -2.74914     10.57610      4.85025        -0.106976      0.271510     -0.757698
     -2.82421      3.75980      4.92774         0.496737     -0.366153      0.477224
     -1.42404      0.88520      5.70691         0.207777      0.126612     -0.020423
     -1.43515      8.60279      5.54134        -0.208679      0.170313     -0.047975
     -1.37427      5.62348      4.03874        -0.396886      0.326014      0.152177
     -1.41512     13.26076      4.13732         0.083822      0.976062     -1.044602
      6.97911     10.51946      2.41065         0.603721      0.211584     -0.514441
      7.00479      3.85144      2.31319         0.188074     -0.329681      0.202148
      0.02589      0.88625      3.29210         0.008096      0.088276     -0.171836
      0.07955      8.62219      3.30364        -0.332753      0.445220     -0.107098
      0.17629      5.93687      1.74120        -1.007275     -0.974783     -0.302488
      0.03305     13.37869      1.57345        -0.146037      0.090203      0.121285
      1.36198     10.54916      2.38495         0.151204      0.054951     -0.168314
      1.42818      3.78203      2.48268        -0.162571     -0.393914      1.026582
      2.76577      0.88765      3.27946         0.041541      0.051826     -0.072704
      2.80888      8.69176      3.29232        -0.437863     -0.420249     -0.206326
      2.78948      5.71764      1.73234         0.294070     -0.463220     -0.272521
[...]
      4.36033      8.37907      5.57837        -1.150988      0.882436      0.170343
      4.27889      5.68713      3.99445        -0.410328     -0.399793      0.403680
      4.23781     13.33899      4.06010        -0.217748      0.220183     -0.349756
      4.26168     10.58361      2.54547        -0.285784     -0.288275     -0.729239
      4.24582      3.74063      2.40951        -0.309182     -0.179302     -0.066314
      5.61139      0.93849      3.19124        -0.029841      0.014485     -0.276700
      5.63630      8.65984      3.23013        -0.488584     -0.329381      0.258419
      5.47090      5.78344      1.52338         0.316157     -0.809452      0.230066
      5.60366     13.31621      1.73947        -0.109151      0.363035     -0.159140
      5.66922     10.59721      0.00077         0.150009     -0.514643      0.520570
      5.59374      3.79570      0.04004        -0.684906      0.075809     -0.488604
      6.94741      0.92224      0.82956        -0.063051      0.329271      0.096101
      6.81080      8.41688      0.72746         0.821736      1.240945      0.520700
      2.59636      5.89398      6.59346         0.759703     -0.943997     -0.438206
      2.76504     13.34287      6.47430        -0.000303     -0.013918     -0.007901
    total drift:                               -0.006948     -0.003941     -0.013133

  FREE ENERGIE OF THE ION-ELECTRON SYSTEM (eV)
  free  energy   TOTEN  =      -551.5141911265 eV

  energy  without entropy=     -551.5594371416  energy(sigma->0) =     -551.52927313

volume of typ            1:     8.9 %

[...]

volume of typ            3:    10.0 %

total charge

# of ion       s       p       d       tot
    1        2.067   0.225   0.088   2.379
    2        2.074   0.240   0.094   2.408
    3        2.065   0.211   0.080   2.355
    4        2.079   0.250   0.097   2.426
    5        2.076   0.244   0.095   2.415
    6        2.077   0.250   0.098   2.425
    7        2.068   0.221   0.084   2.372
    8        2.078   0.248   0.099   2.425
    9        2.066   0.216   0.083   2.364
   10        2.072   0.233   0.090   2.395
   11        0.290   0.394   7.835   8.519
   12        0.288   0.381   7.858   8.526
   13        0.287   0.388   7.880   8.556
   14        0.289   0.393   7.826   8.508
   15        0.292   0.398   7.844   8.534
   16        0.300   0.422   7.846   8.568
   17        0.290   0.389   7.817   8.495
   18        0.293   0.404   7.824   8.522
   19        0.290   0.387   7.834   8.511
   20        0.280   0.367   7.823   8.470
   21        0.296   0.406   7.830   8.532
   22        0.284   0.388   7.838   8.510
   23        0.298   0.412   7.832   8.542
   24        0.293   0.398   7.819   8.510
   25        0.350   0.501   8.055   8.907
   26        0.299   0.415   7.831   8.545
   27        0.293   0.404   7.817   8.514
   28        0.286   0.386   7.835   8.507
   29        0.295   0.404   7.837   8.536
   30        0.288   0.383   7.833   8.503
   31        0.293   0.402   7.834   8.529
   32        0.291   0.394   7.826   8.511
   33        0.290   0.390   7.870   8.549
   34        0.292   0.403   7.803   8.498
   35        0.283   0.376   7.838   8.497
   36        0.287   0.381   7.814   8.482
   37        0.289   0.381   7.815   8.485
   38        1.269   2.775   0.008   4.052
   39        1.269   2.766   0.008   4.043
   40        1.275   2.740   0.007   4.021
   41        1.274   2.744   0.006   4.024
   42        1.274   2.744   0.006   4.023
   43        1.280   2.713   0.005   3.999
   44        1.277   2.753   0.007   4.037
   45        1.275   2.760   0.008   4.043
   46        1.271   2.756   0.008   4.035
   47        1.283   2.728   0.007   4.017
   48        1.269   2.782   0.008   4.059
   49        1.275   2.737   0.006   4.019
   50        1.271   2.771   0.008   4.050
   51        1.269   2.767   0.008   4.044
   52        1.270   2.761   0.008   4.038
   53        1.275   2.754   0.008   4.037
   54        1.271   2.750   0.006   4.028
   55        1.270   2.761   0.008   4.039
   56        1.274   2.757   0.008   4.040
   57        1.275   2.755   0.008   4.037
   58        1.269   2.765   0.008   4.042
   59        1.275   2.769   0.008   4.052
   60        1.276   2.754   0.007   4.037
[...]
   77        1.271   2.756   0.006   4.033
   78        1.274   2.762   0.008   4.044
   79        1.273   2.753   0.007   4.033
   80        1.278   2.735   0.006   4.019
   81        1.270   2.765   0.008   4.043
   82        1.276   2.738   0.007   4.021
   83        1.275   2.767   0.008   4.049
   84        1.282   2.731   0.006   4.019
   85        1.277   2.737   0.007   4.021
   86        1.283   2.697   0.005   3.985
   87        1.277   2.738   0.007   4.022
   88        1.273   2.758   0.008   4.038
   89        1.272   2.741   0.005   4.019
   90        1.273   2.746   0.006   4.024
   91        1.270   2.767   0.008   4.045
tot          97.40  161.88  213.02  472.29

magnetization (x)

# of ion       s       p       d       tot
    1        0.000   0.001   0.000   0.002
    2        0.004   0.008   0.002   0.014
    3        0.003   0.007   0.001   0.011
    4        0.001   0.004   0.001   0.006
    5        0.002   0.004   0.001   0.007
    6        0.002   0.004   0.001   0.007
    7        0.004   0.008   0.001   0.014
    8        0.004   0.006   0.001   0.011
    9        0.003   0.005   0.000   0.008
   10        0.002   0.004   0.001   0.006
   11       -0.000  -0.000   0.150   0.149
   12        0.003   0.004   0.588   0.595
   13        0.003   0.002   0.476   0.482
   14        0.001  -0.000   0.393   0.393
   15       -0.000   0.001   0.206   0.207
   16       -0.001  -0.001  -0.027  -0.028
   17       -0.001   0.000   0.091   0.090
   18       -0.000   0.000   0.058   0.057
   19        0.000   0.001   0.047   0.048
   20        0.002  -0.000   0.580   0.583
   21       -0.001  -0.001   0.073   0.072
   22        0.000   0.001   0.001   0.002
   23       -0.001   0.000   0.032   0.032
   24       -0.000  -0.000   0.074   0.074
   25        0.036   0.012   0.723   0.770
   26       -0.001   0.000   0.029   0.028
   27       -0.000   0.000   0.151   0.151
   28        0.000   0.001   0.075   0.077
   29       -0.001  -0.000   0.049   0.049
   30       -0.000   0.002   0.242   0.244
   31       -0.000   0.000  -0.022  -0.022
   32       -0.001  -0.000   0.084   0.083
   33        0.000   0.000   0.403   0.404
   34       -0.000   0.000   0.009   0.009
   35        0.001   0.000   0.501   0.503
   36       -0.000   0.002   0.187   0.189
   37       -0.000   0.000   0.006   0.006
   38        0.001   0.003   0.000   0.004
   39        0.003   0.003   0.000   0.006
   40        0.008   0.095   0.000   0.103
   41        0.004   0.053   0.000   0.057
   42        0.006   0.110   0.000   0.116
   43        0.006   0.083   0.000   0.089
   44        0.008   0.085   0.000   0.093
   45        0.009   0.125   0.000   0.134
   46        0.001  -0.003   0.000  -0.001
   47        0.001   0.042   0.000   0.043
   48        0.002   0.005   0.000   0.007
   49        0.001   0.007   0.000   0.008
   50        0.000  -0.001   0.000  -0.001
   51        0.002   0.000   0.000   0.002
   52        0.002   0.008   0.000   0.010
   53        0.000  -0.005   0.000  -0.005
   54        0.002   0.024   0.000   0.027
   55        0.002   0.010   0.000   0.012
   56        0.001   0.018   0.000   0.018
   57        0.008   0.119   0.000   0.127
   58        0.002   0.005   0.000   0.007
   59       -0.000   0.024   0.000   0.023
   60        0.002   0.024   0.000   0.025
[...]
   77        0.001   0.008   0.000   0.009
   78        0.002   0.018   0.000   0.019
   79        0.002   0.006   0.000   0.008
   80       -0.001  -0.011   0.000  -0.012
   81        0.002   0.023   0.000   0.026
   82        0.007   0.072   0.000   0.079
   83       -0.001  -0.014   0.000  -0.015
   84        0.004   0.070   0.000   0.075
   85        0.006   0.081   0.000   0.087
   86        0.003   0.081  -0.000   0.084
   87        0.004   0.065   0.000   0.069
   88        0.005   0.040   0.000   0.045
   89        0.000  -0.003   0.000  -0.002
   90        0.003   0.024   0.000   0.027
   91        0.002   0.008   0.000   0.010
tot           0.22    1.91    5.20    7.32