 vasp.5.4.4.18Apr17-6-g9f103f2a35 (build May 12 2020 04:58:55) complex

 MD_VERSION_INFO: Compiled 2020-05-12T11:58:55-UTC in devlin.sd.materialsdesign.
 com:/home/medea2/data/build/wwolf/vasp-gpu5.4.4/13047/x86_64/src/src/build/std
 from svn 13047

 executed on                        Lin64 date 2023.03.14  09:20:10

 INCAR:
 POTCAR:    PAW_PBE Li_sv 10Sep2004
 POTCAR:    PAW_PBE Ni 02Aug2007
 POTCAR:    PAW_PBE O 08Apr2002

 POTCAR:    PAW_PBE Li_sv 10Sep2004

 POTCAR:    PAW_PBE Ni 02Aug2007

 POTCAR:    PAW_PBE O 08Apr2002

  PAW_PBE Li_sv 10Sep2004               :
  PAW_PBE Ni 02Aug2007                  :
  PAW_PBE O 08Apr2002                   :

 POSCAR: 1
  positions in direct lattice
 exchange correlation table for  LEXCH =       14
   RHO(1)=    0.500       N(1)  =     2000
   RHO(2)=  100.500       N(2)  =     4000

 ion  position               nearest neighbor table
   1  0.997  0.500  0.000-  42 2.11  41 2.12  89 2.12  90 2.12  54 2.15  77 2.15  36 2.83  37 2.84

   2  0.220  0.832  0.112-  62 2.06  43 2.07  56 2.09  55 2.12  61 2.14  38 2.21
   3  0.109  0.168  0.888-  40 2.08  45 2.10  63 2.10  76 2.14  46 2.16  39 2.23
   4  0.999  0.499  0.619-  83 2.00  48 2.00  42 2.14  47 2.14  78 2.15  77 2.16  33 2.80  16 2.83

   5  0.381  0.501  0.381-  72 2.00  59 2.00  41 2.13  54 2.15  53 2.16  60 2.16  28 2.81  21 2.82

   6  0.565  0.836  0.781-  73 2.05  91 2.06  86 2.11  67 2.13  68 2.13  74 2.15  25 2.65  28 2.82
                            35 2.83  29 2.84
   7  0.445  0.166  0.554-  69 2.08  70 2.09  58 2.12  57 2.12  52 2.14  75 2.18
   8  0.891  0.834  0.446-  85 2.06  80 2.06  49 2.10  44 2.11  79 2.12  50 2.16  16 2.84
   9  0.779  0.165  0.218-  87 2.11  88 2.11  81 2.11  82 2.11  64 2.14  51 2.16  33 2.82
  10  0.614  0.502  0.998-  65 2.00  66 2.01  71 2.12  84 2.12  89 2.17  90 2.18  24 2.83
  11  0.998  0.999  0.999-  40 1.86  55 1.86  76 1.86  91 1.88  88 1.89  43 1.93  35 2.79  29 2.79
                            17 2.80  23 2.82  14 2.82  20 2.82
  12  0.226  0.337  0.122-  63 1.84  54 1.84  39 1.85  60 1.87  57 1.91  42 2.25  18 2.70  24 2.75
                            21 2.81  36 2.85  15 2.87  30 2.90
  13  0.103  0.663  0.878-  77 1.83  38 1.84  62 1.85  47 1.86  44 1.91  41 2.25  25 2.50  31 2.69
                            16 2.82  37 2.83  22 2.87  19 2.90
  14  0.000  0.000  0.665-  76 1.85  46 1.85  79 1.86  49 1.86  82 1.95  43 2.02  26 2.77  29 2.79
                            32 2.80  17 2.80  23 2.82  11 2.82
  15  0.217  0.334  0.777-  66 1.82  63 1.86  48 1.86  45 1.86  42 1.90  69 2.01  30 2.74  33 2.77
                            24 2.81  27 2.81  18 2.86  12 2.87
  16  0.114  0.672  0.550-  50 1.85  47 1.85  44 1.88  83 1.88  53 1.88  68 1.90  25 2.53  19 2.72
                            28 2.77  34 2.81  31 2.81  13 2.82   4 2.83   8 2.84
  17  0.003  0.999  0.333-  85 1.86  88 1.86  82 1.87  52 1.89  55 1.89  49 1.94  20 2.77  26 2.79
                            11 2.80  14 2.80  32 2.83  35 2.83
  18  0.224  0.334  0.441-  48 1.83  57 1.86  69 1.88  72 1.89  54 1.90  51 1.91  12 2.70  33 2.79
                            27 2.81  21 2.82  15 2.86  36 2.87
  19  0.115  0.662  0.228-  38 1.84  41 1.86  53 1.86  56 1.87  50 1.90  89 2.14  16 2.72  22 2.74
                            28 2.79  34 2.82  37 2.85  13 2.90
  20  0.334  0.999  0.333-  55 1.86  58 1.86  61 1.86  52 1.87  73 2.00  40 2.02  17 2.77  32 2.78
                            29 2.81  26 2.82  23 2.82  11 2.82
  21  0.564  0.329  0.449-  60 1.86  75 1.86  57 1.87  78 1.88  72 1.90  81 1.90  30 2.73  33 2.77
                            24 2.78  12 2.81   5 2.82  18 2.82  27 2.83
  22  0.440  0.666  0.223-  65 1.81  56 1.86  62 1.86  59 1.87  41 1.90  80 2.02  19 2.74  28 2.77
                            34 2.82  31 2.86  13 2.87  25 2.91
  23  0.334  0.999  0.999-  40 1.86  61 1.87  43 1.87  46 1.87  67 1.89  64 1.90  35 2.78  26 2.79
                            32 2.81  11 2.82  14 2.82  20 2.82
  24  0.549  0.328  0.112-  84 1.86  81 1.87  63 1.88  66 1.89  87 1.89  60 1.91  12 2.75  21 2.78
                            36 2.80  15 2.81  10 2.83  27 2.83  33 2.86
  25  0.381  0.713  0.862-  62 1.56  68 1.60  47 2.02  86 2.14  65 2.45  71 2.46  13 2.50  16 2.53
                             6 2.65  22 2.91  28 2.95
  26  0.332  0.999  0.667-  52 1.86  70 1.87  67 1.87  73 1.87  49 1.89  46 1.89  14 2.77  23 2.79
                            17 2.79  35 2.81  20 2.82  29 2.82
  27  0.553  0.334  0.778-  72 1.85  66 1.85  75 1.86  69 1.88  90 1.90  87 1.96  36 2.76  18 2.81
                            15 2.81  21 2.83  30 2.83  24 2.83
  28  0.448  0.676  0.555-  68 1.85  74 1.86  53 1.86  59 1.87  56 1.89  71 2.03  22 2.77  16 2.77
                            19 2.79  31 2.80  37 2.81   5 2.81   6 2.82  25 2.95
  29  0.668  0.999  0.666-  58 1.86  91 1.86  70 1.88  73 1.88  76 1.89  79 1.89  14 2.79  11 2.79
                            32 2.79  20 2.81  35 2.82  26 2.82   6 2.84
  30  0.888  0.338  0.772-  39 1.84  42 1.86  45 1.87  78 1.87  75 1.90  90 2.15  21 2.73  15 2.74
                            33 2.78  27 2.83  36 2.86  12 2.90
  31  0.783  0.667  0.559-  59 1.84  80 1.87  83 1.88  44 1.88  77 1.90  74 1.90  13 2.69  28 2.80
                            34 2.81  16 2.81  37 2.86  22 2.86
  32  0.666  0.999  0.334-  64 1.86  85 1.87  82 1.88  79 1.88  58 1.89  61 1.91  20 2.78  29 2.79
                            14 2.80  23 2.81  35 2.82  17 2.83
  33  0.893  0.325  0.445-  81 1.85  51 1.85  78 1.86  48 1.87  45 1.89  84 2.07  15 2.77  21 2.77
                            30 2.78  18 2.79   4 2.80  36 2.81   9 2.82  24 2.86
  34  0.776  0.667  0.222-  65 1.85  83 1.85  50 1.86  80 1.89  89 1.91  86 1.95  37 2.76  16 2.81
                            31 2.81  22 2.82  19 2.82
  35  0.666  1.000  0.999-  64 1.86  88 1.86  91 1.86  67 1.87  70 1.99  85 2.02  23 2.78  11 2.79
                            26 2.81  29 2.82  32 2.82  17 2.83   6 2.83
  36  0.879  0.339  0.107-  51 1.84  87 1.85  90 1.85  84 1.87  39 1.90  54 2.18  27 2.76  24 2.80
                            33 2.81   1 2.83  12 2.85  30 2.86  18 2.87
  37  0.773  0.662  0.893-  86 1.85  74 1.85  89 1.86  71 1.86  38 1.90  77 2.17  34 2.76  28 2.81
                            13 2.83   1 2.84  19 2.85  31 2.86
  38  0.006  0.723  0.006-  13 1.84  19 1.84  37 1.90   2 2.21
  39  0.999  0.278  0.994-  30 1.84  12 1.85  36 1.90   3 2.23
  40  0.215  0.069  0.095-  23 1.86  11 1.86  20 2.02   3 2.08
  41  0.235  0.585  0.143-  19 1.86  22 1.90   1 2.12   5 2.13  13 2.25
  42  0.092  0.416  0.857-  30 1.86  15 1.90   1 2.11   4 2.14  12 2.25
  43  0.121  0.926  0.899-  23 1.87  11 1.93  14 2.02   2 2.07
  44  0.002  0.737  0.662-  16 1.88  31 1.88  13 1.91   8 2.11
  45  0.001  0.264  0.674-  15 1.86  30 1.87  33 1.89   3 2.10
  46  0.220  0.066  0.780-  14 1.85  23 1.87  26 1.89   3 2.16
  47  0.211  0.602  0.760-  16 1.85  13 1.86  25 2.02   4 2.14
  48  0.112  0.394  0.552-  18 1.83  15 1.86  33 1.87   4 2.00
  49  0.111  0.930  0.559-  14 1.86  26 1.89  17 1.94   8 2.10
  50  0.996  0.733  0.329-  16 1.85  34 1.86  19 1.90   8 2.16
  51  0.995  0.270  0.317-  36 1.84  33 1.85  18 1.91   9 2.16
  52  0.228  0.065  0.449-  26 1.86  20 1.87  17 1.89   7 2.14
  53  0.236  0.602  0.452-  19 1.86  28 1.86  16 1.88   5 2.16
  54  0.140  0.415  0.238-  12 1.84  18 1.90   1 2.15   5 2.15  36 2.18
  55  0.113  0.934  0.217-  20 1.86  11 1.86  17 1.89   2 2.12
  56  0.327  0.736  0.326-  22 1.86  19 1.87  28 1.89   2 2.09
  57  0.340  0.265  0.340-  18 1.86  21 1.87  12 1.91   7 2.12
  58  0.555  0.065  0.448-  29 1.86  20 1.86  32 1.89   7 2.12
  59  0.560  0.607  0.449-  31 1.84  22 1.87  28 1.87   5 2.00
  60  0.452  0.399  0.237-  21 1.86  12 1.87  24 1.91   5 2.16
  61  0.438  0.932  0.217-  20 1.86  23 1.87  32 1.91   2 2.14
  62  0.317  0.732  0.005-  25 1.56  13 1.85  22 1.86   2 2.06
  63  0.316  0.270  0.996-  12 1.84  15 1.86  24 1.88   3 2.10
  64  0.561  0.065  0.115-  35 1.86  32 1.86  23 1.90   9 2.14
  65  0.552  0.606  0.117-  22 1.81  34 1.85  10 2.00  25 2.45
  66  0.438  0.394  0.890-  15 1.82  27 1.85  24 1.89  10 2.01
  67  0.446  0.932  0.885-  35 1.87  26 1.87  23 1.89   6 2.13
  68  0.336  0.743  0.661-  25 1.60  28 1.85  16 1.90   6 2.13
  69  0.336  0.263  0.657-  27 1.88  18 1.88  15 2.01   7 2.08
  70  0.548  0.069  0.765-  26 1.87  29 1.88  35 1.99   7 2.09
  71  0.550  0.598  0.785-  37 1.86  28 2.03  10 2.12  25 2.46
  72  0.451  0.397  0.560-  27 1.85  18 1.89  21 1.90   5 2.00
  73  0.450  0.928  0.569-  26 1.87  29 1.88  20 2.00   6 2.05
  74  0.679  0.732  0.682-  37 1.85  28 1.86  31 1.90   6 2.15
  75  0.667  0.268  0.673-  27 1.86  21 1.86  30 1.90   7 2.18
  76  0.895  0.065  0.780-  14 1.85  11 1.86  29 1.89   3 2.14
  77  0.902  0.586  0.762-  13 1.83  31 1.90   1 2.15   4 2.16  37 2.17
  78  0.784  0.398  0.547-  33 1.86  30 1.87  21 1.88   4 2.15
  79  0.781  0.933  0.554-  14 1.86  32 1.88  29 1.89   8 2.12
  80  0.680  0.738  0.346-  31 1.87  34 1.89  22 2.02   8 2.06
  81  0.672  0.262  0.330-  33 1.85  24 1.87  21 1.90   9 2.11
  82  0.886  0.068  0.435-  17 1.87  32 1.88  14 1.95   9 2.11
  83  0.893  0.604  0.441-  34 1.85  16 1.88  31 1.88   4 2.00
  84  0.757  0.403  0.209-  24 1.86  36 1.87  33 2.07  10 2.12
  85  0.786  0.930  0.237-  17 1.86  32 1.87  35 2.02   8 2.06
  86  0.670  0.738  0.996-  37 1.85  34 1.95   6 2.11  25 2.14
  87  0.671  0.264  0.007-  36 1.85  24 1.89  27 1.96   9 2.11
  88  0.887  0.065  0.114-  35 1.86  17 1.86  11 1.89   9 2.11
  89  0.861  0.587  0.099-  37 1.86  34 1.91   1 2.12  19 2.14  10 2.17
  90  0.761  0.414  0.902-  36 1.85  27 1.90   1 2.12  30 2.15  10 2.18
  91  0.773  0.934  0.885-  29 1.86  35 1.86  11 1.88   6 2.06

  LATTYP: Found a base centered monoclinic cell.
 ALAT       =    14.6249098366
 B/A-ratio  =     0.5731202362
 C/A-ratio  =     1.3956243751
 COS(beta)  =    -0.6170579448

  Lattice vectors:

 A1 = (   4.1909158800,  -0.0552290600,   7.3122463500)
 A2 = (  -4.1909159000,  -0.0552290600,   7.3122463500)
 A3 = (   0.0000000100, -14.2382675300, -14.6244927000)

Analysis of symmetry for initial positions (statically):
 Subroutine PRICEL returns:
 Original cell was already a primitive cell.

 Routine SETGRP: Setting up the symmetry group for a
 base centered monoclinic supercell.

 Subroutine GETGRP returns: Found  1 space group operations
 (whereof  1 operations were pure point group operations)
 out of a pool of  4 trial point group operations.

The static configuration has the point symmetry C_1 .

Analysis of symmetry for dynamics (positions and initial velocities):
 Subroutine PRICEL returns:
 Original cell was already a primitive cell.

[...]

The dynamic configuration has the point symmetry C_1 .

Analysis of structural, dynamic, and magnetic symmetry:
 Subroutine PRICEL returns:
 Original cell was already a primitive cell.

 Routine SETGRP: Setting up the symmetry group for a
 base centered monoclinic supercell.

 Subroutine GETGRP returns: Found  1 space group operations
 (whereof  1 operations were pure point group operations)
 out of a pool of  4 trial point group operations.

[...]
   -.476E+02 0.353E+03 0.519E+01   0.521E+02 -.375E+03 -.621E+01   -.437E+01 0.218E+02 0.118E+01   0.152E-04 -.650E-01 0.319E-01
   0.230E+02 -.366E+03 0.228E+02   -.248E+02 0.389E+03 -.236E+02   0.182E+01 -.227E+02 0.707E+00   -.143E-01 -.880E-01 0.117E-01
   0.199E+02 0.365E+03 -.417E+02   -.208E+02 -.389E+03 0.446E+02   0.528E+00 0.240E+02 -.302E+01   -.215E-01 0.295E-01 -.332E-01
   0.663E+02 -.297E+03 -.496E+01   -.712E+02 0.316E+03 0.572E+01   0.403E+01 -.201E+02 -.102E+01   0.594E-03 0.431E-01 0.147E-01
   0.272E+02 0.335E+03 -.595E+01   -.292E+02 -.357E+03 0.659E+01   0.200E+01 0.224E+02 -.690E+00   -.103E-01 0.248E-01 0.636E-01
   -.612E+01 -.369E+03 -.164E+02   0.537E+01 0.391E+03 0.180E+02   0.113E+01 -.221E+02 -.151E+01   -.163E-01 0.302E-01 -.368E-01
   0.109E+02 0.385E+03 0.478E+02   -.108E+02 -.406E+03 -.529E+02   -.219E+00 0.213E+02 0.616E+01   0.312E-02 -.637E-01 0.162E-01
   -.211E+02 -.359E+03 0.175E+02   0.230E+02 0.382E+03 -.185E+02   -.190E+01 -.224E+02 0.102E+01   0.614E-02 -.624E-01 -.495E-01
   -.237E+02 0.341E+03 -.173E+02   0.244E+02 -.361E+03 0.174E+02   -.634E+00 0.194E+02 -.131E-01   0.137E-01 0.243E-01 -.209E-01
   -.440E+02 -.342E+03 0.229E+02   0.469E+02 0.365E+03 -.238E+02   -.266E+01 -.235E+02 0.672E+00   0.172E-01 0.198E-01 -.167E-02
[...]
   0.270E+02 -.343E+03 0.300E+02   -.281E+02 0.366E+03 -.325E+02   0.641E+00 -.236E+02 0.291E+01   0.113E-01 0.149E-01 -.176E-02
   0.328E+02 0.336E+03 -.124E+02   -.349E+02 -.358E+03 0.132E+02   0.195E+01 0.228E+02 -.999E+00   0.483E-01 0.352E-01 -.507E-01
   0.472E+02 -.341E+03 0.402E+02   -.519E+02 0.362E+03 -.422E+02   0.436E+01 -.205E+02 0.146E+01   -.552E-03 0.428E-01 0.303E-02
   0.282E+02 0.365E+03 -.363E+01   -.310E+02 -.387E+03 0.428E+01   0.255E+01 0.220E+02 -.733E+00   -.352E-02 -.573E-01 0.172E-02
   -.232E+01 -.369E+03 -.390E+02   0.218E+01 0.390E+03 0.437E+02   0.126E+00 -.207E+02 -.504E+01   0.604E-02 -.912E-01 -.873E-02
   0.477E+01 0.361E+03 0.442E+02   -.428E+01 -.382E+03 -.458E+02   -.833E+00 0.203E+02 0.191E+01   0.776E-02 0.301E-01 0.127E-01
   0.665E+01 -.340E+03 -.659E+02   -.778E+01 0.361E+03 0.728E+02   0.144E+01 -.216E+02 -.659E+01   -.202E-01 0.265E-01 0.180E-01
   -.162E+01 0.340E+03 0.569E+02   0.155E+01 -.360E+03 -.632E+02   0.249E-01 0.207E+02 0.634E+01   -.501E-02 0.655E-01 0.157E-01
   0.218E+02 -.290E+03 -.318E+02   -.246E+02 0.305E+03 0.343E+02   0.220E+01 -.156E+02 -.203E+01   0.297E-01 0.388E-01 0.170E-01
   -.749E+01 0.376E+03 0.479E+02   0.861E+01 -.397E+03 -.519E+02   -.194E+01 0.209E+02 0.334E+01   -.285E-01 -.836E-01 0.154E-01
   -.313E+02 -.366E+03 0.158E+02   0.336E+02 0.387E+03 -.168E+02   -.225E+01 -.216E+02 0.950E+00   -.513E-01 -.694E-01 0.459E-01
   0.312E+01 0.302E+03 -.343E+02   -.270E+01 -.321E+03 0.381E+02   0.332E+00 0.200E+02 -.332E+01   0.290E-01 0.480E-01 0.597E-02
   -.187E+02 -.301E+03 0.489E+02   0.199E+02 0.321E+03 -.533E+02   -.437E+00 -.203E+02 0.392E+01   0.193E-01 0.501E-01 0.109E-02
   -.330E+02 0.337E+03 -.229E+02   0.352E+02 -.359E+03 0.241E+02   -.214E+01 0.223E+02 -.123E+01   -.483E-01 0.380E-02 0.302E-01
   -.115E+02 -.301E+01 -.448E+01   0.206E-12 0.227E-12 -.117E-12   0.115E+02 0.291E+01 0.448E+01   -.207E-01 0.971E-01 -.127E-02

 POSITION                                       TOTAL-FORCE (eV/Angst)
      8.35999      7.17501      0.00074         0.036714     -0.000684     -0.018708
      1.37260     11.93290      0.82088        -0.166239     -0.030713      0.016014
     -2.81038      2.35593      6.49127        -0.027848      0.063494      0.052430
      5.78398      7.13143      4.52346        -0.102006      0.018756      0.250436
      1.59701      7.17059      2.78437        -0.054613      0.099773     -0.156980
      1.45782     11.95061      5.71394         0.299302     -0.001709      0.060272
      1.41352      2.34697      4.04772        -0.026477      0.011676      0.024449
      5.60221     11.94174      3.26038        -0.005328     -0.031161     -0.033981
      5.61505      2.35961      1.59681         0.047944     -0.006190     -0.026456
      0.96454      7.14192      7.30056        -0.025677      0.405742     -0.100326
      4.18033     14.28570      7.30250         0.641430     -0.340288     -0.156298
      1.38320      4.82935      0.89068         0.259056      0.696681     -1.209636
     -2.81570      9.46821      6.42154        -0.289846     -0.793809      1.439164
     -2.78473     -0.03519      4.86016         0.015619     -0.502541      0.425179
     -1.43695      4.75673      5.68165         0.054672     -0.627320     -0.268877
     -1.34667      9.61352      4.01860        -0.085743     -0.497883     -0.392093
     -1.37415     14.31792      2.43600        -0.287111     -0.406019      0.442622
      0.02883      4.76319      3.22833         0.255641     -0.081191     -0.059110
      0.01250      9.48718      1.66458        -0.870544     -0.492565     -0.482762
      1.39885     14.31504      2.43801        -0.012029      0.004270     -0.089888
      2.84779      4.69427      3.28099        -0.297302      0.509848     -0.308806
      2.75327      9.54925      1.63031         0.566577      0.178600      0.441633
     -1.38440     14.27939      7.30559        -0.186965     -0.121853     -0.006847
      4.12974      4.69915      0.81920         0.435413      0.834737     -0.014703
     -0.42341     10.18283      6.30418         4.660871     -2.223333      0.276264
     -0.01351     14.29505      4.87694         0.220008     -0.115664      0.050013
      1.37530      4.75094      5.69230         0.125598     -0.378322      0.683379
      1.42716      9.66680      4.05937        -0.202848     -1.741665      1.408564
      2.81121     14.30026      4.87116        -0.327345     -0.065544      0.018233
      4.20543      4.81405      5.64630        -0.737288      0.592107      0.489155
      4.22321      9.54054      4.08908         0.018281     -0.073776     -0.029421
      4.18146     14.32207      2.43951         0.210823     -0.275920      0.034457
      5.62108      4.63893      3.25532        -0.016507      1.339602     -1.087984
      5.57082      9.55915      1.62296        -0.849870      0.118727     -1.258837
      1.39351     14.28775      7.30637         0.079457     -0.130358      0.161834
      6.92139      4.85965      0.77932         0.948053      0.663372      0.525343
      2.74075      9.44662      6.52990        -0.504072     -0.723689     -0.806102
      0.02850     10.36703      0.04314        -0.294413      0.005466     -0.086995
      4.21057      3.93876      7.26847        -0.273135      0.153334      0.235373
      1.40066      0.98152      0.69406        -0.014860     -0.116917     -0.110340
      1.36859      8.38193      1.04453         0.084618      0.807162     -0.511287
     -2.81922      5.91939      6.26922        -0.119222     -0.622261      0.345745
     -2.75236     13.24110      6.57351        -0.407330      0.770443      0.185923
     -2.75567     10.54374      4.84016        -0.207852      0.191664     -0.887005
     -2.81810      3.75795      4.92658         0.530687     -0.350606      0.370233
     -1.42673      0.89752      5.70692         0.175563      0.008780      0.035900
     -1.41787      8.59337      5.55807         0.078349      0.416326      0.110305
     -1.37227      5.62599      4.03649        -0.431852      0.353048      0.176409
     -1.41690     13.31238      4.08885         0.052549      0.605618     -0.651174
      6.97269     10.50250      2.40300         0.532826      0.199617     -0.242232
      7.00723      3.84952      2.31806         0.199346     -0.315839      0.190212
      0.02684      0.90676      3.28537        -0.006476     -0.026896     -0.095726
      0.08469      8.61621      3.30764        -0.347522      0.467668     -0.164760
      0.17951      5.93647      1.74050        -0.883935     -0.938878     -0.248542
      0.03301     13.38278      1.58871        -0.089765      0.042971      0.011742
      1.37050     10.54346      2.38605         0.360725      0.111258      0.029408
      1.42805      3.78270      2.48306        -0.143307     -0.391053      1.008585
      2.77002      0.90739      3.27683         0.010388     -0.005999     -0.033294
      2.81485      8.67867      3.28530         0.097583     -0.637105      0.073518
      2.79261      5.71480      1.73237         0.291876     -0.440505     -0.281785
[...]
      4.36681      8.36866      5.57551        -1.123177      0.957888      0.252686
      4.28031      5.68589      3.99739        -0.386222     -0.378380      0.380687
      4.22850     13.35084      4.04789        -0.125487      0.178595     -0.179970
      4.25248     10.56511      2.52670        -0.319033     -0.174185     -0.571609
      4.24605      3.73602      2.41637        -0.306464     -0.167491     -0.079104
      5.60181      0.95760      3.17733        -0.017191     -0.105489     -0.274960
      5.63339      8.64254      3.22704        -0.339318     -0.247481      0.321390
      5.47169      5.77592      1.53100         0.282320     -0.793965      0.301051
      5.59612     13.32412      1.73322        -0.052349      0.241456      0.037718
      1.44385     10.53015      7.27946        -0.582573     -0.097666      0.477996
      5.59639      3.78921      0.05136        -0.851659     -0.008317     -0.631174
      6.95696      0.92610      0.83652         0.015740      0.127288      0.034839
      6.80131      8.41312      0.72064         0.783976      1.115501      0.495136
      2.59800      5.88986      6.59619         0.748920     -0.898375     -0.423876
      2.77064     13.35227      6.47185        -0.006393     -0.029543      0.007879
    total drift:                                0.002201      0.005734     -0.000360

  FREE ENERGIE OF THE ION-ELECTRON SYSTEM (eV)
  free  energy   TOTEN  =      -553.7403278428 eV

  energy  without entropy=     -553.8201511936  energy(sigma->0) =     -553.76693563

volume of typ            1:     8.9 %

[...]

volume of typ            3:    10.0 %

total charge

# of ion       s       p       d       tot
    1        2.066   0.224   0.087   2.378
    2        2.069   0.227   0.088   2.385
    3        2.065   0.213   0.081   2.359
    4        2.079   0.248   0.097   2.424
    5        2.077   0.246   0.097   2.419
    6        2.074   0.241   0.095   2.409
    7        2.069   0.223   0.085   2.377
    8        2.074   0.237   0.093   2.404
    9        2.067   0.221   0.085   2.373
   10        2.074   0.243   0.094   2.411
   11        0.293   0.400   7.824   8.517
   12        0.288   0.381   7.856   8.524
   13        0.287   0.385   7.870   8.543
   14        0.287   0.385   7.841   8.513
   15        0.292   0.400   7.829   8.521
   16        0.299   0.416   7.847   8.562
   17        0.292   0.397   7.821   8.511
   18        0.294   0.406   7.825   8.525
   19        0.289   0.384   7.838   8.511
   20        0.281   0.371   7.844   8.497
   21        0.296   0.406   7.830   8.532
   22        0.288   0.394   7.837   8.519
   23        0.297   0.408   7.822   8.527
   24        0.293   0.399   7.825   8.517
   25        0.320   0.460   7.988   8.768
   26        0.298   0.411   7.821   8.530
   27        0.292   0.401   7.829   8.523
   28        0.288   0.390   7.839   8.517
   29        0.296   0.406   7.824   8.526
   30        0.288   0.382   7.842   8.512
   31        0.294   0.406   7.821   8.521
   32        0.294   0.400   7.820   8.514
   33        0.291   0.391   7.845   8.526
   34        0.291   0.400   7.810   8.502
   35        0.283   0.374   7.845   8.502
   36        0.287   0.381   7.843   8.511
   37        0.288   0.380   7.823   8.491
   38        1.268   2.773   0.008   4.048
   39        1.269   2.767   0.008   4.044
   40        1.276   2.745   0.007   4.028
   41        1.273   2.742   0.006   4.020
   42        1.273   2.744   0.006   4.023
   43        1.279   2.730   0.006   4.014
   44        1.276   2.752   0.007   4.036
   45        1.275   2.757   0.008   4.039
   46        1.272   2.759   0.008   4.039
   47        1.278   2.742   0.007   4.028
   48        1.268   2.781   0.008   4.057
   49        1.273   2.751   0.007   4.030
   50        1.270   2.767   0.008   4.045
   51        1.269   2.767   0.008   4.044
   52        1.271   2.762   0.008   4.040
   53        1.274   2.756   0.008   4.038
   54        1.271   2.751   0.006   4.028
   55        1.271   2.762   0.008   4.041
   56        1.273   2.757   0.008   4.038
   57        1.275   2.755   0.008   4.038
   58        1.270   2.765   0.008   4.042
   59        1.270   2.780   0.008   4.058
   60        1.275   2.752   0.008   4.035
[...]
   77        1.272   2.749   0.006   4.027
   78        1.274   2.760   0.008   4.041
   79        1.272   2.757   0.007   4.037
   80        1.277   2.734   0.006   4.018
   81        1.270   2.763   0.008   4.041
   82        1.277   2.742   0.007   4.026
   83        1.275   2.761   0.008   4.043
   84        1.281   2.728   0.006   4.015
   85        1.277   2.741   0.007   4.025
   86        1.280   2.709   0.005   3.995
   87        1.277   2.742   0.007   4.026
   88        1.272   2.760   0.007   4.039
   89        1.272   2.743   0.005   4.020
   90        1.272   2.747   0.006   4.025
   91        1.271   2.767   0.008   4.045
tot          97.36  161.86  212.96  472.17

magnetization (x)

# of ion       s       p       d       tot
    1        0.001   0.001   0.000   0.002
    2        0.002   0.004   0.001   0.006
    3        0.003   0.007   0.001   0.011
    4        0.001   0.003   0.001   0.004
    5        0.003   0.006   0.001   0.009
    6        0.002   0.004   0.001   0.007
    7        0.004   0.009   0.001   0.014
    8        0.004   0.008   0.001   0.013
    9        0.003   0.006   0.001   0.009
   10        0.002   0.004   0.000   0.007
   11       -0.001  -0.000   0.090   0.089
   12        0.003   0.003   0.584   0.591
   13        0.003   0.003   0.522   0.528
   14        0.001  -0.000   0.455   0.456
   15       -0.000   0.001   0.171   0.171
   16       -0.000  -0.000   0.037   0.037
   17       -0.001  -0.000   0.070   0.069
   18       -0.001   0.000   0.079   0.078
   19        0.000   0.001   0.178   0.179
   20        0.002  -0.000   0.573   0.574
   21       -0.001  -0.000   0.080   0.078
   22       -0.000   0.000   0.044   0.043
   23       -0.001   0.000   0.044   0.043
   24       -0.001  -0.000   0.086   0.085
   25        0.000  -0.001  -0.093  -0.094
   26       -0.001  -0.000   0.040   0.039
   27       -0.000  -0.000   0.201   0.201
   28       -0.000  -0.000   0.035   0.035
   29       -0.001  -0.000   0.050   0.049
   30       -0.000   0.002   0.264   0.266
   31       -0.000  -0.000   0.020   0.019
   32       -0.001  -0.000   0.070   0.069
   33        0.000   0.000   0.375   0.375
   34       -0.000   0.000   0.010   0.010
   35        0.002  -0.000   0.541   0.542
   36        0.000   0.003   0.303   0.306
   37       -0.000   0.000   0.012   0.012
   38        0.002   0.003   0.000   0.005
   39        0.003   0.002   0.000   0.006
   40        0.007   0.094   0.000   0.102
   41        0.005   0.070   0.000   0.074
   42        0.006   0.101   0.000   0.107
   43        0.006   0.088   0.000   0.095
   44        0.007   0.105   0.000   0.112
   45        0.009   0.119   0.000   0.128
   46        0.002   0.002   0.000   0.004
   47        0.000   0.004   0.000   0.004
   48        0.002   0.002   0.000   0.005
   49        0.002   0.009   0.000   0.010
   50        0.001   0.001   0.000   0.002
   51        0.002   0.001   0.000   0.003
   52        0.002   0.007   0.000   0.009
   53        0.001   0.001   0.000   0.001
   54        0.003   0.032   0.000   0.035
   55        0.002   0.010   0.000   0.012
   56        0.003   0.041   0.000   0.043
   57        0.008   0.118   0.000   0.126
   58        0.002   0.006   0.000   0.008
   59        0.001  -0.001   0.000  -0.001
   60        0.002   0.019   0.000   0.021
[...]
   77        0.001   0.013   0.000   0.014
   78        0.001   0.015   0.000   0.017
   79        0.002   0.008   0.000   0.010
   80        0.001   0.001   0.000   0.002
   81        0.002   0.023   0.000   0.026
   82        0.007   0.081   0.000   0.088
   83        0.000   0.003   0.000   0.004
   84        0.005   0.070   0.000   0.074
   85        0.007   0.089   0.000   0.096
   86        0.000   0.002   0.000   0.003
   87        0.007   0.099   0.000   0.106
   88        0.003   0.019   0.000   0.022
   89        0.002   0.014   0.000   0.015
   90        0.003   0.025   0.000   0.028
   91        0.002   0.007   0.000   0.009
tot           0.19    1.59    4.85    6.63