 vasp.5.4.4.18Apr17-6-g9f103f2a35 (build May 12 2020 04:58:55) complex

 MD_VERSION_INFO: Compiled 2020-05-12T11:58:55-UTC in devlin.sd.materialsdesign.
 com:/home/medea2/data/build/wwolf/vasp-gpu5.4.4/13047/x86_64/src/src/build/std
 from svn 13047

 executed on                        Lin64 date 2023.03.23  17:32:16

 INCAR:
 POTCAR:    PAW_PBE Ni 02Aug2007
 POTCAR:    PAW_PBE O 08Apr2002

 POTCAR:    PAW_PBE Ni 02Aug2007

 POTCAR:    PAW_PBE O 08Apr2002

 Optimization of the real space projectors (new method)

 maximal supplied QI-value         = 16.25
 optimisation between [QCUT,QGAM] = [ 11.38, 22.75] = [ 36.24,144.96] Ry
 Optimized for a Real-space Cutoff    1.47 Angstroem

   l    n(q)    QCUT    max X(q) W(low)/X(q) W(high)/X(q)  e(spline)
   2      9    11.376    60.317    0.17E-03    0.16E-04    0.16E-06
   2      9    11.376    55.921    0.17E-03    0.16E-04    0.17E-06
   0     10    11.376    51.690    0.45E-04    0.60E-04    0.21E-06
   0     10    11.376    30.015    0.37E-04    0.55E-04    0.19E-06
   1     10    11.376    18.849    0.83E-04    0.11E-03    0.92E-07
   1     10    11.376    14.624    0.69E-04    0.92E-04    0.82E-07
 Optimization of the real space projectors (new method)

 maximal supplied QI-value         = 24.76
 optimisation between [QCUT,QGAM] = [ 11.39, 22.77] = [ 36.31,145.25] Ry
 Optimized for a Real-space Cutoff    1.10 Angstroem

   l    n(q)    QCUT    max X(q) W(low)/X(q) W(high)/X(q)  e(spline)
   0      7    11.387    20.381    0.22E-03    0.48E-03    0.18E-06
   0      7    11.387    15.268    0.22E-03    0.52E-03    0.19E-06
   1      7    11.387     5.964    0.22E-03    0.73E-03    0.24E-06
   1      7    11.387     5.382    0.19E-03    0.60E-03    0.21E-06

  PAW_PBE Ni 02Aug2007                  :
  PAW_PBE O 08Apr2002                   :

 POSCAR: NiO_Fm-3m_scale_1_050_disp_0_20_round_2
  positions in direct lattice
 exchange correlation table for  LEXCH =       14
   RHO(1)=    0.500       N(1)  =     2000
   RHO(2)=  100.500       N(2)  =     4000

 ion  position               nearest neighbor table
   1  0.956  0.990  0.982-  50 2.12  40 2.19  36 2.28  43 2.36  35 2.46  34 2.51  20 2.66  19 2.68
                            28 2.95   2 3.01
   2  0.979  0.205  0.257-  36 1.77  39 2.00  35 2.07  33 2.12  49 2.17   5 2.32  13 2.85  19 2.89
                             8 2.92   3 2.93  24 3.01   1 3.01  20 3.06
   3  0.265  0.027  0.220-  52 1.83  33 1.84  34 1.93  36 2.37  17 2.43  38 2.45   8 2.61   4 2.81
                            18 2.88   2 2.93   5 3.06
   4  0.255  0.239  0.973-  51 1.86  37 2.09  34 2.25  35 2.26  33 2.40  42 2.48  22 2.52  25 2.59
                            17 2.65   3 2.81  15 2.97   7 3.01
   5  0.991  0.013  0.444-  36 1.74  39 1.91  38 2.19   2 2.32  54 2.40   8 2.79   6 2.85  19 3.05
                             3 3.06
   6  0.023  0.245  0.677-  39 1.69  37 2.01  48 2.04  53 2.39  13 2.55   8 2.72  15 2.83   5 2.85
                            24 2.91   7 2.95
   7  0.230  0.981  0.739-  56 1.87  38 2.09  40 2.15  34 2.27  45 2.38  37 2.48  22 2.84  21 2.89
                             6 2.95  16 2.95  30 2.98   4 3.01
   8  0.248  0.209  0.460-  38 1.59  33 1.85  55 2.03  39 2.30  37 2.40   3 2.61  18 2.68   6 2.72
                             5 2.79  21 2.84   2 2.92
   9  0.974  0.472  0.973-  35 1.83  48 1.91  42 2.16  58 2.22  43 2.32  44 2.37  28 2.96  20 2.98
                            14 3.03  10 3.03
  10  0.020  0.692  0.242-  44 1.68  43 1.74  11 2.09  47 2.28  41 2.37  12 2.79  16 2.87  13 2.90
                             9 3.03  28 3.06
  11  0.184  0.518  0.281-  44 1.46  46 1.62  42 1.91  41 1.96  10 2.09  60 2.16  33 2.49  13 2.54
                            16 2.72  26 2.96  12 3.04
  12  0.229  0.722  0.997-  41 1.87  42 1.93  43 1.94  59 1.97  45 2.05  34 2.23  10 2.79  26 2.85
                            11 3.04
  13  0.972  0.454  0.474-  46 1.83  39 1.94  44 2.08  62 2.18  47 2.32  48 2.50  11 2.54   6 2.55
                            24 2.64   2 2.85  10 2.90  31 2.99  14 3.00
  14  0.946  0.706  0.712-  61 1.79  47 1.85  40 1.98  48 2.22  13 3.00   9 3.03  31 3.06
  15  0.253  0.475  0.721-  37 1.79  48 1.98  45 2.04  64 2.04  46 2.28  29 2.75  22 2.79  30 2.83
                             6 2.83   4 2.97
  16  0.237  0.750  0.488-  63 1.75  47 2.08  46 2.26  45 2.39  38 2.43  41 2.53  11 2.72  30 2.82
                            29 2.84  10 2.87  21 2.87   7 2.95
  17  0.459  0.014  0.016-  51 1.77  34 1.87  50 2.19  52 2.37   3 2.43   4 2.65  22 2.87  19 2.89
                            20 3.02
  18  0.477  0.282  0.263-  60 1.95  55 1.99  52 2.20  51 2.22  49 2.22  33 2.24  27 2.51  25 2.64
                             8 2.68   3 2.88  29 2.97  24 3.05
  19  0.737  0.980  0.202-  50 1.76  49 2.16  36 2.24  54 2.42  52 2.51   1 2.68  28 2.72  20 2.73
                             2 2.89  17 2.89   5 3.05
  20  0.745  0.215  0.990-  50 1.88  35 2.28  49 2.30  51 2.42   1 2.66  19 2.73  27 2.89   9 2.98
                            17 3.02   2 3.06  25 3.08
  21  0.477  0.979  0.512-  56 1.88  52 1.97  54 2.11  38 2.11  55 2.33  63 2.34  23 2.46   8 2.84
                            30 2.84  16 2.87  32 2.88   7 2.89  22 3.00
  22  0.453  0.223  0.758-  56 1.76  37 1.82  64 2.07  51 2.21  55 2.33   4 2.52  15 2.79  23 2.79
                             7 2.84  25 2.85  17 2.87  31 2.95  21 3.00
  23  0.692  0.015  0.695-  54 1.88  53 2.10  56 2.17  61 2.33  21 2.46  24 2.73  22 2.79
  24  0.736  0.261  0.501-  53 1.38  54 2.11  49 2.14  39 2.15  55 2.23  31 2.33  62 2.48  13 2.64
                            23 2.73   6 2.91  27 2.99   2 3.01  18 3.05
  25  0.472  0.444  0.003-  51 1.94  60 2.11  59 2.18  58 2.24  42 2.41   4 2.59  18 2.64  27 2.73
                            26 2.76  22 2.85  20 3.08
  26  0.476  0.685  0.213-  41 1.60  60 1.65  59 1.68  57 2.10  63 2.21  25 2.76  27 2.78  32 2.83
                            29 2.84  12 2.85  28 2.88  11 2.96
  27  0.704  0.457  0.218-  57 1.70  49 2.05  62 2.08  58 2.26  60 2.40  18 2.51  25 2.73  26 2.78
                            28 2.89  20 2.89  24 2.99
  28  0.745  0.723  0.020-  58 1.92  57 2.16  43 2.29  50 2.41  59 2.52  19 2.72  26 2.88  27 2.89
                             1 2.95   9 2.96  10 3.06
  29  0.479  0.528  0.503-  63 1.69  64 1.89  32 2.17  62 2.30  60 2.35  55 2.42  30 2.56  31 2.71
                            15 2.75  16 2.84  26 2.84  18 2.97
  30  0.462  0.727  0.723-  45 1.88  63 2.24  64 2.36  61 2.44  29 2.56  32 2.69  16 2.82  15 2.83
                            21 2.84   7 2.98
  31  0.709  0.442  0.699-  53 1.73  64 1.91  24 2.33  58 2.35  62 2.39  29 2.71  32 2.93  22 2.95
                            13 2.99  14 3.06
  32  0.660  0.701  0.484-  62 1.57  63 1.95  57 2.06  29 2.17  61 2.25  30 2.69  26 2.83  21 2.88
                            31 2.93
  33  0.222  0.234  0.249-   3 1.84   8 1.85   2 2.12  18 2.24   4 2.40  11 2.49
  34  0.246  0.980  0.002-  17 1.87   3 1.93  12 2.23   4 2.25   7 2.27   1 2.51
  35  0.000  0.269  0.027-   9 1.83   2 2.07   4 2.26  20 2.28   1 2.46
  36  0.992  0.001  0.243-   5 1.74   2 1.77  19 2.24   1 2.28   3 2.37
  37  0.248  0.267  0.732-  15 1.79  22 1.82   6 2.01   4 2.09   8 2.40   7 2.48
  38  0.238  0.031  0.502-   8 1.59   7 2.09  21 2.11   5 2.19  16 2.43   3 2.45
  39  0.983  0.230  0.487-   6 1.69   5 1.91  13 1.94   2 2.00  24 2.15   8 2.30
  40  0.986  0.930  0.737-  14 1.98   7 2.15   1 2.19
  41  0.292  0.702  0.204-  26 1.60  12 1.87  11 1.96  10 2.37  16 2.53
  42  0.206  0.509  0.060-  11 1.91  12 1.93   9 2.16  25 2.41   4 2.48
  43  0.010  0.729  0.044-  10 1.74  12 1.94  28 2.29   9 2.32   1 2.36
  44  0.021  0.497  0.242-  11 1.46  10 1.68  13 2.08   9 2.37
  45  0.248  0.707  0.761-  30 1.88  15 2.04  12 2.05   7 2.38  16 2.39
  46  0.180  0.495  0.467-  11 1.62  13 1.83  16 2.26  15 2.28
  47  0.998  0.720  0.504-  14 1.85  16 2.08  10 2.28  13 2.32
  48  0.026  0.466  0.758-   9 1.91  15 1.98   6 2.04  14 2.22  13 2.50
  49  0.728  0.224  0.255-  27 2.05  24 2.14  19 2.16   2 2.17  18 2.22  20 2.30
  50  0.712  0.000  0.000-  19 1.76  20 1.88   1 2.12  17 2.19  28 2.41
  51  0.466  0.219  0.014-  17 1.77   4 1.86  25 1.94  22 2.21  18 2.22  20 2.42
  52  0.464  0.028  0.290-   3 1.83  21 1.97  18 2.20  17 2.37  19 2.51
  53  0.746  0.250  0.660-  24 1.38  31 1.73  23 2.10   6 2.39
  54  0.716  0.018  0.479-  23 1.88  21 2.11  24 2.11   5 2.40  19 2.42
  55  0.479  0.248  0.491-  18 1.99   8 2.03  24 2.23  22 2.33  21 2.33  29 2.42
  56  0.443  0.023  0.723-  22 1.76   7 1.87  21 1.88  23 2.17
  57  0.713  0.650  0.258-  27 1.70  62 1.85  32 2.06  26 2.10  28 2.16
  58  0.720  0.511  0.962-  28 1.92   9 2.22  25 2.24  27 2.26  31 2.35
  59  0.454  0.695  0.021-  26 1.68  12 1.97  25 2.18  28 2.52
  60  0.430  0.501  0.237-  26 1.65  18 1.95  25 2.11  11 2.16  29 2.35  27 2.40
  61  0.744  0.752  0.726-  14 1.79  32 2.25  23 2.33  30 2.44
  62  0.738  0.542  0.441-  32 1.57  57 1.85  27 2.08  13 2.18  29 2.30  31 2.39  24 2.48
  63  0.436  0.715  0.465-  29 1.69  16 1.75  32 1.95  26 2.21  30 2.24  21 2.34
  64  0.488  0.455  0.710-  29 1.89  31 1.91  15 2.04  22 2.07  30 2.36

  LATTYP: Found a simple cubic cell.
 ALAT       =     8.6308845000

  Lattice vectors:

 A1 = (   8.6308845000,   0.0000000000,   0.0000000000)
 A2 = (   0.0000000000,   8.6308845000,   0.0000000000)
 A3 = (   0.0000000000,   0.0000000000,   8.6308845000)

Analysis of symmetry for initial positions (statically):
 Subroutine PRICEL returns:
 Original cell was already a primitive cell.

 Routine SETGRP: Setting up the symmetry group for a
 simple cubic supercell.

 Subroutine GETGRP returns: Found  1 space group operations
 (whereof  1 operations were pure point group operations)
 out of a pool of 48 trial point group operations.

The static configuration has the point symmetry C_1 .

Analysis of symmetry for dynamics (positions and initial velocities):
 Subroutine PRICEL returns:
 Original cell was already a primitive cell.

[...]

The dynamic configuration has the point symmetry C_1 .

Analysis of structural, dynamic, and magnetic symmetry:
 Subroutine PRICEL returns:
 Original cell was already a primitive cell.

 Routine SETGRP: Setting up the symmetry group for a
 simple cubic supercell.

 Subroutine GETGRP returns: Found  1 space group operations
 (whereof  1 operations were pure point group operations)
 out of a pool of 48 trial point group operations.

The magnetic configuration has the point symmetry C_1 .

 Subroutine INISYM returns: Found  1 space group operations
 (whereof  1 operations are pure point group operations),
 and found     1 'primitive' translations

 KPOINTS: Automatic mesh

Automatic generation of k-mesh.
Space group operators:
 irot       det(A)        alpha          n_x          n_y          n_z        tau_x        tau_y        tau_z
    1     1.000000     0.000000     1.000000     0.000000     0.000000     0.000000     0.000000     0.000000

 Subroutine IBZKPT returns following result:

 Found     14 irreducible k-points:

 Following reciprocal coordinates:
            Coordinates               Weight
[...]
   -.335E+03 -.414E+03 -.566E+00   0.341E+03 0.418E+03 0.982E+00   0.304E+00 0.880E+00 0.278E+01   0.732E-02 0.416E-01 -.111E+00
   -.162E+03 0.109E+03 0.178E+03   0.163E+03 -.112E+03 -.179E+03   -.362E+00 -.739E+00 0.375E+00   0.845E-01 0.530E-01 -.218E+00
   -.152E+02 -.202E+03 0.177E+03   0.150E+02 0.198E+03 -.177E+03   0.355E+00 0.452E+01 0.125E+00   0.187E-01 -.750E-01 -.144E+00
   0.544E+01 0.164E+03 -.557E+02   -.724E+01 -.170E+03 0.584E+02   0.842E+00 0.101E+01 -.232E+01   -.965E-01 0.984E-01 0.204E+00
   -.215E+03 -.145E+03 -.263E+03   0.211E+03 0.144E+03 0.265E+03   0.428E+01 0.896E+00 -.179E+01   -.177E+00 0.504E-01 0.786E-01
   -.159E+03 -.223E+03 -.292E+03   0.156E+03 0.225E+03 0.296E+03   0.245E+01 0.699E+00 -.163E+01   0.171E-01 0.858E-01 0.220E+00
   -.249E+03 -.456E+03 -.122E+03   0.252E+03 0.463E+03 0.125E+03   -.295E+01 0.437E+00 -.120E+01   -.594E-01 0.355E-01 0.127E+00
   0.422E+02 -.593E+02 0.132E+03   -.451E+02 0.738E+02 -.143E+03   0.292E+01 -.139E+02 0.103E+02   -.139E+00 -.629E-01 -.245E-01
   0.150E+03 0.853E+02 0.100E+03   -.162E+03 -.895E+02 -.106E+03   0.112E+02 0.357E+01 0.466E+01   -.126E+00 -.172E-01 -.213E+00
   0.452E+02 0.112E+03 0.124E+03   -.405E+02 -.118E+03 -.124E+03   -.520E+01 0.438E+01 0.282E+00   -.315E-01 0.300E-02 -.124E-01
   0.287E+02 0.241E+03 0.137E+03   -.243E+02 -.257E+03 -.151E+03   -.457E+01 0.135E+02 0.114E+02   0.690E-01 0.134E+00 -.192E+00
   0.110E+03 0.788E+02 -.442E+02   -.115E+03 -.874E+02 0.392E+02   0.390E+01 0.814E+01 0.515E+01   -.594E-01 -.803E-01 0.439E-01
   0.788E+02 0.242E+03 -.517E+02   -.811E+02 -.261E+03 0.530E+02   0.164E+01 0.128E+02 0.676E+00   0.686E-01 -.721E-01 0.263E+00
   0.534E+02 0.657E+02 -.134E+02   -.553E+02 -.663E+02 0.631E+01   0.118E+01 0.581E+00 0.420E+01   0.102E+00 0.102E+00 0.116E-01
   0.781E+02 -.446E+02 -.328E+02   -.829E+02 0.485E+02 0.277E+02   0.569E+01 -.299E+01 0.608E+01   0.246E+00 -.187E-02 0.111E+00
   0.107E+03 -.267E+03 -.355E+02   -.125E+03 0.274E+03 0.410E+02   0.112E+02 -.203E+01 -.372E+01   0.461E-01 0.638E-01 -.399E-01
   0.139E+02 0.106E+03 0.207E+03   -.119E+02 -.113E+03 -.211E+03   -.207E+01 0.616E+01 0.223E+01   -.271E-01 -.186E-02 -.165E+00
   0.150E+03 -.142E+03 0.187E+03   -.155E+03 0.145E+03 -.200E+03   0.421E+01 -.247E+01 0.106E+02   -.532E-01 -.473E-04 -.146E+00
   0.339E+03 0.143E+03 0.131E+03   -.373E+03 -.165E+03 -.146E+03   0.188E+02 0.174E+02 0.131E+02   -.109E+00 -.934E-01 -.964E-01
   0.119E+03 -.824E+02 -.375E+02   -.131E+03 0.858E+02 0.360E+02   0.122E+02 -.403E+01 0.168E+01   0.109E-01 0.135E+00 -.465E-01
   -.670E+02 -.235E+01 -.222E+03   0.756E+02 0.770E+00 0.243E+03   -.724E+01 0.504E+00 -.159E+02   0.121E-01 0.278E-01 0.192E+00
   0.116E+03 -.151E+03 0.167E+01   -.122E+03 0.154E+03 -.786E+01   0.688E+01 -.206E+01 0.455E+01   0.106E+00 -.249E-01 0.117E+00
   0.113E+03 -.668E+02 -.460E+02   -.116E+03 0.692E+02 0.418E+02   0.298E+01 -.196E+01 0.392E+01   0.563E-01 0.144E-01 0.654E-01
   -.837E+01 0.656E+02 0.585E+02   0.591E+01 -.727E+02 -.572E+02   0.276E+01 0.873E+01 -.113E+01   0.147E+00 0.364E-01 -.121E+00
   0.136E+02 0.140E+03 0.189E+03   -.194E+02 -.148E+03 -.204E+03   0.546E+01 0.744E+01 0.136E+02   0.982E-01 -.539E-02 -.965E-01
   -.157E+03 0.451E+01 0.221E+02   0.167E+03 -.221E+01 -.166E+02   -.944E+01 -.123E+00 -.541E+01   -.143E-01 0.100E+00 -.116E+00
   -.168E+03 0.139E+03 0.464E+02   0.180E+03 -.138E+03 -.458E+02   -.115E+02 -.615E+00 -.903E+00   -.102E+00 -.677E-01 0.589E-01
   -.827E+02 0.141E+03 -.382E+03   0.893E+02 -.155E+03 0.425E+03   -.483E+01 0.106E+02 -.198E+02   0.216E-01 0.101E+00 0.196E+00
   -.940E+02 0.182E+03 0.753E+02   0.976E+02 -.184E+03 -.876E+02   -.350E+01 0.146E+01 0.120E+02   -.627E-01 -.415E-01 0.421E-01
   -.640E+02 0.207E+01 -.512E+02   0.684E+02 -.330E+01 0.584E+02   -.462E+01 0.210E+01 -.769E+01   -.107E+00 -.401E-01 0.118E+00
   -.965E+02 0.172E+03 -.134E+03   0.997E+02 -.181E+03 0.141E+03   -.232E+01 0.716E+01 -.670E+01   -.341E+00 -.107E+00 -.141E-02
   -.140E+03 -.270E+03 0.675E+02   0.151E+03 0.285E+03 -.647E+02   -.114E+02 -.106E+02 -.610E+01   -.662E-02 0.419E-01 -.154E+00
   -.316E+02 0.784E+01 0.122E+03   0.290E+02 -.110E+02 -.128E+03   0.279E+01 0.195E+01 0.731E+01   0.426E-01 0.834E-01 -.493E-01
   -.168E+03 -.150E+03 0.282E+03   0.172E+03 0.153E+03 -.301E+03   -.290E+01 -.263E+01 0.141E+02   0.351E-01 -.167E-01 -.826E-01
   -.242E+02 0.120E+03 -.114E+02   0.147E+02 -.133E+03 0.145E+02   0.928E+01 0.523E+01 -.112E+01   0.126E-01 0.995E-01 -.849E-01
   0.534E+02 -.721E+02 -.112E+03   -.613E+02 0.756E+02 0.116E+03   0.561E+01 -.337E+01 -.485E+01   -.606E-02 -.658E-01 0.125E+00
   -.156E+03 0.480E+02 -.516E+02   0.167E+03 -.655E+02 0.480E+02   -.783E+01 0.964E+01 0.478E+01   0.317E-01 0.485E-02 0.568E-01
   -.273E+02 -.212E+03 0.726E+01   0.265E+02 0.226E+03 -.157E+02   0.148E+01 -.101E+02 0.746E+01   -.137E+00 0.984E-01 0.932E-01
   -.507E+02 -.548E+02 -.158E+03   0.502E+02 0.546E+02 0.165E+03   -.265E+00 0.255E+00 -.594E+01   -.346E-01 0.548E-01 0.111E+00
   -.348E+02 -.804E+02 -.861E+02   0.654E-12 -.355E-12 0.114E-12   0.353E+02 0.795E+02 0.862E+02   -.558E+00 0.859E+00 -.362E-01

 POSITION                                       TOTAL-FORCE (eV/Angst)
      8.25294      8.54817      8.47768         0.026756     -0.773671     -0.778979
      8.44606      1.77065      2.21602        -0.147330      3.090344     -1.755583
      2.28474      0.23389      1.89457        -0.776819     -1.246715      0.041304
      2.19947      2.06557      8.39458        -2.124372      0.551984      0.407394
      8.55576      0.11066      3.83576        -0.465628     -1.791442      2.885841
      0.19653      2.11271      5.84546         0.809365      0.463365      3.894851
      1.98756      8.46753      6.38086        -1.738082     -0.868664     -0.136017
      2.14080      1.80536      3.97352         1.081848      6.786145     -0.444305
      8.40747      4.07257      8.39422         0.228389      0.675971      0.397859
      0.17429      5.97241      2.09158        -3.255021      5.720902      1.875183
      1.58803      4.47259      2.42132        17.373934     -0.769472     -3.434747
      1.97959      6.23454      8.60763         0.398946     -0.032113     -0.686946
      8.39102      3.91425      4.09389        -1.701664      1.353032      0.513124
      8.16629      6.09174      6.14639         0.917638      0.544460      0.131370
      2.18262      4.09598      6.22091        -0.385415      1.966283      0.815840
      2.04337      6.47283      4.20765        -2.952863     -0.171754      0.740718
      3.96447      0.12342      0.14176         1.399842     -2.732793     -0.075339
      4.11408      2.43182      2.26804         0.208633     -1.054496      0.480130
      6.35812      8.46034      1.74098        -0.030750      0.213332      2.259318
      6.42760      1.85510      8.54257         0.673541      0.740889      0.180756
      4.11728      8.45032      4.42263         0.312327      0.814320     -1.622235
      3.90614      1.92611      6.54129         1.979579      1.848452     -0.629041
      5.97582      0.13054      6.00273         0.838667     -0.936587      0.698168
      6.35561      2.25119      4.32307        -2.688637     -0.017349    -24.955130
      4.07272      3.83140      0.02808         0.158637      1.141749     -0.081069
      4.10512      5.91219      1.84249         6.959654      4.265216      3.087672
      6.07201      3.94697      1.88093         0.919022     -3.041649     -0.219644
      6.43276      6.24396      0.17269         0.110548      0.226714     -0.344286
      4.13281      4.55824      4.34258        -1.045455     -4.808509      0.554916
      3.99152      6.27094      6.24185         0.712735      0.042464      0.526844
      6.11565      3.81801      6.02977         0.155499      2.359388      1.687339
      5.69834      6.05271      4.18004        -0.367539      6.905047      1.804969
      1.91974      2.02173      2.14846        -0.141804      0.554864     -0.328016
      2.12172      8.46095      0.01374        -0.695552     -0.645601     -0.933637
      0.00372      2.31808      0.23295        -0.541273     -1.699975      0.059725
      8.56282      0.01125      2.10015        -0.153999     -2.466068     -2.474683
      2.14196      2.30829      6.31650        -1.548612     -0.522631      0.151912
      2.05274      0.26371      4.33570        -0.621276     -7.046112      2.251062
      8.48536      1.98282      4.20052        -0.618325      0.088908     -2.920174
      8.51343      8.02756      6.36138         1.162306      0.916542      1.083901
      2.51643      6.06231      1.76116        -6.149090      4.390116      1.781677
      1.77912      4.39528      0.51777        -0.088786     -1.247066     -2.320325
      0.08683      6.29239      0.38082        -0.718858      0.699252     -2.006955
      0.18081      4.29011      2.09110       -15.736842     -4.469308     -2.253187
      2.14318      6.10152      6.56875         0.113986     -0.580733      0.167387
      1.55638      4.27161      4.03072         1.377945     -1.043679      5.423103
      8.61217      6.21292      4.35062         1.327229      0.180067     -1.516824
      0.22686      4.02467      6.54246         0.135483      0.460590     -0.155706
      6.28056      1.93467      2.20423         0.456491      1.644074      0.059639
      6.14443      0.00238      0.00420        -0.213325     -0.418938     -1.636279
      4.01912      1.89447      0.11844         0.924374      2.272863     -0.057040
      4.00646      0.24502      2.50377         0.761181     -0.413805     -0.225569
      6.44075      2.15401      5.69607         1.885037     -2.972668     23.272378
      6.17901      0.15414      4.13594         0.032037     -0.535502     -0.238799
      4.13042      2.14109      4.23475        -0.266602      0.822774     -0.347922
      3.81921      0.19494      6.24259         0.502772     -2.121671      0.528191
      6.15108      5.60806      2.22261        -0.985397      4.778048     -3.473639
      6.21082      4.40805      8.30361         0.286548     -1.121410      0.418273
      3.92144      5.99753      0.17801         1.273854      0.431814     -5.405711
      3.70967      4.32738      2.04295        -0.200888     -6.957778      1.831634
      6.42137      6.48674      6.26343        -2.265263      0.064064     -0.079013
      6.36990      4.67845      3.81051         3.351672     -7.868633      1.295345
      3.75953      6.17295      4.01233         0.587713      3.187920     -0.902043
      4.21154      3.92823      6.12539        -0.818720      0.174840      1.131019
    total drift:                               -0.022378     -0.029230     -0.004548

  FREE ENERGIE OF THE ION-ELECTRON SYSTEM (eV)
  free  energy   TOTEN  =      -363.5611123947 eV

  energy  without entropy=     -363.4822134901  energy(sigma->0) =     -363.52166294

volume of typ            1:    31.7 %

volume of typ            2:     8.1 %

total charge

# of ion       s       p       d       tot
    1        0.160   0.127   7.953   8.240
    2        0.223   0.252   7.976   8.450
    3        0.245   0.257   7.956   8.457
    4        0.193   0.188   7.980   8.360
    5        0.216   0.228   8.010   8.454
    6        0.232   0.234   8.025   8.490
    7        0.190   0.175   7.972   8.337
    8        0.281   0.320   8.020   8.621
    9        0.217   0.220   7.894   8.331
   10        0.278   0.288   8.045   8.612
   11        0.403   0.562   8.087   9.051
   12        0.232   0.275   7.894   8.402
   13        0.215   0.229   7.992   8.435
   14        0.234   0.243   7.878   8.356
   15        0.227   0.241   7.961   8.429
   16        0.203   0.199   7.998   8.400
   17        0.219   0.222   8.014   8.455
   18        0.199   0.202   7.958   8.359
   19        0.208   0.187   7.988   8.383
   20        0.181   0.146   7.999   8.326
   21        0.213   0.224   7.954   8.392
   22        0.237   0.267   8.003   8.506
   23        0.188   0.168   7.975   8.331
   24        0.342   0.434   8.132   8.908
   25        0.185   0.175   7.970   8.330
   26        0.342   0.452   8.034   8.828
   27        0.238   0.246   8.015   8.499
   28        0.179   0.146   7.957   8.283
   29        0.253   0.276   8.050   8.580
   30        0.186   0.151   7.997   8.334
   31        0.223   0.222   8.023   8.467
   32        0.269   0.313   8.073   8.655
   33        1.278   2.745   0.009   4.031
   34        1.266   2.737   0.007   4.010
   35        1.273   2.712   0.006   3.990
   36        1.267   2.771   0.012   4.050
   37        1.273   2.771   0.011   4.055
   38        1.284   2.769   0.014   4.067
   39        1.267   2.806   0.016   4.089
   40        1.280   2.670   0.003   3.953
   41        1.298   2.797   0.015   4.111
   42        1.292   2.708   0.006   4.006
   43        1.271   2.742   0.008   4.021
   44        1.290   2.862   0.028   4.180
   45        1.270   2.721   0.006   3.996
   46        1.279   2.792   0.013   4.085
   47        1.274   2.707   0.005   3.986
   48        1.272   2.725   0.006   4.004
   49        1.271   2.711   0.005   3.987
   50        1.260   2.762   0.010   4.032
   51        1.261   2.786   0.012   4.059
   52        1.278   2.720   0.006   4.004
   53        1.288   2.887   0.034   4.209
   54        1.280   2.699   0.005   3.985
   55        1.290   2.685   0.005   3.981
   56        1.261   2.787   0.012   4.060
   57        1.295   2.730   0.011   4.037
   58        1.274   2.693   0.004   3.972
   59        1.281   2.751   0.010   4.042
   60        1.282   2.785   0.013   4.079
   61        1.275   2.698   0.005   3.977
   62        1.308   2.733   0.017   4.058
   63        1.261   2.816   0.016   4.093
   64        1.268   2.751   0.008   4.027
tot          48.28   95.90  256.12  400.30

magnetization (x)

# of ion       s       p       d       tot
    1        0.003   0.002   1.250   1.254
    2        0.001   0.008   0.557   0.566
    3        0.003   0.019   1.059   1.081
    4        0.006   0.004   1.039   1.048
    5        0.008   0.006   0.796   0.809
    6        0.003   0.007   0.783   0.793
    7        0.003   0.002   0.139   0.144
    8       -0.000  -0.003  -0.029  -0.032
    9        0.002   0.014   1.236   1.252
   10        0.005   0.009   0.428   0.442
   11        0.005   0.003   0.246   0.254
   12       -0.002   0.002  -0.574  -0.573
   13        0.003   0.004   0.731   0.738
   14        0.002   0.022   1.295   1.319
   15        0.007   0.003   0.172   0.182
   16        0.007   0.001   0.675   0.683
   17       -0.001  -0.009  -0.769  -0.779
   18       -0.001  -0.000   0.825   0.823
   19        0.009   0.009   1.048   1.066
   20        0.008   0.006   1.130   1.143
   21        0.001   0.000   0.594   0.595
   22       -0.003  -0.005  -0.506  -0.514
   23        0.003   0.007   1.095   1.104
   24       -0.000   0.006   0.149   0.155
   25       -0.000   0.001   1.143   1.144
   26        0.000  -0.007  -0.176  -0.183
   27        0.003   0.001   0.359   0.363
   28        0.004   0.003   1.117   1.124
   29        0.004   0.007   0.627   0.638
   30        0.013   0.005   1.084   1.102
   31        0.003   0.006   0.583   0.593
   32       -0.001  -0.001   0.098   0.095
   33        0.007   0.134   0.000   0.140
   34        0.003   0.060   0.000   0.063
   35        0.012   0.211   0.000   0.223
   36        0.012   0.193   0.000   0.205
   37        0.002   0.044  -0.000   0.046
   38        0.002   0.042  -0.000   0.044
   39        0.008   0.083   0.000   0.091
   40        0.007   0.192   0.000   0.199
   41       -0.003   0.018  -0.000   0.015
   42        0.002   0.146  -0.000   0.149
   43        0.005   0.124  -0.000   0.128
   44        0.006   0.135   0.000   0.141
   45        0.004   0.114   0.000   0.119
   46        0.006   0.122   0.000   0.128
   47        0.010   0.167   0.000   0.177
   48        0.008   0.159   0.000   0.166
   49        0.009   0.110   0.000   0.119
   50        0.009   0.187   0.000   0.196
   51        0.004   0.057  -0.000   0.061
   52        0.007   0.134   0.000   0.142
   53        0.005   0.112  -0.000   0.117
   54        0.007   0.167   0.000   0.174
   55        0.003   0.077   0.000   0.080
   56        0.002   0.041  -0.000   0.043
   57       -0.000   0.035   0.000   0.035
   58        0.010   0.181   0.000   0.192
   59       -0.002   0.010  -0.000   0.008
   60        0.004   0.106  -0.000   0.109
   61        0.011   0.219   0.000   0.230
   62        0.001  -0.001  -0.000   0.001
   63        0.008   0.114  -0.000   0.122
   64        0.009   0.142   0.000   0.151
tot           0.27    3.77   18.21   22.25