 vasp.5.4.4.18Apr17-6-g9f103f2a35 (build May 12 2020 04:58:55) complex

 MD_VERSION_INFO: Compiled 2020-05-12T11:58:55-UTC in devlin.sd.materialsdesign.
 com:/home/medea2/data/build/wwolf/vasp-gpu5.4.4/13047/x86_64/src/src/build/std
 from svn 13047

 executed on                        Lin64 date 2023.03.23  19:39:16

 INCAR:
 POTCAR:    PAW_PBE Ni 02Aug2007
 POTCAR:    PAW_PBE O 08Apr2002

 POTCAR:    PAW_PBE Ni 02Aug2007

 POTCAR:    PAW_PBE O 08Apr2002

 Optimization of the real space projectors (new method)

 maximal supplied QI-value         = 16.25
 optimisation between [QCUT,QGAM] = [ 11.38, 22.75] = [ 36.24,144.96] Ry
 Optimized for a Real-space Cutoff    1.47 Angstroem

   l    n(q)    QCUT    max X(q) W(low)/X(q) W(high)/X(q)  e(spline)
   2      9    11.376    60.317    0.17E-03    0.16E-04    0.16E-06
   2      9    11.376    55.921    0.17E-03    0.16E-04    0.17E-06
   0     10    11.376    51.690    0.45E-04    0.60E-04    0.21E-06
   0     10    11.376    30.015    0.37E-04    0.55E-04    0.19E-06
   1     10    11.376    18.849    0.83E-04    0.11E-03    0.92E-07
   1     10    11.376    14.624    0.69E-04    0.92E-04    0.82E-07
 Optimization of the real space projectors (new method)

 maximal supplied QI-value         = 24.76
 optimisation between [QCUT,QGAM] = [ 11.39, 22.77] = [ 36.31,145.25] Ry
 Optimized for a Real-space Cutoff    1.10 Angstroem

   l    n(q)    QCUT    max X(q) W(low)/X(q) W(high)/X(q)  e(spline)
   0      7    11.387    20.381    0.22E-03    0.48E-03    0.18E-06
   0      7    11.387    15.268    0.22E-03    0.52E-03    0.19E-06
   1      7    11.387     5.964    0.22E-03    0.73E-03    0.24E-06
   1      7    11.387     5.382    0.19E-03    0.60E-03    0.21E-06

  PAW_PBE Ni 02Aug2007                  :
  PAW_PBE O 08Apr2002                   :

 POSCAR: NiO_Fm-3m_scale_0_975_disp_0_15_round_2
  positions in direct lattice
 exchange correlation table for  LEXCH =       14
   RHO(1)=    0.500       N(1)  =     2000
   RHO(2)=  100.500       N(2)  =     4000

 ion  position               nearest neighbor table
   1  0.029  0.001  0.003-  40 1.69  35 1.79  34 1.92  43 2.02  36 2.23  50 2.31   7 2.33   3 2.52
                            14 2.62   2 2.70  23 2.76  12 2.77   6 2.78  28 2.83   4 2.83  10 2.84
   2  0.999  0.219  0.259-  36 1.62  49 1.78  33 1.95  44 2.20  35 2.25  39 2.29  19 2.48   3 2.52
                            24 2.60   1 2.70   8 2.80   5 2.89  20 2.89  27 2.97  13 3.01  11 3.02
   3  0.228  0.004  0.246-  36 1.73  34 1.88  38 2.09  33 2.12  52 2.20  41 2.25   1 2.52   2 2.52
                            18 2.75  12 2.81  16 2.82  10 2.82   4 2.83   8 2.88   5 2.98  21 3.05
   4  0.277  0.253  0.000-  51 1.85  34 1.91  37 1.95  33 2.06  42 2.12  35 2.27  18 2.49  25 2.52
                             7 2.66  15 2.73   6 2.79   1 2.83   3 2.83  22 2.84   9 2.93  17 2.98
   5  0.990  0.982  0.530-  47 1.65  54 1.82  36 2.03  39 2.06  38 2.06  40 2.17  32 2.43  24 2.50
                            23 2.55  14 2.55  16 2.73  10 2.79  19 2.81   7 2.87   2 2.89   8 2.93
   6  0.016  0.257  0.769-  35 1.71  39 1.81  40 1.86  37 1.90  48 1.97  53 2.08   9 2.42  15 2.61
                             7 2.71  24 2.73   8 2.74   1 2.78  23 2.78   4 2.79  20 2.88   5 2.93
   7  0.231  0.996  0.794-  34 1.80  37 1.84  40 1.92  45 2.11  38 2.32   1 2.33  14 2.55  12 2.66
                             4 2.66   6 2.71   5 2.87  22 2.94  17 2.94  30 2.94  16 3.04   8 3.04
   8  0.239  0.248  0.510-  39 1.94  37 2.01  38 2.03  46 2.06  33 2.07  55 2.24  11 2.62  13 2.68
                            15 2.74   6 2.74   2 2.80  18 2.82   3 2.88   5 2.93  22 2.93  21 2.95
   9  0.002  0.491  0.959-  48 1.70  58 1.95  42 2.01  35 2.17  43 2.17   6 2.42  15 2.55  20 2.70
                            14 2.73  31 2.73   4 2.93  12 2.95  27 2.99
  10  0.972  0.764  0.259-  57 1.38  43 1.86  47 2.02  36 2.08  41 2.16  44 2.20  32 2.46  27 2.57
                            19 2.57   5 2.79   3 2.82  28 2.84   1 2.84  13 2.85  16 2.92  11 3.03
  11  0.242  0.503  0.307-  46 1.46  41 1.81  33 1.93  60 2.09  42 2.20  44 2.28  13 2.30  16 2.57
                            29 2.60   8 2.62  18 2.78   2 3.02  10 3.03  12 3.07
  12  0.262  0.747  0.011-  45 1.82  42 1.89  59 1.93  41 2.00  43 2.09  34 2.15   7 2.66  25 2.67
                            30 2.73   1 2.77   3 2.81  14 2.83  15 2.93   9 2.95  17 2.97  26 3.04
  13  0.028  0.507  0.498-  44 1.82  48 2.00  46 2.03  62 2.15  47 2.18  39 2.20  11 2.30  16 2.68
                             8 2.68  15 2.70  32 2.76  27 2.84  10 2.85  24 2.93   6 2.96   2 3.01
  14  0.005  0.774  0.771-  61 1.85  45 2.01  40 2.05  43 2.08  47 2.10  48 2.19   7 2.55   5 2.55
                            23 2.58   1 2.62   9 2.73  32 2.74  28 2.77  12 2.83  31 2.86  16 2.92
  15  0.246  0.487  0.754-  48 1.83  45 1.99  37 2.12  46 2.17  42 2.25  64 2.35  25 2.48   9 2.55
                             6 2.61  13 2.70   4 2.73   8 2.74  29 2.88  12 2.93  16 3.00  14 3.01
  16  0.247  0.760  0.498-  38 1.88  41 1.94  47 1.95  46 2.10  63 2.11  45 2.30  11 2.57  13 2.68
                             5 2.73  21 2.74  29 2.81   3 2.82  10 2.92  14 2.92  15 3.00  26 3.00
  17  0.541  0.990  0.992-  50 1.63  59 1.83  56 1.95  34 2.20  28 2.23  51 2.23  52 2.30  30 2.43
                            23 2.63  22 2.70  26 2.82  19 2.83  20 2.83   7 2.94  18 2.95  12 2.97
  18  0.469  0.249  0.244-  33 1.87  60 2.12  52 2.16  55 2.29  51 2.48  49 2.49   4 2.49   3 2.75
                            11 2.78   8 2.82  20 2.94  17 2.95  25 2.99  29 3.00  21 3.01  19 3.06
  19  0.769  0.013  0.260-  57 1.88  49 1.94  36 1.99  54 2.12  52 2.16  50 2.22   2 2.48  10 2.57
                            24 2.65  26 2.66  28 2.75   5 2.81  17 2.83  32 2.86   1 2.93  20 2.93
  20  0.747  0.276  0.007-  58 1.84  49 2.04  53 2.04  35 2.05  51 2.07  50 2.45   9 2.70  27 2.74
                            17 2.83  22 2.83  25 2.83   6 2.88   2 2.89  23 2.92  31 2.92  19 2.93
  21  0.501  0.988  0.512-  63 1.57  52 1.90  56 1.94  38 2.04  54 2.23  55 2.39  22 2.62  26 2.65
                            16 2.74  30 2.84   8 2.95  19 2.96  32 2.97  18 3.01  23 3.03  24 3.03
  22  0.519  0.218  0.744-  51 1.59  55 1.84  56 1.90  53 1.94  64 2.00  37 2.16  21 2.62  17 2.70
                            23 2.70  20 2.83   4 2.84  25 2.86  24 2.89   8 2.93   7 2.94  15 3.08
  23  0.779  0.004  0.767-  40 1.75  50 1.81  56 1.83  61 1.97  54 1.99  53 2.06  28 2.47   5 2.55
                            14 2.58  17 2.63  22 2.70  24 2.71   1 2.76   6 2.78  30 2.83  32 2.89
  24  0.795  0.225  0.512-  54 1.44  39 1.66  53 1.98  49 2.06  55 2.30   5 2.50   2 2.60  19 2.65
                            23 2.71   6 2.73  22 2.89  13 2.93  21 3.03
  25  0.474  0.495  0.964-  64 1.88  51 1.91  42 1.95  59 2.19  58 2.31  60 2.34  15 2.48   4 2.52
                            30 2.62  12 2.67  31 2.67  20 2.83  22 2.86  18 2.99
  26  0.541  0.771  0.266-  52 1.73  63 1.92  60 2.11  57 2.12  59 2.27  41 2.46  21 2.65  19 2.66
                            28 2.73  32 2.77  27 2.79  29 2.79  17 2.82  16 3.00  12 3.04
  27  0.773  0.513  0.252-  44 1.53  62 1.81  49 2.07  58 2.12  57 2.18  60 2.21  10 2.57  20 2.74
                            26 2.79  32 2.82  13 2.84  29 2.96   2 2.97   9 2.99
  28  0.741  0.798  0.993-  50 1.39  61 1.94  59 1.95  57 1.97  43 2.14  17 2.23  58 2.36  30 2.44
                            23 2.47  26 2.73  19 2.75  14 2.77  31 2.78   1 2.83  10 2.84
  29  0.501  0.518  0.502-  46 1.78  55 1.88  64 1.97  60 1.98  62 2.11  63 2.20  11 2.60  31 2.78
                            26 2.79  16 2.81  15 2.88  27 2.96  32 2.99  18 3.00   8 3.02  30 3.04
  30  0.518  0.767  0.788-  59 1.59  56 1.79  61 2.07  45 2.15  63 2.29  17 2.43  28 2.44  64 2.44
                            31 2.50  25 2.62  12 2.73  23 2.83  21 2.84   7 2.94  29 3.04
  31  0.733  0.543  0.758-  64 1.68  61 1.76  58 1.88  62 2.28  53 2.28  48 2.31  30 2.50  25 2.67
                            32 2.68   9 2.73  28 2.78  29 2.78  14 2.86  20 2.92
  32  0.789  0.755  0.506-  47 1.74  62 1.78  61 2.00  57 2.22  63 2.28  54 2.34   5 2.43  10 2.46
                            31 2.68  14 2.74  13 2.76  26 2.77  27 2.82  19 2.86  23 2.89  21 2.97
  33  0.236  0.268  0.253-  18 1.87  11 1.93   2 1.95   4 2.06   8 2.07   3 2.12
  34  0.268  0.015  0.015-   7 1.80   3 1.88   4 1.91   1 1.92  12 2.15  17 2.20
  35  0.996  0.221  0.978-   6 1.71   1 1.79  20 2.05   9 2.17   2 2.25   4 2.27
  36  0.016  0.019  0.281-   2 1.62   3 1.73  19 1.99   5 2.03  10 2.08   1 2.23
  37  0.250  0.223  0.760-   7 1.84   6 1.90   4 1.95   8 2.01  15 2.12  22 2.16
  38  0.246  0.994  0.505-  16 1.88   8 2.03  21 2.04   5 2.06   3 2.09   7 2.32
  39  0.000  0.238  0.544-  24 1.66   6 1.81   8 1.94   5 2.06  13 2.20   2 2.29
  40  0.994  0.027  0.797-   1 1.69  23 1.75   6 1.86   7 1.92  14 2.05   5 2.17
  41  0.238  0.724  0.259-  11 1.81  16 1.94  12 2.00  10 2.16   3 2.25  26 2.46
  42  0.241  0.513  0.033-  12 1.89  25 1.95   9 2.01   4 2.12  11 2.20  15 2.25
  43  0.001  0.752  0.030-  10 1.86   1 2.02  14 2.08  12 2.09  28 2.14   9 2.17
  44  0.959  0.490  0.282-  27 1.53  13 1.82  10 2.20   2 2.20  11 2.28
  45  0.252  0.734  0.784-  12 1.82  15 1.99  14 2.01   7 2.11  30 2.15  16 2.30
  46  0.280  0.500  0.485-  11 1.46  29 1.78  13 2.03   8 2.06  16 2.10  15 2.17
  47  0.005  0.778  0.509-   5 1.65  32 1.74  16 1.95  10 2.02  14 2.10  13 2.18
  48  0.017  0.502  0.748-   9 1.70  15 1.83   6 1.97  13 2.00  14 2.19  31 2.31
  49  0.779  0.255  0.258-   2 1.78  19 1.94  20 2.04  24 2.06  27 2.07  18 2.49
  50  0.743  0.971  0.987-  28 1.39  17 1.63  23 1.81  19 2.22   1 2.31  20 2.45
  51  0.499  0.260  0.937-  22 1.59   4 1.85  25 1.91  20 2.07  17 2.23  18 2.48
  52  0.501  0.983  0.276-  26 1.73  21 1.90  19 2.16  18 2.16   3 2.20  17 2.30
  53  0.757  0.259  0.753-  22 1.94  24 1.98  20 2.04  23 2.06   6 2.08  31 2.28
  54  0.772  0.047  0.523-  24 1.44   5 1.82  23 1.99  19 2.12  21 2.23  32 2.34
  55  0.515  0.285  0.524-  22 1.84  29 1.88   8 2.24  18 2.29  24 2.30  21 2.39
  56  0.553  0.983  0.748-  30 1.79  23 1.83  22 1.90  21 1.94  17 1.95
  57  0.803  0.782  0.231-  10 1.38  19 1.88  28 1.97  26 2.12  27 2.18  32 2.22
  58  0.761  0.505  0.988-  20 1.84  31 1.88   9 1.95  27 2.12  25 2.31  28 2.36
  59  0.500  0.766  0.986-  30 1.59  17 1.83  12 1.93  28 1.95  25 2.19  26 2.27
  60  0.497  0.512  0.255-  29 1.98  11 2.09  26 2.11  18 2.12  27 2.21  25 2.34
  61  0.775  0.758  0.756-  31 1.76  14 1.85  28 1.94  23 1.97  32 2.00  30 2.07
  62  0.762  0.537  0.476-  32 1.78  27 1.81  29 2.11  13 2.15  31 2.28
  63  0.508  0.792  0.503-  21 1.57  26 1.92  16 2.11  29 2.20  32 2.28  30 2.29
  64  0.538  0.466  0.739-  31 1.68  25 1.88  29 1.97  22 2.00  15 2.35  30 2.44

  LATTYP: Found a simple cubic cell.
 ALAT       =     8.0143927500

  Lattice vectors:

 A1 = (   8.0143927500,   0.0000000000,   0.0000000000)
 A2 = (   0.0000000000,   8.0143927500,   0.0000000000)
 A3 = (   0.0000000000,   0.0000000000,   8.0143927500)

Analysis of symmetry for initial positions (statically):
 Subroutine PRICEL returns:
[...]
   0.907E+02 0.190E+03 0.602E+02   -.930E+02 -.192E+03 -.596E+02   0.221E+01 -.171E+01 -.206E+01   -.348E+00 -.416E+00 0.476E+00
   0.310E+03 0.815E+02 0.139E+03   -.320E+03 -.830E+02 -.140E+03   -.522E+00 0.228E+01 -.215E+01   -.213E+00 0.742E-02 0.705E-01
   -.182E+02 0.441E+03 -.161E+03   0.223E+02 -.469E+03 0.165E+03   -.358E+01 0.227E+01 -.175E+01   0.871E+00 -.595E+00 0.414E+00
   -.108E+03 -.464E+02 0.368E+02   0.112E+03 0.434E+02 -.362E+02   -.123E+01 0.345E+01 0.497E+00   -.268E+00 -.922E-01 -.105E+01
   0.182E+03 0.201E+03 0.272E+03   -.185E+03 -.202E+03 -.280E+03   0.164E+01 -.130E+01 0.392E+00   -.189E+00 -.356E+00 -.510E+00
   -.671E+02 0.120E+03 0.990E+02   0.671E+02 -.123E+03 -.987E+02   0.235E+01 0.126E+01 -.130E+01   0.596E+00 -.163E+00 -.450E-01
   0.246E+03 0.470E+02 0.295E+02   -.251E+03 -.510E+02 -.279E+02   0.736E+00 0.552E+01 -.127E+01   0.194E+00 -.279E+00 -.311E+00
   -.363E+02 -.293E+02 0.257E+02   0.324E+02 0.308E+02 -.291E+02   0.336E+01 -.197E+01 0.339E+01   0.230E+00 0.118E+00 0.301E+00
   -.143E+03 0.261E+02 -.920E+02   0.154E+03 -.283E+02 0.967E+02   -.857E+01 0.144E+01 -.396E+01   -.656E+00 0.150E-01 0.321E+00
   0.159E+02 -.139E+03 -.182E+03   -.175E+02 0.144E+03 0.195E+03   0.158E+01 -.219E+01 -.837E+01   0.125E+00 -.355E-01 0.479E-01
   -.150E+02 0.605E+02 0.626E+01   0.961E+01 -.761E+02 -.478E+00   0.288E+01 0.108E+02 -.542E+01   0.605E+00 0.722E-01 -.513E-02
   -.112E+03 -.507E+02 0.677E+02   0.120E+03 0.533E+02 -.707E+02   -.603E+01 -.117E+01 0.232E+01   -.483E+00 -.149E+00 -.234E+00
   -.934E+02 -.384E+02 -.121E+02   0.938E+02 0.429E+02 0.144E+02   -.873E+00 -.330E+01 -.178E+01   0.212E+00 0.614E-02 -.283E+00
   -.825E+02 -.102E+03 0.761E+02   0.929E+02 0.104E+03 -.810E+02   -.564E+01 -.217E+01 0.505E+01   0.313E+00 0.232E+00 -.101E+00
   -.465E+02 0.104E+02 0.765E+02   0.491E+02 -.741E+01 -.863E+02   -.240E+01 -.416E+01 0.563E+01   0.148E+00 -.285E+00 0.154E-01
   -.771E+02 -.333E+02 0.567E+02   0.800E+02 0.387E+02 -.624E+02   -.385E+01 -.278E+01 0.512E+01   0.117E+00 -.190E+00 0.293E+00
   0.966E+01 0.384E+02 -.967E+02   -.136E+02 -.402E+02 0.105E+03   0.358E+01 0.521E+00 -.803E+01   0.293E-01 -.930E-01 0.442E+00
   -.500E+02 0.128E+03 -.582E+01   0.481E+02 -.135E+03 0.421E+01   0.303E+01 0.657E+01 0.454E+00   0.110E+00 -.522E-01 -.172E+00
   -.140E+03 0.627E+02 0.114E+03   0.163E+03 -.672E+02 -.122E+03   -.123E+02 0.218E+01 0.682E+01   -.164E+00 0.292E-01 0.533E-01
   -.619E+02 0.330E+02 0.111E+03   0.657E+02 -.352E+02 -.119E+03   -.327E+01 0.276E+01 0.619E+01   -.813E+00 0.813E-01 -.246E+00
   -.613E+02 -.146E+01 -.168E+03   0.660E+02 -.237E+00 0.197E+03   -.288E+01 0.159E+01 -.126E+02   -.301E+00 -.329E-01 -.683E+00
   -.113E+03 0.146E+03 -.687E+01   0.123E+03 -.159E+03 0.640E+01   -.742E+01 0.912E+01 0.392E+00   0.289E+00 -.273E+00 0.185E+00
   0.638E+02 -.556E+02 0.891E+02   -.734E+02 0.611E+02 -.101E+03   0.873E+01 -.542E+01 0.763E+01   0.246E-01 0.233E+00 -.137E+00
   0.204E+03 -.927E+02 0.214E+02   -.216E+03 0.100E+03 -.191E+02   0.928E+01 -.905E+01 -.303E+01   -.201E-01 0.705E+00 0.642E-01
   -.787E+02 -.273E+03 -.150E+03   0.963E+02 0.315E+03 0.157E+03   -.132E+02 -.186E+02 -.625E+01   0.902E+00 0.116E+00 -.993E-01
   -.313E+02 -.182E+02 -.202E+03   0.349E+02 0.178E+02 0.216E+03   -.252E+01 -.295E+00 -.615E+01   -.149E+00 0.630E+00 0.655E+00
   0.518E+02 -.132E+03 0.423E+02   -.561E+02 0.142E+03 -.480E+02   0.392E+01 -.600E+01 0.420E+01   -.396E+00 -.556E-01 0.703E+00
   0.209E+02 -.134E+03 0.613E+01   -.205E+02 0.141E+03 -.587E+01   0.195E+00 -.708E+01 0.790E+00   0.506E+00 0.396E-01 -.667E-01
   0.198E+03 0.130E+03 0.790E+02   -.215E+03 -.159E+03 -.788E+02   0.126E+02 0.122E+02 0.403E+00   -.164E+00 -.161E+00 0.698E-01
   -.196E+02 0.318E+02 0.150E+03   0.230E+02 -.325E+02 -.156E+03   -.321E+01 -.194E+01 0.470E+01   -.236E+00 -.661E-01 -.750E+00
   0.150E+03 -.321E+02 0.985E+02   -.155E+03 0.331E+02 -.101E+03   0.341E+01 0.709E+00 0.205E+01   0.141E+00 0.209E+00 -.987E+00
   0.247E+03 0.821E+02 0.172E+02   -.286E+03 -.838E+02 -.256E+02   0.141E+02 0.474E+01 0.504E+01   -.170E+00 -.705E+00 0.162E+00
   0.613E+02 -.379E+02 -.119E+03   -.658E+02 0.463E+02 0.124E+03   0.470E+01 -.701E+01 -.365E+01   0.108E+00 0.125E-01 0.522E+00
   0.866E+02 0.149E+03 -.211E+03   -.917E+02 -.158E+03 0.232E+03   0.368E+01 0.776E+01 -.138E+02   -.186E+00 -.728E+00 0.991E+00
   -.606E+02 0.296E+02 0.912E+02   0.595E+02 -.295E+02 -.986E+02   0.298E+01 0.866E-01 0.662E+01   -.782E-01 -.111E+00 -.555E-02
   0.292E+02 0.824E+02 0.672E+02   -.333E+02 -.782E+02 -.712E+02   0.345E+01 -.301E+01 0.308E+01   0.913E+00 0.550E-01 -.165E+00
   0.890E+02 0.139E+03 -.504E+02   -.903E+02 -.151E+03 0.581E+02   -.332E+00 0.104E+02 -.528E+01   0.175E+00 -.128E+00 -.643E+00
   0.175E+02 0.165E+03 -.271E+02   -.159E+02 -.184E+03 0.332E+02   -.101E+01 0.100E+02 -.444E+01   -.198E+00 0.383E+00 -.753E+00
   0.880E+02 -.229E+02 0.670E+02   -.970E+02 0.145E+02 -.728E+02   0.483E+01 0.849E+01 0.482E+01   -.761E-01 0.166E-01 0.486E-01
   -.223E+02 -.172E+02 0.529E+01   -.483E-12 0.178E-12 0.426E-13   0.205E+02 0.179E+02 -.461E+01   0.174E+01 -.666E+00 -.674E+00

 POSITION                                       TOTAL-FORCE (eV/Angst)
      0.23270      0.01188      0.02610        -0.926963     -1.749220      4.638905
      8.00354      1.75432      2.07667         1.628929      7.711761     -1.046382
      1.82980      0.03167      1.97124         3.800058     -1.039142      0.731805
      2.21765      2.02703      0.00220        -1.269388      1.177822      1.231879
      7.93199      7.86714      4.24715         2.314470      4.791335      0.441758
      0.13096      2.05829      6.16430        -1.806747      1.279721     -2.738880
      1.85260      7.98316      6.36390         1.926885     -1.756477     -3.062306
      1.91753      1.98447      4.08753         1.501341     -0.430404     -0.069327
      0.01934      3.93321      7.68942         0.042755      1.016367      4.922018
      7.78612      6.12098      2.07905        25.226998     -3.769120      3.387102
      1.93754      4.03233      2.45946        -2.775909     -0.456869    -17.628024
      2.09625      5.98318      0.08809        -0.960684      0.183822      2.487857
      0.22158      4.06101      3.99236        -0.805881     -0.221584      1.458609
      0.03764      6.19995      6.17625         1.648131     -1.560940     -0.313996
      1.96979      3.90108      6.04248         1.608813      0.163776     -0.361803
      1.97827      6.08845      3.99393         1.267532     -0.653009      1.218359
      4.33266      7.93779      7.94716        -6.654550      3.874848      2.526033
      3.76046      1.99596      1.95916         1.726736      0.023661      0.649700
      6.15913      0.10068      2.08140        -1.403437      0.539422     -0.062212
      5.98877      2.21105      0.05396        -0.523763     -1.709397      0.447789
      4.01259      7.92084      4.10474        -0.084815      8.894122      0.589334
      4.16320      1.74421      5.96096        -0.553215      0.658866     -6.732135
      6.24305      0.02898      6.14734        -1.144000      1.309769     -1.905627
      6.37468      1.80144      4.10367        -3.868339     18.887302     -2.317142
      3.79894      3.96618      7.72237         0.298006      1.060364      1.618476
      4.33558      6.18212      2.13564        -0.369113     -4.009085     -1.044005
      6.19117      4.10857      2.01730       -11.478629      0.812366     -2.754912
      5.93845      6.39411      7.95651         1.376801    -25.878916      2.084818
      4.01341      4.15386      4.02396         2.884878      0.368102      0.104270
      4.15090      6.14396      6.31809        -1.436495     -2.583474     -8.054339
      5.87203      4.35056      6.07795         2.969410     -1.796091     -0.959705
      6.32619      6.05274      4.05927        -3.528489      1.298188      0.026208
      1.89364      2.15131      2.02792        -0.283723     -0.350374      0.361714
      2.14802      0.12165      0.11669         2.189179     -0.815311      1.097513
      7.97877      1.77119      7.83857         0.048087      2.635657      4.492437
      0.12543      0.15139      2.24894        -1.865059     -4.746077      0.354412
      2.00618      1.78411      6.08986         1.105662      1.370583     -0.854974
      1.97026      7.96723      4.05044        -0.263499      1.138570      0.260733
      0.00089      1.90540      4.36361         5.094255      0.488294      0.090407
      7.96693      0.21977      6.38446         0.311696     -1.400743     -4.119048
      1.90770      5.79914      2.07539        -0.779200      2.415055     -0.290034
      1.93383      4.11296      0.26398        -0.331143     -1.373156      0.296304
      0.00793      6.02995      0.23827         1.285046      0.117585     -1.328769
      7.68797      3.92736      2.25814        10.816984     -2.290876     -0.632491
      2.01770      5.87981      6.28489        -0.311454      0.631048     -2.224222
      2.24637      4.00480      3.88927         1.482560     -0.143315     15.916655
      0.03918      6.23369      4.07852         2.739305     -4.902452      0.104313
      0.13980      4.02190      5.99495        -0.789080      0.366084     -4.026673
      6.24638      2.04227      2.06646        -2.711120     -0.653641     -0.659154
      5.95414      7.78096      7.91054         5.347784     23.611146      0.922616
      3.99951      2.08232      7.50860         1.001918     -0.025832      8.029701
      4.01529      7.87933      2.20917        -0.765200      3.911248     -0.784379
      6.07013      2.07830      6.03713         1.086820      0.177826      0.984630
      6.18727      0.37269      4.18831        -4.358330    -17.453043      0.691097
      4.13130      2.28680      4.20286        -0.089406     -2.694383     -2.525879
      4.43052      7.88030      5.99862        -1.281284      1.980998     -1.896174
      6.43244      6.26668      1.84757       -24.561959      2.385476     -3.150098
      6.10031      4.04346      7.91868         0.261703      1.477478      1.720699
      4.00937      6.14066      7.90513        -1.618748     -2.493891      7.812292
      3.98101      4.10666      2.04108         1.780369      0.086571     -0.793954
      6.20769      6.07714      6.05824         0.202675      1.327469     -1.036809
      6.10534      4.30676      3.81404        -1.534584     -2.171363      1.746102
      4.07006      6.34872      4.03413         0.440765     -9.161279      0.903524
      4.31419      3.73753      5.92532        -4.282340      0.116763     -0.976613
    total drift:                               -0.011633      0.026521      0.002350

  FREE ENERGIE OF THE ION-ELECTRON SYSTEM (eV)
  free  energy   TOTEN  =      -359.2780013425 eV

  energy  without entropy=     -359.2220234062  energy(sigma->0) =     -359.25001237

volume of typ            1:    39.6 %

volume of typ            2:    10.1 %

total charge

# of ion       s       p       d       tot
    1        0.271   0.350   8.093   8.714
    2        0.289   0.351   8.089   8.729
    3        0.234   0.277   8.033   8.545
    4        0.229   0.274   8.025   8.528
    5        0.278   0.355   8.104   8.737
    6        0.290   0.404   8.035   8.730
    7        0.234   0.282   8.079   8.595
    8        0.205   0.231   8.012   8.448
    9        0.239   0.283   8.027   8.549
   10        0.355   0.483   8.205   9.042
   11        0.337   0.455   8.100   8.892
   12        0.239   0.295   7.996   8.530
   13        0.223   0.249   8.052   8.525
   14        0.217   0.251   8.057   8.526
   15        0.210   0.229   8.060   8.499
   16        0.215   0.246   8.019   8.481
   17        0.264   0.337   8.156   8.757
   18        0.188   0.180   8.013   8.381
   19        0.214   0.241   8.096   8.552
   20        0.217   0.244   8.002   8.464
   21        0.280   0.346   8.046   8.672
   22        0.299   0.416   8.043   8.758
   23        0.279   0.379   8.066   8.724
   24        0.355   0.478   8.143   8.976
   25        0.220   0.249   8.016   8.486
   26        0.235   0.257   8.026   8.517
   27        0.294   0.371   8.055   8.720
   28        0.356   0.487   8.243   9.086
   29        0.237   0.293   7.999   8.529
   30        0.279   0.350   8.142   8.772
   31        0.274   0.341   8.048   8.664
   32        0.251   0.306   8.086   8.643
   33        1.261   2.805   0.011   4.077
   34        1.258   2.829   0.014   4.102
   35        1.273   2.828   0.014   4.114
   36        1.276   2.864   0.021   4.161
   37        1.267   2.811   0.012   4.089
   38        1.272   2.775   0.008   4.055
   39        1.266   2.858   0.016   4.140
   40        1.276   2.866   0.021   4.163
   41        1.269   2.786   0.009   4.064
   42        1.269   2.773   0.008   4.051
   43        1.280   2.773   0.008   4.061
   44        1.277   2.851   0.020   4.148
   45        1.265   2.787   0.009   4.061
   46        1.267   2.903   0.030   4.200
   47        1.261   2.869   0.021   4.151
   48        1.263   2.828   0.015   4.106
   49        1.269   2.795   0.011   4.076
   50        1.289   2.959   0.043   4.291
   51        1.271   2.847   0.018   4.136
   52        1.265   2.793   0.011   4.069
   53        1.286   2.763   0.009   4.058
   54        1.283   2.893   0.029   4.206
   55        1.275   2.759   0.008   4.042
   56        1.266   2.851   0.015   4.132
   57        1.289   2.916   0.036   4.240
   58        1.260   2.802   0.010   4.071
   59        1.264   2.866   0.021   4.152
   60        1.268   2.743   0.006   4.016
   61        1.266   2.848   0.016   4.131
   62        1.274   2.793   0.011   4.077
   63        1.267   2.835   0.016   4.117
   64        1.281   2.804   0.014   4.100
tot          48.98  100.76  258.68  408.43

magnetization (x)

# of ion       s       p       d       tot
    1       -0.001   0.000   0.347   0.346
    2        0.003   0.002  -0.013  -0.008
    3        0.003   0.003   0.652   0.658
    4        0.002  -0.000  -0.929  -0.928
    5        0.001  -0.002  -0.334  -0.335
    6        0.000   0.002  -0.072  -0.070
    7        0.001   0.004   0.619   0.625
    8       -0.003  -0.004   1.046   1.038
    9       -0.001  -0.009  -0.966  -0.975
   10        0.002  -0.001  -0.041  -0.040
   11        0.005   0.004   0.309   0.318
   12       -0.001  -0.001   0.844   0.842
   13       -0.000  -0.001   0.870   0.869
   14        0.002  -0.001   0.657   0.657
   15       -0.001  -0.003  -0.903  -0.907
   16        0.004  -0.000  -1.059  -1.055
   17        0.000  -0.002  -0.219  -0.222
   18        0.006   0.007   1.048   1.061
   19        0.000   0.001  -0.571  -0.570
   20       -0.001   0.004   1.001   1.005
   21        0.001   0.003   0.325   0.329
   22       -0.001   0.001  -0.128  -0.127
   23       -0.001   0.001  -0.351  -0.351
   24       -0.005  -0.015  -0.554  -0.574
   25       -0.001   0.004   0.869   0.871
   26        0.009   0.009   0.854   0.872
   27        0.005   0.005   0.287   0.297
   28       -0.003  -0.001  -0.223  -0.227
   29        0.000   0.001  -0.586  -0.586
   30       -0.004  -0.006  -0.435  -0.446
   31        0.002   0.011   0.762   0.774
   32       -0.002   0.009   0.819   0.826
   33        0.009   0.090   0.000   0.098
   34        0.007   0.036   0.000   0.043
   35        0.003   0.006   0.000   0.009
   36       -0.002  -0.012   0.000  -0.014
   37        0.001  -0.009   0.000  -0.009
   38        0.000   0.030   0.000   0.030
   39       -0.001   0.008  -0.000   0.006
   40        0.006   0.041  -0.000   0.047
   41       -0.000   0.006   0.000   0.006
   42        0.002   0.008   0.000   0.010
   43        0.002   0.000   0.000   0.003
   44        0.006   0.078   0.000   0.084
   45        0.000  -0.017   0.000  -0.017
   46       -0.004   0.019   0.000   0.015
   47        0.002   0.043  -0.000   0.045
   48       -0.007  -0.079  -0.000  -0.086
   49        0.003   0.030   0.000   0.033
   50       -0.001  -0.035  -0.000  -0.036
   51        0.001   0.028  -0.000   0.029
   52        0.008   0.046   0.000   0.054
   53       -0.002  -0.029  -0.000  -0.031
   54       -0.003  -0.063  -0.000  -0.066
   55       -0.001   0.028  -0.000   0.027
   56       -0.006  -0.036  -0.000  -0.042
   57        0.002   0.036  -0.000   0.038
   58        0.006   0.062   0.000   0.068
   59        0.006  -0.014  -0.000  -0.009
   60        0.005   0.057   0.000   0.063
   61       -0.001   0.036   0.000   0.036
   62        0.006   0.086   0.000   0.092
   63        0.003   0.037   0.000   0.040
   64        0.002   0.074   0.000   0.076
tot           0.07    0.61    3.93    4.61