 vasp.5.4.4.18Apr17-6-g9f103f2a35 (build May 12 2020 04:58:55) complex

 MD_VERSION_INFO: Compiled 2020-05-12T11:58:55-UTC in devlin.sd.materialsdesign.
 com:/home/medea2/data/build/wwolf/vasp-gpu5.4.4/13047/x86_64/src/src/build/std
 from svn 13047

 executed on                        Lin64 date 2023.03.23  22:16:58

 INCAR:
 POTCAR:    PAW_PBE Ni 02Aug2007
 POTCAR:    PAW_PBE O 08Apr2002

 POTCAR:    PAW_PBE Ni 02Aug2007

 POTCAR:    PAW_PBE O 08Apr2002

 Optimization of the real space projectors (new method)

 maximal supplied QI-value         = 16.25
 optimisation between [QCUT,QGAM] = [ 11.38, 22.75] = [ 36.24,144.96] Ry
 Optimized for a Real-space Cutoff    1.47 Angstroem

   l    n(q)    QCUT    max X(q) W(low)/X(q) W(high)/X(q)  e(spline)
   2      9    11.376    60.317    0.17E-03    0.16E-04    0.16E-06
   2      9    11.376    55.921    0.17E-03    0.16E-04    0.17E-06
   0     10    11.376    51.690    0.45E-04    0.60E-04    0.21E-06
   0     10    11.376    30.015    0.37E-04    0.55E-04    0.19E-06
   1     10    11.376    18.849    0.83E-04    0.11E-03    0.92E-07
   1     10    11.376    14.624    0.69E-04    0.92E-04    0.82E-07
 Optimization of the real space projectors (new method)

 maximal supplied QI-value         = 24.76
 optimisation between [QCUT,QGAM] = [ 11.39, 22.77] = [ 36.31,145.25] Ry
 Optimized for a Real-space Cutoff    1.10 Angstroem

   l    n(q)    QCUT    max X(q) W(low)/X(q) W(high)/X(q)  e(spline)
   0      7    11.387    20.381    0.22E-03    0.48E-03    0.18E-06
   0      7    11.387    15.268    0.22E-03    0.52E-03    0.19E-06
   1      7    11.387     5.964    0.22E-03    0.73E-03    0.24E-06
   1      7    11.387     5.382    0.19E-03    0.60E-03    0.21E-06

  PAW_PBE Ni 02Aug2007                  :
  PAW_PBE O 08Apr2002                   :

 POSCAR: NiO_Fm-3m_scale_0_950_disp_0_20_round_1
  positions in direct lattice
 exchange correlation table for  LEXCH =       14
   RHO(1)=    0.500       N(1)  =     2000
   RHO(2)=  100.500       N(2)  =     4000

 ion  position               nearest neighbor table
   1  0.046  0.011  0.002-  34 1.66  40 1.74  35 1.77  43 1.97  50 2.05  36 2.13  14 2.29  12 2.31
                             4 2.34   6 2.52  28 2.64   3 2.64   7 2.68  23 2.70  20 2.72  10 2.72
   2  0.952  0.256  0.254-  49 1.15  36 1.74  39 2.05  44 2.07  35 2.30  19 2.31  20 2.47   9 2.72
                            27 2.74   8 2.83   1 2.84  24 2.88  18 2.91   4 2.96
   3  0.261  0.984  0.262-  41 1.27  36 2.12  52 2.19  38 2.20  10 2.29  16 2.36  34 2.36  26 2.45
                             8 2.57   1 2.64   4 2.68  21 2.73  12 2.95  17 3.05
   4  0.251  0.230  0.023-  37 1.60  35 1.81  34 1.96  33 2.00  51 2.04  42 2.23   1 2.34   7 2.51
                            22 2.54   3 2.68   6 2.73  11 2.95   2 2.96  17 3.02  18 3.08
   5  0.974  0.982  0.542-  54 1.54  47 1.64  39 1.87  40 1.94  32 1.96  36 2.18  38 2.24  23 2.32
                            10 2.37  14 2.43  19 2.43  24 2.70  16 2.70   6 2.78   7 2.99   8 3.01
   6  0.996  0.243  0.784-  53 1.46  35 1.47  37 1.92  40 2.08  48 2.10  39 2.14  20 2.21  24 2.40
                            23 2.46  31 2.50   1 2.52   7 2.70   4 2.73   5 2.78   9 2.90  15 3.08
   7  0.282  0.051  0.758-  37 1.57  34 1.68  45 1.83  38 1.83  56 2.02  22 2.33  40 2.40   4 2.51
                            21 2.66   1 2.68  12 2.69   6 2.70   8 2.75  16 2.75  30 2.77  17 2.80
   8  0.247  0.243  0.464-  46 1.66  33 1.67  39 2.04  55 2.10  38 2.30  11 2.47   3 2.57  21 2.75
                             7 2.75   2 2.83   5 3.01
   9  0.942  0.519  0.026-  58 1.02  48 1.94  43 1.96  27 2.13  44 2.20  35 2.36  28 2.42  20 2.43
                            31 2.44   2 2.72   6 2.90  14 2.93  12 2.97
  10  0.022  0.818  0.292-  47 1.70  36 1.74  57 1.99  41 2.11  43 2.24   3 2.29   5 2.37  19 2.39
                            44 2.49  16 2.55  32 2.69   1 2.72  13 2.73  28 2.85  27 2.90  12 3.08
  11  0.301  0.498  0.285-  33 1.50  60 1.75  46 1.79  44 1.96  42 2.20   8 2.47  29 2.59  25 2.71
                            18 2.78   4 2.95  16 2.96  26 3.00
  12  0.215  0.774  0.951-  45 1.37  34 1.68  43 1.72  14 1.98  42 2.23  15 2.26   1 2.31  41 2.50
                            30 2.67   7 2.69  25 2.94   3 2.95   9 2.97  17 3.04  10 3.08
  13  0.996  0.572  0.539-  47 1.63  62 1.83  48 2.00  44 2.09  46 2.15  31 2.46  15 2.47  32 2.52
                            14 2.72  10 2.73  16 2.82  27 2.99  24 3.02
  14  0.017  0.806  0.796-  40 1.36  61 1.44  43 1.72  45 1.95  12 1.98   1 2.29  48 2.30  47 2.32
                            23 2.39   5 2.43  28 2.44  15 2.54  32 2.68  13 2.72   7 2.83   9 2.93
  15  0.227  0.562  0.754-  48 1.76  45 2.05  42 2.09  46 2.16  64 2.26  12 2.26  13 2.47  14 2.54
                            29 2.67  16 2.74  30 2.78  25 2.97  22 3.05   6 3.08
  16  0.269  0.805  0.505-  38 1.24  63 1.83  41 1.94  45 2.22  47 2.23   3 2.36  21 2.47  10 2.55
                            26 2.67   5 2.70  15 2.74   7 2.75  29 2.79  13 2.82  30 2.84  11 2.96
  17  0.544  0.978  0.992-  56 1.36  59 1.84  50 1.89  34 2.29  30 2.32  51 2.35  52 2.38  28 2.43
                            23 2.57  26 2.58  22 2.78   7 2.80  20 2.88   4 3.02  12 3.04  19 3.05
  18  0.582  0.286  0.230-  51 1.72  60 1.73  49 1.76  55 2.26  33 2.33  52 2.48  27 2.55  20 2.57
                            19 2.71  25 2.71  11 2.78   2 2.91  17 3.05   4 3.08  24 3.08
  19  0.787  0.014  0.295-  36 1.64  57 1.79  52 1.96  54 1.99  49 2.04  50 2.17   2 2.31  10 2.39
                             5 2.43  32 2.48  26 2.61  18 2.71  21 2.73  28 2.83  24 2.91  17 3.05
  20  0.793  0.250  0.981-  53 1.39  35 1.82  58 2.02  50 2.05  49 2.11   6 2.21  51 2.25   9 2.43
                             2 2.47  23 2.50  31 2.53  18 2.57   1 2.72  22 2.83  17 2.88  19 3.06
  21  0.509  0.011  0.507-  55 1.64  52 1.67  63 1.70  38 2.01  54 2.13  26 2.39  56 2.46  16 2.47
                             7 2.66  32 2.66   3 2.73  19 2.73   8 2.75  30 2.77  24 2.86  23 3.01
  22  0.482  0.269  0.797-  51 1.77  37 1.91  64 1.94  56 2.12   7 2.33  55 2.34   4 2.54  25 2.74
                            17 2.78  20 2.83  24 2.84  29 2.85  31 2.93  21 3.04  15 3.05
  23  0.787  0.007  0.773-  40 1.56  61 1.60  54 1.76  53 1.92  50 1.92  56 2.06   5 2.32  32 2.34
                            14 2.39   6 2.46  20 2.50  24 2.50  28 2.52  17 2.57   1 2.70  30 2.81
  24  0.771  0.259  0.575-  62 1.78  53 1.81  39 1.82  55 2.11  54 2.12  31 2.27   6 2.40  23 2.50
                             5 2.70  22 2.84  21 2.86   2 2.88  19 2.91  13 3.02  29 3.04  18 3.08
  25  0.508  0.545  0.011-  42 1.58  59 1.71  64 2.06  51 2.11  60 2.30  58 2.42  30 2.59  27 2.66
                            11 2.71  18 2.71  22 2.74  28 2.92  26 2.93  12 2.94  15 2.97  31 2.97
  26  0.522  0.811  0.276-  52 1.33  59 1.67  41 1.82  57 1.95  63 2.10  21 2.39   3 2.45  60 2.53
                            17 2.58  19 2.61  16 2.67  27 2.79  32 2.93  25 2.93  28 2.95  11 3.00
  27  0.767  0.554  0.232-  57 1.85  58 1.87  60 2.03   9 2.13  62 2.20  49 2.23  44 2.28  28 2.53
                            18 2.55  25 2.66   2 2.74  26 2.79  10 2.90  13 2.99  20 3.08
  28  0.791  0.790  0.011-  50 1.56  43 1.68  61 1.87  57 1.95  59 2.18  58 2.22   9 2.42  17 2.43
                            14 2.44  23 2.52  27 2.53   1 2.64  19 2.83  10 2.85  30 2.86  25 2.92
  29  0.499  0.536  0.548-  64 1.59  60 1.99  63 2.04  46 2.15  62 2.32  55 2.49  11 2.59  30 2.60
                            15 2.67  16 2.79  31 2.80  22 2.85  26 3.03  24 3.04
  30  0.510  0.778  0.776-  56 1.80  63 1.82  45 1.93  64 2.10  59 2.30  17 2.32  25 2.59  29 2.60
                            12 2.67   7 2.77  21 2.77  15 2.78  23 2.81  16 2.84  32 2.84  28 2.86
  31  0.786  0.485  0.758-  48 1.77  53 1.88  58 1.93  62 2.00  64 2.15  24 2.27   9 2.44  13 2.46
                             6 2.50  20 2.53  29 2.80  22 2.93  25 2.97  32 3.09
  32  0.786  0.816  0.542-  54 1.35  47 1.62  61 1.87   5 1.96  57 2.22  63 2.24  23 2.34  19 2.48
                            13 2.52  21 2.66  14 2.68  10 2.69  30 2.84  26 2.93  31 3.09
  33  0.286  0.307  0.264-  11 1.50   8 1.67   4 2.00  18 2.33
  34  0.253  0.986  0.960-   1 1.66   7 1.68  12 1.68  45 1.87   4 1.96  17 2.29   3 2.36
  35  0.025  0.235  0.970-   6 1.47   1 1.77   4 1.81  20 1.82   2 2.30   9 2.36
  36  0.995  0.038  0.269-  19 1.64   2 1.74  10 1.74   3 2.12   1 2.13   5 2.18
  37  0.239  0.237  0.818-   7 1.57   4 1.60  22 1.91   6 1.92
  38  0.260  0.958  0.543-  16 1.24   7 1.83  21 2.01   3 2.20   5 2.24   8 2.30
  39  0.991  0.219  0.511-  24 1.82   5 1.87   8 2.04   2 2.05   6 2.14
  40  0.985  0.978  0.790-  14 1.36  23 1.56   1 1.74  61 1.78   5 1.94   6 2.08   7 2.40
  41  0.290  0.824  0.258-   3 1.27  26 1.82  16 1.94  10 2.11  12 2.50
  42  0.309  0.509  0.004-  25 1.58  15 2.09  11 2.20  12 2.23   4 2.23
  43  0.004  0.762  0.011-  28 1.68  14 1.72  12 1.72   9 1.96   1 1.97  10 2.24
  44  0.050  0.500  0.286-  11 1.96   2 2.07  13 2.09   9 2.20  27 2.28  10 2.49
  45  0.267  0.819  0.789-  12 1.37   7 1.83  34 1.87  30 1.93  14 1.95  15 2.05  16 2.22
  46  0.240  0.452  0.501-   8 1.66  11 1.79  13 2.15  29 2.15  15 2.16
  47  0.985  0.776  0.502-  32 1.62  13 1.63   5 1.64  10 1.70  16 2.23  14 2.32
  48  0.010  0.512  0.787-  15 1.76  31 1.77   9 1.94  13 2.00   6 2.10  14 2.30
  49  0.806  0.271  0.250-   2 1.15  18 1.76  19 2.04  20 2.11  27 2.23
  50  0.785  0.989  0.019-  28 1.56  17 1.89  23 1.92   1 2.05  20 2.05  19 2.17
  51  0.509  0.276  0.022-  18 1.72  22 1.77   4 2.04  25 2.11  20 2.25  17 2.35
  52  0.539  0.979  0.298-  26 1.33  21 1.67  19 1.96   3 2.19  17 2.38  18 2.48
  53  0.810  0.250  0.804-  20 1.39   6 1.46  24 1.81  31 1.88  23 1.92
  54  0.777  0.988  0.548-  32 1.35   5 1.54  23 1.76  19 1.99  24 2.12  21 2.13
  55  0.513  0.220  0.503-  21 1.64   8 2.10  24 2.11  18 2.26  22 2.34  29 2.49
  56  0.529  0.003  0.821-  17 1.36  30 1.80   7 2.02  23 2.06  22 2.12  21 2.46
  57  0.771  0.789  0.260-  19 1.79  27 1.85  28 1.95  26 1.95  10 1.99  32 2.22
  58  0.815  0.506  0.002-   9 1.02  27 1.87  31 1.93  20 2.02  28 2.22  25 2.42
  59  0.520  0.756  0.069-  26 1.67  25 1.71  17 1.84  28 2.18  30 2.30
  60  0.524  0.488  0.299-  18 1.73  11 1.75  29 1.99  27 2.03  25 2.30  26 2.53
  61  0.834  0.807  0.776-  14 1.44  23 1.60  40 1.78  32 1.87  28 1.87
  62  0.786  0.474  0.502-  24 1.78  13 1.83  31 2.00  27 2.20  29 2.32
  63  0.500  0.796  0.543-  21 1.70  30 1.82  16 1.83  29 2.04  26 2.10  32 2.24
  64  0.512  0.511  0.750-  29 1.59  22 1.94  25 2.06  30 2.10  31 2.15  15 2.26

  LATTYP: Found a simple cubic cell.
 ALAT       =     7.8088955000

  Lattice vectors:

 A1 = (   7.8088955000,   0.0000000000,   0.0000000000)
 A2 = (   0.0000000000,   7.8088955000,   0.0000000000)
 A3 = (   0.0000000000,   0.0000000000,   7.8088955000)

Analysis of symmetry for initial positions (statically):
 Subroutine PRICEL returns:
 Original cell was already a primitive cell.

 Routine SETGRP: Setting up the symmetry group for a
 simple cubic supercell.

 Subroutine GETGRP returns: Found  1 space group operations
[...]
   0.578E+02 0.488E+03 -.411E+02   -.579E+02 -.525E+03 0.370E+02   -.218E+01 0.168E+01 0.216E+01   0.155E-01 0.213E-02 0.632E-02
   0.106E+03 0.686E+02 -.273E+03   -.108E+03 -.660E+02 0.281E+03   0.104E+01 -.349E+01 -.491E+01   0.192E-01 0.434E-01 -.287E-02
   0.306E+03 0.347E+03 -.133E+03   -.313E+03 -.355E+03 0.137E+03   0.388E+00 -.342E+01 -.238E+01   -.486E-02 -.180E-02 0.253E-01
   -.169E+02 0.106E+03 0.155E+03   0.171E+02 -.107E+03 -.162E+03   -.167E+00 0.129E+01 -.247E+00   0.291E-02 -.677E-02 0.149E-02
   -.927E+02 0.338E+03 0.766E+01   0.936E+02 -.341E+03 -.105E+02   0.195E+00 0.943E+00 0.324E+01   0.103E-01 -.655E-03 -.450E-02
   0.328E+03 -.192E+03 0.171E+03   -.333E+03 0.198E+03 -.176E+03   0.817E+00 -.315E+01 0.392E+01   0.144E-02 -.223E-02 -.824E-02
   0.453E+03 0.683E+03 0.148E+03   -.468E+03 -.723E+03 -.151E+03   0.555E+01 0.662E+01 0.758E+00   -.270E-01 -.466E-02 -.247E-01
   -.107E+02 0.112E+03 0.944E+02   0.139E+02 -.134E+03 -.110E+03   -.356E+01 0.910E+01 0.898E+01   -.150E-01 0.231E-01 0.411E-01
   -.249E+03 -.668E+02 -.247E+03   0.270E+03 0.709E+02 0.259E+03   -.160E+02 -.252E+00 -.474E+01   -.107E-01 -.694E-02 -.240E-01
   -.150E+03 -.234E+03 -.275E+03   0.156E+03 0.246E+03 0.306E+03   -.312E+01 -.115E+02 -.145E+02   -.325E-01 -.133E-01 -.169E-01
   -.204E+03 -.105E+03 0.128E+02   0.222E+03 0.110E+03 -.138E+02   -.119E+02 -.509E+01 -.102E+01   -.123E-01 -.352E-01 -.118E-01
   -.799E+02 -.344E+03 0.195E+03   0.730E+02 0.372E+03 -.208E+03   0.597E+01 -.191E+02 0.731E+01   -.179E-02 -.278E-01 -.626E-01
   0.174E+02 -.339E+03 0.267E+02   -.290E+02 0.411E+03 -.953E+01   0.655E+01 -.177E+02 -.400E+01   0.231E-01 0.632E-01 0.196E-01
   -.167E+03 -.220E+03 0.652E+02   0.174E+03 0.228E+03 -.722E+02   -.429E+01 -.790E+01 0.900E+01   -.348E-02 0.175E-01 0.126E-01
   -.171E+03 -.249E+03 0.885E+02   0.188E+03 0.295E+03 -.940E+02   -.941E+01 -.179E+02 0.374E+01   -.139E-01 0.441E-01 0.243E-01
   -.260E+01 0.428E+03 0.109E+03   0.895E+01 -.497E+03 -.124E+03   0.318E+00 0.253E+02 0.114E+02   -.103E-01 0.208E-01 -.147E-01
   0.157E+03 0.383E+02 -.653E+02   -.178E+03 -.468E+02 0.663E+02   0.135E+02 0.818E+01 -.973E+00   0.232E-01 0.291E-01 -.412E-03
   -.110E+03 0.237E+03 -.300E+03   0.112E+03 -.245E+03 0.318E+03   -.223E+00 0.710E+01 -.942E+01   -.816E-02 -.398E-02 0.369E-01
   -.688E+02 -.352E+02 0.739E+01   0.677E+02 0.360E+02 -.630E+01   0.144E+01 0.528E+00 -.217E+01   0.273E-02 0.220E-01 0.924E-02
   -.191E+03 0.149E+03 0.232E+03   0.205E+03 -.140E+03 -.275E+03   -.611E+01 -.678E+01 0.188E+02   0.158E-01 0.263E-01 -.155E-02
   -.677E+01 -.720E+02 -.106E+03   -.270E+00 0.825E+02 0.118E+03   0.733E+01 -.612E+01 -.611E+01   0.123E-02 0.216E-02 -.331E-03
   -.164E+03 0.268E+03 0.857E+02   0.181E+03 -.278E+03 -.837E+02   -.108E+02 0.620E+01 -.257E+01   -.300E-01 -.378E-01 -.240E-01
   -.138E+03 0.460E+02 0.562E+02   0.144E+03 -.500E+02 -.537E+02   -.368E+01 0.462E+01 -.365E+01   0.494E-02 -.696E-02 -.475E-02
   0.344E+03 -.154E+03 -.932E+02   -.447E+03 0.172E+03 0.977E+02   0.188E+02 -.792E+01 -.693E+01   0.141E-01 -.845E-02 0.116E-01
   0.125E+03 -.158E+03 -.183E+03   -.121E+03 0.178E+03 0.193E+03   -.322E+01 -.989E+01 -.787E+01   0.127E-01 -.205E-03 0.342E-02
   0.361E+02 -.325E+02 -.517E+02   -.394E+02 0.312E+02 0.526E+02   0.300E+01 0.145E+01 -.107E+01   0.998E-02 0.171E-01 -.447E-01
   0.404E+02 -.342E+03 0.114E+03   -.369E+02 0.399E+03 -.123E+03   0.183E+01 -.226E+02 0.931E+01   0.101E-01 -.752E-02 0.267E-01
   0.307E+03 -.122E+03 0.173E+03   -.336E+03 0.124E+03 -.200E+03   0.145E+02 -.242E+01 0.675E+01   0.971E-03 -.120E-01 -.141E-01
   0.311E+03 -.288E+03 0.109E+03   -.339E+03 0.338E+03 -.116E+03   0.158E+02 -.191E+02 0.591E+01   -.378E-01 -.101E-01 -.663E-02
   0.362E+02 -.239E+03 0.948E+01   -.368E+02 0.260E+03 -.125E+02   0.131E+01 -.158E+02 0.353E+01   -.297E-02 -.192E-01 0.297E-01
   0.244E+02 -.146E+03 0.219E+03   -.291E+02 0.160E+03 -.263E+03   0.434E+01 -.812E+01 0.160E+02   -.175E-02 0.586E-02 -.208E-01
   0.552E+02 0.191E+03 -.558E+02   -.554E+02 -.195E+03 0.585E+02   0.261E+00 0.108E+01 -.266E+01   0.999E-02 0.136E-01 0.145E-01
   0.514E+03 0.221E+02 0.410E+02   -.718E+03 -.438E+02 -.794E+02   0.426E+02 0.424E+01 0.737E+01   0.244E-01 0.118E-01 0.101E-01
   0.900E+02 0.126E+03 0.158E+02   -.960E+02 -.127E+03 -.212E+02   0.616E+01 0.684E+00 0.190E+01   0.136E-02 -.238E-01 -.188E-02
   -.243E+02 -.736E+02 -.803E+02   0.315E+02 0.816E+02 0.839E+02   -.583E+01 -.454E+01 -.158E+01   -.175E-01 0.558E-01 0.234E-01
   0.344E+03 0.397E+03 0.463E+02   -.379E+03 -.424E+03 -.510E+02   0.137E+02 0.150E+02 0.366E+01   -.376E-01 0.109E-01 -.150E-01
   0.124E+03 -.651E+02 0.122E+03   -.132E+03 0.696E+02 -.135E+03   0.659E+01 -.306E+01 0.128E+02   0.687E-02 0.106E-01 0.677E-02
   -.708E+02 0.246E+03 0.290E+02   0.778E+02 -.259E+03 -.314E+02   -.473E+01 0.814E+01 0.306E+01   0.344E-01 0.727E-02 -.622E-02
   0.970E+01 0.434E+02 -.370E+02   -.980E+01 -.456E+02 0.535E+02   0.119E+01 0.161E+01 -.104E+02   -.503E-02 0.312E-02 -.136E-01
   -.709E+02 0.111E+03 -.497E+02   0.172E-11 -.291E-12 -.270E-12   0.710E+02 -.111E+03 0.498E+02   -.925E-01 0.137E+00 -.994E-01

 POSITION                                       TOTAL-FORCE (eV/Angst)
      0.35773      0.08730      0.01930        -4.104180      0.238380      6.314564
      7.43620      1.99949      1.98402        84.179387     -5.025508      3.005493
      2.03842      7.68350      2.04621        -8.637763     43.979329      0.564988
      1.95953      1.79220      0.17692         2.770546      3.287631      8.711025
      7.60414      7.66630      4.23499        14.991708      9.208489     -1.373327
      7.77679      1.90121      6.11891        17.118046      2.239745    -20.228138
      2.20398      0.39522      5.91609         1.392995     -3.184879     -7.738429
      1.92969      1.89422      3.62613        -0.960508     -5.810267      3.675353
      7.35924      4.05639      0.20264       161.409091     17.159925     31.927717
      0.17056      6.38656      2.27885         1.849538     -4.182113     -4.473359
      2.35248      3.88628      2.22414        -2.729006     13.291221     -1.537904
      1.68279      6.04434      7.42600        -0.098786    -12.579773     25.703942
      7.77799      4.46387      4.20670         1.910975     -5.728329     -0.307531
      0.13524      6.29355      6.21473        20.670913    -28.651593     -4.966203
      1.77582      4.38828      5.89078         2.074907     -1.256772     -1.033501
      2.10269      6.28773      3.94236         1.518223    -54.111367    -13.371394
      4.24576      7.63781      7.74885         0.805522     -2.759156     28.223056
      4.54157      2.22983      1.79627         0.003037     -2.675706      1.740283
      6.14897      0.11290      2.30167        -6.327504      2.853645     -0.523584
      6.19471      1.94886      7.66279        -7.244851      0.032409     25.864086
      3.97430      0.08529      3.95928        -0.393551      1.648556      3.692729
      3.76112      2.10012      6.22232         1.267078      0.675866     -3.944274
      6.14943      0.05521      6.03524       -13.998233      9.709889      1.082047
      6.01742      2.02135      4.49180        -3.603440     -0.723668     -2.521880
      3.96674      4.25624      0.08519         6.364145     -1.294091      0.043593
      4.08014      6.33209      2.15340        -2.230068    -34.704001     -1.934955
      5.99246      4.32428      1.81079        -1.624829     -0.859022      3.255390
      6.17684      6.16541      0.08493        -5.954683    -10.767220      1.784314
      3.89583      4.18412      4.28251         0.032015     -0.344740     -7.126122
      3.98026      6.07874      6.05686         1.045838     -2.925238      0.419220
      6.13905      3.78545      5.91779        -4.359474      3.077757     -1.096011
      6.13676      6.37271      4.23629        -9.857693    -33.847356     -2.068858
      2.23124      2.39689      2.06498        -0.320948    -13.383659     -6.727822
      1.97404      7.69982      7.49960         5.100694      3.872199      6.684841
      0.19647      1.83476      7.57189         2.816338      0.765405     16.360881
      7.76777      0.29723      2.10232         6.284014     -0.125966     -2.082751
      1.87021      1.85020      6.38971        -0.918463      8.160306     -6.129994
      2.02859      7.48424      4.23928        -5.065526     53.845109     13.222999
      7.73764      1.70634      3.99062         2.871686      0.421169      1.982388
      7.69118      7.63412      6.17086         7.239500     28.274836     -1.790799
      2.26460      6.43167      2.01549         6.659259    -44.041133     -3.209533
      2.40990      3.97500      0.03012        -7.512023     -0.310310      0.015354
      0.03059      5.95208      0.08759         2.624134     -1.402400      7.911692
      0.38780      3.90496      2.23484         0.292655      1.394385     -1.071251
      2.08399      6.39849      6.16010         8.483974      2.098221    -24.644202
      1.87724      3.52680      3.91558         0.289464      4.390544      5.174499
      7.69068      6.06163      3.91795         6.122582     -3.440744     -0.615707
      0.07546      3.99500      6.14303         1.927007      0.648257     -1.173504
      6.29393      2.11758      1.95164       -84.030804      9.753460     -2.497877
      6.12710      7.72566      0.14493         0.550154     10.396642      2.225625
      3.97195      2.15226      0.17030        -0.244881      0.133408     -0.255503
      4.20719      7.64205      2.32397         5.280346     34.814977      0.608583
      6.32788      1.95097      6.27666       -14.459845     -0.748818    -20.269194
      6.06924      7.71744      4.28180       -12.727718     31.053302     -0.929572
      4.00489      1.71985      3.92865         0.643439      5.079186      0.527333
      4.12763      0.02560      6.41324        -0.350499      6.005023    -27.827319
      6.01983      6.15793      2.02685         0.021331     -2.823222      0.085127
      6.36434      3.95076      0.01455      -161.688861    -17.366193    -31.050703
      4.05770      5.90531      0.53522         0.119824     -0.838922     -3.484542
      4.09570      3.81261      2.33670         1.320187      3.518117      2.031538
      6.51080      6.30373      6.06269       -20.437208    -12.456426     -1.103656
      6.14035      3.70387      3.91779        -1.595447      1.436001     -0.460649
      3.90587      6.21904      4.23951         2.334780     -4.470933      0.657930
      3.99787      3.99224      5.85561         1.091459     -0.623867      6.073462
    total drift:                                0.015847      0.015796      0.009872

  FREE ENERGIE OF THE ION-ELECTRON SYSTEM (eV)
  free  energy   TOTEN  =      -240.5730061585 eV

  energy  without entropy=     -240.5041402809  energy(sigma->0) =     -240.53857322

volume of typ            1:    42.8 %

volume of typ            2:    11.0 %

total charge

# of ion       s       p       d       tot
    1        0.309   0.448   8.179   8.936
    2        0.506   0.751   8.436   9.693
    3        0.439   0.543   8.359   9.341
    4        0.287   0.381   8.101   8.769
    5        0.350   0.531   8.292   9.173
    6        0.430   0.612   8.309   9.351
    7        0.361   0.511   8.160   9.032
    8        0.289   0.364   8.061   8.714
    9        0.603   0.853   8.657  10.114
   10        0.267   0.350   8.151   8.768
   11        0.336   0.463   8.075   8.874
   12        0.425   0.636   8.329   9.390
   13        0.272   0.366   8.053   8.692
   14        0.502   0.805   8.451   9.758
   15        0.229   0.256   8.106   8.591
   16        0.449   0.635   8.386   9.470
   17        0.388   0.517   8.275   9.180
   18        0.285   0.355   8.070   8.710
   19        0.287   0.385   8.176   8.847
   20        0.354   0.503   8.312   9.169
   21        0.341   0.470   8.149   8.960
   22        0.228   0.270   8.091   8.589
   23        0.363   0.569   8.243   9.174
   24        0.262   0.334   8.113   8.709
   25        0.304   0.372   8.092   8.768
   26        0.432   0.626   8.275   9.333
   27        0.233   0.273   8.117   8.623
   28        0.329   0.475   8.174   8.978
   29        0.256   0.314   8.090   8.660
   30        0.238   0.287   8.135   8.660
   31        0.245   0.305   8.149   8.699
   32        0.422   0.638   8.375   9.434
   33        1.271   2.902   0.025   4.198
   34        1.297   2.904   0.028   4.229
   35        1.286   2.958   0.033   4.278
   36        1.269   2.905   0.024   4.199
   37        1.270   2.931   0.028   4.230
   38        1.313   2.993   0.056   4.361
   39        1.276   2.805   0.011   4.091
   40        1.303   3.060   0.056   4.420
   41        1.301   2.971   0.050   4.321
   42        1.283   2.790   0.014   4.087
   43        1.272   2.929   0.026   4.227
   44        1.291   2.727   0.006   4.024
   45        1.304   2.955   0.042   4.301
   46        1.286   2.795   0.015   4.096
   47        1.265   2.990   0.040   4.294
   48        1.266   2.850   0.016   4.133
   49        1.321   3.036   0.072   4.429
   50        1.282   2.894   0.022   4.198
   51        1.271   2.821   0.014   4.105
   52        1.291   2.992   0.045   4.328
   53        1.279   3.066   0.061   4.406
   54        1.290   3.042   0.061   4.392
   55        1.278   2.784   0.011   4.074
   56        1.293   2.937   0.040   4.270
   57        1.276   2.845   0.015   4.135
   58        1.308   3.134   0.096   4.538
   59        1.274   2.863   0.019   4.156
   60        1.265   2.839   0.014   4.118
   61        1.292   3.008   0.040   4.340
   62        1.274   2.784   0.011   4.070
   63        1.271   2.866   0.018   4.155
   64        1.267   2.829   0.017   4.113
tot          52.10  108.40  263.97  424.47

magnetization (x)

# of ion       s       p       d       tot
    1        0.000  -0.000  -0.039  -0.039
    2       -0.001  -0.000   0.058   0.057
    3       -0.003  -0.002  -0.068  -0.073
    4       -0.000  -0.000  -0.036  -0.037
    5       -0.002  -0.000   0.003   0.001
    6       -0.000  -0.003  -0.012  -0.015
    7       -0.001  -0.001  -0.065  -0.067
    8       -0.000   0.001   0.044   0.045
    9       -0.001  -0.001   0.002   0.001
   10       -0.002  -0.008  -0.417  -0.427
   11        0.000   0.000   0.009   0.009
   12        0.000   0.000   0.022   0.023
   13       -0.002  -0.008  -0.588  -0.598
   14        0.000   0.001  -0.004  -0.003
   15       -0.000  -0.000  -0.105  -0.105
   16       -0.001  -0.000  -0.060  -0.061
   17        0.004   0.006   0.080   0.090
   18       -0.002   0.003   0.247   0.248
   19       -0.000   0.000  -0.009  -0.009
   20       -0.001  -0.000  -0.017  -0.018
   21        0.000  -0.000  -0.007  -0.007
   22       -0.001  -0.005  -0.591  -0.596
   23        0.000  -0.001  -0.008  -0.009
   24       -0.000  -0.001  -0.088  -0.089
   25        0.000   0.000   0.007   0.007
   26        0.001  -0.001   0.005   0.004
   27       -0.001   0.000   0.041   0.040
   28        0.000  -0.000  -0.000  -0.000
   29        0.000  -0.001  -0.078  -0.079
   30       -0.000   0.001   0.240   0.242
   31       -0.000   0.000  -0.044  -0.045
   32        0.001  -0.000  -0.011  -0.010
   33        0.000   0.010  -0.000   0.010
   34        0.000  -0.003  -0.000  -0.003
   35       -0.001  -0.004  -0.000  -0.004
   36       -0.002  -0.009  -0.000  -0.011
   37       -0.004  -0.041  -0.000  -0.045
   38       -0.001  -0.015  -0.000  -0.017
   39       -0.000  -0.003  -0.000  -0.004
   40       -0.000  -0.005  -0.000  -0.005
   41       -0.001  -0.024  -0.000  -0.025
   42       -0.000  -0.002   0.000  -0.002
   43       -0.000  -0.009  -0.000  -0.009
   44       -0.001  -0.055  -0.000  -0.056
   45        0.001   0.018  -0.000   0.019
   46        0.000  -0.023   0.000  -0.023
   47       -0.006  -0.074   0.000  -0.080
   48       -0.003  -0.030  -0.000  -0.033
   49        0.001   0.025  -0.000   0.026
   50       -0.000   0.002   0.000   0.002
   51       -0.002  -0.004   0.000  -0.006
   52       -0.001   0.003  -0.000   0.002
   53       -0.002  -0.008   0.000  -0.010
   54        0.000   0.004  -0.000   0.004
   55       -0.000  -0.005   0.000  -0.005
   56        0.000   0.012   0.000   0.013
   57       -0.001  -0.009  -0.000  -0.010
   58       -0.000   0.004  -0.000   0.004
   59        0.000   0.007   0.000   0.008
   60        0.002   0.026   0.000   0.028
   61        0.000   0.000  -0.000   0.000
   62       -0.003  -0.047   0.000  -0.050
   63        0.001   0.004  -0.000   0.005
   64       -0.002  -0.029  -0.000  -0.031
tot          -0.04   -0.30   -1.49   -1.83