 vasp.5.4.4.18Apr17-6-g9f103f2a35 (build May 12 2020 04:58:55) complex

 MD_VERSION_INFO: Compiled 2020-05-12T11:58:55-UTC in devlin.sd.materialsdesign.
 com:/home/medea2/data/build/wwolf/vasp-gpu5.4.4/13047/x86_64/src/src/build/std
 from svn 13047

 executed on                        Lin64 date 2023.03.23  22:58:16

 INCAR:
 POTCAR:    PAW_PBE Ni 02Aug2007
 POTCAR:    PAW_PBE O 08Apr2002

 POTCAR:    PAW_PBE Ni 02Aug2007

 POTCAR:    PAW_PBE O 08Apr2002

 Optimization of the real space projectors (new method)

 maximal supplied QI-value         = 16.25
 optimisation between [QCUT,QGAM] = [ 11.38, 22.75] = [ 36.24,144.96] Ry
 Optimized for a Real-space Cutoff    1.47 Angstroem

   l    n(q)    QCUT    max X(q) W(low)/X(q) W(high)/X(q)  e(spline)
   2      9    11.376    60.317    0.17E-03    0.16E-04    0.16E-06
   2      9    11.376    55.921    0.17E-03    0.16E-04    0.17E-06
   0     10    11.376    51.690    0.45E-04    0.60E-04    0.21E-06
   0     10    11.376    30.015    0.37E-04    0.55E-04    0.19E-06
   1     10    11.376    18.849    0.83E-04    0.11E-03    0.92E-07
   1     10    11.376    14.624    0.69E-04    0.92E-04    0.82E-07
 Optimization of the real space projectors (new method)

 maximal supplied QI-value         = 24.76
 optimisation between [QCUT,QGAM] = [ 11.39, 22.77] = [ 36.31,145.25] Ry
 Optimized for a Real-space Cutoff    1.10 Angstroem

   l    n(q)    QCUT    max X(q) W(low)/X(q) W(high)/X(q)  e(spline)
   0      7    11.387    20.381    0.22E-03    0.48E-03    0.18E-06
   0      7    11.387    15.268    0.22E-03    0.52E-03    0.19E-06
   1      7    11.387     5.964    0.22E-03    0.73E-03    0.24E-06
   1      7    11.387     5.382    0.19E-03    0.60E-03    0.21E-06

  PAW_PBE Ni 02Aug2007                  :
  PAW_PBE O 08Apr2002                   :

 POSCAR: NiO_Fm-3m_scale_0_950_disp_0_15_round_1
  positions in direct lattice
 exchange correlation table for  LEXCH =       14
   RHO(1)=    0.500       N(1)  =     2000
   RHO(2)=  100.500       N(2)  =     4000

 ion  position               nearest neighbor table
   1  0.992  0.999  0.959-  40 1.32  50 1.69  23 1.88  43 1.89  35 2.07  34 2.09  36 2.23   6 2.29
                            14 2.45  28 2.47  61 2.52  20 2.65   7 2.70  12 2.72   2 2.89  10 2.91
   2  0.032  0.229  0.247-  36 1.77  33 1.83  49 2.01  35 2.11  44 2.24   4 2.33  20 2.45  39 2.51
                            19 2.69   3 2.73   5 2.78   1 2.89  27 2.94   9 2.96   8 3.02  24 3.02
   3  0.273  0.976  0.243-  41 1.49  34 1.74  52 1.93  33 2.09  36 2.17  38 2.33  26 2.36  12 2.60
                            10 2.66  17 2.67   2 2.73  16 2.75   4 2.80  21 2.84  18 2.92   5 3.04
   4  0.246  0.274  0.044-  42 1.71  33 1.82  37 2.01  35 2.09  34 2.15  51 2.20   2 2.33  18 2.55
                            15 2.63  11 2.71   3 2.80   9 2.86  22 2.88   6 2.92   7 2.97   1 3.00
   5  0.993  0.995  0.514-  54 1.47  47 1.53  36 2.11  40 2.16  38 2.20  32 2.38  39 2.38  10 2.58
                            16 2.58  19 2.67  23 2.75   7 2.76  24 2.78   2 2.78   6 2.84  14 2.95
   6  0.977  0.236  0.787-  35 1.55  53 1.65  40 1.76  39 1.88  48 2.05  20 2.10   1 2.29  37 2.31
                            23 2.41  31 2.62   7 2.68  24 2.73   5 2.84   8 2.91   9 2.92   4 2.92
   7  0.258  0.043  0.743-  38 1.62  37 1.64  40 2.11  56 2.13  34 2.21  45 2.26   8 2.32  16 2.39
                            12 2.61  21 2.62  30 2.68   6 2.68   1 2.70   5 2.76  22 2.89   4 2.97
   8  0.265  0.270  0.552-  37 1.86  46 1.94  55 2.15  38 2.16  33 2.19   7 2.32  39 2.36  15 2.49
                            18 2.78  21 2.79   6 2.91  22 2.93  13 2.95   2 3.02   5 3.03
   9  0.984  0.528  0.019-  58 1.60  48 1.69  43 1.83  44 2.05  35 2.09  20 2.12  42 2.26  31 2.35
                            27 2.35  14 2.47  10 2.74  28 2.81   4 2.86  11 2.89   6 2.92  15 2.94
  10  0.993  0.782  0.262-  57 1.45  36 1.74  43 1.97  41 2.05  47 2.10  44 2.11  19 2.49  27 2.50
                             5 2.58   3 2.66   9 2.74  28 2.75  13 2.75  32 2.77  11 2.83   1 2.91
  11  0.271  0.551  0.251-  41 1.85  42 2.02  44 2.04  60 2.12  46 2.22  33 2.42  18 2.65   4 2.71
                            26 2.76  10 2.83   9 2.89  12 2.93  13 2.95  25 3.00  16 3.07
  12  0.273  0.794  0.964-  45 1.19  34 1.68  59 1.94  30 2.09  43 2.27  41 2.33  14 2.38  42 2.41
                             3 2.60   7 2.61  17 2.62   1 2.72  15 2.77  11 2.93
  13  0.993  0.528  0.505-  62 1.54  44 1.78  39 1.86  47 2.14  46 2.31  48 2.41  27 2.44  32 2.57
                            10 2.75  14 2.77  24 2.79  31 2.81   8 2.95  11 2.95  16 3.04  29 3.05
  14  0.030  0.738  0.788-  61 1.74  43 1.78  45 1.78  48 1.92  47 2.08  40 2.15  12 2.38   1 2.45
                             9 2.47  23 2.60  31 2.64  16 2.64  32 2.70  15 2.75  13 2.77  28 2.83
  15  0.277  0.487  0.786-  42 1.68  37 1.88  48 1.96  46 1.99  64 2.10  45 2.17   8 2.49  22 2.60
                             4 2.63  14 2.75  12 2.77  30 2.93   9 2.94   6 3.05
  16  0.262  0.805  0.550-  38 1.48  63 1.86  47 1.99  45 2.10  41 2.25  46 2.26   7 2.39  21 2.50
                             5 2.58  14 2.64  30 2.66   3 2.75  26 2.93  13 3.04  11 3.07  10 3.09
  17  0.534  0.996  0.023-  52 1.72  59 1.81  50 1.93  51 2.03  56 2.14  34 2.20  28 2.27  30 2.34
                            26 2.49  19 2.59  12 2.62   3 2.67  23 2.68  22 2.74  18 3.01
  18  0.481  0.285  0.271-  33 1.73  55 1.84  52 1.88  60 1.97  51 2.25  49 2.32   4 2.55  11 2.65
                             8 2.78  25 2.87  24 2.88  21 2.92   3 2.92  17 3.01
  19  0.768  0.008  0.257-  36 1.79  57 1.81  49 1.90  52 2.06  50 2.11  54 2.27  10 2.49  26 2.53
                            28 2.53  17 2.59   5 2.67   2 2.69  24 2.83  21 2.89  32 2.90   1 2.92
  20  0.839  0.298  0.008-  35 1.19  58 1.66  53 1.83  49 2.04   6 2.10   9 2.12  31 2.37   2 2.45
                            51 2.51  50 2.52   1 2.65  27 2.66  25 2.75  22 2.83  23 2.93  19 3.04
  21  0.507  0.008  0.520-  63 1.76  56 1.82  38 1.83  55 2.03  52 2.25  54 2.39  26 2.49  16 2.50
                             7 2.62  24 2.77  30 2.77   8 2.79  32 2.82   3 2.84  19 2.89  18 2.92
  22  0.534  0.279  0.814-  51 1.37  53 1.85  37 2.07  64 2.08  55 2.46  56 2.46  15 2.60  31 2.65
                            25 2.74  17 2.74  20 2.83   4 2.88   7 2.89  24 2.89   8 2.93  29 2.93
  23  0.804  0.981  0.811-  50 1.40  61 1.47  40 1.51   1 1.88  54 2.10  28 2.13  56 2.26  53 2.32
                             6 2.41  32 2.59  14 2.60  17 2.68   5 2.75  30 2.86  20 2.93
  24  0.756  0.261  0.517-  39 1.68  55 1.72  49 2.04  53 2.11  62 2.23  54 2.31  29 2.51   6 2.73
                            21 2.77   5 2.78  13 2.79  19 2.83  18 2.88  22 2.89  27 2.91  31 2.93
  25  0.589  0.545  0.034-  58 1.54  59 1.83  64 1.84  60 1.90  51 2.37  28 2.37  31 2.41  27 2.41
                            22 2.74  20 2.75  30 2.78  26 2.82  18 2.87  11 3.00
  26  0.518  0.803  0.277-  52 1.95  63 2.02  41 2.06  60 2.13  59 2.16  57 2.30   3 2.36  21 2.49
                            17 2.49  19 2.53  11 2.76  28 2.77  25 2.82  16 2.93  32 2.97  29 3.06
  27  0.801  0.526  0.259-  44 1.67  58 1.90  60 2.03  57 2.04  49 2.15  62 2.19   9 2.35  25 2.41
                            13 2.44  10 2.50  20 2.66  29 2.78  24 2.91  28 2.93   2 2.94  32 3.00
  28  0.750  0.801  0.008-  50 1.44  59 1.84  61 1.85  43 1.88  23 2.13  17 2.27  57 2.31  58 2.35
                            25 2.37   1 2.47  19 2.53  30 2.59  10 2.75  26 2.77   9 2.81  31 2.82
  29  0.605  0.542  0.556-  62 1.52  64 2.01  63 2.07  60 2.27  55 2.27  32 2.31  31 2.35  46 2.50
                            24 2.51  27 2.78  30 2.92  22 2.93  13 3.05  26 3.06
  30  0.488  0.796  0.804-  56 1.45  59 1.58  45 1.84  64 2.00  12 2.09  63 2.12  17 2.34  28 2.59
                            16 2.66   7 2.68  21 2.77  25 2.78  23 2.86  29 2.92  15 2.93  32 3.05
  31  0.782  0.509  0.797-  58 1.73  53 1.84  48 1.92  64 1.93  62 2.04  61 2.25   9 2.35  29 2.35
                            20 2.37  25 2.41   6 2.62  14 2.64  22 2.65  13 2.81  28 2.82  32 2.86
  32  0.783  0.778  0.548-  54 1.52  47 1.76  61 1.84  62 1.85  57 1.98  63 2.23  29 2.31   5 2.38
                            13 2.57  23 2.59  14 2.70  10 2.77  21 2.82  31 2.86  19 2.90  26 2.97
  33  0.264  0.242  0.274-  18 1.73   4 1.82   2 1.83   3 2.09   8 2.19  11 2.42
  34  0.252  1.000  0.023-  12 1.68   3 1.74   1 2.09   4 2.15  17 2.20   7 2.21
  35  0.986  0.263  0.983-  20 1.19   6 1.55   1 2.07   9 2.09   4 2.09   2 2.11
  36  0.997  0.005  0.244-  10 1.74   2 1.77  19 1.79   5 2.11   3 2.17   1 2.23
  37  0.273  0.247  0.789-   7 1.64   8 1.86  15 1.88   4 2.01  22 2.07   6 2.31
  38  0.274  0.994  0.541-  16 1.48   7 1.62  21 1.83   8 2.16   5 2.20   3 2.33
  39  0.964  0.296  0.555-  24 1.68  13 1.86   6 1.88   8 2.36   5 2.38   2 2.51
  40  0.994  0.012  0.790-   1 1.32  23 1.51   6 1.76   7 2.11  14 2.15   5 2.16
  41  0.255  0.787  0.262-   3 1.49  11 1.85  10 2.05  26 2.06  16 2.25  12 2.33
  42  0.269  0.487  0.001-  15 1.68   4 1.71  11 2.02   9 2.26  12 2.41
  43  0.987  0.762  0.010-  14 1.78   9 1.83  28 1.88   1 1.89  10 1.97  12 2.27
  44  0.014  0.514  0.279-  27 1.67  13 1.78  11 2.04   9 2.05  10 2.11   2 2.24
  45  0.255  0.763  0.816-  12 1.19  14 1.78  30 1.84  16 2.10  15 2.17   7 2.26
  46  0.287  0.517  0.533-   8 1.94  15 1.99  11 2.22  16 2.26  13 2.31  29 2.50
  47  0.007  0.800  0.530-   5 1.53  32 1.76  16 1.99  14 2.08  10 2.10  13 2.14
  48  0.027  0.493  0.809-   9 1.69  31 1.92  14 1.92  15 1.96   6 2.05  13 2.41
  49  0.776  0.252  0.257-  19 1.90   2 2.01  20 2.04  24 2.04  27 2.15  18 2.32
  50  0.779  0.983  0.989-  23 1.40  28 1.44   1 1.69  17 1.93  19 2.11  20 2.52
  51  0.521  0.253  0.987-  22 1.37  17 2.03   4 2.20  18 2.25  25 2.37  20 2.51
  52  0.508  0.049  0.235-  17 1.72  18 1.88   3 1.93  26 1.95  19 2.06  21 2.25
  53  0.769  0.275  0.786-   6 1.65  20 1.83  31 1.84  22 1.85  24 2.11  23 2.32
  54  0.809  0.972  0.543-   5 1.47  32 1.52  23 2.10  19 2.27  24 2.31  21 2.39
  55  0.536  0.266  0.499-  24 1.72  18 1.84  21 2.03   8 2.15  29 2.27  22 2.46
  56  0.521  0.970  0.749-  30 1.45  21 1.82   7 2.13  17 2.14  23 2.26  22 2.46
  57  0.811  0.784  0.297-  10 1.45  19 1.81  32 1.98  27 2.04  26 2.30  28 2.31
  58  0.781  0.502  0.018-  25 1.54   9 1.60  20 1.66  31 1.73  27 1.90  28 2.35
  59  0.517  0.765  0.002-  30 1.58  17 1.81  25 1.83  28 1.84  12 1.94  26 2.16
  60  0.541  0.531  0.273-  25 1.90  18 1.97  27 2.03  11 2.12  26 2.13  29 2.27
  61  0.815  0.795  0.781-  23 1.47  14 1.74  32 1.84  28 1.85  31 2.25   1 2.52
  62  0.799  0.542  0.538-  29 1.52  13 1.54  32 1.85  31 2.04  27 2.19  24 2.23
  63  0.498  0.783  0.533-  21 1.76  16 1.86  26 2.02  29 2.07  30 2.12  32 2.23
  64  0.538  0.545  0.804-  25 1.84  31 1.93  30 2.00  29 2.01  22 2.08  15 2.10

  LATTYP: Found a simple cubic cell.
 ALAT       =     7.8088955000

  Lattice vectors:

 A1 = (   7.8088955000,   0.0000000000,   0.0000000000)
 A2 = (   0.0000000000,   7.8088955000,   0.0000000000)
 A3 = (   0.0000000000,   0.0000000000,   7.8088955000)

Analysis of symmetry for initial positions (statically):
[...]
   0.377E+02 0.205E+03 -.143E+03   -.369E+02 -.209E+03 0.147E+03   -.176E+00 0.231E+01 -.298E+01   -.800E-01 -.564E-01 -.358E-01
   0.232E+03 0.130E+03 -.216E+03   -.238E+03 -.131E+03 0.219E+03   0.103E+01 0.127E+01 -.212E+01   -.436E-01 -.101E+00 0.537E-02
   0.175E+03 0.332E+03 -.294E+03   -.177E+03 -.356E+03 0.303E+03   -.199E+01 0.440E+01 -.325E+01   0.626E-01 -.582E-01 0.155E-01
   0.473E+03 0.135E+03 0.179E+03   -.488E+03 -.136E+03 -.180E+03   0.325E+01 -.462E-01 0.112E+01   -.108E+00 -.129E+00 -.840E-01
   -.103E+01 0.256E+03 0.281E+03   0.560E+01 -.272E+03 -.292E+03   -.386E+01 -.849E+00 0.460E+01   -.342E+00 -.751E-01 0.505E-01
   0.140E+03 -.402E+02 0.289E+03   -.142E+03 0.423E+02 -.297E+03   0.821E+00 0.125E+01 0.340E+01   0.308E-01 -.672E-01 0.161E-01
   0.325E+03 0.175E+03 0.145E+03   -.333E+03 -.184E+03 -.146E+03   0.230E+01 -.154E+01 -.212E+00   0.488E-01 -.477E-01 0.157E-01
   -.212E+01 -.844E+02 -.180E+03   -.478E+00 0.825E+02 0.193E+03   0.122E+00 0.103E+01 -.101E+02   0.923E-01 0.423E-01 -.356E+00
   -.431E+02 -.174E+03 -.308E+02   0.414E+02 0.190E+03 0.250E+02   0.615E+00 -.100E+02 0.438E+01   -.422E-01 0.139E+00 -.920E-01
   -.411E+03 0.446E+02 -.172E+03   0.504E+03 -.616E+02 0.177E+03   -.275E+02 0.982E+00 -.703E+01   0.299E+00 -.213E-01 0.374E-01
   -.128E+03 -.109E+03 -.607E+02   0.137E+03 0.112E+03 0.569E+02   -.783E+01 -.127E+01 0.249E+01   0.128E+00 0.318E-01 -.129E+00
   -.711E+02 -.970E+02 0.277E+02   0.708E+02 0.105E+03 -.180E+02   0.113E+01 -.377E+01 -.829E+01   0.244E-01 0.864E-01 0.338E+00
   0.165E+02 -.222E+03 0.220E+03   -.201E+02 0.246E+03 -.241E+03   0.240E+01 -.111E+02 0.147E+02   0.292E-01 0.777E-02 0.634E-01
   -.193E+03 0.222E+02 0.159E+03   0.206E+03 -.228E+02 -.162E+03   -.841E+01 -.130E+01 0.283E+01   0.808E-01 0.209E-01 0.353E-01
   -.278E+03 -.757E+02 0.360E+03   0.306E+03 0.714E+02 -.422E+03   -.138E+02 0.676E+01 0.257E+02   0.110E+00 0.960E-02 0.967E-01
   -.236E+02 0.227E+03 -.809E+02   0.189E+02 -.250E+03 0.860E+02   0.250E+01 0.989E+01 -.421E+01   0.156E-01 0.681E-01 -.971E-01
   -.107E+03 -.706E+02 -.150E+03   0.111E+03 0.839E+02 0.158E+03   -.399E+01 -.974E+01 -.370E+01   -.316E-03 -.371E+00 -.112E+00
   -.164E+03 0.818E+02 -.183E+03   0.169E+03 -.796E+02 0.193E+03   -.410E+01 -.272E+01 -.619E+01   0.135E+00 0.523E-01 -.104E+00
   -.236E+03 0.106E+03 -.613E+02   0.254E+03 -.113E+03 0.582E+02   -.119E+02 0.585E+01 0.128E+01   -.190E+00 -.408E-01 -.475E-01
   -.987E+01 0.181E+03 0.346E+03   0.120E+01 -.201E+03 -.437E+03   -.662E+00 0.494E+01 0.255E+02   -.592E-01 -.181E-01 0.178E+00
   -.660E+02 0.295E+01 0.115E+03   0.727E+02 0.329E+01 -.122E+03   -.759E+01 -.539E+01 0.599E+01   0.185E-02 -.253E-01 0.139E+00
   -.212E+03 0.209E+03 0.713E+02   0.222E+03 -.233E+03 -.720E+02   -.369E+01 0.127E+02 0.164E+01   0.183E+00 -.528E-01 0.111E+00
   -.187E+03 0.409E+02 0.223E+03   0.195E+03 -.498E+02 -.237E+03   -.610E+01 0.792E+01 0.926E+01   0.256E+00 -.273E-01 -.124E-01
   0.123E+03 -.478E+02 -.945E+02   -.130E+03 0.528E+02 0.943E+02   0.652E+01 -.506E+01 0.136E+01   -.578E-01 0.229E+00 -.713E-01
   0.184E+03 -.300E+03 -.298E+03   -.195E+03 0.339E+03 0.338E+03   0.464E+01 -.209E+02 -.183E+02   0.872E-01 0.635E-01 -.670E-01
   0.560E+02 -.179E+02 -.267E+03   -.579E+02 0.143E+02 0.312E+03   0.478E+00 -.115E+01 -.196E+02   -.371E+00 0.895E-01 -.126E-01
   -.574E+01 -.128E+03 -.141E+03   0.610E+01 0.138E+03 0.149E+03   0.137E+01 -.955E+01 -.458E+01   -.148E+00 0.179E+00 0.431E-02
   0.240E+03 0.652E+02 0.190E+03   -.254E+03 -.715E+02 -.201E+03   0.605E+01 0.515E+01 0.743E+01   -.180E-01 -.716E-01 0.652E-01
   0.277E+03 -.268E+03 0.870E+02   -.309E+03 0.292E+03 -.854E+02   0.168E+02 -.133E+02 0.651E-01   -.189E-01 0.119E+00 0.900E-01
   0.119E+03 -.723E+02 -.258E+02   -.129E+03 0.778E+02 0.308E+02   0.778E+01 -.669E+01 -.329E+01   -.102E+00 0.985E-02 -.315E-01
   -.402E+02 -.287E+03 0.991E+02   0.502E+02 0.321E+03 -.104E+03   -.626E+01 -.159E+02 0.207E+01   -.972E-01 0.104E+00 -.163E-02
   0.260E+03 0.888E+02 -.556E+02   -.292E+03 -.957E+02 0.614E+02   0.148E+02 0.558E+01 -.229E+01   -.373E-01 -.247E+00 -.107E+00
   0.130E+03 -.171E+02 -.140E+03   -.132E+03 0.231E+02 0.145E+03   0.243E+01 -.426E+01 -.365E+01   0.980E-02 -.865E-01 0.268E+00
   0.111E+03 0.141E+03 -.215E+03   -.116E+03 -.153E+03 0.234E+03   0.509E+01 0.108E+02 -.100E+02   -.164E+00 -.554E-01 -.143E-01
   0.124E+03 0.374E+02 -.138E+03   -.126E+03 -.358E+02 0.149E+03   0.204E+01 -.110E+01 -.106E+02   0.114E+00 -.128E+00 -.161E-01
   0.154E+03 0.258E+03 0.150E+03   -.161E+03 -.290E+03 -.157E+03   0.529E+01 0.131E+02 0.763E+00   0.110E+00 0.380E-01 0.109E+00
   0.467E+02 0.103E+03 0.801E+02   -.441E+02 -.110E+03 -.792E+02   -.269E+01 0.774E+01 0.719E+00   0.533E-02 -.923E-01 -.174E+00
   0.852E+01 0.192E+03 0.923E+02   -.364E+01 -.204E+03 -.901E+02   -.358E+01 0.955E+01 -.318E+01   -.151E+00 0.234E-02 0.327E-01
   0.165E+03 0.687E+02 0.137E+03   -.173E+03 -.673E+02 -.140E+03   0.693E+01 -.116E+01 0.150E+01   -.246E+00 -.942E-01 0.103E-01
   0.163E+02 0.269E+02 0.121E+02   -.455E-12 0.156E-12 0.455E-12   -.164E+02 -.265E+02 -.122E+02   0.142E+00 -.417E+00 0.397E-01

 POSITION                                       TOTAL-FORCE (eV/Angst)
      7.74638      7.80046      7.48847        11.902343     -0.426594     39.102254
      0.24604      1.78596      1.92871        -0.534540      2.767476      1.767187
      2.13040      7.62210      1.89628         0.384446     12.788870      2.169079
      1.91862      2.13769      0.34383         0.917592     -3.058897     -0.479873
      7.75807      7.77347      4.01430        14.720158     14.258147     -3.633831
      7.63075      1.84179      6.14189         8.393136      1.409887    -11.902590
      2.01461      0.33471      5.79970        -0.515038     -2.591556      3.729922
      2.07188      2.11054      4.31389        -0.444824      0.696036     -2.074453
      7.68453      4.12310      0.15005         8.804126      1.592759      5.856283
      7.75173      6.10857      2.04380        18.894317     -3.445820     -2.620066
      2.12000      4.30170      1.95977         0.783107     -0.981200      0.880917
      2.13123      6.19733      7.53010         5.798758      8.924585     65.927076
      7.75167      4.11992      3.94513        11.317967     -0.646157      0.665860
      0.23767      5.76600      6.15120         2.365149     -0.951243     -3.172969
      2.15924      3.80493      6.13650         0.724747      1.587832     -4.569977
      2.04339      6.28862      4.29718        -1.605750    -16.308717     -0.341661
      4.16702      7.77633      0.17603        -1.241373      3.752457     -2.243829
      3.75840      2.22920      2.11288         3.473419      1.820744     -1.245157
      5.99495      0.06496      2.00936        -3.207997      2.343342      0.711803
      6.55271      2.33027      0.06610       -63.675958     10.030872     17.320605
      3.95673      0.06486      4.06141         2.612005      3.971676     -1.987115
      4.17352      2.17485      6.35431         0.646254      2.914945    -26.253124
      6.27771      7.65983      6.33129       -17.075098     15.939389    -23.661116
      5.90018      2.03781      4.03522        -2.383543     -1.137966     -1.181885
      4.60191      4.25557      0.26889        -9.942335      0.595531      2.956058
      4.04559      6.26935      2.15958         0.510227     -1.709209      0.731157
      6.25514      4.11049      2.02074        -4.936042     -0.119951      1.128326
      5.85448      6.25644      0.06352        -4.291108    -19.213221      6.233424
      4.72625      4.23311      4.33971       -11.968376     -0.898609     -0.155291
      3.81207      6.21968      6.28103         0.371780    -16.411905     -5.625576
      6.11025      3.97855      6.22440        -0.719195      3.215502     -4.828591
      6.11772      6.07585      4.28237        -5.252515    -10.903234     -1.208899
      2.06120      1.88728      2.13583        -2.386898     -0.751659      2.324641
      1.96555      7.80603      0.17625        -1.088105      6.214969     -1.472505
      7.69671      2.05633      7.67718        65.762905    -16.047642     -2.259490
      7.78543      0.03849      1.90666         1.458651      1.793812     -1.368474
      2.13025      1.92834      6.16492         0.825693      3.925597      1.705285
      2.13633      7.76187      4.22560        -1.169121     13.487868     -6.688644
      7.52868      2.31465      4.33010         4.761639     -1.852612     -0.757780
      7.75854      0.09170      6.17211        14.553999      2.433509    -36.379064
      1.99208      6.14507      2.04904        -2.137282    -13.096846      0.837466
      2.10387      3.80390      0.00694         0.030965      3.198102      4.175973
      7.70724      5.94900      0.07864         1.200335     -0.490935      3.272175
      0.11029      4.01196      2.18134         5.329541     -1.068179     -1.819533
      1.99439      5.95724      6.37000        -9.391404    -15.559818    -65.220053
      2.23766      4.04064      4.16258        -0.908462      0.827434     -0.077086
      0.05728      6.24986      4.14058         6.302551    -11.550719      1.097926
      0.21100      3.84925      6.32104         1.446704     -1.020686     -5.090368
      6.05703      1.96746      2.00622        -0.385230      0.124701      1.097752
      6.08088      7.67356      7.72025        -5.781646     17.930211     21.856484
      4.06852      1.97744      7.70411        -1.868530     -4.610074     25.353124
      3.97061      0.38257      1.83400         1.579595      0.271404      3.497679
      6.00580      2.14372      6.13743        -8.035879     -1.201384     -3.344233
      6.31790      7.58653      4.23689       -14.836986     10.991131      1.813827
      4.18464      2.07395      3.89712        -2.156566     -1.136093      1.703264
      4.07218      7.57689      5.85252         3.649558     17.746476     -3.199337
      6.33260      6.12378      2.31624       -18.037040     -1.584376      3.445221
      6.09779      3.92163      0.14072        -0.414224      1.567946      1.250853
      4.03969      5.97671      0.01872        -0.074010     -1.305895      8.785286
      4.22342      4.14616      2.12959        -0.415597      0.415362      0.514940
      6.36525      6.21031      6.09678        -1.918872    -18.303668     -5.575951
      6.24207      4.23436      4.20454        -0.049237      1.430591      1.403117
      3.89194      6.11421      4.16381         1.155081     -2.817947     -0.921791
      4.20328      4.25406      6.27867        -1.827967      0.233652     -1.954652
    total drift:                                0.003620     -0.016910      0.011959

  FREE ENERGIE OF THE ION-ELECTRON SYSTEM (eV)
  free  energy   TOTEN  =      -291.9750269105 eV

  energy  without entropy=     -291.9140937096  energy(sigma->0) =     -291.94456031

volume of typ            1:    42.8 %

volume of typ            2:    11.0 %

total charge

# of ion       s       p       d       tot
    1        0.426   0.655   8.427   9.508
    2        0.244   0.284   8.101   8.629
    3        0.330   0.453   8.157   8.940
    4        0.265   0.324   8.062   8.651
    5        0.381   0.499   8.268   9.148
    6        0.347   0.544   8.221   9.111
    7        0.309   0.407   8.184   8.900
    8        0.203   0.227   8.058   8.488
    9        0.320   0.468   8.189   8.977
   10        0.346   0.480   8.194   9.020
   11        0.193   0.215   8.031   8.439
   12        0.508   0.731   8.449   9.688
   13        0.302   0.405   8.112   8.819
   14        0.286   0.399   8.148   8.833
   15        0.261   0.333   8.051   8.644
   16        0.316   0.410   8.174   8.901
   17        0.262   0.345   8.150   8.756
   18        0.254   0.320   8.008   8.582
   19        0.261   0.319   8.088   8.668
   20        0.521   0.818   8.490   9.829
   21        0.256   0.321   8.069   8.647
   22        0.366   0.460   8.212   9.038
   23        0.508   0.844   8.454   9.805
   24        0.281   0.349   8.073   8.703
   25        0.318   0.440   8.154   8.912
   26        0.203   0.227   8.094   8.524
   27        0.251   0.322   8.137   8.711
   28        0.359   0.523   8.301   9.182
   29        0.280   0.352   8.140   8.772
   30        0.420   0.608   8.240   9.268
   31        0.262   0.363   8.166   8.792
   32        0.338   0.500   8.162   9.000
   33        1.255   2.846   0.016   4.117
   34        1.279   2.848   0.016   4.143
   35        1.321   3.080   0.076   4.477
   36        1.266   2.872   0.017   4.155
   37        1.270   2.856   0.019   4.145
   38        1.264   2.949   0.035   4.248
   39        1.271   2.839   0.013   4.123
   40        1.307   3.056   0.065   4.428
   41        1.263   2.894   0.024   4.181
   42        1.269   2.846   0.015   4.131
   43        1.282   2.871   0.017   4.170
   44        1.258   2.857   0.017   4.132
   45        1.318   3.037   0.067   4.422
   46        1.264   2.747   0.005   4.016
   47        1.278   2.903   0.025   4.207
   48        1.278   2.847   0.016   4.141
   49        1.278   2.768   0.008   4.054
   50        1.288   3.075   0.063   4.427
   51        1.299   2.877   0.031   4.207
   52        1.271   2.830   0.016   4.117
   53        1.270   2.897   0.022   4.188
   54        1.287   2.964   0.036   4.286
   55        1.260   2.816   0.012   4.088
   56        1.284   2.905   0.027   4.216
   57        1.279   2.918   0.030   4.226
   58        1.264   3.015   0.048   4.326
   59        1.270   2.918   0.028   4.215
   60        1.266   2.775   0.008   4.049
   61        1.283   2.972   0.033   4.288
   62        1.268   2.960   0.038   4.266
   63        1.277   2.809   0.013   4.099
   64        1.273   2.812   0.012   4.097
tot          51.03  106.60  262.63  420.27

magnetization (x)

# of ion       s       p       d       tot
    1       -0.001   0.000  -0.001  -0.001
    2        0.002  -0.001  -0.464  -0.463
    3       -0.003   0.002  -0.002  -0.003
    4       -0.001   0.002   0.195   0.196
    5       -0.000   0.001   0.015   0.015
    6       -0.000  -0.001   0.005   0.004
    7        0.001   0.001  -0.023  -0.021
    8       -0.002  -0.002  -0.756  -0.760
    9       -0.001  -0.000   0.012   0.011
   10       -0.003  -0.002   0.104   0.099
   11        0.000  -0.003  -0.939  -0.942
   12        0.001  -0.001  -0.044  -0.043
   13       -0.003  -0.009  -0.519  -0.530
   14       -0.000   0.000  -0.059  -0.059
   15       -0.000  -0.001   0.306   0.304
   16        0.001   0.001   0.135   0.136
   17        0.000  -0.002  -0.338  -0.339
   18       -0.000   0.006   0.763   0.769
   19       -0.000   0.001  -0.167  -0.166
   20       -0.003  -0.004  -0.045  -0.051
   21        0.001   0.007   0.575   0.582
   22        0.000   0.001  -0.009  -0.007
   23       -0.001  -0.001  -0.011  -0.013
   24        0.000  -0.002   0.009   0.007
   25       -0.001  -0.002  -0.070  -0.073
   26        0.001   0.000  -0.842  -0.841
   27       -0.002  -0.001   0.096   0.093
   28       -0.000  -0.001  -0.056  -0.058
   29       -0.003  -0.001  -0.516  -0.521
   30        0.002   0.004   0.067   0.073
   31        0.001   0.000  -0.268  -0.267
   32        0.001   0.002   0.017   0.020
   33        0.001   0.012   0.000   0.013
   34        0.000  -0.006   0.000  -0.006
   35        0.001  -0.016  -0.000  -0.015
   36       -0.003  -0.005  -0.000  -0.008
   37        0.001  -0.015   0.000  -0.014
   38        0.004   0.059   0.000   0.063
   39       -0.003  -0.055   0.000  -0.059
   40       -0.000   0.003   0.000   0.003
   41       -0.007  -0.073   0.000  -0.080
   42        0.000  -0.007   0.000  -0.007
   43       -0.001   0.006  -0.000   0.005
   44       -0.007  -0.068  -0.000  -0.075
   45        0.000  -0.003  -0.000  -0.003
   46       -0.004  -0.067  -0.000  -0.071
   47       -0.001   0.014  -0.000   0.013
   48       -0.000  -0.004  -0.000  -0.004
   49       -0.003  -0.006   0.000  -0.008
   50       -0.001  -0.023   0.000  -0.024
   51       -0.000  -0.002  -0.000  -0.002
   52       -0.001  -0.041   0.000  -0.042
   53       -0.001  -0.013   0.000  -0.014
   54        0.003   0.004  -0.000   0.006
   55        0.003   0.026   0.000   0.029
   56        0.002   0.016   0.000   0.019
   57       -0.000  -0.001   0.000  -0.002
   58       -0.003  -0.010  -0.000  -0.013
   59       -0.003  -0.020   0.000  -0.023
   60       -0.001  -0.047  -0.000  -0.049
   61        0.000  -0.007   0.000  -0.006
   62       -0.009  -0.096  -0.000  -0.105
   63        0.002  -0.037   0.000  -0.035
   64       -0.003  -0.028   0.000  -0.031
tot          -0.05   -0.52   -2.83   -3.39