 vasp.5.4.4.18Apr17-6-g9f103f2a35 (build May 12 2020 04:58:55) complex

 MD_VERSION_INFO: Compiled 2020-05-12T11:58:55-UTC in devlin.sd.materialsdesign.
 com:/home/medea2/data/build/wwolf/vasp-gpu5.4.4/13047/x86_64/src/src/build/std
 from svn 13047

 executed on                        Lin64 date 2023.03.23  23:47:32

 INCAR:
 POTCAR:    PAW_PBE Ni 02Aug2007
 POTCAR:    PAW_PBE O 08Apr2002

 POTCAR:    PAW_PBE Ni 02Aug2007

 POTCAR:    PAW_PBE O 08Apr2002

 Optimization of the real space projectors (new method)

 maximal supplied QI-value         = 16.25
 optimisation between [QCUT,QGAM] = [ 11.38, 22.75] = [ 36.24,144.96] Ry
 Optimized for a Real-space Cutoff    1.47 Angstroem

   l    n(q)    QCUT    max X(q) W(low)/X(q) W(high)/X(q)  e(spline)
   2      9    11.376    60.317    0.17E-03    0.16E-04    0.16E-06
   2      9    11.376    55.921    0.17E-03    0.16E-04    0.17E-06
   0     10    11.376    51.690    0.45E-04    0.60E-04    0.21E-06
   0     10    11.376    30.015    0.37E-04    0.55E-04    0.19E-06
   1     10    11.376    18.849    0.83E-04    0.11E-03    0.92E-07
   1     10    11.376    14.624    0.69E-04    0.92E-04    0.82E-07
 Optimization of the real space projectors (new method)

 maximal supplied QI-value         = 24.76
 optimisation between [QCUT,QGAM] = [ 11.39, 22.77] = [ 36.31,145.25] Ry
 Optimized for a Real-space Cutoff    1.10 Angstroem

   l    n(q)    QCUT    max X(q) W(low)/X(q) W(high)/X(q)  e(spline)
   0      7    11.387    20.381    0.22E-03    0.48E-03    0.18E-06
   0      7    11.387    15.268    0.22E-03    0.52E-03    0.19E-06
   1      7    11.387     5.964    0.22E-03    0.73E-03    0.24E-06
   1      7    11.387     5.382    0.19E-03    0.60E-03    0.21E-06

  PAW_PBE Ni 02Aug2007                  :
  PAW_PBE O 08Apr2002                   :

 POSCAR: NiO_Fm-3m_pris
  positions in direct lattice
 exchange correlation table for  LEXCH =       14
   RHO(1)=    0.500       N(1)  =     2000
   RHO(2)=  100.500       N(2)  =     4000

 ion  position               nearest neighbor table
   1  0.000  0.000  0.000-  34 2.05  35 2.05  36 2.05  40 2.05  43 2.05  50 2.05  12 2.91  14 2.91
                            19 2.91  20 2.91  23 2.91  28 2.91   2 2.91   3 2.91   4 2.91   6 2.91
   2  0.000  0.250  0.250-  33 2.05  35 2.05  36 2.05  39 2.05  44 2.05  49 2.05  11 2.91  13 2.91
                            19 2.91  20 2.91  24 2.91  27 2.91   1 2.91   3 2.91   4 2.91   5 2.91
   3  0.250  0.000  0.250-  33 2.05  34 2.05  36 2.05  38 2.05  41 2.05  52 2.05  12 2.91  16 2.91
                            17 2.91  18 2.91  21 2.91  26 2.91   1 2.91   2 2.91   4 2.91   5 2.91
   4  0.250  0.250  0.000-  33 2.05  34 2.05  35 2.05  37 2.05  42 2.05  51 2.05  11 2.91  15 2.91
                            17 2.91  18 2.91  22 2.91  25 2.91   1 2.91   2 2.91   3 2.91   6 2.91
   5  0.000  0.000  0.500-  36 2.05  38 2.05  39 2.05  40 2.05  47 2.05  54 2.05  14 2.91  16 2.91
                            19 2.91  23 2.91  24 2.91  32 2.91   2 2.91   3 2.91   6 2.91   7 2.91
   6  0.000  0.250  0.750-  35 2.05  37 2.05  39 2.05  40 2.05  48 2.05  53 2.05  13 2.91  15 2.91
                            20 2.91  23 2.91  24 2.91  31 2.91   1 2.91   4 2.91   5 2.91   7 2.91
   7  0.250  0.000  0.750-  34 2.05  37 2.05  38 2.05  40 2.05  45 2.05  56 2.05  14 2.91  16 2.91
                            17 2.91  21 2.91  22 2.91  30 2.91   1 2.91   4 2.91   5 2.91   6 2.91
   8  0.250  0.250  0.500-  33 2.05  37 2.05  38 2.05  39 2.05  46 2.05  55 2.05  13 2.91  15 2.91
                            18 2.91  21 2.91  22 2.91  29 2.91   2 2.91   3 2.91   5 2.91   6 2.91
   9  0.000  0.500  0.000-  35 2.05  42 2.05  43 2.05  44 2.05  48 2.05  58 2.05  14 2.91  15 2.91
                            20 2.91  27 2.91  28 2.91  31 2.91   2 2.91   4 2.91   6 2.91  10 2.91
  10  0.000  0.750  0.250-  36 2.05  41 2.05  43 2.05  44 2.05  47 2.05  57 2.05  13 2.91  16 2.91
                            19 2.91  27 2.91  28 2.91  32 2.91   1 2.91   3 2.91   5 2.91   9 2.91
  11  0.250  0.500  0.250-  33 2.05  41 2.05  42 2.05  44 2.05  46 2.05  60 2.05  13 2.91  16 2.91
                            18 2.91  25 2.91  26 2.91  29 2.91   2 2.91   4 2.91   8 2.91   9 2.91
  12  0.250  0.750  0.000-  34 2.05  41 2.05  42 2.05  43 2.05  45 2.05  59 2.05  14 2.91  15 2.91
                            17 2.91  25 2.91  26 2.91  30 2.91   1 2.91   3 2.91   7 2.91   9 2.91
  13  0.000  0.500  0.500-  39 2.05  44 2.05  46 2.05  47 2.05  48 2.05  62 2.05  15 2.91  16 2.91
                            24 2.91  27 2.91  31 2.91  32 2.91   2 2.91   6 2.91   8 2.91  10 2.91
  14  0.000  0.750  0.750-  40 2.05  43 2.05  45 2.05  47 2.05  48 2.05  61 2.05  15 2.91  16 2.91
                            23 2.91  28 2.91  31 2.91  32 2.91   1 2.91   5 2.91   7 2.91   9 2.91
  15  0.250  0.500  0.750-  37 2.05  42 2.05  45 2.05  46 2.05  48 2.05  64 2.05  14 2.91  16 2.91
                            22 2.91  25 2.91  29 2.91  30 2.91   4 2.91   6 2.91   8 2.91   9 2.91
  16  0.250  0.750  0.500-  38 2.05  41 2.05  45 2.05  46 2.05  47 2.05  63 2.05  14 2.91  15 2.91
                            21 2.91  26 2.91  29 2.91  30 2.91   3 2.91   5 2.91   7 2.91  10 2.91
  17  0.500  0.000  0.000-  34 2.05  50 2.05  51 2.05  52 2.05  56 2.05  59 2.05  20 2.91  22 2.91
                            23 2.91  26 2.91  28 2.91  30 2.91   3 2.91   4 2.91   7 2.91  12 2.91
  18  0.500  0.250  0.250-  33 2.05  49 2.05  51 2.05  52 2.05  55 2.05  60 2.05  20 2.91  21 2.91
                            24 2.91  25 2.91  27 2.91  29 2.91   3 2.91   4 2.91   8 2.91  11 2.91
  19  0.750  0.000  0.250-  36 2.05  49 2.05  50 2.05  52 2.05  54 2.05  57 2.05  20 2.91  21 2.91
                            24 2.91  26 2.91  28 2.91  32 2.91   1 2.91   2 2.91   5 2.91  10 2.91
  20  0.750  0.250  0.000-  35 2.05  49 2.05  50 2.05  51 2.05  53 2.05  58 2.05  19 2.91  22 2.91
                            23 2.91  25 2.91  27 2.91  31 2.91   1 2.91   2 2.91   6 2.91   9 2.91
  21  0.500  0.000  0.500-  38 2.05  52 2.05  54 2.05  55 2.05  56 2.05  63 2.05  22 2.91  23 2.91
                            24 2.91  26 2.91  30 2.91  32 2.91   3 2.91   7 2.91   8 2.91  16 2.91
  22  0.500  0.250  0.750-  37 2.05  51 2.05  53 2.05  55 2.05  56 2.05  64 2.05  21 2.91  23 2.91
                            24 2.91  25 2.91  29 2.91  31 2.91   4 2.91   7 2.91   8 2.91  15 2.91
  23  0.750  0.000  0.750-  40 2.05  50 2.05  53 2.05  54 2.05  56 2.05  61 2.05  21 2.91  22 2.91
                            24 2.91  28 2.91  30 2.91  32 2.91   1 2.91   5 2.91   6 2.91  14 2.91
  24  0.750  0.250  0.500-  39 2.05  49 2.05  53 2.05  54 2.05  55 2.05  62 2.05  21 2.91  22 2.91
                            23 2.91  27 2.91  29 2.91  31 2.91   2 2.91   5 2.91   6 2.91  13 2.91
  25  0.500  0.500  0.000-  42 2.05  51 2.05  58 2.05  59 2.05  60 2.05  64 2.05  22 2.91  26 2.91
                            27 2.91  28 2.91  30 2.91  31 2.91   4 2.91  11 2.91  12 2.91  15 2.91
  26  0.500  0.750  0.250-  41 2.05  52 2.05  57 2.05  59 2.05  60 2.05  63 2.05  21 2.91  25 2.91
                            27 2.91  28 2.91  29 2.91  32 2.91   3 2.91  11 2.91  12 2.91  16 2.91
  27  0.750  0.500  0.250-  44 2.05  49 2.05  57 2.05  58 2.05  60 2.05  62 2.05  24 2.91  25 2.91
                            26 2.91  28 2.91  29 2.91  32 2.91   2 2.91   9 2.91  10 2.91  13 2.91
  28  0.750  0.750  0.000-  43 2.05  50 2.05  57 2.05  58 2.05  59 2.05  61 2.05  23 2.91  25 2.91
                            26 2.91  27 2.91  30 2.91  31 2.91   1 2.91   9 2.91  10 2.91  14 2.91
  29  0.500  0.500  0.500-  46 2.05  55 2.05  60 2.05  62 2.05  63 2.05  64 2.05  24 2.91  26 2.91
                            27 2.91  30 2.91  31 2.91  32 2.91   8 2.91  11 2.91  15 2.91  16 2.91
  30  0.500  0.750  0.750-  45 2.05  56 2.05  59 2.05  61 2.05  63 2.05  64 2.05  23 2.91  25 2.91
                            28 2.91  29 2.91  31 2.91  32 2.91   7 2.91  12 2.91  15 2.91  16 2.91
  31  0.750  0.500  0.750-  48 2.05  53 2.05  58 2.05  61 2.05  62 2.05  64 2.05  24 2.91  25 2.91
                            28 2.91  29 2.91  30 2.91  32 2.91   6 2.91   9 2.91  13 2.91  14 2.91
  32  0.750  0.750  0.500-  47 2.05  54 2.05  57 2.05  61 2.05  62 2.05  63 2.05  23 2.91  26 2.91
                            27 2.91  29 2.91  30 2.91  31 2.91   5 2.91  10 2.91  13 2.91  14 2.91
  33  0.250  0.250  0.250-   2 2.05   3 2.05   4 2.05   8 2.05  11 2.05  18 2.05
  34  0.250  0.000  0.000-   1 2.05   3 2.05   4 2.05   7 2.05  12 2.05  17 2.05
  35  0.000  0.250  0.000-   1 2.05   2 2.05   4 2.05   6 2.05   9 2.05  20 2.05
  36  0.000  0.000  0.250-   1 2.05   2 2.05   3 2.05   5 2.05  10 2.05  19 2.05
  37  0.250  0.250  0.750-   4 2.05   6 2.05   7 2.05   8 2.05  15 2.05  22 2.05
  38  0.250  0.000  0.500-   3 2.05   5 2.05   7 2.05   8 2.05  16 2.05  21 2.05
  39  0.000  0.250  0.500-   2 2.05   5 2.05   6 2.05   8 2.05  13 2.05  24 2.05
  40  0.000  0.000  0.750-   1 2.05   5 2.05   6 2.05   7 2.05  14 2.05  23 2.05
  41  0.250  0.750  0.250-   3 2.05  10 2.05  11 2.05  12 2.05  16 2.05  26 2.05
  42  0.250  0.500  0.000-   4 2.05   9 2.05  11 2.05  12 2.05  15 2.05  25 2.05
  43  0.000  0.750  0.000-   1 2.05   9 2.05  10 2.05  12 2.05  14 2.05  28 2.05
  44  0.000  0.500  0.250-   2 2.05   9 2.05  10 2.05  11 2.05  13 2.05  27 2.05
  45  0.250  0.750  0.750-   7 2.05  12 2.05  14 2.05  15 2.05  16 2.05  30 2.05
  46  0.250  0.500  0.500-   8 2.05  11 2.05  13 2.05  15 2.05  16 2.05  29 2.05
  47  0.000  0.750  0.500-   5 2.05  10 2.05  13 2.05  14 2.05  16 2.05  32 2.05
  48  0.000  0.500  0.750-   6 2.05   9 2.05  13 2.05  14 2.05  15 2.05  31 2.05
  49  0.750  0.250  0.250-   2 2.05  18 2.05  19 2.05  20 2.05  24 2.05  27 2.05
  50  0.750  0.000  0.000-   1 2.05  17 2.05  19 2.05  20 2.05  23 2.05  28 2.05
  51  0.500  0.250  0.000-   4 2.05  17 2.05  18 2.05  20 2.05  22 2.05  25 2.05
  52  0.500  0.000  0.250-   3 2.05  17 2.05  18 2.05  19 2.05  21 2.05  26 2.05
  53  0.750  0.250  0.750-   6 2.05  20 2.05  22 2.05  23 2.05  24 2.05  31 2.05
  54  0.750  0.000  0.500-   5 2.05  19 2.05  21 2.05  23 2.05  24 2.05  32 2.05
  55  0.500  0.250  0.500-   8 2.05  18 2.05  21 2.05  22 2.05  24 2.05  29 2.05
  56  0.500  0.000  0.750-   7 2.05  17 2.05  21 2.05  22 2.05  23 2.05  30 2.05
  57  0.750  0.750  0.250-  10 2.05  19 2.05  26 2.05  27 2.05  28 2.05  32 2.05
  58  0.750  0.500  0.000-   9 2.05  20 2.05  25 2.05  27 2.05  28 2.05  31 2.05
  59  0.500  0.750  0.000-  12 2.05  17 2.05  25 2.05  26 2.05  28 2.05  30 2.05
  60  0.500  0.500  0.250-  11 2.05  18 2.05  25 2.05  26 2.05  27 2.05  29 2.05
  61  0.750  0.750  0.750-  14 2.05  23 2.05  28 2.05  30 2.05  31 2.05  32 2.05
  62  0.750  0.500  0.500-  13 2.05  24 2.05  27 2.05  29 2.05  31 2.05  32 2.05
  63  0.500  0.750  0.500-  16 2.05  21 2.05  26 2.05  29 2.05  30 2.05  32 2.05
  64  0.500  0.500  0.750-  15 2.05  22 2.05  25 2.05  29 2.05  30 2.05  31 2.05

  LATTYP: Found a simple cubic cell.
 ALAT       =     8.2198900000

  Lattice vectors:

 A1 = (   8.2198900000,   0.0000000000,   0.0000000000)
 A2 = (   0.0000000000,   8.2198900000,   0.0000000000)
[...]
   0.542E-12 0.401E-11 -.297E-11   0.180E-13 0.533E-13 -.301E-13   0.352E-23 0.708E-23 0.682E-23   0.485E-13 -.314E-12 0.936E-12
   0.112E-11 0.191E-11 -.857E-11   -.142E-12 0.712E-14 -.878E-14   0.321E-23 0.698E-24 0.000E+00   -.254E-12 0.604E-12 0.574E-12
   0.107E-11 -.156E-10 0.103E-10   -.142E-12 -.107E-12 -.213E-13   -.931E-24 -.114E-23 0.103E-23   0.723E-13 -.661E-12 -.148E-11
   0.635E-12 0.209E-11 0.735E-11   -.566E-13 -.567E-13 -.568E-13   -.103E-23 -.414E-24 -.455E-23   0.222E-12 0.315E-12 0.105E-11
   0.597E-12 0.877E-11 0.446E-11   -.500E-13 0.000E+00 0.298E-16   0.827E-24 0.000E+00 -.269E-23   0.567E-12 -.268E-12 -.791E-12
   0.114E-11 0.155E-10 -.189E-10   -.199E-12 -.660E-16 0.714E-14   -.476E-23 0.290E-23 -.153E-23   -.134E-12 0.282E-12 -.358E-12
   0.110E-11 -.124E-10 0.879E-11   -.139E-12 0.711E-14 0.249E-13   -.517E-24 0.394E-23 -.155E-23   -.231E-12 -.105E-12 0.138E-11
   0.948E-14 -.326E-12 0.133E-11   -.266E-13 -.142E-13 0.356E-13   -.724E-24 0.114E-23 -.114E-23   0.227E-12 0.219E-12 0.300E-12
   0.466E-13 0.119E-13 -.702E-12   -.533E-13 -.165E-13 0.142E-13   -.110E-23 0.956E-24 -.258E-25   -.829E-13 0.149E-13 -.633E-12
   0.412E-13 0.930E-13 -.981E-13   0.445E-14 -.178E-13 0.178E-13   -.698E-24 0.427E-24 0.121E-23   0.975E-13 0.224E-12 -.898E-12
   0.156E-12 -.235E-13 0.112E-12   -.252E-13 -.123E-13 0.443E-13   -.207E-24 0.775E-24 -.186E-23   0.830E-13 -.229E-12 0.391E-12
   0.369E-13 0.544E-12 0.180E-11   -.213E-13 -.711E-14 0.480E-13   0.517E-25 -.271E-24 -.982E-24   0.333E-13 0.119E-12 -.311E-12
   0.660E-13 -.895E-13 -.208E-11   -.497E-13 -.357E-13 0.124E-13   0.284E-24 0.853E-24 0.775E-24   0.171E-12 -.916E-13 0.507E-12
   -.453E-13 0.175E-12 0.273E-12   -.226E-13 0.195E-13 0.107E-13   0.142E-24 0.630E-24 -.388E-24   -.920E-14 0.175E-12 0.747E-12
   0.169E-13 -.377E-13 0.406E-12   -.813E-13 -.357E-13 0.195E-13   0.672E-24 0.788E-24 0.969E-24   -.290E-12 -.127E-12 -.328E-12
   0.186E-13 0.741E-12 0.145E-11   -.888E-14 -.160E-13 0.143E-13   0.569E-24 -.103E-23 0.414E-24   0.935E-13 -.165E-12 0.421E-12
   -.176E-13 0.190E-12 -.240E-11   -.355E-13 -.284E-13 0.142E-13   0.711E-24 0.258E-24 0.142E-23   0.154E-12 0.954E-14 -.526E-12
   0.488E-13 0.318E-12 -.130E-12   -.951E-13 0.178E-14 0.178E-14   -.111E-23 0.866E-24 0.165E-23   -.182E-12 -.130E-12 -.788E-12
   0.639E-13 0.226E-12 0.194E-12   -.932E-13 -.249E-13 0.358E-13   -.103E-24 -.827E-24 0.853E-24   0.604E-13 0.232E-12 0.325E-12
   -.284E-13 -.256E-12 0.157E-11   -.142E-13 -.213E-13 0.426E-13   0.620E-24 0.439E-24 -.417E-24   0.405E-14 -.292E-13 -.379E-12
   -.966E-13 0.305E-12 -.383E-12   0.000E+00 -.285E-13 0.711E-14   0.827E-24 0.129E-25 0.452E-25   0.157E-12 0.107E-12 0.397E-12
   0.533E-13 0.138E-12 0.257E-12   -.153E-13 -.711E-14 0.124E-13   0.145E-23 -.191E-23 -.129E-23   -.205E-12 -.794E-13 0.642E-12
   0.624E-13 0.203E-12 0.220E-12   -.101E-12 -.231E-13 0.142E-13   -.129E-24 0.258E-24 -.187E-24   -.425E-12 0.129E-12 -.289E-12
   0.398E-12 -.782E-12 -.251E-11   0.533E-14 0.195E-13 0.463E-13   0.827E-24 0.931E-24 -.153E-23   -.238E-12 0.272E-12 0.448E-12
   0.362E-12 0.162E-13 0.785E-11   -.249E-13 -.580E-14 0.178E-13   0.556E-24 -.310E-24 0.646E-24   0.778E-13 -.266E-12 -.109E-11
   0.184E-12 -.619E-11 -.134E-11   -.285E-13 0.213E-13 0.284E-13   0.633E-24 -.465E-24 -.207E-24   -.109E-12 0.422E-12 -.651E-12
   0.711E-13 -.284E-13 -.700E-11   -.515E-13 -.779E-14 0.571E-13   0.620E-24 -.685E-24 0.595E-24   -.960E-13 -.608E-13 0.595E-12
   0.371E-12 -.444E-11 -.844E-11   0.711E-14 0.000E+00 0.533E-13   -.491E-24 -.569E-24 0.775E-25   -.442E-13 0.256E-12 -.358E-12
   0.343E-12 0.914E-14 0.897E-11   -.515E-13 -.199E-15 0.178E-13   0.109E-23 0.182E-23 0.127E-23   -.177E-12 -.301E-12 0.862E-12
   0.269E-12 -.105E-11 0.288E-11   -.569E-13 0.284E-13 0.142E-13   0.931E-24 -.672E-24 -.310E-24   -.349E-14 0.140E-12 0.567E-12
   0.211E-12 0.363E-13 0.225E-11   -.585E-13 -.269E-13 0.213E-13   0.931E-24 0.119E-23 0.173E-24   0.278E-12 -.990E-13 -.597E-12
   0.391E-12 -.639E-11 -.754E-11   -.373E-13 0.231E-13 0.285E-13   0.258E-24 -.233E-24 0.138E-23   -.112E-12 -.185E-12 0.470E-12
   0.424E-12 0.106E-10 0.915E-11   -.924E-13 -.230E-13 0.142E-13   0.517E-24 -.414E-24 0.258E-25   -.160E-12 0.289E-12 -.103E-11
   0.179E-12 0.388E-11 -.155E-11   -.159E-13 0.711E-14 0.142E-13   0.114E-23 0.698E-24 0.620E-24   0.172E-12 -.395E-12 -.688E-12
   0.164E-12 -.126E-11 -.199E-11   -.143E-13 0.142E-13 0.666E-14   0.103E-23 0.414E-24 0.956E-24   -.669E-13 0.136E-12 0.318E-12
   0.438E-12 -.466E-11 -.613E-11   -.142E-13 0.142E-13 0.497E-13   -.137E-23 0.827E-24 0.103E-24   -.226E-13 -.179E-12 -.406E-12
   0.504E-12 0.406E-11 0.240E-11   -.711E-13 0.705E-14 0.711E-14   -.517E-24 -.258E-24 -.465E-24   -.163E-12 0.309E-12 0.870E-12
   0.174E-12 0.125E-11 0.514E-11   -.141E-13 0.711E-14 0.142E-13   0.827E-24 -.423E-24 -.517E-24   0.193E-12 -.752E-13 0.588E-12
   0.165E-12 0.125E-11 -.405E-12   -.143E-13 -.142E-13 0.426E-13   0.258E-24 0.129E-23 0.439E-24   0.420E-12 0.116E-12 -.314E-12
   0.203E-10 -.116E-10 -.101E-10   -.738E-13 0.196E-12 -.965E-13   0.450E-22 0.166E-22 0.695E-23   -.356E-12 0.135E-11 0.976E-13

 POSITION                                       TOTAL-FORCE (eV/Angst)
      0.00000      0.00000      0.00000         0.000000      0.000000      0.000000
      0.00000      2.05497      2.05497        -0.000000      0.000000     -0.000000
      2.05497      0.00000      2.05497        -0.000000      0.000000     -0.000000
      2.05497      2.05497      0.00000        -0.000000     -0.000000      0.000000
      0.00000      0.00000      4.10994        -0.000000      0.000000      0.000000
      0.00000      2.05497      6.16492        -0.000000     -0.000000      0.000000
      2.05497      0.00000      6.16492         0.000000     -0.000000      0.000000
      2.05497      2.05497      4.10994        -0.000000     -0.000000      0.000000
      0.00000      4.10994      0.00000        -0.000000     -0.000000     -0.000000
      0.00000      6.16492      2.05497         0.000000     -0.000000     -0.000000
      2.05497      4.10994      2.05497         0.000000      0.000000      0.000000
      2.05497      6.16492      0.00000         0.000000      0.000000     -0.000000
      0.00000      4.10994      4.10994         0.000000     -0.000000      0.000000
      0.00000      6.16492      6.16492         0.000000     -0.000000      0.000000
      2.05497      4.10994      6.16492        -0.000000     -0.000000      0.000000
      2.05497      6.16492      4.10994        -0.000000      0.000000     -0.000000
      4.10994      0.00000      0.00000        -0.000000     -0.000000     -0.000000
      4.10994      2.05497      2.05497         0.000000     -0.000000     -0.000000
      6.16492      0.00000      2.05497         0.000000      0.000000     -0.000000
      6.16492      2.05497      0.00000         0.000000     -0.000000     -0.000000
      4.10994      0.00000      4.10994        -0.000000     -0.000000     -0.000000
      4.10994      2.05497      6.16492        -0.000000     -0.000000     -0.000000
      6.16492      0.00000      6.16492        -0.000000      0.000000      0.000000
      6.16492      2.05497      4.10994         0.000000      0.000000     -0.000000
      4.10994      4.10994      0.00000         0.000000     -0.000000      0.000000
      4.10994      6.16492      2.05497         0.000000      0.000000     -0.000000
      6.16492      4.10994      2.05497        -0.000000     -0.000000      0.000000
      6.16492      6.16492      0.00000        -0.000000      0.000000     -0.000000
      4.10994      4.10994      4.10994        -0.000000      0.000000      0.000000
      4.10994      6.16492      6.16492         0.000000     -0.000000     -0.000000
      6.16492      4.10994      6.16492        -0.000000     -0.000000     -0.000000
      6.16492      6.16492      4.10994         0.000000     -0.000000      0.000000
      2.05497      2.05497      2.05497        -0.000000      0.000000      0.000000
      2.05497      0.00000      0.00000        -0.000000      0.000000     -0.000000
      0.00000      2.05497      0.00000         0.000000      0.000000     -0.000000
      0.00000      0.00000      2.05497        -0.000000      0.000000      0.000000
      2.05497      2.05497      6.16492        -0.000000      0.000000      0.000000
      2.05497      0.00000      4.10994        -0.000000      0.000000     -0.000000
      0.00000      2.05497      4.10994         0.000000      0.000000      0.000000
      0.00000      0.00000      6.16492         0.000000      0.000000      0.000000
      2.05497      6.16492      2.05497        -0.000000     -0.000000     -0.000000
      2.05497      4.10994      0.00000        -0.000000     -0.000000     -0.000000
      0.00000      6.16492      0.00000         0.000000     -0.000000     -0.000000
      0.00000      4.10994      2.05497        -0.000000      0.000000     -0.000000
      2.05497      6.16492      6.16492        -0.000000     -0.000000     -0.000000
      2.05497      4.10994      4.10994        -0.000000     -0.000000      0.000000
      0.00000      6.16492      4.10994         0.000000      0.000000     -0.000000
      0.00000      4.10994      6.16492         0.000000     -0.000000     -0.000000
      6.16492      2.05497      2.05497         0.000000      0.000000     -0.000000
      6.16492      0.00000      0.00000        -0.000000      0.000000      0.000000
      4.10994      2.05497      0.00000        -0.000000      0.000000     -0.000000
      4.10994      0.00000      2.05497        -0.000000     -0.000000     -0.000000
      6.16492      2.05497      6.16492         0.000000     -0.000000     -0.000000
      6.16492      0.00000      4.10994         0.000000      0.000000     -0.000000
      4.10994      2.05497      4.10994        -0.000000     -0.000000      0.000000
      4.10994      0.00000      6.16492         0.000000      0.000000      0.000000
      6.16492      6.16492      2.05497         0.000000      0.000000      0.000000
      6.16492      4.10994      0.00000         0.000000      0.000000     -0.000000
      4.10994      6.16492      0.00000        -0.000000      0.000000     -0.000000
      4.10994      4.10994      2.05497        -0.000000      0.000000     -0.000000
      6.16492      6.16492      6.16492        -0.000000      0.000000      0.000000
      6.16492      4.10994      4.10994        -0.000000      0.000000      0.000000
      4.10994      6.16492      4.10994         0.000000     -0.000000      0.000000
      4.10994      4.10994      6.16492        -0.000000      0.000000      0.000000
    total drift:                                0.000000     -0.000000     -0.000000

  FREE ENERGIE OF THE ION-ELECTRON SYSTEM (eV)
  free  energy   TOTEN  =      -395.7875290302 eV

  energy  without entropy=     -395.7410523938  energy(sigma->0) =     -395.76429071

volume of typ            1:    36.7 %

volume of typ            2:     9.4 %

total charge

# of ion       s       p       d       tot
    1        0.201   0.219   7.968   8.388
    2        0.201   0.219   7.968   8.388
    3        0.201   0.219   7.968   8.388
    4        0.201   0.219   7.968   8.388
    5        0.201   0.219   7.968   8.388
    6        0.201   0.219   7.968   8.388
    7        0.201   0.219   7.968   8.388
    8        0.201   0.219   7.968   8.388
    9        0.201   0.219   7.968   8.388
   10        0.201   0.219   7.968   8.388
   11        0.201   0.219   7.968   8.388
   12        0.201   0.219   7.968   8.388
   13        0.201   0.219   7.968   8.388
   14        0.201   0.219   7.968   8.388
   15        0.201   0.219   7.968   8.388
   16        0.201   0.219   7.968   8.388
   17        0.201   0.219   7.968   8.388
   18        0.201   0.219   7.968   8.388
   19        0.201   0.219   7.968   8.388
   20        0.201   0.219   7.968   8.388
   21        0.201   0.219   7.968   8.388
   22        0.201   0.219   7.968   8.388
   23        0.201   0.219   7.968   8.388
   24        0.201   0.219   7.968   8.388
   25        0.201   0.219   7.968   8.388
   26        0.201   0.219   7.968   8.388
   27        0.201   0.219   7.968   8.388
   28        0.201   0.219   7.968   8.388
   29        0.201   0.219   7.968   8.388
   30        0.201   0.219   7.968   8.388
   31        0.201   0.219   7.968   8.388
   32        0.201   0.219   7.968   8.388
   33        1.257   2.778   0.007   4.042
   34        1.257   2.778   0.007   4.042
   35        1.257   2.778   0.007   4.042
   36        1.257   2.778   0.007   4.042
   37        1.257   2.778   0.007   4.042
   38        1.257   2.778   0.007   4.042
   39        1.257   2.778   0.007   4.042
   40        1.257   2.778   0.007   4.042
   41        1.257   2.778   0.007   4.042
   42        1.257   2.778   0.007   4.042
   43        1.257   2.778   0.007   4.042
   44        1.257   2.778   0.007   4.042
   45        1.257   2.778   0.007   4.042
   46        1.257   2.778   0.007   4.042
   47        1.257   2.778   0.007   4.042
   48        1.257   2.778   0.007   4.042
   49        1.257   2.778   0.007   4.042
   50        1.257   2.778   0.007   4.042
   51        1.257   2.778   0.007   4.042
   52        1.257   2.778   0.007   4.042
   53        1.257   2.778   0.007   4.042
   54        1.257   2.778   0.007   4.042
   55        1.257   2.778   0.007   4.042
   56        1.257   2.778   0.007   4.042
   57        1.257   2.778   0.007   4.042
   58        1.257   2.778   0.007   4.042
   59        1.257   2.778   0.007   4.042
   60        1.257   2.778   0.007   4.042
   61        1.257   2.778   0.007   4.042
   62        1.257   2.778   0.007   4.042
   63        1.257   2.778   0.007   4.042
   64        1.257   2.778   0.007   4.042
tot          46.65   95.91  255.21  397.78

magnetization (x)

# of ion       s       p       d       tot
    1        0.008   0.008   0.981   0.996
    2        0.008   0.008   0.981   0.996
    3        0.008   0.008   0.981   0.996
    4        0.008   0.008   0.981   0.996
    5        0.008   0.008   0.981   0.996
    6        0.008   0.008   0.981   0.996
    7        0.008   0.008   0.981   0.996
    8        0.008   0.008   0.981   0.996
    9        0.008   0.008   0.981   0.996
   10        0.008   0.008   0.981   0.996
   11        0.008   0.008   0.981   0.996
   12        0.008   0.008   0.981   0.996
   13        0.008   0.008   0.981   0.996
   14        0.008   0.008   0.981   0.996
   15        0.008   0.008   0.981   0.996
   16        0.008   0.008   0.981   0.996
   17        0.008   0.008   0.981   0.996
   18        0.008   0.008   0.981   0.996
   19        0.008   0.008   0.981   0.996
   20        0.008   0.008   0.981   0.996
   21        0.008   0.008   0.981   0.996
   22        0.008   0.008   0.981   0.996
   23        0.008   0.008   0.981   0.996
   24        0.008   0.008   0.981   0.996
   25        0.008   0.008   0.981   0.996
   26        0.008   0.008   0.981   0.996
   27        0.008   0.008   0.981   0.996
   28        0.008   0.008   0.981   0.996
   29        0.008   0.008   0.981   0.996
   30        0.008   0.008   0.981   0.996
   31        0.008   0.008   0.981   0.996
   32        0.008   0.008   0.981   0.996
   33        0.023   0.133   0.001   0.157
   34        0.023   0.133   0.001   0.157
   35        0.023   0.133   0.001   0.157
   36        0.023   0.133   0.001   0.157
   37        0.023   0.133   0.001   0.157
   38        0.023   0.133   0.001   0.157
   39        0.023   0.133   0.001   0.157
   40        0.023   0.133   0.001   0.157
   41        0.023   0.133   0.001   0.157
   42        0.023   0.133   0.001   0.157
   43        0.023   0.133   0.001   0.157
   44        0.023   0.133   0.001   0.157
   45        0.023   0.133   0.001   0.157
   46        0.023   0.133   0.001   0.157
   47        0.023   0.133   0.001   0.157
   48        0.023   0.133   0.001   0.157
   49        0.023   0.133   0.001   0.157
   50        0.023   0.133   0.001   0.157
   51        0.023   0.133   0.001   0.157
   52        0.023   0.133   0.001   0.157
   53        0.023   0.133   0.001   0.157
   54        0.023   0.133   0.001   0.157
   55        0.023   0.133   0.001   0.157
   56        0.023   0.133   0.001   0.157
   57        0.023   0.133   0.001   0.157
   58        0.023   0.133   0.001   0.157
   59        0.023   0.133   0.001   0.157
   60        0.023   0.133   0.001   0.157
   61        0.023   0.133   0.001   0.157
   62        0.023   0.133   0.001   0.157
   63        0.023   0.133   0.001   0.157
   64        0.023   0.133   0.001   0.157
tot           0.97    4.52   31.41   36.90