 vasp.5.4.4.18Apr17-6-g9f103f2a35 (build May 12 2020 04:58:55) complex

 MD_VERSION_INFO: Compiled 2020-05-12T11:58:55-UTC in devlin.sd.materialsdesign.
 com:/home/medea2/data/build/wwolf/vasp-gpu5.4.4/13047/x86_64/src/src/build/std
 from svn 13047

 executed on                        Lin64 date 2023.03.23  23:58:36

 INCAR:
 POTCAR:    PAW_PBE Ni 02Aug2007
 POTCAR:    PAW_PBE O 08Apr2002

 POTCAR:    PAW_PBE Ni 02Aug2007

 POTCAR:    PAW_PBE O 08Apr2002

 Optimization of the real space projectors (new method)

 maximal supplied QI-value         = 16.25
 optimisation between [QCUT,QGAM] = [ 11.38, 22.75] = [ 36.24,144.96] Ry
 Optimized for a Real-space Cutoff    1.47 Angstroem

   l    n(q)    QCUT    max X(q) W(low)/X(q) W(high)/X(q)  e(spline)
   2      9    11.376    60.317    0.17E-03    0.16E-04    0.16E-06
   2      9    11.376    55.921    0.17E-03    0.16E-04    0.17E-06
   0     10    11.376    51.690    0.45E-04    0.60E-04    0.21E-06
   0     10    11.376    30.015    0.37E-04    0.55E-04    0.19E-06
   1     10    11.376    18.849    0.83E-04    0.11E-03    0.92E-07
   1     10    11.376    14.624    0.69E-04    0.92E-04    0.82E-07
 Optimization of the real space projectors (new method)

 maximal supplied QI-value         = 24.76
 optimisation between [QCUT,QGAM] = [ 11.39, 22.77] = [ 36.31,145.25] Ry
 Optimized for a Real-space Cutoff    1.10 Angstroem

   l    n(q)    QCUT    max X(q) W(low)/X(q) W(high)/X(q)  e(spline)
   0      7    11.387    20.381    0.22E-03    0.48E-03    0.18E-06
   0      7    11.387    15.268    0.22E-03    0.52E-03    0.19E-06
   1      7    11.387     5.964    0.22E-03    0.73E-03    0.24E-06
   1      7    11.387     5.382    0.19E-03    0.60E-03    0.21E-06

  PAW_PBE Ni 02Aug2007                  :
  PAW_PBE O 08Apr2002                   :

 POSCAR: NiO_Cmmm_scale_1_050_disp_0_20_round_1
  positions in direct lattice
 exchange correlation table for  LEXCH =       14
   RHO(1)=    0.500       N(1)  =     2000
   RHO(2)=  100.500       N(2)  =     4000

 ion  position               nearest neighbor table
   1  0.954  0.990  0.986-  28 2.05  30 2.12  19 2.89  13 2.90  10 2.92
   2  0.040  0.029  0.303-  28 1.55  29 1.66  14 2.67
   3  0.983  0.996  0.644-  30 1.66  29 2.07   6 3.02  15 3.03
   4  0.969  0.350  0.021-  31 1.56   7 2.88   5 2.94  16 2.98
   5  0.951  0.331  0.292-  31 1.41  32 1.70  23 2.58   8 2.83   4 2.94
   6  0.935  0.297  0.655-  33 1.38  32 2.28  24 2.85  21 2.90   3 3.02
   7  0.978  0.667  0.014-  34 1.80  36 2.40   4 2.88
   8  0.932  0.626  0.326-  34 1.63  35 1.90  23 2.64   5 2.83  26 2.89
   9  0.926  0.630  0.613-  35 1.41  36 2.04  24 2.72  27 2.79
  10  0.290  0.045  0.034-  37 1.42  13 2.36   1 2.92  22 2.93  11 2.97
  11  0.361  0.987  0.290-  37 1.56  20 2.41  17 2.93  10 2.97  23 3.02
  12  0.335  0.016  0.670-  39 1.38  38 1.63  15 2.76  21 2.86  24 2.87
  13  0.279  0.293  0.999-  40 1.74  42 2.34  10 2.36   1 2.90  25 2.96  22 3.00  16 3.05
  14  0.330  0.316  0.323-  41 1.80  40 1.89   2 2.67  26 2.70
  15  0.323  0.310  0.672-  42 1.39  41 2.06  27 2.46  12 2.76  18 2.87  24 2.87   3 3.03
  16  0.318  0.641  0.022-  43 1.88  25 2.93   4 2.98  13 3.05  19 3.07
  17  0.309  0.650  0.331-  43 1.55  44 1.82  11 2.93  20 2.93  26 3.01  18 3.02
  18  0.328  0.614  0.606-  44 1.33  45 1.95  27 2.79  15 2.87  17 3.02
  19  0.640  0.985  0.014-  46 1.59  48 2.04   1 2.89  16 3.07
  20  0.615  0.980  0.328-  46 1.84  47 2.09  11 2.41  17 2.93  23 3.06
  21  0.624  0.977  0.664-  47 1.64  48 1.80  12 2.86   6 2.90
  22  0.623  0.334  0.985-  51 2.00  49 2.13  25 2.50  10 2.93  13 3.00
  23  0.671  0.330  0.274-  49 1.05  50 2.23   5 2.58   8 2.64  26 2.93  11 3.02  20 3.06
  24  0.643  0.328  0.646-  51 1.71  50 1.82  27 2.41   9 2.72   6 2.85  12 2.87  15 2.87
  25  0.613  0.600  0.003-  52 1.48  22 2.50  16 2.93  13 2.96
  26  0.615  0.614  0.301-  52 1.76  53 2.11  14 2.70   8 2.89  23 2.93  17 3.01
  27  0.599  0.565  0.650-  54 1.50  53 1.85  24 2.41  15 2.46  18 2.79   9 2.79
  28  0.962  0.964  0.174-   2 1.55   1 2.05
  29  0.016  0.001  0.454-   2 1.66   3 2.07
  30  0.997  0.979  0.795-   3 1.66   1 2.12
  31  0.946  0.319  0.163-   5 1.41   4 1.56
  32  0.977  0.325  0.447-   5 1.70   6 2.28
  33  0.946  0.286  0.781-   6 1.38
  34  0.969  0.668  0.180-   8 1.63   7 1.80
  35  0.902  0.559  0.494-   9 1.41   8 1.90
  36  0.959  0.611  0.797-   9 2.04   7 2.40
  37  0.314  0.009  0.157-  10 1.42  11 1.56
  38  0.305  0.036  0.524-  12 1.63
  39  0.348  0.023  0.797-  12 1.38
  40  0.262  0.308  0.157-  13 1.74  14 1.89
  41  0.335  0.356  0.485-  14 1.80  15 2.06
  42  0.273  0.338  0.786-  15 1.39  13 2.34
  43  0.337  0.624  0.194-  17 1.55  16 1.88
  44  0.342  0.682  0.496-  18 1.33  17 1.82
  45  0.333  0.610  0.786-  18 1.95
  46  0.633  0.000  0.159-  19 1.59  20 1.84
  47  0.639  0.031  0.518-  21 1.64  20 2.09
  48  0.605  0.984  0.828-  21 1.80  19 2.04
  49  0.668  0.342  0.178-  23 1.05  22 2.13
  50  0.646  0.337  0.479-  24 1.82  23 2.23
  51  0.616  0.342  0.801-  24 1.71  22 2.00
  52  0.619  0.603  0.139-  25 1.48  26 1.76
  53  0.669  0.645  0.492-  27 1.85  26 2.11
  54  0.659  0.672  0.763-  27 1.50

  LATTYP: Found a hexagonal cell.
 ALAT       =     9.2132460023
 C/A-ratio  =     1.1769065427

  Lattice vectors:

 A1 = (   9.2132460000,   0.0000000000,   0.0000000000)
 A2 = (  -4.6066230000,   7.9789050900,   0.0000000000)
 A3 = (   0.0000000000,   0.0000000000,  10.8431295000)

Analysis of symmetry for initial positions (statically):
 Subroutine PRICEL returns:
 Original cell was already a primitive cell.

 Routine SETGRP: Setting up the symmetry group for a
 hexagonal supercell.

 Subroutine GETGRP returns: Found  1 space group operations
 (whereof  1 operations were pure point group operations)
 out of a pool of 24 trial point group operations.

The static configuration has the point symmetry C_1 .

Analysis of symmetry for dynamics (positions and initial velocities):
 Subroutine PRICEL returns:
 Original cell was already a primitive cell.

[...]

The dynamic configuration has the point symmetry C_1 .

Analysis of structural, dynamic, and magnetic symmetry:
 Subroutine PRICEL returns:
 Original cell was already a primitive cell.

 Routine SETGRP: Setting up the symmetry group for a
 hexagonal supercell.

 Subroutine GETGRP returns: Found  1 space group operations
 (whereof  1 operations were pure point group operations)
 out of a pool of 24 trial point group operations.

The magnetic configuration has the point symmetry C_1 .

 Subroutine INISYM returns: Found  1 space group operations
 (whereof  1 operations are pure point group operations),
 and found     1 'primitive' translations

 KPOINTS: Automatic mesh

Automatic generation of k-mesh.
Space group operators:
 irot       det(A)        alpha          n_x          n_y          n_z        tau_x        tau_y        tau_z
    1     1.000000     0.000000     1.000000     0.000000     0.000000     0.000000     0.000000     0.000000

 Subroutine IBZKPT returns following result:

 Found     26 irreducible k-points:

 Following reciprocal coordinates:
            Coordinates               Weight
  0.000000  0.000000  0.000000      1.000000
  0.250000 -0.000000  0.000000      2.000000
  0.500000 -0.000000  0.000000      1.000000
  0.000000  0.250000  0.000000      2.000000
  0.250000  0.250000  0.000000      2.000000
  0.500000  0.250000  0.000000      2.000000
 -0.250000  0.250000  0.000000      2.000000
  0.000000  0.500000  0.000000      1.000000
  0.250000  0.500000  0.000000      2.000000
  0.500000  0.500000  0.000000      1.000000
  0.000000  0.000000  0.333333      2.000000
  0.250000 -0.000000  0.333333      2.000000
  0.500000 -0.000000  0.333333      2.000000
 -0.250000  0.000000  0.333333      2.000000
  0.000000  0.250000  0.333333      2.000000
  0.250000  0.250000  0.333333      2.000000
  0.500000  0.250000  0.333333      2.000000
 -0.250000  0.250000  0.333333      2.000000
  0.000000  0.500000  0.333333      2.000000
  0.250000  0.500000  0.333333      2.000000
  0.500000  0.500000  0.333333      2.000000
 -0.250000  0.500000  0.333333      2.000000
  0.000000 -0.250000  0.333333      2.000000
  0.250000 -0.250000  0.333333      2.000000
  0.500000 -0.250000  0.333333      2.000000
 -0.250000 -0.250000  0.333333      2.000000

 Following cartesian coordinates:
            Coordinates               Weight
  0.000000  0.000000  0.000000      1.000000
  0.027135  0.015666  0.000000      2.000000
  0.054270  0.031333  0.000000      1.000000
  0.000000  0.031333  0.000000      2.000000
  0.027135  0.046999  0.000000      2.000000
  0.054270  0.062665  0.000000      2.000000
 -0.027135  0.015666  0.000000      2.000000
  0.000000  0.062665  0.000000      1.000000
  0.027135  0.078332  0.000000      2.000000
  0.054270  0.093998  0.000000      1.000000
  0.000000  0.000000  0.030741      2.000000
  0.027135  0.015666  0.030741      2.000000
  0.054270  0.031333  0.030741      2.000000
 -0.027135 -0.015666  0.030741      2.000000
  0.000000  0.031333  0.030741      2.000000
  0.027135  0.046999  0.030741      2.000000
  0.054270  0.062665  0.030741      2.000000
 -0.027135  0.015666  0.030741      2.000000
  0.000000  0.062665  0.030741      2.000000
  0.027135  0.078332  0.030741      2.000000
  0.054270  0.093998  0.030741      2.000000
 -0.027135  0.046999  0.030741      2.000000
  0.000000 -0.031333  0.030741      2.000000
  0.027135 -0.015666  0.030741      2.000000
  0.054270  0.000000  0.030741      2.000000
 -0.027135 -0.046999  0.030741      2.000000

 SYSTEM =  unknown system
 POSCAR =  NiO_Cmmm_scale_1_050_disp_0_20_round_1

 Startparameter for this run:
   NWRITE =      1    write-flag & timer
   PREC   = accura    normal or accurate (medium, high low for compatibility)
   ISTART =      0    job   : 0-new  1-cont  2-samecut
   ICHARG =      2    charge: 1-file 2-atom 10-const
   ISPIN  =      2    spin polarized calculation?
   LNONCOLLINEAR =      F non collinear calculations
   LSORBIT =      F    spin-orbit coupling
   INIWAV =      1    electr: 0-lowe 1-rand  2-diag
   LASPH  =      F    aspherical Exc in radial PAW
   METAGGA=      F    non-selfconsistent MetaGGA calc.

 Electronic Relaxation 1
   ENCUT  =  500.0 eV  36.75 Ry    6.06 a.u.  16.80 16.80 19.77*2*pi/ulx,y,z
   ENINI  =  500.0     initial cutoff
   ENAUG  =  605.4 eV  augmentation charge cutoff
   NELM   =     80;   NELMIN=  2; NELMDL= -5     # of ELM steps
   EDIFF  = 0.1E-04   stopping-criterion for ELM
   LREAL  =      T    real-space projection
   NLSPLINE    = F    spline interpolate recip. space projectors
   LCOMPAT=      F    compatible to vasp.4.4
   GGA_COMPAT  = T    GGA compatible to vasp.4.4-vasp.4.6
   LMAXPAW     = -100 max onsite density
   LMAXMIX     =    2 max onsite mixed and CHGCAR
   VOSKOWN=      1    Vosko Wilk Nusair interpolation
   ROPT   =   -0.00025  -0.00025
 Ionic relaxation
   EDIFFG = 0.1E-03   stopping-criterion for IOM
   NSW    =      0    number of steps for IOM
   NBLOCK =      1;   KBLOCK =      1    inner block; outer block
   IBRION =     -1    ionic relax: 0-MD 1-quasi-New 2-CG
[...]
   0.818E+02 0.721E+02 0.831E+02   -.806E+02 -.718E+02 -.809E+02   -.752E+00 -.234E+00 -.449E+01   0.341E-01 0.288E-01 0.260E-01
   -.515E+02 -.475E+02 0.448E+03   0.514E+02 0.483E+02 -.449E+03   0.363E+00 -.182E+00 -.465E+01   0.688E-01 0.104E+00 -.537E-01
   -.146E+03 0.421E+02 -.194E+03   0.147E+03 -.407E+02 0.217E+03   -.141E+00 -.556E+00 -.629E+01   0.465E-02 -.213E-01 -.137E-01
   -.715E+02 -.374E+02 0.180E+03   0.696E+02 0.376E+02 -.196E+03   0.469E-01 0.668E+00 -.404E+01   0.149E-01 0.113E-01 0.369E-01
   -.104E+03 -.110E+03 0.321E+03   0.103E+03 0.109E+03 -.317E+03   0.145E+00 0.925E+00 -.393E+01   0.620E-01 0.187E-02 -.315E-01
   -.902E+02 -.254E+03 -.135E+03   0.900E+02 0.252E+03 0.135E+03   -.167E-01 0.255E+00 0.262E+01   0.190E-02 0.211E-01 -.362E-01
   -.184E+03 -.360E+03 -.325E+03   0.184E+03 0.365E+03 0.343E+03   -.672E+00 0.485E+00 -.131E+00   0.332E-01 0.751E-02 0.482E-01
   0.210E+01 0.180E+03 0.439E+03   -.657E+01 -.176E+03 -.452E+03   0.698E+00 -.174E+01 -.189E+01   0.641E-02 0.319E-01 -.481E-01
   0.368E+02 0.150E+03 -.277E+03   -.344E+02 -.150E+03 0.280E+03   -.128E+01 -.820E-01 0.237E+01   0.321E-01 0.219E-02 -.551E-01
   0.232E+02 0.308E+03 0.495E+02   -.245E+02 -.308E+03 -.710E+02   -.393E+00 0.860E+00 0.373E+01   -.692E-02 0.555E-02 0.788E-01
   0.106E+03 -.396E+02 0.267E+03   -.106E+03 0.389E+02 -.262E+03   -.910E+00 0.119E+01 -.491E+01   0.310E-01 0.715E-01 -.245E-02
   0.198E+02 0.663E+02 -.290E+02   -.214E+02 -.653E+02 0.312E+02   0.498E+00 -.701E+00 -.211E+01   -.483E-03 -.340E-01 -.847E-01
   0.588E+02 0.166E+03 0.127E+03   -.518E+02 -.168E+03 -.145E+03   0.883E-01 -.499E+00 -.955E+00   0.766E-02 -.333E-01 0.761E-01
   0.131E+03 -.132E+03 0.300E+03   -.129E+03 0.129E+03 -.294E+03   -.103E+01 0.148E+01 -.454E+01   -.362E-04 -.143E-01 -.197E-01
   0.151E+03 -.591E+02 -.114E+03   -.151E+03 0.619E+02 0.118E+03   0.166E-01 -.953E+00 0.232E+01   0.192E-01 0.507E-01 -.756E-01
   0.161E+03 0.160E+02 -.315E+03   -.157E+03 -.265E+02 0.345E+03   0.415E+00 -.752E+00 -.148E+01   -.307E-01 0.266E-03 0.521E-01
   -.332E+02 0.897E+02 0.278E+03   0.333E+02 -.900E+02 -.282E+03   -.337E+00 0.239E+00 -.172E+01   -.837E-01 -.806E-01 0.306E-01
   -.182E+03 0.106E+03 -.140E+03   0.180E+03 -.105E+03 0.138E+03   0.223E+01 0.455E-02 0.156E+01   -.140E-01 -.131E-01 -.174E-01
   -.109E+03 0.162E+03 -.119E+03   0.108E+03 -.160E+03 0.122E+03   0.331E+00 -.860E+00 0.672E-01   -.424E-01 0.429E-02 0.260E-03
   -.111E+03 0.748E+02 0.131E+03   0.109E+03 -.731E+02 -.137E+03   0.198E+01 -.133E+01 0.426E+01   -.803E-01 0.150E-01 -.401E-02
   0.163E+02 0.145E+03 -.489E+03   -.590E+01 -.159E+03 0.636E+03   0.353E+00 0.176E+01 -.529E+01   -.425E-01 -.446E-01 -.535E-01
   -.153E+03 0.137E+03 -.636E+02   0.153E+03 -.137E+03 0.616E+02   0.246E-01 0.133E+00 0.255E+00   -.202E-01 -.450E-01 0.349E-01
   0.372E+02 -.207E+03 0.404E+03   -.371E+02 0.205E+03 -.408E+03   -.252E+00 0.148E+01 -.515E+01   -.857E-01 -.774E-01 -.615E-02
   0.439E+02 -.236E+03 -.109E+03   -.428E+02 0.234E+03 0.110E+03   -.327E+00 0.135E+01 0.346E+00   -.245E-01 0.710E-02 -.907E-01
   0.575E+02 -.118E+03 -.388E+01   -.576E+02 0.116E+03 -.421E+01   -.325E-01 -.193E+01 -.246E+00   -.272E-01 -.454E-01 0.639E-01
   0.112E+03 0.114E+03 0.141E+03   -.119E+03 -.125E+03 -.157E+03   0.512E+01 0.101E+02 0.928E+01   0.272E-01 0.137E-01 0.110E-01
   0.487E+02 0.693E+02 -.139E+03   -.478E+02 -.715E+02 0.151E+03   -.120E+01 0.250E+01 -.942E+01   0.722E-02 0.112E-01 -.255E-01
   -.195E+02 0.791E+02 -.142E+03   0.235E+02 -.817E+02 0.154E+03   -.490E+01 0.279E+01 -.105E+02   0.387E-01 0.157E-01 0.203E-01
   -.650E+02 0.740E+02 0.154E+03   0.653E+02 -.817E+02 -.170E+03   -.195E+00 0.643E+01 0.413E+01   0.229E-01 0.215E-01 -.881E-01
   -.997E+02 0.434E+02 -.181E+03   0.103E+03 -.439E+02 0.194E+03   -.388E+01 0.549E+00 -.123E+02   0.605E-02 -.189E-01 0.490E-01
   -.469E+02 -.115E+01 -.344E+03   0.524E+02 -.205E+01 0.389E+03   -.370E+01 0.232E+01 -.269E+02   0.177E-01 0.250E-01 0.173E-01
   -.659E+02 -.128E+03 0.111E+03   0.668E+02 0.134E+03 -.118E+03   -.502E+00 -.543E+01 0.331E+01   0.215E-01 0.176E-01 -.873E-01
   -.142E+03 -.557E+01 0.106E+03   0.145E+03 -.154E+02 -.135E+03   -.220E+01 0.164E+02 0.127E+02   0.568E-02 -.170E-01 0.980E-02
   -.114E+03 -.822E+02 -.106E+03   0.117E+03 0.801E+02 0.110E+03   -.276E+01 0.317E+01 -.492E+01   0.244E-01 0.641E-02 0.552E-01
   -.130E+02 0.130E+03 -.281E+01   0.152E+02 -.136E+03 0.167E+02   0.508E+00 0.345E+01 -.435E+01   -.981E-02 0.600E-02 -.986E-01
   0.492E+02 0.107E+03 0.175E+03   -.554E+02 -.104E+03 -.196E+03   0.676E+01 -.396E+01 0.203E+02   0.133E-01 0.581E-03 0.475E-01
   -.131E+01 0.147E+03 -.354E+03   0.587E+01 -.146E+03 0.399E+03   -.351E+01 -.110E+01 -.266E+02   -.165E-01 0.589E-03 0.642E-02
   0.913E+02 -.109E+02 -.607E+01   -.996E+02 0.141E+02 0.118E+02   0.939E+01 -.338E+01 -.471E+01   0.141E-01 0.256E-01 -.124E+00
   0.861E+02 0.211E+02 -.416E+02   -.877E+02 -.187E+02 0.470E+02   0.199E+01 -.306E+01 -.553E+01   -.474E-03 -.201E-01 0.347E-01
   0.200E+03 -.230E+02 -.297E+03   -.221E+03 0.313E+02 0.334E+03   0.144E+02 -.614E+01 -.196E+02   0.180E-01 0.494E-02 0.633E-01
   -.358E+01 -.241E+02 0.160E+03   0.125E+02 0.184E+02 -.175E+03   -.898E+01 0.526E+01 0.864E+01   -.242E-01 0.202E-01 -.261E+00
   0.109E+03 -.197E+03 0.117E+03   -.115E+03 0.222E+03 -.155E+03   0.172E+01 -.143E+02 0.104E+02   -.746E-02 0.297E-01 0.149E-02
   0.125E+03 -.104E+03 -.165E+03   -.124E+03 0.104E+03 0.173E+03   -.139E+01 -.387E+00 -.101E+02   -.127E-01 -.611E-02 0.121E+00
   -.445E+02 0.479E+02 -.118E+02   0.440E+02 -.449E+02 0.221E+02   0.709E+00 -.343E+01 -.596E+01   -.410E-01 -.355E-01 0.864E-01
   -.492E+02 0.116E+02 0.999E+02   0.470E+02 -.281E+01 -.113E+03   0.268E+01 -.966E+01 0.102E+02   -.178E-01 -.273E-02 -.421E-01
   -.477E+00 0.569E+02 -.102E+03   -.380E+01 -.565E+02 0.107E+03   0.555E+01 -.878E+00 -.380E+01   -.505E-01 -.196E-01 -.328E-02
   0.448E+02 -.996E+01 0.513E+03   -.595E+02 0.274E+02 -.692E+03   0.280E+01 -.498E+01 0.375E+02   -.372E-01 -.130E-01 -.520E-01
   0.121E+02 0.944E+02 0.729E+02   -.133E+02 -.945E+02 -.812E+02   0.157E+01 -.668E+00 0.890E+01   -.387E-02 -.314E-01 -.873E-02
   -.473E+02 0.524E+01 -.174E+03   0.446E+02 -.405E+01 0.183E+03   0.327E+01 -.159E+01 -.706E+01   -.308E-01 -.151E-01 0.800E-01
   0.662E+01 -.117E+03 -.431E+02   -.565E+01 0.118E+03 0.619E+02   -.912E+00 -.470E+00 -.919E+01   -.413E-01 -.248E-01 -.112E+00
   0.144E+02 -.212E+03 0.590E+02   -.115E+02 0.218E+03 -.637E+02   -.374E+01 -.651E+01 0.369E+01   -.640E-02 0.905E-02 0.407E-03
   -.142E+02 -.264E+03 -.278E+03   0.155E+02 0.285E+03 0.303E+03   -.114E+01 -.165E+02 -.179E+02   -.159E-01 -.939E-02 0.761E-01
   -.173E+02 0.288E+02 0.853E+02   -.270E-12 0.171E-12 0.000E+00   0.175E+02 -.288E+02 -.848E+02   -.149E+00 -.283E-01 -.402E+00

 POSITION                                       TOTAL-FORCE (eV/Angst)
      4.22868      7.89619     10.68992         1.219177     -0.232221      0.128942
      0.22977      0.23389      3.28183         0.940913      0.968503      4.465612
      4.47139      7.94566      6.97805         0.479789      0.136137     -2.269642
      7.31583      2.79607      0.23295         0.282248      0.746345     -5.086053
      7.23699      2.64362      3.16805         0.129389      0.809976     17.438868
      7.24471      2.36960      7.10050        -1.813863      0.865564    -20.039325
      5.93665      5.31931      0.15159        -0.024497     -0.738925     -0.163896
      5.70414      4.99384      3.53280        -0.280861     -1.582679      2.711806
      5.62625      5.02862      6.64789        -0.888874      5.231829     17.506164
      2.45787      0.36264      0.36635        -3.765997      2.821596    -14.793912
     -1.22035      7.87630      3.14842         1.093468     -0.106339      5.155798
      3.01164      0.12748      7.26538        -1.695593      0.297007    -17.726996
      1.22254      2.33726     10.82707        -0.452290      0.581765     -0.068970
      1.59005      2.51899      3.49822        -1.072745      0.225343      0.036720
      1.55062      2.46956      7.28840         7.066102     -2.675336    -18.226024
     -0.01876      5.11400      0.24067         0.742423     -0.680656      0.811686
     -0.14552      5.18942      3.58399        -0.166260      1.889625      5.649509
      0.19316      4.89545      6.57057         4.674059    -11.261901     28.508573
      1.35872      7.85860      0.14925        -0.350926     -0.074237     -5.589847
      1.15226      7.81840      3.56067        -0.373542      0.858700      0.065682
      1.25042      7.79835      7.19724        -0.445789      0.738991      2.734989
      4.19820      2.66350     10.68095        -0.044478      0.330006     -0.851240
      4.66313      2.63200      2.97338        10.686172    -12.496905    142.200470
      4.40778      2.61908      7.00937        -0.338830      0.083803     -1.700061
      2.88763      4.78745      0.02808        -0.241461     -0.195000     -9.489094
      2.83195      4.90302      3.26819         0.726058     -0.475281      1.252368
      2.91102      4.50914      7.05220        -0.186233     -3.131996     -8.276007
      4.42180      7.69459      1.88222        -1.393618     -0.649323     -6.390026
      0.14450      0.01060      4.92709        -0.320357      0.307638      2.294441
      4.67337      7.80897      8.61936        -0.857035      0.151375      2.153114
      7.24405      2.54421      1.76634         0.184945     -1.330783    -12.327294
      7.50864      2.59070      4.84393        -0.533110      0.016189      0.546665
      7.39795      2.28335      8.46920         1.808021     -0.855391     18.803751
      5.84744      5.32970      1.94692         0.408382      0.605291     -3.526870
      5.73221      4.46267      5.35986         1.707334     -4.598345    -16.132649
      6.02395      4.87349      8.64223        -0.474739      1.045314     -0.540680
      2.84943      0.06962      1.69791         2.692423     -2.634853      9.396519
      2.64895      0.28534      5.68116         0.561958     -0.598975     -1.000466
      3.10562      0.18016      8.64175         1.039451      0.237110     18.741937
      0.99781      2.45978      1.70263         1.068769     -0.210966      0.900090
      1.45080      2.84088      5.26110         0.390962     -0.612079     -0.148417
      0.96381      2.69462      8.52640        -6.817912      2.101826     17.769149
      0.22682      4.98072      2.09871        -0.079056     -0.332208     -6.748309
      0.00409      5.44284      5.37646        -4.722263     10.590326    -26.935363
      0.26264      4.86613      8.51731        -0.620969      0.256351     -1.428424
      5.82922      0.00238      1.72536         0.150589     -0.473753      4.484084
      5.74623      0.24502      5.61219         0.475718     -0.885682     -2.864289
      1.03928      7.85005      8.98200         1.231276     -0.459338      1.067781
      4.57799      2.72918      1.93429       -11.983429     12.418972   -141.285269
      4.40140      2.68711      5.18939         0.387432     -0.815623      0.553159
      4.09657      2.72790      8.68330         0.493343     -0.424730      2.172316
      2.92003      4.81327      1.50868         0.015963      0.555105      9.581578
      3.19270      5.14503      5.33608        -0.880694     -0.450397     -0.940794
      2.97075      5.36410      8.27835         0.169056      4.113231      7.418144
    total drift:                                0.009418     -0.004689      0.006016

  FREE ENERGIE OF THE ION-ELECTRON SYSTEM (eV)
  free  energy   TOTEN  =      -248.7041555664 eV

  energy  without entropy=     -248.6357958101  energy(sigma->0) =     -248.66997569

volume of typ            1:    21.6 %

volume of typ            2:     5.5 %

total charge

# of ion       s       p       d       tot
    1        0.182   0.103   7.961   8.246
    2        0.349   0.392   7.899   8.639
    3        0.253   0.200   7.907   8.360
    4        0.279   0.208   8.038   8.524
    5        0.402   0.500   7.990   8.892
    6        0.381   0.358   8.023   8.762
    7        0.207   0.131   7.946   8.283
    8        0.261   0.249   7.979   8.490
    9        0.364   0.371   8.000   8.736
   10        0.358   0.331   8.069   8.758
   11        0.272   0.228   8.041   8.540
   12        0.451   0.580   7.942   8.972
   13        0.252   0.175   7.950   8.378
   14        0.240   0.198   7.906   8.344
   15        0.381   0.403   8.023   8.807
   16        0.180   0.095   8.005   8.280
   17        0.311   0.319   7.967   8.597
   18        0.415   0.473   8.040   8.928
   19        0.289   0.245   7.932   8.466
   20        0.215   0.149   7.962   8.326
   21        0.291   0.282   7.864   8.437
   22        0.192   0.117   7.975   8.284
   23        0.621   0.749   8.387   9.757
   24        0.288   0.274   7.879   8.440
   25        0.321   0.271   8.030   8.622
   26        0.208   0.160   7.973   8.342
   27        0.356   0.386   7.907   8.649
   28        1.279   2.747   0.011   4.038
   29        1.273   2.712   0.006   3.991
   30        1.277   2.694   0.007   3.978
   31        1.294   2.880   0.033   4.207
   32        1.278   2.691   0.005   3.973
   33        1.306   2.776   0.022   4.104
   34        1.270   2.753   0.011   4.033
   35        1.295   2.807   0.023   4.124
   36        1.288   2.605   0.001   3.894
   37        1.291   2.869   0.033   4.194
   38        1.293   2.682   0.007   3.982
   39        1.309   2.780   0.021   4.110
   40        1.275   2.703   0.007   3.985
   41        1.278   2.674   0.004   3.957
   42        1.304   2.779   0.023   4.105
   43        1.278   2.757   0.013   4.049
   44        1.293   2.887   0.031   4.210
   45        1.293   2.608   0.002   3.903
   46        1.269   2.762   0.011   4.042
   47        1.275   2.714   0.007   3.997
   48        1.270   2.688   0.004   3.962
   49        1.343   3.014   0.067   4.424
   50        1.286   2.652   0.003   3.941
   51        1.275   2.701   0.006   3.982
   52        1.278   2.802   0.019   4.099
   53        1.281   2.660   0.003   3.945
   54        1.299   2.723   0.014   4.036
tot          43.07   82.07  215.99  341.12

magnetization (x)

# of ion       s       p       d       tot
    1       -0.000  -0.001   0.803   0.802
    2       -0.021  -0.004  -0.911  -0.936
    3        0.021   0.005   1.162   1.187
    4       -0.001  -0.002   0.251   0.248
    5       -0.006   0.006  -0.294  -0.294
    6        0.049   0.037   1.151   1.237
    7        0.002  -0.000   0.942   0.943
    8        0.010   0.010   0.463   0.482
    9        0.047   0.012   0.918   0.977
   10        0.007   0.009   0.549   0.565
   11        0.012   0.012   0.312   0.336
   12        0.039   0.003   0.559   0.601
   13        0.006   0.002   0.681   0.690
   14        0.015   0.001   0.847   0.862
   15        0.030   0.019   0.943   0.993
   16       -0.005  -0.004  -0.071  -0.080
   17       -0.008   0.003  -0.597  -0.602
   18        0.035   0.012   0.915   0.962
   19       -0.005  -0.006  -0.803  -0.814
   20       -0.005   0.001  -0.679  -0.683
   21        0.034  -0.002   1.223   1.255
   22       -0.001  -0.000   0.709   0.707
   23       -0.017  -0.049  -0.497  -0.563
   24        0.021  -0.005   1.156   1.172
   25        0.008   0.014   0.805   0.827
   26        0.008   0.006   0.636   0.650
   27        0.026   0.024   1.286   1.336
   28       -0.006  -0.219  -0.001  -0.225
   29       -0.006  -0.242  -0.000  -0.248
   30        0.013   0.487   0.000   0.500
   31       -0.001   0.004  -0.001   0.002
   32       -0.005  -0.204   0.000  -0.209
   33        0.011   0.582   0.002   0.595
   34        0.008   0.312  -0.000   0.319
   35        0.008   0.274   0.002   0.284
   36        0.013   0.543   0.000   0.556
   37        0.005   0.212  -0.000   0.217
   38        0.002   0.097   0.000   0.099
   39        0.004   0.224   0.001   0.230
   40        0.007   0.279   0.000   0.286
   41        0.011   0.433   0.000   0.445
   42        0.013   0.429   0.001   0.444
   43       -0.006  -0.236   0.000  -0.242
   44        0.005   0.228   0.003   0.236
   45        0.014   0.609   0.000   0.623
   46       -0.011  -0.342   0.000  -0.353
   47        0.009   0.359   0.000   0.368
   48        0.006   0.227   0.000   0.232
   49       -0.004  -0.232  -0.005  -0.242
   50        0.009   0.362   0.000   0.371
   51        0.012   0.412   0.000   0.425
   52        0.008   0.351   0.000   0.359
   53        0.014   0.478   0.000   0.492
   54        0.011   0.570   0.001   0.583
tot           0.45    6.10   12.46   19.01