 vasp.5.4.4.18Apr17-6-g9f103f2a35 (build May 12 2020 04:58:55) complex

 MD_VERSION_INFO: Compiled 2020-05-12T11:58:55-UTC in devlin.sd.materialsdesign.
 com:/home/medea2/data/build/wwolf/vasp-gpu5.4.4/13047/x86_64/src/src/build/std
 from svn 13047

 executed on                        Lin64 date 2023.03.24  02:48:55

 INCAR:
 POTCAR:    PAW_PBE Ni 02Aug2007
 POTCAR:    PAW_PBE O 08Apr2002

 POTCAR:    PAW_PBE Ni 02Aug2007

 POTCAR:    PAW_PBE O 08Apr2002

 Optimization of the real space projectors (new method)

 maximal supplied QI-value         = 16.25
 optimisation between [QCUT,QGAM] = [ 11.38, 22.75] = [ 36.24,144.96] Ry
 Optimized for a Real-space Cutoff    1.47 Angstroem

   l    n(q)    QCUT    max X(q) W(low)/X(q) W(high)/X(q)  e(spline)
   2      9    11.376    60.317    0.17E-03    0.16E-04    0.16E-06
   2      9    11.376    55.921    0.17E-03    0.16E-04    0.17E-06
   0     10    11.376    51.690    0.45E-04    0.60E-04    0.21E-06
   0     10    11.376    30.015    0.37E-04    0.55E-04    0.19E-06
   1     10    11.376    18.849    0.83E-04    0.11E-03    0.92E-07
   1     10    11.376    14.624    0.69E-04    0.92E-04    0.82E-07
 Optimization of the real space projectors (new method)

 maximal supplied QI-value         = 24.76
 optimisation between [QCUT,QGAM] = [ 11.39, 22.77] = [ 36.31,145.25] Ry
 Optimized for a Real-space Cutoff    1.10 Angstroem

   l    n(q)    QCUT    max X(q) W(low)/X(q) W(high)/X(q)  e(spline)
   0      7    11.387    20.381    0.22E-03    0.48E-03    0.18E-06
   0      7    11.387    15.268    0.22E-03    0.52E-03    0.19E-06
   1      7    11.387     5.964    0.22E-03    0.73E-03    0.24E-06
   1      7    11.387     5.382    0.19E-03    0.60E-03    0.21E-06

  PAW_PBE Ni 02Aug2007                  :
  PAW_PBE O 08Apr2002                   :

 POSCAR: NiO_Cmmm_scale_1_025_disp_0_20_round_1
  positions in direct lattice
 exchange correlation table for  LEXCH =       14
   RHO(1)=    0.500       N(1)  =     2000
   RHO(2)=  100.500       N(2)  =     4000

 ion  position               nearest neighbor table
   1  0.025  0.992  0.012-  28 1.60  30 2.19   7 2.53  10 2.86  13 2.91
   2  0.999  0.006  0.341-  29 1.66  28 1.90   5 2.74  11 2.84  14 2.99  26 3.01  20 3.05
   3  0.975  0.974  0.674-  30 1.43  29 1.95  12 2.78  21 2.91   9 2.95  15 3.06
   4  0.964  0.312  0.990-  31 1.76  33 1.78  19 2.80  22 2.88  13 3.05
   5  0.968  0.294  0.333-  32 1.62  31 1.91  20 2.72   2 2.74  14 3.06
   6  0.994  0.369  0.699-  33 1.34  32 2.47   9 2.63  15 3.07
   7  0.976  0.690  0.008-  34 1.42  36 2.06  25 2.50   1 2.53  22 3.01
   8  1.000  0.652  0.325-  35 1.88  34 1.96  11 2.87  17 3.01
   9  0.029  0.676  0.672-  36 1.58  35 1.90   6 2.63  12 2.67   3 2.95  18 3.01
  10  0.348  0.010  0.975-  37 1.98  39 2.06  19 2.74   1 2.86  22 2.90  16 3.08
  11  0.303  0.984  0.330-  38 1.62  37 1.91   2 2.84   8 2.87  23 3.05
  12  0.292  0.995  0.648-  39 1.45  38 1.79   9 2.67   3 2.78  24 2.88  15 2.88
  13  0.316  0.340  0.001-  40 1.95  42 1.99  16 2.84   1 2.91   4 3.05  25 3.08  22 3.09
  14  0.330  0.340  0.324-  40 1.55  41 1.80  17 2.69  23 2.79   2 2.99   5 3.06  26 3.08
  15  0.308  0.321  0.674-  42 1.57  41 1.93  24 2.72  27 2.85  12 2.88   3 3.06   6 3.07  18 3.07

  16  0.336  0.665  0.020-  43 1.59  45 2.20  13 2.84  19 2.95  17 3.02  10 3.08
  17  0.325  0.636  0.304-  43 1.44  44 2.09  14 2.69  26 2.79   8 3.01  16 3.02
  18  0.369  0.689  0.665-  45 1.56  44 1.90  27 2.78  21 2.96   9 3.01  15 3.07
  19  0.648  0.006  0.009-  48 1.73  46 1.75  10 2.74   4 2.80  16 2.95  22 2.97
  20  0.660  0.002  0.304-  46 1.55  47 2.11   5 2.72  26 2.80   2 3.05
  21  0.685  0.021  0.616-  47 1.23  48 2.47   3 2.91  18 2.96
  22  0.659  0.341  0.002-  49 1.76  51 1.89  25 2.69   4 2.88  10 2.90  19 2.97   7 3.01  13 3.09

  23  0.629  0.328  0.370-  50 1.50  49 2.15  14 2.79  11 3.05
  24  0.608  0.317  0.669-  51 1.70  50 1.95  27 2.61  15 2.72  12 2.88
  25  0.682  0.650  0.979-  52 1.96  54 1.96   7 2.50  22 2.69  13 3.08
  26  0.658  0.690  0.290-  52 1.39  53 2.35  17 2.79  20 2.80   2 3.01  14 3.08
  27  0.638  0.622  0.658-  53 1.62  54 1.75  24 2.61  18 2.78  15 2.85
  28  0.012  0.006  0.162-   1 1.60   2 1.90
  29  0.034  0.014  0.495-   2 1.66   3 1.95
  30  0.985  0.993  0.808-   3 1.43   1 2.19
  31  0.988  0.330  0.155-   4 1.76   5 1.91
  32  0.927  0.344  0.471-   5 1.62   6 2.47
  33  0.972  0.327  0.822-   6 1.34   4 1.78
  34  0.993  0.676  0.141-   7 1.42   8 1.96
  35  0.974  0.611  0.500-   8 1.88   9 1.90
  36  0.991  0.646  0.819-   9 1.58   7 2.06
  37  0.380  0.999  0.160-  11 1.91  10 1.98
  38  0.329  0.010  0.481-  11 1.62  12 1.79
  39  0.298  0.002  0.784-  12 1.45  10 2.06
  40  0.367  0.351  0.180-  14 1.55  13 1.95
  41  0.344  0.331  0.494-  14 1.80  15 1.93
  42  0.260  0.289  0.818-  15 1.57  13 1.99
  43  0.345  0.647  0.169-  17 1.44  16 1.59
  44  0.281  0.618  0.499-  18 1.90  17 2.09
  45  0.346  0.669  0.811-  18 1.56  16 2.20
  46  0.586  0.968  0.168-  20 1.55  19 1.75
  47  0.658  0.985  0.503-  21 1.23  20 2.11
  48  0.686  0.005  0.849-  19 1.73  21 2.47
  49  0.649  0.335  0.168-  22 1.76  23 2.15
  50  0.697  0.329  0.499-  23 1.50  24 1.95
  51  0.664  0.330  0.824-  24 1.70  22 1.89
  52  0.654  0.661  0.161-  26 1.39  25 1.96
  53  0.615  0.630  0.507-  27 1.62  26 2.35
  54  0.605  0.673  0.811-  27 1.75  25 1.96

  LATTYP: Found a hexagonal cell.
 ALAT       =     8.9938830029
 C/A-ratio  =     1.1769065427

  Lattice vectors:

 A1 = (   8.9938830000,   0.0000000000,   0.0000000000)
 A2 = (  -4.4969415000,   7.7889311600,   0.0000000000)
 A3 = (   0.0000000000,   0.0000000000,  10.5849597500)

Analysis of symmetry for initial positions (statically):
 Subroutine PRICEL returns:
 Original cell was already a primitive cell.

 Routine SETGRP: Setting up the symmetry group for a
 hexagonal supercell.

 Subroutine GETGRP returns: Found  1 space group operations
 (whereof  1 operations were pure point group operations)
 out of a pool of 24 trial point group operations.

The static configuration has the point symmetry C_1 .

Analysis of symmetry for dynamics (positions and initial velocities):
 Subroutine PRICEL returns:
 Original cell was already a primitive cell.

[...]

The dynamic configuration has the point symmetry C_1 .

Analysis of structural, dynamic, and magnetic symmetry:
 Subroutine PRICEL returns:
 Original cell was already a primitive cell.

 Routine SETGRP: Setting up the symmetry group for a
 hexagonal supercell.

 Subroutine GETGRP returns: Found  1 space group operations
 (whereof  1 operations were pure point group operations)
 out of a pool of 24 trial point group operations.

The magnetic configuration has the point symmetry C_1 .

 Subroutine INISYM returns: Found  1 space group operations
 (whereof  1 operations are pure point group operations),
 and found     1 'primitive' translations

 KPOINTS: Automatic mesh

Automatic generation of k-mesh.
Space group operators:
 irot       det(A)        alpha          n_x          n_y          n_z        tau_x        tau_y        tau_z
    1     1.000000     0.000000     1.000000     0.000000     0.000000     0.000000     0.000000     0.000000

 Subroutine IBZKPT returns following result:

 Found     26 irreducible k-points:

 Following reciprocal coordinates:
            Coordinates               Weight
  0.000000  0.000000  0.000000      1.000000
  0.250000 -0.000000  0.000000      2.000000
  0.500000 -0.000000  0.000000      1.000000
  0.000000  0.250000  0.000000      2.000000
  0.250000  0.250000  0.000000      2.000000
  0.500000  0.250000  0.000000      2.000000
 -0.250000  0.250000  0.000000      2.000000
  0.000000  0.500000  0.000000      1.000000
  0.250000  0.500000  0.000000      2.000000
  0.500000  0.500000  0.000000      1.000000
  0.000000  0.000000  0.333333      2.000000
  0.250000 -0.000000  0.333333      2.000000
  0.500000 -0.000000  0.333333      2.000000
 -0.250000  0.000000  0.333333      2.000000
  0.000000  0.250000  0.333333      2.000000
  0.250000  0.250000  0.333333      2.000000
  0.500000  0.250000  0.333333      2.000000
 -0.250000  0.250000  0.333333      2.000000
  0.000000  0.500000  0.333333      2.000000
  0.250000  0.500000  0.333333      2.000000
  0.500000  0.500000  0.333333      2.000000
 -0.250000  0.500000  0.333333      2.000000
  0.000000 -0.250000  0.333333      2.000000
  0.250000 -0.250000  0.333333      2.000000
  0.500000 -0.250000  0.333333      2.000000
 -0.250000 -0.250000  0.333333      2.000000

 Following cartesian coordinates:
            Coordinates               Weight
  0.000000  0.000000  0.000000      1.000000
  0.027797  0.016048  0.000000      2.000000
  0.055593  0.032097  0.000000      1.000000
  0.000000  0.032097  0.000000      2.000000
  0.027797  0.048145  0.000000      2.000000
  0.055593  0.064194  0.000000      2.000000
 -0.027797  0.016048  0.000000      2.000000
  0.000000  0.064194  0.000000      1.000000
  0.027797  0.080242  0.000000      2.000000
  0.055593  0.096290  0.000000      1.000000
  0.000000  0.000000  0.031491      2.000000
  0.027797  0.016048  0.031491      2.000000
  0.055593  0.032097  0.031491      2.000000
 -0.027797 -0.016048  0.031491      2.000000
  0.000000  0.032097  0.031491      2.000000
  0.027797  0.048145  0.031491      2.000000
  0.055593  0.064194  0.031491      2.000000
 -0.027797  0.016048  0.031491      2.000000
  0.000000  0.064194  0.031491      2.000000
  0.027797  0.080242  0.031491      2.000000
  0.055593  0.096290  0.031491      2.000000
 -0.027797  0.048145  0.031491      2.000000
  0.000000 -0.032097  0.031491      2.000000
  0.027797 -0.016048  0.031491      2.000000
  0.055593  0.000000  0.031491      2.000000
 -0.027797 -0.048145  0.031491      2.000000

 SYSTEM =  unknown system
 POSCAR =  NiO_Cmmm_scale_1_025_disp_0_20_round_1

 Startparameter for this run:
   NWRITE =      1    write-flag & timer
   PREC   = accura    normal or accurate (medium, high low for compatibility)
   ISTART =      0    job   : 0-new  1-cont  2-samecut
   ICHARG =      2    charge: 1-file 2-atom 10-const
   ISPIN  =      2    spin polarized calculation?
   LNONCOLLINEAR =      F non collinear calculations
   LSORBIT =      F    spin-orbit coupling
   INIWAV =      1    electr: 0-lowe 1-rand  2-diag
   LASPH  =      F    aspherical Exc in radial PAW
   METAGGA=      F    non-selfconsistent MetaGGA calc.

 Electronic Relaxation 1
   ENCUT  =  500.0 eV  36.75 Ry    6.06 a.u.  16.40 16.40 19.30*2*pi/ulx,y,z
   ENINI  =  500.0     initial cutoff
   ENAUG  =  605.4 eV  augmentation charge cutoff
   NELM   =     80;   NELMIN=  2; NELMDL= -5     # of ELM steps
   EDIFF  = 0.1E-04   stopping-criterion for ELM
   LREAL  =      T    real-space projection
   NLSPLINE    = F    spline interpolate recip. space projectors
   LCOMPAT=      F    compatible to vasp.4.4
   GGA_COMPAT  = T    GGA compatible to vasp.4.4-vasp.4.6
   LMAXPAW     = -100 max onsite density
   LMAXMIX     =    2 max onsite mixed and CHGCAR
   VOSKOWN=      1    Vosko Wilk Nusair interpolation
   ROPT   =   -0.00025  -0.00025
 Ionic relaxation
[...]
   0.126E+03 0.746E+02 0.213E+03   -.126E+03 -.756E+02 -.227E+03   0.419E+00 0.291E+00 -.164E+01   0.304E-02 0.541E-02 -.417E-01
   -.296E+02 -.760E+01 -.244E+02   0.298E+02 0.754E+01 0.281E+02   0.921E-02 0.309E+00 -.344E+01   -.598E-02 0.706E-02 0.294E-01
   -.100E+03 0.260E+02 0.805E+02   0.991E+02 -.263E+02 -.832E+02   0.135E+01 0.359E+00 -.644E+00   -.112E-01 -.514E-02 -.154E-01
   -.505E+02 -.133E+02 0.334E+03   0.504E+02 0.179E+02 -.356E+03   0.801E-01 0.146E+01 -.463E+01   -.129E-01 -.119E-02 -.508E-02
   -.735E+02 0.235E+01 0.220E+03   0.708E+02 -.132E+01 -.235E+03   0.107E+01 -.583E+00 -.786E+00   0.432E-01 -.858E-02 0.419E-01
   0.272E+02 -.304E+02 0.238E+02   -.273E+02 0.317E+02 -.208E+02   -.176E+00 -.102E+01 -.329E+01   -.186E-03 0.944E-02 -.292E-02
   0.156E+02 -.558E+02 0.119E+03   -.162E+02 0.553E+02 -.123E+03   0.673E+00 -.210E+00 -.123E+01   0.104E-01 -.666E-02 -.328E-01
   0.289E+02 0.238E+02 0.634E+02   -.289E+02 -.238E+02 -.607E+02   -.130E+00 -.705E-01 -.213E+01   0.116E-01 0.170E-02 0.275E-01
   0.458E+02 0.833E+02 0.109E+03   -.447E+02 -.837E+02 -.111E+03   -.186E+00 0.356E+00 -.179E+01   0.151E-02 -.132E-01 -.641E-02
   -.798E+02 0.649E+02 0.133E+03   0.800E+02 -.654E+02 -.146E+03   0.532E-01 0.435E+00 0.893E+00   0.176E-01 0.254E-02 -.302E-01
   0.152E+02 0.103E+02 0.341E+02   -.148E+02 -.109E+02 -.340E+02   -.877E-01 0.670E-01 -.233E+00   -.101E-01 -.110E-01 0.289E-01
   0.928E+02 0.533E+02 -.930E+02   -.936E+02 -.536E+02 0.998E+02   0.693E+00 0.141E+00 -.980E+00   0.325E-02 -.270E-02 -.148E-01
   0.721E+02 -.531E+02 0.113E+03   -.702E+02 0.538E+02 -.118E+03   -.654E+00 0.444E-01 -.125E+01   0.565E-02 -.835E-02 -.160E-01
   0.103E+03 0.164E+00 0.252E+03   -.102E+03 -.702E+00 -.255E+03   -.969E+00 0.475E+00 -.220E+01   -.218E-01 0.240E-02 0.378E-01
   0.111E+03 -.185E+02 -.293E+03   -.112E+03 0.170E+02 0.309E+03   0.172E+00 0.147E+00 -.140E+01   -.445E-02 0.206E-01 -.156E-01
   0.253E+01 -.103E+03 0.128E+03   -.450E+01 0.102E+03 -.133E+03   0.136E+01 0.701E+00 -.105E+01   -.171E-01 0.103E-01 -.146E-01
   -.872E+02 -.148E+01 0.653E+02   0.868E+02 0.173E+01 -.699E+02   0.188E+00 -.435E+00 0.322E+01   -.198E-01 0.203E-01 0.380E-01
   -.929E+02 -.395E+02 -.183E+03   0.949E+02 0.396E+02 0.186E+03   -.668E-02 0.460E+00 0.356E+01   0.146E-02 -.771E-02 0.994E-03
   -.325E+02 -.597E+02 -.408E+03   0.360E+02 0.698E+02 0.455E+03   -.176E+00 0.101E+01 0.367E+01   -.152E-01 0.143E-01 -.341E-01
   -.256E+01 0.830E+01 0.443E+02   0.190E+01 -.828E+01 -.430E+02   0.543E+00 -.240E+00 -.164E+01   0.185E-01 -.354E-01 0.237E-01
   0.709E+02 -.372E+02 0.216E+03   -.720E+02 0.371E+02 -.222E+03   -.213E+01 0.126E+00 -.309E+01   0.130E-01 -.434E-02 -.120E-01
   -.879E+01 0.397E+02 0.128E+02   0.102E+02 -.382E+02 -.970E+01   -.778E+00 -.118E+01 -.437E+01   0.143E-01 -.178E-01 -.157E-01
   0.203E+02 -.395E+02 0.716E+02   -.214E+02 0.391E+02 -.735E+02   -.152E+00 0.405E+00 0.217E+01   -.520E-02 -.813E-02 0.558E-01
   -.100E+03 -.889E+02 -.349E+03   0.993E+02 0.918E+02 0.365E+03   -.217E+00 -.381E+00 0.324E+01   0.587E-02 0.143E-01 -.638E-03
   -.138E+03 -.753E+02 -.353E+02   0.136E+03 0.754E+02 0.369E+02   0.368E+00 0.195E-01 0.524E+00   0.932E-02 -.110E-01 -.349E-01
   0.271E+02 -.239E+02 -.839E+02   -.295E+02 0.264E+02 0.949E+02   0.196E+01 -.229E+01 -.705E+01   -.443E-02 0.953E-03 0.467E-01
   0.233E+02 0.117E+02 -.695E+02   -.169E+02 -.853E+01 0.788E+02   -.784E+01 -.394E+01 -.720E+01   -.147E-02 -.573E-02 -.492E-01
   0.579E+02 -.945E+00 -.235E+03   -.592E+02 0.529E+01 0.268E+03   0.133E+01 -.362E+01 -.182E+02   0.273E-02 0.116E-01 0.113E-01
   -.801E+01 -.294E+02 -.281E+02   0.916E+01 0.327E+02 0.328E+02   -.115E+01 -.411E+01 -.433E+01   -.481E-02 0.629E-03 0.348E-02
   -.493E+02 -.138E+02 -.147E+03   0.423E+02 0.204E+02 0.164E+03   0.800E+01 -.693E+01 -.152E+02   -.494E-02 -.874E-03 -.238E-01
   -.119E+02 0.758E+02 -.179E+03   0.114E+02 -.886E+02 0.217E+03   0.527E+00 0.657E+01 -.123E+02   -.693E-02 0.209E-02 0.196E-01
   -.659E+02 0.260E+02 -.200E+03   0.717E+02 -.290E+02 0.230E+03   -.347E+01 0.186E+01 -.142E+02   0.118E-01 -.195E-02 0.424E-01
   0.401E+02 -.404E+02 0.495E+01   -.427E+02 0.346E+02 -.441E+01   0.285E+01 0.775E+01 -.535E+00   0.347E-04 0.261E-02 -.336E-01
   0.162E+02 0.188E+02 -.149E+03   -.181E+02 -.242E+02 0.165E+03   0.102E+01 0.614E+01 -.111E+02   0.149E-01 -.868E-02 -.185E-02
   0.677E+02 -.361E+01 0.188E+02   -.633E+02 0.535E+01 -.195E+02   -.655E+01 -.197E+01 0.373E+00   -.284E-02 -.460E-02 0.202E-01
   -.619E+02 0.240E+02 -.455E+02   0.649E+02 -.204E+02 0.530E+02   -.330E+01 -.398E+01 -.463E+01   0.534E-02 -.675E-02 -.406E-01
   -.535E+02 0.186E+02 -.237E+03   0.526E+02 -.172E+02 0.267E+03   0.183E+01 -.111E+01 -.164E+02   0.146E-01 0.282E-02 0.631E-02
   -.378E+02 0.437E+02 0.145E+03   0.460E+02 -.422E+02 -.161E+03   -.875E+01 -.161E+01 0.101E+02   0.331E-02 0.161E-02 -.339E-02
   0.368E+02 -.409E+01 -.298E+02   -.353E+02 0.446E+01 0.331E+02   -.239E+01 -.586E+00 -.277E+01   0.557E-02 -.819E-02 -.837E-02
   0.430E+02 0.170E+02 -.154E+03   -.490E+02 -.234E+02 0.170E+03   0.588E+01 0.693E+01 -.974E+01   0.156E-03 0.269E-03 0.831E-02
   0.298E+02 0.181E+02 0.889E+02   -.245E+02 -.173E+02 -.103E+03   -.461E+01 -.224E+00 0.460E+01   -.397E-02 0.601E-02 0.239E-01
   0.343E+02 0.134E+02 0.349E+02   -.390E+02 -.192E+02 -.380E+02   0.588E+01 0.702E+01 0.289E+01   -.106E-01 0.571E-02 -.304E-01
   0.548E+02 -.795E+01 -.185E+03   -.555E+02 0.582E+01 0.204E+03   -.244E+00 0.216E+01 -.136E+02   -.148E-01 0.118E-02 0.165E-01
   0.165E+02 0.224E+02 0.615E+02   -.271E+02 -.308E+02 -.708E+02   0.104E+02 0.837E+01 0.423E+01   -.342E-02 -.496E-03 0.314E-01
   0.862E+01 0.129E+03 0.284E+03   -.140E+02 -.149E+03 -.358E+03   0.234E+01 0.891E+01 0.236E+02   -.399E-02 0.594E-02 -.244E-01
   -.152E+02 0.206E+02 0.143E+03   0.193E+02 -.219E+02 -.157E+03   -.457E+01 0.160E+01 0.146E+02   -.135E-01 0.161E-01 0.201E-02
   -.346E+02 -.102E+02 -.838E+02   0.342E+02 0.916E+01 0.924E+02   0.450E+00 0.121E+01 -.848E+01   0.653E-02 -.599E-02 0.171E-01
   -.794E+02 -.712E+01 -.135E+03   0.945E+02 0.898E+01 0.155E+03   -.137E+02 -.223E+01 -.109E+02   0.575E-03 -.360E-02 -.195E-01
   -.353E+02 0.123E+02 -.528E+02   0.419E+02 -.119E+02 0.579E+02   -.721E+01 -.334E+00 -.298E+01   0.723E-02 -.157E-01 -.511E-02
   -.486E+02 0.114E+02 0.192E+03   0.500E+02 -.194E+02 -.227E+03   0.566E+00 0.534E+01 0.152E+02   -.706E-02 0.122E-01 0.951E-01
   -.109E+02 -.736E+02 0.167E+03   0.688E+01 0.728E+02 -.185E+03   0.462E+01 0.141E+01 0.148E+02   0.597E-02 0.715E-02 -.476E-01
   0.282E+02 -.652E+02 -.735E+02   -.395E+02 0.718E+02 0.806E+02   0.137E+02 -.721E+01 -.567E+01   -.199E-01 0.102E-02 -.188E-01
   0.110E+01 -.278E+02 0.101E+03   0.441E-12 -.995E-13 -.483E-12   -.112E+01 0.278E+02 -.101E+03   0.177E-01 -.144E-01 0.570E-01

 POSITION                                       TOTAL-FORCE (eV/Angst)
     -4.23982      7.72822      0.12382         0.144367     -0.093683     -3.947124
      8.95803      0.04857      3.60644         0.436004      0.169398     -2.586712
      4.38471      7.58739      7.12980         0.605484     -0.717651    -15.704774
      7.26464      2.43089     10.47579         0.173613      0.264946      0.260712
      7.38736      2.29029      3.52621         0.164501      0.014491     -3.390364
      7.27800      2.87679      7.39893        -0.096788      6.048861    -25.909864
      5.68102      5.37135      0.08850        -1.576759      0.447517    -15.817017
      6.06100      5.07736      3.43810        -0.257997      0.324046     -0.221321
     -2.78235      5.26861      7.11253         0.062523     -0.700793     -5.213074
      3.08807      0.07648     10.32120        -0.170991     -0.035278      0.594882
     -1.69813      7.66329      3.49210         0.912160     -0.002414     -3.806581
     -1.84629      7.75294      6.85395         0.305437     -0.052149    -12.633949
      1.30921      2.64873      0.00836         0.265415     -0.531475     -0.029308
      1.43352      2.65123      3.43480        -0.091370     -0.091186      5.840606
      1.32227      2.50054      7.13713         1.270773      0.691001     -5.807512
      0.03090      5.17855      0.20661         0.174170     -0.060126     -4.729743
      0.06507      4.95478      3.21921        -1.405249     -1.330135     14.803489
      0.22047      5.36761      7.03679        -0.630295     -0.865654     -6.084557
      5.80431      0.04556      0.09424        -0.269271     -0.166086     -1.287934
      5.93029      0.01559      3.22042         1.995983      0.558869      6.244742
      6.06178      0.16537      6.51787         3.368299     11.062091     50.543162
      4.39495      2.65383      0.01880        -0.095525     -0.250683     -0.316421
      4.17963      2.55686      3.91625        -3.200667      0.047289     -9.740909
      4.03936      2.47291      7.08094         0.632359      0.245193     -1.308357
      3.21580      5.05955     10.35834        -1.238960     -0.028215      0.341781
      2.81890      5.37443      3.06752        -1.346589      2.606184     19.719759
      2.94591      4.84221      6.96374        -0.790229      0.099154      2.060187
      0.07920      0.04468      1.71030        -0.532239      0.169618      3.987867
      0.24341      0.11189      5.23874        -1.343044     -0.760784      2.143912
      4.39085      7.73383      8.54738         0.032670      0.731986     15.266467
      7.40386      2.57208      1.63764        -0.010602     -0.792686      0.422562
      6.78778      2.67757      4.98431         1.043156     -0.293879      2.154471
      7.27344      2.54926      8.69689         0.019133     -6.231833     26.012946
      5.89267      5.26536      1.49165         2.312335     -1.183043     16.113423
      6.01200      4.76176      5.28758         0.269822      1.945561     -0.030126
      6.00700      5.02887      8.66463        -0.867201      0.747762      5.119593
     -1.07503      7.78175      1.68857        -2.198536     -0.240756     -0.369417
      2.91397      0.08163      5.09198        -0.385151     -0.480660      2.816458
      2.66983      0.01573      8.30058         0.965487      0.251635     13.760094
      1.71961      2.73675      1.90881        -0.566544     -0.143275     -6.246450
      1.60544      2.57461      5.22717        -0.824405     -0.228540      0.551820
      1.04450      2.24756      8.65984        -0.074261      0.505321      5.741729
      0.19228      5.03903      1.78520         0.646891      0.588577     -9.733644
     -0.24678      4.81242      5.28404         1.218666      1.287090     -0.280395
      0.10391      5.21048      8.58827        -0.944297      0.038475      5.950671
      0.91955      7.53938      1.77830        -0.263658     -0.008445     -5.038761
      1.48656      7.67050      5.32334        -3.082613    -11.122989    -50.242187
      6.14993      0.03917      8.98601        -0.522655      0.306022      0.541683
      4.32898      2.60614      1.77678         0.051581      0.166171      0.142426
      4.78692      2.55890      5.28458         1.373512     -0.375149      8.551528
      4.48625      2.56927      8.71949        -0.601742      0.047513      2.080185
      2.90825      5.15044      1.70204         1.914806     -2.614608    -19.794443
      2.69908      4.90609      5.36218         0.599413      0.664003     -2.931852
      2.41207      5.24365      8.58475         2.429076     -0.626595      1.435644
    total drift:                                0.002399     -0.014037     -0.030875

  FREE ENERGIE OF THE ION-ELECTRON SYSTEM (eV)
  free  energy   TOTEN  =      -277.7137053090 eV

  energy  without entropy=     -277.6533782392  energy(sigma->0) =     -277.68354177

volume of typ            1:    23.2 %

volume of typ            2:     5.9 %

total charge

# of ion       s       p       d       tot
    1        0.280   0.237   7.939   8.456
    2        0.279   0.253   7.899   8.430
    3        0.361   0.383   7.980   8.725
    4        0.253   0.230   7.932   8.414
    5        0.288   0.267   7.907   8.462
    6        0.402   0.382   8.101   8.885
    7        0.372   0.379   8.002   8.754
    8        0.206   0.148   7.940   8.295
    9        0.302   0.298   7.900   8.500
   10        0.197   0.124   7.939   8.261
   11        0.282   0.264   7.910   8.456
   12        0.369   0.423   7.964   8.755
   13        0.197   0.134   7.951   8.282
   14        0.321   0.337   7.922   8.580
   15        0.304   0.289   7.916   8.508
   16        0.254   0.209   8.009   8.472
   17        0.334   0.339   8.017   8.690
   18        0.301   0.305   7.888   8.494
   19        0.282   0.264   7.906   8.452
   20        0.289   0.255   7.996   8.540
   21        0.495   0.489   8.170   9.153
   22        0.257   0.219   7.884   8.360
   23        0.302   0.279   7.997   8.577
   24        0.257   0.221   7.918   8.396
   25        0.211   0.152   7.956   8.318
   26        0.365   0.354   8.053   8.773
   27        0.321   0.323   7.874   8.518
   28        1.274   2.740   0.010   4.024
   29        1.274   2.724   0.007   4.006
   30        1.292   2.781   0.018   4.091
   31        1.269   2.707   0.005   3.981
   32        1.304   2.663   0.009   3.976
   33        1.296   2.859   0.031   4.185
   34        1.286   2.795   0.020   4.101
   35        1.279   2.672   0.004   3.955
   36        1.276   2.737   0.010   4.023
   37        1.286   2.654   0.004   3.944
   38        1.271   2.765   0.010   4.047
   39        1.285   2.786   0.017   4.088
   40        1.278   2.750   0.012   4.040
   41        1.270   2.703   0.004   3.977
   42        1.276   2.747   0.011   4.033
   43        1.286   2.855   0.028   4.169
   44        1.277   2.659   0.003   3.940
   45        1.283   2.725   0.010   4.018
   46        1.288   2.759   0.016   4.063
   47        1.315   2.899   0.040   4.254
   48        1.285   2.659   0.005   3.949
   49        1.278   2.673   0.004   3.955
   50        1.292   2.754   0.017   4.064
   51        1.269   2.724   0.007   4.000
   52        1.294   2.809   0.024   4.127
   53        1.283   2.701   0.008   3.991
   54        1.282   2.693   0.006   3.981
tot          42.73   81.55  215.21  339.49

magnetization (x)

# of ion       s       p       d       tot
    1        0.006   0.003   0.830   0.838
    2       -0.005   0.001  -0.750  -0.754
    3        0.023   0.018   0.932   0.973
    4       -0.004   0.001  -0.261  -0.264
    5       -0.011  -0.001  -0.869  -0.881
    6        0.014   0.020   0.753   0.787
    7        0.001  -0.009  -0.387  -0.394
    8       -0.006   0.002  -0.661  -0.665
    9        0.017  -0.000   1.050   1.066
   10        0.004  -0.002   0.892   0.894
   11       -0.009   0.000  -0.859  -0.868
   12        0.018   0.008   0.802   0.828
   13        0.008   0.002   0.761   0.771
   14        0.012   0.001   0.772   0.785
   15        0.024   0.003   1.065   1.092
   16       -0.007  -0.007  -0.446  -0.460
   17       -0.009  -0.012  -0.527  -0.547
   18        0.036   0.003   1.293   1.332
   19        0.004  -0.004   0.709   0.710
   20       -0.004  -0.001  -0.554  -0.560
   21        0.031   0.044   0.922   0.997
   22        0.011  -0.001   0.951   0.960
   23        0.033   0.014   0.837   0.884
   24        0.008   0.006   1.084   1.098
   25        0.004   0.000  -0.171  -0.167
   26       -0.017  -0.020  -0.810  -0.847
   27        0.024   0.002   1.170   1.197
   28        0.006   0.236   0.000   0.242
   29       -0.009  -0.288  -0.000  -0.296
   30        0.011   0.464   0.001   0.476
   31       -0.008  -0.294   0.000  -0.302
   32       -0.008  -0.313  -0.000  -0.321
   33        0.007   0.298   0.001   0.306
   34       -0.007  -0.247   0.000  -0.254
   35        0.005   0.183  -0.000   0.188
   36        0.009   0.373   0.000   0.382
   37       -0.002  -0.030  -0.000  -0.032
   38       -0.006  -0.227  -0.000  -0.233
   39        0.011   0.397   0.001   0.408
   40        0.009   0.325   0.000   0.335
   41        0.008   0.283   0.000   0.291
   42        0.012   0.414   0.001   0.426
   43       -0.007  -0.265   0.000  -0.271
   44        0.010   0.397   0.000   0.407
   45        0.012   0.514   0.001   0.527
   46       -0.004  -0.124  -0.000  -0.128
   47        0.008   0.386   0.004   0.398
   48        0.011   0.492  -0.000   0.503
   49        0.011   0.463   0.000   0.475
   50        0.008   0.306   0.000   0.315
   51        0.012   0.405   0.000   0.418
   52       -0.009  -0.363  -0.001  -0.372
   53        0.011   0.452   0.000   0.463
   54        0.009   0.312   0.000   0.321
tot           0.32    4.62    8.54   13.48