 vasp.5.4.4.18Apr17-6-g9f103f2a35 (build May 12 2020 04:58:55) complex

 MD_VERSION_INFO: Compiled 2020-05-12T11:58:55-UTC in devlin.sd.materialsdesign.
 com:/home/medea2/data/build/wwolf/vasp-gpu5.4.4/13047/x86_64/src/src/build/std
 from svn 13047

 executed on                        Lin64 date 2023.03.24  04:02:57

 INCAR:
 POTCAR:    PAW_PBE Ni 02Aug2007
 POTCAR:    PAW_PBE O 08Apr2002

 POTCAR:    PAW_PBE Ni 02Aug2007

 POTCAR:    PAW_PBE O 08Apr2002

 Optimization of the real space projectors (new method)

 maximal supplied QI-value         = 16.25
 optimisation between [QCUT,QGAM] = [ 11.38, 22.75] = [ 36.24,144.96] Ry
 Optimized for a Real-space Cutoff    1.47 Angstroem

   l    n(q)    QCUT    max X(q) W(low)/X(q) W(high)/X(q)  e(spline)
   2      9    11.376    60.317    0.17E-03    0.16E-04    0.16E-06
   2      9    11.376    55.921    0.17E-03    0.16E-04    0.17E-06
   0     10    11.376    51.690    0.45E-04    0.60E-04    0.21E-06
   0     10    11.376    30.015    0.37E-04    0.55E-04    0.19E-06
   1     10    11.376    18.849    0.83E-04    0.11E-03    0.92E-07
   1     10    11.376    14.624    0.69E-04    0.92E-04    0.82E-07
 Optimization of the real space projectors (new method)

 maximal supplied QI-value         = 24.76
 optimisation between [QCUT,QGAM] = [ 11.39, 22.77] = [ 36.31,145.25] Ry
 Optimized for a Real-space Cutoff    1.10 Angstroem

   l    n(q)    QCUT    max X(q) W(low)/X(q) W(high)/X(q)  e(spline)
   0      7    11.387    20.381    0.22E-03    0.48E-03    0.18E-06
   0      7    11.387    15.268    0.22E-03    0.52E-03    0.19E-06
   1      7    11.387     5.964    0.22E-03    0.73E-03    0.24E-06
   1      7    11.387     5.382    0.19E-03    0.60E-03    0.21E-06

  PAW_PBE Ni 02Aug2007                  :
  PAW_PBE O 08Apr2002                   :

 POSCAR: NiO_Cmmm_scale_1_025_disp_0_05_round_1
  positions in direct lattice
 exchange correlation table for  LEXCH =       14
   RHO(1)=    0.500       N(1)  =     2000
   RHO(2)=  100.500       N(2)  =     4000

 ion  position               nearest neighbor table
   1  0.005  0.995  0.999-  28 1.67  30 1.91  10 2.84  13 2.90   7 2.95
   2  0.004  0.002  0.318-  28 1.71  29 1.90  11 2.86  14 2.96   8 2.97
   3  0.006  0.001  0.648-  29 1.60  30 1.80  12 2.75  15 2.93   9 3.01
   4  0.978  0.329  0.994-  31 1.79  33 2.02  19 2.90   7 2.94  22 2.99  16 3.04
   5  0.980  0.333  0.325-  31 1.72  32 1.78  23 2.90  20 2.93   8 2.96  17 3.05
   6  0.975  0.329  0.658-  33 1.53  32 1.76   9 2.92  21 2.95  24 3.00  18 3.08
   7  0.977  0.654  0.997-  34 1.77  36 1.97   4 2.94   1 2.95  25 2.96  22 3.05
   8  0.967  0.656  0.330-  35 1.68  34 1.76  26 2.73  23 2.88   5 2.96   2 2.97
   9  0.965  0.648  0.658-  36 1.62  35 1.81  24 2.89  27 2.90   6 2.92   3 3.01
  10  0.325  0.004  0.001-  37 1.74  39 1.87  22 2.81   1 2.84  13 2.89  19 2.97
  11  0.320  0.998  0.329-  38 1.63  37 1.74   2 2.86  20 2.88  23 2.99  14 3.03
  12  0.307  0.992  0.645-  38 1.72  39 1.90   3 2.75  15 3.01  21 3.02  24 3.03
  13  0.322  0.323  0.999-  40 1.73  42 1.97  10 2.89  22 2.89   1 2.90  25 2.98  16 2.98
  14  0.327  0.338  0.317-  40 1.64  41 1.84  17 2.83  26 2.90   2 2.96  23 3.01  11 3.03
  15  0.322  0.334  0.650-  41 1.68  42 1.73  27 2.81  18 2.83  24 2.90   3 2.93  12 3.01
  16  0.325  0.656  0.995-  43 1.79  45 1.93  25 2.92  13 2.98   4 3.04  19 3.07
  17  0.334  0.656  0.316-  43 1.61  44 1.86  14 2.83  26 2.97  20 3.04   5 3.05
  18  0.333  0.653  0.651-  44 1.69  45 1.72  27 2.82  15 2.83  21 2.99   6 3.08
  19  0.656  0.006  0.995-  46 1.76  48 1.92  22 2.86   4 2.90  10 2.97  16 3.07
  20  0.647  0.014  0.328-  47 1.66  46 1.78  23 2.79  11 2.88   5 2.93  17 3.04
  21  0.647  0.001  0.651-  48 1.73  47 1.76   6 2.95  24 2.97  18 2.99  12 3.02
  22  0.639  0.315  0.993-  49 1.76  51 1.93  10 2.81  19 2.86  13 2.89   4 2.99  25 3.04   7 3.05

  23  0.656  0.327  0.333-  50 1.61  49 1.85  20 2.79  26 2.87   8 2.88   5 2.90  11 2.99  14 3.01

[...]

  25  0.650  0.658  0.999-  52 1.69  54 1.92  16 2.92   7 2.96  13 2.98  22 3.04
  26  0.660  0.649  0.321-  52 1.73  53 1.74   8 2.73  23 2.87  14 2.90  17 2.97
  27  0.640  0.641  0.646-  53 1.70  54 1.82  15 2.81  24 2.82  18 2.82   9 2.90
  28  0.991  0.993  0.156-   1 1.67   2 1.71
  29  0.003  0.004  0.497-   3 1.60   2 1.90
  30  0.009  0.009  0.818-   3 1.80   1 1.91
  31  0.983  0.334  0.162-   5 1.72   4 1.79
  32  0.986  0.327  0.493-   6 1.76   5 1.78
  33  0.973  0.334  0.803-   6 1.53   4 2.02
  34  0.981  0.659  0.164-   8 1.76   7 1.77
  35  0.976  0.650  0.488-   8 1.68   9 1.81
  36  0.984  0.655  0.811-   9 1.62   7 1.97
  37  0.324  0.997  0.165-  11 1.74  10 1.74
  38  0.316  0.003  0.483-  11 1.63  12 1.72
  39  0.334  0.006  0.824-  10 1.87  12 1.90
  40  0.336  0.330  0.163-  14 1.64  13 1.73
  41  0.323  0.324  0.491-  15 1.68  14 1.84
  42  0.318  0.321  0.813-  15 1.73  13 1.97
  43  0.334  0.663  0.164-  17 1.61  16 1.79
  44  0.332  0.650  0.492-  18 1.69  17 1.86
  45  0.321  0.656  0.813-  18 1.72  16 1.93
  46  0.660  0.009  0.161-  19 1.76  20 1.78
  47  0.653  0.000  0.485-  20 1.66  21 1.76
  48  0.646  0.994  0.814-  21 1.73  19 1.92
  49  0.643  0.329  0.159-  22 1.76  23 1.85
  50  0.657  0.330  0.485-  23 1.61  24 1.81
  51  0.646  0.322  0.811-  24 1.65  22 1.93
  52  0.655  0.652  0.158-  25 1.69  26 1.73
  53  0.660  0.655  0.486-  27 1.70  26 1.74
  54  0.650  0.645  0.818-  27 1.82  25 1.92

  LATTYP: Found a hexagonal cell.
 ALAT       =     8.9938830029
 C/A-ratio  =     1.1769065427

  Lattice vectors:

 A1 = (   8.9938830000,   0.0000000000,   0.0000000000)
 A2 = (  -4.4969415000,   7.7889311600,   0.0000000000)
 A3 = (   0.0000000000,   0.0000000000,  10.5849597500)

Analysis of symmetry for initial positions (statically):
 Subroutine PRICEL returns:
 Original cell was already a primitive cell.

 Routine SETGRP: Setting up the symmetry group for a
 hexagonal supercell.

 Subroutine GETGRP returns: Found  1 space group operations
 (whereof  1 operations were pure point group operations)
 out of a pool of 24 trial point group operations.

The static configuration has the point symmetry C_1 .

Analysis of symmetry for dynamics (positions and initial velocities):
 Subroutine PRICEL returns:
 Original cell was already a primitive cell.

[...]

The dynamic configuration has the point symmetry C_1 .

Analysis of structural, dynamic, and magnetic symmetry:
 Subroutine PRICEL returns:
 Original cell was already a primitive cell.

 Routine SETGRP: Setting up the symmetry group for a
 hexagonal supercell.

 Subroutine GETGRP returns: Found  1 space group operations
 (whereof  1 operations were pure point group operations)
 out of a pool of 24 trial point group operations.

The magnetic configuration has the point symmetry C_1 .

 Subroutine INISYM returns: Found  1 space group operations
 (whereof  1 operations are pure point group operations),
 and found     1 'primitive' translations

 KPOINTS: Automatic mesh

Automatic generation of k-mesh.
Space group operators:
 irot       det(A)        alpha          n_x          n_y          n_z        tau_x        tau_y        tau_z
    1     1.000000     0.000000     1.000000     0.000000     0.000000     0.000000     0.000000     0.000000

 Subroutine IBZKPT returns following result:

 Found     26 irreducible k-points:

 Following reciprocal coordinates:
            Coordinates               Weight
  0.000000  0.000000  0.000000      1.000000
  0.250000 -0.000000  0.000000      2.000000
  0.500000 -0.000000  0.000000      1.000000
  0.000000  0.250000  0.000000      2.000000
  0.250000  0.250000  0.000000      2.000000
  0.500000  0.250000  0.000000      2.000000
 -0.250000  0.250000  0.000000      2.000000
  0.000000  0.500000  0.000000      1.000000
  0.250000  0.500000  0.000000      2.000000
  0.500000  0.500000  0.000000      1.000000
  0.000000  0.000000  0.333333      2.000000
  0.250000 -0.000000  0.333333      2.000000
  0.500000 -0.000000  0.333333      2.000000
 -0.250000  0.000000  0.333333      2.000000
  0.000000  0.250000  0.333333      2.000000
  0.250000  0.250000  0.333333      2.000000
  0.500000  0.250000  0.333333      2.000000
 -0.250000  0.250000  0.333333      2.000000
  0.000000  0.500000  0.333333      2.000000
  0.250000  0.500000  0.333333      2.000000
  0.500000  0.500000  0.333333      2.000000
 -0.250000  0.500000  0.333333      2.000000
  0.000000 -0.250000  0.333333      2.000000
  0.250000 -0.250000  0.333333      2.000000
  0.500000 -0.250000  0.333333      2.000000
 -0.250000 -0.250000  0.333333      2.000000

 Following cartesian coordinates:
            Coordinates               Weight
  0.000000  0.000000  0.000000      1.000000
  0.027797  0.016048  0.000000      2.000000
  0.055593  0.032097  0.000000      1.000000
  0.000000  0.032097  0.000000      2.000000
  0.027797  0.048145  0.000000      2.000000
  0.055593  0.064194  0.000000      2.000000
 -0.027797  0.016048  0.000000      2.000000
  0.000000  0.064194  0.000000      1.000000
  0.027797  0.080242  0.000000      2.000000
  0.055593  0.096290  0.000000      1.000000
  0.000000  0.000000  0.031491      2.000000
  0.027797  0.016048  0.031491      2.000000
  0.055593  0.032097  0.031491      2.000000
 -0.027797 -0.016048  0.031491      2.000000
  0.000000  0.032097  0.031491      2.000000
  0.027797  0.048145  0.031491      2.000000
  0.055593  0.064194  0.031491      2.000000
 -0.027797  0.016048  0.031491      2.000000
  0.000000  0.064194  0.031491      2.000000
  0.027797  0.080242  0.031491      2.000000
  0.055593  0.096290  0.031491      2.000000
 -0.027797  0.048145  0.031491      2.000000
  0.000000 -0.032097  0.031491      2.000000
  0.027797 -0.016048  0.031491      2.000000
  0.055593  0.000000  0.031491      2.000000
 -0.027797 -0.048145  0.031491      2.000000

 SYSTEM =  unknown system
 POSCAR =  NiO_Cmmm_scale_1_025_disp_0_05_round_1

 Startparameter for this run:
   NWRITE =      1    write-flag & timer
   PREC   = accura    normal or accurate (medium, high low for compatibility)
   ISTART =      0    job   : 0-new  1-cont  2-samecut
   ICHARG =      2    charge: 1-file 2-atom 10-const
   ISPIN  =      2    spin polarized calculation?
   LNONCOLLINEAR =      F non collinear calculations
   LSORBIT =      F    spin-orbit coupling
   INIWAV =      1    electr: 0-lowe 1-rand  2-diag
   LASPH  =      F    aspherical Exc in radial PAW
   METAGGA=      F    non-selfconsistent MetaGGA calc.

 Electronic Relaxation 1
   ENCUT  =  500.0 eV  36.75 Ry    6.06 a.u.  16.40 16.40 19.30*2*pi/ulx,y,z
   ENINI  =  500.0     initial cutoff
   ENAUG  =  605.4 eV  augmentation charge cutoff
   NELM   =     80;   NELMIN=  2; NELMDL= -5     # of ELM steps
   EDIFF  = 0.1E-04   stopping-criterion for ELM
   LREAL  =      T    real-space projection
   NLSPLINE    = F    spline interpolate recip. space projectors
   LCOMPAT=      F    compatible to vasp.4.4
   GGA_COMPAT  = T    GGA compatible to vasp.4.4-vasp.4.6
   LMAXPAW     = -100 max onsite density
   LMAXMIX     =    2 max onsite mixed and CHGCAR
   VOSKOWN=      1    Vosko Wilk Nusair interpolation
   ROPT   =   -0.00025  -0.00025
[...]
   0.872E+02 0.499E+02 -.130E+03   -.864E+02 -.498E+02 0.134E+03   -.369E+00 0.111E+00 0.500E-01   -.264E-01 0.610E-02 -.110E+00
   -.475E+02 0.854E+01 0.950E+02   0.468E+02 -.815E+01 -.934E+02   0.218E+00 -.130E+00 -.221E+01   0.144E+00 -.248E-01 0.277E+00
   -.486E+02 0.162E+01 0.617E+01   0.493E+02 -.186E+01 -.532E+01   0.674E-01 0.155E+00 -.511E+00   -.701E+00 -.114E-01 0.219E+00
   -.425E+02 0.228E+02 0.367E+02   0.425E+02 -.230E+02 -.424E+02   0.159E+00 0.105E+00 -.282E+00   0.878E-01 0.434E-01 -.508E+00
   -.368E+02 -.224E+02 0.102E+03   0.367E+02 0.224E+02 -.101E+03   0.122E+00 -.417E-01 -.182E+01   0.155E+00 0.464E-01 0.198E+00
   -.721E+02 -.522E+02 0.466E+02   0.720E+02 0.528E+02 -.476E+02   0.598E+00 0.770E-01 -.580E+00   -.193E+00 -.741E+00 0.182E+00
   -.350E+02 -.600E+02 0.523E+01   0.347E+02 0.601E+02 -.620E+01   0.278E+00 -.451E-01 -.184E+01   0.202E+00 0.736E-01 -.365E+00
   -.321E+01 0.958E+02 0.883E+02   0.329E+01 -.952E+02 -.898E+02   0.168E+00 -.141E+00 -.260E+00   -.842E-01 -.242E+00 0.257E+00
   -.885E+01 0.831E+02 0.530E+02   0.817E+01 -.833E+02 -.562E+02   0.986E-01 -.443E-01 0.356E+00   0.538E+00 0.447E+00 0.373E+00
   -.266E+02 0.967E+02 -.112E+03   0.268E+02 -.957E+02 0.114E+03   0.777E-01 -.261E+00 -.941E-01   0.351E-01 -.199E+00 -.597E+00
   0.818E+02 -.198E+02 0.119E+03   -.813E+02 0.199E+02 -.120E+03   -.168E-01 -.135E+00 -.687E+00   -.381E+00 0.348E-01 0.208E+00
   0.762E+02 0.150E+01 -.483E+02   -.767E+02 -.170E+01 0.510E+02   0.342E-01 -.187E+00 0.613E-01   0.480E+00 0.109E+00 0.172E+00
   0.619E+02 0.119E+01 -.730E+02   -.612E+02 -.110E+01 0.748E+02   -.136E+00 -.318E+00 -.220E+00   -.234E+00 0.292E-01 -.327E+00
   0.391E+02 -.177E+02 0.862E+02   -.385E+02 0.174E+02 -.873E+02   -.432E+00 0.289E+00 0.155E+00   -.681E-01 -.676E-01 0.153E+00
   0.526E+02 -.383E+02 -.719E+02   -.520E+02 0.377E+02 0.749E+02   -.340E+00 0.236E+00 0.547E+00   0.114E-01 0.243E-01 0.285E+00
   0.564E+02 -.577E+02 -.581E+02   -.559E+02 0.575E+02 0.596E+02   -.265E+00 -.450E-02 -.210E+00   -.105E+00 0.429E-01 -.415E+00
   -.602E+02 0.589E+02 0.908E+02   0.595E+02 -.584E+02 -.912E+02   0.242E+00 -.317E+00 -.995E+00   0.238E+00 -.818E-01 0.403E+00
   -.526E+02 0.666E+02 0.542E+02   0.529E+02 -.669E+02 -.561E+02   0.464E+00 -.355E+00 -.248E+00   -.398E+00 0.673E+00 0.227E+00
   -.442E+02 0.536E+02 -.415E+02   0.439E+02 -.535E+02 0.435E+02   0.356E+00 -.156E+00 -.155E+01   0.211E-01 -.735E-01 -.591E+00
   -.413E+02 -.199E+02 0.890E+02   0.412E+02 0.198E+02 -.885E+02   -.745E-01 0.190E+00 -.150E+01   0.239E+00 -.170E-01 0.309E+00
   -.208E+02 0.181E+02 0.104E+03   0.207E+02 -.181E+02 -.109E+03   -.156E+00 0.136E+00 -.822E+00   0.207E+00 -.109E+00 0.884E+00
   -.724E+01 0.313E+02 0.457E+00   0.738E+01 -.311E+02 0.598E+00   -.703E-02 0.445E-01 -.210E+01   0.174E+00 -.456E-01 -.142E+01
   0.175E+02 -.872E+02 0.135E+03   -.173E+02 0.864E+02 -.138E+03   0.650E-01 0.202E+00 -.607E+00   -.792E-01 0.239E+00 0.334E+00
   0.395E+02 -.106E+03 0.996E+01   -.396E+02 0.106E+03 -.976E+01   -.227E-01 0.399E+00 -.622E-01   0.179E+00 -.560E+00 0.260E+00
   0.200E+02 -.119E+03 -.104E+03   -.196E+02 0.118E+03 0.107E+03   -.452E-02 0.267E+00 -.338E+00   -.998E-01 0.181E+00 -.546E+00
   0.541E+02 0.759E+01 0.839E+01   -.562E+02 -.860E+01 -.591E+01   0.241E+01 0.107E+01 -.155E+01   -.106E+00 0.335E-01 -.154E-01
   0.535E+02 0.124E+02 0.817E+02   -.544E+02 -.116E+02 -.933E+02   0.700E+00 -.109E+01 0.738E+01   -.402E-01 0.233E-01 0.613E-01
   0.462E+02 0.151E+02 -.514E+02   -.462E+02 -.139E+02 0.542E+02   -.258E-01 -.180E+01 -.236E+01   -.497E-01 0.194E-01 -.906E-01
   -.261E+02 -.282E+01 0.499E+02   0.264E+02 0.321E+01 -.523E+02   -.654E-01 -.463E+00 0.115E+01   -.123E+00 -.160E-01 0.503E+00
   -.366E+02 0.694E+01 0.203E+01   0.387E+02 -.733E+01 -.225E+01   -.212E+01 0.395E+00 0.356E+00   -.253E+00 0.281E-01 -.368E+00
   -.220E+02 0.428E+01 -.181E+03   0.208E+02 -.335E+01 0.200E+03   0.114E+01 -.105E+01 -.115E+02   0.143E+00 0.124E-01 -.141E+00
   -.463E+02 -.173E+02 0.368E+02   0.477E+02 0.180E+02 -.369E+02   -.160E+01 -.641E+00 0.961E-02   0.186E-01 -.155E+00 0.122E+00
   -.623E+02 -.301E+02 -.526E+02   0.642E+02 0.299E+02 0.575E+02   -.221E+01 0.543E+00 -.337E+01   -.260E-01 -.265E+00 -.140E+00
   -.356E+02 -.415E+02 -.130E+03   0.376E+02 0.424E+02 0.142E+03   -.230E+01 -.953E+00 -.805E+01   0.115E+00 0.749E-01 -.456E-01
   -.915E+01 0.533E+02 0.259E+02   0.988E+01 -.540E+02 -.262E+02   -.923E+00 0.654E+00 -.188E+00   0.108E+00 0.959E-02 0.657E+00
   -.121E+02 0.401E+02 -.477E+02   0.115E+02 -.387E+02 0.522E+02   0.419E+00 -.186E+01 -.256E+01   0.237E+00 0.119E+00 -.277E+00
   -.127E+02 0.469E+02 -.436E+01   0.143E+02 -.459E+02 0.360E+01   -.204E+01 -.130E+01 0.119E+01   -.857E-01 -.195E+00 -.332E+00
   0.250E+02 0.403E+01 0.582E+02   -.218E+02 -.437E+01 -.622E+02   -.359E+01 0.376E+00 0.180E+01   -.110E-01 0.553E-01 0.346E+00
   0.261E+02 0.139E+02 0.439E+02   -.257E+02 -.158E+02 -.496E+02   -.684E+00 0.225E+01 0.404E+01   0.159E+00 0.481E-01 -.342E+00
   0.334E+02 0.231E+01 -.967E+02   -.331E+02 -.354E+01 0.103E+03   -.286E+00 0.158E+01 -.562E+01   -.230E+00 0.297E-02 0.159E-02
   0.262E+02 -.249E+02 0.849E+02   -.263E+02 0.265E+02 -.926E+02   -.125E+00 -.159E+01 0.424E+01   -.255E-02 -.100E-01 0.326E+00
   0.351E+02 -.234E+02 0.439E+02   -.350E+02 0.224E+02 -.499E+02   -.280E+00 0.130E+01 0.402E+01   -.319E-01 0.363E-01 -.772E-01
   0.288E+02 -.211E+02 -.845E+02   -.300E+02 0.215E+02 0.907E+02   0.138E+01 -.369E+00 -.458E+01   -.524E-01 -.277E-01 -.233E+00
   -.431E+02 0.331E+02 0.197E+02   0.444E+02 -.335E+02 -.189E+02   -.158E+01 0.227E+00 -.884E+00   -.173E-01 0.106E+00 0.350E+00
   -.475E+02 0.478E+02 -.434E+02   0.496E+02 -.493E+02 0.476E+02   -.218E+01 0.136E+01 -.243E+01   -.177E+00 0.224E+00 -.388E+00
   -.358E+02 0.436E+02 -.706E+02   0.354E+02 -.450E+02 0.761E+02   0.546E+00 0.164E+01 -.419E+01   0.113E+00 -.828E-01 -.301E-01
   -.200E+02 -.889E+01 0.850E+01   0.186E+02 0.102E+02 -.689E+01   0.160E+01 -.145E+01 -.264E+01   0.188E+00 -.396E-01 0.183E+01
   -.189E+02 0.133E+02 -.794E+02   0.197E+02 -.129E+02 0.904E+02   -.122E+01 -.441E+00 -.530E+01   0.132E+00 -.953E-01 -.194E+01
   -.200E+02 0.366E+01 -.112E+03   0.207E+02 -.424E+01 0.121E+03   -.904E+00 0.508E+00 -.658E+01   0.124E+00 -.153E-01 0.126E-01
   0.993E+01 -.520E+02 0.222E+02   -.946E+01 0.516E+02 -.207E+02   -.547E+00 0.675E+00 -.119E+01   -.537E-02 -.171E-01 0.559E+00
   0.983E+01 -.790E+02 0.156E+01   -.876E+01 0.809E+02 -.326E+01   -.131E+01 -.175E+01 0.907E+00   0.434E-01 -.170E+00 -.375E+00
   -.126E+01 -.580E+02 -.553E+02   0.206E+01 0.575E+02 0.580E+02   -.113E+01 0.684E+00 -.213E+01   -.631E-01 0.167E+00 -.164E+00
   0.166E+02 0.162E+01 0.551E+02   0.157E-12 -.995E-13 0.277E-12   -.168E+02 -.140E+01 -.549E+02   0.213E+00 -.218E+00 -.183E+00

 POSITION                                       TOTAL-FORCE (eV/Angst)
     -4.43048      7.75043     10.56915         0.019561      0.335236     -2.648082
      0.02822      0.01479      3.36091         0.086176     -0.013600      1.372382
      0.04808      0.00520      6.86050         0.392920      0.234403      4.285712
      7.32039      2.55871     10.51811        -0.265383      0.231603     -0.282905
      7.31820      2.59334      3.44213         0.122114     -0.097940      0.558296
      7.29283      2.55895      6.96889         0.190209     -0.065445     -6.494754
      5.84317      5.09757     10.55563         0.121757     -0.031321     -0.841166
      5.75115      5.10619      3.49376         0.243339     -0.131379     -1.390432
      5.76823      5.04638      6.96961         0.178301      0.076841     -3.168643
      2.90816      0.03011      0.00544         0.163927      0.262771     -1.505259
     -1.60773      7.77708      3.48508        -0.047956      0.185105     -2.422631
     -1.70097      7.72769      6.82672         0.303319      0.537253      2.004160
      1.44148      2.51627     10.57759         0.157172     -0.089151     -1.356533
      1.41978      2.63203      3.36072         0.059159     -0.277914      2.910638
      1.39701      2.60065      6.87814         0.359874     -0.201923      1.203734
     -0.02902      5.10955     10.53644         0.178105     -0.041637     -0.815373
      0.04992      5.10961      3.34883         0.276903     -0.355131      3.871694
      0.05518      5.08936      6.89482         0.173478     -0.083985      0.843966
      5.87349      0.04953     10.52902        -0.162935      0.080501     -1.024566
      5.76191      0.10534      3.47570         0.382238      0.039687     -1.824277
      5.81695      0.00664      6.88801         0.046111     -0.123309     -0.108531
      4.32955      2.45106     10.51304         0.087881      0.116430     -0.667068
      4.42404      2.55020      3.52742        -0.075484      0.089224     -4.387152
      4.29642      2.56310      6.94124         0.310671      0.153510     -2.459711
      2.88806      5.12326     10.57624         0.230449     -0.412705     -2.449593
      3.01892      5.05468      3.40197        -0.008289     -0.095662      0.394866
      2.87378      4.99144      6.83472         0.290555     -0.174993      2.025406
      4.44740      7.73539      1.64923         0.161167      0.097039      0.917555
      0.01098      0.03394      5.25786        -0.234537     -0.200440     -4.125694
      0.04251      0.07267      8.65851        -0.144767     -0.549121      0.420122
      7.34026      2.60260      1.71800         0.065001     -0.089299     -0.737247
      7.39350      2.55069      5.21527        -0.292732      0.036060     -0.232259
      7.24582      2.60441      8.50116         0.130513     -0.114627      7.114154
      5.86420      5.12920      1.73567        -0.199637     -0.010695      0.003377
      5.85557      5.06490      5.16574        -0.321129      0.091810      1.472473
      5.90273      5.10079      8.58382        -0.179016      0.056472      3.723377
     -1.57029      7.76198      1.74613        -0.086206     -0.107192      0.159134
      2.83069      0.02104      5.10994         0.081450     -0.378969      1.672902
      2.97138      0.04921      8.71693        -0.549679     -0.524357      0.096688
      1.54047      2.56720      1.72264        -0.422705      0.087906     -1.840251
      1.45065      2.52476      5.19632        -0.199509      0.415573     -1.936652
      1.41374      2.49824      8.60318        -0.192110      0.348798      1.047129
      0.02112      5.16471      1.73649        -0.225480     -0.054158     -3.120126
      0.06149      5.05957      5.20548        -0.240296      0.324375     -1.996963
     -0.06418      5.10659      8.61030         0.079867      0.010408      1.386274
      5.89935      0.06946      1.70206        -0.264765     -0.050281      0.224012
      5.87428      0.00038      5.13249        -0.308478      0.112099      1.372249
      1.33508      7.74394      8.61313         0.216807      0.226380      1.300440
      4.30399      2.56148      1.68161         0.377942     -0.208622      0.796827
      4.42196      2.57000      5.13396        -0.268716     -0.126341      3.714150
      4.36522      2.50533      8.58429        -0.122340     -0.090186      2.846789
      2.96157      5.08148      1.67589        -0.086654      0.195441      0.840936
      2.99517      5.09840      5.14515        -0.193306      0.001462     -1.165032
      2.94521      5.02026      8.65576        -0.394858      0.353995      0.421457
    total drift:                               -0.001253     -0.000883      0.004633

  FREE ENERGIE OF THE ION-ELECTRON SYSTEM (eV)
  free  energy   TOTEN  =      -309.7779177245 eV

  energy  without entropy=     -309.7069836204  energy(sigma->0) =     -309.74245067

volume of typ            1:    23.2 %

volume of typ            2:     5.9 %

total charge

# of ion       s       p       d       tot
    1        0.262   0.234   7.920   8.416
    2        0.245   0.212   7.938   8.395
    3        0.304   0.305   7.884   8.494
    4        0.223   0.169   7.920   8.312
    5        0.267   0.249   7.901   8.417
    6        0.334   0.361   7.906   8.601
    7        0.232   0.184   7.904   8.320
    8        0.286   0.282   7.894   8.462
    9        0.291   0.289   7.903   8.483
   10        0.256   0.223   7.892   8.371
   11        0.301   0.310   7.898   8.510
   12        0.245   0.215   7.916   8.376
   13        0.237   0.198   7.912   8.347
   14        0.273   0.264   7.928   8.465
   15        0.291   0.297   7.879   8.467
   16        0.228   0.182   7.932   8.343
   17        0.286   0.274   7.909   8.469
   18        0.293   0.292   7.873   8.459
   19        0.244   0.201   7.888   8.333
   20        0.284   0.277   7.892   8.454
   21        0.269   0.253   7.902   8.425
   22        0.243   0.203   7.909   8.355
   23        0.286   0.288   7.880   8.454
   24        0.282   0.279   7.919   8.480
   25        0.258   0.225   7.910   8.392
   26        0.274   0.263   7.896   8.433
   27        0.269   0.254   7.894   8.417
   28        1.270   2.753   0.011   4.033
   29        1.270   2.753   0.009   4.033
   30        1.268   2.696   0.004   3.969
   31        1.270   2.721   0.008   3.999
   32        1.268   2.730   0.006   4.005
   33        1.278   2.751   0.011   4.041
   34        1.268   2.725   0.007   4.001
   35        1.269   2.741   0.008   4.019
   36        1.272   2.726   0.008   4.007
   37        1.267   2.742   0.008   4.016
   38        1.271   2.765   0.012   4.047
   39        1.272   2.675   0.004   3.951
   40        1.271   2.754   0.011   4.036
   41        1.268   2.740   0.007   4.016
   42        1.272   2.698   0.005   3.975
   43        1.271   2.755   0.011   4.036
   44        1.266   2.737   0.007   4.009
   45        1.269   2.710   0.006   3.985
   46        1.267   2.724   0.007   3.998
   47        1.269   2.749   0.009   4.027
   48        1.270   2.706   0.006   3.982
   49        1.272   2.718   0.006   3.995
   50        1.271   2.749   0.010   4.030
   51        1.272   2.728   0.008   4.008
   52        1.270   2.748   0.009   4.027
   53        1.269   2.745   0.009   4.023
   54        1.271   2.685   0.004   3.960
tot          41.55   80.51  213.61  335.68

magnetization (x)

# of ion       s       p       d       tot
    1        0.002  -0.003  -0.228  -0.230
    2       -0.006   0.000  -0.590  -0.596
    3        0.020  -0.003   0.956   0.973
    4        0.005  -0.001   0.910   0.914
    5        0.001   0.002   0.231   0.234
    6        0.022   0.003   0.770   0.794
    7        0.009  -0.002   0.875   0.882
    8       -0.010   0.003  -0.633  -0.640
    9        0.017   0.001   0.766   0.784
   10        0.011  -0.005   0.898   0.904
   11       -0.009   0.003  -0.632  -0.638
   12        0.010  -0.004   0.530   0.536
   13        0.006  -0.001   0.859   0.864
   14       -0.001   0.004   0.288   0.291
   15        0.018  -0.004   0.936   0.951
   16        0.004  -0.002   0.317   0.319
   17       -0.009   0.001  -0.730  -0.738
   18        0.020  -0.005   0.968   0.983
   19        0.010  -0.003   0.917   0.924
   20       -0.009   0.002  -0.650  -0.657
   21        0.012  -0.001   0.584   0.595
   22        0.009  -0.004   1.011   1.016
   23       -0.005  -0.000   0.070   0.065
   24        0.013  -0.001   0.846   0.859
   25        0.010  -0.003   0.769   0.777
   26       -0.008   0.004  -0.585  -0.589
   27        0.013  -0.004   0.778   0.787
   28       -0.007  -0.255   0.000  -0.262
   29        0.005   0.236   0.000   0.242
   30        0.005   0.223   0.000   0.228
   31        0.008   0.329  -0.000   0.337
   32        0.000   0.015   0.000   0.015
   33        0.008   0.349   0.001   0.358
   34        0.002   0.097  -0.000   0.099
   35       -0.004  -0.169   0.000  -0.173
   36        0.010   0.396   0.000   0.407
   37        0.002   0.061   0.000   0.063
   38       -0.004  -0.161   0.000  -0.165
   39        0.012   0.447   0.000   0.459
   40        0.007   0.274  -0.000   0.281
   41        0.004   0.161   0.000   0.165
   42        0.011   0.417   0.000   0.428
   43       -0.006  -0.224   0.000  -0.230
   44        0.003   0.116   0.000   0.119
   45        0.009   0.365   0.000   0.375
   46        0.003   0.105   0.000   0.108
   47       -0.005  -0.175   0.000  -0.179
   48        0.009   0.374   0.000   0.384
   49        0.009   0.342   0.000   0.351
   50       -0.000   0.024   0.000   0.025
   51        0.011   0.420   0.000   0.430
   52        0.001   0.034   0.000   0.035
   53       -0.001  -0.034   0.000  -0.034
   54        0.011   0.423   0.000   0.434
tot           0.26    4.17   10.24   14.66