 vasp.5.4.4.18Apr17-6-g9f103f2a35 (build May 12 2020 04:58:55) complex

 MD_VERSION_INFO: Compiled 2020-05-12T11:58:55-UTC in devlin.sd.materialsdesign.
 com:/home/medea2/data/build/wwolf/vasp-gpu5.4.4/13047/x86_64/src/src/build/std
 from svn 13047

 executed on                        Lin64 date 2023.03.24  05:55:08

 INCAR:
 POTCAR:    PAW_PBE Ni 02Aug2007
 POTCAR:    PAW_PBE O 08Apr2002

 POTCAR:    PAW_PBE Ni 02Aug2007

 POTCAR:    PAW_PBE O 08Apr2002

 Optimization of the real space projectors (new method)

 maximal supplied QI-value         = 16.25
 optimisation between [QCUT,QGAM] = [ 11.38, 22.75] = [ 36.24,144.96] Ry
 Optimized for a Real-space Cutoff    1.47 Angstroem

   l    n(q)    QCUT    max X(q) W(low)/X(q) W(high)/X(q)  e(spline)
   2      9    11.376    60.317    0.17E-03    0.16E-04    0.16E-06
   2      9    11.376    55.921    0.17E-03    0.16E-04    0.17E-06
   0     10    11.376    51.690    0.45E-04    0.60E-04    0.21E-06
   0     10    11.376    30.015    0.37E-04    0.55E-04    0.19E-06
   1     10    11.376    18.849    0.83E-04    0.11E-03    0.92E-07
   1     10    11.376    14.624    0.69E-04    0.92E-04    0.82E-07
 Optimization of the real space projectors (new method)

 maximal supplied QI-value         = 24.76
 optimisation between [QCUT,QGAM] = [ 11.39, 22.77] = [ 36.31,145.25] Ry
 Optimized for a Real-space Cutoff    1.10 Angstroem

   l    n(q)    QCUT    max X(q) W(low)/X(q) W(high)/X(q)  e(spline)
   0      7    11.387    20.381    0.22E-03    0.48E-03    0.18E-06
   0      7    11.387    15.268    0.22E-03    0.52E-03    0.19E-06
   1      7    11.387     5.964    0.22E-03    0.73E-03    0.24E-06
   1      7    11.387     5.382    0.19E-03    0.60E-03    0.21E-06

  PAW_PBE Ni 02Aug2007                  :
  PAW_PBE O 08Apr2002                   :

 POSCAR: NiO_Cmmm_scale_1_000_disp_0_05_round_2
  positions in direct lattice
 exchange correlation table for  LEXCH =       14
   RHO(1)=    0.500       N(1)  =     2000
   RHO(2)=  100.500       N(2)  =     4000

 ion  position               nearest neighbor table
   1  0.006  0.001  0.002-  30 1.66  28 1.74  13 2.85  10 2.92   4 2.93  25 2.93   7 2.99  19 3.07

   2  0.002  0.994  0.336-  29 1.67  28 1.73   8 2.78  11 2.84  26 2.90  20 2.93  14 2.98   5 2.99

[...]

  28  0.983  0.993  0.169-   2 1.73   1 1.74
  29  0.003  0.002  0.498-   2 1.67   3 1.68
  30  0.001  1.000  0.841-   1 1.66   3 1.86
  31  0.986  0.341  0.173-   5 1.66   4 1.81
  32  0.009  0.334  0.490-   5 1.63   6 1.88
  33  0.009  0.327  0.826-   6 1.60   4 1.80
  34  0.992  0.664  0.168-   7 1.72   8 1.74
  35  0.005  0.670  0.507-   9 1.68   8 1.76
  36  0.983  0.663  0.833-   9 1.71   7 1.75
  37  0.337  0.990  0.163-  10 1.70  11 1.80
  38  0.338  0.009  0.495-  11 1.65  12 1.81
  39  0.325  0.001  0.832-  12 1.68  10 1.73
  40  0.330  0.332  0.169-  14 1.70  13 1.79
  41  0.339  0.334  0.504-  15 1.67  14 1.76
  42  0.337  0.327  0.824-  15 1.65  13 1.77
  43  0.320  0.656  0.158-  16 1.71  17 1.77
  44  0.336  0.663  0.505-  18 1.65  17 1.83
  45  0.325  0.668  0.837-  16 1.62  18 1.77
  46  0.670  0.995  0.174-  20 1.68  19 1.75
  47  0.670  0.998  0.502-  20 1.71  21 1.78
  48  0.660  0.988  0.833-  21 1.64  19 1.78
  49  0.678  0.333  0.161-  22 1.67  23 1.83
  50  0.671  0.339  0.509-  24 1.65  23 1.77
  51  0.666  0.326  0.829-  24 1.66  22 1.76
  52  0.664  0.674  0.170-  26 1.59  25 1.67
  53  0.675  0.679  0.499-  27 1.80  26 1.81
  54  0.674  0.671  0.832-  27 1.65  25 1.82

  LATTYP: Found a hexagonal cell.
 ALAT       =     8.7745200035
 C/A-ratio  =     1.1769065426

  Lattice vectors:

 A1 = (   8.7745200000,   0.0000000000,   0.0000000000)
 A2 = (  -4.3872600000,   7.5989572300,   0.0000000000)
 A3 = (   0.0000000000,   0.0000000000,  10.3267900000)

Analysis of symmetry for initial positions (statically):
 Subroutine PRICEL returns:
 Original cell was already a primitive cell.

 Routine SETGRP: Setting up the symmetry group for a
 hexagonal supercell.

 Subroutine GETGRP returns: Found  1 space group operations
 (whereof  1 operations were pure point group operations)
 out of a pool of 24 trial point group operations.

The static configuration has the point symmetry C_1 .

Analysis of symmetry for dynamics (positions and initial velocities):
 Subroutine PRICEL returns:
 Original cell was already a primitive cell.

[...]

The dynamic configuration has the point symmetry C_1 .

Analysis of structural, dynamic, and magnetic symmetry:
 Subroutine PRICEL returns:
 Original cell was already a primitive cell.

 Routine SETGRP: Setting up the symmetry group for a
 hexagonal supercell.

 Subroutine GETGRP returns: Found  1 space group operations
 (whereof  1 operations were pure point group operations)
 out of a pool of 24 trial point group operations.

The magnetic configuration has the point symmetry C_1 .

 Subroutine INISYM returns: Found  1 space group operations
 (whereof  1 operations are pure point group operations),
 and found     1 'primitive' translations

 KPOINTS: Automatic mesh

Automatic generation of k-mesh.
Space group operators:
 irot       det(A)        alpha          n_x          n_y          n_z        tau_x        tau_y        tau_z
    1     1.000000     0.000000     1.000000     0.000000     0.000000     0.000000     0.000000     0.000000

 Subroutine IBZKPT returns following result:

 Found     26 irreducible k-points:

 Following reciprocal coordinates:
            Coordinates               Weight
  0.000000  0.000000  0.000000      1.000000
  0.250000  0.000000  0.000000      2.000000
  0.500000  0.000000  0.000000      1.000000
  0.000000  0.250000  0.000000      2.000000
  0.250000  0.250000  0.000000      2.000000
  0.500000  0.250000  0.000000      2.000000
 -0.250000  0.250000  0.000000      2.000000
  0.000000  0.500000  0.000000      1.000000
  0.250000  0.500000  0.000000      2.000000
  0.500000  0.500000  0.000000      1.000000
  0.000000  0.000000  0.333333      2.000000
  0.250000  0.000000  0.333333      2.000000
  0.500000  0.000000  0.333333      2.000000
 -0.250000 -0.000000  0.333333      2.000000
  0.000000  0.250000  0.333333      2.000000
  0.250000  0.250000  0.333333      2.000000
  0.500000  0.250000  0.333333      2.000000
 -0.250000  0.250000  0.333333      2.000000
  0.000000  0.500000  0.333333      2.000000
  0.250000  0.500000  0.333333      2.000000
  0.500000  0.500000  0.333333      2.000000
 -0.250000  0.500000  0.333333      2.000000
  0.000000 -0.250000  0.333333      2.000000
  0.250000 -0.250000  0.333333      2.000000
  0.500000 -0.250000  0.333333      2.000000
 -0.250000 -0.250000  0.333333      2.000000

 Following cartesian coordinates:
            Coordinates               Weight
  0.000000  0.000000  0.000000      1.000000
  0.028492  0.016450  0.000000      2.000000
  0.056983  0.032899  0.000000      1.000000
  0.000000  0.032899  0.000000      2.000000
  0.028492  0.049349  0.000000      2.000000
  0.056983  0.065799  0.000000      2.000000
 -0.028492  0.016450  0.000000      2.000000
  0.000000  0.065799  0.000000      1.000000
  0.028492  0.082248  0.000000      2.000000
  0.056983  0.098698  0.000000      1.000000
  0.000000  0.000000  0.032279      2.000000
  0.028492  0.016450  0.032279      2.000000
  0.056983  0.032899  0.032279      2.000000
 -0.028492 -0.016450  0.032279      2.000000
  0.000000  0.032899  0.032279      2.000000
  0.028492  0.049349  0.032279      2.000000
  0.056983  0.065799  0.032279      2.000000
 -0.028492  0.016450  0.032279      2.000000
  0.000000  0.065799  0.032279      2.000000
  0.028492  0.082248  0.032279      2.000000
  0.056983  0.098698  0.032279      2.000000
 -0.028492  0.049349  0.032279      2.000000
  0.000000 -0.032899  0.032279      2.000000
  0.028492 -0.016450  0.032279      2.000000
  0.056983  0.000000  0.032279      2.000000
 -0.028492 -0.049349  0.032279      2.000000

 SYSTEM =  unknown system
 POSCAR =  NiO_Cmmm_scale_1_000_disp_0_05_round_2

 Startparameter for this run:
   NWRITE =      1    write-flag & timer
   PREC   = accura    normal or accurate (medium, high low for compatibility)
   ISTART =      0    job   : 0-new  1-cont  2-samecut
   ICHARG =      2    charge: 1-file 2-atom 10-const
   ISPIN  =      2    spin polarized calculation?
   LNONCOLLINEAR =      F non collinear calculations
   LSORBIT =      F    spin-orbit coupling
   INIWAV =      1    electr: 0-lowe 1-rand  2-diag
   LASPH  =      F    aspherical Exc in radial PAW
   METAGGA=      F    non-selfconsistent MetaGGA calc.

 Electronic Relaxation 1
   ENCUT  =  500.0 eV  36.75 Ry    6.06 a.u.  16.00 16.00 18.83*2*pi/ulx,y,z
   ENINI  =  500.0     initial cutoff
   ENAUG  =  605.4 eV  augmentation charge cutoff
   NELM   =     80;   NELMIN=  2; NELMDL= -5     # of ELM steps
   EDIFF  = 0.1E-04   stopping-criterion for ELM
   LREAL  =      T    real-space projection
   NLSPLINE    = F    spline interpolate recip. space projectors
   LCOMPAT=      F    compatible to vasp.4.4
   GGA_COMPAT  = T    GGA compatible to vasp.4.4-vasp.4.6
   LMAXPAW     = -100 max onsite density
   LMAXMIX     =    2 max onsite mixed and CHGCAR
   VOSKOWN=      1    Vosko Wilk Nusair interpolation
   ROPT   =   -0.00025  -0.00025
 Ionic relaxation
   EDIFFG = 0.1E-03   stopping-criterion for IOM
   NSW    =      0    number of steps for IOM
   NBLOCK =      1;   KBLOCK =      1    inner block; outer block
   IBRION =     -1    ionic relax: 0-MD 1-quasi-New 2-CG
   NFREE  =      0    steps in history (QN), initial steepest desc. (CG)
   ISIF   =      2    stress and relaxation
   IWAVPR =     10    prediction:  0-non 1-charg 2-wave 3-comb
   ISYM   =      2    0-nonsym 1-usesym 2-fastsym
   LCORR  =      T    Harris-Foulkes like correction to forces

   POTIM  = 0.5000    time-step for ionic-motion
   TEIN   =    0.0    initial temperature
   TEBEG  =    0.0;   TEEND  =   0.0 temperature during run
   SMASS  =  -3.00    Nose mass-parameter (am)
   estimated Nose-frequenzy (Omega)   =  0.10E-29 period in steps =****** mass=  -0.176E-26a.u.
   SCALEE = 1.0000    scale energy and forces
   NPACO  =    256;   APACO  = 16.0  distance and # of slots for P.C.
   PSTRESS=    0.0 pullay stress

  Mass of Ions in am
   POMASS =  58.69 16.00
  Ionic Valenz
   ZVAL   =  10.00  6.00
  Atomic Wigner-Seitz radii
  virtual crystal weights
   VCA    =   1.00  1.00
   NELECT =     432.0000    total number of electrons
   NUPDOWN=      -1.0000    fix difference up-down

 DOS related values:
   EMIN   =  10.00;   EMAX   =-10.00  energy-range for DOS
   EFERMI =   0.00
   ISMEAR =     0;   SIGMA  =   0.05  broadening in eV -4-tet -1-fermi 0-gaus

 Electronic relaxation 2 (details)
   IALGO  =     38    algorithm
   LDIAG  =      T    sub-space diagonalisation (order eigenvalues)
   LSUBROT=      F    optimize rotation matrix (better conditioning)
   TURBO    =      0    0=normal 1=particle mesh
   IRESTART =      0    0=no restart 2=restart with 2 vectors
   NREBOOT  =      0    no. of reboots
   NMIN     =      0    reboot dimension
   EREF     =   0.00    reference energy to select bands
   IMIX   =      4    mixing-type and parameters
[...]
   -.148E+02 -.826E+01 -.590E+02   0.129E+02 0.880E+01 0.608E+02   0.214E-01 0.956E-01 0.851E+00   0.200E+01 -.515E+00 -.366E+00
   -.619E+01 0.250E+02 -.749E+01   0.578E+01 -.254E+02 0.940E+01   0.589E-01 -.135E+00 -.945E+00   0.103E+00 0.609E+00 -.119E+01
   -.451E+01 0.462E+01 0.508E+01   0.399E+01 -.547E+01 -.628E+01   -.317E-02 0.496E-02 -.380E+00   0.472E+00 0.102E+01 0.651E+00
   0.231E+02 -.832E+01 0.100E+03   -.228E+02 0.677E+01 -.104E+03   -.632E-01 0.640E-01 -.432E+00   -.261E-01 0.151E+01 0.600E+00
   -.217E+02 -.138E+02 0.108E+02   0.213E+02 0.130E+02 -.108E+02   0.884E-01 0.774E-01 0.191E-01   -.263E+00 0.724E+00 -.291E+00
   -.145E+02 0.251E+02 -.147E+02   0.140E+02 -.261E+02 0.137E+02   -.651E-01 -.148E+00 0.690E-01   0.528E+00 0.116E+01 0.108E+01
   -.248E+02 -.283E+01 -.704E+01   0.243E+02 0.245E+01 0.850E+01   -.143E+00 -.957E-01 -.931E-01   0.346E+00 0.326E+00 -.881E+00
   0.242E+02 -.949E+01 -.639E+01   -.238E+02 0.989E+01 0.606E+01   -.238E+00 -.312E+00 -.567E+00   -.268E+00 -.382E+00 0.396E+00
   -.579E+01 -.718E+01 0.584E+02   0.695E+01 0.760E+01 -.612E+02   0.951E-01 -.768E-01 -.317E+00   -.903E+00 -.567E+00 0.672E+00
   0.324E+01 0.284E+01 0.505E+02   -.236E+01 -.274E+01 -.504E+02   -.151E+00 0.958E-01 -.924E+00   -.111E+01 -.330E+00 -.101E+01
   -.172E+02 -.658E+01 -.235E+02   0.163E+02 0.640E+01 0.238E+02   0.193E+00 -.110E-02 -.944E-01   0.782E+00 0.872E-01 0.169E+00
   0.123E+02 -.640E+01 -.396E+01   -.125E+02 0.710E+01 0.408E+01   -.360E+00 -.707E-01 0.499E+00   0.612E+00 -.737E+00 0.646E-01
   0.196E+02 0.530E+01 0.110E+02   -.202E+02 -.466E+01 -.112E+02   0.176E+00 -.340E+00 0.158E+00   0.655E+00 -.416E+00 -.271E+00
   -.118E+02 0.858E+01 -.353E+02   0.120E+02 -.920E+01 0.378E+02   -.503E+00 -.661E-01 0.826E-01   -.119E+00 0.466E+00 0.880E-01
   0.327E+01 -.161E+01 -.257E+02   -.202E+01 0.956E+00 0.255E+02   0.461E-02 -.136E+00 0.666E+00   -.112E+01 0.473E+00 0.247E+00
   0.624E+01 0.371E+01 -.241E+02   -.501E+01 -.338E+01 0.254E+02   -.462E-01 -.635E-01 0.934E+00   -.142E+01 -.178E+00 -.275E+00
   -.147E+02 -.286E+02 0.100E+02   0.155E+02 0.293E+02 -.103E+02   0.119E+00 0.574E-01 -.580E+00   -.681E+00 -.770E+00 0.331E+00
   0.283E+02 -.185E+02 -.232E+02   -.276E+02 0.189E+02 0.243E+02   0.321E+00 0.682E-01 -.580E+00   -.106E+01 -.518E+00 -.144E+00
   -.279E+01 -.107E+02 0.572E+02   0.374E+01 0.107E+02 -.596E+02   0.201E+00 -.547E-01 -.492E-01   -.106E+01 0.134E+00 -.202E+00
   0.206E+02 -.116E+02 0.244E+02   -.198E+02 0.109E+02 -.249E+02   -.288E-01 0.122E+00 -.532E+00   -.826E+00 0.481E+00 -.314E+00
   -.138E+01 0.952E+01 0.157E+02   0.247E+01 -.938E+01 -.163E+02   0.315E+00 -.295E-01 -.245E+00   -.103E+01 0.123E+00 0.340E+00
   -.737E+01 -.121E+02 0.840E+01   0.808E+01 0.112E+02 -.800E+01   0.179E-01 0.473E-01 -.143E+00   -.615E+00 0.709E+00 -.579E-01
   -.174E+02 0.370E+02 0.602E+02   0.167E+02 -.366E+02 -.625E+02   0.160E+00 0.308E-01 0.148E+00   0.347E+00 -.339E+00 -.166E+00
   0.172E+01 0.458E+02 -.898E+02   -.233E+01 -.453E+02 0.955E+02   -.150E+00 0.341E+00 -.987E+00   0.691E+00 -.594E+00 0.292E-01
   -.177E+01 0.192E+02 0.543E+02   0.615E+00 -.176E+02 -.567E+02   0.668E-01 0.741E-01 -.258E+00   0.102E+01 -.122E+01 0.803E-01
   0.726E+01 -.188E+02 0.138E+02   -.112E+02 0.187E+02 -.149E+02   0.395E+01 0.675E+00 0.372E+00   0.852E+00 -.402E+00 0.486E+00
   -.705E+01 -.221E+02 -.119E+02   0.569E+01 0.239E+02 0.132E+02   0.186E+00 -.152E+01 -.353E+00   0.128E+01 -.370E+00 -.687E+00
   -.109E+01 -.201E+01 0.577E+02   0.317E+00 0.223E+01 -.654E+02   0.758E-01 0.873E-01 0.511E+01   0.706E+00 -.363E+00 0.919E-01
   0.114E+02 0.271E+01 0.439E+02   -.152E+02 -.204E+01 -.502E+02   0.426E+01 -.135E+01 0.369E+01   0.120E+00 0.430E+00 0.515E+00
   -.799E+01 -.997E+01 -.731E+02   0.969E+01 0.991E+01 0.825E+02   -.237E+01 -.906E+00 -.620E+01   0.291E+00 0.766E+00 0.235E+00
   -.111E+02 0.483E+01 -.654E+02   0.139E+02 -.589E+01 0.751E+02   -.308E+01 0.554E+00 -.489E+01   0.115E+00 0.602E+00 -.862E+00
   0.230E+01 -.296E+01 -.320E+01   -.302E+01 0.163E+01 0.253E+01   0.115E+01 0.751E+00 -.162E+00   -.103E+00 0.691E+00 0.106E+01
   -.736E+01 0.218E+02 0.261E+02   0.718E+01 -.237E+02 -.297E+02   0.109E+00 0.160E+01 0.205E+01   0.228E+00 0.482E+00 0.295E+00
   0.187E+02 0.290E+01 -.129E+02   -.227E+02 -.317E+01 0.156E+02   0.488E+01 0.165E+00 -.810E+00   0.538E-01 0.171E+00 -.133E+01
   0.158E+01 0.880E+01 -.337E+02   -.172E-01 -.110E+02 0.365E+02   -.152E+01 0.285E+01 -.242E+01   -.422E+00 -.170E+00 0.100E+01
   -.479E+01 -.460E+01 -.504E+02   0.536E+01 0.609E+01 0.580E+02   0.267E+00 -.124E+01 -.445E+01   -.607E+00 -.364E+00 -.588E+00
   0.349E+02 0.124E+02 -.120E+02   -.381E+02 -.129E+02 0.143E+02   0.400E+01 0.932E+00 -.999E+00   -.290E+00 -.208E+00 -.615E+00
   0.445E+00 0.104E+02 0.267E+02   -.120E+01 -.106E+02 -.312E+02   0.303E+00 0.463E+00 0.228E+01   0.507E+00 -.226E+00 0.111E+01
   -.293E+01 0.590E+01 0.349E+02   0.339E+01 -.634E+01 -.386E+02   -.111E+01 0.107E+01 0.217E+01   0.443E+00 -.396E+00 0.656E-01
   -.166E+02 0.100E+02 -.444E+02   0.182E+02 -.119E+02 0.504E+02   -.249E+01 0.228E+01 -.301E+01   0.428E+00 -.358E-01 -.118E+01
   0.137E+02 0.166E+02 -.313E+02   -.154E+02 -.188E+02 0.334E+02   0.218E+01 0.214E+01 -.171E+01   -.155E+00 0.432E+00 0.378E+00
   -.486E+01 0.284E+01 0.629E+02   0.687E+01 -.361E+01 -.695E+02   -.134E+01 0.856E+00 0.441E+01   -.859E+00 0.136E+00 -.415E+00
   0.245E+02 0.149E+01 0.536E+02   -.266E+02 -.821E+00 -.610E+02   0.299E+01 -.705E+00 0.409E+01   -.476E+00 -.158E-01 0.887E-01
   -.199E+01 -.236E+02 0.190E+02   0.412E+01 0.255E+02 -.213E+02   -.193E+01 -.150E+01 0.181E+01   -.494E+00 -.482E+00 -.308E+00
   0.829E+01 -.133E+02 -.126E+02   -.742E+01 0.136E+02 0.151E+02   -.326E+00 -.137E+00 -.130E+01   -.719E+00 -.134E+00 -.459E+00
   -.144E+02 -.495E+01 -.517E+02   0.156E+02 0.413E+01 0.571E+02   -.994E+00 0.117E+01 -.369E+01   -.433E+00 -.214E+00 0.834E+00
   0.760E+01 -.301E+01 -.525E+02   -.475E+01 0.369E+01 0.586E+02   -.273E+01 -.102E+01 -.417E+01   -.705E+00 0.213E+00 0.129E-01
   -.168E+02 -.109E+02 0.527E+02   0.180E+02 0.117E+02 -.588E+02   -.944E+00 -.124E+01 0.340E+01   -.452E+00 0.304E+00 0.605E+00
   0.320E+01 -.185E+01 -.422E+02   -.344E+01 0.103E+01 0.472E+02   0.674E+00 0.500E+00 -.256E+01   -.321E+00 0.446E+00 -.605E+00
   0.148E+02 0.173E+02 0.348E+02   -.168E+02 -.158E+02 -.383E+02   0.183E+01 -.157E+01 0.215E+01   0.244E+00 -.253E+00 -.115E+01
   0.372E+01 0.221E+00 0.476E+00   -.477E+01 0.230E+01 -.525E+00   0.576E+00 -.274E+01 0.511E-01   0.594E+00 -.514E+00 0.341E-01
   -.341E+01 0.335E+01 -.586E+02   0.383E+01 -.160E+01 0.645E+02   -.100E+01 -.154E+01 -.426E+01   0.450E+00 -.511E+00 0.924E+00
   -.731E+01 0.230E-01 0.128E+02   -.271E-13 -.159E-12 -.568E-13   0.711E+01 0.209E+00 -.123E+02   0.227E+00 -.243E+00 -.460E+00

 POSITION                                       TOTAL-FORCE (eV/Angst)
      0.04419      0.00979      0.01788        -0.463972     -0.006887      1.405024
     -4.34029      7.55003      3.46738        -0.294652     -0.036955     -1.017948
      4.34766      7.55684      6.82059         0.073346      0.125334      2.287131
     -1.40985      2.55328     10.31836        -0.249259      0.028542     -0.222693
      7.29995      2.52646      3.43678        -0.046981      0.172711     -0.924347
      7.26784      2.47773      6.93120         0.227705      0.020145     -4.134721
      5.87602      4.98844      0.01648        -0.615425     -0.005483     -0.243196
     -2.95497      5.14323      3.47458        -0.011811     -0.006089      0.163893
     -2.86463      5.13359      6.90923        -0.393641     -0.153191      0.493141
      2.96767      0.07406     10.31581        -0.068598     -0.293181     -0.495254
      2.88338      0.00570      3.46862         0.349509     -0.226149     -2.493584
      3.02954      0.01797      6.91911        -0.382503     -0.126335     -1.870881
      1.41967      2.50730     10.27868         0.054436     -0.102112      0.408751
      1.49473      2.55733      3.44414         0.069232     -0.098777      0.688562
      1.44193      2.60533      6.86433         0.266270     -0.111675     -0.303347
      0.05473      5.04932     10.25470        -0.370637     -0.220504      2.609548
     -0.05285      5.09371      3.39473         0.134437     -0.314681      0.710935
      0.01089      5.04635      6.87313        -0.241432      0.095395      1.990258
      1.36435      7.50636      0.05459         0.162540      0.009188     -0.550238
      1.50006      7.53221      3.47606        -0.035977      0.046019      0.455284
      1.47693      7.57545      6.96486         0.094615      0.040206     -2.590998
      4.46419      2.48138     10.32150        -0.046779     -0.118378     -1.387058
      4.31158      2.50497      3.48431         0.379089      0.226918     -0.526591
      4.40421      2.53841      6.90199         0.117044     -0.191863      0.196824
      2.92592      5.09572      0.09136        -0.204064      0.100186     -2.256714
      2.95535      5.06214      3.34517        -0.074686      0.205158      4.757672
      2.94877      5.03024      6.94643        -0.068588      0.519096     -2.635872
      4.27010      7.54472      1.74915         0.860185      0.221035     -0.308657
      0.02032      0.01617      5.13872         0.100282     -0.132509      0.260289
     -4.37497      7.59675      8.68401         0.007141     -0.053564     -2.480829
      7.15263      2.58897      1.78780         0.568474     -0.246905     -2.117489
     -1.38460      2.53940      5.06005        -0.381623     -0.198334      3.411405
     -1.35941      2.48621      8.52497        -0.143565      0.100313      3.905891
      5.79284      5.04907      1.73721         0.320378      0.113247      0.228942
     -2.89519      5.08790      5.23128         0.149183      0.158543     -1.234918
      5.71445      5.03824      8.60570         0.874734      0.061507      0.533641
     -1.38728      7.52484      1.67836        -0.388283      0.467359      1.435375
      2.93260      0.06507      5.11365         0.229645     -0.109055      2.564288
      2.85052      0.00494      8.59421         0.516184      0.195461      0.763408
      1.43828      2.52099      1.74415         0.057801      0.040065     -1.118626
      1.51188      2.54014      5.20091        -0.211067      0.236048     -1.414936
      1.51985      2.48601      8.51055        -0.379581      0.317139      1.840005
     -0.07088      4.98452      1.63040         0.419304      0.412165      0.769136
      0.04286      5.03939      5.21968        -0.194482      0.219477     -2.569990
     -0.07886      5.07429      8.64506         0.425608     -0.056044     -3.259600
      1.50918      7.56337      1.79332        -0.290187     -0.098257     -0.812120
      1.50400      7.58070      5.18823        -0.168705      0.064081      0.725086
      1.45477      7.50965      8.60004        -0.188048      0.131664      2.602826
      4.48780      2.53352      1.66669        -0.579483     -0.125261      1.930638
      4.39988      2.57422      5.25451        -0.187984     -0.129007     -2.089827
      4.40976      2.47722      8.55946         0.113171      0.126608      1.865447
      2.87053      5.11892      1.75852         0.125244     -0.257223     -2.529199
      2.94193      5.15914      5.14863         0.118377     -0.728136      0.035421
      2.96687      5.10220      8.59662        -0.131920     -0.307055      2.550810
    total drift:                                0.021992     -0.010651      0.002057

  FREE ENERGIE OF THE ION-ELECTRON SYSTEM (eV)
  free  energy   TOTEN  =      -315.9513638631 eV

  energy  without entropy=     -315.8899598840  energy(sigma->0) =     -315.92066187

volume of typ            1:    25.0 %

volume of typ            2:     6.4 %

total charge

# of ion       s       p       d       tot
    1        0.291   0.296   7.906   8.493
    2        0.288   0.298   7.902   8.489
    3        0.259   0.241   7.934   8.434
    4        0.243   0.217   7.950   8.411
    5        0.320   0.353   7.907   8.580
    6        0.284   0.281   7.930   8.496
    7        0.270   0.263   7.912   8.446
    8        0.265   0.256   7.878   8.400
    9        0.288   0.299   7.865   8.453
   10        0.283   0.288   7.904   8.474
   11        0.284   0.287   7.882   8.453
   12        0.266   0.259   7.902   8.426
   13        0.254   0.233   7.940   8.427
   14        0.276   0.272   7.893   8.441
   15        0.307   0.334   7.890   8.531
   16        0.311   0.339   7.899   8.549
   17        0.245   0.220   7.897   8.362
   18        0.284   0.288   7.914   8.487
   19        0.258   0.244   7.925   8.427
   20        0.289   0.296   7.924   8.508
   21        0.291   0.298   7.943   8.532
   22        0.283   0.283   7.905   8.471
   23        0.243   0.219   7.923   8.385
   24        0.313   0.341   7.895   8.549
   25        0.267   0.258   7.909   8.433
   26        0.298   0.311   7.950   8.559
   27        0.282   0.283   7.915   8.480
   28        1.269   2.735   0.008   4.013
   29        1.272   2.762   0.011   4.045
   30        1.272   2.734   0.008   4.014
   31        1.271   2.772   0.009   4.051
   32        1.269   2.770   0.008   4.048
   33        1.273   2.754   0.011   4.038
   34        1.269   2.742   0.008   4.019
   35        1.269   2.743   0.009   4.021
   36        1.269   2.751   0.008   4.028
   37        1.270   2.733   0.008   4.011
   38        1.271   2.734   0.009   4.014
   39        1.271   2.754   0.010   4.034
   40        1.268   2.731   0.008   4.007
   41        1.270   2.755   0.009   4.034
   42        1.270   2.754   0.009   4.033
   43        1.270   2.737   0.008   4.015
   44        1.272   2.736   0.009   4.016
   45        1.271   2.763   0.011   4.045
   46        1.269   2.760   0.009   4.039
   47        1.267   2.757   0.007   4.032
   48        1.270   2.769   0.010   4.049
   49        1.271   2.733   0.008   4.012
   50        1.271   2.750   0.010   4.031
   51        1.270   2.751   0.009   4.030
   52        1.274   2.788   0.015   4.077
   53        1.268   2.717   0.005   3.991
   54        1.270   2.744   0.009   4.023
tot          41.84   81.79  213.84  337.46

magnetization (x)

# of ion       s       p       d       tot
    1        0.004  -0.000   0.081   0.084
    2        0.002  -0.001   0.049   0.050
    3        0.001  -0.001   0.016   0.016
    4        0.000  -0.001   0.224   0.223
    5        0.018  -0.004   0.914   0.928
    6        0.005  -0.000   0.418   0.423
    7        0.005  -0.001   0.593   0.597
    8        0.004  -0.002   0.582   0.585
    9        0.006  -0.001   0.585   0.590
   10        0.004  -0.002   0.353   0.354
   11        0.001  -0.001   0.078   0.077
   12       -0.000  -0.001   0.077   0.076
   13        0.003  -0.001   0.395   0.397
   14        0.005  -0.001   0.523   0.527
   15       -0.008   0.002  -0.550  -0.556
   16       -0.004   0.001  -0.347  -0.350
   17        0.003  -0.002   0.276   0.277
   18        0.003  -0.001   0.295   0.298
   19        0.002  -0.000   0.549   0.550
   20        0.008  -0.002   0.716   0.723
   21        0.007  -0.002   0.735   0.741
   22        0.005  -0.001   0.342   0.346
   23        0.001  -0.001   0.116   0.116
   24       -0.000   0.000  -0.190  -0.190
   25       -0.003  -0.001  -0.203  -0.207
   26       -0.002  -0.002  -0.225  -0.229
   27        0.012  -0.002   0.710   0.720
   28       -0.000  -0.000   0.000  -0.001
   29       -0.000  -0.006  -0.000  -0.006
   30       -0.000   0.009  -0.000   0.008
   31        0.008   0.242   0.000   0.251
   32        0.008   0.277   0.000   0.285
   33        0.003   0.149   0.000   0.152
   34        0.008   0.267   0.000   0.275
   35        0.007   0.232   0.000   0.239
   36        0.007   0.212   0.000   0.219
   37        0.003   0.100   0.000   0.103
   38        0.000  -0.002   0.000  -0.001
   39        0.003   0.102  -0.000   0.105
   40        0.007   0.280  -0.000   0.287
   41       -0.002  -0.087  -0.000  -0.089
   42       -0.002  -0.103  -0.000  -0.106
   43       -0.002  -0.077   0.000  -0.079
   44        0.003   0.165  -0.000   0.168
   45       -0.002  -0.070  -0.000  -0.073
   46        0.007   0.263   0.000   0.270
   47        0.007   0.259   0.000   0.267
   48        0.008   0.307   0.000   0.315
   49        0.003   0.131  -0.000   0.134
   50       -0.002  -0.081   0.000  -0.083
   51       -0.000  -0.003  -0.000  -0.004
   52       -0.004  -0.153   0.000  -0.156
   53        0.004   0.134  -0.000   0.138
   54        0.005   0.198   0.000   0.203
tot           0.16    2.72    7.11    9.99