 vasp.5.4.4.18Apr17-6-g9f103f2a35 (build May 12 2020 04:58:55) complex

 MD_VERSION_INFO: Compiled 2020-05-12T11:58:55-UTC in devlin.sd.materialsdesign.
 com:/home/medea2/data/build/wwolf/vasp-gpu5.4.4/13047/x86_64/src/src/build/std
 from svn 13047

 executed on                        Lin64 date 2023.03.24  06:29:16

 INCAR:
 POTCAR:    PAW_PBE Ni 02Aug2007
 POTCAR:    PAW_PBE O 08Apr2002

 POTCAR:    PAW_PBE Ni 02Aug2007

 POTCAR:    PAW_PBE O 08Apr2002

 Optimization of the real space projectors (new method)

 maximal supplied QI-value         = 16.25
 optimisation between [QCUT,QGAM] = [ 11.38, 22.75] = [ 36.24,144.96] Ry
 Optimized for a Real-space Cutoff    1.47 Angstroem

   l    n(q)    QCUT    max X(q) W(low)/X(q) W(high)/X(q)  e(spline)
   2      9    11.376    60.317    0.17E-03    0.16E-04    0.16E-06
   2      9    11.376    55.921    0.17E-03    0.16E-04    0.17E-06
   0     10    11.376    51.690    0.45E-04    0.60E-04    0.21E-06
   0     10    11.376    30.015    0.37E-04    0.55E-04    0.19E-06
   1     10    11.376    18.849    0.83E-04    0.11E-03    0.92E-07
   1     10    11.376    14.624    0.69E-04    0.92E-04    0.82E-07
 Optimization of the real space projectors (new method)

 maximal supplied QI-value         = 24.76
 optimisation between [QCUT,QGAM] = [ 11.39, 22.77] = [ 36.31,145.25] Ry
 Optimized for a Real-space Cutoff    1.10 Angstroem

   l    n(q)    QCUT    max X(q) W(low)/X(q) W(high)/X(q)  e(spline)
   0      7    11.387    20.381    0.22E-03    0.48E-03    0.18E-06
   0      7    11.387    15.268    0.22E-03    0.52E-03    0.19E-06
   1      7    11.387     5.964    0.22E-03    0.73E-03    0.24E-06
   1      7    11.387     5.382    0.19E-03    0.60E-03    0.21E-06

  PAW_PBE Ni 02Aug2007                  :
  PAW_PBE O 08Apr2002                   :

 POSCAR: NiO_Cmmm_scale_0_975_disp_0_15_round_2
  positions in direct lattice
 exchange correlation table for  LEXCH =       14
   RHO(1)=    0.500       N(1)  =     2000
   RHO(2)=  100.500       N(2)  =     4000

 ion  position               nearest neighbor table
   1  0.028  0.002  0.003-  30 1.38  28 1.76  10 2.60   4 2.71  19 2.86  13 2.87   7 2.93
   2  0.976  0.004  0.334-  28 1.66  29 1.85   5 2.61  26 2.62  20 2.62  14 2.80  11 3.03
   3  0.988  0.013  0.681-  29 1.73  30 1.88  27 2.52  21 2.65  15 2.68   6 2.74
   4  0.002  0.304  0.983-  33 1.33  31 2.14  19 2.64   1 2.71   6 2.83  22 2.83   7 2.94  13 2.97

   5  0.006  0.322  0.356-  32 1.60  31 1.70   2 2.61  14 2.72  20 2.86   8 2.88  23 2.95  17 3.04

   6  1.000  0.338  0.704-  33 1.50  32 1.95  24 2.72   3 2.74   9 2.74   4 2.83  15 2.88  21 2.94
                            18 3.03
   7  0.002  0.647  0.993-  36 1.39  34 1.75  22 2.60  16 2.81  10 2.88   1 2.93   4 2.94
   8  0.016  0.664  0.367-  35 1.73  34 2.04  11 2.46  23 2.85   9 2.86   5 2.88  26 2.92  17 2.95

[...]

  20  0.673  0.004  0.292-  46 1.35  47 2.39   2 2.62  17 2.78  26 2.84   5 2.86  19 2.93  23 2.94
                            11 3.03
  21  0.666  0.987  0.683-  48 1.55  47 1.56  18 2.61   3 2.65  27 2.76  12 2.83   6 2.94
  22  0.695  0.346  0.998-  51 1.64  49 1.76   7 2.60  13 2.78   4 2.83  19 2.96  25 3.01  24 3.08

  23  0.674  0.345  0.329-  49 1.65  50 1.96  26 2.85   8 2.85  14 2.92  20 2.94   5 2.95
  24  0.702  0.373  0.693-  51 1.54  50 1.74   9 2.61  27 2.71   6 2.72  15 3.03  22 3.08
  25  0.638  0.664  0.971-  54 1.29  52 2.17  16 2.60  13 2.62  19 2.67  22 3.01
  26  0.687  0.684  0.338-  52 1.62  53 1.74   2 2.62  17 2.73  20 2.84  23 2.85   8 2.92
  27  0.722  0.697  0.663-  53 1.65  54 1.87   3 2.52   9 2.69  24 2.71  21 2.76
  28  0.978  0.959  0.173-   2 1.66   1 1.76
  29  0.017  0.996  0.513-   3 1.73   2 1.85
  30  0.019  0.016  0.866-   1 1.38   3 1.88
  31  0.051  0.362  0.190-   5 1.70   4 2.14
  32  0.041  0.342  0.513-   5 1.60   6 1.95
  33  0.005  0.332  0.852-   4 1.33   6 1.50
  34  0.013  0.677  0.165-   7 1.75   8 2.04
  35  0.035  0.713  0.535-   9 1.24   8 1.73
  36  0.996  0.678  0.857-   7 1.39   9 2.09
  37  0.334  0.975  0.180-  10 1.42  11 1.67
  38  0.328  0.000  0.539-  12 1.71  11 2.00
  39  0.291  0.975  0.875-  10 1.68  12 1.72
  40  0.349  0.347  0.172-  14 1.61  13 1.86
  41  0.328  0.332  0.501-  14 1.73  15 1.97
  42  0.357  0.328  0.833-  15 1.41  13 1.57
  43  0.352  0.672  0.154-  16 1.59  17 1.83
  44  0.297  0.676  0.503-  17 1.79  18 1.88
  45  0.332  0.705  0.860-  16 1.40  18 1.76
  46  0.643  0.968  0.161-  20 1.35  19 1.65
  47  0.664  0.982  0.528-  21 1.56  20 2.39
  48  0.669  0.958  0.834-  21 1.55  19 1.70
  49  0.691  0.308  0.170-  23 1.65  22 1.76
  50  0.712  0.392  0.521-  24 1.74  23 1.96
  51  0.712  0.324  0.838-  24 1.54  22 1.64
  52  0.711  0.686  0.179-  26 1.62  25 2.17
  53  0.673  0.715  0.507-  27 1.65  26 1.74
  54  0.672  0.675  0.845-  25 1.29  27 1.87

  LATTYP: Found a hexagonal cell.
 ALAT       =     8.5551570040
 C/A-ratio  =     1.1769065425

  Lattice vectors:

 A1 = (   8.5551570000,   0.0000000000,   0.0000000000)
 A2 = (  -4.2775785000,   7.4089833000,   0.0000000000)
 A3 = (   0.0000000000,   0.0000000000,  10.0686202500)

Analysis of symmetry for initial positions (statically):
 Subroutine PRICEL returns:
 Original cell was already a primitive cell.

 Routine SETGRP: Setting up the symmetry group for a
 hexagonal supercell.

 Subroutine GETGRP returns: Found  1 space group operations
 (whereof  1 operations were pure point group operations)
 out of a pool of 24 trial point group operations.

The static configuration has the point symmetry C_1 .

Analysis of symmetry for dynamics (positions and initial velocities):
 Subroutine PRICEL returns:
 Original cell was already a primitive cell.

[...]

The dynamic configuration has the point symmetry C_1 .

Analysis of structural, dynamic, and magnetic symmetry:
 Subroutine PRICEL returns:
 Original cell was already a primitive cell.

 Routine SETGRP: Setting up the symmetry group for a
 hexagonal supercell.

 Subroutine GETGRP returns: Found  1 space group operations
 (whereof  1 operations were pure point group operations)
 out of a pool of 24 trial point group operations.

The magnetic configuration has the point symmetry C_1 .

 Subroutine INISYM returns: Found  1 space group operations
 (whereof  1 operations are pure point group operations),
 and found     1 'primitive' translations

 KPOINTS: Automatic mesh

Automatic generation of k-mesh.
Space group operators:
 irot       det(A)        alpha          n_x          n_y          n_z        tau_x        tau_y        tau_z
    1     1.000000     0.000000     1.000000     0.000000     0.000000     0.000000     0.000000     0.000000

 Subroutine IBZKPT returns following result:

 Found     26 irreducible k-points:

 Following reciprocal coordinates:
            Coordinates               Weight
  0.000000  0.000000  0.000000      1.000000
  0.250000  0.000000  0.000000      2.000000
  0.500000  0.000000  0.000000      1.000000
  0.000000  0.250000  0.000000      2.000000
  0.250000  0.250000  0.000000      2.000000
  0.500000  0.250000  0.000000      2.000000
 -0.250000  0.250000  0.000000      2.000000
  0.000000  0.500000  0.000000      1.000000
  0.250000  0.500000  0.000000      2.000000
  0.500000  0.500000  0.000000      1.000000
  0.000000  0.000000  0.333333      2.000000
  0.250000  0.000000  0.333333      2.000000
  0.500000  0.000000  0.333333      2.000000
 -0.250000  0.000000  0.333333      2.000000
  0.000000  0.250000  0.333333      2.000000
  0.250000  0.250000  0.333333      2.000000
  0.500000  0.250000  0.333333      2.000000
 -0.250000  0.250000  0.333333      2.000000
  0.000000  0.500000  0.333333      2.000000
  0.250000  0.500000  0.333333      2.000000
  0.500000  0.500000  0.333333      2.000000
 -0.250000  0.500000  0.333333      2.000000
  0.000000 -0.250000  0.333333      2.000000
  0.250000 -0.250000  0.333333      2.000000
  0.500000 -0.250000  0.333333      2.000000
 -0.250000 -0.250000  0.333333      2.000000

 Following cartesian coordinates:
            Coordinates               Weight
  0.000000  0.000000  0.000000      1.000000
  0.029222  0.016871  0.000000      2.000000
  0.058444  0.033743  0.000000      1.000000
  0.000000  0.033743  0.000000      2.000000
  0.029222  0.050614  0.000000      2.000000
  0.058444  0.067486  0.000000      2.000000
 -0.029222  0.016871  0.000000      2.000000
  0.000000  0.067486  0.000000      1.000000
  0.029222  0.084357  0.000000      2.000000
  0.058444  0.101228  0.000000      1.000000
  0.000000  0.000000  0.033106      2.000000
  0.029222  0.016871  0.033106      2.000000
  0.058444  0.033743  0.033106      2.000000
 -0.029222 -0.016871  0.033106      2.000000
  0.000000  0.033743  0.033106      2.000000
  0.029222  0.050614  0.033106      2.000000
  0.058444  0.067486  0.033106      2.000000
 -0.029222  0.016871  0.033106      2.000000
  0.000000  0.067486  0.033106      2.000000
  0.029222  0.084357  0.033106      2.000000
  0.058444  0.101228  0.033106      2.000000
 -0.029222  0.050614  0.033106      2.000000
  0.000000 -0.033743  0.033106      2.000000
  0.029222 -0.016871  0.033106      2.000000
  0.058444  0.000000  0.033106      2.000000
 -0.029222 -0.050614  0.033106      2.000000

 SYSTEM =  unknown system
 POSCAR =  NiO_Cmmm_scale_0_975_disp_0_15_round_2

 Startparameter for this run:
   NWRITE =      1    write-flag & timer
   PREC   = accura    normal or accurate (medium, high low for compatibility)
   ISTART =      0    job   : 0-new  1-cont  2-samecut
   ICHARG =      2    charge: 1-file 2-atom 10-const
   ISPIN  =      2    spin polarized calculation?
   LNONCOLLINEAR =      F non collinear calculations
   LSORBIT =      F    spin-orbit coupling
   INIWAV =      1    electr: 0-lowe 1-rand  2-diag
   LASPH  =      F    aspherical Exc in radial PAW
   METAGGA=      F    non-selfconsistent MetaGGA calc.

 Electronic Relaxation 1
   ENCUT  =  500.0 eV  36.75 Ry    6.06 a.u.  15.60 15.60 18.36*2*pi/ulx,y,z
   ENINI  =  500.0     initial cutoff
   ENAUG  =  605.4 eV  augmentation charge cutoff
   NELM   =     80;   NELMIN=  2; NELMDL= -5     # of ELM steps
   EDIFF  = 0.1E-04   stopping-criterion for ELM
   LREAL  =      T    real-space projection
   NLSPLINE    = F    spline interpolate recip. space projectors
   LCOMPAT=      F    compatible to vasp.4.4
   GGA_COMPAT  = T    GGA compatible to vasp.4.4-vasp.4.6
   LMAXPAW     = -100 max onsite density
   LMAXMIX     =    2 max onsite mixed and CHGCAR
   VOSKOWN=      1    Vosko Wilk Nusair interpolation
   ROPT   =   -0.00025  -0.00025
 Ionic relaxation
   EDIFFG = 0.1E-03   stopping-criterion for IOM
   NSW    =      0    number of steps for IOM
   NBLOCK =      1;   KBLOCK =      1    inner block; outer block
   IBRION =     -1    ionic relax: 0-MD 1-quasi-New 2-CG
   NFREE  =      0    steps in history (QN), initial steepest desc. (CG)
   ISIF   =      2    stress and relaxation
   IWAVPR =     10    prediction:  0-non 1-charg 2-wave 3-comb
   ISYM   =      2    0-nonsym 1-usesym 2-fastsym
   LCORR  =      T    Harris-Foulkes like correction to forces

   POTIM  = 0.5000    time-step for ionic-motion
[...]
   -.182E+02 -.627E+02 0.524E+02   0.186E+02 0.631E+02 -.543E+02   0.247E+00 -.154E+00 0.292E+01   0.627E-02 -.733E-02 -.107E-01
   -.572E+02 -.122E+02 -.407E+03   0.589E+02 0.765E+01 0.439E+03   0.305E+00 0.971E+00 -.246E+01   0.154E-02 0.135E-01 -.136E-02
   0.119E+03 0.256E+02 0.162E+02   -.120E+03 -.263E+02 -.197E+02   0.727E+00 0.927E+00 0.414E+00   0.365E-02 0.107E-01 0.480E-02
   -.145E+02 -.111E+02 0.285E+03   0.151E+02 0.113E+02 -.298E+03   0.188E-01 0.128E+00 0.312E+01   0.465E-02 0.834E-02 -.384E-02
   0.991E+00 0.114E+03 -.241E+03   0.553E+00 -.118E+03 0.262E+03   -.161E+00 0.131E+01 -.216E+01   -.673E-02 -.923E-02 -.274E-02
   0.448E+02 0.136E+03 0.140E+03   -.451E+02 -.135E+03 -.145E+03   0.620E-01 -.408E+00 0.249E+01   -.162E-02 0.848E-02 0.179E-01
   -.203E+02 0.141E+03 -.255E+03   0.226E+02 -.156E+03 0.303E+03   -.415E+00 0.127E+01 -.182E+01   0.239E-02 0.150E-01 -.281E-01
   -.354E+02 -.156E+03 0.328E+02   0.338E+02 0.158E+03 -.498E+02   -.213E+00 -.742E+00 0.227E+01   -.141E-01 0.402E-03 0.452E-02
   -.313E+02 -.165E+03 -.147E+03   0.316E+02 0.165E+03 0.149E+03   0.300E+00 0.553E+00 -.239E-01   -.178E-01 -.118E-01 0.166E-01
   -.673E+02 -.171E+03 0.862E+02   0.666E+02 0.171E+03 -.875E+02   -.283E-01 0.116E+00 0.317E+00   -.118E-01 -.114E-01 -.171E-01
   -.260E+02 -.253E+02 -.190E+03   0.265E+02 0.258E+02 0.198E+03   -.553E+00 0.697E-01 -.210E+01   -.166E-02 0.305E-02 0.484E-02
   -.108E+03 0.231E+02 -.855E+02   0.109E+03 -.230E+02 0.893E+02   -.288E+00 0.414E+00 -.331E+00   0.286E-03 -.227E-02 0.282E-02
   -.379E+02 -.660E+02 0.337E+03   0.351E+02 0.640E+02 -.358E+03   0.518E+00 0.599E+00 0.210E+01   -.640E-02 -.324E-02 -.866E-02
   -.233E+02 0.126E+03 -.146E+03   0.266E+02 -.127E+03 0.164E+03   -.141E+01 0.707E-01 -.278E+01   -.739E-02 -.184E-01 0.725E-02
   -.820E+02 0.704E+02 -.544E+02   0.808E+02 -.696E+02 0.552E+02   0.143E+00 -.435E+00 -.108E+01   -.102E-01 -.863E-02 0.984E-02
   -.144E+03 0.144E+03 0.142E+03   0.142E+03 -.144E+03 -.145E+03   0.659E+00 -.431E+00 0.166E+01   -.123E-01 -.121E-02 -.172E-01
   0.114E+02 -.125E+03 -.356E+02   -.108E+02 0.125E+03 0.324E+02   -.463E+00 -.996E+00 0.244E+01   0.118E-01 0.761E-02 -.154E-01
   0.511E+02 -.162E+03 -.415E+03   -.487E+02 0.167E+03 0.440E+03   -.370E+00 0.114E+00 0.688E+00   0.498E-02 0.540E-03 0.341E-01
   0.107E+03 -.144E+03 0.151E+03   -.107E+03 0.145E+03 -.155E+03   0.433E+00 -.812E+00 0.137E+01   0.388E-02 -.468E-02 -.137E-01
   0.110E+03 -.556E+01 -.144E+03   -.110E+03 0.535E+01 0.148E+03   0.447E+00 -.259E+00 -.103E+01   0.300E-02 0.168E-01 0.139E-01
   0.874E+02 0.513E+02 -.157E+03   -.864E+02 -.501E+02 0.158E+03   -.355E+00 -.480E+00 0.153E+01   -.262E-02 0.155E-01 -.536E-02
   0.164E+03 0.974E+02 0.203E+03   -.165E+03 -.955E+02 -.212E+03   0.908E+00 -.541E+00 0.193E+01   0.609E-02 0.132E-01 -.656E-02
   -.545E+01 0.118E+03 -.363E+03   -.238E+00 -.121E+03 0.399E+03   0.800E-02 0.794E+00 0.526E+00   0.154E-01 -.112E-01 0.590E-03
   0.220E+02 0.169E+03 -.757E+02   -.223E+02 -.169E+03 0.772E+02   -.191E+00 0.316E+00 0.914E+00   0.149E-01 -.545E-02 0.386E-02
   0.369E+02 0.152E+03 0.280E+02   -.374E+02 -.152E+03 -.287E+02   0.193E+00 -.530E+00 0.368E+01   0.100E-01 0.686E-02 -.138E-01
   -.238E+02 0.383E+01 -.871E+01   0.255E+02 -.115E+02 0.437E+01   -.111E+01 0.879E+01 0.232E+01   0.649E-02 -.236E-02 0.193E-01
   -.478E+02 -.455E+02 0.712E+02   0.553E+02 0.444E+02 -.752E+02   -.860E+01 0.148E+01 0.286E+01   0.374E-02 -.826E-02 -.118E-01
   0.751E+01 -.177E+02 0.195E+03   -.939E+01 0.204E+02 -.229E+03   -.394E+00 -.139E+01 0.137E+02   0.266E-02 -.651E-03 -.355E-02
   0.417E+01 -.337E+02 0.748E+02   -.942E+00 0.405E+02 -.864E+02   -.410E+01 -.805E+01 0.101E+02   0.696E-03 0.432E-02 0.156E-02
   -.103E+02 0.206E+01 -.691E+02   0.166E+02 0.536E+00 0.814E+02   -.749E+01 -.283E+01 -.797E+01   -.536E-03 0.540E-02 -.193E-02
   -.213E+02 -.676E+02 0.872E+02   0.187E+02 0.759E+02 -.111E+03   0.136E+01 -.443E+01 0.494E+01   0.208E-02 0.302E-02 0.106E-01
   0.176E+02 0.530E+02 -.115E+03   -.193E+02 -.509E+02 0.122E+03   0.209E+01 -.321E+01 -.631E+01   -.404E-02 -.278E-02 0.149E-01
   0.451E+02 -.107E+03 0.254E+03   -.496E+02 0.137E+03 -.312E+03   0.186E+01 -.161E+02 0.138E+02   0.221E-02 -.492E-02 0.663E-02
   0.609E+02 -.273E+02 0.209E+03   -.672E+02 0.360E+02 -.245E+03   0.478E+01 -.696E+01 0.168E+02   0.114E-03 -.149E-02 -.108E-01
   -.330E+02 -.745E+02 -.176E+03   0.387E+02 0.736E+02 0.196E+03   -.442E+01 0.284E+00 -.629E+01   -.108E-01 -.248E-02 0.284E-01
   -.536E+02 -.156E+03 0.131E+03   0.520E+02 0.160E+03 -.140E+03   0.194E+01 -.451E+01 0.791E+01   -.691E-02 -.980E-02 -.764E-02
   -.301E+01 -.620E+02 0.479E+02   -.222E+01 0.603E+02 -.505E+02   0.647E+01 0.246E+01 0.173E+01   -.660E-02 -.302E-02 -.152E-01
   -.398E+02 -.310E+02 0.286E+02   0.395E+02 0.358E+02 -.384E+02   0.857E+00 -.521E+01 0.584E+01   -.352E-04 0.115E-02 0.129E-01
   -.781E+02 -.502E+02 -.499E+02   0.778E+02 0.522E+02 0.569E+02   0.367E+00 -.271E+01 -.604E+01   -.130E-02 -.631E-03 -.495E-02
   -.597E+02 -.619E+02 -.203E+02   0.660E+02 0.656E+02 0.358E+02   -.412E+01 -.215E+01 -.422E+01   -.408E-02 -.654E-03 -.114E-01
   -.823E+01 0.948E+02 -.128E+03   0.846E+01 -.982E+02 0.138E+03   0.614E+00 0.298E+01 -.607E+01   -.423E-02 -.115E-01 0.184E-01
   -.526E+02 0.367E+02 0.276E+01   0.457E+02 -.389E+02 0.274E+00   0.887E+01 0.204E+01 -.289E+01   -.106E-01 0.852E-06 -.925E-02
   0.281E+02 0.499E+02 0.170E+03   -.359E+02 -.462E+02 -.197E+03   0.653E+01 -.348E+01 0.930E+01   -.714E-02 -.595E-02 -.108E-01
   0.419E+02 0.202E+02 0.710E+02   -.500E+02 -.336E+02 -.103E+03   0.662E+01 0.979E+01 0.936E+01   -.215E-03 -.631E-02 0.598E-02
   0.668E+02 -.810E+02 0.238E+03   -.672E+02 0.799E+02 -.261E+03   -.283E-01 0.197E+01 0.177E+02   0.187E-02 -.397E-02 0.484E-02
   0.240E+02 -.710E+01 -.298E+02   -.223E+02 0.348E+00 0.396E+02   -.161E+01 0.775E+01 -.464E+01   0.424E-02 -.232E-02 -.263E-01
   -.551E+01 0.149E+02 -.302E+02   0.112E+02 -.195E+02 0.254E+02   -.656E+01 0.510E+01 0.331E+01   -.404E-02 0.159E-01 0.515E-02
   0.535E+02 0.840E+02 0.116E+03   -.532E+02 -.826E+02 -.122E+03   -.103E+01 -.227E+01 0.494E+01   0.357E-02 0.106E-01 -.208E-01
   0.220E+02 0.103E+03 -.102E+02   -.139E+02 -.112E+03 0.166E+02   -.868E+01 0.821E+01 -.280E+01   0.509E-02 0.496E-02 0.219E-01
   -.289E+02 0.947E+02 0.101E+03   0.346E+02 -.939E+02 -.117E+03   -.645E+01 -.169E+01 0.130E+02   0.867E-02 -.682E-02 0.924E-02
   0.104E+03 0.646E+02 0.520E+02   -.113E+03 -.609E+02 -.547E+02   0.965E+01 -.440E+01 0.379E+00   0.529E-02 -.527E-03 -.413E-02
   -.507E+02 0.590E+02 0.245E+03   0.615E+02 -.552E+02 -.296E+03   -.359E+01 -.196E+01 0.161E+02   0.465E-02 -.169E-02 0.417E-03
   0.569E+01 0.193E+02 -.120E+03   0.291E-12 -.313E-12 -.398E-12   -.569E+01 -.193E+02 0.120E+03   0.701E-02 -.156E-01 0.933E-02

 POSITION                                       TOTAL-FORCE (eV/Angst)
      0.23270      0.01188      0.02610         0.564848     -1.425615     20.176596
      8.32998      0.03167      3.35850         0.646511     -0.001901      2.779191
      8.39382      0.09634      6.85751         0.671196      0.235393      0.976837
     -1.27867      2.24917      9.89280         1.985906     -3.517232     29.386894
     -1.32544      2.38570      3.57943         0.368134      0.184808     -3.052350
      7.10975      2.50173      7.08354         0.593129      0.343884    -10.333114
     -2.75428      4.79514      9.99356         1.375745     -2.271735     19.396464
     -2.70460      4.91643      3.69589        -0.318708      0.474310     -2.088844
     -2.68615      4.88926      6.55958         1.846781    -14.204956     46.128561
     -1.47020      7.33137      0.40449        -1.887968      1.063363    -14.707979
     -1.50004      7.04320      3.46265         0.494949      0.817307      2.489353
     -1.34483      7.27401      7.12283        -0.685864      0.168326     -0.958967
      1.68399      2.48403      9.95104         0.011228      0.502038      6.306483
      1.37723      2.32409      3.31979         0.273502      0.490108      3.467053
      1.42513      2.24786      7.00453        -2.247137     -1.380265    -18.202861
      0.03913      5.13477     10.03719         1.921378     -1.246466     14.870630
      0.22267      4.98940      3.37500        -1.033410      0.360278     -0.303138
     -0.00584      5.16668      6.91099        -1.508148      0.109150     -1.249224
      1.65360      7.39628      0.01149         0.162515     -0.483430     -0.812419
      5.73928      0.02735      2.93643         2.038775      4.295224     25.612284
      1.47477      7.31543      6.87936        -0.055674      0.053008     -2.132957
      4.46544      2.56194     10.05104         0.582955     -0.445214      2.983827
      4.29251      2.55629      3.31444         0.639343      0.736634      3.149446
      4.40866      2.76479      6.97748        -0.073263      1.388325     -7.137657
      2.61385      4.92223      9.77660        -5.668846     -2.190663     36.146277
      2.95110      5.06462      3.40456        -0.485280      0.359586      2.359100
      3.19238      5.16776      6.67715        -0.350197     -0.617926      3.023116
      4.26673      7.10833      1.74287         0.667137      1.108907     -2.003566
     -4.11490      7.38104      5.16559        -1.056477      0.365030     -1.167554
      0.09305      0.12165      8.72231        -2.266372      1.265473    -20.813156
     -1.11761      2.68435      1.91513        -0.871838     -1.255853     -1.462851
     -1.11208      2.53628      5.16277        -1.186012     -0.223465      4.373397
     -1.38048      2.46246      8.58321        -1.308109      3.808307    -19.093841
     -2.79021      5.01883      1.66166         0.382159     -1.130044      0.747994
     -2.75296      5.28577      5.38294        -2.595495     13.508037    -44.701789
      5.62139      5.02206      8.62970        -1.581465      1.815530    -18.910171
     -1.31149      7.22724      1.80925         1.225451     -0.596630     14.576833
      2.80367      0.00301      5.42737         0.388941     -0.291164     -1.276591
     -1.67919      7.22640      8.80879         1.232029      0.767893     -0.810228
      1.50005      2.56800      1.73250         0.575522     -0.461532     -3.926734
      1.38570      2.45649      5.04738         0.125434     -0.771929      0.945064
      1.65380      2.42781      8.38495         2.087665      1.575350     11.267341
      0.13976      4.97795      1.55120         0.829910     -0.410632      4.204668
     -0.34953      5.00698      5.06758         1.983442     -0.120088      0.134121
     -0.17619      5.22207      8.65958        -1.365870      0.220088    -18.148998
      1.36136      7.17555      1.61731        -1.434505     -3.618166    -22.285398
      1.47748      7.27392      5.31760        -0.421510      0.833166     -4.869558
      1.62539      7.09822      8.40166         0.094861      0.995898      5.079646
      4.59706      2.27943      1.71489        -0.858677      0.505090     -1.437888
      4.40966      2.90565      5.24176        -0.776391     -0.799308     -1.426076
      4.70788      2.39887      8.43933        -0.545630     -1.083852      3.687065
      3.15049      5.08320      1.80184        -0.706669     -0.874778     -3.187984
      2.69839      5.29519      5.10551         0.321850     -0.686843     -2.274832
      2.86025      4.99951      8.50991         7.198217      1.759176    -35.491517
    total drift:                                0.007399      0.014519     -0.012073

  FREE ENERGIE OF THE ION-ELECTRON SYSTEM (eV)
  free  energy   TOTEN  =      -280.5706376479 eV

  energy  without entropy=     -280.5116146163  energy(sigma->0) =     -280.54112613

volume of typ            1:    27.0 %

volume of typ            2:     6.9 %

total charge

# of ion       s       p       d       tot
    1        0.403   0.495   8.019   8.916
    2        0.280   0.280   7.923   8.483
    3        0.260   0.242   7.948   8.449
    4        0.402   0.445   8.105   8.951
    5        0.324   0.363   7.905   8.592
    6        0.315   0.331   8.010   8.656
    7        0.398   0.496   7.984   8.878
    8        0.227   0.194   7.986   8.407
    9        0.458   0.546   8.180   9.184
   10        0.396   0.494   8.014   8.905
   11        0.252   0.225   7.962   8.440
   12        0.289   0.300   7.916   8.506
   13        0.301   0.309   7.979   8.588
   14        0.312   0.336   7.896   8.544
   15        0.362   0.389   8.030   8.781
   16        0.437   0.580   8.014   9.031
   17        0.249   0.226   7.918   8.393
   18        0.246   0.222   7.964   8.432
   19        0.293   0.320   7.984   8.596
   20        0.383   0.395   8.108   8.885
   21        0.381   0.484   7.948   8.813
   22        0.283   0.304   7.961   8.548
   23        0.264   0.235   7.925   8.424
   24        0.338   0.379   7.946   8.663
   25        0.438   0.486   8.117   9.041
   26        0.311   0.338   7.917   8.565
   27        0.272   0.269   7.967   8.508
   28        1.276   2.749   0.010   4.036
   29        1.276   2.715   0.007   3.998
   30        1.291   2.842   0.024   4.157
   31        1.280   2.693   0.006   3.979
   32        1.279   2.735   0.009   4.023
   33        1.304   2.941   0.046   4.291
   34        1.275   2.698   0.005   3.978
   35        1.324   2.906   0.046   4.276
   36        1.291   2.832   0.021   4.144
   37        1.287   2.855   0.026   4.168
   38        1.277   2.700   0.006   3.984
   39        1.269   2.785   0.010   4.064
   40        1.270   2.759   0.009   4.039
   41        1.273   2.706   0.005   3.984
   42        1.286   2.891   0.032   4.209
   43        1.275   2.765   0.011   4.051
   44        1.276   2.706   0.006   3.988
   45        1.289   2.857   0.025   4.171
   46        1.299   2.886   0.035   4.221
   47        1.289   2.715   0.010   4.014
   48        1.274   2.827   0.016   4.116
   49        1.272   2.757   0.010   4.039
   50        1.269   2.716   0.005   3.991
   51        1.276   2.834   0.019   4.129
   52        1.283   2.714   0.008   4.005
   53        1.276   2.757   0.011   4.044
   54        1.304   2.884   0.035   4.223
tot          43.52   84.91  216.08  344.51

magnetization (x)

# of ion       s       p       d       tot
    1       -0.008  -0.005  -0.361  -0.375
    2        0.004  -0.002   0.401   0.403
    3        0.004  -0.001   0.229   0.233
    4        0.003   0.011   0.286   0.301
    5        0.004   0.001   0.175   0.180
    6        0.003   0.003   0.213   0.220
    7        0.019   0.004   0.812   0.836
    8        0.001   0.002   0.153   0.157
    9        0.007   0.014   0.312   0.333
   10        0.005   0.005   0.306   0.316
   11        0.002   0.001   0.244   0.247
   12       -0.008   0.002  -0.706  -0.712
   13       -0.006  -0.004  -0.249  -0.259
   14        0.016  -0.004   0.825   0.837
   15       -0.006  -0.010  -0.463  -0.479
   16       -0.002  -0.000  -0.152  -0.153
   17        0.012  -0.001   0.673   0.684
   18        0.003  -0.001   0.110   0.113
   19        0.001   0.003   0.002   0.005
   20        0.009   0.011   0.452   0.472
   21        0.004  -0.003   0.540   0.542
   22       -0.001   0.002  -0.068  -0.067
   23       -0.011  -0.003  -0.631  -0.645
   24        0.008  -0.001   0.641   0.647
   25        0.011   0.023   0.642   0.676
   26       -0.009   0.003  -0.584  -0.591
   27        0.002  -0.001   0.296   0.298
   28        0.000   0.041  -0.000   0.041
   29        0.006   0.238  -0.000   0.244
   30       -0.003  -0.154  -0.001  -0.158
   31        0.001   0.020   0.000   0.021
   32        0.002   0.054   0.000   0.056
   33        0.003   0.128   0.000   0.131
   34        0.005   0.187   0.000   0.192
   35        0.003   0.165   0.001   0.170
   36        0.007   0.281   0.002   0.289
   37        0.004   0.161  -0.000   0.165
   38       -0.008  -0.318  -0.000  -0.326
   39       -0.003  -0.082   0.000  -0.085
   40        0.006   0.212   0.000   0.218
   41        0.006   0.267   0.000   0.274
   42       -0.005  -0.191   0.000  -0.196
   43        0.001   0.016  -0.000   0.017
   44        0.007   0.253   0.000   0.260
   45       -0.002  -0.067  -0.000  -0.069
   46        0.004   0.169   0.001   0.173
   47        0.008   0.349   0.000   0.357
   48        0.001   0.037   0.001   0.039
   49       -0.007  -0.264   0.000  -0.271
   50        0.004   0.171   0.000   0.175
   51        0.005   0.164   0.000   0.169
   52       -0.006  -0.260  -0.000  -0.266
   53       -0.001  -0.044   0.000  -0.045
   54        0.007   0.285   0.002   0.293
tot           0.11    1.87    4.11    6.08