 vasp.5.4.4.18Apr17-6-g9f103f2a35 (build May 12 2020 04:58:55) complex

 MD_VERSION_INFO: Compiled 2020-05-12T11:58:55-UTC in devlin.sd.materialsdesign.
 com:/home/medea2/data/build/wwolf/vasp-gpu5.4.4/13047/x86_64/src/src/build/std
 from svn 13047

 executed on                        Lin64 date 2023.03.24  06:47:41

 INCAR:
 POTCAR:    PAW_PBE Ni 02Aug2007
 POTCAR:    PAW_PBE O 08Apr2002

 POTCAR:    PAW_PBE Ni 02Aug2007

 POTCAR:    PAW_PBE O 08Apr2002

 Optimization of the real space projectors (new method)

 maximal supplied QI-value         = 16.25
 optimisation between [QCUT,QGAM] = [ 11.38, 22.75] = [ 36.24,144.96] Ry
 Optimized for a Real-space Cutoff    1.47 Angstroem

   l    n(q)    QCUT    max X(q) W(low)/X(q) W(high)/X(q)  e(spline)
   2      9    11.376    60.317    0.17E-03    0.16E-04    0.16E-06
   2      9    11.376    55.921    0.17E-03    0.16E-04    0.17E-06
   0     10    11.376    51.690    0.45E-04    0.60E-04    0.21E-06
   0     10    11.376    30.015    0.37E-04    0.55E-04    0.19E-06
   1     10    11.376    18.849    0.83E-04    0.11E-03    0.92E-07
   1     10    11.376    14.624    0.69E-04    0.92E-04    0.82E-07
 Optimization of the real space projectors (new method)

 maximal supplied QI-value         = 24.76
 optimisation between [QCUT,QGAM] = [ 11.39, 22.77] = [ 36.31,145.25] Ry
 Optimized for a Real-space Cutoff    1.10 Angstroem

   l    n(q)    QCUT    max X(q) W(low)/X(q) W(high)/X(q)  e(spline)
   0      7    11.387    20.381    0.22E-03    0.48E-03    0.18E-06
   0      7    11.387    15.268    0.22E-03    0.52E-03    0.19E-06
   1      7    11.387     5.964    0.22E-03    0.73E-03    0.24E-06
   1      7    11.387     5.382    0.19E-03    0.60E-03    0.21E-06

  PAW_PBE Ni 02Aug2007                  :
  PAW_PBE O 08Apr2002                   :

 POSCAR: NiO_Cmmm_scale_0_975_disp_0_15_round_1
  positions in direct lattice
 exchange correlation table for  LEXCH =       14
   RHO(1)=    0.500       N(1)  =     2000
   RHO(2)=  100.500       N(2)  =     4000

 ion  position               nearest neighbor table
   1  0.031  0.014  0.977-  30 1.25  28 1.86   4 2.57  25 2.67  19 2.82  13 2.87   7 2.91  10 2.91
                             3 2.94
   2  0.006  0.002  0.342-  28 1.83  29 1.90  26 2.65  14 2.73  20 2.79   8 2.81  11 2.86   5 2.98

   3  0.993  0.021  0.687-  29 1.58  30 1.75   6 2.56  15 2.61  21 2.67  27 2.75   1 2.94
   4  0.041  0.320  0.971-  33 1.23  31 2.43  13 2.49   1 2.57   6 2.88  19 2.97  16 2.99  22 3.05

   5  0.062  0.376  0.343-  31 1.46  32 1.82  14 2.43  17 2.51   8 2.83   2 2.98
   6  0.015  0.331  0.686-  32 1.67  33 1.75   3 2.56  24 2.60  15 2.75   4 2.88   9 2.92  18 2.92
                            21 3.05
   7  0.029  0.677  0.019-  34 1.50  36 1.55  22 2.81  10 2.81  16 2.82   1 2.91  25 2.96
   8  0.004  0.674  0.330-  34 1.66  35 1.89  26 2.73  11 2.77  17 2.79  23 2.80   2 2.81   5 2.83

[...]

  18  0.330  0.693  0.682-  45 1.88  44 1.99  12 2.32   9 2.48  21 2.64   6 2.92  27 2.96
  19  0.688  0.984  0.004-  48 1.51  46 1.65  25 2.38  16 2.66   1 2.82  10 2.93   4 2.97  22 3.03
                            21 3.05
  20  0.675  0.993  0.335-  47 1.55  46 1.81  26 2.69  17 2.79   2 2.79  11 2.92  23 3.04
  21  0.660  0.973  0.702-  48 1.70  47 2.17  27 2.46  18 2.64   3 2.67  12 2.69  19 3.05   6 3.05

[...]

  26  0.697  0.692  0.362-  53 1.53  52 1.76   2 2.65  20 2.69   8 2.73  23 2.88  17 3.08
  27  0.677  0.695  0.698-  54 1.61  53 1.87  21 2.46   3 2.75  25 2.88  18 2.96  24 3.04
  28  0.006  0.013  0.160-   2 1.83   1 1.86
  29  0.001  0.009  0.531-   3 1.58   2 1.90
  30  0.996  0.977  0.857-   1 1.25   3 1.75
  31  0.998  0.347  0.206-   5 1.46   4 2.43
  32  0.047  0.336  0.522-   6 1.67   5 1.82
  33  0.031  0.368  0.858-   4 1.23   6 1.75
  34  0.019  0.697  0.166-   7 1.50   8 1.66
  35  0.018  0.677  0.517-   9 1.67   8 1.89
  36  0.025  0.673  0.865-   7 1.55   9 1.83
  37  0.357  0.998  0.166-  10 1.31  11 1.95
  38  0.329  0.998  0.505-  11 1.48  12 1.78
  39  0.343  0.006  0.862-  10 1.76  12 1.87
  40  0.370  0.311  0.180-  13 1.85  14 2.00
  41  0.354  0.304  0.510-  14 1.46  15 1.77
  42  0.351  0.346  0.825-  15 1.47  13 1.82
  43  0.336  0.698  0.185-  17 1.71  16 1.89
  44  0.309  0.686  0.484-  17 1.33  18 1.99
  45  0.332  0.678  0.867-  16 1.35  18 1.88
  46  0.700  0.049  0.160-  19 1.65  20 1.81
  47  0.689  0.006  0.489-  20 1.55  21 2.17
  48  0.741  0.028  0.860-  19 1.51  21 1.70
  49  0.693  0.337  0.154-  22 1.31  23 1.72
  50  0.693  0.369  0.513-  24 1.71  23 1.92
  51  0.659  0.341  0.848-  24 1.78  22 1.82
  52  0.680  0.690  0.188-  26 1.76  25 2.07
  53  0.690  0.679  0.514-  26 1.53  27 1.87
  54  0.644  0.708  0.854-  25 1.40  27 1.61

  LATTYP: Found a hexagonal cell.
 ALAT       =     8.5551570040
 C/A-ratio  =     1.1769065425

  Lattice vectors:

 A1 = (   8.5551570000,   0.0000000000,   0.0000000000)
 A2 = (  -4.2775785000,   7.4089833000,   0.0000000000)
 A3 = (   0.0000000000,   0.0000000000,  10.0686202500)

Analysis of symmetry for initial positions (statically):
 Subroutine PRICEL returns:
 Original cell was already a primitive cell.

 Routine SETGRP: Setting up the symmetry group for a
 hexagonal supercell.

 Subroutine GETGRP returns: Found  1 space group operations
 (whereof  1 operations were pure point group operations)
 out of a pool of 24 trial point group operations.

The static configuration has the point symmetry C_1 .

Analysis of symmetry for dynamics (positions and initial velocities):
 Subroutine PRICEL returns:
 Original cell was already a primitive cell.

[...]

The dynamic configuration has the point symmetry C_1 .

Analysis of structural, dynamic, and magnetic symmetry:
 Subroutine PRICEL returns:
 Original cell was already a primitive cell.

 Routine SETGRP: Setting up the symmetry group for a
 hexagonal supercell.

 Subroutine GETGRP returns: Found  1 space group operations
 (whereof  1 operations were pure point group operations)
 out of a pool of 24 trial point group operations.

The magnetic configuration has the point symmetry C_1 .

 Subroutine INISYM returns: Found  1 space group operations
 (whereof  1 operations are pure point group operations),
 and found     1 'primitive' translations

 KPOINTS: Automatic mesh

Automatic generation of k-mesh.
Space group operators:
 irot       det(A)        alpha          n_x          n_y          n_z        tau_x        tau_y        tau_z
    1     1.000000     0.000000     1.000000     0.000000     0.000000     0.000000     0.000000     0.000000

 Subroutine IBZKPT returns following result:

 Found     26 irreducible k-points:

 Following reciprocal coordinates:
            Coordinates               Weight
  0.000000  0.000000  0.000000      1.000000
  0.250000  0.000000  0.000000      2.000000
  0.500000  0.000000  0.000000      1.000000
  0.000000  0.250000  0.000000      2.000000
  0.250000  0.250000  0.000000      2.000000
  0.500000  0.250000  0.000000      2.000000
 -0.250000  0.250000  0.000000      2.000000
  0.000000  0.500000  0.000000      1.000000
  0.250000  0.500000  0.000000      2.000000
  0.500000  0.500000  0.000000      1.000000
  0.000000  0.000000  0.333333      2.000000
  0.250000  0.000000  0.333333      2.000000
  0.500000  0.000000  0.333333      2.000000
 -0.250000  0.000000  0.333333      2.000000
  0.000000  0.250000  0.333333      2.000000
  0.250000  0.250000  0.333333      2.000000
  0.500000  0.250000  0.333333      2.000000
 -0.250000  0.250000  0.333333      2.000000
  0.000000  0.500000  0.333333      2.000000
  0.250000  0.500000  0.333333      2.000000
  0.500000  0.500000  0.333333      2.000000
 -0.250000  0.500000  0.333333      2.000000
  0.000000 -0.250000  0.333333      2.000000
  0.250000 -0.250000  0.333333      2.000000
  0.500000 -0.250000  0.333333      2.000000
 -0.250000 -0.250000  0.333333      2.000000

 Following cartesian coordinates:
            Coordinates               Weight
  0.000000  0.000000  0.000000      1.000000
  0.029222  0.016871  0.000000      2.000000
  0.058444  0.033743  0.000000      1.000000
  0.000000  0.033743  0.000000      2.000000
  0.029222  0.050614  0.000000      2.000000
  0.058444  0.067486  0.000000      2.000000
 -0.029222  0.016871  0.000000      2.000000
  0.000000  0.067486  0.000000      1.000000
  0.029222  0.084357  0.000000      2.000000
  0.058444  0.101228  0.000000      1.000000
  0.000000  0.000000  0.033106      2.000000
  0.029222  0.016871  0.033106      2.000000
  0.058444  0.033743  0.033106      2.000000
 -0.029222 -0.016871  0.033106      2.000000
  0.000000  0.033743  0.033106      2.000000
  0.029222  0.050614  0.033106      2.000000
  0.058444  0.067486  0.033106      2.000000
 -0.029222  0.016871  0.033106      2.000000
  0.000000  0.067486  0.033106      2.000000
  0.029222  0.084357  0.033106      2.000000
  0.058444  0.101228  0.033106      2.000000
 -0.029222  0.050614  0.033106      2.000000
  0.000000 -0.033743  0.033106      2.000000
  0.029222 -0.016871  0.033106      2.000000
  0.058444  0.000000  0.033106      2.000000
 -0.029222 -0.050614  0.033106      2.000000

 SYSTEM =  unknown system
 POSCAR =  NiO_Cmmm_scale_0_975_disp_0_15_round_1

 Startparameter for this run:
   NWRITE =      1    write-flag & timer
   PREC   = accura    normal or accurate (medium, high low for compatibility)
   ISTART =      0    job   : 0-new  1-cont  2-samecut
   ICHARG =      2    charge: 1-file 2-atom 10-const
   ISPIN  =      2    spin polarized calculation?
   LNONCOLLINEAR =      F non collinear calculations
   LSORBIT =      F    spin-orbit coupling
   INIWAV =      1    electr: 0-lowe 1-rand  2-diag
   LASPH  =      F    aspherical Exc in radial PAW
   METAGGA=      F    non-selfconsistent MetaGGA calc.

 Electronic Relaxation 1
   ENCUT  =  500.0 eV  36.75 Ry    6.06 a.u.  15.60 15.60 18.36*2*pi/ulx,y,z
   ENINI  =  500.0     initial cutoff
   ENAUG  =  605.4 eV  augmentation charge cutoff
   NELM   =     80;   NELMIN=  2; NELMDL= -5     # of ELM steps
   EDIFF  = 0.1E-04   stopping-criterion for ELM
   LREAL  =      T    real-space projection
   NLSPLINE    = F    spline interpolate recip. space projectors
   LCOMPAT=      F    compatible to vasp.4.4
   GGA_COMPAT  = T    GGA compatible to vasp.4.4-vasp.4.6
   LMAXPAW     = -100 max onsite density
   LMAXMIX     =    2 max onsite mixed and CHGCAR
   VOSKOWN=      1    Vosko Wilk Nusair interpolation
   ROPT   =   -0.00025  -0.00025
 Ionic relaxation
   EDIFFG = 0.1E-03   stopping-criterion for IOM
   NSW    =      0    number of steps for IOM
   NBLOCK =      1;   KBLOCK =      1    inner block; outer block
   IBRION =     -1    ionic relax: 0-MD 1-quasi-New 2-CG
   NFREE  =      0    steps in history (QN), initial steepest desc. (CG)
   ISIF   =      2    stress and relaxation
   IWAVPR =     10    prediction:  0-non 1-charg 2-wave 3-comb
   ISYM   =      2    0-nonsym 1-usesym 2-fastsym
   LCORR  =      T    Harris-Foulkes like correction to forces

   POTIM  = 0.5000    time-step for ionic-motion
   TEIN   =    0.0    initial temperature
   TEBEG  =    0.0;   TEEND  =   0.0 temperature during run
[...]
   -.482E+02 0.165E+02 0.563E+02   0.480E+02 -.163E+02 -.561E+02   0.192E+00 -.554E+00 0.333E+01   0.704E-02 -.510E-01 -.194E+00
   -.346E+02 0.445E+02 -.476E+03   0.479E+02 -.590E+02 0.525E+03   -.105E+01 -.120E+00 0.501E+00   0.667E-01 0.484E-01 0.317E+00
   0.176E+02 0.398E+02 -.875E+02   -.143E+02 -.397E+02 0.988E+02   -.759E+00 0.302E+00 0.105E+00   0.144E+00 0.119E+00 -.462E-01
   0.888E+02 -.800E+01 0.823E+02   -.890E+02 0.834E+01 -.854E+02   0.323E+00 0.260E+00 0.456E+01   0.765E-01 0.507E-01 -.217E+00
   0.289E+02 0.925E+02 -.203E+02   -.286E+02 -.934E+02 0.161E+02   -.340E+00 0.572E+00 0.126E+01   -.211E-01 -.636E-01 0.224E+00
   0.802E+02 0.737E+02 -.806E+02   -.813E+02 -.732E+02 0.833E+02   0.807E+00 -.126E+00 0.263E+00   0.658E-01 0.246E-01 -.954E-03
   0.122E+03 0.229E+02 -.959E+01   -.122E+03 -.237E+02 0.102E+02   -.483E+00 0.173E+00 0.122E+01   0.111E+00 0.116E+00 -.185E+00
   0.132E+02 -.131E+03 0.192E+03   -.134E+02 0.132E+03 -.228E+03   -.602E+00 -.203E+00 0.245E+01   0.355E-01 0.142E+00 0.181E+00
   -.162E+02 -.127E+03 0.150E+03   0.163E+02 0.127E+03 -.160E+03   0.440E+00 -.204E+00 -.157E+01   0.100E+00 -.673E-01 -.669E-01
   -.335E+02 -.193E+03 -.251E+00   0.337E+02 0.193E+03 0.275E+01   -.119E+01 0.133E+01 -.153E+01   0.735E-01 -.858E-01 -.176E+00
   -.954E+02 -.474E+02 -.130E+03   0.946E+02 0.459E+02 0.133E+03   0.996E+00 0.609E+00 -.247E+01   0.157E+00 0.262E-01 0.312E+00
   -.282E+02 -.105E+03 0.216E+03   0.258E+02 0.105E+03 -.229E+03   0.500E+00 0.152E+00 0.123E+00   0.412E-01 0.994E-01 -.131E+00
   -.126E+03 -.346E+02 0.150E+03   0.125E+03 0.321E+02 -.160E+03   0.802E+00 0.409E+00 -.935E+00   0.437E-01 0.480E-01 -.185E+00
   -.805E+02 0.728E+02 -.312E+03   0.847E+02 -.711E+02 0.341E+03   -.120E+01 -.111E+00 -.335E+01   0.489E-01 -.592E-01 0.294E+00
   -.206E+03 0.530E+02 0.178E+03   0.211E+03 -.531E+02 -.211E+03   -.232E+01 0.325E+00 0.550E+01   0.803E-01 0.367E-01 0.700E-01
   -.138E+03 0.109E+03 0.112E+03   0.138E+03 -.107E+03 -.111E+03   0.263E+00 -.220E+01 -.521E+00   0.338E-01 0.919E-01 -.316E+00
   0.110E+03 -.238E+02 -.165E+03   -.112E+03 0.218E+02 0.175E+03   0.925E+00 0.110E+01 -.362E+01   -.106E+00 0.140E-01 0.200E+00
   0.158E+02 -.434E+02 0.502E+02   -.158E+02 0.441E+02 -.556E+02   -.171E+00 -.123E+00 0.359E-01   -.753E-01 -.148E+00 0.273E-01
   0.160E+03 -.102E+03 0.242E+03   -.160E+03 0.102E+03 -.244E+03   0.532E+00 0.124E+01 -.849E+00   -.116E+00 -.110E+00 -.217E+00
   0.294E+02 -.525E+02 0.240E+03   -.288E+02 0.546E+02 -.278E+03   -.457E+00 -.562E+00 0.384E+01   -.145E+00 -.126E-01 0.426E+00
   0.414E+02 0.243E+02 -.127E+03   -.403E+02 -.233E+02 0.130E+03   -.826E+00 -.563E+00 -.111E+01   -.951E-01 -.283E-01 -.271E+00
   0.574E+02 0.626E+02 0.297E+02   -.582E+02 -.630E+02 -.293E+02   -.322E+00 0.105E+00 0.225E+00   -.354E-01 -.157E-01 -.557E-01
   -.169E+03 0.227E+03 -.325E+03   0.175E+03 -.227E+03 0.346E+03   -.553E+00 0.172E+00 -.218E+01   -.296E-01 -.186E+00 0.235E+00
   0.535E+02 0.998E+02 0.852E+02   -.530E+02 -.990E+02 -.938E+02   -.549E+00 -.488E+00 0.116E+01   -.158E+00 -.823E-02 -.115E+00
   -.640E+02 0.210E+03 0.205E+03   0.640E+02 -.209E+03 -.212E+03   0.163E+00 -.963E+00 0.193E+01   -.118E+00 0.198E-01 -.213E+00
   0.558E+00 -.412E+02 -.534E+02   -.240E+01 0.418E+02 0.530E+02   0.257E+01 -.291E+00 0.484E+00   0.202E-01 0.201E-01 0.210E+00
   -.130E+02 0.256E+02 0.132E+03   0.136E+02 -.275E+02 -.145E+03   -.349E+00 0.164E+01 0.803E+01   0.773E-02 -.194E-01 -.237E+00
   -.680E+02 0.971E+02 0.239E+03   0.635E+02 -.117E+03 -.298E+03   0.608E+00 0.113E+02 0.151E+02   0.294E-01 -.414E-01 -.606E-01
   0.418E+02 0.434E+02 0.199E+03   -.535E+02 -.492E+02 -.231E+03   0.955E+01 0.456E+01 0.211E+02   -.275E-02 0.216E-01 0.828E-01
   0.373E+02 0.186E+02 0.732E+02   -.350E+02 -.209E+02 -.791E+02   -.280E+01 0.287E+01 0.399E+01   0.777E-01 0.584E-01 -.217E+00
   0.126E+03 -.132E+03 0.207E+03   -.147E+03 0.160E+03 -.269E+03   0.945E+01 -.140E+02 0.132E+02   -.162E-01 0.684E-01 -.117E-01
   0.602E+02 -.580E+01 -.863E+02   -.630E+02 0.109E+02 0.973E+02   0.224E+01 -.503E+01 -.400E+01   -.522E-02 -.199E-01 0.151E+00
   0.682E+02 0.362E+02 0.682E+02   -.704E+02 -.363E+02 -.757E+02   0.186E+01 0.824E-01 0.577E+01   0.871E-01 0.624E-01 -.116E+00
   0.619E+02 0.372E+02 0.108E+03   -.620E+02 -.381E+02 -.121E+03   0.106E+00 0.774E+00 0.644E+01   0.944E-02 0.145E-01 -.232E-01
   0.923E+01 -.522E+02 -.270E+03   -.821E+01 0.505E+02 0.320E+03   -.113E+01 0.886E+00 -.171E+02   0.314E-01 0.445E-01 0.194E+00
   -.596E+01 -.982E+02 -.113E+03   0.125E+01 0.102E+03 0.133E+03   0.491E+01 -.380E+01 -.853E+01   0.497E-01 -.629E-01 -.135E+00
   -.660E+00 -.947E+02 0.592E+02   -.153E+01 0.977E+02 -.624E+02   0.298E+01 -.327E+01 0.246E+01   0.300E-01 0.294E-01 -.152E-02
   -.177E+02 -.322E+02 -.469E+02   0.242E+02 0.282E+02 0.501E+02   -.806E+01 0.500E+01 -.322E+01   0.252E-01 0.616E-01 0.483E-01
   -.138E+03 -.416E+02 -.980E+02   0.151E+03 0.376E+02 0.117E+03   -.106E+02 0.322E+01 -.750E+01   -.362E-01 0.493E-01 -.276E+00
   -.984E+02 -.608E+02 -.948E+02   0.103E+03 0.673E+02 0.114E+03   -.446E+01 -.426E+01 -.861E+01   0.483E-01 0.292E-01 0.170E+00
   -.572E+02 0.599E+02 0.317E+02   0.558E+02 -.588E+02 -.380E+02   0.304E+01 -.163E+01 0.427E+01   0.542E-01 -.125E-01 0.309E+00
   -.399E+02 0.317E+02 -.240E+03   0.291E+02 -.319E+02 0.288E+03   0.781E+01 -.586E-02 -.189E+02   0.878E-01 0.345E-01 -.340E+00
   0.286E+02 0.405E+02 0.206E+03   -.380E+02 -.446E+02 -.246E+03   0.596E+01 0.267E+01 0.143E+02   0.220E-01 0.160E-01 -.291E-01
   0.935E+00 -.746E+02 -.110E+03   -.181E+01 0.840E+02 0.117E+03   0.873E+00 -.106E+02 -.360E+01   -.711E-01 0.184E-01 0.250E+00
   0.263E+02 -.725E+02 -.149E+03   -.240E+02 0.765E+02 0.170E+03   -.263E+01 -.404E+01 -.152E+02   -.504E-01 -.108E+00 -.179E+00
   0.462E+02 -.153E+03 0.102E+03   -.372E+02 0.165E+03 -.114E+03   -.911E+01 -.110E+02 0.519E+01   -.717E-01 -.147E-01 -.939E-01
   0.311E+02 -.120E+02 -.211E+03   -.319E+02 0.832E+01 0.255E+03   -.441E+00 0.278E+01 -.123E+02   -.734E-01 0.679E-02 -.912E-01
   0.286E+02 0.420E+02 0.570E+02   -.315E+02 -.409E+02 -.623E+02   0.357E+01 -.165E+01 0.390E+01   -.761E-01 -.100E-01 -.300E+00
   0.818E+02 0.195E+02 0.219E+02   -.895E+02 -.224E+02 -.213E+02   0.966E+01 0.348E+01 -.329E+00   -.691E-01 -.373E-01 0.309E+00
   0.356E+02 0.772E+02 0.422E+02   -.385E+02 -.783E+02 -.503E+02   0.358E+01 0.119E+01 0.790E+01   -.544E-01 -.683E-01 0.179E+00
   0.215E+02 0.787E+02 -.988E+02   -.194E+02 -.812E+02 0.115E+03   -.234E+01 0.219E+01 -.882E+01   -.941E-01 0.260E-01 -.223E+00
   0.771E+02 0.144E+03 0.107E+03   -.982E+02 -.147E+03 -.127E+03   0.161E+02 0.816E+00 0.494E+01   -.304E-01 -.510E-01 0.215E-01
   -.368E+02 0.173E+02 -.150E+02   -.853E-13 -.455E-12 -.114E-12   0.366E+02 -.174E+02 0.152E+02   0.207E+00 0.178E+00 -.285E+00

 POSITION                                       TOTAL-FORCE (eV/Angst)
      0.19974      0.10729      9.83681         3.945383      9.571878     46.752917
      0.03983      0.01628      3.44287        -0.060969      0.178283      0.294013
      8.41040      0.15424      6.91886        -0.001977     -0.357896      3.300262
     -1.02036      2.37099      9.77196        12.265772    -14.559737     49.334165
     -1.07449      2.78385      3.45710         2.645296      0.532314     11.344177
     -1.28314      2.45056      6.90447         0.159142      0.657096      1.254364
     -2.64546      5.01535      0.18847        -0.052153     -0.400346     -2.697076
     -2.84641      4.99260      3.32154        -0.158532      0.361463      3.039926
     -2.62072      5.04388      6.88068        -0.313248     -0.457756      1.674316
      3.05114      0.03054      0.35921        -0.696067      0.971986    -32.905017
     -1.38760      7.33372      3.61155         0.650301     -0.291662    -11.589136
     -1.19584      7.19620      6.83019        -0.906137      1.173817      0.800388
      1.43004      2.68132      0.04721         0.279094     -0.815640      0.647188
      1.30564      2.41326      3.73999        -1.849762      0.614896    -12.973511
      1.45253      2.21320      6.87724        -0.179478     -2.006320    -10.532178
      0.16611      5.10268     10.05933         3.092915      1.519781     26.061014
     -0.07236      5.07943      3.56628         3.467357      0.263986    -27.233458
     -0.13848      5.13646      6.86291         0.178381     -0.295286     -0.093070
      1.67816      7.29089      0.04394        -1.119223     -0.840912      6.053889
      1.52521      7.35665      3.37637        -0.228808      0.382069     -5.356219
      1.48616      7.21092      7.06999         0.073088      0.728099     -2.444230
      4.54068      2.55798      0.24851         0.053992      1.462753    -33.416865
      4.29131      2.58003      3.25835         0.198298      0.428540      1.867379
      4.68511      2.75004      6.84142        -1.172431     -0.299774      0.557371
      2.98152      5.30816      9.90015         5.186144      0.140289     19.436659
      3.00146      5.12814      3.64391        -0.119614      0.276150     -7.631182
      2.81879      5.14800      7.02594         0.123028     -0.063348     -4.931129
     -0.00126      0.09320      1.61315         0.751010      0.320891      0.256612
     -0.02619      0.06495      5.34385         0.307364     -0.262832     -5.539881
      4.34435      7.23849      8.62589        -3.890223     -8.654729    -44.791021
      7.05061      2.57287      2.07891        -2.156683     -1.247598    -10.485702
     -1.03334      2.49227      5.25538        -0.390820      0.632623     -2.129840
     -1.31446      2.72923      8.63488       -12.162499     13.802838    -48.559245
     -2.81529      5.16503      1.66854        -0.620928      0.072380      7.078873
     -2.73740      5.01513      5.21022        -0.230925     -0.049746     -1.849639
     -2.66213      4.98501      8.71185         0.030192     -0.090788     -6.995987
     -1.21515      7.39214      1.66684        -0.072377     -0.776408     32.970623
     -1.45744      7.39682      5.08400         0.248930      0.167340     10.878638
      2.90652      0.04790      8.67476         0.818526     -0.241855     -0.680387
      1.83255      2.30671      1.81426        -1.477471      1.028870      0.021356
      1.72413      2.25453      5.12998         2.011820     -0.734184     11.548135
      1.52141      2.56555      8.30646         0.136392      2.329418     10.879805
     -0.11313      5.17279      1.85891         1.633007     -0.547504     -1.711950
     -0.29322      5.08362      4.87728        -2.931981     -0.197300     28.834850
     -0.06006      5.02160      8.73286        -3.425130     -1.413772    -25.645219
      5.77909      0.36065      1.61026        -0.073494     -1.113244      3.050789
      5.87087      0.04096      4.92061        -0.358997     -0.189031      5.837123
      6.21951      0.20748      8.65756        -0.174923      1.133920     -7.329355
      4.48749      2.49847      1.55173        -1.305945     -0.926130     32.080877
      4.35403      2.73395      5.16779         0.567815     -0.527117     -1.731777
      4.18341      2.52575      8.53351         1.953304      0.490113      0.549004
      2.86655      5.11585      1.89141         0.676302      0.100656     -0.075295
      2.99888      5.03045      5.17199        -0.356806     -0.237411      7.647342
      2.47792      5.24872      8.59715        -4.965253     -1.744125    -14.723684
    total drift:                               -0.010725      0.001709     -0.002917

  FREE ENERGIE OF THE ION-ELECTRON SYSTEM (eV)
  free  energy   TOTEN  =      -274.1461992918 eV

  energy  without entropy=     -274.0909609457  energy(sigma->0) =     -274.11858012

volume of typ            1:    27.0 %

volume of typ            2:     6.9 %

total charge

# of ion       s       p       d       tot
    1        0.477   0.603   8.138   9.218
    2        0.232   0.199   7.916   8.347
    3        0.316   0.352   7.969   8.637
    4        0.485   0.528   8.218   9.231
    5        0.372   0.420   7.952   8.745
    6        0.291   0.305   7.956   8.552
    7        0.397   0.510   7.985   8.891
    8        0.263   0.256   7.957   8.476
    9        0.289   0.282   7.924   8.495
   10        0.455   0.568   8.048   9.070
   11        0.324   0.348   8.009   8.681
   12        0.264   0.236   7.935   8.436
   13        0.247   0.214   7.926   8.388
   14        0.344   0.367   7.978   8.689
   15        0.351   0.402   7.991   8.744
   16        0.401   0.487   8.048   8.937
   17        0.440   0.591   8.036   9.067
   18        0.237   0.186   7.983   8.405
   19        0.351   0.448   7.994   8.793
   20        0.312   0.344   7.922   8.577
   21        0.245   0.208   7.984   8.438
   22        0.446   0.535   8.065   9.045
   23        0.235   0.205   7.965   8.406
   24        0.282   0.275   7.895   8.452
   25        0.355   0.394   8.081   8.830
   26        0.339   0.385   7.918   8.642
   27        0.281   0.278   7.987   8.546
   28        1.271   2.707   0.005   3.982
   29        1.277   2.748   0.011   4.036
   30        1.313   2.936   0.043   4.293
   31        1.297   2.758   0.016   4.070
   32        1.270   2.753   0.008   4.032
   33        1.318   2.930   0.047   4.295
   34        1.280   2.828   0.020   4.127
   35        1.273   2.726   0.008   4.007
   36        1.273   2.792   0.013   4.078
   37        1.305   2.869   0.030   4.205
   38        1.282   2.805   0.019   4.106
   39        1.268   2.729   0.005   4.003
   40        1.276   2.678   0.004   3.959
   41        1.284   2.816   0.020   4.120
   42        1.280   2.808   0.018   4.106
   43        1.268   2.746   0.006   4.020
   44        1.305   2.842   0.029   4.176
   45        1.300   2.850   0.029   4.179
   46        1.272   2.770   0.009   4.050
   47        1.285   2.729   0.011   4.025
   48        1.285   2.817   0.020   4.122
   49        1.304   2.890   0.036   4.231
   50        1.272   2.717   0.006   3.996
   51        1.267   2.735   0.006   4.008
   52        1.275   2.689   0.004   3.968
   53        1.278   2.771   0.013   4.062
   54        1.293   2.884   0.032   4.209
tot          43.70   85.25  216.25  345.20

magnetization (x)

# of ion       s       p       d       tot
    1        0.009   0.008   0.275   0.293
    2       -0.005  -0.000  -0.546  -0.551
    3        0.002   0.001  -0.285  -0.283
    4       -0.005  -0.009  -0.208  -0.222
    5        0.009   0.005   0.802   0.816
    6        0.000   0.002  -0.045  -0.043
    7       -0.004   0.000  -0.240  -0.244
    8       -0.000  -0.002   0.087   0.084
    9        0.002   0.000   0.393   0.395
   10        0.017   0.009   0.584   0.610
   11       -0.005  -0.006  -0.426  -0.437
   12       -0.002   0.000  -0.384  -0.386
   13       -0.000  -0.000  -0.381  -0.382
   14        0.005   0.006   0.558   0.569
   15       -0.001  -0.003  -0.357  -0.362
   16        0.012   0.010   0.585   0.607
   17        0.007   0.001   0.111   0.119
   18        0.001   0.000   0.053   0.055
   19       -0.010  -0.001  -0.356  -0.367
   20        0.011   0.001   0.861   0.874
   21       -0.003  -0.002  -0.113  -0.118
   22        0.002   0.010   0.333   0.345
   23        0.002   0.001   0.061   0.065
   24       -0.010   0.000  -0.894  -0.903
   25        0.005   0.002   0.189   0.197
   26       -0.001  -0.001   0.002   0.000
   27        0.002   0.002   0.007   0.011
   28       -0.002  -0.057  -0.000  -0.059
   29       -0.007  -0.240   0.000  -0.247
   30        0.002   0.106   0.001   0.110
   31        0.008   0.370   0.001   0.379
   32        0.004   0.130   0.000   0.134
   33       -0.002  -0.094  -0.001  -0.097
   34       -0.002  -0.084   0.000  -0.086
   35        0.006   0.238  -0.000   0.244
   36       -0.000  -0.027  -0.000  -0.027
   37        0.005   0.218   0.002   0.224
   38       -0.006  -0.225   0.000  -0.231
   39        0.001   0.038   0.000   0.039
   40        0.000  -0.001  -0.000  -0.001
   41        0.004   0.175   0.000   0.180
   42       -0.005  -0.203   0.000  -0.208
   43        0.001   0.018   0.000   0.019
   44        0.001   0.057   0.000   0.058
   45        0.006   0.258   0.001   0.265
   46        0.001   0.010   0.000   0.011
   47        0.010   0.414   0.000   0.424
   48       -0.003  -0.126  -0.000  -0.129
   49        0.004   0.158   0.000   0.162
   50       -0.009  -0.322  -0.000  -0.331
   51       -0.005  -0.151  -0.000  -0.156
   52        0.001   0.057  -0.000   0.059
   53       -0.001  -0.019   0.000  -0.019
   54        0.002   0.069   0.000   0.071
tot           0.06    0.80    0.67    1.53