 vasp.5.4.4.18Apr17-6-g9f103f2a35 (build May 12 2020 04:58:55) complex

 MD_VERSION_INFO: Compiled 2020-05-12T11:58:55-UTC in devlin.sd.materialsdesign.
 com:/home/medea2/data/build/wwolf/vasp-gpu5.4.4/13047/x86_64/src/src/build/std
 from svn 13047

 executed on                        Lin64 date 2023.03.24  07:10:05

 INCAR:
 POTCAR:    PAW_PBE Ni 02Aug2007
 POTCAR:    PAW_PBE O 08Apr2002

 POTCAR:    PAW_PBE Ni 02Aug2007

 POTCAR:    PAW_PBE O 08Apr2002

 Optimization of the real space projectors (new method)

 maximal supplied QI-value         = 16.25
 optimisation between [QCUT,QGAM] = [ 11.38, 22.75] = [ 36.24,144.96] Ry
 Optimized for a Real-space Cutoff    1.47 Angstroem

   l    n(q)    QCUT    max X(q) W(low)/X(q) W(high)/X(q)  e(spline)
   2      9    11.376    60.317    0.17E-03    0.16E-04    0.16E-06
   2      9    11.376    55.921    0.17E-03    0.16E-04    0.17E-06
   0     10    11.376    51.690    0.45E-04    0.60E-04    0.21E-06
   0     10    11.376    30.015    0.37E-04    0.55E-04    0.19E-06
   1     10    11.376    18.849    0.83E-04    0.11E-03    0.92E-07
   1     10    11.376    14.624    0.69E-04    0.92E-04    0.82E-07
 Optimization of the real space projectors (new method)

 maximal supplied QI-value         = 24.76
 optimisation between [QCUT,QGAM] = [ 11.39, 22.77] = [ 36.31,145.25] Ry
 Optimized for a Real-space Cutoff    1.10 Angstroem

   l    n(q)    QCUT    max X(q) W(low)/X(q) W(high)/X(q)  e(spline)
   0      7    11.387    20.381    0.22E-03    0.48E-03    0.18E-06
   0      7    11.387    15.268    0.22E-03    0.52E-03    0.19E-06
   1      7    11.387     5.964    0.22E-03    0.73E-03    0.24E-06
   1      7    11.387     5.382    0.19E-03    0.60E-03    0.21E-06

  PAW_PBE Ni 02Aug2007                  :
  PAW_PBE O 08Apr2002                   :

 POSCAR: NiO_Cmmm_scale_0_975_disp_0_10_round_2
  positions in direct lattice
 exchange correlation table for  LEXCH =       14
   RHO(1)=    0.500       N(1)  =     2000
   RHO(2)=  100.500       N(2)  =     4000

 ion  position               nearest neighbor table
   1  0.997  0.010  1.000-  30 1.25  28 1.78   4 2.70  19 2.82  25 2.88  13 2.92   7 3.07
   2  0.022  0.012  0.357-  29 1.48  28 1.82  14 2.73  11 2.76  20 2.81   8 2.84   5 2.85  26 2.87

   3  0.005  0.997  0.693-  30 1.85  29 1.95   9 2.70  21 2.75  27 2.80  12 2.85  15 2.99   6 3.02

[...]

   9  0.028  0.693  0.688-  36 1.63  35 1.77  12 2.61  18 2.66   3 2.70   6 2.86  27 2.96  24 2.99
                             7 3.07
  10  0.371  0.027  0.999-  39 1.56  37 1.69  19 2.62  22 2.63  16 2.67  13 2.90   7 3.06
  11  0.333  0.994  0.323-  37 1.59  38 2.01   8 2.71  17 2.76   2 2.76  14 2.93  20 3.03  23 3.03

[...]

  28  0.014  0.018  0.176-   1 1.78   2 1.82
  29  0.982  0.989  0.500-   2 1.48   3 1.95
  30  0.005  0.002  0.876-   1 1.25   3 1.85
  31  0.046  0.355  0.160-   5 1.67   4 1.71
  32  0.032  0.361  0.497-   5 1.73   6 1.82
  33  0.022  0.345  0.860-   4 1.32   6 1.84
  34  0.025  0.679  0.182-   8 1.79   7 1.92
  35  0.018  0.671  0.513-   8 1.54   9 1.77
  36  0.019  0.679  0.849-   7 1.45   9 1.63
  37  0.351  0.005  0.166-  11 1.59  10 1.69
  38  0.336  0.006  0.522-  12 1.70  11 2.01
  39  0.360  0.987  0.847-  10 1.56  12 1.60
  40  0.342  0.332  0.177-  14 1.75  13 1.87
  41  0.323  0.332  0.520-  15 1.45  14 1.72
  42  0.353  0.347  0.851-  13 1.42  15 1.91
  43  0.357  0.702  0.164-  16 1.50  17 1.69
  44  0.332  0.671  0.505-  17 1.76  18 1.77
  45  0.335  0.667  0.858-  16 1.63  18 1.79
  46  0.654  0.995  0.182-  20 1.58  19 1.82
  47  0.688  0.002  0.521-  21 1.68  20 1.86
  48  0.668  0.986  0.849-  19 1.53  21 1.64
  49  0.664  0.338  0.162-  22 1.55  23 1.81
  50  0.663  0.330  0.506-  23 1.68  24 1.85
  51  0.689  0.330  0.850-  22 1.60  24 1.62
  52  0.675  0.689  0.179-  26 1.67  25 1.73
  53  0.673  0.678  0.537-  27 1.50  26 1.94
  54  0.692  0.694  0.847-  25 1.63  27 1.64

  LATTYP: Found a hexagonal cell.
 ALAT       =     8.5551570040
 C/A-ratio  =     1.1769065425

  Lattice vectors:

 A1 = (   8.5551570000,   0.0000000000,   0.0000000000)
 A2 = (  -4.2775785000,   7.4089833000,   0.0000000000)
 A3 = (   0.0000000000,   0.0000000000,  10.0686202500)

Analysis of symmetry for initial positions (statically):
 Subroutine PRICEL returns:
 Original cell was already a primitive cell.

 Routine SETGRP: Setting up the symmetry group for a
 hexagonal supercell.

 Subroutine GETGRP returns: Found  1 space group operations
 (whereof  1 operations were pure point group operations)
 out of a pool of 24 trial point group operations.

The static configuration has the point symmetry C_1 .

Analysis of symmetry for dynamics (positions and initial velocities):
 Subroutine PRICEL returns:
 Original cell was already a primitive cell.

[...]

The dynamic configuration has the point symmetry C_1 .

Analysis of structural, dynamic, and magnetic symmetry:
 Subroutine PRICEL returns:
 Original cell was already a primitive cell.

 Routine SETGRP: Setting up the symmetry group for a
 hexagonal supercell.

 Subroutine GETGRP returns: Found  1 space group operations
 (whereof  1 operations were pure point group operations)
 out of a pool of 24 trial point group operations.

The magnetic configuration has the point symmetry C_1 .

 Subroutine INISYM returns: Found  1 space group operations
 (whereof  1 operations are pure point group operations),
 and found     1 'primitive' translations

 KPOINTS: Automatic mesh

Automatic generation of k-mesh.
Space group operators:
 irot       det(A)        alpha          n_x          n_y          n_z        tau_x        tau_y        tau_z
    1     1.000000     0.000000     1.000000     0.000000     0.000000     0.000000     0.000000     0.000000

 Subroutine IBZKPT returns following result:

 Found     26 irreducible k-points:

 Following reciprocal coordinates:
            Coordinates               Weight
  0.000000  0.000000  0.000000      1.000000
  0.250000  0.000000  0.000000      2.000000
  0.500000  0.000000  0.000000      1.000000
  0.000000  0.250000  0.000000      2.000000
  0.250000  0.250000  0.000000      2.000000
  0.500000  0.250000  0.000000      2.000000
 -0.250000  0.250000  0.000000      2.000000
  0.000000  0.500000  0.000000      1.000000
  0.250000  0.500000  0.000000      2.000000
  0.500000  0.500000  0.000000      1.000000
  0.000000  0.000000  0.333333      2.000000
  0.250000  0.000000  0.333333      2.000000
  0.500000  0.000000  0.333333      2.000000
 -0.250000  0.000000  0.333333      2.000000
  0.000000  0.250000  0.333333      2.000000
  0.250000  0.250000  0.333333      2.000000
  0.500000  0.250000  0.333333      2.000000
 -0.250000  0.250000  0.333333      2.000000
  0.000000  0.500000  0.333333      2.000000
  0.250000  0.500000  0.333333      2.000000
  0.500000  0.500000  0.333333      2.000000
 -0.250000  0.500000  0.333333      2.000000
  0.000000 -0.250000  0.333333      2.000000
  0.250000 -0.250000  0.333333      2.000000
  0.500000 -0.250000  0.333333      2.000000
 -0.250000 -0.250000  0.333333      2.000000

 Following cartesian coordinates:
            Coordinates               Weight
  0.000000  0.000000  0.000000      1.000000
  0.029222  0.016871  0.000000      2.000000
  0.058444  0.033743  0.000000      1.000000
  0.000000  0.033743  0.000000      2.000000
  0.029222  0.050614  0.000000      2.000000
  0.058444  0.067486  0.000000      2.000000
 -0.029222  0.016871  0.000000      2.000000
  0.000000  0.067486  0.000000      1.000000
  0.029222  0.084357  0.000000      2.000000
  0.058444  0.101228  0.000000      1.000000
  0.000000  0.000000  0.033106      2.000000
  0.029222  0.016871  0.033106      2.000000
  0.058444  0.033743  0.033106      2.000000
 -0.029222 -0.016871  0.033106      2.000000
  0.000000  0.033743  0.033106      2.000000
  0.029222  0.050614  0.033106      2.000000
  0.058444  0.067486  0.033106      2.000000
 -0.029222  0.016871  0.033106      2.000000
  0.000000  0.067486  0.033106      2.000000
  0.029222  0.084357  0.033106      2.000000
  0.058444  0.101228  0.033106      2.000000
 -0.029222  0.050614  0.033106      2.000000
  0.000000 -0.033743  0.033106      2.000000
  0.029222 -0.016871  0.033106      2.000000
  0.058444  0.000000  0.033106      2.000000
 -0.029222 -0.050614  0.033106      2.000000

 SYSTEM =  unknown system
 POSCAR =  NiO_Cmmm_scale_0_975_disp_0_10_round_2

 Startparameter for this run:
   NWRITE =      1    write-flag & timer
   PREC   = accura    normal or accurate (medium, high low for compatibility)
   ISTART =      0    job   : 0-new  1-cont  2-samecut
   ICHARG =      2    charge: 1-file 2-atom 10-const
   ISPIN  =      2    spin polarized calculation?
   LNONCOLLINEAR =      F non collinear calculations
   LSORBIT =      F    spin-orbit coupling
   INIWAV =      1    electr: 0-lowe 1-rand  2-diag
   LASPH  =      F    aspherical Exc in radial PAW
   METAGGA=      F    non-selfconsistent MetaGGA calc.

 Electronic Relaxation 1
   ENCUT  =  500.0 eV  36.75 Ry    6.06 a.u.  15.60 15.60 18.36*2*pi/ulx,y,z
   ENINI  =  500.0     initial cutoff
   ENAUG  =  605.4 eV  augmentation charge cutoff
   NELM   =     80;   NELMIN=  2; NELMDL= -5     # of ELM steps
   EDIFF  = 0.1E-04   stopping-criterion for ELM
   LREAL  =      T    real-space projection
   NLSPLINE    = F    spline interpolate recip. space projectors
   LCOMPAT=      F    compatible to vasp.4.4
   GGA_COMPAT  = T    GGA compatible to vasp.4.4-vasp.4.6
   LMAXPAW     = -100 max onsite density
   LMAXMIX     =    2 max onsite mixed and CHGCAR
   VOSKOWN=      1    Vosko Wilk Nusair interpolation
   ROPT   =   -0.00025  -0.00025
 Ionic relaxation
   EDIFFG = 0.1E-03   stopping-criterion for IOM
   NSW    =      0    number of steps for IOM
   NBLOCK =      1;   KBLOCK =      1    inner block; outer block
   IBRION =     -1    ionic relax: 0-MD 1-quasi-New 2-CG
   NFREE  =      0    steps in history (QN), initial steepest desc. (CG)
   ISIF   =      2    stress and relaxation
   IWAVPR =     10    prediction:  0-non 1-charg 2-wave 3-comb
   ISYM   =      2    0-nonsym 1-usesym 2-fastsym
   LCORR  =      T    Harris-Foulkes like correction to forces

   POTIM  = 0.5000    time-step for ionic-motion
   TEIN   =    0.0    initial temperature
   TEBEG  =    0.0;   TEEND  =   0.0 temperature during run
   SMASS  =  -3.00    Nose mass-parameter (am)
   estimated Nose-frequenzy (Omega)   =  0.10E-29 period in steps =****** mass=  -0.167E-26a.u.
   SCALEE = 1.0000    scale energy and forces
   NPACO  =    256;   APACO  = 16.0  distance and # of slots for P.C.
   PSTRESS=    0.0 pullay stress

  Mass of Ions in am
   POMASS =  58.69 16.00
  Ionic Valenz
   ZVAL   =  10.00  6.00
  Atomic Wigner-Seitz radii
  virtual crystal weights
   VCA    =   1.00  1.00
   NELECT =     432.0000    total number of electrons
   NUPDOWN=      -1.0000    fix difference up-down

 DOS related values:
   EMIN   =  10.00;   EMAX   =-10.00  energy-range for DOS
   EFERMI =   0.00
   ISMEAR =     0;   SIGMA  =   0.05  broadening in eV -4-tet -1-fermi 0-gaus

 Electronic relaxation 2 (details)
   IALGO  =     38    algorithm
[...]
   -.210E+02 -.664E+02 0.955E+02   0.209E+02 0.661E+02 -.969E+02   -.117E+00 0.194E+00 0.946E+00   -.359E-01 -.128E-01 -.201E-02
   0.482E+02 0.523E+02 -.238E+03   -.458E+02 -.528E+02 0.273E+03   0.236E-01 0.391E+00 -.375E+01   -.250E-01 -.365E-03 -.553E-01
   0.100E+03 0.616E+02 -.344E+02   -.999E+02 -.611E+02 0.352E+02   0.585E-01 0.509E-01 0.847E+00   -.253E-01 -.257E-01 0.275E-01
   0.433E+02 0.849E+02 0.785E+02   -.435E+02 -.851E+02 -.812E+02   -.141E+00 -.285E+00 0.255E+01   -.202E-01 -.182E-01 0.200E-01
   0.152E+03 0.215E+02 -.256E+03   -.152E+03 -.221E+02 0.272E+03   -.192E+00 0.147E+00 -.175E+01   -.227E-01 -.191E-01 -.484E-01
   0.838E+02 0.359E+02 0.969E+02   -.840E+02 -.358E+02 -.105E+03   0.986E-01 0.303E-03 0.764E+00   -.139E-01 0.190E-02 0.274E-01
   0.969E+02 0.369E+02 0.130E+03   -.965E+02 -.368E+02 -.135E+03   -.228E+00 -.540E+00 0.143E+01   -.327E-01 -.232E-01 0.201E-01
   0.134E+03 -.115E+03 -.826E+02   -.134E+03 0.115E+03 0.874E+02   0.143E+00 -.717E+00 -.191E+00   0.946E-02 0.158E-01 -.326E-02
   -.898E+01 -.759E+02 -.190E+03   0.846E+01 0.758E+02 0.194E+03   0.108E+00 0.277E-01 0.172E+01   0.348E-01 0.400E-02 0.456E-02
   0.207E+02 -.115E+03 0.140E+03   -.215E+02 0.115E+03 -.146E+03   0.610E+00 0.155E-02 0.211E+01   -.440E-02 0.129E-02 0.221E-02
   -.629E+02 -.153E+01 -.207E+03   0.626E+02 0.177E+01 0.225E+03   -.181E+00 -.332E+00 -.763E+00   0.136E-01 0.955E-02 -.385E-01
   -.979E+02 -.246E+02 0.386E+00   0.976E+02 0.247E+02 -.372E+01   -.647E-01 -.262E+00 0.250E+01   0.147E-01 0.623E-02 0.269E-01
   -.909E+02 0.149E+02 -.118E+03   0.917E+02 -.143E+02 0.131E+03   0.135E+00 -.743E-01 0.700E+00   -.871E-02 0.151E-01 0.188E-01
   -.250E+01 0.440E+02 -.212E+01   0.115E+01 -.441E+02 -.507E+01   0.113E+01 -.349E+00 0.111E+01   0.120E-02 -.231E-02 -.367E-01
   -.597E+02 0.232E+02 -.861E+02   0.596E+02 -.231E+02 0.889E+02   0.864E-01 0.143E+00 -.114E+01   0.265E-01 0.359E-01 0.203E-01
   -.862E+02 -.186E+02 0.854E+02   0.858E+02 0.178E+02 -.862E+02   0.628E+00 0.289E+00 0.564E+00   0.850E-02 -.207E-01 0.148E-01
   -.694E+02 -.757E+02 -.164E+03   0.690E+02 0.759E+02 0.172E+03   0.279E-01 -.235E+00 -.285E+00   0.563E-02 0.129E-01 -.258E-02
   -.699E+01 -.709E+02 -.150E+03   0.706E+01 0.710E+02 0.154E+03   -.352E-01 0.134E-01 0.732E+00   -.304E-02 -.463E-02 0.231E-01
   0.186E+01 -.765E+02 0.133E+03   -.159E+01 0.770E+02 -.136E+03   -.295E+00 -.751E+00 0.210E+01   0.370E-01 0.603E-02 -.191E-01
   -.305E+01 -.100E+03 -.500E+02   0.341E+01 0.100E+03 0.491E+02   -.432E+00 0.975E-01 -.130E+01   0.653E-02 0.124E-01 -.190E-01
   -.176E+02 -.253E+01 0.560E+01   0.170E+02 0.257E+01 -.556E+01   -.201E+00 -.787E-01 -.155E+01   0.822E-02 -.216E-01 -.358E-02
   0.117E+02 -.291E+02 0.172E+03   -.118E+02 0.288E+02 -.176E+03   -.534E+00 0.185E+00 0.105E+00   0.253E-01 0.210E-01 0.208E-01
   -.635E+02 0.941E+02 -.102E+03   0.638E+02 -.941E+02 0.105E+03   0.547E-01 0.252E+00 0.818E-02   0.172E-01 -.520E-02 -.401E-01
   -.432E+02 0.790E+02 -.870E+02   0.425E+02 -.792E+02 0.868E+02   0.378E+00 0.182E+00 0.244E+01   -.146E-01 0.303E-01 0.398E-01
   -.159E+02 0.868E+02 0.944E+01   0.160E+02 -.872E+02 -.316E+01   0.321E+00 0.565E+00 -.186E+00   0.178E-01 0.165E-01 -.496E-02
   -.108E+02 0.218E+02 -.315E+02   0.108E+02 -.211E+02 0.316E+02   -.826E-01 -.948E+00 -.123E+00   -.142E-01 -.882E-02 -.172E-02
   0.339E+02 0.961E+01 -.143E+03   -.406E+02 -.136E+02 0.166E+03   0.611E+01 0.340E+01 -.125E+02   -.267E-01 -.968E-02 0.384E-01
   -.577E+02 0.100E+02 0.263E+03   0.634E+02 -.142E+02 -.327E+03   -.212E+01 0.202E+01 0.173E+02   -.972E-02 -.833E-02 -.425E-01
   0.322E+02 0.112E+02 -.410E+02   -.300E+02 -.996E+01 0.392E+02   -.296E+01 -.184E+01 0.115E+01   -.158E-01 -.603E-02 -.230E-01
   0.555E+02 0.417E+02 -.223E+02   -.566E+02 -.407E+02 0.260E+02   0.821E+00 -.143E+01 -.313E+01   -.103E-01 -.132E-01 0.589E-01
   0.500E+02 0.347E+02 0.250E+03   -.555E+02 -.343E+02 -.296E+03   0.332E+01 0.107E+00 0.145E+02   -.107E-01 0.846E-03 -.416E-01
   0.786E+02 0.119E+02 0.979E+01   -.791E+02 -.112E+02 -.136E+02   0.203E+00 -.114E+01 0.325E+01   -.835E-02 -.455E-02 -.159E-01
   0.428E+02 0.424E+02 -.590E+02   -.416E+02 -.451E+02 0.717E+02   -.163E+01 0.285E+01 -.639E+01   -.141E-01 -.464E-02 0.331E-01
   0.778E+02 0.792E+01 0.767E+02   -.801E+02 -.674E+01 -.919E+02   0.138E+01 -.447E+00 0.491E+01   -.142E-01 -.141E-01 -.123E-01
   0.465E+02 -.400E+02 -.211E+02   -.461E+02 0.400E+02 0.154E+02   -.693E+00 0.812E+00 0.300E+01   0.153E-01 0.608E-02 0.102E-01
   -.220E+02 -.526E+02 0.109E+03   0.225E+02 0.540E+02 -.117E+03   -.465E+00 -.142E+01 0.703E+01   0.737E-02 0.318E-03 -.874E-02
   0.141E+02 -.186E+02 0.475E+02   -.935E+01 0.133E+02 -.496E+02   -.522E+01 0.574E+01 0.340E+00   0.285E-03 0.323E-02 0.444E-02
   -.493E+02 -.138E+01 -.300E+01   0.503E+02 -.468E+00 -.120E+01   -.119E+01 0.239E+01 0.327E+01   0.139E-01 0.310E-02 -.869E-02
   -.532E+01 0.248E+02 0.117E+03   0.119E+00 -.276E+02 -.137E+03   0.450E+01 0.232E+01 0.753E+01   -.450E-02 0.313E-02 0.122E-01
   -.616E+02 0.148E+02 0.198E+03   0.652E+02 -.147E+02 -.228E+03   -.228E+01 -.259E+00 0.128E+02   0.188E-02 0.801E-02 -.130E-01
   -.592E+02 0.205E+02 -.124E+03   0.641E+02 -.177E+02 0.137E+03   -.434E+01 -.310E+01 -.489E+01   0.101E-01 0.134E-01 0.147E-01
   -.423E+02 -.220E+02 0.177E+02   0.423E+02 0.216E+02 -.173E+02   0.341E+00 0.566E+00 -.229E+00   0.132E-01 0.618E-02 0.346E-02
   -.720E+02 0.459E+02 0.857E+02   0.763E+02 -.487E+02 -.923E+02   -.458E+01 0.300E+01 0.327E+01   0.353E-02 -.114E-01 -.166E-01
   -.106E+02 -.574E+02 0.126E+02   0.613E+01 0.570E+02 -.236E+02   0.462E+01 0.969E+00 0.636E+01   0.784E-02 0.574E-02 0.649E-01
   0.353E+02 -.328E+02 0.792E+02   -.356E+02 0.323E+02 -.855E+02   0.287E+00 0.734E+00 0.443E+01   0.141E-01 -.376E-02 -.243E-01
   -.242E+02 0.413E+01 0.842E+02   0.243E+02 -.879E+01 -.924E+02   0.406E+00 0.517E+01 0.313E+01   0.155E-01 0.289E-02 -.280E-01
   0.260E+02 -.500E+02 -.139E+03   -.311E+02 0.510E+02 0.152E+03   0.552E+01 -.576E+00 -.664E+01   0.715E-02 -.545E-02 -.247E-01
   0.202E+02 0.165E+02 -.260E+02   -.234E+02 -.186E+02 0.322E+02   0.399E+01 0.231E+01 -.434E+01   0.118E-01 0.646E-03 0.244E-01
   0.221E+02 -.369E+02 0.412E+02   -.218E+02 0.368E+02 -.421E+02   0.376E-01 0.343E+00 0.287E+00   0.904E-02 0.139E-01 -.486E-02
   -.526E+02 0.272E+02 -.907E+01   0.527E+02 -.253E+02 0.565E+01   -.125E+00 -.239E+01 0.231E+01   -.132E-02 0.613E-02 -.399E-02
   -.628E+00 0.337E+02 0.176E+03   -.300E+00 -.325E+02 -.197E+03   0.104E+01 -.156E+01 0.113E+02   0.308E-02 0.160E-01 0.422E-01
   -.559E+02 0.340E+02 0.659E+01   0.591E+02 -.311E+02 -.687E+01   -.350E+01 -.377E+01 -.646E-01   0.840E-02 -.282E-02 -.330E-01
   -.468E+01 -.126E+02 -.736E+02   -.711E-14 0.497E-13 0.121E-12   0.471E+01 0.126E+02 0.736E+02   -.177E-01 0.160E-02 -.577E-02

 POSITION                                       TOTAL-FORCE (eV/Angst)
      8.48392      0.07538     10.06417        -3.049619      2.385730     47.044069
      0.13502      0.08612      3.59010         0.917045      0.751437    -11.175305
     -4.22129      7.38465      6.97594        -0.234926     -0.056926     -0.488137
     -1.18241      2.53028      9.97020         2.308717     -0.112452     30.438027
     -1.25756      2.55675      3.27832         0.312221      0.468612      1.681822
     -1.19396      2.72223      6.82246        -0.432481     -0.508674     -0.146465
     -2.66577      4.91471      9.99222         0.515186     -0.455651     14.920767
     -2.73770      5.02899      3.62719        -0.060182      0.134977     -7.443918
     -2.72873      5.13709      6.92988         0.215588     -0.409542     -2.980040
      3.05984      0.20152     10.06287         0.220830     -0.196312      4.538812
     -1.40508      7.36085      3.24981        -0.377803      0.005809      5.614094
     -1.37350      7.37139      6.94855        -0.211663     -0.203507     -3.658575
      1.41869      2.58775      9.98321        -0.467279     -0.075244     17.794227
      1.43092      2.48997      3.52373        -0.278879     -0.207563     -0.808868
      1.53900      2.55374      6.66585         0.976897      0.553884     13.983898
     -0.19458      5.14909      0.17492        -0.226014     -0.439804     -6.118546
      0.01845      5.00089      3.33018         0.062027      0.304925      1.604827
     -0.07714      5.02460      6.85538         0.191699     -0.486042     -0.244554
      5.66787      0.00557      0.00809        -0.340800      0.012399      7.897726
      1.61718      7.35955      3.38757         0.032156      0.179079      5.309001
      5.86408      0.09052      6.92463         0.009787     -0.283165     -1.466667
      4.42817      2.44618      0.08918        -0.067286     -0.254228     -2.238122
      4.41859      2.54664      3.42706        -0.764469     -0.052301     -1.510812
      4.48660      2.46858      6.93468        -0.559066     -0.170360     -4.178107
      2.70417      5.02568      0.07133         0.420711      0.234657      2.707041
      2.96086      5.02218      3.46506        -0.332664      0.080212      2.352804
      2.87402      4.99737      6.90005         0.448825      0.224433      6.089930
      0.04518      0.13451      1.77440        -0.073297     -0.213485     -0.010725
      4.17304      7.33008      5.03723        -0.577365     -0.565244     10.902444
      0.03174      0.01273      8.82066         3.584458     -2.149935    -46.721874
     -1.12397      2.62824      1.61245        -0.745232     -0.560496     -0.691419
     -1.27086      2.67288      5.00188        -0.264184     -0.431919      0.659593
     -1.28842      2.55471      8.65706        -2.156894      0.503638    -31.574964
     -2.69536      5.03427      1.83500        -0.296865     -0.471473     -0.569795
     -2.71366      4.96797      5.16316        -0.407550      0.221460      6.382051
     -2.73876      5.02755      8.55259        -0.887465      0.713287    -10.298149
      2.98128      0.03595      1.66997        -0.264001      0.816575     -2.607358
      2.84907      0.04535      5.25563         0.011441     -0.053911     -1.752931
     -1.14740      7.31615      8.52816        -0.486441      0.393818     -1.841150
      1.50897      2.46086      1.77739        -0.127176      0.548908     -0.928436
      1.34386      2.45610      5.23631        -0.713914     -0.484425    -12.390324
      1.53460      2.56784      8.57176         1.293228     -0.215111    -17.229989
      0.05007      5.19903      1.65541         0.573019     -0.317106      7.614060
     -0.03470      4.97486      5.08878         0.388924      0.227336      0.150927
      0.01263      4.94126      8.63734        -0.268058      0.190291     -3.344823
      1.34015      7.37487      1.83015         0.201775      0.569626     -4.599216
      5.87891      0.01542      5.24513         0.023139      0.258072     -1.907453
      1.49567      7.30728      8.55292         0.491555      0.509746     -5.043005
      4.23340      2.50654      1.62793         0.530375      0.403098      6.135765
      4.26362      2.44471      5.09733         0.836038      0.249958      1.899838
      4.47930      2.44851      8.55398         0.341441      0.253070     -0.591725
      2.83019      5.10113      1.80002        -0.072516     -0.559025     -1.118200
      2.85732      5.02407      5.40207         0.117184     -0.397239     -9.664647
      2.95264      5.14147      8.52964        -0.280178     -0.863897     -0.377422
    total drift:                                0.013101     -0.011913      0.003924

  FREE ENERGIE OF THE ION-ELECTRON SYSTEM (eV)
  free  energy   TOTEN  =      -298.5345740269 eV

  energy  without entropy=     -298.4856043588  energy(sigma->0) =     -298.51008919

volume of typ            1:    27.0 %

volume of typ            2:     6.9 %

total charge

# of ion       s       p       d       tot
    1        0.485   0.624   8.107   9.216
    2        0.349   0.399   7.944   8.692
    3        0.215   0.174   7.982   8.372
    4        0.447   0.589   8.058   9.094
    5        0.292   0.306   7.910   8.509
    6        0.238   0.209   7.948   8.395
    7        0.352   0.383   7.999   8.734
    8        0.327   0.362   7.920   8.609
    9        0.295   0.311   7.957   8.562
   10        0.327   0.382   7.972   8.681
   11        0.279   0.267   7.944   8.491
   12        0.324   0.365   7.925   8.615
   13        0.375   0.428   7.988   8.791
   14        0.272   0.273   7.929   8.475
   15        0.348   0.379   8.004   8.731
   16        0.368   0.465   7.971   8.804
   17        0.275   0.281   7.936   8.492
   18        0.264   0.253   7.921   8.438
   19        0.319   0.352   7.977   8.648
   20        0.298   0.304   7.923   8.525
   21        0.311   0.338   7.924   8.573
   22        0.362   0.436   7.947   8.745
   23        0.273   0.264   7.910   8.446
   24        0.286   0.279   7.942   8.506
   25        0.295   0.312   7.940   8.546
   26        0.258   0.236   7.935   8.428
   27        0.373   0.457   7.946   8.776
   28        1.268   2.730   0.005   4.004
   29        1.283   2.786   0.016   4.084
   30        1.311   2.918   0.040   4.269
   31        1.270   2.773   0.010   4.053
   32        1.271   2.725   0.007   4.004
   33        1.299   2.882   0.032   4.212
   34        1.267   2.713   0.004   3.985
   35        1.275   2.792   0.014   4.081
   36        1.282   2.859   0.026   4.167
   37        1.275   2.791   0.014   4.080
   38        1.272   2.714   0.006   3.992
   39        1.274   2.837   0.019   4.130
   40        1.269   2.724   0.006   3.998
   41        1.283   2.829   0.022   4.135
   42        1.281   2.833   0.021   4.135
   43        1.281   2.820   0.019   4.120
   44        1.271   2.726   0.007   4.005
   45        1.270   2.776   0.010   4.056
   46        1.273   2.771   0.011   4.056
   47        1.270   2.735   0.007   4.012
   48        1.276   2.829   0.019   4.123
   49        1.274   2.782   0.013   4.068
   50        1.270   2.733   0.008   4.010
   51        1.271   2.813   0.016   4.099
   52        1.269   2.758   0.010   4.037
   53        1.279   2.782   0.014   4.075
   54        1.269   2.810   0.014   4.092
tot          43.06   84.67  215.25  342.98

magnetization (x)

# of ion       s       p       d       tot
    1       -0.002  -0.010  -0.368  -0.380
    2        0.015   0.002   0.802   0.819
    3        0.001   0.002  -0.088  -0.085
    4        0.008   0.006   0.410   0.424
    5       -0.005   0.001  -0.502  -0.506
    6        0.000   0.000  -0.200  -0.199
    7       -0.005  -0.005  -0.446  -0.455
    8        0.012  -0.002   0.774   0.783
    9       -0.001  -0.001  -0.151  -0.153
   10        0.001  -0.001   0.119   0.119
   11        0.009   0.004   0.654   0.667
   12       -0.004   0.004  -0.542  -0.542
   13        0.015   0.005   0.704   0.723
   14       -0.003  -0.001  -0.180  -0.184
   15       -0.005  -0.006  -0.367  -0.378
   16       -0.006   0.001  -0.418  -0.423
   17        0.000  -0.003   0.224   0.222
   18        0.004  -0.001   0.485   0.489
   19       -0.001  -0.001  -0.062  -0.065
   20        0.010   0.000   0.624   0.634
   21       -0.004   0.002  -0.410  -0.412
   22       -0.005   0.002  -0.361  -0.364
   23        0.008  -0.001   0.655   0.662
   24        0.000  -0.002  -0.018  -0.019
   25        0.007  -0.001   0.468   0.474
   26        0.005   0.001   0.586   0.592
   27       -0.008   0.003  -0.563  -0.569
   28        0.002   0.071  -0.000   0.073
   29        0.008   0.332   0.001   0.341
   30       -0.004  -0.156  -0.001  -0.161
   31       -0.001  -0.029  -0.000  -0.030
   32       -0.007  -0.270   0.000  -0.277
   33        0.004   0.164   0.001   0.168
   34        0.004   0.156   0.000   0.160
   35        0.006   0.254   0.000   0.261
   36       -0.005  -0.187   0.000  -0.191
   37        0.007   0.265  -0.000   0.272
   38       -0.004  -0.186  -0.000  -0.190
   39       -0.003  -0.113   0.000  -0.116
   40        0.003   0.118  -0.000   0.121
   41       -0.005  -0.199   0.000  -0.204
   42        0.006   0.237   0.001   0.244
   43       -0.003  -0.145  -0.000  -0.149
   44        0.007   0.277  -0.000   0.284
   45       -0.001  -0.020  -0.000  -0.021
   46        0.006   0.227   0.000   0.233
   47       -0.001  -0.038  -0.000  -0.039
   48       -0.004  -0.116   0.000  -0.120
   49       -0.001  -0.044  -0.000  -0.045
   50        0.007   0.265  -0.000   0.271
   51       -0.003  -0.107   0.000  -0.110
   52        0.008   0.311  -0.000   0.320
   53       -0.004  -0.192  -0.000  -0.197
   54       -0.001  -0.043   0.000  -0.044
tot           0.07    0.83    1.83    2.73