 vasp.5.4.4.18Apr17-6-g9f103f2a35 (build May 12 2020 04:58:55) complex

 MD_VERSION_INFO: Compiled 2020-05-12T11:58:55-UTC in devlin.sd.materialsdesign.
 com:/home/medea2/data/build/wwolf/vasp-gpu5.4.4/13047/x86_64/src/src/build/std
 from svn 13047

 executed on                        Lin64 date 2023.03.24  07:15:53

 INCAR:
 POTCAR:    PAW_PBE Ni 02Aug2007
 POTCAR:    PAW_PBE O 08Apr2002

 POTCAR:    PAW_PBE Ni 02Aug2007

 POTCAR:    PAW_PBE O 08Apr2002

 Optimization of the real space projectors (new method)

 maximal supplied QI-value         = 16.25
 optimisation between [QCUT,QGAM] = [ 11.38, 22.75] = [ 36.24,144.96] Ry
 Optimized for a Real-space Cutoff    1.47 Angstroem

   l    n(q)    QCUT    max X(q) W(low)/X(q) W(high)/X(q)  e(spline)
   2      9    11.376    60.317    0.17E-03    0.16E-04    0.16E-06
   2      9    11.376    55.921    0.17E-03    0.16E-04    0.17E-06
   0     10    11.376    51.690    0.45E-04    0.60E-04    0.21E-06
   0     10    11.376    30.015    0.37E-04    0.55E-04    0.19E-06
   1     10    11.376    18.849    0.83E-04    0.11E-03    0.92E-07
   1     10    11.376    14.624    0.69E-04    0.92E-04    0.82E-07
 Optimization of the real space projectors (new method)

 maximal supplied QI-value         = 24.76
 optimisation between [QCUT,QGAM] = [ 11.39, 22.77] = [ 36.31,145.25] Ry
 Optimized for a Real-space Cutoff    1.10 Angstroem

   l    n(q)    QCUT    max X(q) W(low)/X(q) W(high)/X(q)  e(spline)
   0      7    11.387    20.381    0.22E-03    0.48E-03    0.18E-06
   0      7    11.387    15.268    0.22E-03    0.52E-03    0.19E-06
   1      7    11.387     5.964    0.22E-03    0.73E-03    0.24E-06
   1      7    11.387     5.382    0.19E-03    0.60E-03    0.21E-06

  PAW_PBE Ni 02Aug2007                  :
  PAW_PBE O 08Apr2002                   :

 POSCAR: NiO_Cmmm_scale_0_975_disp_0_10_round_1
  positions in direct lattice
 exchange correlation table for  LEXCH =       14
   RHO(1)=    0.500       N(1)  =     2000
   RHO(2)=  100.500       N(2)  =     4000

 ion  position               nearest neighbor table
   1  0.998  0.996  0.989-  30 1.45  28 1.78  10 2.66  19 2.66  25 2.72   7 2.79  13 2.87   3 2.89
                             4 2.98
   2  0.979  0.993  0.339-  28 1.75  29 1.92  20 2.47  26 2.51   5 2.75   8 2.80
   3  0.008  0.010  0.702-  30 1.45  29 1.73  27 2.67   9 2.78  21 2.79  12 2.85   1 2.89  15 2.96
                             6 3.03
   4  0.033  0.359  0.007-  33 1.51  31 1.69  13 2.73  16 2.74   7 2.84   1 2.98  19 2.98  22 3.02

   5  0.029  0.337  0.344-  32 1.49  31 1.71  14 2.72   2 2.75  17 2.89  20 2.92   8 3.05  23 3.06

[...]

  22  0.687  0.374  0.997-  51 1.42  49 1.68  25 2.75  13 2.84   7 2.93  24 3.01   4 3.02
  23  0.683  0.360  0.336-  49 1.81  50 1.89  14 2.78  26 2.85   8 2.86   5 3.06
  24  0.670  0.338  0.699-  51 1.59  50 1.78  21 2.78  15 2.81  12 2.91  27 2.94  22 3.01   9 3.05
                             6 3.06
  25  0.671  0.688  0.994-  54 1.39  52 1.85  19 2.63   1 2.72  16 2.75  22 2.75  13 2.98
  26  0.689  0.696  0.331-  52 1.56  53 1.95   2 2.51  20 2.54  17 2.78  23 2.85   8 2.88  14 2.90

[...]

  28  0.997  0.995  0.166-   2 1.75   1 1.78
  29  0.997  0.009  0.530-   3 1.73   2 1.92
  30  0.015  0.021  0.846-   3 1.45   1 1.45
  31  0.032  0.354  0.175-   4 1.69   5 1.71
  32  0.026  0.335  0.492-   5 1.49   6 1.69
  33  0.013  0.339  0.857-   4 1.51   6 2.03
  34  0.037  0.675  0.170-   7 1.59   8 1.70
  35  0.028  0.710  0.511-   9 1.62   8 1.75
  36  0.015  0.674  0.835-   9 1.65   7 1.81
  37  0.339  0.010  0.162-  11 1.57  10 1.71
  38  0.342  0.005  0.529-  12 1.54  11 2.19
  39  0.358  0.976  0.858-  10 1.47  12 1.80
  40  0.337  0.330  0.171-  14 1.68  13 1.76
  41  0.339  0.342  0.521-  15 1.69  14 1.86
  42  0.330  0.356  0.848-  13 1.51  15 1.62
  43  0.343  0.686  0.155-  16 1.46  17 1.85
  44  0.361  0.691  0.515-  18 1.59  17 1.79
  45  0.333  0.696  0.865-  16 1.46  18 1.94
  46  0.700  0.006  0.181-  20 1.71  19 1.73
  47  0.657  0.970  0.520-  21 1.59  20 1.73
  48  0.693  0.997  0.857-  19 1.53  21 1.89
  49  0.707  0.341  0.159-  22 1.68  23 1.81
  50  0.694  0.361  0.524-  24 1.78  23 1.89
  51  0.684  0.355  0.857-  22 1.42  24 1.59
  52  0.680  0.673  0.177-  26 1.56  25 1.85
  53  0.689  0.698  0.525-  27 1.53  26 1.95
  54  0.693  0.692  0.857-  25 1.39  27 1.82

  LATTYP: Found a hexagonal cell.
 ALAT       =     8.5551570040
 C/A-ratio  =     1.1769065425

  Lattice vectors:

 A1 = (   8.5551570000,   0.0000000000,   0.0000000000)
 A2 = (  -4.2775785000,   7.4089833000,   0.0000000000)
 A3 = (   0.0000000000,   0.0000000000,  10.0686202500)

Analysis of symmetry for initial positions (statically):
 Subroutine PRICEL returns:
 Original cell was already a primitive cell.

 Routine SETGRP: Setting up the symmetry group for a
 hexagonal supercell.

 Subroutine GETGRP returns: Found  1 space group operations
 (whereof  1 operations were pure point group operations)
 out of a pool of 24 trial point group operations.

The static configuration has the point symmetry C_1 .

Analysis of symmetry for dynamics (positions and initial velocities):
 Subroutine PRICEL returns:
 Original cell was already a primitive cell.

[...]

The dynamic configuration has the point symmetry C_1 .

Analysis of structural, dynamic, and magnetic symmetry:
 Subroutine PRICEL returns:
 Original cell was already a primitive cell.

 Routine SETGRP: Setting up the symmetry group for a
 hexagonal supercell.

 Subroutine GETGRP returns: Found  1 space group operations
 (whereof  1 operations were pure point group operations)
 out of a pool of 24 trial point group operations.

The magnetic configuration has the point symmetry C_1 .

 Subroutine INISYM returns: Found  1 space group operations
 (whereof  1 operations are pure point group operations),
 and found     1 'primitive' translations

 KPOINTS: Automatic mesh

Automatic generation of k-mesh.
Space group operators:
 irot       det(A)        alpha          n_x          n_y          n_z        tau_x        tau_y        tau_z
    1     1.000000     0.000000     1.000000     0.000000     0.000000     0.000000     0.000000     0.000000

 Subroutine IBZKPT returns following result:

 Found     26 irreducible k-points:

 Following reciprocal coordinates:
            Coordinates               Weight
  0.000000  0.000000  0.000000      1.000000
  0.250000  0.000000  0.000000      2.000000
  0.500000  0.000000  0.000000      1.000000
  0.000000  0.250000  0.000000      2.000000
  0.250000  0.250000  0.000000      2.000000
  0.500000  0.250000  0.000000      2.000000
 -0.250000  0.250000  0.000000      2.000000
  0.000000  0.500000  0.000000      1.000000
  0.250000  0.500000  0.000000      2.000000
  0.500000  0.500000  0.000000      1.000000
  0.000000  0.000000  0.333333      2.000000
  0.250000  0.000000  0.333333      2.000000
  0.500000  0.000000  0.333333      2.000000
 -0.250000  0.000000  0.333333      2.000000
  0.000000  0.250000  0.333333      2.000000
  0.250000  0.250000  0.333333      2.000000
  0.500000  0.250000  0.333333      2.000000
 -0.250000  0.250000  0.333333      2.000000
  0.000000  0.500000  0.333333      2.000000
  0.250000  0.500000  0.333333      2.000000
  0.500000  0.500000  0.333333      2.000000
 -0.250000  0.500000  0.333333      2.000000
  0.000000 -0.250000  0.333333      2.000000
  0.250000 -0.250000  0.333333      2.000000
  0.500000 -0.250000  0.333333      2.000000
 -0.250000 -0.250000  0.333333      2.000000

 Following cartesian coordinates:
            Coordinates               Weight
  0.000000  0.000000  0.000000      1.000000
  0.029222  0.016871  0.000000      2.000000
  0.058444  0.033743  0.000000      1.000000
  0.000000  0.033743  0.000000      2.000000
  0.029222  0.050614  0.000000      2.000000
  0.058444  0.067486  0.000000      2.000000
 -0.029222  0.016871  0.000000      2.000000
  0.000000  0.067486  0.000000      1.000000
  0.029222  0.084357  0.000000      2.000000
  0.058444  0.101228  0.000000      1.000000
  0.000000  0.000000  0.033106      2.000000
  0.029222  0.016871  0.033106      2.000000
  0.058444  0.033743  0.033106      2.000000
 -0.029222 -0.016871  0.033106      2.000000
  0.000000  0.033743  0.033106      2.000000
  0.029222  0.050614  0.033106      2.000000
  0.058444  0.067486  0.033106      2.000000
 -0.029222  0.016871  0.033106      2.000000
  0.000000  0.067486  0.033106      2.000000
  0.029222  0.084357  0.033106      2.000000
  0.058444  0.101228  0.033106      2.000000
 -0.029222  0.050614  0.033106      2.000000
  0.000000 -0.033743  0.033106      2.000000
  0.029222 -0.016871  0.033106      2.000000
  0.058444  0.000000  0.033106      2.000000
 -0.029222 -0.050614  0.033106      2.000000

 SYSTEM =  unknown system
 POSCAR =  NiO_Cmmm_scale_0_975_disp_0_10_round_1

 Startparameter for this run:
   NWRITE =      1    write-flag & timer
   PREC   = accura    normal or accurate (medium, high low for compatibility)
   ISTART =      0    job   : 0-new  1-cont  2-samecut
   ICHARG =      2    charge: 1-file 2-atom 10-const
   ISPIN  =      2    spin polarized calculation?
   LNONCOLLINEAR =      F non collinear calculations
   LSORBIT =      F    spin-orbit coupling
   INIWAV =      1    electr: 0-lowe 1-rand  2-diag
   LASPH  =      F    aspherical Exc in radial PAW
   METAGGA=      F    non-selfconsistent MetaGGA calc.

 Electronic Relaxation 1
   ENCUT  =  500.0 eV  36.75 Ry    6.06 a.u.  15.60 15.60 18.36*2*pi/ulx,y,z
   ENINI  =  500.0     initial cutoff
   ENAUG  =  605.4 eV  augmentation charge cutoff
   NELM   =     80;   NELMIN=  2; NELMDL= -5     # of ELM steps
   EDIFF  = 0.1E-04   stopping-criterion for ELM
   LREAL  =      T    real-space projection
   NLSPLINE    = F    spline interpolate recip. space projectors
   LCOMPAT=      F    compatible to vasp.4.4
   GGA_COMPAT  = T    GGA compatible to vasp.4.4-vasp.4.6
   LMAXPAW     = -100 max onsite density
   LMAXMIX     =    2 max onsite mixed and CHGCAR
   VOSKOWN=      1    Vosko Wilk Nusair interpolation
   ROPT   =   -0.00025  -0.00025
 Ionic relaxation
   EDIFFG = 0.1E-03   stopping-criterion for IOM
   NSW    =      0    number of steps for IOM
   NBLOCK =      1;   KBLOCK =      1    inner block; outer block
   IBRION =     -1    ionic relax: 0-MD 1-quasi-New 2-CG
   NFREE  =      0    steps in history (QN), initial steepest desc. (CG)
   ISIF   =      2    stress and relaxation
   IWAVPR =     10    prediction:  0-non 1-charg 2-wave 3-comb
   ISYM   =      2    0-nonsym 1-usesym 2-fastsym
   LCORR  =      T    Harris-Foulkes like correction to forces

   POTIM  = 0.5000    time-step for ionic-motion
   TEIN   =    0.0    initial temperature
   TEBEG  =    0.0;   TEEND  =   0.0 temperature during run
   SMASS  =  -3.00    Nose mass-parameter (am)
   estimated Nose-frequenzy (Omega)   =  0.10E-29 period in steps =****** mass=  -0.167E-26a.u.
   SCALEE = 1.0000    scale energy and forces
   NPACO  =    256;   APACO  = 16.0  distance and # of slots for P.C.
   PSTRESS=    0.0 pullay stress

  Mass of Ions in am
   POMASS =  58.69 16.00
  Ionic Valenz
   ZVAL   =  10.00  6.00
  Atomic Wigner-Seitz radii
[...]
   -.326E+02 -.779E+02 0.217E+03   0.324E+02 0.771E+02 -.234E+03   -.167E+00 0.442E+00 0.408E+01   -.324E-01 0.328E-01 0.508E-01
   0.660E+02 0.280E+02 -.102E+03   -.658E+02 -.275E+02 0.109E+03   -.515E-01 -.268E+00 -.716E+00   0.496E-01 0.114E-01 -.712E-01
   0.636E+02 -.295E+01 0.538E+02   -.633E+02 0.324E+01 -.648E+02   -.156E+00 -.122E+00 0.227E+01   0.302E-01 0.146E-01 0.254E-01
   0.850E+02 0.910E+01 -.287E+02   -.847E+02 -.935E+01 0.291E+02   -.489E+00 -.326E+00 0.199E+01   0.127E-01 -.339E-01 0.510E-01
   0.105E+03 0.754E+02 0.205E+02   -.106E+03 -.751E+02 -.247E+02   0.239E+00 -.696E+00 -.206E+00   -.168E-01 -.557E-03 -.568E-02
   0.384E+02 0.670E+02 -.753E+02   -.383E+02 -.663E+02 0.764E+02   0.185E+00 -.310E+00 -.395E+00   0.303E-01 0.237E-02 -.241E-01
   0.184E+02 0.103E+03 0.731E+02   -.179E+02 -.103E+03 -.721E+02   -.285E+00 -.820E-03 -.154E+00   -.234E-01 -.240E-01 0.270E-01
   0.168E+01 -.181E+03 -.131E+03   -.583E+01 0.183E+03 0.142E+03   0.138E+01 -.166E+00 0.454E+00   -.546E-01 0.516E-01 0.162E-01
   -.824E+01 -.153E+03 -.234E+03   0.827E+01 0.153E+03 0.236E+03   0.306E+00 0.217E+00 0.362E+01   -.479E-02 0.142E-01 -.169E-01
   -.822E+01 -.141E+03 0.121E+02   0.881E+01 0.140E+03 -.845E+01   0.251E+00 -.141E+00 0.191E+01   0.549E-02 0.375E-01 0.181E-02
   -.904E+02 0.137E+02 -.157E+03   0.915E+02 -.147E+02 0.167E+03   -.667E+00 0.358E+00 -.134E+01   0.232E-02 0.574E-03 -.314E-01
   -.972E+02 0.614E+02 -.998E+02   0.974E+02 -.611E+02 0.101E+03   -.328E+00 -.501E+00 0.826E+00   0.104E-01 -.154E-01 -.101E-01
   -.890E+02 0.120E+02 0.123E+03   0.892E+02 -.117E+02 -.128E+03   -.541E+00 -.302E+00 0.214E+01   -.836E-02 0.736E-02 0.429E-01
   -.108E+03 0.399E+02 -.345E+02   0.111E+03 -.411E+02 0.342E+02   -.169E+01 0.463E+00 0.309E+00   0.703E-02 -.679E-01 0.215E-02
   -.234E+01 0.650E+02 -.251E+02   0.213E+01 -.646E+02 0.253E+02   0.231E-01 -.404E+00 -.593E+00   -.103E-01 -.122E-01 -.414E-02
   -.416E+02 0.324E+02 -.573E+02   0.405E+02 -.333E+02 0.599E+02   0.256E+00 0.701E+00 0.201E+01   0.411E-01 -.303E-01 0.723E-02
   0.124E+03 -.136E+03 -.124E+03   -.123E+03 0.136E+03 0.131E+03   0.191E+00 -.266E+00 -.287E+00   0.175E-01 0.662E-02 0.236E-01
   0.122E+03 -.164E+03 -.345E+02   -.122E+03 0.163E+03 0.338E+02   -.196E+00 0.451E-01 0.594E+00   -.459E-01 0.159E-01 0.690E-01
   0.573E+02 -.164E+03 -.417E+02   -.573E+02 0.164E+03 0.453E+02   0.285E+00 -.351E+00 0.152E+01   0.236E-01 0.258E-01 -.511E-01
   0.276E+02 0.252E+02 -.180E+03   -.283E+02 -.237E+02 0.198E+03   0.958E+00 -.745E+00 -.359E+01   -.475E-01 0.185E-01 -.421E-01
   0.294E+02 0.686E+02 -.752E+02   -.291E+02 -.686E+02 0.757E+02   0.334E+00 -.177E+00 0.228E+00   -.315E-01 -.278E-01 -.878E-02
   -.284E+01 0.507E+02 0.166E+03   0.279E+01 -.510E+02 -.174E+03   0.397E+00 0.401E+00 0.260E+01   -.131E-02 -.269E-03 0.308E-01
   0.193E+02 0.107E+03 -.230E+03   -.212E+02 -.107E+03 0.251E+03   0.418E+00 0.208E+00 -.104E+01   0.158E-01 -.693E-01 -.258E-01
   -.310E+02 0.144E+03 -.148E+03   0.311E+02 -.144E+03 0.153E+03   -.165E+00 0.698E-01 0.177E+01   -.226E-01 -.332E-01 0.680E-02
   0.696E+01 0.115E+03 -.342E+02   -.683E+01 -.116E+03 0.389E+02   -.274E-01 0.266E+00 0.268E+01   -.195E-01 -.358E-02 0.613E-01
   -.487E+02 -.360E+02 -.462E+02   0.504E+02 0.368E+02 0.448E+02   -.178E+01 -.883E+00 0.120E+01   0.359E-01 0.183E-01 -.532E-01
   -.503E+02 -.540E+02 0.933E+02   0.512E+02 0.549E+02 -.990E+02   -.668E+00 -.937E+00 0.433E+01   -.867E-02 0.195E-01 0.571E-01
   -.216E+02 -.732E+02 0.295E+02   0.220E+02 0.794E+02 -.295E+02   0.150E+00 -.482E+01 -.533E-02   0.975E-02 0.170E-01 0.133E-02
   0.304E+02 0.192E+02 -.520E+02   -.309E+02 -.187E+02 0.525E+02   0.488E+00 -.560E+00 -.239E+00   0.213E-01 0.152E-01 -.495E-01
   0.461E+02 0.227E+02 -.722E+02   -.459E+02 -.266E+02 0.867E+02   -.628E+00 0.428E+01 -.664E+01   0.729E-02 -.436E-02 0.794E-01
   0.640E+02 0.295E+02 0.187E+03   -.661E+02 -.335E+02 -.208E+03   0.171E+01 0.413E+01 0.124E+02   0.257E-01 -.636E-03 -.220E-01
   0.371E+02 0.642E+02 -.972E+02   -.352E+02 -.689E+02 0.103E+03   -.253E+01 0.462E+01 -.254E+01   0.375E-02 0.113E-02 0.532E-02
   0.985E+01 0.215E+02 0.860E+02   -.113E+02 -.184E+02 -.922E+02   0.133E+01 -.364E+01 0.313E+01   0.355E-02 -.557E-02 -.730E-02
   0.309E+02 0.819E+02 -.160E+02   -.316E+02 -.858E+02 0.226E+02   0.717E+00 0.423E+01 -.435E+01   -.177E-01 -.136E-01 0.963E-02
   -.156E+02 -.124E+03 -.300E+02   0.132E+02 0.130E+03 0.228E+02   0.153E+01 -.528E+01 0.368E+01   -.178E-01 0.141E-01 -.158E-02
   0.410E+00 -.104E+03 0.225E+03   -.107E+01 0.107E+03 -.247E+03   0.749E+00 -.239E+01 0.148E+02   0.133E-01 0.188E-01 -.308E-01
   -.120E+03 -.631E+02 0.137E+03   0.135E+03 0.573E+02 -.156E+03   -.132E+02 0.567E+01 0.734E+01   -.238E-01 0.225E-01 0.341E-01
   -.408E+02 0.245E+02 -.379E+02   0.397E+02 -.267E+02 0.345E+02   0.148E+01 0.231E+01 0.232E+01   0.959E-02 -.169E-02 -.246E-01
   -.517E+02 0.451E+02 0.880E+02   0.509E+02 -.474E+02 -.937E+02   0.153E+01 0.266E+01 0.378E+01   0.190E-02 0.205E-02 -.125E-01
   -.900E+00 -.305E+02 0.726E+02   -.485E+01 0.344E+02 -.804E+02   0.593E+01 -.333E+01 0.258E+01   0.858E-03 -.969E-02 0.602E-01
   -.259E+02 0.124E+02 -.192E+03   0.241E+02 -.128E+02 0.214E+03   0.264E+01 0.241E+00 -.964E+01   -.359E-02 -.195E-01 0.571E-02
   0.446E+01 0.222E+02 0.860E+02   -.291E+01 -.205E+02 -.950E+02   -.158E+01 -.217E+01 0.485E+01   0.149E-01 -.143E-02 0.769E-02
   -.117E+02 0.175E+02 0.202E+03   0.672E+01 -.148E+02 -.226E+03   0.525E+01 -.286E+01 0.117E+02   0.109E-01 -.413E-01 -.105E-01
   0.559E+02 -.767E+02 -.154E+02   -.550E+02 0.783E+02 0.133E+02   -.168E+01 -.117E+01 0.147E+01   -.125E-01 0.327E-02 0.331E-01
   0.661E+02 -.342E+02 0.587E+02   -.689E+02 0.253E+02 -.651E+02   0.273E+01 0.975E+01 0.243E+01   -.226E-02 0.125E-01 0.566E-01
   0.489E+02 -.458E+02 0.141E+03   -.482E+02 0.434E+02 -.158E+03   -.163E+01 0.340E+01 0.953E+01   0.240E-01 0.783E-02 -.989E-01
   -.206E+02 0.622E+02 -.941E+02   0.267E+02 -.660E+02 0.992E+02   -.731E+01 0.441E+01 -.299E+01   -.293E-01 0.111E-01 -.336E-01
   -.277E+01 0.210E+02 0.716E+02   0.418E+01 -.194E+02 -.752E+02   -.179E+01 -.214E+01 0.278E+01   -.498E-02 -.183E-01 0.373E-01
   -.256E+02 0.474E+02 0.960E+02   0.282E+02 -.490E+02 -.112E+03   -.275E+01 0.454E+00 0.442E+01   -.220E-01 0.160E-01 0.760E-02
   -.252E+02 0.944E+02 0.630E+02   0.266E+02 -.984E+02 -.772E+02   -.182E+01 0.361E+01 0.843E+01   -.216E-02 -.415E-01 -.103E+00
   -.713E+00 0.858E+02 0.148E+03   -.124E+01 -.857E+02 -.166E+03   0.188E+01 -.487E+00 0.102E+02   -.195E-01 -.187E-02 0.809E-01
   -.176E+02 0.546E+02 0.189E+03   0.226E+02 -.537E+02 -.221E+03   -.300E+01 -.755E+00 0.119E+02   0.618E-02 -.273E-01 -.773E-04
   0.111E+02 -.179E+02 -.115E+03   -.412E-12 -.711E-14 0.171E-12   -.111E+02 0.179E+02 0.115E+03   0.437E-01 -.189E-01 0.970E-01

 POSITION                                       TOTAL-FORCE (eV/Angst)
      4.27769      7.38003      9.95701         0.167329     -0.966830     13.489107
      4.12585      7.35990      3.41816         0.498173      0.229867      1.185334
      0.02967      0.07075      7.06684        -0.342093     -0.375288    -13.321312
     -1.25675      2.66272      0.06753         0.221171      0.199893      6.840109
     -1.19141      2.49744      3.46311         0.172135      0.184121     -8.632233
     -1.25130      2.77848      6.61735        -0.145972     -0.609613      2.446132
     -2.59245      5.17024      0.13038        -0.622975     -0.415240     -4.449803
     -2.75548      5.10964      3.40465         0.268811      0.382125      0.718998
     -2.76936      5.14847      6.76348         0.197092     -0.065572      0.882328
     -1.61834      7.40322     10.00300        -2.823956      1.224700     11.002192
     -1.18340      7.23925      3.16289         0.329246     -0.206812      5.656089
     -1.40214      7.37137      6.86759         0.844558     -0.407326      5.558039
      1.46013      2.43696     10.03031         0.433537     -0.599058      8.744475
      1.52879      2.60791      3.39565        -0.183916     -0.179877      2.169155
      1.47871      2.65382      6.93481        -0.406862     -0.003907     -2.810232
      0.05366      5.06520      0.09248         0.841722     -0.793873      0.000898
      0.13676      5.06851      3.40268        -0.190267      0.071868     -0.347329
      0.04795      5.07217      6.77751        -0.742771     -0.133695      4.588609
      5.90374      0.03091      0.09709         0.739619     -0.324467      6.462449
      1.66048      7.35596      3.52364        -0.393124     -0.412078     -0.018391
      5.80953      0.19403      6.76012         0.289606     -0.090506      5.127871
      4.27775      2.77309     10.04063         0.182120      0.745288     14.440483
      4.30662      2.66476      3.38437         0.574439     -0.168031      0.711394
      4.28565      2.50376      7.04050         0.350084      0.060924     -4.980639
      2.80032      5.09645     10.00878        -1.483893     -0.700800     20.655083
      2.91889      5.15732      3.33317        -0.046813      0.045747      6.615976
      3.02683      5.15207      6.81132         0.080964     -0.167908      7.398078
      4.27629      7.37115      1.67305        -0.013075     -0.048224     -0.204599
      8.49036      0.06359      5.33741         0.285048     -0.036591     -1.335699
      0.04308      0.15427      8.51555         0.505685      1.386957      0.020110
     -1.23985      2.62478      1.75922         0.019808     -0.107371      0.271783
     -1.21020      2.48314      4.95422        -0.399986      0.387146      7.902199
     -1.33437      2.51023      8.63256        -0.343846      0.161188     -8.635535
     -2.56655      5.00035      1.71554        -0.593506     -0.038717      3.366541
     -2.79780      5.25772      5.14836        -0.073158     -0.588145     -3.124380
     -2.75583      4.99581      8.40820         0.052705      0.342705      2.255388
      2.85864      0.07693      1.63127        -0.846861      0.757086     -3.452015
      2.90220      0.03974      5.32937         0.105888      0.306219     -6.637431
     -1.11106      7.22810      8.63960         2.086529     -0.055933    -11.571671
      1.47336      2.44744      1.72119         0.419149      0.125607     -1.091036
      1.43466      2.53651      5.24822         0.745579      0.351747     -1.926871
      1.30402      2.63526      8.54032         0.188170      0.647243     -5.137868
      0.00462      5.08020      1.55580         0.804993     -0.085944     12.455066
      0.12839      5.12212      5.18737        -0.007292     -0.446050     -4.171837
     -0.12736      5.15800      8.71112         0.253287     -0.128850    -12.670185
      5.96518      0.04226      1.82109        -0.812243      0.399519     -0.544297
      1.47014      7.18316      5.23139        -0.010035      0.852308     -3.915346
      1.66606      7.38490      8.63270        -0.828247      1.064189     -7.416389
      4.59038      2.52477      1.59930        -1.270018      0.637319      2.137564
      4.39551      2.67255      5.27158        -0.382267     -0.476519     -0.687961
      4.33267      2.62902      8.62674        -0.177034     -1.136294    -11.851418
      2.93716      4.98691      1.78556        -0.417862     -0.422632     -5.900457
      2.90737      5.17252      5.28712        -0.093597     -0.475048     -7.748491
      2.96888      5.13060      8.63182         1.994222      0.103433    -20.518027
    total drift:                                0.000548     -0.013975      0.025997

  FREE ENERGIE OF THE ION-ELECTRON SYSTEM (eV)
  free  energy   TOTEN  =      -302.3766776203 eV

  energy  without entropy=     -302.3114631138  energy(sigma->0) =     -302.34407037

volume of typ            1:    27.0 %

volume of typ            2:     6.9 %

total charge

# of ion       s       p       d       tot
    1        0.357   0.425   8.000   8.782
    2        0.252   0.228   7.926   8.407
    3        0.369   0.443   7.991   8.803
    4        0.351   0.416   7.942   8.709
    5        0.355   0.418   7.962   8.735
    6        0.239   0.210   7.967   8.416
    7        0.302   0.325   7.952   8.579
    8        0.279   0.278   7.927   8.484
    9        0.327   0.375   7.929   8.630
   10        0.370   0.451   7.995   8.816
   11        0.283   0.255   7.968   8.506
   12        0.320   0.355   7.948   8.623
   13        0.338   0.385   7.963   8.686
   14        0.269   0.252   7.915   8.436
   15        0.315   0.346   7.934   8.596
   16        0.442   0.624   8.005   9.072
   17        0.246   0.224   7.940   8.411
   18        0.284   0.279   7.955   8.518
   19        0.336   0.381   7.954   8.671
   20        0.293   0.302   7.930   8.526
   21        0.282   0.287   7.959   8.529
   22        0.393   0.490   7.996   8.880
   23        0.231   0.193   7.923   8.347
   24        0.305   0.320   7.939   8.564
   25        0.386   0.459   8.026   8.871
   26        0.308   0.316   7.945   8.569
   27        0.319   0.349   7.962   8.629
   28        1.270   2.732   0.007   4.009
   29        1.272   2.714   0.006   3.992
   30        1.294   2.913   0.036   4.243
   31        1.269   2.771   0.009   4.049
   32        1.279   2.819   0.020   4.117
   33        1.277   2.776   0.013   4.066
   34        1.275   2.782   0.014   4.070
   35        1.273   2.763   0.011   4.048
   36        1.268   2.763   0.009   4.040
   37        1.276   2.786   0.015   4.077
   38        1.284   2.733   0.011   4.029
   39        1.282   2.825   0.019   4.126
   40        1.269   2.750   0.009   4.028
   41        1.271   2.728   0.007   4.006
   42        1.277   2.843   0.021   4.140
   43        1.281   2.814   0.017   4.113
   44        1.274   2.764   0.012   4.050
   45        1.284   2.805   0.016   4.106
   46        1.271   2.751   0.009   4.031
   47        1.278   2.774   0.014   4.066
   48        1.275   2.786   0.013   4.073
   49        1.270   2.745   0.008   4.024
   50        1.269   2.706   0.005   3.980
   51        1.286   2.878   0.029   4.193
   52        1.274   2.774   0.012   4.060
   53        1.280   2.761   0.013   4.054
   54        1.287   2.851   0.025   4.163
tot          43.02   84.49  215.23  342.75

magnetization (x)

# of ion       s       p       d       tot
    1       -0.002   0.001  -0.040  -0.041
    2       -0.000  -0.000   0.022   0.021
    3        0.000  -0.001   0.073   0.072
    4        0.014  -0.000   0.644   0.658
    5       -0.006  -0.003  -0.422  -0.431
    6       -0.004  -0.004  -0.311  -0.319
    7       -0.001  -0.000   0.039   0.039
    8       -0.000  -0.001  -0.031  -0.032
    9        0.003  -0.001   0.107   0.108
   10       -0.003   0.001  -0.061  -0.064
   11        0.005   0.003   0.648   0.657
   12        0.005   0.004   0.717   0.727
   13       -0.002   0.001  -0.192  -0.193
   14       -0.000  -0.001  -0.052  -0.053
   15        0.004  -0.002   0.245   0.247
   16       -0.004   0.003  -0.366  -0.367
   17        0.002  -0.001   0.489   0.490
   18        0.006   0.002   0.652   0.659
   19       -0.002   0.001  -0.135  -0.136
   20        0.001  -0.001   0.058   0.057
   21        0.004   0.000   0.218   0.223
   22       -0.000   0.002   0.024   0.025
   23       -0.000  -0.000  -0.143  -0.143
   24        0.003  -0.000   0.095   0.098
   25       -0.007  -0.006  -0.321  -0.334
   26        0.004  -0.000   0.548   0.552
   27        0.002   0.001   0.198   0.201
   28       -0.000  -0.016   0.000  -0.016
   29        0.001   0.030   0.000   0.030
   30        0.000   0.009  -0.000   0.009
   31        0.001   0.061  -0.000   0.062
   32       -0.006  -0.214   0.000  -0.220
   33        0.005   0.233   0.000   0.238
   34        0.000   0.010  -0.000   0.010
   35        0.000   0.006   0.000   0.006
   36        0.001   0.037  -0.000   0.038
   37        0.005   0.213   0.000   0.218
   38        0.010   0.428   0.000   0.438
   39       -0.001  -0.039   0.000  -0.040
   40       -0.003  -0.093   0.000  -0.096
   41        0.003   0.118  -0.000   0.121
   42       -0.000  -0.010  -0.000  -0.010
   43       -0.002  -0.086  -0.001  -0.088
   44        0.010   0.358   0.000   0.369
   45       -0.003  -0.106  -0.000  -0.110
   46       -0.001  -0.034   0.000  -0.035
   47        0.003   0.093   0.000   0.096
   48       -0.001  -0.024  -0.000  -0.025
   49       -0.001  -0.033   0.000  -0.034
   50       -0.001  -0.012   0.000  -0.013
   51        0.001   0.025  -0.000   0.025
   52        0.005   0.205   0.000   0.211
   53        0.005   0.183  -0.000   0.188
   54       -0.004  -0.143  -0.000  -0.147
tot           0.05    1.19    2.70    3.95