 vasp.5.4.4.18Apr17-6-g9f103f2a35 (build May 12 2020 04:58:55) complex

 MD_VERSION_INFO: Compiled 2020-05-12T11:58:55-UTC in devlin.sd.materialsdesign.
 com:/home/medea2/data/build/wwolf/vasp-gpu5.4.4/13047/x86_64/src/src/build/std
 from svn 13047

 executed on                        Lin64 date 2023.03.24  08:23:58

 INCAR:
 POTCAR:    PAW_PBE Ni 02Aug2007
 POTCAR:    PAW_PBE O 08Apr2002

 POTCAR:    PAW_PBE Ni 02Aug2007

 POTCAR:    PAW_PBE O 08Apr2002

 Optimization of the real space projectors (new method)

 maximal supplied QI-value         = 16.25
 optimisation between [QCUT,QGAM] = [ 11.38, 22.75] = [ 36.24,144.96] Ry
 Optimized for a Real-space Cutoff    1.47 Angstroem

   l    n(q)    QCUT    max X(q) W(low)/X(q) W(high)/X(q)  e(spline)
   2      9    11.376    60.317    0.17E-03    0.16E-04    0.16E-06
   2      9    11.376    55.921    0.17E-03    0.16E-04    0.17E-06
   0     10    11.376    51.690    0.45E-04    0.60E-04    0.21E-06
   0     10    11.376    30.015    0.37E-04    0.55E-04    0.19E-06
   1     10    11.376    18.849    0.83E-04    0.11E-03    0.92E-07
   1     10    11.376    14.624    0.69E-04    0.92E-04    0.82E-07
 Optimization of the real space projectors (new method)

 maximal supplied QI-value         = 24.76
 optimisation between [QCUT,QGAM] = [ 11.39, 22.77] = [ 36.31,145.25] Ry
 Optimized for a Real-space Cutoff    1.10 Angstroem

   l    n(q)    QCUT    max X(q) W(low)/X(q) W(high)/X(q)  e(spline)
   0      7    11.387    20.381    0.22E-03    0.48E-03    0.18E-06
   0      7    11.387    15.268    0.22E-03    0.52E-03    0.19E-06
   1      7    11.387     5.964    0.22E-03    0.73E-03    0.24E-06
   1      7    11.387     5.382    0.19E-03    0.60E-03    0.21E-06

  PAW_PBE Ni 02Aug2007                  :
  PAW_PBE O 08Apr2002                   :

 POSCAR: NiO_Cmmm_scale_0_950_disp_0_15_round_2
  positions in direct lattice
 exchange correlation table for  LEXCH =       14
   RHO(1)=    0.500       N(1)  =     2000
   RHO(2)=  100.500       N(2)  =     4000

 ion  position               nearest neighbor table
   1  0.002  0.015  0.003-  30 1.27  28 1.89  25 2.54  19 2.60   4 2.69   7 2.77  10 2.92   3 2.94

   2  0.005  0.969  0.376-  29 1.70  28 1.86   8 2.28  26 2.49  20 2.57   5 2.80  11 2.83  14 3.04

   3  0.007  0.026  0.703-  29 1.66  30 1.69   6 2.38  21 2.40  27 2.45  15 2.85   1 2.94   9 2.99
                            12 3.08
   4  0.072  0.368  0.005-  33 1.27  31 1.64  16 2.53  13 2.62   1 2.69   6 2.88   7 2.96
   5  0.055  0.326  0.375-  32 1.57  31 2.03  14 2.37   2 2.80  20 2.85  23 2.99
   6  0.027  0.320  0.715-  33 1.62  32 1.79   3 2.38  15 2.52  21 2.66  24 2.78   4 2.88  18 2.91
                             9 2.98
   7  0.006  0.684  0.993-  36 1.18  34 1.78   1 2.77  25 2.80   9 2.81  22 2.82  16 2.88   4 2.96
                            10 3.04
   8  0.049  0.722  0.349-  35 1.61  34 1.79   2 2.28  11 2.37  17 2.60  26 2.97  23 3.01
   9  0.032  0.680  0.707-  36 1.75  35 1.94  12 2.59  18 2.61  27 2.79   7 2.81  24 2.95   6 2.98
                             3 2.99
  10  0.367  0.049  0.023-  39 1.38  37 1.66  22 2.52  13 2.72  19 2.91   1 2.92  16 2.96   7 3.04

[...]

  21  0.707  0.001  0.703-  48 1.66  47 1.70  27 2.37   3 2.40   6 2.66  24 2.70  18 2.85  19 2.86
                            12 2.92
  22  0.675  0.340  0.990-  51 1.13  49 1.80  10 2.52  13 2.55  24 2.74   7 2.82  19 3.01
  23  0.707  0.344  0.352-  50 1.69  49 1.76  20 2.98  11 2.99   5 2.99  14 3.00   8 3.01  26 3.07

[...]

  25  0.689  0.720  0.985-  54 1.13  52 1.76  19 2.22  48 2.49   1 2.54  13 2.64  16 2.68  27 2.70
                             7 2.80
  26  0.683  0.699  0.372-  53 1.62  52 2.05  20 2.33   2 2.49  17 2.80  14 2.86   8 2.97  23 3.07

[...]

  28  0.958  0.948  0.189-   2 1.86   1 1.89
  29  0.020  0.055  0.536-   3 1.66   2 1.70
  30  0.003  0.002  0.875-   1 1.27   3 1.69
  31  0.071  0.323  0.168-   4 1.64   5 2.03
  32  0.064  0.347  0.534-   5 1.57   6 1.79
  33  0.071  0.353  0.877-   4 1.27   6 1.62
  34  0.071  0.731  0.167-   7 1.78   8 1.79
  35  0.041  0.727  0.513-   8 1.61   9 1.94
  36  0.068  0.694  0.883-   7 1.18   9 1.75
  37  0.346  0.011  0.190-  11 1.58  10 1.66
  38  0.369  0.009  0.513-  12 1.55  11 1.63
  39  0.364  0.020  0.884-  10 1.38  12 2.13
  40  0.339  0.350  0.153-  13 1.51  14 1.97
  41  0.348  0.307  0.538-  15 1.71  14 1.84
  42  0.341  0.369  0.866-  13 1.43  15 1.59
  43  0.373  0.741  0.186-  17 1.62  16 1.93
  44  0.335  0.682  0.529-  18 1.41  17 1.79
  45  0.350  0.704  0.871-  16 1.20  18 1.95
  46  0.728  0.003  0.150-  19 1.60  20 2.32
  47  0.696  0.999  0.529-  20 1.41  21 1.70
  48  0.692  0.989  0.871-  19 1.20  21 1.66  25 2.49
  49  0.689  0.342  0.173-  23 1.76  22 1.80
  50  0.703  0.344  0.524-  23 1.69  24 1.85
  51  0.655  0.274  0.885-  22 1.13  24 1.73
  52  0.705  0.716  0.163-  25 1.76  26 2.05
  53  0.736  0.731  0.532-  26 1.62  27 1.75
  54  0.695  0.718  0.870-  25 1.13  27 1.57

  LATTYP: Found a hexagonal cell.
 ALAT       =     8.3357939959
 C/A-ratio  =     1.1769065436

  Lattice vectors:

 A1 = (   8.3357940000,   0.0000000000,   0.0000000000)
 A2 = (  -4.1678970000,   7.2190093600,   0.0000000000)
 A3 = (   0.0000000000,   0.0000000000,   9.8104505000)

Analysis of symmetry for initial positions (statically):
 Subroutine PRICEL returns:
 Original cell was already a primitive cell.

 Routine SETGRP: Setting up the symmetry group for a
 hexagonal supercell.

 Subroutine GETGRP returns: Found  1 space group operations
 (whereof  1 operations were pure point group operations)
 out of a pool of 24 trial point group operations.

The static configuration has the point symmetry C_1 .

Analysis of symmetry for dynamics (positions and initial velocities):
 Subroutine PRICEL returns:
 Original cell was already a primitive cell.

[...]

The dynamic configuration has the point symmetry C_1 .

Analysis of structural, dynamic, and magnetic symmetry:
 Subroutine PRICEL returns:
 Original cell was already a primitive cell.

 Routine SETGRP: Setting up the symmetry group for a
 hexagonal supercell.

 Subroutine GETGRP returns: Found  1 space group operations
 (whereof  1 operations were pure point group operations)
 out of a pool of 24 trial point group operations.

The magnetic configuration has the point symmetry C_1 .

 Subroutine INISYM returns: Found  1 space group operations
 (whereof  1 operations are pure point group operations),
 and found     1 'primitive' translations

 KPOINTS: Automatic mesh

Automatic generation of k-mesh.
Space group operators:
 irot       det(A)        alpha          n_x          n_y          n_z        tau_x        tau_y        tau_z
    1     1.000000     0.000000     1.000000     0.000000     0.000000     0.000000     0.000000     0.000000

 Subroutine IBZKPT returns following result:

 Found     26 irreducible k-points:

 Following reciprocal coordinates:
            Coordinates               Weight
  0.000000  0.000000  0.000000      1.000000
  0.250000  0.000000  0.000000      2.000000
  0.500000  0.000000  0.000000      1.000000
  0.000000  0.250000  0.000000      2.000000
  0.250000  0.250000  0.000000      2.000000
  0.500000  0.250000  0.000000      2.000000
 -0.250000  0.250000  0.000000      2.000000
  0.000000  0.500000  0.000000      1.000000
  0.250000  0.500000  0.000000      2.000000
  0.500000  0.500000  0.000000      1.000000
  0.000000  0.000000  0.333333      2.000000
  0.250000  0.000000  0.333333      2.000000
  0.500000  0.000000  0.333333      2.000000
 -0.250000 -0.000000  0.333333      2.000000
  0.000000  0.250000  0.333333      2.000000
  0.250000  0.250000  0.333333      2.000000
  0.500000  0.250000  0.333333      2.000000
 -0.250000  0.250000  0.333333      2.000000
  0.000000  0.500000  0.333333      2.000000
  0.250000  0.500000  0.333333      2.000000
  0.500000  0.500000  0.333333      2.000000
 -0.250000  0.500000  0.333333      2.000000
  0.000000 -0.250000  0.333333      2.000000
  0.250000 -0.250000  0.333333      2.000000
  0.500000 -0.250000  0.333333      2.000000
 -0.250000 -0.250000  0.333333      2.000000

 Following cartesian coordinates:
            Coordinates               Weight
  0.000000  0.000000  0.000000      1.000000
  0.029991  0.017315  0.000000      2.000000
  0.059982  0.034631  0.000000      1.000000
  0.000000  0.034631  0.000000      2.000000
  0.029991  0.051946  0.000000      2.000000
  0.059982  0.069262  0.000000      2.000000
 -0.029991  0.017315  0.000000      2.000000
  0.000000  0.069262  0.000000      1.000000
  0.029991  0.086577  0.000000      2.000000
  0.059982  0.103892  0.000000      1.000000
  0.000000  0.000000  0.033977      2.000000
  0.029991  0.017315  0.033977      2.000000
  0.059982  0.034631  0.033977      2.000000
 -0.029991 -0.017315  0.033977      2.000000
  0.000000  0.034631  0.033977      2.000000
  0.029991  0.051946  0.033977      2.000000
  0.059982  0.069262  0.033977      2.000000
 -0.029991  0.017315  0.033977      2.000000
  0.000000  0.069262  0.033977      2.000000
  0.029991  0.086577  0.033977      2.000000
  0.059982  0.103892  0.033977      2.000000
 -0.029991  0.051946  0.033977      2.000000
  0.000000 -0.034631  0.033977      2.000000
  0.029991 -0.017315  0.033977      2.000000
  0.059982  0.000000  0.033977      2.000000
 -0.029991 -0.051946  0.033977      2.000000

 SYSTEM =  unknown system
 POSCAR =  NiO_Cmmm_scale_0_950_disp_0_15_round_2

 Startparameter for this run:
   NWRITE =      1    write-flag & timer
   PREC   = accura    normal or accurate (medium, high low for compatibility)
   ISTART =      0    job   : 0-new  1-cont  2-samecut
   ICHARG =      2    charge: 1-file 2-atom 10-const
   ISPIN  =      2    spin polarized calculation?
   LNONCOLLINEAR =      F non collinear calculations
   LSORBIT =      F    spin-orbit coupling
   INIWAV =      1    electr: 0-lowe 1-rand  2-diag
   LASPH  =      F    aspherical Exc in radial PAW
   METAGGA=      F    non-selfconsistent MetaGGA calc.

 Electronic Relaxation 1
   ENCUT  =  500.0 eV  36.75 Ry    6.06 a.u.  15.20 15.20 17.89*2*pi/ulx,y,z
   ENINI  =  500.0     initial cutoff
   ENAUG  =  605.4 eV  augmentation charge cutoff
   NELM   =     80;   NELMIN=  2; NELMDL= -5     # of ELM steps
   EDIFF  = 0.1E-04   stopping-criterion for ELM
   LREAL  =      T    real-space projection
   NLSPLINE    = F    spline interpolate recip. space projectors
   LCOMPAT=      F    compatible to vasp.4.4
   GGA_COMPAT  = T    GGA compatible to vasp.4.4-vasp.4.6
   LMAXPAW     = -100 max onsite density
   LMAXMIX     =    2 max onsite mixed and CHGCAR
   VOSKOWN=      1    Vosko Wilk Nusair interpolation
   ROPT   =   -0.00025  -0.00025
 Ionic relaxation
   EDIFFG = 0.1E-03   stopping-criterion for IOM
   NSW    =      0    number of steps for IOM
   NBLOCK =      1;   KBLOCK =      1    inner block; outer block
   IBRION =     -1    ionic relax: 0-MD 1-quasi-New 2-CG
   NFREE  =      0    steps in history (QN), initial steepest desc. (CG)
   ISIF   =      2    stress and relaxation
   IWAVPR =     10    prediction:  0-non 1-charg 2-wave 3-comb
   ISYM   =      2    0-nonsym 1-usesym 2-fastsym
[...]
   -.254E+03 0.761E+01 0.106E+03   0.255E+03 -.812E+01 -.109E+03   0.513E-01 0.204E+00 0.293E+01   0.581E-02 0.913E-02 0.207E-01
   0.244E+03 -.665E+02 -.430E+03   -.247E+03 0.703E+02 0.478E+03   0.141E+01 -.110E+01 -.713E+01   -.483E-02 0.512E-03 -.292E-01
   0.169E+03 -.112E+03 0.237E+03   -.168E+03 0.112E+03 -.241E+03   -.389E+00 -.253E+00 -.179E+01   -.449E-01 0.109E-02 0.106E-01
   0.199E+03 -.131E+03 0.196E+03   -.201E+03 0.131E+03 -.202E+03   0.142E+01 0.613E+00 0.247E+01   -.609E-03 0.622E-02 0.161E-01
   0.209E+03 0.194E+03 -.407E+03   -.238E+03 -.199E+03 0.476E+03   0.267E+01 0.503E+00 -.475E+01   0.448E-02 -.324E-02 -.170E-01
   0.599E+02 0.356E+03 0.826E+02   -.596E+02 -.358E+03 -.870E+02   0.949E-01 0.638E+00 0.108E+01   0.828E-02 0.666E-03 0.378E-02
   0.117E+03 0.163E+03 0.184E+03   -.117E+03 -.162E+03 -.189E+03   -.938E-01 -.212E+00 0.302E+01   0.605E-02 -.434E-02 0.975E-02
   0.621E+02 -.877E+02 -.249E+03   -.646E+02 0.898E+02 0.270E+03   0.829E+00 -.246E+00 -.227E+01   0.195E-02 0.478E-02 -.190E-01
   -.207E+02 -.262E+03 -.580E+01   0.197E+02 0.264E+03 0.687E+01   0.516E+00 -.577E+00 0.132E+01   0.746E-02 -.152E-01 -.669E-02
   0.732E+02 -.151E+03 -.964E+02   -.730E+02 0.151E+03 0.100E+03   -.164E+00 0.469E+00 0.338E+01   -.190E-02 -.173E-02 0.190E-01
   -.205E+03 -.236E+02 -.215E+03   0.212E+03 0.267E+02 0.226E+03   -.244E+01 -.117E+01 -.295E+01   0.537E-02 -.106E-01 -.352E-01
   -.148E+03 -.873E+02 0.478E+02   0.148E+03 0.875E+02 -.464E+02   0.178E+00 -.682E+00 -.156E+01   -.646E-02 -.793E-02 -.624E-02
   -.224E+03 -.431E+02 0.227E+03   0.225E+03 0.430E+02 -.235E+03   -.556E+00 -.780E+00 0.344E+01   -.615E-02 -.516E-02 0.462E-01
   0.459E+02 0.811E+02 -.491E+03   -.411E+02 -.858E+02 0.557E+03   0.309E+00 0.609E+00 -.298E+01   -.100E-01 -.328E-02 -.149E-01
   -.998E+02 0.236E+03 -.115E+02   0.102E+03 -.238E+03 0.120E+02   -.112E+01 0.494E+00 0.223E+01   -.230E-01 0.205E-01 -.236E-02
   -.514E+02 0.911E+02 -.435E+02   0.522E+02 -.906E+02 0.596E+02   -.399E+00 0.258E+00 0.179E+01   -.145E-01 -.324E-02 0.191E-01
   0.221E+03 -.205E+03 -.442E+03   -.230E+03 0.203E+03 0.510E+03   0.391E+01 -.135E+01 -.724E+01   -.786E-02 0.997E-02 -.278E-02
   0.929E+02 -.192E+03 0.356E+03   -.920E+02 0.192E+03 -.373E+03   0.218E+00 0.337E+00 -.127E+01   -.725E-02 0.131E-01 0.415E-02
   0.186E+03 -.121E+03 0.173E+03   -.187E+03 0.122E+03 -.176E+03   -.275E+00 -.688E+00 0.179E+01   -.436E-02 0.150E-01 0.566E-02
   -.607E+02 -.299E+03 -.446E+03   0.529E+02 0.340E+03 0.534E+03   -.248E+00 -.460E+01 -.614E+01   -.119E-02 -.836E-02 -.184E-01
   -.283E+02 -.766E+02 0.510E+02   0.280E+02 0.769E+02 -.526E+02   0.561E-01 -.262E+00 0.475E+00   0.257E-01 -.504E-02 -.168E-02
   0.728E+02 -.159E+03 0.213E+03   -.716E+02 0.159E+03 -.220E+03   -.103E+01 -.231E+00 0.508E+01   0.449E-02 -.481E-03 0.197E-01
   -.101E+03 0.292E+03 -.493E+03   0.981E+02 -.295E+03 0.592E+03   -.509E+00 0.191E+01 -.804E+01   0.689E-02 -.104E-01 -.822E-02
   0.183E+02 0.363E+03 0.150E+03   -.187E+02 -.365E+03 -.153E+03   0.519E+00 0.595E+00 -.101E+01   0.155E-01 0.195E-01 -.117E-02
   -.974E+02 0.355E+03 0.261E+03   0.985E+02 -.356E+03 -.271E+03   -.528E+00 0.312E+00 0.485E+01   0.742E-02 -.389E-02 0.150E-01
   -.469E+02 -.434E+02 -.675E+02   0.449E+02 0.418E+02 0.656E+02   0.305E+01 0.296E+01 0.228E+01   0.213E-02 -.185E-02 -.888E-02
   -.723E+02 -.746E+02 0.836E+02   0.702E+02 0.836E+02 -.864E+02   0.348E+01 -.990E+01 0.238E+01   -.415E-02 -.303E-02 0.149E-01
   -.163E+03 0.313E+01 0.197E+03   0.169E+03 -.949E+01 -.250E+03   -.238E+01 0.450E+01 0.124E+02   0.723E-02 0.629E-02 -.387E-02
   0.976E+02 -.103E+02 -.223E+03   -.962E+02 0.606E+01 0.234E+03   -.261E+01 0.462E+01 -.771E+01   -.139E-01 0.700E-03 -.167E-01
   0.839E+02 -.117E+03 0.339E+02   -.822E+02 0.121E+03 -.237E+02   -.296E+01 -.364E+01 -.630E+01   -.145E-01 0.153E-02 0.136E-01
   0.839E+02 -.195E+02 0.165E+03   -.792E+02 0.176E+02 -.215E+03   -.550E+01 -.881E+00 0.111E+02   0.206E-02 0.977E-03 -.390E-02
   0.104E+02 0.128E+03 -.549E+02   -.574E+01 -.124E+03 0.546E+02   -.599E+01 -.505E+01 0.148E+01   0.310E-02 0.138E-02 -.564E-02
   0.438E+02 0.129E+03 -.770E+02   -.456E+02 -.128E+03 0.907E+02   0.160E+01 -.203E+01 -.101E+02   0.556E-02 -.258E-02 0.114E-01
   -.980E+02 0.243E+02 0.253E+03   0.141E+03 -.169E+02 -.332E+03   -.173E+02 -.410E+01 0.149E+02   0.255E-02 -.787E-03 -.115E-01
   0.120E+02 -.112E+03 -.163E+02   -.147E+02 0.114E+03 0.100E+02   0.238E+01 0.420E+00 0.323E+01   0.526E-02 -.470E-02 -.129E-01
   -.381E+01 -.164E+03 0.404E+02   0.421E+01 0.173E+03 -.447E+02   -.373E+00 -.825E+01 0.121E+01   0.427E-02 -.932E-02 0.643E-02
   0.406E+02 -.627E+00 0.265E+03   -.381E+02 -.525E+01 -.303E+03   -.182E+01 0.280E+01 0.174E+02   -.276E-02 0.709E-02 0.770E-02
   -.285E+02 0.195E+02 -.280E+03   0.226E+02 -.250E+02 0.301E+03   0.610E+01 0.467E+01 -.102E+02   0.137E-02 -.433E-02 -.501E-01
   -.138E+03 -.179E+02 0.959E+02   0.142E+03 0.987E+01 -.100E+03   -.428E+01 0.950E+01 0.257E+01   -.149E-03 -.444E-02 0.593E-01
   -.541E+02 0.505E+02 0.120E+03   0.436E+02 -.541E+02 -.135E+03   0.921E+01 0.319E+01 0.290E+01   -.735E-03 -.626E-02 -.965E-02
   -.296E+02 0.761E+02 0.161E+02   0.301E+02 -.747E+02 -.288E+02   0.145E+00 -.297E+01 0.924E+01   -.904E-02 0.873E-02 -.892E-02
   -.171E+02 0.123E+03 0.206E+03   0.152E+02 -.129E+03 -.234E+03   0.200E+01 0.620E+01 0.110E+02   -.121E-01 0.506E-02 0.137E-01
   0.564E+02 -.217E+02 0.331E+03   -.652E+02 0.312E+02 -.415E+03   0.438E+01 -.510E+01 0.209E+02   -.716E-02 -.379E-02 -.562E-02
   0.522E+02 -.159E+03 -.291E+03   -.482E+02 0.162E+03 0.311E+03   -.548E+01 -.213E+01 -.155E+02   -.276E-02 0.536E-02 -.192E-02
   0.114E+03 -.921E+02 -.389E+02   -.119E+03 0.943E+02 0.634E+02   0.343E+01 -.102E+01 -.910E+01   -.411E-02 0.804E-02 0.134E-01
   0.714E+02 -.135E+03 0.248E+03   -.656E+02 0.141E+03 -.325E+03   -.235E+01 -.129E+01 0.146E+02   -.278E-02 0.832E-02 -.134E-01
   -.495E+02 -.483E+02 -.109E+03   0.490E+02 0.487E+02 0.108E+03   0.731E+00 0.543E+00 0.215E+01   0.622E-02 -.409E-02 -.222E-01
   0.226E+02 -.780E+02 0.120E+02   -.236E+02 0.790E+02 -.602E+01   0.125E+01 -.101E+01 -.465E+01   0.127E-01 -.157E-02 0.171E-01
   -.436E+02 0.845E+02 0.288E+03   0.550E+02 -.139E+03 -.387E+03   -.245E+01 0.200E+02 0.174E+02   -.541E-02 0.486E-02 0.871E-02
   -.285E+02 0.180E+03 -.196E+03   0.295E+02 -.181E+03 0.204E+03   -.127E+01 0.172E+00 -.582E+01   0.477E-02 0.174E-02 -.158E-01
   -.523E+02 0.187E+03 0.567E+01   0.585E+02 -.184E+03 0.117E+01   -.629E+01 -.388E+01 -.428E+01   0.813E-02 0.437E-02 0.141E-01
   -.745E+02 0.201E+03 0.296E+03   0.789E+02 -.205E+03 -.399E+03   0.387E+00 0.118E+01 0.160E+02   0.288E-02 -.692E-02 0.537E-02
   0.196E+02 -.378E+01 -.730E+02   -.284E-13 0.284E-12 -.568E-13   -.196E+02 0.377E+01 0.730E+02   -.318E-01 0.218E-01 0.391E-02

 POSITION                                       TOTAL-FORCE (eV/Angst)
     -0.04677      0.10935      0.03267        -1.104696      2.047637     43.305821
     -3.99884      6.99190      3.68812        -1.172561      1.212462     -2.058376
     -0.05038      0.18566      6.90123         0.788852     -0.292328      0.297782
     -0.92855      2.65456      0.05322        -1.789877      2.702590     39.987871
     -0.89998      2.35650      3.67690        -0.158814     -0.129897     -5.861130
     -1.11167      2.31068      7.01315        -0.192915      0.761696     -3.656392
     -2.80520      4.94084      9.74062       -26.541417     -3.950304     64.135591
     -2.60315      5.20934      3.42322         0.483098     -0.904953     -3.330573
     -2.57035      4.91097      6.93838         0.269637      0.567869     -1.798934
      2.85409      0.35049      0.22542        -1.677837      1.898503     18.522829
     -1.17914      7.10529      3.41787        -0.384047      1.451106      2.385585
     -1.17605      7.06681      6.56471         0.011739     -0.064996      7.263904
      1.68276      2.79539      0.05303         4.482459      1.956369      7.558905
      1.45698      2.51933      3.46867         0.628223     -0.426410     -0.164658
      1.38131      2.65194      6.91061         0.349000     -0.826247     -4.191490
      0.07840      4.97722      9.73883         5.160533     -4.153822     62.919350
     -0.00298      5.31542      3.44682         0.953092     -2.253987      2.726621
      0.01745      4.96366      6.59746         0.420646      0.690174     17.861889
      1.53881      7.05809      9.73778        -5.189959     -2.815300     60.869510
      1.77831      7.15183      3.79308         1.170188      0.098892    -17.867653
      5.89274      0.00778      6.89229        -0.857190      0.548257     -1.510848
      4.20964      2.45373      9.71092        -8.087650     35.843242     82.139745
      4.45516      2.48654      3.45585        -0.220334      0.003067     -1.145671
      4.44061      2.27812      6.98315         0.189655     -0.195530     -2.047932
      2.74465      5.19974      9.66274        -3.617250     -1.261114     91.376493
      2.77554      5.04888      3.64776         0.163594     -0.654892     -3.991229
      2.99810      5.22654      6.96984         0.572651     -0.590844     -5.255938
      4.03303      6.84599      1.85815         1.063989      1.338313      0.375729
     -0.06448      0.39469      5.25367         1.337275     -0.906505     -0.397178
      0.01937      0.01142      8.58235         2.925394     -1.852036    -41.221741
     -0.75179      2.32949      1.65162        -1.214463      0.384297      3.853162
     -0.91677      2.50581      5.24352        -1.329187      0.428736      3.938274
     -0.88221      2.55013      8.60233        -0.800070     -2.858985    -38.756279
     -2.45107      5.27375      1.64322        -1.295019     -1.428880      1.191683
     -2.69142      5.24877      5.03477        -0.262293     -1.209624      3.572170
     -2.32508      5.00967      8.66508        25.393796      3.260402    -64.072868
      2.83549      0.07925      1.86214        -0.250891      1.701604     -3.045360
      3.03383      0.06661      5.03487         0.028789      1.046585     -3.106468
      2.95089      0.14268      8.67191         0.647296     -3.069614    -21.274857
      1.36590      2.52587      1.50381         0.167635     -0.784275     10.669827
      1.62660      2.21399      5.27611         0.023355      1.512934     -1.701957
      1.30709      2.66410      8.49469        -1.284324     -0.436361    -12.181606
      0.01684      5.35171      1.82529         0.638108     -1.500155     -3.520354
     -0.04467      4.92078      5.18846         0.115237     -0.202697    -17.009253
     -0.02103      5.08324      8.54637        -4.481523      4.399466    -62.461228
      6.05415      0.02290      1.47627        -1.430865      1.042862      4.812477
      1.63481      7.21007      5.19252        -2.049753      1.257386     15.375244
      1.64887      7.13602      8.54954         3.478355      5.302202    -62.214146
      4.32224      2.46617      1.69987         0.292957      0.883342      1.213857
      4.42784      2.48579      5.14165         0.215771      0.004157      1.303291
      4.31645      1.97943      8.68570         8.891770    -34.125083    -81.527447
      2.89326      5.16592      1.60173        -0.296350     -1.060519      1.789680
      3.08980      5.27608      5.22110         0.003475     -1.496988      2.572640
      2.80411      5.18339      8.53161         4.822716     -2.891802    -86.648364
    total drift:                               -0.016480      0.005792      0.006697

  FREE ENERGIE OF THE ION-ELECTRON SYSTEM (eV)
  free  energy   TOTEN  =      -230.5744002026 eV

  energy  without entropy=     -230.5151815010  energy(sigma->0) =     -230.54479085

volume of typ            1:    29.1 %

volume of typ            2:     7.5 %

total charge

# of ion       s       p       d       tot
    1        0.458   0.567   8.170   9.195
    2        0.277   0.282   7.958   8.517
    3        0.321   0.356   7.987   8.663
    4        0.500   0.684   8.139   9.322
    5        0.294   0.274   7.963   8.531
    6        0.304   0.324   7.996   8.624
    7        0.525   0.695   8.228   9.448
    8        0.320   0.343   7.942   8.606
    9        0.239   0.209   7.999   8.447
   10        0.417   0.544   8.046   9.007
   11        0.365   0.444   7.988   8.796
   12        0.299   0.285   8.003   8.587
   13        0.432   0.629   8.059   9.120
   14        0.230   0.179   7.954   8.363
   15        0.320   0.358   7.977   8.654
   16        0.507   0.644   8.218   9.368
   17        0.322   0.346   7.961   8.628
   18        0.379   0.425   8.046   8.851
   19        0.553   0.841   8.218   9.611
   20        0.365   0.377   8.065   8.807
   21        0.310   0.347   8.009   8.666
   22        0.567   0.754   8.275   9.596
   23        0.290   0.278   7.885   8.453
   24        0.250   0.223   7.990   8.463
   25        0.574   0.817   8.301   9.693
   26        0.284   0.264   7.965   8.513
   27        0.326   0.356   8.017   8.698
   28        1.290   2.671   0.006   3.967
   29        1.283   2.766   0.012   4.061
   30        1.304   2.955   0.044   4.303
   31        1.278   2.730   0.008   4.016
   32        1.280   2.770   0.013   4.063
   33        1.311   2.962   0.046   4.319
   34        1.275   2.738   0.007   4.020
   35        1.276   2.745   0.010   4.031
   36        1.328   2.974   0.055   4.357
   37        1.279   2.804   0.015   4.099
   38        1.280   2.817   0.019   4.116
   39        1.292   2.837   0.023   4.152
   40        1.285   2.775   0.015   4.074
   41        1.276   2.725   0.008   4.009
   42        1.288   2.904   0.030   4.222
   43        1.275   2.749   0.009   4.032
   44        1.287   2.839   0.024   4.150
   45        1.321   2.949   0.047   4.317
   46        1.292   2.718   0.009   4.019
   47        1.290   2.853   0.026   4.169
   48        1.323   3.015   0.054   4.392
   49        1.265   2.746   0.006   4.017
   50        1.269   2.736   0.007   4.012
   51        1.333   3.011   0.062   4.407
   52        1.285   2.689   0.005   3.979
   53        1.275   2.773   0.012   4.060
   54        1.335   3.066   0.070   4.471
tot          44.90   88.16  218.00  351.06

magnetization (x)

# of ion       s       p       d       tot
    1        0.008   0.008   0.275   0.290
    2       -0.004   0.000  -0.344  -0.348
    3       -0.001  -0.000  -0.054  -0.056
    4       -0.001  -0.002  -0.047  -0.049
    5        0.007   0.005   0.709   0.721
    6        0.001  -0.001   0.139   0.139
    7       -0.008  -0.009  -0.172  -0.189
    8        0.006  -0.001   0.562   0.566
    9        0.000  -0.002   0.005   0.004
   10        0.006   0.002   0.199   0.206
   11        0.000   0.001  -0.110  -0.109
   12       -0.002  -0.002  -0.238  -0.242
   13       -0.003  -0.002  -0.073  -0.078
   14        0.001  -0.000   0.389   0.390
   15        0.000  -0.001   0.089   0.089
   16        0.005   0.010   0.235   0.250
   17        0.000   0.003  -0.296  -0.293
   18        0.000  -0.002  -0.156  -0.159
   19       -0.003   0.003   0.005   0.004
   20       -0.006  -0.009  -0.596  -0.612
   21       -0.000   0.001  -0.104  -0.104
   22        0.000   0.008   0.066   0.074
   23       -0.009   0.003  -0.841  -0.848
   24        0.003   0.000   0.030   0.032
   25        0.003   0.001   0.045   0.049
   26       -0.004   0.001  -0.568  -0.572
   27       -0.000   0.001  -0.125  -0.125
   28       -0.009  -0.237   0.000  -0.246
   29       -0.003  -0.116  -0.000  -0.119
   30        0.003   0.103   0.001   0.106
   31        0.001   0.009   0.000   0.010
   32        0.009   0.342   0.000   0.352
   33        0.000  -0.009  -0.000  -0.009
   34        0.002   0.085   0.000   0.087
   35        0.007   0.278   0.000   0.286
   36       -0.001  -0.077  -0.001  -0.079
   37       -0.000  -0.001   0.000  -0.001
   38       -0.003  -0.109   0.000  -0.112
   39        0.002   0.076   0.000   0.078
   40        0.000  -0.004  -0.000  -0.004
   41        0.005   0.166  -0.000   0.170
   42       -0.000  -0.016   0.000  -0.016
   43       -0.004  -0.137  -0.000  -0.141
   44       -0.003  -0.099  -0.000  -0.102
   45        0.003   0.104   0.001   0.108
   46       -0.004  -0.125   0.000  -0.129
   47       -0.007  -0.283  -0.001  -0.291
   48        0.001   0.027  -0.000   0.028
   49       -0.005  -0.200  -0.000  -0.205
   50       -0.007  -0.260  -0.000  -0.267
   51        0.002   0.047   0.000   0.048
   52       -0.007  -0.173  -0.000  -0.180
   53       -0.007  -0.233  -0.000  -0.241
   54        0.001   0.017   0.000   0.018
tot          -0.03   -0.81   -0.98   -1.82