 vasp.5.4.4.18Apr17-6-g9f103f2a35 (build May 12 2020 04:58:55) complex

 MD_VERSION_INFO: Compiled 2020-05-12T11:58:55-UTC in devlin.sd.materialsdesign.
 com:/home/medea2/data/build/wwolf/vasp-gpu5.4.4/13047/x86_64/src/src/build/std
 from svn 13047

 executed on                        Lin64 date 2023.03.24  08:26:38

 INCAR:
 POTCAR:    PAW_PBE Ni 02Aug2007
 POTCAR:    PAW_PBE O 08Apr2002

 POTCAR:    PAW_PBE Ni 02Aug2007

 POTCAR:    PAW_PBE O 08Apr2002

 Optimization of the real space projectors (new method)

 maximal supplied QI-value         = 16.25
 optimisation between [QCUT,QGAM] = [ 11.38, 22.75] = [ 36.24,144.96] Ry
 Optimized for a Real-space Cutoff    1.47 Angstroem

   l    n(q)    QCUT    max X(q) W(low)/X(q) W(high)/X(q)  e(spline)
   2      9    11.376    60.317    0.17E-03    0.16E-04    0.16E-06
   2      9    11.376    55.921    0.17E-03    0.16E-04    0.17E-06
   0     10    11.376    51.690    0.45E-04    0.60E-04    0.21E-06
   0     10    11.376    30.015    0.37E-04    0.55E-04    0.19E-06
   1     10    11.376    18.849    0.83E-04    0.11E-03    0.92E-07
   1     10    11.376    14.624    0.69E-04    0.92E-04    0.82E-07
 Optimization of the real space projectors (new method)

 maximal supplied QI-value         = 24.76
 optimisation between [QCUT,QGAM] = [ 11.39, 22.77] = [ 36.31,145.25] Ry
 Optimized for a Real-space Cutoff    1.10 Angstroem

   l    n(q)    QCUT    max X(q) W(low)/X(q) W(high)/X(q)  e(spline)
   0      7    11.387    20.381    0.22E-03    0.48E-03    0.18E-06
   0      7    11.387    15.268    0.22E-03    0.52E-03    0.19E-06
   1      7    11.387     5.964    0.22E-03    0.73E-03    0.24E-06
   1      7    11.387     5.382    0.19E-03    0.60E-03    0.21E-06

  PAW_PBE Ni 02Aug2007                  :
  PAW_PBE O 08Apr2002                   :

 POSCAR: NiO_Cmmm_scale_0_950_disp_0_15_round_1
  positions in direct lattice
 exchange correlation table for  LEXCH =       14
   RHO(1)=    0.500       N(1)  =     2000
   RHO(2)=  100.500       N(2)  =     4000

 ion  position               nearest neighbor table
   1  0.992  0.999  0.967-  30 0.71  28 1.96  25 2.19  48 2.46   3 2.53  19 2.55   4 2.77   7 2.93
                            13 2.95  10 3.07
   2  0.996  0.974  0.335-  28 1.70   8 2.19  29 2.25  26 2.32  20 2.61  11 2.80  14 2.84   5 2.92

   3  0.989  0.977  0.710-  29 1.49  30 1.83  27 2.30   9 2.51   1 2.53  21 2.66  12 2.82  15 2.86

[...]

   5  0.044  0.346  0.341-  31 1.78  32 1.81  14 2.66  17 2.79   2 2.92  20 2.96  23 3.04
   6  0.071  0.397  0.665-  32 1.49  33 2.31  18 2.45  15 2.59   9 2.75  24 2.83
   7  0.053  0.684  0.000-  36 1.23  34 1.84  16 2.48  25 2.54   4 2.73  10 2.76   9 2.79   1 2.93
                            22 2.93
   8  0.037  0.738  0.373-  35 1.53  34 1.89   2 2.19  11 2.39  26 2.58  17 2.84  23 3.03
   9  0.039  0.704  0.717-  36 1.56  35 1.87  12 2.30  18 2.45   3 2.51  27 2.64   6 2.75   7 2.79
                            24 2.85
  10  0.372  0.027  0.990-  39 1.03  37 1.55  16 2.58  22 2.67   7 2.76  19 2.77  12 2.79  13 2.84
                             1 3.07
  11  0.342  0.997  0.350-  38 1.76  37 2.00   8 2.39  17 2.57  14 2.59   2 2.80  20 2.95  23 2.97

[...]

  13  0.345  0.352  0.983-  42 1.02  40 1.94   4 2.54  15 2.57  10 2.84  16 2.94   1 2.95
  14  0.342  0.309  0.348-  40 1.71  41 1.99  11 2.59   5 2.66  23 2.69   2 2.84
  15  0.329  0.322  0.723-  42 1.59  41 1.77  13 2.57   6 2.59   3 2.86  12 2.91
  16  0.364  0.714  0.003-  45 1.23  43 1.89   7 2.48  19 2.50  10 2.58   4 2.88  13 2.94  18 3.01

  17  0.355  0.697  0.369-  44 1.67  43 1.76  11 2.57  20 2.65   5 2.79   8 2.84  26 2.97
  18  0.335  0.711  0.697-  44 1.63  45 1.93  12 2.21   9 2.45   6 2.45  21 2.74  16 3.01
  19  0.683  0.988  0.995-  48 1.00  46 1.68  45 2.41  16 2.50   1 2.55  25 2.68  10 2.77  22 2.77
                            21 2.93   4 3.00
  20  0.691  0.989  0.340-  47 1.67  46 1.71  26 2.49   2 2.61  17 2.65  11 2.95   5 2.96
  21  0.688  0.009  0.697-  47 1.92  48 1.97   3 2.66  18 2.74  27 2.76  24 2.78  12 2.89  19 2.93

  22  0.705  0.330  0.017-  49 1.53  51 1.69  10 2.67   4 2.72  19 2.77   7 2.93  25 3.03
  23  0.689  0.363  0.348-  49 1.77  50 1.93  14 2.69  26 2.73  11 2.97   8 3.03   5 3.04
  24  0.712  0.354  0.680-  50 1.40  51 1.64  21 2.78   6 2.83   9 2.85  27 2.87
  25  0.771  0.722  0.027-  54 1.48  52 1.65   1 2.19  28 2.40  30 2.48   7 2.54  19 2.68  27 2.96
                            22 3.03
  26  0.713  0.702  0.347-  52 1.59  53 1.86   2 2.32  20 2.49   8 2.58  23 2.73  17 2.97
  27  0.719  0.696  0.728-  54 1.62  53 1.98   3 2.30   9 2.64  21 2.76  24 2.87  25 2.96
  28  0.011  0.963  0.163-   2 1.70   1 1.96  25 2.40
  29  0.989  0.011  0.561-   3 1.49   2 2.25
  30  0.989  1.000  0.895-   1 0.71   3 1.83  25 2.48
  31  0.052  0.356  0.160-   4 1.71   5 1.78
  32  0.016  0.321  0.524-   6 1.49   5 1.81
  33  0.059  0.359  0.898-   4 0.88   6 2.31
  34  0.059  0.695  0.187-   7 1.84   8 1.89
  35  0.053  0.714  0.527-   8 1.53   9 1.87
  36  0.042  0.694  0.876-   7 1.23   9 1.56
  37  0.362  0.004  0.147-  10 1.55  11 2.00
  38  0.336  0.958  0.527-  11 1.76  12 1.80  44 1.87
  39  0.357  0.986  0.890-  10 1.03  12 1.79
  40  0.352  0.296  0.174-  14 1.71  13 1.94
  41  0.358  0.368  0.545-  15 1.77  14 1.99
  42  0.368  0.341  0.883-  13 1.02  15 1.59
  43  0.358  0.666  0.191-  17 1.76  16 1.89
  44  0.321  0.726  0.532-  18 1.63  17 1.67  38 1.87
  45  0.416  0.740  0.884-  16 1.23  18 1.93  19 2.41
  46  0.682  0.981  0.166-  19 1.68  20 1.71
  47  0.712  0.053  0.504-  20 1.67  21 1.92
  48  0.718  0.017  0.896-  19 1.00  21 1.97   1 2.46
  49  0.669  0.348  0.168-  22 1.53  23 1.77
  50  0.705  0.320  0.539-  24 1.40  23 1.93
  51  0.681  0.319  0.845-  24 1.64  22 1.69
  52  0.701  0.716  0.186-  26 1.59  25 1.65
  53  0.671  0.714  0.533-  26 1.86  27 1.98
  54  0.681  0.676  0.892-  25 1.48  27 1.62

  LATTYP: Found a hexagonal cell.
 ALAT       =     8.3357939959
 C/A-ratio  =     1.1769065436

  Lattice vectors:

 A1 = (   8.3357940000,   0.0000000000,   0.0000000000)
 A2 = (  -4.1678970000,   7.2190093600,   0.0000000000)
 A3 = (   0.0000000000,   0.0000000000,   9.8104505000)

Analysis of symmetry for initial positions (statically):
 Subroutine PRICEL returns:
 Original cell was already a primitive cell.

 Routine SETGRP: Setting up the symmetry group for a
 hexagonal supercell.

 Subroutine GETGRP returns: Found  1 space group operations
 (whereof  1 operations were pure point group operations)
 out of a pool of 24 trial point group operations.

The static configuration has the point symmetry C_1 .

Analysis of symmetry for dynamics (positions and initial velocities):
 Subroutine PRICEL returns:
 Original cell was already a primitive cell.

[...]

The dynamic configuration has the point symmetry C_1 .

Analysis of structural, dynamic, and magnetic symmetry:
 Subroutine PRICEL returns:
 Original cell was already a primitive cell.

 Routine SETGRP: Setting up the symmetry group for a
 hexagonal supercell.

 Subroutine GETGRP returns: Found  1 space group operations
 (whereof  1 operations were pure point group operations)
 out of a pool of 24 trial point group operations.

The magnetic configuration has the point symmetry C_1 .

 Subroutine INISYM returns: Found  1 space group operations
 (whereof  1 operations are pure point group operations),
 and found     1 'primitive' translations

 KPOINTS: Automatic mesh

Automatic generation of k-mesh.
Space group operators:
 irot       det(A)        alpha          n_x          n_y          n_z        tau_x        tau_y        tau_z
    1     1.000000     0.000000     1.000000     0.000000     0.000000     0.000000     0.000000     0.000000

 Subroutine IBZKPT returns following result:

 Found     26 irreducible k-points:

 Following reciprocal coordinates:
            Coordinates               Weight
  0.000000  0.000000  0.000000      1.000000
  0.250000  0.000000  0.000000      2.000000
  0.500000  0.000000  0.000000      1.000000
  0.000000  0.250000  0.000000      2.000000
  0.250000  0.250000  0.000000      2.000000
  0.500000  0.250000  0.000000      2.000000
 -0.250000  0.250000  0.000000      2.000000
  0.000000  0.500000  0.000000      1.000000
  0.250000  0.500000  0.000000      2.000000
  0.500000  0.500000  0.000000      1.000000
  0.000000  0.000000  0.333333      2.000000
  0.250000  0.000000  0.333333      2.000000
  0.500000  0.000000  0.333333      2.000000
 -0.250000 -0.000000  0.333333      2.000000
  0.000000  0.250000  0.333333      2.000000
  0.250000  0.250000  0.333333      2.000000
  0.500000  0.250000  0.333333      2.000000
 -0.250000  0.250000  0.333333      2.000000
  0.000000  0.500000  0.333333      2.000000
  0.250000  0.500000  0.333333      2.000000
  0.500000  0.500000  0.333333      2.000000
 -0.250000  0.500000  0.333333      2.000000
  0.000000 -0.250000  0.333333      2.000000
  0.250000 -0.250000  0.333333      2.000000
  0.500000 -0.250000  0.333333      2.000000
 -0.250000 -0.250000  0.333333      2.000000

 Following cartesian coordinates:
            Coordinates               Weight
  0.000000  0.000000  0.000000      1.000000
  0.029991  0.017315  0.000000      2.000000
  0.059982  0.034631  0.000000      1.000000
  0.000000  0.034631  0.000000      2.000000
  0.029991  0.051946  0.000000      2.000000
  0.059982  0.069262  0.000000      2.000000
 -0.029991  0.017315  0.000000      2.000000
  0.000000  0.069262  0.000000      1.000000
  0.029991  0.086577  0.000000      2.000000
  0.059982  0.103892  0.000000      1.000000
  0.000000  0.000000  0.033977      2.000000
  0.029991  0.017315  0.033977      2.000000
  0.059982  0.034631  0.033977      2.000000
 -0.029991 -0.017315  0.033977      2.000000
  0.000000  0.034631  0.033977      2.000000
  0.029991  0.051946  0.033977      2.000000
  0.059982  0.069262  0.033977      2.000000
 -0.029991  0.017315  0.033977      2.000000
  0.000000  0.069262  0.033977      2.000000
  0.029991  0.086577  0.033977      2.000000
  0.059982  0.103892  0.033977      2.000000
 -0.029991  0.051946  0.033977      2.000000
  0.000000 -0.034631  0.033977      2.000000
  0.029991 -0.017315  0.033977      2.000000
  0.059982  0.000000  0.033977      2.000000
 -0.029991 -0.051946  0.033977      2.000000

 SYSTEM =  unknown system
 POSCAR =  NiO_Cmmm_scale_0_950_disp_0_15_round_1

 Startparameter for this run:
   NWRITE =      1    write-flag & timer
   PREC   = accura    normal or accurate (medium, high low for compatibility)
   ISTART =      0    job   : 0-new  1-cont  2-samecut
   ICHARG =      2    charge: 1-file 2-atom 10-const
   ISPIN  =      2    spin polarized calculation?
   LNONCOLLINEAR =      F non collinear calculations
   LSORBIT =      F    spin-orbit coupling
   INIWAV =      1    electr: 0-lowe 1-rand  2-diag
   LASPH  =      F    aspherical Exc in radial PAW
   METAGGA=      F    non-selfconsistent MetaGGA calc.

 Electronic Relaxation 1
   ENCUT  =  500.0 eV  36.75 Ry    6.06 a.u.  15.20 15.20 17.89*2*pi/ulx,y,z
   ENINI  =  500.0     initial cutoff
   ENAUG  =  605.4 eV  augmentation charge cutoff
[...]
   -.385E+02 -.133E+03 0.168E+03   0.409E+02 0.131E+03 -.171E+03   -.125E+01 0.149E+01 0.892E+01   0.135E-01 0.434E-01 0.166E-02
   0.156E+03 0.152E+02 -.617E+03   -.211E+03 -.365E+02 0.969E+03   0.961E+01 0.268E+01 -.447E+02   0.175E-01 -.301E-02 -.478E-02
   0.409E+02 -.228E+02 -.257E+02   -.398E+02 0.226E+02 0.227E+02   -.858E+00 0.305E-01 0.298E+01   0.150E-01 -.161E-01 0.999E-03
   -.651E+01 0.175E+02 -.369E+02   0.777E+01 -.144E+02 0.399E+02   -.495E+00 -.336E+00 0.555E+01   0.246E-01 -.475E-02 -.700E-04
   0.570E+01 0.190E+03 -.454E+03   -.739E+00 -.194E+03 0.516E+03   0.318E+00 0.874E-01 -.716E+01   0.189E-01 -.355E-03 -.114E-02
   0.485E+02 0.218E+03 0.853E+02   -.494E+02 -.220E+03 -.936E+02   0.108E+01 0.571E-01 0.813E+00   0.788E-02 0.305E-01 -.167E-01
   0.143E+03 0.210E+03 0.275E+03   -.145E+03 -.210E+03 -.284E+03   0.762E+00 -.218E+00 0.327E+01   0.330E-01 -.670E-02 0.136E-01
   0.652E+02 -.327E+03 -.449E+03   -.739E+02 0.377E+03 0.606E+03   0.250E+01 -.676E+01 -.771E+01   -.335E-02 0.637E-02 0.802E-03
   -.609E+02 -.229E+03 0.264E+02   0.610E+02 0.229E+03 -.275E+02   0.358E+00 -.734E+00 -.178E+00   -.821E-02 0.233E-01 -.939E-02
   0.117E+02 -.349E+03 0.215E+03   -.122E+02 0.350E+03 -.219E+03   0.696E+00 0.181E+00 0.404E+01   0.126E-01 0.133E-01 0.976E-02
   0.262E+02 -.151E+03 -.604E+03   -.635E+02 0.165E+03 0.774E+03   0.584E-01 -.214E+01 -.844E+01   -.999E-02 -.120E-01 -.246E-01
   -.974E+01 -.958E+02 -.172E+03   0.971E+01 0.953E+02 0.172E+03   -.705E-01 0.930E+00 0.153E+01   -.534E-02 -.252E-01 0.829E-02
   -.784E+02 -.304E+02 0.325E+03   0.780E+02 0.301E+02 -.337E+03   0.762E+00 0.601E+00 0.751E+01   -.453E-02 0.129E-02 0.253E-02
   0.973E+00 0.241E+03 -.444E+03   -.148E+02 -.253E+03 0.501E+03   0.140E+01 0.274E+01 -.488E+01   -.572E-02 -.449E-02 -.189E-01
   -.134E+03 0.175E+03 0.227E+02   0.134E+03 -.176E+03 -.279E+02   -.489E+00 -.901E-01 0.272E+01   -.746E-02 -.213E-02 0.610E-02
   -.268E+03 0.197E+03 0.776E+02   0.269E+03 -.199E+03 -.766E+02   0.916E+00 0.927E+00 0.205E+01   0.708E-02 -.122E-01 0.145E-01
   0.139E+03 -.362E+02 -.529E+03   -.173E+03 -.114E+01 0.712E+03   0.452E+01 0.251E+01 -.105E+02   -.626E-02 0.127E-01 -.197E-01
   0.701E+02 -.122E+03 -.582E+02   -.705E+02 0.123E+03 0.575E+02   0.150E-01 0.379E+00 0.679E+00   -.434E-02 0.255E-01 0.125E-01
   0.385E+02 -.663E+02 0.201E+03   -.379E+02 0.658E+02 -.206E+03   0.388E-01 0.778E+00 0.449E+01   -.194E-01 0.154E-01 0.222E-02
   -.365E+02 -.844E+02 -.848E+02   0.375E+02 0.847E+02 0.800E+02   0.595E-01 -.784E+00 -.376E+00   -.468E-04 -.146E-01 -.463E-02
   -.143E+02 -.236E+02 -.107E+03   0.137E+02 0.233E+02 0.105E+03   0.666E+00 -.328E+00 0.167E+01   -.675E-02 -.282E-01 0.929E-02
   0.107E+03 -.849E+02 0.633E+02   -.107E+03 0.888E+02 -.472E+02   -.201E-01 -.186E+01 -.144E+01   -.617E-02 -.227E-01 -.736E-02
   -.455E+02 0.299E+03 -.241E+03   0.493E+02 -.299E+03 0.252E+03   -.360E+00 0.212E+01 -.277E+01   0.169E-02 0.326E-02 -.139E-01
   0.550E+02 0.288E+03 -.216E+03   -.545E+02 -.289E+03 0.223E+03   -.115E+01 0.697E+00 -.200E+01   0.373E-02 0.513E-02 0.103E-01
   0.955E+02 0.258E+03 0.343E+03   -.953E+02 -.257E+03 -.350E+03   -.112E+01 -.558E+00 0.175E+01   -.196E-01 -.194E-01 0.925E-02
   -.642E+02 -.105E+03 -.686E+02   0.685E+02 0.106E+03 0.592E+02   -.440E+01 0.521E+00 0.100E+02   0.801E-02 0.211E-01 0.199E-01
   -.549E+01 -.105E+03 0.270E+03   0.168E+01 0.113E+03 -.298E+03   0.361E+01 -.724E+01 0.191E+02   0.415E-02 0.271E-01 -.270E-01
   -.211E+02 -.108E+03 0.743E+03   -.724E+01 0.116E+03 -.157E+04   0.359E+01 -.298E+01 0.189E+03   0.325E-02 0.204E-01 0.124E-01
   0.142E+02 -.502E+00 -.174E+03   -.142E+02 0.157E+01 0.175E+03   -.509E+00 -.170E+01 0.275E+01   0.781E-02 -.598E-02 -.124E-01
   0.133E+02 0.698E+02 0.168E+03   -.176E+02 -.850E+02 -.184E+03   0.371E+01 0.129E+02 0.565E+01   0.796E-02 -.637E-02 0.916E-03
   -.449E+02 -.506E+02 0.629E+03   0.100E+03 0.746E+02 -.102E+04   -.102E+02 -.463E+01 0.837E+02   0.102E-01 -.125E-02 0.109E-01
   -.192E+02 0.123E+03 -.114E+03   0.227E+02 -.125E+03 0.115E+03   -.423E+01 0.176E+01 -.901E+00   0.953E-02 0.494E-02 -.102E-01
   0.852E+02 0.134E+03 -.217E+02   -.802E+02 -.137E+03 0.365E+02   -.616E+01 0.190E+01 -.834E+01   0.113E-01 -.255E-03 0.594E-02
   0.627E+02 0.109E+03 0.193E+03   -.720E+02 -.106E+03 -.252E+03   0.374E+01 -.911E+00 0.105E+02   0.163E-01 -.240E-02 0.111E-01
   -.155E+02 -.407E+02 -.280E+03   0.157E+02 0.400E+02 0.298E+03   -.648E+00 0.130E+01 -.972E+01   -.546E-02 0.573E-02 0.549E-02
   -.113E+02 -.209E+03 0.521E+02   0.126E+02 0.210E+03 -.506E+02   -.155E+01 0.166E+01 -.156E+01   0.268E-02 0.173E-01 -.107E-01
   -.193E+02 0.405E+00 0.416E+03   0.288E+02 -.528E+02 -.600E+03   -.401E+01 0.101E+02 0.292E+02   0.157E-02 0.560E-02 0.427E-02
   -.698E+01 -.481E+02 -.555E+02   0.970E+01 0.453E+02 0.479E+02   -.377E+01 0.369E+01 0.784E+01   -.606E-02 -.104E-01 0.546E-04
   -.679E+02 -.509E+02 0.119E+03   0.688E+02 0.573E+02 -.125E+03   -.707E+00 -.758E+01 0.475E+01   -.483E-02 -.123E-01 0.183E-01
   -.193E+03 -.298E+02 0.368E+03   0.248E+03 0.172E+02 -.550E+03   -.170E+02 0.475E+00 0.251E+02   -.131E-01 -.593E-02 -.131E-01
   -.501E+02 0.114E+03 -.730E+02   0.519E+02 -.118E+03 0.688E+02   -.221E+01 0.463E+01 0.413E+01   -.884E-02 -.472E-02 -.320E-02
   -.106E+03 0.925E+02 0.960E+02   0.101E+03 -.930E+02 -.995E+02   0.568E+01 -.618E+00 0.187E+01   0.979E-02 -.657E-02 0.158E-01
   -.165E+03 0.768E+02 0.321E+03   0.191E+03 -.654E+02 -.392E+03   -.141E+02 -.549E+01 0.194E+02   -.808E-02 -.441E-02 -.980E-02
   0.445E+02 -.923E+02 -.153E+03   -.454E+02 0.905E+02 0.154E+03   0.151E+00 0.188E+01 0.141E+01   -.450E-02 0.130E-01 -.110E-01
   0.297E+02 -.675E+02 -.148E+02   -.300E+02 0.753E+02 0.237E+02   0.972E-01 -.885E+01 -.717E+01   -.360E-02 0.120E-01 0.187E-02
   -.355E+02 -.195E+03 0.497E+03   0.710E+02 0.242E+03 -.709E+03   -.718E+01 -.110E+02 0.377E+02   -.697E-02 0.541E-02 0.123E-01
   0.273E+02 -.369E+02 -.189E+03   -.354E+02 0.375E+02 0.202E+03   0.777E+01 0.274E+00 -.533E+01   -.438E-02 -.116E-01 0.744E-02
   0.518E+02 0.117E+02 0.249E+03   -.484E+02 -.207E+02 -.281E+03   -.353E+01 0.791E+01 0.138E+02   -.364E-02 -.106E-01 0.894E-03
   0.374E+02 -.195E+02 0.554E+02   -.402E+02 0.163E+02 -.533E+02   0.321E+01 0.410E+01 -.115E+01   -.396E-02 -.925E-02 -.746E-02
   0.102E+03 0.162E+03 -.648E+02   -.112E+03 -.161E+03 0.590E+02   0.104E+02 -.204E+01 0.519E+01   -.753E-03 0.221E-02 -.158E-01
   0.571E+02 0.117E+03 0.105E+02   -.646E+02 -.116E+03 -.754E+01   0.880E+01 -.163E+01 -.266E+01   -.137E-01 -.343E-02 -.161E-05
   0.129E+03 0.229E+03 0.891E+02   -.146E+03 -.240E+03 -.985E+02   0.141E+02 0.813E+01 0.162E+01   -.147E-01 -.975E-02 0.176E-01
   0.714E+01 -.961E+01 -.215E+03   0.369E-12 0.398E-12 -.190E-11   -.721E+01 0.950E+01 0.215E+03   0.616E-01 0.113E+00 0.154E-01

 POSITION                                       TOTAL-FORCE (eV/Angst)
      4.10538      7.21057      9.49002        26.132175     -3.923373    637.533423
      4.24333      7.03222      3.28354        -0.346025      1.932753      1.253805
      4.17413      7.05132      6.96542         1.197894     -0.286456      6.449628
     -1.13586      2.53431      9.67873       -45.435394    -18.558428    307.889125
     -1.07450      2.49753      3.34658         0.335561     -0.269794      0.062635
     -1.06404      2.86767      6.51935         0.793911      2.767306      8.576844
     -2.41085      4.93936      0.00000         5.295529     -3.871728     54.581286
     -2.76634      5.32567      3.66238         0.257065     -1.586869     -7.558508
     -2.61050      5.07915      7.03462        -0.786998     -0.833510     -6.468904
      2.98984      0.19176      9.71525        -6.280572     43.762761    148.919125
     -1.30598      7.19916      3.43629         0.387934      0.084592     -1.260144
     -1.34474      7.00309      6.96321         0.244944      1.541647     -0.514524
      1.40518      2.54293      9.64564       -37.228793     11.897678    161.201741
      1.56667      2.22794      3.41381        -0.104286      0.477612      1.436133
      1.40182      2.32528      7.08965         0.330253      0.285931     -5.120938
      0.05724      5.15094      0.03063       -12.392458     -9.103318     51.836214
      0.05703      5.03343      3.61826         0.328263     -0.280561     -2.465313
     -0.17001      5.13096      6.83895         2.292653     -0.724707      3.036084
      1.57392      7.13150      9.76169       -29.240616    -34.769823    172.132784
      1.64039      7.14148      3.33744        -0.346415      0.855351     -0.048551
      5.69650      0.06486      6.83602         0.556858      0.220252     -0.905907
      4.50010      2.38390      0.16637         1.015179     -0.427796     -5.119273
      4.22818      2.62171      3.41474         0.083468     -0.578304      0.509200
      4.46199      2.55194      6.67174        -0.717856      1.968691     14.685130
      3.41682      5.21163      0.26889         3.453463      1.328805      8.291004
      3.01508      5.06655      3.40799        -0.632587     -0.217943      5.021806
      3.09254      5.02486      7.14583        -0.920229     -0.170487     -5.368108
     -3.92186      6.94999      1.59490        -0.114196      0.753046      0.539745
      8.19944      0.08272      5.50723        -0.196105      1.069150     -9.254646
      4.07847      7.21614      8.78187       -24.752628      5.328659   -636.399518
     -1.04714      2.57145      1.57285        -0.524319     -0.640468      4.035631
     -1.20182      2.31978      5.14037        -0.565879     -2.321585     -9.667991
     -1.00677      2.58853      8.80957        45.116359     19.367383   -309.750107
     -2.40478      5.01897      1.83682        -0.732496     -0.037451      0.030791
     -2.53648      5.15770      5.17059        -1.140630     -1.539107      6.460193
     -2.54329      5.00965      8.59445        -5.485341      2.269690    -47.622294
      3.00107      0.03242      1.44237        -0.445183      0.655722      8.289736
     -1.19419      6.91296      5.17033        -0.306194      2.833049     -0.084018
     -1.13279      7.12102      8.73199         5.521328    -42.284540   -155.063885
      1.70008      2.13404      1.70745        -1.054430      0.905247      0.219650
      1.45082      2.65667      5.35063         0.187148     -1.146648     -1.159006
      1.64509      2.46366      8.65826        37.437054    -12.115280   -156.787070
      0.21096      4.80530      1.87729        -0.412588      0.366828     -0.106351
     -0.35158      5.24023      5.22131         1.474327     -1.138655     -1.643614
      0.38775      5.34130      8.67173        12.311682      5.879986    -51.397653
      1.59778      7.08367      1.63252        -0.747564      0.077908      1.581998
      5.71038      0.38257      4.94242        -0.206132     -0.984552      1.746146
      5.91328      0.11988      8.79502        28.317846     36.430282   -174.306068
      4.12257      2.51580      1.64644        -0.335384      0.875600      7.125472
      4.54028      2.31059      5.29034        -0.095536     -1.070613    -18.255074
      4.34954      2.30096      8.29323         0.468791      0.798962      0.925130
      2.86050      5.17043      1.82578        -0.305980     -1.639492     -0.643960
      2.61441      5.15752      5.22692         1.320400     -0.963141      0.323109
      2.85773      4.87768      8.74635        -3.007267     -3.250260     -7.722141
    total drift:                               -0.004257     -0.002979     -0.033990

  FREE ENERGIE OF THE ION-ELECTRON SYSTEM (eV)
  free  energy   TOTEN  =        -1.5753741005 eV

  energy  without entropy=       -1.5157840056  energy(sigma->0) =       -1.54557905

volume of typ            1:    29.1 %

volume of typ            2:     7.5 %

total charge

# of ion       s       p       d       tot
    1        0.779   1.083   8.948  10.810
    2        0.284   0.241   7.960   8.485
    3        0.361   0.384   8.049   8.795
    4        0.704   1.076   8.666  10.446
    5        0.258   0.228   7.933   8.418
    6        0.331   0.300   8.040   8.671
    7        0.502   0.650   8.182   9.334
    8        0.344   0.377   7.956   8.677
    9        0.328   0.361   8.014   8.703
   10        0.706   1.053   8.402  10.161
   11        0.246   0.215   7.957   8.418
   12        0.276   0.264   8.024   8.563
   13        0.654   0.811   8.461   9.926
   14        0.267   0.225   7.899   8.390
   15        0.306   0.322   7.993   8.621
   16        0.478   0.622   8.200   9.301
   17        0.288   0.289   7.950   8.527
   18        0.306   0.297   8.021   8.624
   19        0.677   0.984   8.465  10.126
   20        0.308   0.329   7.924   8.560
   21        0.203   0.155   8.012   8.371
   22        0.336   0.401   7.971   8.708
   23        0.235   0.193   7.956   8.383
   24        0.416   0.531   8.001   8.948
   25        0.369   0.482   8.043   8.894
   26        0.314   0.332   7.946   8.592
   27        0.282   0.276   7.991   8.549
   28        1.288   2.713   0.007   4.008
   29        1.296   2.736   0.015   4.047
   30        0.746   3.857   0.142   4.745
   31        1.276   2.751   0.008   4.035
   32        1.289   2.776   0.018   4.083
   33        1.220   3.256   0.090   4.566
   34        1.275   2.703   0.004   3.983
   35        1.287   2.772   0.014   4.073
   36        1.320   2.995   0.056   4.372
   37        1.285   2.767   0.011   4.063
   38        1.290   2.705   0.010   4.004
   39        1.343   3.110   0.075   4.528
   40        1.277   2.716   0.006   3.999
   41        1.272   2.699   0.005   3.976
   42        1.334   3.125   0.089   4.548
   43        1.273   2.719   0.005   3.997
   44        1.292   2.756   0.017   4.064
   45        1.316   2.941   0.044   4.301
   46        1.273   2.785   0.010   4.068
   47        1.284   2.708   0.008   4.000
   48        1.338   3.103   0.077   4.517
   49        1.277   2.788   0.015   4.080
   50        1.292   2.816   0.022   4.130
   51        1.265   2.812   0.012   4.089
   52        1.286   2.792   0.016   4.094
   53        1.279   2.674   0.004   3.956
   54        1.284   2.856   0.025   4.165
tot          44.81   89.91  219.77  354.49

magnetization (x)

# of ion       s       p       d       tot
    1        0.005   0.011   0.031   0.046
    2        0.001   0.001  -0.577  -0.575
    3       -0.003   0.001  -0.268  -0.270
    4       -0.000  -0.000  -0.022  -0.023
    5        0.001   0.001  -0.016  -0.013
    6        0.006   0.006   0.412   0.424
    7        0.001   0.007   0.154   0.162
    8       -0.002   0.003  -0.619  -0.618
    9        0.001   0.002   0.118   0.121
   10        0.000   0.002   0.020   0.023
   11       -0.000   0.003  -0.434  -0.431
   12       -0.000   0.002  -0.135  -0.133
   13       -0.001   0.007   0.036   0.042
   14       -0.005   0.002  -0.780  -0.783
   15       -0.002   0.001  -0.028  -0.029
   16       -0.008  -0.010  -0.392  -0.410
   17        0.003  -0.001   0.232   0.233
   18       -0.002  -0.001   0.114   0.111
   19       -0.003  -0.000   0.015   0.011
   20       -0.008   0.002  -0.479  -0.485
   21       -0.002  -0.000  -0.243  -0.246
   22       -0.009  -0.002  -0.433  -0.443
   23       -0.002   0.001  -0.350  -0.352
   24        0.012   0.002   0.500   0.514
   25        0.002   0.003   0.141   0.146
   26       -0.001   0.004  -0.477  -0.474
   27        0.003   0.002   0.088   0.093
   28       -0.007  -0.247  -0.000  -0.255
   29       -0.006  -0.213  -0.000  -0.219
   30        0.003   0.021   0.001   0.026
   31       -0.001  -0.054   0.000  -0.056
   32        0.004   0.164   0.000   0.169
   33        0.001  -0.005  -0.001  -0.005
   34       -0.005  -0.186  -0.000  -0.191
   35       -0.008  -0.269  -0.000  -0.277
   36        0.002   0.086   0.000   0.088
   37       -0.001  -0.034  -0.000  -0.035
   38       -0.007  -0.202   0.000  -0.209
   39       -0.000   0.003   0.000   0.003
   40       -0.009  -0.315  -0.000  -0.324
   41       -0.004  -0.141  -0.000  -0.145
   42        0.000   0.026   0.000   0.027
   43       -0.000   0.011  -0.000   0.011
   44        0.001   0.061  -0.000   0.062
   45       -0.004  -0.151  -0.002  -0.156
   46       -0.001  -0.038  -0.000  -0.040
   47       -0.006  -0.279   0.000  -0.286
   48       -0.001   0.002   0.000   0.001
   49       -0.007  -0.227  -0.000  -0.233
   50        0.005   0.188   0.001   0.194
   51        0.001   0.026   0.000   0.027
   52       -0.003  -0.126  -0.000  -0.130
   53       -0.006  -0.232  -0.000  -0.238
   54        0.002   0.093  -0.000   0.094
tot          -0.07   -1.99   -3.39   -5.46