 vasp.5.4.4.18Apr17-6-g9f103f2a35 (build May 12 2020 04:58:55) complex

 MD_VERSION_INFO: Compiled 2020-05-12T11:58:55-UTC in devlin.sd.materialsdesign.
 com:/home/medea2/data/build/wwolf/vasp-gpu5.4.4/13047/x86_64/src/src/build/std
 from svn 13047

 executed on                        Lin64 date 2023.03.24  08:33:29

 INCAR:
 POTCAR:    PAW_PBE Ni 02Aug2007
 POTCAR:    PAW_PBE O 08Apr2002

 POTCAR:    PAW_PBE Ni 02Aug2007

 POTCAR:    PAW_PBE O 08Apr2002

 Optimization of the real space projectors (new method)

 maximal supplied QI-value         = 16.25
 optimisation between [QCUT,QGAM] = [ 11.38, 22.75] = [ 36.24,144.96] Ry
 Optimized for a Real-space Cutoff    1.47 Angstroem

   l    n(q)    QCUT    max X(q) W(low)/X(q) W(high)/X(q)  e(spline)
   2      9    11.376    60.317    0.17E-03    0.16E-04    0.16E-06
   2      9    11.376    55.921    0.17E-03    0.16E-04    0.17E-06
   0     10    11.376    51.690    0.45E-04    0.60E-04    0.21E-06
   0     10    11.376    30.015    0.37E-04    0.55E-04    0.19E-06
   1     10    11.376    18.849    0.83E-04    0.11E-03    0.92E-07
   1     10    11.376    14.624    0.69E-04    0.92E-04    0.82E-07
 Optimization of the real space projectors (new method)

 maximal supplied QI-value         = 24.76
 optimisation between [QCUT,QGAM] = [ 11.39, 22.77] = [ 36.31,145.25] Ry
 Optimized for a Real-space Cutoff    1.10 Angstroem

   l    n(q)    QCUT    max X(q) W(low)/X(q) W(high)/X(q)  e(spline)
   0      7    11.387    20.381    0.22E-03    0.48E-03    0.18E-06
   0      7    11.387    15.268    0.22E-03    0.52E-03    0.19E-06
   1      7    11.387     5.964    0.22E-03    0.73E-03    0.24E-06
   1      7    11.387     5.382    0.19E-03    0.60E-03    0.21E-06

  PAW_PBE Ni 02Aug2007                  :
  PAW_PBE O 08Apr2002                   :

 POSCAR: NiO_Cmmm_scale_0_950_disp_0_10_round_2
  positions in direct lattice
 exchange correlation table for  LEXCH =       14
   RHO(1)=    0.500       N(1)  =     2000
   RHO(2)=  100.500       N(2)  =     4000

 ion  position               nearest neighbor table
   1  0.003  0.995  0.025-  30 1.28  28 1.64  25 2.51   7 2.60  19 2.67  10 2.84   4 2.92  13 3.01

   2  0.985  0.992  0.353-  28 1.58  29 1.68  26 2.29  20 2.63   8 2.72   5 2.79  11 2.98  14 2.98

[...]

   4  0.039  0.360  0.990-  33 1.09  31 1.78  16 2.74  13 2.82  22 2.83   6 2.84  19 2.91   7 2.91
                             1 2.92
   5  0.070  0.361  0.351-  32 1.71  31 1.79  14 2.34  17 2.57   2 2.79   8 2.94  23 3.07
   6  0.058  0.342  0.702-  32 1.74  33 1.75  15 2.52   3 2.58  18 2.77  21 2.78   4 2.84  24 2.94
                             9 3.03
   7  0.064  0.720  0.999-  36 1.29  34 1.70  10 2.43  39 2.48  16 2.59   1 2.60   9 2.78   4 2.91

[...]

   9  0.048  0.700  0.716-  36 1.52  35 1.82  18 2.35  12 2.60  27 2.68  24 2.74   7 2.78   3 2.81
                             6 3.03
  10  0.352  0.016  0.999-  39 1.09  37 1.77   7 2.43  22 2.65  13 2.67  16 2.72   1 2.84  19 2.86

[...]

  13  0.370  0.345  0.988-  42 1.18  40 1.85  10 2.67  22 2.71   4 2.82  15 2.89  25 2.89  16 2.96
                             1 3.01
  14  0.342  0.348  0.372-  41 1.60  40 1.95   5 2.34  11 2.84  17 2.90  23 2.95   2 2.98
  15  0.370  0.366  0.695-  41 1.57  42 1.74   6 2.52  13 2.89  27 2.90  24 2.91   3 3.04  12 3.04
                            18 3.04
  16  0.361  0.695  0.999-  45 0.95  43 1.82   7 2.59  25 2.65  19 2.70  10 2.72   4 2.74  18 2.88
                            13 2.96
  17  0.342  0.695  0.356-  43 1.69  44 1.70   8 2.43  20 2.56   5 2.57  11 2.61  14 2.90
  18  0.334  0.710  0.707-  44 1.77  45 1.95  12 2.31   9 2.35   6 2.77  16 2.88  21 2.94  15 3.04

  19  0.692  0.010  0.000-  48 1.31  46 1.69  25 2.45  22 2.63   1 2.67  16 2.70  10 2.86   4 2.91
                            21 2.98
  20  0.666  0.984  0.356-  47 1.74  46 1.82  17 2.56  26 2.57   2 2.63  11 2.74  23 2.87
  21  0.723  0.008  0.698-  47 1.70  48 1.72   3 2.31  27 2.58   6 2.78  18 2.94  12 2.96  19 2.98
                            24 3.04
  22  0.682  0.320  0.983-  51 1.17  49 1.83  24 2.61  19 2.63  10 2.65  13 2.71   4 2.83
  23  0.691  0.340  0.360-  50 1.74  49 1.89  11 2.78  20 2.87  14 2.95  26 2.96   8 3.05   5 3.07

  24  0.721  0.371  0.719-  51 1.49  50 1.83  22 2.61   9 2.74  27 2.74  15 2.91   6 2.94  21 3.04
                            12 3.07
  25  0.689  0.714  0.999-  54 1.16  52 1.62  19 2.45   1 2.51  16 2.65  13 2.89  27 3.07
  26  0.722  0.708  0.340-  52 1.76  53 1.88   2 2.29  20 2.57   8 2.80  23 2.96
  27  0.728  0.701  0.689-  53 1.55  54 1.92   3 2.43  21 2.58   9 2.68  24 2.74  15 2.90  25 3.07

  28  0.998  0.002  0.192-   2 1.58   1 1.64
  29  0.988  0.983  0.524-   3 1.59   2 1.68
  30  1.000  0.016  0.896-   1 1.28   3 2.07
  31  0.036  0.339  0.171-   4 1.78   5 1.79
  32  0.048  0.351  0.525-   5 1.71   6 1.74
  33  0.051  0.350  0.880-   4 1.09   6 1.75
  34  0.069  0.698  0.171-   7 1.70   8 1.80
  35  0.076  0.718  0.531-   8 1.75   9 1.82
  36  0.046  0.684  0.870-   7 1.29   9 1.52
  37  0.383  0.009  0.177-  11 1.71  10 1.77
  38  0.345  0.008  0.526-  12 1.45  11 1.75
  39  0.347  0.974  0.893-  10 1.09  12 2.17   7 2.48
  40  0.340  0.363  0.173-  13 1.85  14 1.95
  41  0.360  0.361  0.534-  15 1.57  14 1.60
  42  0.343  0.340  0.870-  13 1.18  15 1.74
  43  0.338  0.694  0.183-  17 1.69  16 1.82
  44  0.362  0.713  0.528-  17 1.70  18 1.77
  45  0.357  0.690  0.903-  16 0.95  18 1.95
  46  0.702  0.011  0.173-  19 1.69  20 1.82
  47  0.718  0.979  0.526-  21 1.70  20 1.74
  48  0.672  0.975  0.870-  19 1.31  21 1.72
  49  0.703  0.345  0.168-  22 1.83  23 1.89
  50  0.736  0.380  0.534-  23 1.74  24 1.83
  51  0.728  0.368  0.871-  22 1.17  24 1.49
  52  0.695  0.689  0.162-  25 1.62  26 1.76
  53  0.709  0.706  0.532-  27 1.55  26 1.88
  54  0.698  0.693  0.883-  25 1.16  27 1.92

  LATTYP: Found a hexagonal cell.
 ALAT       =     8.3357939959
 C/A-ratio  =     1.1769065436

  Lattice vectors:

 A1 = (   8.3357940000,   0.0000000000,   0.0000000000)
 A2 = (  -4.1678970000,   7.2190093600,   0.0000000000)
 A3 = (   0.0000000000,   0.0000000000,   9.8104505000)

Analysis of symmetry for initial positions (statically):
 Subroutine PRICEL returns:
 Original cell was already a primitive cell.

 Routine SETGRP: Setting up the symmetry group for a
 hexagonal supercell.

 Subroutine GETGRP returns: Found  1 space group operations
 (whereof  1 operations were pure point group operations)
 out of a pool of 24 trial point group operations.

The static configuration has the point symmetry C_1 .

Analysis of symmetry for dynamics (positions and initial velocities):
 Subroutine PRICEL returns:
 Original cell was already a primitive cell.

[...]

The dynamic configuration has the point symmetry C_1 .

Analysis of structural, dynamic, and magnetic symmetry:
 Subroutine PRICEL returns:
 Original cell was already a primitive cell.

 Routine SETGRP: Setting up the symmetry group for a
 hexagonal supercell.

 Subroutine GETGRP returns: Found  1 space group operations
 (whereof  1 operations were pure point group operations)
 out of a pool of 24 trial point group operations.

The magnetic configuration has the point symmetry C_1 .

 Subroutine INISYM returns: Found  1 space group operations
 (whereof  1 operations are pure point group operations),
 and found     1 'primitive' translations

 KPOINTS: Automatic mesh

Automatic generation of k-mesh.
Space group operators:
 irot       det(A)        alpha          n_x          n_y          n_z        tau_x        tau_y        tau_z
    1     1.000000     0.000000     1.000000     0.000000     0.000000     0.000000     0.000000     0.000000

 Subroutine IBZKPT returns following result:

 Found     26 irreducible k-points:

 Following reciprocal coordinates:
            Coordinates               Weight
  0.000000  0.000000  0.000000      1.000000
  0.250000  0.000000  0.000000      2.000000
  0.500000  0.000000  0.000000      1.000000
  0.000000  0.250000  0.000000      2.000000
  0.250000  0.250000  0.000000      2.000000
  0.500000  0.250000  0.000000      2.000000
 -0.250000  0.250000  0.000000      2.000000
  0.000000  0.500000  0.000000      1.000000
  0.250000  0.500000  0.000000      2.000000
  0.500000  0.500000  0.000000      1.000000
  0.000000  0.000000  0.333333      2.000000
  0.250000  0.000000  0.333333      2.000000
  0.500000  0.000000  0.333333      2.000000
 -0.250000 -0.000000  0.333333      2.000000
  0.000000  0.250000  0.333333      2.000000
  0.250000  0.250000  0.333333      2.000000
  0.500000  0.250000  0.333333      2.000000
 -0.250000  0.250000  0.333333      2.000000
  0.000000  0.500000  0.333333      2.000000
  0.250000  0.500000  0.333333      2.000000
  0.500000  0.500000  0.333333      2.000000
 -0.250000  0.500000  0.333333      2.000000
  0.000000 -0.250000  0.333333      2.000000
  0.250000 -0.250000  0.333333      2.000000
  0.500000 -0.250000  0.333333      2.000000
 -0.250000 -0.250000  0.333333      2.000000

 Following cartesian coordinates:
            Coordinates               Weight
  0.000000  0.000000  0.000000      1.000000
  0.029991  0.017315  0.000000      2.000000
  0.059982  0.034631  0.000000      1.000000
  0.000000  0.034631  0.000000      2.000000
  0.029991  0.051946  0.000000      2.000000
  0.059982  0.069262  0.000000      2.000000
 -0.029991  0.017315  0.000000      2.000000
  0.000000  0.069262  0.000000      1.000000
  0.029991  0.086577  0.000000      2.000000
  0.059982  0.103892  0.000000      1.000000
  0.000000  0.000000  0.033977      2.000000
  0.029991  0.017315  0.033977      2.000000
  0.059982  0.034631  0.033977      2.000000
 -0.029991 -0.017315  0.033977      2.000000
  0.000000  0.034631  0.033977      2.000000
  0.029991  0.051946  0.033977      2.000000
  0.059982  0.069262  0.033977      2.000000
 -0.029991  0.017315  0.033977      2.000000
  0.000000  0.069262  0.033977      2.000000
  0.029991  0.086577  0.033977      2.000000
  0.059982  0.103892  0.033977      2.000000
 -0.029991  0.051946  0.033977      2.000000
  0.000000 -0.034631  0.033977      2.000000
  0.029991 -0.017315  0.033977      2.000000
  0.059982  0.000000  0.033977      2.000000
 -0.029991 -0.051946  0.033977      2.000000

 SYSTEM =  unknown system
 POSCAR =  NiO_Cmmm_scale_0_950_disp_0_10_round_2

 Startparameter for this run:
   NWRITE =      1    write-flag & timer
   PREC   = accura    normal or accurate (medium, high low for compatibility)
   ISTART =      0    job   : 0-new  1-cont  2-samecut
   ICHARG =      2    charge: 1-file 2-atom 10-const
   ISPIN  =      2    spin polarized calculation?
   LNONCOLLINEAR =      F non collinear calculations
   LSORBIT =      F    spin-orbit coupling
   INIWAV =      1    electr: 0-lowe 1-rand  2-diag
   LASPH  =      F    aspherical Exc in radial PAW
   METAGGA=      F    non-selfconsistent MetaGGA calc.

 Electronic Relaxation 1
   ENCUT  =  500.0 eV  36.75 Ry    6.06 a.u.  15.20 15.20 17.89*2*pi/ulx,y,z
   ENINI  =  500.0     initial cutoff
   ENAUG  =  605.4 eV  augmentation charge cutoff
   NELM   =     80;   NELMIN=  2; NELMDL= -5     # of ELM steps
[...]
   -.191E+03 -.119E+03 -.474E+02   0.192E+03 0.120E+03 0.497E+02   0.244E+00 -.222E+00 0.272E+01   -.829E-01 -.689E-01 0.219E-01
   0.120E+03 -.793E+01 -.510E+03   -.135E+03 0.148E+02 0.629E+03   0.137E+01 -.709E+00 -.626E+01   0.861E-01 -.705E-01 0.526E-02
   0.138E+03 0.246E+02 0.121E+02   -.139E+03 -.246E+02 -.140E+02   -.122E+00 -.308E+00 0.124E+01   0.408E+00 -.871E-01 -.311E-01
   0.613E+02 -.852E+01 0.175E+03   -.614E+02 0.845E+01 -.180E+03   -.195E+00 0.246E+00 0.460E+01   0.107E+00 -.575E-01 0.381E-01
   0.189E+03 0.688E+02 -.354E+03   -.191E+03 -.623E+02 0.396E+03   0.149E+01 -.856E+00 -.675E+01   -.695E-01 0.867E-01 -.570E-01
   0.159E+03 0.171E+03 0.976E+01   -.159E+03 -.171E+03 -.103E+02   0.614E+00 -.306E+00 0.809E-01   0.111E+00 0.428E+00 0.174E-02
   0.127E+03 0.670E+02 0.269E+03   -.128E+03 -.665E+02 -.283E+03   0.623E+00 -.186E+00 0.459E+01   -.365E-01 0.929E-01 0.406E-01
   0.109E+03 -.331E+03 -.431E+03   -.124E+03 0.366E+03 0.546E+03   0.184E+01 -.439E+01 -.687E+01   -.107E+00 -.551E-01 -.390E-01
   0.312E+02 -.226E+03 -.254E+02   -.300E+02 0.227E+03 0.230E+02   -.353E+00 -.313E+00 0.327E+01   -.267E+00 -.595E+00 -.741E-01
   -.391E+02 -.275E+03 -.843E+02   0.406E+02 0.275E+03 0.930E+02   -.136E+00 -.199E+00 0.415E+01   -.503E-01 -.135E+00 0.118E+00
   -.166E+03 0.425E+00 -.448E+03   0.178E+03 0.127E+01 0.525E+03   -.147E+01 -.735E-01 -.552E+01   -.108E+00 -.105E-01 -.571E-01
   -.179E+03 0.209E+01 0.123E+03   0.180E+03 -.216E+01 -.129E+03   -.285E+00 0.220E+00 0.680E+00   -.573E+00 0.150E-01 -.330E-01
   -.146E+03 -.242E+01 0.896E+02   0.146E+03 0.219E+01 -.887E+02   -.439E+00 -.283E+00 0.288E+01   -.112E+00 0.377E-01 0.117E+00
   -.102E+03 0.898E+02 -.631E+03   0.106E+03 -.820E+02 0.889E+03   -.115E+01 -.342E+00 -.213E+02   0.577E-01 0.464E-02 0.653E-01
   -.126E+03 0.953E+02 -.313E+02   0.126E+03 -.956E+02 0.301E+02   0.855E-01 0.275E+00 0.158E+01   0.103E+00 0.110E+00 -.198E-01
   -.162E+03 0.913E+02 0.125E+03   0.162E+03 -.921E+02 -.131E+03   0.938E+00 -.356E-01 0.562E+01   0.500E-01 0.125E-02 0.578E-03
   0.512E+02 -.207E+03 -.298E+03   -.516E+02 0.216E+03 0.335E+03   0.555E+00 -.298E+01 -.538E+01   0.144E+00 -.985E-01 0.413E-02
   0.111E+03 -.153E+03 -.160E+02   -.111E+03 0.154E+03 0.141E+02   0.516E+00 0.114E+00 0.842E+00   0.391E+00 -.553E+00 -.366E-01
   0.176E+03 -.154E+03 0.137E+03   -.177E+03 0.154E+03 -.139E+03   -.577E-01 -.852E+00 0.247E+01   0.129E+00 -.149E+00 0.475E-02
   0.112E+03 0.416E+02 -.453E+03   -.124E+03 -.640E+02 0.533E+03   0.121E+01 0.168E+01 -.737E+01   -.998E-02 -.188E-01 0.303E-01
   0.301E+02 -.177E+02 0.250E+02   -.301E+02 0.180E+02 -.258E+02   0.313E+00 0.287E+00 -.942E+00   0.108E+00 -.647E-03 -.152E-01
   0.709E+02 0.877E+02 0.343E+03   -.712E+02 -.869E+02 -.361E+03   0.291E+00 -.178E+00 0.702E+01   0.580E-02 0.724E-01 0.944E-01
   -.123E+02 0.169E+03 -.374E+03   0.155E+01 -.160E+03 0.452E+03   0.856E+00 -.681E+00 -.484E+01   0.921E-02 0.136E+00 -.149E-01
   0.653E+01 0.288E+03 -.322E+02   -.644E+01 -.290E+03 0.313E+02   -.288E+00 -.251E+00 0.197E+01   -.250E+00 0.682E+00 -.172E-01
   0.229E+02 0.211E+03 0.133E+02   -.220E+02 -.212E+03 -.105E+02   -.699E+00 0.185E+00 0.345E+01   -.565E-01 0.173E+00 0.150E-01
   -.633E+02 -.664E+02 -.512E+02   0.638E+02 0.683E+02 0.462E+02   0.434E+00 -.164E+01 0.333E+01   -.680E-01 -.387E-01 0.345E-01
   -.913E+02 -.470E+02 0.807E+02   0.931E+02 0.442E+02 -.865E+02   -.680E+00 0.356E+01 0.285E+01   -.868E-01 -.445E-01 -.594E-01
   -.466E+02 -.775E+02 0.308E+03   0.409E+02 0.862E+02 -.369E+03   0.339E+01 -.420E+01 0.201E+02   -.139E-01 -.331E-01 0.624E-01
   0.631E+02 0.172E+02 -.101E+03   -.653E+02 -.187E+02 0.999E+02   0.181E+01 0.253E+01 0.907E+00   0.155E+00 -.602E-01 -.118E-01
   0.879E+02 0.150E+00 0.444E+02   -.929E+02 -.121E+00 -.431E+02   0.470E+01 0.919E-01 -.123E+01   0.155E+00 -.406E-01 0.131E-01
   -.219E+02 0.447E+02 0.352E+03   0.398E+02 -.542E+02 -.486E+03   -.455E+01 0.286E+01 0.215E+02   0.558E-01 -.436E-01 -.380E-01
   0.868E+02 0.104E+03 -.122E+03   -.837E+02 -.107E+03 0.126E+03   -.464E+01 0.304E+01 -.168E+01   0.268E-02 0.125E+00 -.206E-01
   0.567E+02 0.806E+02 0.418E+02   -.550E+02 -.802E+02 -.396E+02   -.313E+01 -.147E+01 -.203E+01   0.145E-02 0.103E+00 -.429E-02
   0.810E+02 0.122E+03 0.136E+03   -.809E+02 -.137E+03 -.170E+03   -.112E+01 0.793E+01 0.547E+01   -.286E-01 0.635E-01 0.390E-01
   -.134E+02 -.119E+03 -.829E+02   0.189E+02 0.118E+03 0.805E+02   -.673E+01 0.178E+01 0.270E+01   -.607E-01 -.167E+00 -.453E-01
   0.130E+02 -.150E+03 0.138E+03   -.187E+02 0.151E+03 -.158E+03   0.436E+01 0.294E+00 0.783E+01   -.102E+00 -.193E+00 0.174E-01
   -.289E+02 -.323E+02 0.457E+03   0.478E+02 -.772E+01 -.597E+03   -.533E+01 0.114E+02 0.312E+02   -.466E-01 -.284E-01 -.140E-01
   -.726E+02 -.190E+01 -.112E+03   0.707E+02 0.407E+01 0.114E+03   0.352E+01 -.265E+01 -.794E+00   -.148E+00 -.323E-02 -.997E-01
   -.848E+02 -.101E+02 0.583E+02   0.859E+02 0.113E+02 -.598E+02   -.249E+00 -.121E+01 0.157E+00   -.196E+00 0.303E-01 0.129E+00
   0.150E+01 0.421E+02 0.305E+03   -.200E+02 -.466E+02 -.391E+03   0.846E+01 0.317E+01 0.161E+02   -.276E-01 -.823E-03 0.431E-01
   -.579E+02 0.590E+02 -.612E+02   0.576E+02 -.595E+02 0.538E+02   0.139E+01 0.390E+00 0.691E+01   0.472E-01 0.270E-01 0.261E-01
   -.978E+02 0.423E+02 0.110E+02   0.102E+03 -.417E+02 -.779E+01   -.351E+01 -.121E+01 -.265E+01   0.530E-01 0.287E-01 0.604E-02
   -.656E+02 0.861E+02 0.528E+03   0.639E+02 -.980E+02 -.816E+03   -.152E+01 0.350E+01 0.506E+02   0.330E-01 -.315E-02 -.889E-01
   0.233E+02 -.892E+02 -.146E+03   -.214E+02 0.915E+02 0.150E+03   -.299E+01 -.177E+01 -.287E+01   0.132E+00 -.186E+00 0.122E+00
   0.859E+02 -.776E+02 0.617E+02   -.812E+02 0.749E+02 -.633E+02   -.686E+01 0.391E+01 0.904E+00   0.867E-01 -.148E+00 -.165E+00
   0.617E+02 -.813E+01 0.258E+03   -.649E+02 -.485E+01 -.302E+03   0.247E+01 0.918E+01 0.122E+02   0.868E-01 -.287E-01 0.860E-02
   0.174E+02 -.618E+02 -.129E+03   -.163E+02 0.626E+02 0.132E+03   -.181E+01 -.149E+01 -.722E+00   0.584E-01 0.173E-01 -.877E+00
   0.905E+00 0.126E+02 0.492E+02   0.250E+01 -.870E+01 -.477E+02   -.429E+01 -.500E+01 -.216E+01   0.159E+00 0.217E+00 0.101E+01
   -.264E+02 -.102E+03 0.190E+03   0.442E+02 0.133E+03 -.260E+03   -.697E+01 -.108E+02 0.871E+01   0.809E-02 0.373E-01 -.152E-01
   -.286E+02 0.169E+03 -.153E+03   0.282E+02 -.174E+03 0.160E+03   0.256E+00 0.395E+01 -.282E+01   -.578E-01 0.200E+00 0.298E-01
   0.412E+02 0.160E+03 0.158E+03   -.457E+02 -.161E+03 -.172E+03   0.432E+01 0.501E-01 0.818E+01   -.656E-01 0.223E+00 0.283E-01
   -.715E+02 0.164E+03 0.353E+03   0.858E+02 -.179E+03 -.451E+03   -.330E+01 0.431E+01 0.210E+02   -.509E-02 0.741E-01 -.186E-01
   0.186E+02 -.208E+02 -.183E+03   -.554E-12 0.171E-12 0.568E-12   -.185E+02 0.208E+02 0.182E+03   -.124E+00 -.689E-01 0.238E+00

 POSITION                                       TOTAL-FORCE (eV/Angst)
     -4.12377      7.18592      0.24308         3.400024     -4.112887     37.103385
      4.07697      7.15985      3.46099         0.778211      0.377340      2.972196
      8.29991      0.06035      6.71808         0.715977      0.287318      5.079843
     -1.17480      2.59745      9.71239       -13.725591      6.054188    112.838305
     -0.92404      2.60420      3.44814        -0.692819     -0.448807     -0.739145
     -0.94437      2.46980      6.88394        -0.143746      0.112896     -0.441129
     -2.46636      5.19948      9.80176        -0.155078      5.729757     35.458528
     -2.47605      5.10154      3.46919         0.319550     -0.135159     -0.479624
     -2.51976      5.05594      7.02590        -0.327825      0.368617     -9.318542
      2.86706      0.11522      9.79973       -12.845141     30.783810    107.794156
      2.88124      0.09722      3.41816         0.627151      0.222489      0.833408
     -1.12418      7.21165      6.59859         1.320151     -0.034494     12.968373
      1.64454      2.49026      9.69398        10.781173      1.614565     71.497762
      1.40257      2.50862      3.65108         0.038898      0.166835     -5.588291
      1.56425      2.63910      6.81351        -0.459203     -0.473797      3.877027
      0.11411      5.01582      9.80254         3.029768      7.431430    236.786953
     -0.04459      5.01778      3.49158         0.351745      0.087333      0.278542
     -0.17542      5.12903      6.93439         1.549509     -0.786727     -0.091765
      5.72647      0.07270      0.00460         0.283708      5.538667     32.295593
      1.44825      7.10228      3.48799         0.892367      0.444041     -1.098411
      5.99478      0.06069      6.84700        -1.001690     -0.540219     -0.276287
      4.35046      2.30805      9.64108       -10.991857    -20.680938     72.388489
      4.34655      2.45170      3.53498         0.421311      0.592591     -1.721021
      4.46202      2.67927      7.05841         0.045835      0.631129    -11.360473
      2.76488      5.15371      9.80107        -9.844051      8.213117     73.511692
      3.06507      5.11251      3.33573        -0.441330     -1.171094      0.966655
      3.14818      5.06253      6.75660         0.121428     -0.784237      6.290889
      8.31058      0.01096      1.87941         0.830012      0.210417     -1.620781
      4.13491      7.09973      5.14291         0.965089      0.715290     -3.085687
      8.26578      0.11514      8.79136        -2.278198      4.494036    -40.743620
     -1.10936      2.44577      1.67892        -0.283189      0.933136      0.221411
     -1.06001      2.53329      5.15280        -0.193875      0.079807      0.120166
     -1.03379      2.52773      8.63055        13.397134     -6.733732   -111.666775
     -2.32998      5.03541      1.67339        -1.454939      0.242981      2.062649
     -2.35693      5.17993      5.21284        -1.455075     -0.924080      0.174389
     -2.46400      4.93492      8.53667        -1.020653     -6.918890    -28.124929
      3.15082      0.06566      1.73365        -1.270462      0.908299      0.200163
      2.84240      0.05681      5.16467        -1.447490      1.600346    -12.261702
     -1.16415      7.03124      8.75950        13.477677    -28.708730   -108.816782
      1.32270      2.62023      1.70095         1.478345     -0.479560      0.885553
      1.49710      2.60753      5.24109         0.711297      0.038316     -1.188625
      1.44089      2.45688      8.53451       -10.108762     -1.367270    -69.705773
     -0.06933      5.00666      1.79999         1.150018     -0.069365     -0.475071
      0.05000      5.14524      5.18047         0.341023     -0.647197      0.573098
      0.10177      4.98135      8.85770        -3.096786     -8.397068   -237.121313
      5.80100      0.08161      1.69302        -1.003063      0.383546      1.892298
      1.90561      7.07088      5.16170        -2.104507      1.062259     -0.876349
      1.53962      7.04089      8.53083        -0.659043     -3.827083    -32.564617
      4.41767      2.49206      1.64568        -0.594922     -0.621950      1.425561
      4.55130      2.74032      5.23437        -0.722261     -0.925222      0.416883
      4.53382      2.65419      8.54216        10.809714     20.404570    -61.584770
      2.91929      4.97705      1.59107        -0.174856     -0.156397      3.933123
      2.96390      5.09656      5.21558        -0.255994     -0.947103     -6.535933
      2.92851      5.00136      8.66048        10.915292     -9.837118    -77.359673
    total drift:                                0.003925      0.004730      0.002082

  FREE ENERGIE OF THE ION-ELECTRON SYSTEM (eV)
  free  energy   TOTEN  =      -183.0493153868 eV

  energy  without entropy=     -182.9882756958  energy(sigma->0) =     -183.01879554

volume of typ            1:    29.1 %

volume of typ            2:     7.5 %

total charge

# of ion       s       p       d       tot
    1        0.483   0.686   8.122   9.291
    2        0.338   0.388   7.966   8.692
    3        0.303   0.292   8.000   8.595
    4        0.610   0.808   8.314   9.732
    5        0.284   0.281   7.921   8.486
    6        0.281   0.280   7.969   8.531
    7        0.457   0.639   8.134   9.229
    8        0.271   0.263   7.924   8.458
    9        0.338   0.380   8.014   8.732
   10        0.592   0.843   8.323   9.758
   11        0.281   0.293   7.938   8.512
   12        0.355   0.349   8.051   8.756
   13        0.530   0.689   8.214   9.433
   14        0.295   0.285   7.946   8.526
   15        0.319   0.350   7.985   8.655
   16        0.681   0.958   8.574  10.213
   17        0.310   0.336   7.928   8.574
   18        0.255   0.227   8.004   8.485
   19        0.449   0.625   8.107   9.181
   20        0.265   0.259   7.925   8.449
   21        0.295   0.308   7.977   8.580
   22        0.537   0.712   8.241   9.489
   23        0.259   0.224   7.926   8.409
   24        0.334   0.370   8.030   8.734
   25        0.573   0.851   8.228   9.651
   26        0.257   0.236   7.947   8.441
   27        0.313   0.328   7.990   8.631
   28        1.276   2.814   0.015   4.105
   29        1.283   2.782   0.015   4.080
   30        1.307   2.905   0.034   4.246
   31        1.273   2.726   0.006   4.005
   32        1.271   2.747   0.009   4.027
   33        1.335   3.052   0.067   4.454
   34        1.274   2.747   0.008   4.028
   35        1.276   2.724   0.007   4.007
   36        1.307   2.983   0.050   4.340
   37        1.273   2.758   0.008   4.039
   38        1.288   2.813   0.022   4.123
   39        1.341   3.017   0.061   4.419
   40        1.272   2.693   0.004   3.969
   41        1.276   2.817   0.018   4.111
   42        1.321   2.994   0.055   4.370
   43        1.279   2.741   0.008   4.027
   44        1.275   2.740   0.009   4.025
   45        1.300   3.160   0.086   4.546
   46        1.273   2.747   0.008   4.028
   47        1.282   2.739   0.010   4.032
   48        1.299   2.930   0.037   4.266
   49        1.271   2.702   0.004   3.976
   50        1.268   2.729   0.006   4.004
   51        1.331   3.059   0.072   4.463
   52        1.274   2.778   0.011   4.062
   53        1.285   2.751   0.013   4.048
   54        1.327   2.989   0.051   4.368
tot          45.10   88.90  218.39  352.39

magnetization (x)

# of ion       s       p       d       tot
    1        0.004   0.001   0.107   0.112
    2       -0.001   0.000  -0.069  -0.070
    3       -0.000   0.000  -0.070  -0.070
    4        0.002   0.006   0.085   0.094
    5       -0.001   0.000  -0.229  -0.231
    6        0.001   0.001  -0.055  -0.054
    7       -0.002   0.000   0.007   0.005
    8        0.002  -0.001   0.277   0.278
    9       -0.000  -0.002   0.075   0.074
   10        0.011   0.013   0.241   0.265
   11       -0.002  -0.000  -0.231  -0.233
   12        0.000  -0.005  -0.346  -0.350
   13        0.004   0.005   0.100   0.109
   14       -0.001   0.000  -0.254  -0.256
   15        0.001  -0.000  -0.031  -0.030
   16       -0.002  -0.001  -0.014  -0.018
   17        0.002  -0.002   0.379   0.379
   18        0.001  -0.000   0.238   0.239
   19        0.002   0.000   0.008   0.010
   20        0.001  -0.001   0.180   0.180
   21        0.001   0.001  -0.018  -0.016
   22       -0.002  -0.010  -0.078  -0.089
   23        0.008  -0.002   0.836   0.842
   24       -0.004  -0.003  -0.065  -0.072
   25        0.001  -0.000  -0.008  -0.007
   26        0.000  -0.001   0.106   0.106
   27        0.001   0.000   0.048   0.050
   28        0.000   0.001   0.000   0.001
   29       -0.001  -0.043   0.000  -0.044
   30        0.001   0.040   0.000   0.042
   31       -0.002  -0.047  -0.000  -0.049
   32       -0.002  -0.095   0.000  -0.098
   33        0.001   0.035   0.001   0.036
   34        0.000   0.016   0.000   0.017
   35        0.004   0.148   0.000   0.152
   36        0.000   0.009  -0.000   0.009
   37        0.000   0.001  -0.000   0.001
   38       -0.005  -0.184  -0.000  -0.189
   39        0.002   0.104   0.002   0.108
   40       -0.003  -0.081   0.000  -0.084
   41       -0.002  -0.076   0.000  -0.079
   42        0.001   0.040   0.000   0.042
   43        0.001   0.033   0.000   0.035
   44        0.007   0.269  -0.000   0.276
   45        0.001  -0.006  -0.000  -0.005
   46        0.001   0.033   0.000   0.034
   47        0.001   0.050  -0.000   0.051
   48       -0.000  -0.010   0.000  -0.010
   49        0.006   0.248   0.000   0.254
   50        0.007   0.252   0.000   0.259
   51       -0.001  -0.049   0.000  -0.050
   52        0.000   0.005   0.000   0.006
   53        0.001   0.047  -0.000   0.049
   54       -0.000  -0.005  -0.000  -0.005
tot           0.05    0.74    1.22    2.01