 vasp.5.4.4.18Apr17-6-g9f103f2a35 (build May 12 2020 04:58:55) complex

 MD_VERSION_INFO: Compiled 2020-05-12T11:58:55-UTC in devlin.sd.materialsdesign.
 com:/home/medea2/data/build/wwolf/vasp-gpu5.4.4/13047/x86_64/src/src/build/std
 from svn 13047

 executed on                        Lin64 date 2023.03.24  08:49:28

 INCAR:
 POTCAR:    PAW_PBE Ni 02Aug2007
 POTCAR:    PAW_PBE O 08Apr2002

 POTCAR:    PAW_PBE Ni 02Aug2007

 POTCAR:    PAW_PBE O 08Apr2002

 Optimization of the real space projectors (new method)

 maximal supplied QI-value         = 16.25
 optimisation between [QCUT,QGAM] = [ 11.38, 22.75] = [ 36.24,144.96] Ry
 Optimized for a Real-space Cutoff    1.47 Angstroem

   l    n(q)    QCUT    max X(q) W(low)/X(q) W(high)/X(q)  e(spline)
   2      9    11.376    60.317    0.17E-03    0.16E-04    0.16E-06
   2      9    11.376    55.921    0.17E-03    0.16E-04    0.17E-06
   0     10    11.376    51.690    0.45E-04    0.60E-04    0.21E-06
   0     10    11.376    30.015    0.37E-04    0.55E-04    0.19E-06
   1     10    11.376    18.849    0.83E-04    0.11E-03    0.92E-07
   1     10    11.376    14.624    0.69E-04    0.92E-04    0.82E-07
 Optimization of the real space projectors (new method)

 maximal supplied QI-value         = 24.76
 optimisation between [QCUT,QGAM] = [ 11.39, 22.77] = [ 36.31,145.25] Ry
 Optimized for a Real-space Cutoff    1.10 Angstroem

   l    n(q)    QCUT    max X(q) W(low)/X(q) W(high)/X(q)  e(spline)
   0      7    11.387    20.381    0.22E-03    0.48E-03    0.18E-06
   0      7    11.387    15.268    0.22E-03    0.52E-03    0.19E-06
   1      7    11.387     5.964    0.22E-03    0.73E-03    0.24E-06
   1      7    11.387     5.382    0.19E-03    0.60E-03    0.21E-06

  PAW_PBE Ni 02Aug2007                  :
  PAW_PBE O 08Apr2002                   :

 POSCAR: NiO_Cmmm_scale_0_950_disp_0_10_round_1
  positions in direct lattice
 exchange correlation table for  LEXCH =       14
   RHO(1)=    0.500       N(1)  =     2000
   RHO(2)=  100.500       N(2)  =     4000

 ion  position               nearest neighbor table
   1  0.015  0.992  0.995-  30 1.27  28 1.57  25 2.48   7 2.51  19 2.68  10 2.75   3 2.77   4 2.90
                            13 2.99
   2  0.016  0.989  0.354-  29 1.51  28 2.01   8 2.39  20 2.63  11 2.68  26 2.74   5 2.77  14 2.99

   3  0.993  0.995  0.713-  30 1.52  29 2.05  27 2.46  21 2.46   9 2.68   6 2.75   1 2.77  15 3.00
                            12 3.08
   4  0.057  0.359  0.989-  33 1.11  31 1.88  13 2.50  16 2.74  22 2.77   6 2.89   1 2.90   7 2.97
                            19 2.99
   5  0.059  0.341  0.350-  31 1.67  32 1.80  14 2.42  17 2.76   2 2.77  20 3.01
   6  0.042  0.345  0.695-  32 1.60  33 1.79  15 2.58   3 2.75  24 2.78  18 2.87   4 2.89  21 2.93
                             9 2.98
   7  0.041  0.705  0.017-  36 1.41  34 1.48   1 2.51  10 2.56  16 2.73  25 2.76  22 2.80   4 2.97
                             9 3.06
   8  0.055  0.725  0.351-  34 1.83  35 1.93   2 2.39  11 2.45  17 2.53  26 2.91  23 3.05
   9  0.058  0.710  0.705-  35 1.54  36 1.67  18 2.52  12 2.62   3 2.68  24 2.94  27 2.95   6 2.98
                             7 3.06
  10  0.352  0.008  0.009-  39 1.36  37 1.73   7 2.56  16 2.60   1 2.75  12 2.80  19 2.93  13 2.93
                            22 3.01
  11  0.351  0.017  0.356-  38 1.66  37 1.70   8 2.45  17 2.61   2 2.68  14 2.83  23 2.84  20 3.05

  12  0.375  0.021  0.724-  39 1.50  38 1.96  18 2.55   9 2.62  24 2.79  10 2.80  21 2.82  15 2.87
                             3 3.08
  13  0.359  0.363  0.003-  42 1.13  40 1.79   4 2.50  16 2.81  25 2.88  10 2.93   1 2.99  15 3.03
                            22 3.08
  14  0.359  0.361  0.349-  40 1.64  41 1.79   5 2.42  26 2.63  23 2.78  11 2.83  17 2.89   2 2.99

  15  0.354  0.353  0.695-  41 1.61  42 1.90   6 2.58  12 2.87  27 2.89  18 2.96  24 2.99   3 3.00
                            13 3.03
  16  0.367  0.704  0.996-  45 1.27  43 1.78  10 2.60  19 2.63   7 2.73   4 2.74  13 2.81  25 2.86
                            18 3.00
  17  0.347  0.702  0.345-  43 1.65  44 1.91   8 2.53  11 2.61  20 2.67   5 2.76  14 2.89  26 2.94

  18  0.360  0.710  0.691-  44 1.49  45 1.74   9 2.52  12 2.55  21 2.61   6 2.87  27 2.87  15 2.96
                            16 3.00
  19  0.699  0.000  0.986-  48 0.99  46 1.78  25 2.52  16 2.63  21 2.66   1 2.68  22 2.86  10 2.93
                             4 2.99
  20  0.697  0.982  0.350-  47 1.79  46 1.82  26 2.56   2 2.63  17 2.67   5 3.01  11 3.05
  21  0.696  0.989  0.715-  48 1.73  47 1.82  27 2.43   3 2.46  18 2.61  19 2.66  12 2.82   6 2.93
                            24 2.96
  22  0.724  0.356  0.988-  51 1.03  49 1.78   4 2.77   7 2.80  24 2.83  19 2.86  25 2.97  10 3.01
                            13 3.08
  23  0.691  0.358  0.359-  50 1.53  49 1.87  26 2.62  14 2.78  11 2.84   8 3.05
  24  0.712  0.352  0.700-  51 1.82  50 1.82   6 2.78  12 2.79  22 2.83   9 2.94  27 2.96  21 2.96
                            15 2.99
  25  0.709  0.704  0.001-  54 1.32  52 1.78   1 2.48  48 2.49  19 2.52   7 2.76  16 2.86  13 2.88
                            27 2.93  22 2.97
  26  0.681  0.668  0.361-  53 1.65  52 1.78  20 2.56  23 2.62  14 2.63   2 2.74   8 2.91  17 2.94

  27  0.699  0.700  0.702-  54 1.62  53 1.75  21 2.43   3 2.46  18 2.87  15 2.89  25 2.93   9 2.95
                            24 2.96
  28  0.993  0.012  0.152-   1 1.57   2 2.01
  29  0.007  0.020  0.505-   2 1.51   3 2.05
  30  0.986  0.998  0.868-   1 1.27   3 1.52
  31  0.073  0.363  0.181-   5 1.67   4 1.88
  32  0.040  0.347  0.532-   6 1.60   5 1.80
  33  0.038  0.342  0.877-   4 1.11   6 1.79
  34  0.060  0.699  0.166-   7 1.48   8 1.83
  35  0.046  0.704  0.548-   9 1.54   8 1.93
  36  0.040  0.686  0.874-   7 1.41   9 1.67
  37  0.364  0.004  0.184-  11 1.70  10 1.73
  38  0.351  0.007  0.526-  11 1.66  12 1.96
  39  0.324  0.980  0.872-  10 1.36  12 1.50
  40  0.324  0.347  0.184-  14 1.64  13 1.79
  41  0.350  0.353  0.530-  15 1.61  14 1.79
  42  0.356  0.353  0.889-  13 1.13  15 1.90
  43  0.346  0.708  0.176-  17 1.65  16 1.78
  44  0.356  0.696  0.539-  18 1.49  17 1.91
  45  0.358  0.712  0.867-  16 1.27  18 1.74
  46  0.711  0.012  0.167-  19 1.78  20 1.82
  47  0.690  0.016  0.530-  20 1.79  21 1.82
  48  0.712  0.974  0.890-  19 0.99  21 1.73  25 2.49
  49  0.711  0.348  0.169-  22 1.78  23 1.87
  50  0.698  0.358  0.515-  23 1.53  24 1.82
  51  0.707  0.363  0.885-  22 1.03  24 1.82
  52  0.711  0.705  0.182-  26 1.78  25 1.78
  53  0.731  0.708  0.525-  26 1.65  27 1.75
  54  0.685  0.695  0.867-  25 1.32  27 1.62

  LATTYP: Found a hexagonal cell.
 ALAT       =     8.3357939959
 C/A-ratio  =     1.1769065436

  Lattice vectors:

 A1 = (   8.3357940000,   0.0000000000,   0.0000000000)
 A2 = (  -4.1678970000,   7.2190093600,   0.0000000000)
 A3 = (   0.0000000000,   0.0000000000,   9.8104505000)

Analysis of symmetry for initial positions (statically):
 Subroutine PRICEL returns:
 Original cell was already a primitive cell.

 Routine SETGRP: Setting up the symmetry group for a
 hexagonal supercell.

 Subroutine GETGRP returns: Found  1 space group operations
 (whereof  1 operations were pure point group operations)
 out of a pool of 24 trial point group operations.

The static configuration has the point symmetry C_1 .

Analysis of symmetry for dynamics (positions and initial velocities):
 Subroutine PRICEL returns:
 Original cell was already a primitive cell.

[...]

The dynamic configuration has the point symmetry C_1 .

Analysis of structural, dynamic, and magnetic symmetry:
 Subroutine PRICEL returns:
 Original cell was already a primitive cell.

 Routine SETGRP: Setting up the symmetry group for a
 hexagonal supercell.

 Subroutine GETGRP returns: Found  1 space group operations
 (whereof  1 operations were pure point group operations)
 out of a pool of 24 trial point group operations.

The magnetic configuration has the point symmetry C_1 .

 Subroutine INISYM returns: Found  1 space group operations
 (whereof  1 operations are pure point group operations),
 and found     1 'primitive' translations

 KPOINTS: Automatic mesh

Automatic generation of k-mesh.
Space group operators:
 irot       det(A)        alpha          n_x          n_y          n_z        tau_x        tau_y        tau_z
    1     1.000000     0.000000     1.000000     0.000000     0.000000     0.000000     0.000000     0.000000

 Subroutine IBZKPT returns following result:

 Found     26 irreducible k-points:

 Following reciprocal coordinates:
            Coordinates               Weight
  0.000000  0.000000  0.000000      1.000000
  0.250000  0.000000  0.000000      2.000000
  0.500000  0.000000  0.000000      1.000000
  0.000000  0.250000  0.000000      2.000000
  0.250000  0.250000  0.000000      2.000000
  0.500000  0.250000  0.000000      2.000000
 -0.250000  0.250000  0.000000      2.000000
  0.000000  0.500000  0.000000      1.000000
  0.250000  0.500000  0.000000      2.000000
  0.500000  0.500000  0.000000      1.000000
  0.000000  0.000000  0.333333      2.000000
  0.250000  0.000000  0.333333      2.000000
  0.500000  0.000000  0.333333      2.000000
 -0.250000 -0.000000  0.333333      2.000000
  0.000000  0.250000  0.333333      2.000000
  0.250000  0.250000  0.333333      2.000000
  0.500000  0.250000  0.333333      2.000000
 -0.250000  0.250000  0.333333      2.000000
  0.000000  0.500000  0.333333      2.000000
  0.250000  0.500000  0.333333      2.000000
  0.500000  0.500000  0.333333      2.000000
 -0.250000  0.500000  0.333333      2.000000
  0.000000 -0.250000  0.333333      2.000000
  0.250000 -0.250000  0.333333      2.000000
  0.500000 -0.250000  0.333333      2.000000
 -0.250000 -0.250000  0.333333      2.000000

 Following cartesian coordinates:
            Coordinates               Weight
  0.000000  0.000000  0.000000      1.000000
  0.029991  0.017315  0.000000      2.000000
  0.059982  0.034631  0.000000      1.000000
  0.000000  0.034631  0.000000      2.000000
  0.029991  0.051946  0.000000      2.000000
  0.059982  0.069262  0.000000      2.000000
 -0.029991  0.017315  0.000000      2.000000
  0.000000  0.069262  0.000000      1.000000
  0.029991  0.086577  0.000000      2.000000
  0.059982  0.103892  0.000000      1.000000
  0.000000  0.000000  0.033977      2.000000
  0.029991  0.017315  0.033977      2.000000
  0.059982  0.034631  0.033977      2.000000
 -0.029991 -0.017315  0.033977      2.000000
  0.000000  0.034631  0.033977      2.000000
  0.029991  0.051946  0.033977      2.000000
  0.059982  0.069262  0.033977      2.000000
 -0.029991  0.017315  0.033977      2.000000
  0.000000  0.069262  0.033977      2.000000
  0.029991  0.086577  0.033977      2.000000
  0.059982  0.103892  0.033977      2.000000
 -0.029991  0.051946  0.033977      2.000000
  0.000000 -0.034631  0.033977      2.000000
  0.029991 -0.017315  0.033977      2.000000
  0.059982  0.000000  0.033977      2.000000
 -0.029991 -0.051946  0.033977      2.000000

 SYSTEM =  unknown system
 POSCAR =  NiO_Cmmm_scale_0_950_disp_0_10_round_1

 Startparameter for this run:
   NWRITE =      1    write-flag & timer
[...]
   -.161E+03 -.114E+03 0.402E+03   0.161E+03 0.114E+03 -.414E+03   0.395E+00 0.354E+00 0.237E+01   -.238E-02 0.684E-02 0.254E-02
   0.652E+02 -.491E+02 -.505E+03   -.574E+02 0.612E+02 0.615E+03   0.289E-01 -.410E+00 -.488E+01   -.811E-02 -.274E-02 0.133E-01
   0.181E+03 0.119E+02 -.868E+02   -.182E+03 -.112E+02 0.874E+02   -.942E-02 -.231E+00 0.156E+01   0.153E-01 0.316E-02 -.224E-01
   0.715E+02 -.199E+02 0.132E+03   -.717E+02 0.193E+02 -.133E+03   -.560E-02 0.226E+00 0.464E+01   -.167E-02 -.156E-01 0.712E-02
   0.923E+02 0.132E+03 -.207E+03   -.954E+02 -.130E+03 0.216E+03   0.134E+01 -.993E+00 -.214E+01   -.114E-01 -.118E-01 -.568E-02
   0.674E+02 0.193E+03 -.737E+02   -.671E+02 -.192E+03 0.737E+02   -.208E-01 -.100E+01 0.575E+00   0.331E-02 0.364E-02 -.300E-02
   0.710E+02 0.103E+03 0.157E+03   -.718E+02 -.103E+03 -.155E+03   0.556E+00 -.565E+00 0.145E+01   -.183E-01 -.454E-03 0.104E-02
   -.619E+02 -.288E+03 -.322E+03   0.640E+02 0.293E+03 0.352E+03   -.360E+00 -.169E+01 -.644E+01   0.118E-01 0.166E-01 0.147E-02
   -.642E+02 -.196E+03 -.329E+02   0.640E+02 0.196E+03 0.327E+02   0.395E+00 -.164E+00 0.183E-01   -.104E-01 0.148E-01 -.539E-02
   -.329E+02 -.263E+03 0.337E+03   0.345E+02 0.266E+03 -.350E+03   -.861E+00 -.123E+01 0.315E+01   -.905E-02 0.169E-01 0.954E-02
   -.171E+03 -.174E+02 -.465E+03   0.170E+03 0.238E+02 0.564E+03   -.194E+01 -.102E+01 -.554E+01   0.162E-01 0.713E-02 0.342E-01
   -.138E+03 -.262E+01 -.781E+02   0.139E+03 0.300E+01 0.801E+02   -.856E+00 -.616E+00 0.110E+01   0.925E-02 -.138E-01 -.249E-01
   -.117E+03 0.209E+02 0.685E+02   0.117E+03 -.211E+02 -.695E+02   -.346E+00 0.154E-01 0.467E+01   0.193E-02 -.134E-01 -.134E-01
   -.981E+02 0.108E+03 -.381E+03   0.101E+03 -.110E+03 0.428E+03   -.729E+00 0.666E+00 -.387E+01   0.133E-01 0.152E-02 0.482E-02
   -.725E+02 0.546E+02 -.137E+03   0.732E+02 -.546E+02 0.138E+03   -.103E+00 -.114E+00 0.228E+01   -.797E-02 -.338E-02 -.281E-01
   -.586E+02 0.914E+02 0.120E+03   0.593E+02 -.908E+02 -.115E+03   -.671E+00 -.115E+00 0.276E+01   -.645E-03 0.164E-05 0.354E-01
   0.278E+03 -.283E+03 -.610E+03   -.326E+03 0.323E+03 0.808E+03   0.438E+01 -.437E+01 -.131E+02   -.337E-02 -.554E-03 -.142E-01
   0.889E+02 -.120E+03 -.268E+02   -.896E+02 0.121E+03 0.258E+02   0.123E+00 0.332E+00 0.110E+01   -.908E-02 0.802E-02 -.738E-02
   0.143E+03 -.178E+03 0.286E+03   -.144E+03 0.178E+03 -.295E+03   0.516E+00 -.583E-01 0.621E+01   0.127E-01 0.151E-01 0.188E-01
   -.137E+02 0.623E+02 -.554E+03   0.411E+02 -.711E+02 0.722E+03   -.169E+01 0.381E+00 -.901E+01   -.123E-01 -.386E-03 -.329E-03
   -.615E+02 0.418E+02 0.120E+03   0.612E+02 -.417E+02 -.129E+03   0.216E+00 -.158E+00 0.937E+00   -.138E-01 -.492E-02 -.329E-01
   0.276E+02 0.189E+02 0.188E+03   -.287E+02 -.196E+02 -.192E+03   0.327E+00 0.639E+00 0.403E+01   0.216E-04 -.128E-02 0.252E-01
   -.401E+02 0.263E+03 -.398E+03   0.441E+02 -.264E+03 0.434E+03   -.925E+00 0.112E+01 -.550E+01   -.320E-02 -.158E-01 -.714E-02
   0.284E+02 0.151E+03 0.268E+02   -.285E+02 -.151E+03 -.296E+02   0.550E+00 0.796E+00 0.411E+00   0.811E-03 -.255E-01 -.366E-01
   -.142E+02 0.250E+03 0.268E+03   0.145E+02 -.250E+03 -.275E+03   -.408E-01 -.120E+00 0.359E+01   0.952E-02 0.521E-03 0.441E-01
   -.380E+01 -.731E+02 -.249E+03   -.278E+01 0.769E+02 0.265E+03   0.786E+01 -.357E+01 -.103E+02   0.217E-02 0.600E-02 0.603E-02
   -.661E+01 -.780E+02 -.119E+03   0.233E+01 0.837E+02 0.141E+03   0.420E+01 -.503E+01 -.145E+02   0.895E-02 0.574E-02 0.104E-01
   -.305E+02 -.910E+02 0.186E+03   0.165E+02 0.941E+02 -.226E+03   0.808E+01 -.124E+01 0.655E+01   -.936E-02 -.348E-02 -.237E-01
   0.967E+02 -.201E+01 -.433E+02   -.970E+02 0.384E+01 0.346E+02   -.787E+00 -.217E+01 0.662E+01   0.101E-01 0.230E-02 -.680E-02
   0.824E+02 -.131E+02 0.130E+03   -.845E+02 0.135E+02 -.139E+03   0.197E+01 -.439E+00 0.502E+01   0.979E-03 -.540E-02 0.178E-01
   0.738E+02 0.292E+02 0.366E+03   -.850E+02 -.447E+02 -.493E+03   0.285E+01 0.433E+01 0.224E+02   -.758E-02 -.578E-02 -.170E-01
   0.289E+02 0.108E+03 -.240E+03   -.239E+02 -.111E+03 0.260E+03   -.514E+01 0.318E+01 -.853E+01   -.278E-02 -.437E-02 0.146E-01
   0.371E+02 0.853E+02 0.188E+03   -.386E+02 -.878E+02 -.205E+03   0.906E+00 0.250E+01 0.104E+02   -.367E-02 0.377E-02 -.478E-02
   0.346E+02 0.128E+03 0.157E+03   -.327E+02 -.133E+03 -.179E+03   -.197E+01 0.387E+01 0.668E+01   -.984E-02 -.556E-02 -.523E-02
   -.481E+02 -.124E+03 -.735E+02   0.517E+02 0.123E+03 0.708E+02   -.395E+01 0.222E+01 0.254E+01   -.195E-02 0.106E-01 0.496E-02
   -.155E+02 -.884E+02 -.357E+02   0.160E+02 0.867E+02 0.457E+02   -.160E+00 0.281E+01 -.814E+01   -.105E-01 0.108E-01 -.134E-01
   0.453E+02 -.703E+02 0.115E+03   -.547E+02 0.569E+02 -.135E+03   0.684E+01 0.111E+02 0.474E+01   0.296E-02 0.888E-02 0.100E-01
   -.774E+02 0.204E+02 -.248E+02   0.741E+02 -.226E+02 0.164E+02   0.512E+01 0.271E+01 0.592E+01   0.357E-02 0.438E-03 0.191E-01
   -.534E+02 0.939E+01 0.812E+02   0.520E+02 -.105E+02 -.885E+02   0.199E+01 0.134E+01 0.415E+01   0.486E-02 -.113E-01 -.976E-02
   -.889E+02 0.395E+02 0.379E+03   0.927E+02 -.476E+02 -.498E+03   -.102E+01 0.233E+01 0.237E+02   0.973E-02 0.209E-02 -.653E-02
   -.554E+02 0.275E+02 -.659E+02   0.540E+02 -.270E+02 0.600E+02   0.263E+01 -.992E+00 0.404E+01   0.406E-02 -.667E-02 0.323E-02
   -.409E+02 0.496E+02 0.209E+03   0.422E+02 -.521E+02 -.229E+03   -.911E+00 0.180E+01 0.104E+02   -.443E-02 -.233E-02 -.240E-01
   -.440E+01 0.600E+02 0.246E+03   -.181E+01 -.573E+02 -.301E+03   0.410E+01 -.188E+01 0.132E+02   0.519E-02 0.297E-02 0.188E-01
   0.667E+02 -.104E+03 -.152E+03   -.676E+02 0.107E+03 0.153E+03   0.166E+00 -.268E+01 0.120E+01   -.515E-02 0.481E-02 -.128E-01
   0.666E+02 -.999E+02 0.728E+02   -.695E+02 0.104E+03 -.727E+02   0.333E+01 -.446E+01 -.518E+00   0.157E-02 0.960E-02 0.920E-02
   -.848E+01 -.848E+01 0.394E+03   0.637E+02 -.367E+02 -.612E+03   -.146E+02 0.108E+02 0.340E+02   0.495E-03 -.138E-02 0.535E-03
   0.621E+01 0.192E+02 -.134E+03   -.456E+01 -.206E+02 0.135E+03   -.162E+01 0.169E+01 -.198E-01   -.750E-02 0.587E-03 -.108E-01
   -.158E+02 0.177E+02 -.553E+02   0.160E+02 -.178E+02 0.710E+02   0.244E+00 0.303E-01 -.877E+01   -.438E-02 -.358E-02 -.700E-02
   0.126E+03 -.497E+01 0.416E+03   -.161E+03 0.167E+02 -.605E+03   0.905E+01 -.382E+01 0.301E+02   0.124E-03 -.466E-03 0.311E-01
   -.136E+01 0.955E+02 -.984E+02   0.264E+01 -.925E+02 0.975E+02   -.141E+01 -.418E+01 0.102E+01   -.582E-03 -.119E-01 -.236E-01
   -.269E+02 0.571E+02 0.216E+02   0.325E+02 -.529E+02 -.173E+02   -.637E+01 -.520E+01 -.241E+01   0.535E-02 -.403E-02 0.607E-02
   0.257E+02 0.196E+03 0.179E+03   -.334E+02 -.201E+03 -.215E+03   0.491E+01 0.205E+01 0.841E+01   0.545E-02 -.220E-02 0.290E-01
   -.218E+02 -.941E+01 -.130E+03   0.220E-12 -.114E-12 0.568E-13   0.218E+02 0.942E+01 0.130E+03   -.164E-02 -.127E-01 0.479E-02

 POSITION                                       TOTAL-FORCE (eV/Angst)
     -4.00546      7.15783      9.75763         8.155502     -1.539127     36.480282
     -3.99342      7.14289      3.47413        -0.006868     -0.004893     -7.988406
      4.13566      7.18060      6.99794         0.535349      0.520470     -9.182362
     -1.01946      2.59124      9.70039         7.869384     11.658884    105.075279
     -0.93359      2.46459      3.42994        -0.599935      0.461101      2.099407
     -1.09285      2.49329      6.81584        -0.164709     -0.403751      3.383414
     -2.59786      5.08944      0.16598        -1.788516      0.908573      7.021389
     -2.56084      5.23524      3.44731         0.273835     -0.816475      0.565467
     -2.47411      5.12772      6.91458        -0.196938     -0.594580      3.318245
      2.90392      0.05866      0.08390         1.723657      2.836733     23.527174
      2.84937      0.12529      3.49352         0.229349     -0.239766     -0.227532
      3.03797      0.15198      7.10312         0.641846      1.183393    -10.440842
      1.47841      2.62058      0.03156        -2.560539      5.387807     94.204371
      1.48541      2.60916      3.42000        -0.122025     -0.248417      3.034601
      1.48224      2.54486      6.81749         0.086385     -0.209216      3.645269
      0.11985      5.08451      9.77292         2.703111     -1.735096     42.878688
     -0.03443      5.07036      3.38023         0.597460     -0.135043      3.322355
      0.04031      5.12535      6.77507         0.014898      0.437275      8.377453
      5.82309      0.00326      9.67314       -43.398216     36.185221    185.398723
      1.71687      7.08778      3.43836        -0.582042      0.845020      0.052229
      1.67935      7.14149      7.01194        -0.476183      0.335294     -2.533060
      4.55007      2.56676      9.69052        25.665213     -8.436053    159.093350
      4.26430      2.58801      3.52151        -0.082252     -0.044948     -8.077198
      4.46749      2.53762      6.86590        -0.784829     -0.055728     -0.326391
      2.97780      5.07977      0.00778         3.093781      0.074770     30.975065
      2.89384      4.82251      3.54611         0.439927      0.768638     -2.458803
      2.91121      5.05409      6.88630         0.298605     -0.481928     -3.290700
      8.22850      0.08654      1.49101         1.284567      0.287122      6.186490
     -0.02494      0.14621      4.95738        -0.074446      0.621845      7.724152
      4.05791      7.20177      8.51784        -5.921214      1.888123    -33.659901
     -0.90921      2.62312      1.77142        -1.060216     -0.337197     -2.020460
     -1.11726      2.50617      5.21643        -0.128547     -0.000802     -4.189924
     -1.10820      2.46584      8.60436        -8.342292    -11.192012   -104.018856
     -2.41192      5.04681      1.63240        -0.208143     -0.163136     11.341528
     -2.54983      5.08509      5.37342        -0.536496     -0.023365     -6.883227
     -2.52135      4.95174      8.57069        -0.027851     -1.174039    -15.557307
      3.01792      0.02856      1.80968        -0.364096      1.522153     -0.163375
      2.89500      0.04885      5.15584         0.283461      1.084555      1.774944
     -1.38274      7.07460      8.55518        -2.486595     -2.272985    -15.313722
      1.26019      2.50234      1.80396         1.782163      0.548893     -2.483286
      1.44233      2.55162      5.20440         0.636193      0.244411     -3.156528
      1.50016      2.54514      8.71857         2.766234     -5.763702    -95.120291
     -0.06392      5.10835      1.72890         1.230808     -0.541617     -1.861969
      0.06976      5.02128      5.28585         0.315601     -0.702037    -10.355671
      0.01689      5.14005      8.51025        -2.112837      0.817594    -41.715323
      5.88123      0.08462      1.63521        -0.707783      0.188889      1.533967
      5.68813      0.11214      5.20429         0.369560     -0.463681     -0.370242
      1.87852      7.03321      8.72924        40.604608    -34.324170   -184.019309
      4.47364      2.51487      1.66077         0.019664      0.252487      1.542977
      4.32495      2.58502      5.04896         0.464531     -0.085779      6.854421
      4.37713      2.61985      8.68067       -25.692240      7.865685   -158.838302
      2.98669      5.08925      1.78942        -0.130495     -1.229780      0.044322
      3.14355      5.11013      5.15338        -0.778797     -1.012323      1.902033
      2.81265      5.01429      8.50592        -2.750593     -2.693291    -27.104613
    total drift:                               -0.002698     -0.003232     -0.023443

  FREE ENERGIE OF THE ION-ELECTRON SYSTEM (eV)
  free  energy   TOTEN  =      -198.2107227958 eV

  energy  without entropy=     -198.1515009731  energy(sigma->0) =     -198.18111188

volume of typ            1:    29.1 %

volume of typ            2:     7.5 %

total charge

# of ion       s       p       d       tot
    1        0.498   0.752   8.150   9.400
    2        0.330   0.340   7.958   8.628
    3        0.309   0.314   8.051   8.673
    4        0.592   0.756   8.315   9.664
    5        0.285   0.284   7.936   8.504
    6        0.308   0.323   7.970   8.601
    7        0.452   0.667   8.063   9.182
    8        0.243   0.210   7.956   8.409
    9        0.351   0.420   7.972   8.744
   10        0.402   0.528   8.087   9.018
   11        0.313   0.345   7.906   8.564
   12        0.316   0.335   8.028   8.679
   13        0.583   0.771   8.271   9.625
   14        0.300   0.317   7.933   8.551
   15        0.289   0.279   7.965   8.533
   16        0.471   0.621   8.139   9.231
   17        0.276   0.269   7.943   8.489
   18        0.358   0.429   7.990   8.777
   19        0.672   0.933   8.493  10.098
   20        0.256   0.237   7.899   8.393
   21        0.268   0.265   8.000   8.533
   22        0.662   0.885   8.390   9.937
   23        0.323   0.336   7.928   8.587
   24        0.238   0.204   7.986   8.428
   25        0.428   0.559   8.104   9.091
   26        0.296   0.316   7.914   8.526
   27        0.308   0.334   7.984   8.625
   28        1.280   2.763   0.010   4.053
   29        1.288   2.748   0.014   4.050
   30        1.315   2.996   0.053   4.364
   31        1.278   2.732   0.008   4.018
   32        1.274   2.763   0.011   4.048
   33        1.330   3.036   0.064   4.430
   34        1.284   2.806   0.017   4.107
   35        1.280   2.758   0.012   4.051
   36        1.283   2.899   0.026   4.208
   37        1.270   2.769   0.009   4.048
   38        1.275   2.725   0.007   4.008
   39        1.301   2.947   0.043   4.291
   40        1.276   2.761   0.010   4.046
   41        1.272   2.761   0.011   4.044
   42        1.330   3.006   0.058   4.394
   43        1.274   2.761   0.010   4.045
   44        1.282   2.784   0.015   4.080
   45        1.305   2.950   0.041   4.296
   46        1.274   2.728   0.006   4.008
   47        1.275   2.706   0.006   3.986
   48        1.328   3.144   0.087   4.559
   49        1.269   2.724   0.004   3.997
   50        1.275   2.783   0.014   4.072
   51        1.335   3.088   0.075   4.499
   52        1.270   2.736   0.006   4.013
   53        1.274   2.762   0.010   4.046
   54        1.298   2.939   0.039   4.276
tot          44.93   88.61  217.99  351.53

magnetization (x)

# of ion       s       p       d       tot
    1        0.001   0.001   0.022   0.023
    2        0.009   0.005   0.812   0.826
    3        0.000  -0.000   0.053   0.052
    4        0.001  -0.003  -0.016  -0.018
    5       -0.000  -0.000  -0.035  -0.036
    6       -0.000   0.001  -0.045  -0.045
    7        0.001  -0.000   0.126   0.127
    8       -0.000  -0.001   0.226   0.225
    9       -0.001   0.001  -0.155  -0.155
   10       -0.007  -0.004  -0.226  -0.236
   11        0.006  -0.003   0.665   0.668
   12       -0.003  -0.004  -0.109  -0.116
   13       -0.000  -0.001  -0.042  -0.043
   14        0.002  -0.001   0.110   0.111
   15        0.001   0.000   0.063   0.064
   16        0.000   0.003   0.015   0.019
   17       -0.002  -0.000  -0.159  -0.161
   18        0.001  -0.000   0.115   0.116
   19       -0.001   0.007   0.071   0.077
   20       -0.009   0.001  -0.761  -0.769
   21        0.001   0.002  -0.187  -0.184
   22        0.004   0.015   0.154   0.173
   23       -0.009  -0.003  -0.722  -0.734
   24        0.001  -0.000  -0.100  -0.099
   25       -0.002  -0.003  -0.162  -0.167
   26        0.006  -0.000   0.572   0.577
   27        0.001   0.000  -0.023  -0.022
   28        0.001   0.025   0.000   0.027
   29        0.010   0.442   0.001   0.453
   30        0.000   0.010   0.000   0.010
   31       -0.000  -0.006  -0.000  -0.007
   32       -0.000  -0.018  -0.000  -0.019
   33        0.000  -0.010  -0.000  -0.010
   34        0.002   0.080   0.000   0.083
   35       -0.000  -0.045  -0.000  -0.046
   36        0.000   0.005   0.000   0.006
   37        0.003   0.112   0.000   0.115
   38        0.009   0.338   0.000   0.347
   39       -0.003  -0.103   0.000  -0.106
   40        0.000   0.013   0.000   0.014
   41        0.001   0.056  -0.000   0.058
   42       -0.000  -0.016  -0.000  -0.017
   43       -0.002  -0.081   0.000  -0.083
   44        0.001   0.030   0.000   0.031
   45        0.001   0.026  -0.000   0.026
   46       -0.004  -0.142  -0.000  -0.146
   47       -0.009  -0.336  -0.000  -0.345
   48        0.001   0.032   0.001   0.033
   49       -0.002  -0.076  -0.000  -0.078
   50       -0.008  -0.306  -0.000  -0.314
   51        0.001   0.067   0.001   0.070
   52        0.004   0.133   0.000   0.136
   53        0.007   0.229   0.000   0.236
   54       -0.002  -0.082   0.000  -0.084
tot           0.01    0.39    0.26    0.67