 vasp.5.4.4.18Apr17-6-g9f103f2a35 (build May 12 2020 04:58:55) complex

 MD_VERSION_INFO: Compiled 2020-05-12T11:58:55-UTC in devlin.sd.materialsdesign.
 com:/home/medea2/data/build/wwolf/vasp-gpu5.4.4/13047/x86_64/src/src/build/std
 from svn 13047

 executed on                        Lin64 date 2023.03.24  09:40:03

 INCAR:
 POTCAR:    PAW_PBE Ni 02Aug2007
 POTCAR:    PAW_PBE O 08Apr2002

 POTCAR:    PAW_PBE Ni 02Aug2007

 POTCAR:    PAW_PBE O 08Apr2002

 Optimization of the real space projectors (new method)

 maximal supplied QI-value         = 16.25
 optimisation between [QCUT,QGAM] = [ 11.38, 22.75] = [ 36.24,144.96] Ry
 Optimized for a Real-space Cutoff    1.47 Angstroem

   l    n(q)    QCUT    max X(q) W(low)/X(q) W(high)/X(q)  e(spline)
   2      9    11.376    60.317    0.17E-03    0.16E-04    0.16E-06
   2      9    11.376    55.921    0.17E-03    0.16E-04    0.17E-06
   0     10    11.376    51.690    0.45E-04    0.60E-04    0.21E-06
   0     10    11.376    30.015    0.37E-04    0.55E-04    0.19E-06
   1     10    11.376    18.849    0.83E-04    0.11E-03    0.92E-07
   1     10    11.376    14.624    0.69E-04    0.92E-04    0.82E-07
 Optimization of the real space projectors (new method)

 maximal supplied QI-value         = 24.76
 optimisation between [QCUT,QGAM] = [ 11.39, 22.77] = [ 36.31,145.25] Ry
 Optimized for a Real-space Cutoff    1.10 Angstroem

   l    n(q)    QCUT    max X(q) W(low)/X(q) W(high)/X(q)  e(spline)
   0      7    11.387    20.381    0.22E-03    0.48E-03    0.18E-06
   0      7    11.387    15.268    0.22E-03    0.52E-03    0.19E-06
   1      7    11.387     5.964    0.22E-03    0.73E-03    0.24E-06
   1      7    11.387     5.382    0.19E-03    0.60E-03    0.21E-06

  PAW_PBE Ni 02Aug2007                  :
  PAW_PBE O 08Apr2002                   :

 POSCAR: NiO_Cmmm_pris
  positions in direct lattice
 exchange correlation table for  LEXCH =       14
   RHO(1)=    0.500       N(1)  =     2000
   RHO(2)=  100.500       N(2)  =     4000

 ion  position               nearest neighbor table
   1  0.000  0.000  0.000-  28 1.72  30 1.72  10 2.92  19 2.92   7 2.92  25 2.92   4 2.92  13 2.92

   2  0.000  0.000  0.333-  28 1.72  29 1.72  11 2.92  20 2.92   8 2.92  26 2.92   5 2.92  14 2.92

[...]

  28  0.000  0.000  0.167-   2 1.72   1 1.72
  29  0.000  0.000  0.500-   2 1.72   3 1.72
  30  0.000  0.000  0.833-   3 1.72   1 1.72
  31  0.000  0.333  0.167-   5 1.72   4 1.72
  32  0.000  0.333  0.500-   5 1.72   6 1.72
  33  0.000  0.333  0.833-   6 1.72   4 1.72
  34  0.000  0.667  0.167-   8 1.72   7 1.72
  35  0.000  0.667  0.500-   8 1.72   9 1.72
  36  0.000  0.667  0.833-   9 1.72   7 1.72
  37  0.333  0.000  0.167-  11 1.72  10 1.72
  38  0.333  0.000  0.500-  11 1.72  12 1.72
  39  0.333  0.000  0.833-  12 1.72  10 1.72
  40  0.333  0.333  0.167-  14 1.72  13 1.72
  41  0.333  0.333  0.500-  14 1.72  15 1.72
  42  0.333  0.333  0.833-  15 1.72  13 1.72
  43  0.333  0.667  0.167-  17 1.72  16 1.72
  44  0.333  0.667  0.500-  17 1.72  18 1.72
  45  0.333  0.667  0.833-  18 1.72  16 1.72
  46  0.667  0.000  0.167-  20 1.72  19 1.72
  47  0.667  0.000  0.500-  20 1.72  21 1.72
  48  0.667  0.000  0.833-  21 1.72  19 1.72
  49  0.667  0.333  0.167-  23 1.72  22 1.72
  50  0.667  0.333  0.500-  23 1.72  24 1.72
  51  0.667  0.333  0.833-  24 1.72  22 1.72
  52  0.667  0.667  0.167-  26 1.72  25 1.72
  53  0.667  0.667  0.500-  26 1.72  27 1.72
  54  0.667  0.667  0.833-  27 1.72  25 1.72

  LATTYP: Found a hexagonal cell.
 ALAT       =     8.7745200035
 C/A-ratio  =     1.1769065426

  Lattice vectors:

 A1 = (   8.7745200000,   0.0000000000,   0.0000000000)
 A2 = (  -4.3872600000,   7.5989572300,   0.0000000000)
 A3 = (   0.0000000000,   0.0000000000,  10.3267900000)

Analysis of symmetry for initial positions (statically):
 Subroutine PRICEL returns:
 Original cell was already a primitive cell.

 Routine SETGRP: Setting up the symmetry group for a
 hexagonal supercell.

 Subroutine GETGRP returns: Found  8 space group operations
 (whereof  8 operations were pure point group operations)
 out of a pool of 24 trial point group operations.

The static configuration has the point symmetry D_2h.

Analysis of symmetry for dynamics (positions and initial velocities):
 Subroutine PRICEL returns:
 Original cell was already a primitive cell.

[...]

The dynamic configuration has the point symmetry D_2h.

Analysis of structural, dynamic, and magnetic symmetry:
 Subroutine PRICEL returns:
 Original cell was already a primitive cell.

 Routine SETGRP: Setting up the symmetry group for a
 hexagonal supercell.

 Subroutine GETGRP returns: Found  8 space group operations
 (whereof  8 operations were pure point group operations)
 out of a pool of 24 trial point group operations.

The magnetic configuration has the point symmetry D_2h.

 Subroutine INISYM returns: Found  8 space group operations
 (whereof  8 operations are pure point group operations),
 and found     1 'primitive' translations

 KPOINTS: Automatic mesh

Automatic generation of k-mesh.
Space group operators:
 irot       det(A)        alpha          n_x          n_y          n_z        tau_x        tau_y        tau_z
    1     1.000000     0.000000     1.000000     0.000000     0.000000     0.000000     0.000000     0.000000
    2    -1.000000     0.000000     1.000000     0.000000     0.000000     0.000000     0.000000     0.000000
    3     1.000000   180.000000     0.000000     0.000000     1.000000     0.000000     0.000000     0.000000
    4    -1.000000   180.000000     0.000000     0.000000     1.000000     0.000000     0.000000     0.000000
    5     1.000000   180.000000     0.866025    -0.500000     0.000000     0.000000     0.000000     0.000000
    6    -1.000000   180.000000     0.866025    -0.500000     0.000000     0.000000     0.000000     0.000000
    7     1.000000   180.000000    -0.500000    -0.866025     0.000000     0.000000     0.000000     0.000000
    8    -1.000000   180.000000    -0.500000    -0.866025     0.000000     0.000000     0.000000     0.000000

 Subroutine IBZKPT returns following result:

 Found     14 irreducible k-points:

 Following reciprocal coordinates:
            Coordinates               Weight
  0.000000  0.000000  0.000000      1.000000
  0.250000  0.000000  0.000000      4.000000
  0.500000  0.000000  0.000000      2.000000
  0.250000  0.250000  0.000000      2.000000
  0.500000  0.250000  0.000000      4.000000
 -0.250000  0.250000  0.000000      2.000000
  0.500000  0.500000  0.000000      1.000000
  0.000000  0.000000  0.333333      2.000000
  0.250000  0.000000  0.333333      8.000000
  0.500000  0.000000  0.333333      4.000000
  0.250000  0.250000  0.333333      4.000000
  0.500000  0.250000  0.333333      8.000000
 -0.250000  0.250000  0.333333      4.000000
  0.500000  0.500000  0.333333      2.000000

 Following cartesian coordinates:
            Coordinates               Weight
  0.000000  0.000000  0.000000      1.000000
  0.028492  0.016450  0.000000      4.000000
  0.056983  0.032899  0.000000      2.000000
  0.028492  0.049349  0.000000      2.000000
  0.056983  0.065799  0.000000      4.000000
 -0.028492  0.016450  0.000000      2.000000
  0.056983  0.098698  0.000000      1.000000
  0.000000  0.000000  0.032279      2.000000
  0.028492  0.016450  0.032279      8.000000
  0.056983  0.032899  0.032279      4.000000
  0.028492  0.049349  0.032279      4.000000
  0.056983  0.065799  0.032279      8.000000
 -0.028492  0.016450  0.032279      4.000000
  0.056983  0.098698  0.032279      2.000000

 SYSTEM =  unknown system
 POSCAR =  NiO_Cmmm_pris

 Startparameter for this run:
   NWRITE =      1    write-flag & timer
   PREC   = accura    normal or accurate (medium, high low for compatibility)
   ISTART =      0    job   : 0-new  1-cont  2-samecut
   ICHARG =      2    charge: 1-file 2-atom 10-const
   ISPIN  =      2    spin polarized calculation?
   LNONCOLLINEAR =      F non collinear calculations
   LSORBIT =      F    spin-orbit coupling
   INIWAV =      1    electr: 0-lowe 1-rand  2-diag
   LASPH  =      F    aspherical Exc in radial PAW
   METAGGA=      F    non-selfconsistent MetaGGA calc.

 Electronic Relaxation 1
   ENCUT  =  500.0 eV  36.75 Ry    6.06 a.u.  16.00 16.00 18.83*2*pi/ulx,y,z
   ENINI  =  500.0     initial cutoff
   ENAUG  =  605.4 eV  augmentation charge cutoff
   NELM   =     80;   NELMIN=  2; NELMDL= -5     # of ELM steps
   EDIFF  = 0.1E-04   stopping-criterion for ELM
   LREAL  =      T    real-space projection
   NLSPLINE    = F    spline interpolate recip. space projectors
   LCOMPAT=      F    compatible to vasp.4.4
   GGA_COMPAT  = T    GGA compatible to vasp.4.4-vasp.4.6
   LMAXPAW     = -100 max onsite density
   LMAXMIX     =    2 max onsite mixed and CHGCAR
   VOSKOWN=      1    Vosko Wilk Nusair interpolation
   ROPT   =   -0.00025  -0.00025
 Ionic relaxation
   EDIFFG = 0.1E-03   stopping-criterion for IOM
   NSW    =      0    number of steps for IOM
   NBLOCK =      1;   KBLOCK =      1    inner block; outer block
   IBRION =     -1    ionic relax: 0-MD 1-quasi-New 2-CG
   NFREE  =      0    steps in history (QN), initial steepest desc. (CG)
   ISIF   =      2    stress and relaxation
   IWAVPR =     10    prediction:  0-non 1-charg 2-wave 3-comb
   ISYM   =      2    0-nonsym 1-usesym 2-fastsym
   LCORR  =      T    Harris-Foulkes like correction to forces

   POTIM  = 0.5000    time-step for ionic-motion
   TEIN   =    0.0    initial temperature
   TEBEG  =    0.0;   TEEND  =   0.0 temperature during run
   SMASS  =  -3.00    Nose mass-parameter (am)
   estimated Nose-frequenzy (Omega)   =  0.10E-29 period in steps =****** mass=  -0.176E-26a.u.
   SCALEE = 1.0000    scale energy and forces
   NPACO  =    256;   APACO  = 16.0  distance and # of slots for P.C.
   PSTRESS=    0.0 pullay stress

  Mass of Ions in am
   POMASS =  58.69 16.00
  Ionic Valenz
   ZVAL   =  10.00  6.00
  Atomic Wigner-Seitz radii
  virtual crystal weights
   VCA    =   1.00  1.00
   NELECT =     432.0000    total number of electrons
   NUPDOWN=      -1.0000    fix difference up-down

 DOS related values:
   EMIN   =  10.00;   EMAX   =-10.00  energy-range for DOS
   EFERMI =   0.00
   ISMEAR =     0;   SIGMA  =   0.05  broadening in eV -4-tet -1-fermi 0-gaus

 Electronic relaxation 2 (details)
   IALGO  =     38    algorithm
   LDIAG  =      T    sub-space diagonalisation (order eigenvalues)
   LSUBROT=      F    optimize rotation matrix (better conditioning)
   TURBO    =      0    0=normal 1=particle mesh
   IRESTART =      0    0=no restart 2=restart with 2 vectors
   NREBOOT  =      0    no. of reboots
   NMIN     =      0    reboot dimension
   EREF     =   0.00    reference energy to select bands
   IMIX   =      4    mixing-type and parameters
     AMIX     =   0.40;   BMIX     =  1.00
     AMIX_MAG =   1.60;   BMIX_MAG =  1.00
     AMIN     =   0.10
     WC   =   100.;   INIMIX=   1;  MIXPRE=   1;  MAXMIX= -45

 Intra band minimization:
   WEIMIN = 0.0000     energy-eigenvalue tresh-hold
   EBREAK =  0.82E-08  absolut break condition
   DEPER  =   0.30     relativ break condition

   TIME   =   0.40     timestep for ELM

[...]
   0.179E-07 0.310E-07 0.477E-01   -.959E-13 0.497E-13 -.569E-01   0.000E+00 0.000E+00 0.111E-01   -.182E-11 -.176E-11 -.143E-02
   0.150E-01 -.444E-01 0.785E-08   -.124E-02 0.275E-01 0.000E+00   -.194E-02 0.357E-02 -.136E-19   -.119E-01 0.135E-01 -.323E-12
   0.223E-01 -.380E-01 -.633E-01   -.124E-02 0.275E-01 0.569E-01   -.236E-02 0.511E-02 -.517E-02   -.194E-01 0.628E-02 0.929E-02
   0.223E-01 -.380E-01 0.633E-01   -.124E-02 0.275E-01 -.569E-01   -.236E-02 0.511E-02 0.517E-02   -.194E-01 0.628E-02 -.929E-02
   -.150E-01 0.444E-01 -.785E-08   0.124E-02 -.275E-01 -.711E-14   0.194E-02 -.357E-02 0.136E-19   0.119E-01 -.135E-01 0.104E-11
   -.223E-01 0.380E-01 -.633E-01   0.124E-02 -.275E-01 0.569E-01   0.236E-02 -.511E-02 -.517E-02   0.194E-01 -.628E-02 0.929E-02
   -.223E-01 0.380E-01 0.633E-01   0.124E-02 -.275E-01 -.569E-01   0.236E-02 -.511E-02 0.517E-02   0.194E-01 -.628E-02 -.929E-02
   -.459E-01 -.923E-02 0.785E-08   0.245E-01 0.127E-01 -.213E-13   0.406E-02 0.109E-03 -.542E-19   0.177E-01 -.349E-02 0.792E-12
   -.441E-01 0.347E-03 -.633E-01   0.245E-01 0.127E-01 0.569E-01   0.561E-02 0.508E-03 -.517E-02   0.151E-01 -.137E-01 0.929E-02
   -.441E-01 0.347E-03 0.633E-01   0.245E-01 0.127E-01 -.569E-01   0.561E-02 0.508E-03 0.517E-02   0.151E-01 -.137E-01 -.929E-02
   -.305E-01 -.528E-01 0.525E-07   0.232E-01 0.402E-01 -.568E-13   0.230E-02 0.398E-02 0.000E+00   0.513E-02 0.888E-02 -.490E-12
   -.214E-01 -.371E-01 -.457E-01   0.232E-01 0.402E-01 0.569E-01   0.332E-02 0.575E-02 -.914E-04   -.469E-02 -.813E-02 -.125E-01
   -.214E-01 -.371E-01 0.457E-01   0.232E-01 0.402E-01 -.569E-01   0.332E-02 0.575E-02 0.914E-04   -.469E-02 -.813E-02 0.125E-01
   -.196E-01 0.113E-01 0.908E-11   0.257E-01 -.148E-01 -.711E-13   0.334E-03 -.193E-03 0.000E+00   -.626E-02 0.362E-02 0.770E-12
   -.301E-02 0.174E-02 -.499E-01   0.257E-01 -.148E-01 0.569E-01   0.105E-02 -.604E-03 0.165E-02   -.239E-01 0.138E-01 -.110E-01
   -.301E-02 0.174E-02 0.499E-01   0.257E-01 -.148E-01 -.569E-01   0.105E-02 -.604E-03 -.165E-02   -.239E-01 0.138E-01 0.110E-01
   0.459E-01 0.923E-02 -.786E-08   -.245E-01 -.127E-01 -.711E-14   -.406E-02 -.109E-03 0.542E-19   -.177E-01 0.349E-02 -.404E-12
   0.441E-01 -.347E-03 -.633E-01   -.245E-01 -.127E-01 0.569E-01   -.561E-02 -.508E-03 -.517E-02   -.151E-01 0.137E-01 0.929E-02
   0.441E-01 -.347E-03 0.633E-01   -.245E-01 -.127E-01 -.569E-01   -.561E-02 -.508E-03 0.517E-02   -.151E-01 0.137E-01 -.929E-02
   0.196E-01 -.113E-01 0.946E-11   -.257E-01 0.148E-01 0.711E-14   -.334E-03 0.193E-03 0.000E+00   0.626E-02 -.362E-02 -.490E-12
   0.301E-02 -.174E-02 -.499E-01   -.257E-01 0.148E-01 0.569E-01   -.105E-02 0.604E-03 0.165E-02   0.239E-01 -.138E-01 -.110E-01
   0.301E-02 -.174E-02 0.499E-01   -.257E-01 0.148E-01 -.569E-01   -.105E-02 0.604E-03 -.165E-02   0.239E-01 -.138E-01 0.110E-01
   0.305E-01 0.528E-01 -.525E-07   -.232E-01 -.402E-01 -.568E-13   -.230E-02 -.398E-02 0.000E+00   -.513E-02 -.888E-02 0.179E-12
   0.214E-01 0.371E-01 -.457E-01   -.232E-01 -.402E-01 0.569E-01   -.332E-02 -.575E-02 -.914E-04   0.469E-02 0.813E-02 -.125E-01
   0.214E-01 0.371E-01 0.457E-01   -.232E-01 -.402E-01 -.569E-01   -.332E-02 -.575E-02 0.914E-04   0.469E-02 0.813E-02 0.125E-01
   -.107E-07 -.185E-07 0.382E-01   0.711E-14 0.533E-13 -.411E-01   -.529E-21 0.212E-21 0.284E-02   -.154E-11 -.447E-12 -.989E-04
   -.103E-13 0.918E-14 0.295E-12   -.346E-13 0.817E-13 0.160E-13   0.132E-22 0.000E+00 0.000E+00   -.143E-11 -.570E-12 -.145E-12
   0.107E-07 0.185E-07 -.382E-01   0.249E-13 0.355E-13 0.411E-01   -.476E-21 -.212E-21 -.284E-02   -.143E-11 -.150E-11 0.989E-04
   0.998E-02 -.228E-01 0.210E-01   -.651E-03 0.156E-01 -.411E-01   0.200E-02 -.284E-02 0.628E-02   -.983E-02 0.724E-02 0.163E-01
   0.134E-01 -.186E-01 0.205E-07   -.651E-03 0.156E-01 0.213E-13   -.642E-03 0.288E-02 -.339E-20   -.126E-01 0.127E-02 -.128E-11
   0.998E-02 -.228E-01 -.210E-01   -.651E-03 0.156E-01 0.411E-01   0.200E-02 -.284E-02 -.628E-02   -.983E-02 0.724E-02 -.163E-01
   -.998E-02 0.228E-01 0.210E-01   0.651E-03 -.156E-01 -.411E-01   -.200E-02 0.284E-02 0.628E-02   0.983E-02 -.724E-02 0.163E-01
   -.134E-01 0.186E-01 -.205E-07   0.651E-03 -.156E-01 0.711E-14   0.642E-03 -.288E-02 0.339E-20   0.126E-01 -.127E-02 0.365E-12
   -.998E-02 0.228E-01 -.210E-01   0.651E-03 -.156E-01 0.411E-01   -.200E-02 0.284E-02 -.628E-02   0.983E-02 -.724E-02 -.163E-01
   -.247E-01 -.276E-02 0.210E-01   0.139E-01 0.725E-02 -.411E-01   -.346E-02 0.312E-03 0.628E-02   0.112E-01 -.489E-02 0.163E-01
   -.228E-01 0.227E-02 0.205E-07   0.139E-01 0.725E-02 -.533E-14   0.282E-02 0.884E-03 -.339E-20   0.741E-02 -.103E-01 0.479E-12
   -.247E-01 -.276E-02 -.210E-01   0.139E-01 0.725E-02 0.411E-01   -.346E-02 0.312E-03 -.628E-02   0.112E-01 -.489E-02 -.163E-01
   -.144E-01 -.249E-01 0.381E-01   0.132E-01 0.229E-01 -.411E-01   -.136E-02 -.236E-02 0.321E-02   0.892E-03 0.154E-02 0.180E-02
   -.903E-02 -.156E-01 -.211E-07   0.132E-01 0.229E-01 -.178E-14   0.226E-02 0.392E-02 0.847E-21   -.566E-02 -.981E-02 0.194E-11
   -.144E-01 -.249E-01 -.381E-01   0.132E-01 0.229E-01 0.411E-01   -.136E-02 -.236E-02 -.321E-02   0.892E-03 0.154E-02 -.180E-02
   -.685E-02 0.396E-02 0.459E-01   0.145E-01 -.838E-02 -.411E-01   0.744E-03 -.429E-03 -.349E-02   -.857E-02 0.495E-02 -.283E-02
   0.200E-02 -.116E-02 0.392E-11   0.145E-01 -.837E-02 -.888E-14   0.173E-02 -.100E-02 -.847E-21   -.181E-01 0.104E-01 -.757E-12
   -.685E-02 0.396E-02 -.459E-01   0.145E-01 -.838E-02 0.411E-01   0.744E-03 -.429E-03 0.349E-02   -.857E-02 0.495E-02 0.283E-02
   0.247E-01 0.276E-02 0.210E-01   -.139E-01 -.725E-02 -.411E-01   0.346E-02 -.312E-03 0.628E-02   -.112E-01 0.489E-02 0.163E-01
   0.228E-01 -.227E-02 -.205E-07   -.139E-01 -.725E-02 0.675E-13   -.282E-02 -.884E-03 0.339E-20   -.741E-02 0.103E-01 -.611E-12
   0.247E-01 0.276E-02 -.210E-01   -.139E-01 -.725E-02 0.411E-01   0.346E-02 -.312E-03 -.628E-02   -.112E-01 0.489E-02 -.163E-01
   0.685E-02 -.396E-02 0.459E-01   -.145E-01 0.838E-02 -.411E-01   -.744E-03 0.429E-03 -.349E-02   0.857E-02 -.495E-02 -.283E-02
   -.200E-02 0.116E-02 0.641E-11   -.145E-01 0.837E-02 0.711E-13   -.173E-02 0.100E-02 0.847E-21   0.181E-01 -.104E-01 0.226E-11
   0.685E-02 -.396E-02 -.459E-01   -.145E-01 0.838E-02 0.411E-01   -.744E-03 0.429E-03 0.349E-02   0.857E-02 -.495E-02 0.283E-02
   0.144E-01 0.249E-01 0.381E-01   -.132E-01 -.229E-01 -.411E-01   0.136E-02 0.236E-02 0.321E-02   -.892E-03 -.154E-02 0.180E-02
   0.903E-02 0.156E-01 0.211E-07   -.132E-01 -.229E-01 0.711E-14   -.226E-02 -.392E-02 -.847E-21   0.566E-02 0.981E-02 0.864E-12
   0.144E-01 0.249E-01 -.381E-01   -.132E-01 -.229E-01 0.411E-01   0.136E-02 0.236E-02 -.321E-02   -.892E-03 -.154E-02 -.180E-02
   0.276E-10 0.456E-10 0.291E-09   -.111E-12 -.134E-12 0.114E-12   -.889E-17 0.390E-17 -.173E-17   -.102E-10 0.911E-11 0.178E-11

 POSITION                                       TOTAL-FORCE (eV/Angst)
      0.00000      0.00000      0.00000         0.000000      0.000000      0.000000
      0.00000      0.00000      3.44223         0.000000      0.000000     -0.000403
      0.00000      0.00000      6.88456         0.000000      0.000000      0.000403
     -1.46241      2.53296      0.00000        -0.000076      0.000279      0.000000
     -1.46241      2.53296      3.44223        -0.000655      0.000910     -0.002223
     -1.46241      2.53296      6.88456        -0.000655      0.000910      0.002223
     -2.92485      5.06600      0.00000         0.000076     -0.000279      0.000000
     -2.92485      5.06600      3.44223         0.000655     -0.000910     -0.002223
     -2.92485      5.06600      6.88456         0.000655     -0.000910      0.002223
      2.92481      0.00000      0.00000         0.000279      0.000073      0.000000
      2.92481      0.00000      3.44223         0.001116     -0.000112     -0.002223
      2.92481      0.00000      6.88456         0.001116     -0.000112      0.002223
      1.46241      2.53296      0.00000         0.000142      0.000245      0.000000
      1.46241      2.53296      3.44223         0.000410      0.000709     -0.001402
      1.46241      2.53296      6.88456         0.000410      0.000709      0.001402
     -0.00004      5.06600      0.00000         0.000185     -0.000107      0.000000
     -0.00004      5.06600      3.44223        -0.000144      0.000083     -0.002350
     -0.00004      5.06600      6.88456        -0.000144      0.000083      0.002350
      5.84971      0.00000      0.00000        -0.000279     -0.000073      0.000000
      5.84971      0.00000      3.44223        -0.001116      0.000112     -0.002223
      5.84971      0.00000      6.88456        -0.001116      0.000112      0.002223
      4.38730      2.53296      0.00000        -0.000185      0.000107      0.000000
      4.38730      2.53296      3.44223         0.000144     -0.000083     -0.002350
      4.38730      2.53296      6.88456         0.000144     -0.000083      0.002350
      2.92485      5.06600      0.00000        -0.000142     -0.000245     -0.000000
      2.92485      5.06600      3.44223        -0.000410     -0.000709     -0.001402
      2.92485      5.06600      6.88456        -0.000410     -0.000709      0.001402
      0.00000      0.00000      1.72117         0.000000      0.000000     -0.000136
      0.00000      0.00000      5.16340         0.000000      0.000000      0.000000
      0.00000      0.00000      8.60562         0.000000     -0.000000      0.000136
     -1.46241      2.53296      1.72117         0.001505     -0.002791      0.002533
     -1.46241      2.53296      5.16340        -0.000537      0.001166      0.000000
     -1.46241      2.53296      8.60562         0.001505     -0.002791     -0.002533
     -2.92485      5.06600      1.72117        -0.001505      0.002791      0.002533
     -2.92485      5.06600      5.16340         0.000537     -0.001166     -0.000000
     -2.92485      5.06600      8.60562        -0.001505      0.002791     -0.002533
      2.92481      0.00000      1.72117        -0.003169     -0.000092      0.002533
      2.92481      0.00000      5.16340         0.001278      0.000118      0.000000
      2.92481      0.00000      8.60562        -0.003169     -0.000092     -0.002533
      1.46241      2.53296      1.72117        -0.001633     -0.002829      0.002081
      1.46241      2.53296      5.16340         0.000776      0.001345      0.000000
      1.46241      2.53296      8.60562        -0.001633     -0.002829     -0.002081
     -0.00004      5.06600      1.72117        -0.000175      0.000101     -0.001463
     -0.00004      5.06600      5.16340         0.000192     -0.000111     -0.000000
     -0.00004      5.06600      8.60562        -0.000175      0.000101      0.001463
      5.84971      0.00000      1.72117         0.003169      0.000092      0.002533
      5.84971      0.00000      5.16340        -0.001278     -0.000118     -0.000000
      5.84971      0.00000      8.60562         0.003169      0.000092     -0.002533
      4.38730      2.53296      1.72117         0.000175     -0.000101     -0.001463
      4.38730      2.53296      5.16340        -0.000192      0.000111      0.000000
      4.38730      2.53296      8.60562         0.000175     -0.000101      0.001463
      2.92485      5.06600      1.72117         0.001633      0.002829      0.002081
      2.92485      5.06600      5.16340        -0.000776     -0.001345      0.000000
      2.92485      5.06600      8.60562         0.001633      0.002829     -0.002081
    total drift:                                0.000000      0.000000      0.000000

  FREE ENERGIE OF THE ION-ELECTRON SYSTEM (eV)
  free  energy   TOTEN  =      -318.2549218208 eV

  energy  without entropy=     -318.1312970300  energy(sigma->0) =     -318.19310943

volume of typ            1:    25.0 %

volume of typ            2:     6.4 %

total charge

# of ion       s       p       d       tot
    1        0.279   0.276   7.907   8.462
    2        0.279   0.276   7.907   8.462
    3        0.279   0.276   7.907   8.462
    4        0.279   0.276   7.909   8.463
    5        0.279   0.276   7.908   8.463
    6        0.279   0.276   7.908   8.463
    7        0.279   0.276   7.909   8.463
    8        0.279   0.276   7.908   8.463
    9        0.279   0.276   7.908   8.463
   10        0.279   0.276   7.909   8.463
   11        0.279   0.276   7.908   8.463
   12        0.279   0.276   7.908   8.463
   13        0.279   0.276   7.908   8.463
   14        0.279   0.276   7.908   8.463
   15        0.279   0.276   7.908   8.463
   16        0.279   0.276   7.907   8.462
   17        0.279   0.276   7.908   8.463
   18        0.279   0.276   7.908   8.463
   19        0.279   0.276   7.909   8.463
   20        0.279   0.276   7.908   8.463
   21        0.279   0.276   7.908   8.463
   22        0.279   0.276   7.907   8.462
   23        0.279   0.276   7.908   8.463
   24        0.279   0.276   7.908   8.463
   25        0.279   0.276   7.908   8.463
   26        0.279   0.276   7.908   8.463
   27        0.279   0.276   7.908   8.463
   28        1.269   2.746   0.009   4.023
   29        1.269   2.746   0.009   4.024
   30        1.269   2.746   0.009   4.023
   31        1.269   2.745   0.009   4.023
   32        1.269   2.745   0.009   4.023
   33        1.269   2.745   0.009   4.023
   34        1.269   2.745   0.009   4.023
   35        1.269   2.745   0.009   4.023
   36        1.269   2.745   0.009   4.023
   37        1.269   2.745   0.009   4.023
   38        1.269   2.745   0.009   4.023
   39        1.269   2.745   0.009   4.023
   40        1.269   2.745   0.009   4.023
   41        1.269   2.745   0.009   4.023
   42        1.269   2.745   0.009   4.023
   43        1.269   2.746   0.009   4.024
   44        1.269   2.746   0.009   4.024
   45        1.269   2.746   0.009   4.024
   46        1.269   2.745   0.009   4.023
   47        1.269   2.745   0.009   4.023
   48        1.269   2.745   0.009   4.023
   49        1.269   2.746   0.009   4.024
   50        1.269   2.746   0.009   4.024
   51        1.269   2.746   0.009   4.024
   52        1.269   2.745   0.009   4.023
   53        1.269   2.745   0.009   4.023
   54        1.269   2.745   0.009   4.023
tot          41.79   81.59  213.75  337.13

magnetization (x)

# of ion       s       p       d       tot
    1        0.007  -0.001   0.576   0.582
    2        0.007  -0.001   0.573   0.579
    3        0.007  -0.001   0.573   0.579
    4        0.007  -0.001   0.506   0.512
    5        0.007  -0.001   0.505   0.511
    6        0.007  -0.001   0.505   0.511
    7        0.007  -0.001   0.506   0.512
    8        0.007  -0.001   0.505   0.511
    9        0.007  -0.001   0.505   0.511
   10        0.007  -0.001   0.506   0.512
   11        0.007  -0.001   0.505   0.511
   12        0.007  -0.001   0.505   0.511
   13        0.007  -0.001   0.505   0.512
   14        0.007  -0.001   0.501   0.507
   15        0.007  -0.001   0.501   0.507
   16        0.007  -0.001   0.536   0.542
   17        0.007  -0.001   0.533   0.539
   18        0.007  -0.001   0.533   0.539
   19        0.007  -0.001   0.506   0.512
   20        0.007  -0.001   0.505   0.511
   21        0.007  -0.001   0.505   0.511
   22        0.007  -0.001   0.536   0.542
   23        0.007  -0.001   0.533   0.539
   24        0.007  -0.001   0.533   0.539
   25        0.007  -0.001   0.505   0.512
   26        0.007  -0.001   0.501   0.507
   27        0.007  -0.001   0.501   0.507
   28        0.005   0.204   0.000   0.210
   29        0.005   0.203   0.000   0.209
   30        0.005   0.204   0.000   0.210
   31        0.005   0.173   0.000   0.178
   32        0.005   0.172   0.000   0.177
   33        0.005   0.173   0.000   0.178
   34        0.005   0.173   0.000   0.178
   35        0.005   0.172   0.000   0.177
   36        0.005   0.173   0.000   0.178
   37        0.005   0.173   0.000   0.178
   38        0.005   0.173   0.000   0.177
   39        0.005   0.173   0.000   0.178
   40        0.005   0.172   0.000   0.177
   41        0.005   0.171   0.000   0.175
   42        0.005   0.172   0.000   0.177
   43        0.005   0.186   0.000   0.191
   44        0.005   0.185   0.000   0.190
   45        0.005   0.186   0.000   0.191
   46        0.005   0.173   0.000   0.178
   47        0.005   0.173   0.000   0.177
   48        0.005   0.173   0.000   0.178
   49        0.005   0.186   0.000   0.191
   50        0.005   0.185   0.000   0.190
   51        0.005   0.186   0.000   0.191
   52        0.005   0.172   0.000   0.177
   53        0.005   0.171   0.000   0.175
   54        0.005   0.172   0.000   0.177
tot           0.32    4.80   14.01   19.12