 vasp.5.4.4.18Apr17-6-g9f103f2a35 (build May 12 2020 04:58:55) complex

 MD_VERSION_INFO: Compiled 2020-05-12T11:58:55-UTC in devlin.sd.materialsdesign.
 com:/home/medea2/data/build/wwolf/vasp-gpu5.4.4/13047/x86_64/src/src/build/std
 from svn 13047

 executed on                        Lin64 date 2023.03.24  11:45:30

 INCAR:
 POTCAR:    PAW_PBE Ni 02Aug2007
 POTCAR:    PAW_PBE O 08Apr2002

 POTCAR:    PAW_PBE Ni 02Aug2007

 POTCAR:    PAW_PBE O 08Apr2002

 Optimization of the real space projectors (new method)

 maximal supplied QI-value         = 16.25
 optimisation between [QCUT,QGAM] = [ 11.38, 22.75] = [ 36.24,144.96] Ry
 Optimized for a Real-space Cutoff    1.47 Angstroem

   l    n(q)    QCUT    max X(q) W(low)/X(q) W(high)/X(q)  e(spline)
   2      9    11.376    60.317    0.17E-03    0.16E-04    0.16E-06
   2      9    11.376    55.921    0.17E-03    0.16E-04    0.17E-06
   0     10    11.376    51.690    0.45E-04    0.60E-04    0.21E-06
   0     10    11.376    30.015    0.37E-04    0.55E-04    0.19E-06
   1     10    11.376    18.849    0.83E-04    0.11E-03    0.92E-07
   1     10    11.376    14.624    0.69E-04    0.92E-04    0.82E-07
 Optimization of the real space projectors (new method)

 maximal supplied QI-value         = 24.76
 optimisation between [QCUT,QGAM] = [ 11.39, 22.77] = [ 36.31,145.25] Ry
 Optimized for a Real-space Cutoff    1.10 Angstroem

   l    n(q)    QCUT    max X(q) W(low)/X(q) W(high)/X(q)  e(spline)
   0      7    11.387    20.381    0.22E-03    0.48E-03    0.18E-06
   0      7    11.387    15.268    0.22E-03    0.52E-03    0.19E-06
   1      7    11.387     5.964    0.22E-03    0.73E-03    0.24E-06
   1      7    11.387     5.382    0.19E-03    0.60E-03    0.21E-06

  PAW_PBE Ni 02Aug2007                  :
  PAW_PBE O 08Apr2002                   :

 POSCAR: NiO_C2_m_scale_1_025_disp_0_10_round_1
  positions in direct lattice
 exchange correlation table for  LEXCH =       14
   RHO(1)=    0.500       N(1)  =     2000
   RHO(2)=  100.500       N(2)  =     4000

 ion  position               nearest neighbor table
   1  0.009  0.013  0.988-  30 2.06  47 2.10  29 2.17  54 2.42  53 2.49  36 2.53   4 2.76   2 2.86
                            13 2.95  20 2.97  10 3.01  19 3.01
   2  0.204  0.096  0.322-  28 1.95  36 2.12  37 2.16  40 2.17  39 2.19  30 2.24   3 2.86   1 2.86
                            12 2.88   8 2.97  11 3.00  13 3.00  10 3.01  14 3.02  20 3.05   9 3.05
   3  0.113  0.241  0.622-  31 1.73  40 1.88  32 2.03  28 2.20  47 2.33  29 2.51   6 2.65   5 2.76
                             2 2.86  15 2.95  20 2.95  12 3.05
   4  0.009  0.320  0.031-  30 1.64  33 2.02  32 2.10  48 2.21  47 2.29  50 2.35  20 2.56   5 2.72
                             1 2.76  16 2.82  23 2.89  13 2.89   7 2.94  19 2.98
   5  0.206  0.470  0.335-  43 1.72  33 1.78  31 2.15  42 2.20  40 2.24  30 2.29   8 2.65   4 2.72
                             6 2.74   3 2.76  17 2.76  23 2.87  16 2.92  15 2.96  20 3.07  14 3.08
   6  0.078  0.516  0.658-  31 1.86  50 2.06  34 2.13  43 2.14  32 2.24  35 2.43   3 2.65   5 2.74
                            21 2.82   9 2.93  16 2.94  23 2.95   7 2.99  24 3.06  15 3.08
   7  0.998  0.642  0.003-  50 2.02  33 2.04  36 2.14  35 2.22  51 2.23  53 2.43   8 2.65  16 2.70
                            23 2.83   4 2.94  22 2.98   6 2.99   9 3.04
   8  0.196  0.760  0.299-  36 1.57  33 1.92  45 2.03  34 2.05  37 2.24  43 2.40   7 2.65   5 2.65
                            16 2.87  10 2.89  23 2.92   2 2.97   9 2.97  26 3.01
   9  0.107  0.858  0.655-  35 1.99  53 2.01  37 2.05  34 2.07  29 2.14  28 2.19  18 2.79   6 2.93
                            26 2.95   8 2.97   7 3.04  10 3.04   2 3.05  24 3.06
  10  0.336  0.995  0.993-  39 1.98  29 2.02  35 2.02  38 2.09  45 2.14  36 2.18   8 2.89  22 2.89
                            19 2.93  16 2.96  18 3.00   1 3.01   2 3.01  11 3.01   9 3.04  13 3.06
  11  0.544  0.106  0.342-  49 1.87  46 1.94  37 2.05  48 2.08  45 2.23  39 2.31  12 2.66  21 2.71
                            20 2.91  23 2.93  18 2.94   2 3.00  10 3.01  14 3.04  22 3.05  19 3.08
  12  0.440  0.214  0.628-  37 2.03  49 2.08  29 2.11  40 2.13  38 2.14  41 2.23  11 2.66  21 2.78
                            24 2.83  14 2.87   2 2.88   3 3.05  18 3.05
  13  0.341  0.340  0.002-  39 1.90  41 1.93  42 2.01  32 2.01  30 2.14  29 2.37  25 2.72  14 2.74
                            22 2.81   4 2.89   1 2.95  16 2.95   2 3.00  10 3.06
  14  0.534  0.440  0.318-  52 1.91  51 2.05  40 2.07  42 2.07  39 2.21  49 2.23  17 2.69  13 2.74
                            24 2.77  25 2.81  26 2.87  12 2.87  22 2.93  15 2.95   2 3.02  23 3.02
  15  0.445  0.567  0.650-  44 1.81  43 1.90  52 2.07  41 2.11  40 2.20  32 2.31  18 2.77  17 2.78
                            27 2.84  24 2.85  14 2.95   3 2.95   5 2.96  16 2.99  25 2.99   6 3.08
  16  0.303  0.649  0.981-  35 1.98  33 2.00  44 2.13  42 2.13  32 2.15  45 2.19   7 2.70   4 2.82
                             8 2.87  18 2.92   5 2.92   6 2.94  13 2.95  10 2.96  15 2.99  17 3.07
  17  0.540  0.744  0.318-  42 1.89  54 1.95  52 2.06  45 2.13  43 2.21  46 2.36  14 2.69   5 2.76
                            15 2.78  26 2.81  25 2.84  27 2.97  18 3.06  16 3.07  19 3.07
  18  0.422  0.864  0.653-  35 1.96  37 2.08  46 2.14  43 2.15  44 2.28  38 2.30  15 2.77   9 2.79
                            16 2.92  11 2.94  10 3.00  27 3.01  21 3.04  12 3.05  17 3.06
  19  0.666  1.000  0.996-  47 2.08  54 2.19  38 2.20  45 2.25  48 2.37  44 2.42  20 2.78  10 2.93
                             4 2.98   1 3.01  22 3.01  17 3.07  27 3.07  11 3.08  21 3.08
  20  0.874  0.117  0.307-  48 1.90  30 2.11  31 2.18  46 2.19  54 2.26  28 2.39   4 2.56  19 2.78
                            23 2.86  11 2.91   3 2.95   1 2.97  21 2.98   2 3.05  27 3.06   5 3.07
  21  0.751  0.215  0.641-  49 1.95  46 1.99  38 2.02  31 2.10  50 2.23  47 2.27  11 2.71  12 2.78
                             6 2.82  23 2.89  24 2.91  20 2.98  18 3.04  27 3.05  22 3.08  19 3.08
  22  0.649  0.328  0.996-  39 2.01  51 2.05  38 2.08  50 2.10  41 2.16  48 2.22  13 2.81  25 2.81
                            10 2.89  23 2.92  14 2.93   7 2.98  19 3.01  11 3.05  21 3.08
  23  0.869  0.434  0.321-  48 1.75  49 1.93  34 2.03  51 2.18  33 2.21  31 2.34  24 2.81   7 2.83
                            20 2.86   5 2.87   4 2.89  21 2.89  26 2.92  22 2.92   8 2.92  11 2.93
  24  0.748  0.538  0.623-  52 1.84  53 2.07  49 2.07  34 2.17  41 2.26  50 2.42  26 2.61  14 2.77
                            23 2.81  12 2.83  15 2.85  21 2.91  27 3.00   9 3.06   6 3.06
  25  0.648  0.642  0.998-  51 1.89  44 2.02  42 2.03  41 2.06  54 2.08  53 2.36  13 2.72  14 2.81
                            22 2.81  17 2.84  15 2.99  26 3.03
  26  0.859  0.754  0.348-  52 1.85  28 2.08  54 2.09  34 2.10  51 2.14  36 2.38  24 2.61  27 2.75
                            17 2.81  14 2.87  23 2.92   9 2.95   8 3.01  25 3.03   2 3.08
  27  0.767  0.882  0.644-  53 2.08  47 2.13  46 2.17  28 2.17  52 2.27  44 2.27  26 2.75  15 2.84
                            17 2.97  24 3.00  18 3.01  21 3.05  20 3.06  19 3.07
  28  0.004  0.988  0.485-   2 1.95  26 2.08  27 2.17   9 2.19   3 2.20  20 2.39
  29  0.232  0.091  0.814-  10 2.02  12 2.11   9 2.14   1 2.17  13 2.37   3 2.51
  30  0.102  0.232  0.148-   4 1.64   1 2.06  20 2.11  13 2.14   2 2.24   5 2.29
  31  0.993  0.319  0.515-   3 1.73   6 1.86  21 2.10   5 2.15  20 2.18  23 2.34
  32  0.207  0.410  0.835-  13 2.01   3 2.03   4 2.10  16 2.15   6 2.24  15 2.31
  33  0.115  0.547  0.168-   5 1.78   8 1.92  16 2.00   4 2.02   7 2.04  23 2.21
  34  0.993  0.647  0.480-  23 2.03   8 2.05   9 2.07  26 2.10   6 2.13  24 2.17
  35  0.231  0.785  0.828-  18 1.96  16 1.98   9 1.99  10 2.02   7 2.22   6 2.43
  36  0.123  0.859  0.185-   8 1.57   2 2.12   7 2.14  10 2.18  26 2.38   1 2.53
  37  0.321  0.985  0.492-  12 2.03  11 2.05   9 2.05  18 2.08   2 2.16   8 2.24
  38  0.551  0.116  0.820-  21 2.02  22 2.08  10 2.09  12 2.14  19 2.20  18 2.30
  39  0.424  0.212  0.134-  13 1.90  10 1.98  22 2.01   2 2.19  14 2.21  11 2.31
  40  0.318  0.331  0.484-   3 1.88  14 2.07  12 2.13   2 2.17  15 2.20   5 2.24
  41  0.526  0.432  0.824-  13 1.93  25 2.06  15 2.11  22 2.16  12 2.23  24 2.26
  42  0.432  0.556  0.154-  17 1.89  13 2.01  25 2.03  14 2.07  16 2.13   5 2.20
  43  0.310  0.628  0.498-   5 1.72  15 1.90   6 2.14  18 2.15  17 2.21   8 2.40
  44  0.533  0.731  0.827-  15 1.81  25 2.02  16 2.13  27 2.27  18 2.28  19 2.42
  45  0.427  0.868  0.170-   8 2.03  17 2.13  10 2.14  16 2.19  11 2.23  19 2.25
  46  0.649  0.002  0.488-  11 1.94  21 1.99  18 2.14  27 2.17  20 2.19  17 2.36
  47  0.878  0.101  0.820-  19 2.08   1 2.10  27 2.13  21 2.27   4 2.29   3 2.33
  48  0.775  0.240  0.197-  23 1.75  20 1.90  11 2.08   4 2.21  22 2.22  19 2.37
  49  0.661  0.316  0.466-  11 1.87  23 1.93  21 1.95  24 2.07  12 2.08  14 2.23
  50  0.877  0.431  0.841-   7 2.02   6 2.06  22 2.10  21 2.23   4 2.35  24 2.42
  51  0.749  0.548  0.153-  25 1.89  22 2.05  14 2.05  26 2.14  23 2.18   7 2.23
  52  0.653  0.636  0.476-  24 1.84  26 1.85  14 1.91  17 2.06  15 2.07  27 2.27
  53  0.876  0.757  0.783-   9 2.01  24 2.07  27 2.08  25 2.36   7 2.43   1 2.49
  54  0.750  0.856  0.169-  17 1.95  25 2.08  26 2.09  19 2.19  20 2.26   1 2.42

  LATTYP: Found a hexagonal cell.
 ALAT       =     8.9404805043
 C/A-ratio  =     0.8152863536

  Lattice vectors:

 A1 = (   8.9404805000,   0.0000000000,   0.0000000000)
 A2 = (  -4.4702402500,   7.7426832400,   0.0000000000)
 A3 = (   0.0000000000,   0.0000000000,   7.2890517500)

Analysis of symmetry for initial positions (statically):
 Subroutine PRICEL returns:
 Original cell was already a primitive cell.

 Routine SETGRP: Setting up the symmetry group for a
 hexagonal supercell.

 Subroutine GETGRP returns: Found  1 space group operations
 (whereof  1 operations were pure point group operations)
 out of a pool of 24 trial point group operations.

The static configuration has the point symmetry C_1 .

Analysis of symmetry for dynamics (positions and initial velocities):
 Subroutine PRICEL returns:
 Original cell was already a primitive cell.

[...]

The dynamic configuration has the point symmetry C_1 .

Analysis of structural, dynamic, and magnetic symmetry:
 Subroutine PRICEL returns:
 Original cell was already a primitive cell.

 Routine SETGRP: Setting up the symmetry group for a
 hexagonal supercell.

 Subroutine GETGRP returns: Found  1 space group operations
 (whereof  1 operations were pure point group operations)
 out of a pool of 24 trial point group operations.

The magnetic configuration has the point symmetry C_1 .

 Subroutine INISYM returns: Found  1 space group operations
 (whereof  1 operations are pure point group operations),
 and found     1 'primitive' translations

 KPOINTS: Automatic mesh

Automatic generation of k-mesh.
Space group operators:
 irot       det(A)        alpha          n_x          n_y          n_z        tau_x        tau_y        tau_z
    1     1.000000     0.000000     1.000000     0.000000     0.000000     0.000000     0.000000     0.000000

 Subroutine IBZKPT returns following result:

[...]
   -.607E+02 0.229E+03 -.154E+03   0.605E+02 -.230E+03 0.155E+03   0.108E+01 -.199E+01 0.137E+01   0.956E+00 0.421E+00 0.170E+00
   0.156E+03 0.736E+02 0.210E+03   -.159E+03 -.725E+02 -.215E+03   -.248E+01 0.617E+00 0.103E+01   0.208E+00 0.460E-01 -.390E+00
   -.739E+02 0.139E+03 0.117E+02   0.739E+02 -.140E+03 -.121E+02   0.716E-02 -.272E+01 -.111E+01   0.134E+01 0.396E+00 0.700E+00
   0.497E+02 -.960E+02 -.146E+03   -.525E+02 0.949E+02 0.147E+03   0.162E+01 0.226E+01 0.382E+00   0.969E+00 0.794E-02 0.103E-01
   0.164E+03 -.103E+03 0.125E+03   -.166E+03 0.101E+03 -.128E+03   0.983E+00 0.183E+01 0.204E+01   -.243E+00 0.316E+00 0.218E+00
   -.758E+02 -.717E+02 -.135E+03   0.791E+02 0.717E+02 0.139E+03   0.232E+01 -.303E+01 0.186E+01   -.192E-01 0.383E+00 -.155E+00
   0.891E+02 -.476E+02 -.757E+02   -.908E+02 0.487E+02 0.779E+02   0.112E+01 -.360E+00 -.165E+01   -.609E+00 0.183E+00 -.309E+00
   0.179E+02 0.839E+01 0.111E+02   -.192E+02 -.714E+01 -.136E+02   0.666E+00 -.139E+01 0.176E+01   0.203E+00 -.762E-01 0.246E+00
   0.484E+02 0.122E+03 0.133E+03   -.469E+02 -.124E+03 -.133E+03   -.176E+01 0.705E+00 -.182E+01   -.208E+00 -.141E+00 -.156E+00
   0.646E+02 0.893E+01 -.869E+02   -.668E+02 -.120E+02 0.901E+02   0.169E+01 0.202E+01 -.134E+01   -.627E+00 0.937E+00 -.416E+00
   0.514E+02 0.127E+03 0.642E+02   -.512E+02 -.128E+03 -.662E+02   -.152E+01 -.764E+00 0.120E+01   0.354E-01 0.517E+00 -.423E+00
   0.644E+01 0.120E+03 0.125E+02   -.678E+01 -.121E+03 -.142E+02   0.717E+00 -.132E+01 -.533E-01   -.345E+00 0.126E+01 0.155E+01
   -.223E+02 0.258E+02 -.540E+02   0.210E+02 -.260E+02 0.571E+02   0.101E+01 -.190E+01 -.229E+01   0.699E+00 -.207E+00 -.747E+00
   -.429E+02 -.746E+02 0.908E+02   0.438E+02 0.753E+02 -.915E+02   -.426E+00 -.750E+00 0.116E+01   0.808E+00 0.758E-01 -.473E+00
   0.341E+02 -.197E+03 -.498E+02   -.352E+02 0.201E+03 0.445E+02   -.746E+00 -.106E+01 0.414E+01   0.881E+00 -.885E+00 0.146E+01
   -.798E+02 -.380E+02 -.385E+02   0.773E+02 0.401E+02 0.382E+02   0.185E+01 -.357E+00 0.214E+00   0.112E+01 -.873E+00 -.185E+00
   -.260E+02 0.222E+02 0.503E+02   0.277E+02 -.217E+02 -.520E+02   -.132E+01 -.184E+00 0.138E+01   -.165E+00 -.495E+00 -.112E-01
   -.927E+02 0.189E+03 -.243E+02   0.913E+02 -.189E+03 0.240E+02   0.211E+01 0.157E+00 0.499E+00   -.947E-01 -.819E+00 0.240E+00
   -.868E+02 0.482E+02 -.174E+03   0.874E+02 -.499E+02 0.175E+03   0.942E+00 0.182E+01 -.172E+00   -.143E+00 -.355E+00 -.254E-02
   -.885E+02 0.373E+02 0.825E+02   0.891E+02 -.374E+02 -.846E+02   0.157E+00 -.925E-02 0.112E+01   -.101E+00 -.589E-01 0.257E+00
   -.133E+02 -.823E+02 0.151E+02   0.122E+02 0.822E+02 -.148E+02   0.234E+01 0.207E+01 0.444E+00   -.902E+00 0.426E+00 0.673E-01
   -.759E+02 0.836E+01 -.210E+03   0.784E+02 -.638E+01 0.214E+03   0.835E+00 -.282E+01 -.979E+00   -.219E+01 0.809E+00 -.946E+00
   -.119E+03 -.190E+03 0.127E+03   0.119E+03 0.191E+03 -.128E+03   0.235E+00 -.276E+00 -.533E+00   -.378E+00 0.628E-01 -.167E+00
   -.696E+02 -.185E+03 0.107E+03   0.703E+02 0.188E+03 -.109E+03   0.136E+01 -.107E+01 -.354E+00   -.111E+01 -.630E+00 0.809E+00
   -.363E+01 -.870E+02 -.850E+02   0.635E+01 0.911E+02 0.891E+02   -.199E+01 -.194E+01 -.259E+01   -.412E+00 -.166E+01 -.618E+00
   0.419E+02 -.128E+02 -.401E+02   -.437E+02 0.136E+02 0.448E+02   0.149E+01 -.682E+00 -.485E+01   -.114E+00 -.306E+00 0.141E+00
   0.896E+02 0.468E+01 0.957E+01   -.917E+02 -.138E+01 -.120E+02   0.153E+01 -.369E+01 0.293E+01   -.139E+00 0.275E+00 -.254E+00
   -.106E+03 0.117E+03 -.539E+02   0.120E+03 -.120E+03 0.648E+02   -.103E+02 -.122E+00 -.816E+01   0.588E+00 -.113E+00 0.447E-01
   0.548E+02 0.802E+02 0.150E+02   -.646E+02 -.828E+02 -.239E+02   0.676E+01 0.276E+01 0.673E+01   0.662E+00 -.253E+00 0.353E+00
   0.107E+02 0.306E+02 0.277E+02   -.114E+02 -.309E+02 -.283E+02   -.112E+01 0.142E+00 0.202E+01   0.145E+01 0.103E+01 -.128E+01
   0.596E+02 0.570E+01 0.656E+02   -.640E+02 -.752E+01 -.697E+02   0.263E+01 0.105E+01 0.258E+01   -.476E-01 0.653E+00 -.155E+00
   -.112E+00 -.392E+02 -.609E+02   0.264E+01 0.401E+02 0.632E+02   -.158E+01 -.145E+01 -.245E+01   -.750E+00 0.372E+00 -.263E+00
   0.475E+02 0.823E+01 0.160E+01   -.504E+02 -.888E+01 -.160E+01   0.264E+01 0.385E+00 -.528E-01   0.188E+00 -.101E+00 0.286E+00
   0.189E+03 -.106E+03 0.120E+03   -.206E+03 0.116E+03 -.131E+03   0.110E+02 -.584E+01 0.528E+01   -.113E+00 -.119E+00 0.264E+00
   0.241E+02 0.216E+02 0.646E+00   -.260E+02 -.251E+02 -.287E+01   0.229E+01 0.336E+01 0.262E+01   -.997E-01 0.215E+00 -.342E+00
   -.387E+02 0.386E+02 -.256E+02   0.374E+02 -.405E+02 0.251E+02   0.158E+01 0.183E+01 0.642E+00   0.107E+00 -.156E+00 0.124E+00
   -.561E+01 0.653E+02 -.354E+02   0.720E+01 -.681E+02 0.395E+02   -.121E+01 0.253E+01 -.334E+01   0.301E-02 0.515E-01 0.408E+00
   -.210E+02 0.466E+02 -.291E+01   0.222E+02 -.449E+02 -.652E+00   -.534E+00 -.275E+01 0.220E+01   0.342E+00 0.125E+01 0.878E+00
   -.502E+02 0.170E+02 0.556E+02   0.530E+02 -.189E+02 -.589E+02   -.101E+01 0.136E+01 0.405E+01   -.108E+01 0.858E+00 -.142E+01
   0.281E+02 -.274E+01 0.382E+02   -.329E+02 0.109E+01 -.408E+02   0.460E+01 0.633E+00 0.150E+01   0.256E+00 0.307E+00 0.505E+00
   0.246E+02 -.125E+03 -.663E+02   -.309E+02 0.135E+03 0.696E+02   0.389E+01 -.651E+01 -.209E+01   0.242E+01 -.399E+00 0.117E+01
   -.235E+02 -.147E+03 -.399E+02   0.233E+02 0.155E+03 0.484E+02   0.514E-01 -.568E+01 -.617E+01   -.159E-01 -.148E+01 -.187E+01
   -.631E+02 -.682E+02 0.266E+02   0.660E+02 0.688E+02 -.256E+02   -.299E+01 -.115E-01 -.119E+01   0.355E+00 -.506E-01 0.764E-01
   -.681E+02 0.866E+02 -.199E+02   0.713E+02 -.908E+02 0.181E+02   -.247E+01 0.398E+01 0.243E+01   0.931E-01 -.748E+00 0.271E-01
   -.124E+02 0.281E+02 0.859E+01   0.129E+02 -.221E+02 -.121E+02   -.723E+00 -.618E+01 0.402E+01   -.805E-02 -.436E+00 -.267E+00
   0.269E+02 0.980E+02 0.141E+03   -.319E+02 -.102E+03 -.149E+03   0.544E+01 0.292E+01 0.660E+01   -.652E+00 -.317E+00 -.261E+00
   0.422E+02 -.219E+02 -.357E+02   -.431E+02 0.258E+02 0.342E+02   0.754E+00 -.298E+01 0.273E+01   -.683E+00 0.267E+00 -.138E+00
   0.210E+02 0.200E+02 0.158E+01   -.219E+02 -.234E+02 -.180E+01   0.141E+01 0.319E+01 0.283E+00   -.267E+00 0.154E+00 0.866E-01
   -.734E+02 -.590E+02 0.531E+02   0.786E+02 0.603E+02 -.519E+02   -.431E+01 -.182E+01 -.204E+01   -.253E+00 0.281E+00 0.719E+00
   0.428E+02 -.751E+02 -.622E+02   -.465E+02 0.788E+02 0.639E+02   0.380E+01 -.287E+01 -.237E+01   -.170E+01 -.425E+00 0.101E+01
   0.134E+01 -.521E+02 -.117E+03   -.158E+01 0.516E+02 0.124E+03   0.626E+00 0.516E+00 -.594E+01   -.576E+00 -.855E-01 -.443E+00
   -.688E+02 -.106E+03 0.779E+02   0.727E+02 0.109E+03 -.809E+02   -.339E+01 -.244E+01 0.205E+01   -.166E+00 -.571E+00 0.438E+00
   -.332E+02 0.300E+02 -.168E+02   -.114E-12 0.284E-13 -.114E-12   0.335E+02 -.295E+02 0.161E+02   -.343E+00 -.567E+00 0.713E+00

 POSITION                                       TOTAL-FORCE (eV/Angst)
      0.02283      0.10269      7.20509        -0.131864      0.106833     -0.742300
      1.39460      0.74362      2.34817         0.181363     -0.038216     -0.238629
     -0.06199      1.86240      4.53555         1.846748     -2.598077      2.860491
     -1.34806      2.47595      0.22948        -4.522500      1.735842     -4.458773
     -0.25945      3.63950      2.43849         1.333478     -3.289127     -0.777920
     -1.61154      3.99898      4.79420        -0.235076      1.194954      0.826171
      6.05469      4.97257      0.02466        -1.117626      0.426065     -0.641887
     -1.64772      5.88663      2.18187         5.676530     -2.636031      5.241153
     -2.88318      6.64398      4.77733        -1.140943      0.878380      0.217309
     -1.44498      7.70520      7.23462        -0.455674     -0.215940     -0.561612
      4.39003      0.81872      2.48940        -0.445589     -1.392264     -1.886953
      2.98034      1.65641      4.57860        -1.075664     -0.157262      1.452043
      1.53062      2.63081      0.01669        -1.304263     -0.975747     -1.224994
      2.81081      3.40643      2.31531         0.028320     -1.035001     -0.167347
      1.44521      4.39337      4.73460         0.482787     -2.306390      0.073803
     -0.18920      5.02618      7.15316         1.277110      0.079614     -0.017214
      1.50360      5.76049      2.31675        -0.993351      1.601977      0.294384
     -0.09169      6.69332      4.76015         0.445043      0.777592     -0.217757
      1.48715      7.74236      7.25928         0.156472     -0.178685     -0.392698
      7.29197      0.90650      2.23577         0.627516     -0.938301      0.459141
      5.75480      1.66169      4.67503         1.451131     -0.143386      1.438260
      4.33675      2.53879      7.25897         0.684453     -0.196460     -0.786054
      5.83027      3.36033      2.33790         0.308450      2.387289      0.797533
      4.28348      4.16287      4.53882         1.120146     -0.037303      2.316930
      2.92390      4.96860      7.27218        -0.119811      1.236411     -0.976866
      4.30703      5.83998      2.53928         0.980465      1.412771     -1.228680
      2.91672      6.82663      4.69575         0.321442      0.557142      0.936970
     -4.38338      7.65061      3.53240        -0.377823     -0.181746      0.019557
      1.66902      0.70584      5.93367        -0.674961     -0.113035      0.252191
     -0.12461      1.79884      1.08024         4.267671     -2.908798      2.851646
      7.45767      2.46657      3.75390        -2.329966     -0.104413     -1.780356
      0.02260      3.17324      6.08680        -0.339439      0.863440      0.140442
     -1.41494      4.23658      1.22578        -1.811578     -0.121022     -1.648131
      5.98270      5.01334      3.49908         0.198329     -0.207805     -0.396713
     -1.44343      6.07706      6.03546        -0.031951     -0.363902      0.228299
     -2.74124      6.65179      1.34736        -5.717780      3.850111     -4.694257
     -1.53154      7.62664      3.58699         0.244054      0.066016      0.056079
      4.40845      0.89709      5.97658         0.363779     -0.222017      0.226842
      2.84480      1.64398      0.97864         0.385436     -0.203893      1.143033
      1.36861      2.56057      3.52788         0.982642      0.245383     -0.480164
      2.76974      3.34771      6.00940         0.780407      0.258585     -0.635724
      1.37520      4.30122      1.12066         0.010685     -0.709096     -0.560351
     -0.03231      4.86315      3.63204         0.000604      3.091095      2.347579
      1.49830      5.66167      6.02807        -0.186157      1.612671      0.464387
     -0.05878      6.71933      1.24125         0.190118      0.524732     -0.152884
      5.79537      0.01776      3.55886         0.759186     -0.991244      0.685813
      7.39902      0.78536      5.97903        -0.238842     -0.679192      0.245094
      5.85326      1.85868      1.43660        -0.248754     -1.844719     -1.909355
      4.50323      2.44373      3.39964        -0.849060      1.170197      1.079671
      5.91160      3.33900      6.12879         0.199858     -0.048165      0.149703
      4.25218      4.23961      1.11214         0.569012     -0.259577     -0.086095
      2.99469      4.92170      3.46967        -1.635135      0.432705      0.296616
      4.45428      5.85743      5.71019        -0.187315     -0.048895      0.078888
      2.87856      6.62405      1.23400         0.297889      0.635900     -0.516318
    total drift:                               -0.013618      0.011824      0.026837

  FREE ENERGIE OF THE ION-ELECTRON SYSTEM (eV)
  free  energy   TOTEN  =      -326.4049212752 eV

  energy  without entropy=     -326.3545586791  energy(sigma->0) =     -326.37973998

volume of typ            1:    34.1 %

volume of typ            2:     8.7 %

total charge

# of ion       s       p       d       tot
    1        0.168   0.140   7.962   8.270
    2        0.189   0.184   7.941   8.313
    3        0.233   0.257   7.938   8.428
    4        0.240   0.272   8.031   8.543
    5        0.245   0.286   8.024   8.555
    6        0.196   0.204   7.996   8.396
    7        0.178   0.172   7.962   8.312
    8        0.276   0.323   8.023   8.622
    9        0.203   0.214   7.903   8.321
   10        0.207   0.219   7.915   8.341
   11        0.214   0.234   7.936   8.383
   12        0.191   0.194   7.942   8.327
   13        0.218   0.245   7.947   8.410
   14        0.200   0.215   7.963   8.379
   15        0.224   0.247   7.862   8.333
   16        0.198   0.207   7.938   8.344
   17        0.204   0.219   7.954   8.377
   18        0.187   0.182   7.964   8.333
   19        0.168   0.141   7.946   8.256
   20        0.188   0.186   8.003   8.377
   21        0.203   0.217   7.943   8.362
   22        0.194   0.198   7.936   8.329
   23        0.227   0.254   8.016   8.497
   24        0.203   0.211   7.968   8.381
   25        0.213   0.231   7.941   8.385
   26        0.205   0.216   7.944   8.365
   27        0.177   0.163   7.927   8.267
   28        1.264   2.736   0.005   4.006
   29        1.274   2.708   0.004   3.986
   30        1.262   2.797   0.013   4.072
   31        1.266   2.794   0.012   4.071
   32        1.275   2.731   0.006   4.011
   33        1.262   2.806   0.013   4.080
   34        1.264   2.756   0.006   4.026
   35        1.258   2.771   0.007   4.036
   36        1.266   2.807   0.014   4.086
   37        1.265   2.754   0.006   4.025
   38        1.268   2.733   0.005   4.006
   39        1.256   2.776   0.007   4.039
   40        1.266   2.760   0.007   4.032
   41        1.271   2.746   0.006   4.023
   42        1.263   2.779   0.008   4.050
   43        1.261   2.805   0.011   4.077
   44        1.266   2.764   0.007   4.037
   45        1.265   2.735   0.005   4.005
   46        1.260   2.758   0.006   4.023
   47        1.273   2.705   0.004   3.982
   48        1.265   2.779   0.010   4.054
   49        1.256   2.804   0.010   4.069
   50        1.264   2.732   0.004   4.000
   51        1.261   2.770   0.007   4.037
   52        1.252   2.807   0.012   4.072
   53        1.266   2.720   0.004   3.991
   54        1.261   2.744   0.005   4.010
tot          39.68   80.41  215.03  335.12

magnetization (x)

# of ion       s       p       d       tot
    1        0.002   0.004   1.232   1.238
    2        0.006   0.004   1.189   1.199
    3       -0.002  -0.007  -0.941  -0.951
    4       -0.001  -0.003  -0.448  -0.452
    5        0.005   0.013   1.028   1.046
    6        0.007   0.009   1.019   1.035
    7        0.007   0.005   1.232   1.244
    8        0.000  -0.001   0.059   0.059
    9        0.004   0.004   1.228   1.236
   10        0.004   0.003   1.170   1.177
   11        0.006   0.008   1.173   1.187
   12       -0.002  -0.000  -1.156  -1.158
   13       -0.000   0.003  -0.972  -0.970
   14        0.004   0.005   1.233   1.242
   15        0.002   0.002  -0.260  -0.256
   16        0.005   0.005   1.188   1.198
   17        0.004   0.006   1.197   1.207
   18       -0.000   0.003  -1.168  -1.165
   19       -0.000  -0.001   1.207   1.206
   20        0.005   0.005   1.071   1.081
   21        0.001   0.002  -1.115  -1.113
   22        0.006   0.004   1.183   1.193
   23       -0.005  -0.000  -0.705  -0.710
   24        0.005   0.008   1.165   1.178
   25        0.000   0.001   1.018   1.020
   26        0.004   0.008   1.179   1.190
   27        0.008   0.008   1.291   1.307
   28        0.015   0.155   0.000   0.170
   29        0.005   0.082   0.000   0.087
   30        0.008   0.102  -0.000   0.110
   31        0.002   0.038  -0.000   0.040
   32       -0.001   0.000  -0.000  -0.001
   33        0.014   0.095   0.000   0.109
   34        0.010   0.100   0.000   0.111
   35        0.014   0.096   0.000   0.110
   36        0.013   0.122   0.000   0.135
   37        0.006   0.012   0.000   0.018
   38        0.002   0.013   0.000   0.015
   39        0.013   0.074   0.000   0.088
   40       -0.000  -0.016   0.000  -0.016
   41        0.001   0.038  -0.000   0.039
   42        0.016   0.166   0.000   0.182
   43        0.006   0.052   0.000   0.058
   44        0.007   0.073   0.000   0.080
   45        0.012   0.113   0.000   0.126
   46        0.008   0.037   0.000   0.046
   47        0.004   0.130  -0.000   0.135
   48        0.009   0.100  -0.000   0.109
   49       -0.000  -0.005   0.000  -0.006
   50        0.007   0.086   0.000   0.094
   51        0.017   0.101   0.001   0.118
   52        0.026   0.199   0.000   0.226
   53        0.016   0.206   0.000   0.223
   54        0.020   0.191   0.000   0.212
tot           0.32    2.46   14.30   17.09