 vasp.5.4.4.18Apr17-6-g9f103f2a35 (build May 12 2020 04:58:55) complex

 MD_VERSION_INFO: Compiled 2020-05-12T11:58:55-UTC in devlin.sd.materialsdesign.
 com:/home/medea2/data/build/wwolf/vasp-gpu5.4.4/13047/x86_64/src/src/build/std
 from svn 13047

 executed on                        Lin64 date 2022.11.08  14:18:08

 INCAR:
 POTCAR:    PAW_PBE Li_sv 10Sep2004
 POTCAR:    PAW_PBE Mn_pv 02Aug2007
 POTCAR:    PAW_PBE O 08Apr2002
 POTCAR:    PAW_PBE Co 02Aug2007
 POTCAR:    PAW_PBE Ni 02Aug2007

 POTCAR:    PAW_PBE Li_sv 10Sep2004

 POTCAR:    PAW_PBE Mn_pv 02Aug2007

 POTCAR:    PAW_PBE O 08Apr2002

 POTCAR:    PAW_PBE Co 02Aug2007

 POTCAR:    PAW_PBE Ni 02Aug2007

 Optimization of the real space projectors (new method)

 maximal supplied QI-value         = 22.11
 optimisation between [QCUT,QGAM] = [ 11.28, 22.77] = [ 35.61,145.23] Ry
 Optimized for a Real-space Cutoff    1.10 Angstroem

   l    n(q)    QCUT    max X(q) W(low)/X(q) W(high)/X(q)  e(spline)
   0      7    11.276    10.506    0.54E-04    0.58E-04    0.16E-07
   0      7    11.276     8.367    0.11E-03    0.14E-03    0.35E-07
   1      7    11.276     8.983    0.23E-03    0.43E-03    0.86E-07
 Optimization of the real space projectors (new method)

[...]

   l    n(q)    QCUT    max X(q) W(low)/X(q) W(high)/X(q)  e(spline)
   2      9    11.376    65.824    0.18E-03    0.28E-04    0.14E-06
   2      9    11.376    61.429    0.18E-03    0.29E-04    0.14E-06
   0     10    11.376    56.174    0.51E-04    0.12E-03    0.20E-06
   0     10    11.376    31.263    0.46E-04    0.11E-03    0.18E-06
   1      9    11.376    19.828    0.23E-03    0.17E-03    0.10E-06
   1      9    11.376    15.139    0.20E-03    0.14E-03    0.89E-07
 Optimization of the real space projectors (new method)

 maximal supplied QI-value         = 16.25
 optimisation between [QCUT,QGAM] = [ 11.38, 22.75] = [ 36.24,144.96] Ry
 Optimized for a Real-space Cutoff    1.47 Angstroem

   l    n(q)    QCUT    max X(q) W(low)/X(q) W(high)/X(q)  e(spline)
   2      9    11.376    60.317    0.17E-03    0.16E-04    0.16E-06
   2      9    11.376    55.921    0.17E-03    0.16E-04    0.17E-06
   0     10    11.376    51.690    0.45E-04    0.60E-04    0.21E-06
   0     10    11.376    30.015    0.37E-04    0.55E-04    0.19E-06
   1     10    11.376    18.849    0.83E-04    0.11E-03    0.92E-07
   1     10    11.376    14.624    0.69E-04    0.92E-04    0.82E-07

  PAW_PBE Li_sv 10Sep2004               :
  PAW_PBE Mn_pv 02Aug2007               :
  PAW_PBE O 08Apr2002                   :
  PAW_PBE Co 02Aug2007                  :
  PAW_PBE Ni 02Aug2007                  :

 POSCAR: ce132352_2
  positions in direct lattice

 METAGGA = SCAN     LMAXTAU =  6    LMIXTAU =  T

 ion  position               nearest neighbor table
   1  0.268  0.000  0.249-  39 2.02  42 2.02  23 2.08  31 2.09  34 2.09  27 2.23  64 2.81  67 2.83
                            68 2.83
   2  0.732  0.000  0.751-  40 2.02  41 2.02  24 2.08  32 2.09  33 2.09  28 2.23  64 2.81  67 2.83
                            68 2.83
   3  0.768  0.500  0.249-  43 2.02  46 2.02  25 2.08  35 2.09  38 2.09  29 2.23  63 2.81  65 2.83
                            66 2.83
   4  0.232  0.500  0.751-  44 2.02  45 2.02  26 2.08  36 2.09  37 2.09  30 2.23  63 2.81  65 2.83
                            66 2.83
   5  0.749  0.099  0.249-  39 2.01  31 2.03  23 2.03  55 2.08  47 2.08  27 2.13  67 2.84  21 2.85
                            64 2.86
   6  0.251  0.099  0.751-  40 2.01  32 2.03  24 2.03  56 2.08  48 2.08  28 2.13  67 2.84  21 2.85
                            64 2.86
   7  0.251  0.901  0.751-  41 2.01  33 2.03  24 2.03  57 2.08  49 2.08  28 2.13  68 2.84  21 2.85
                            64 2.86
   8  0.749  0.901  0.249-  42 2.01  34 2.03  23 2.03  58 2.08  50 2.08  27 2.13  68 2.84  21 2.85
                            64 2.86
   9  0.249  0.599  0.249-  43 2.01  35 2.03  25 2.03  59 2.08  51 2.08  29 2.13  65 2.84  22 2.85
                            63 2.86
  10  0.751  0.599  0.751-  44 2.01  36 2.03  26 2.03  60 2.08  52 2.08  30 2.13  65 2.84  22 2.85
                            63 2.86
  11  0.751  0.401  0.751-  45 2.01  37 2.03  26 2.03  61 2.08  53 2.08  30 2.13  66 2.84  22 2.85
                            63 2.86
  12  0.249  0.401  0.249-  46 2.01  38 2.03  25 2.03  62 2.08  54 2.08  29 2.13  66 2.84  22 2.85
                            63 2.86
  13  0.254  0.197  0.249-  54 2.06  39 2.08  31 2.09  47 2.14  62 2.17  55 2.18  67 2.82
  14  0.746  0.197  0.751-  53 2.06  40 2.08  32 2.09  48 2.14  61 2.17  56 2.18  67 2.82
  15  0.746  0.803  0.751-  52 2.06  41 2.08  33 2.09  49 2.14  60 2.17  57 2.18  68 2.82
  16  0.254  0.803  0.249-  51 2.06  42 2.08  34 2.09  50 2.14  59 2.17  58 2.18  68 2.82
  17  0.754  0.697  0.249-  50 2.06  43 2.08  35 2.09  51 2.14  58 2.17  59 2.18  65 2.82
  18  0.246  0.697  0.751-  49 2.06  44 2.08  36 2.09  52 2.14  57 2.17  60 2.18  65 2.82
  19  0.246  0.303  0.751-  48 2.06  45 2.08  37 2.09  53 2.14  56 2.17  61 2.18  66 2.82
  20  0.754  0.303  0.249-  47 2.06  46 2.08  38 2.09  54 2.14  55 2.17  62 2.18  66 2.82
  21  0.000  0.000  0.000-  23 1.89  24 1.89  31 1.91  32 1.91  33 1.91  34 1.91  73 2.85  74 2.85
                             5 2.85   6 2.85   7 2.85   8 2.85  67 2.85  68 2.85  67 2.85  68 2.85
  22  0.500  0.500  0.000-  25 1.89  26 1.89  35 1.91  36 1.91  37 1.91  38 1.91  75 2.85  76 2.85
                             9 2.85  10 2.85  11 2.85  12 2.85  65 2.85  66 2.85  65 2.85  66 2.85
  23  0.647  0.000  0.114-  21 1.89  67 2.00  68 2.00   8 2.03   5 2.03   1 2.08
  24  0.353  0.000  0.886-  21 1.89  67 2.00  68 2.00   7 2.03   6 2.03   2 2.08
  25  0.147  0.500  0.114-  22 1.89  65 2.00  66 2.00  12 2.03   9 2.03   3 2.08
  26  0.853  0.500  0.886-  22 1.89  65 2.00  66 2.00  11 2.03  10 2.03   4 2.08
  27  0.864  0.000  0.396-  64 1.89  69 1.91  70 1.91   8 2.13   5 2.13   1 2.23
  28  0.136  0.000  0.604-  64 1.89  69 1.91  70 1.91   7 2.13   6 2.13   2 2.23
  29  0.364  0.500  0.396-  63 1.89  71 1.91  72 1.91  12 2.13   9 2.13   3 2.23
  30  0.636  0.500  0.604-  63 1.89  71 1.91  72 1.91  11 2.13  10 2.13   4 2.23
  31  0.118  0.096  0.116-  21 1.91  73 1.98  67 2.01   5 2.03   1 2.09  13 2.09
  32  0.882  0.096  0.884-  21 1.91  73 1.98  67 2.01   6 2.03   2 2.09  14 2.09
  33  0.882  0.904  0.884-  21 1.91  74 1.98  68 2.01   7 2.03   2 2.09  15 2.09
  34  0.118  0.904  0.116-  21 1.91  74 1.98  68 2.01   8 2.03   1 2.09  16 2.09
  35  0.618  0.596  0.116-  22 1.91  75 1.98  65 2.01   9 2.03   3 2.09  17 2.09
  36  0.382  0.596  0.884-  22 1.91  75 1.98  65 2.01  10 2.03   4 2.09  18 2.09
  37  0.382  0.404  0.884-  22 1.91  76 1.98  66 2.01  11 2.03   4 2.09  19 2.09
  38  0.618  0.404  0.116-  22 1.91  76 1.98  66 2.01  12 2.03   3 2.09  20 2.09
  39  0.387  0.097  0.383-  64 1.91  79 1.96   5 2.01   1 2.02  69 2.04  13 2.08
  40  0.613  0.097  0.617-  64 1.91  79 1.96   6 2.01   2 2.02  69 2.04  14 2.08
  41  0.613  0.903  0.617-  64 1.91  80 1.96   7 2.01   2 2.02  70 2.04  15 2.08
  42  0.387  0.903  0.383-  64 1.91  80 1.96   8 2.01   1 2.02  70 2.04  16 2.08
  43  0.887  0.597  0.383-  63 1.91  77 1.96   9 2.01   3 2.02  71 2.04  17 2.08
  44  0.113  0.597  0.617-  63 1.91  77 1.96  10 2.01   4 2.02  71 2.04  18 2.08
  45  0.113  0.403  0.617-  63 1.91  78 1.96  11 2.01   4 2.02  72 2.04  19 2.08
  46  0.887  0.403  0.383-  63 1.91  78 1.96  12 2.01   3 2.02  72 2.04  20 2.08
  47  0.647  0.203  0.112-  73 1.88  76 1.96  67 2.02  20 2.06   5 2.08  13 2.14
  48  0.353  0.203  0.888-  73 1.88  76 1.96  67 2.02  19 2.06   6 2.08  14 2.14
  49  0.353  0.797  0.888-  74 1.88  75 1.96  68 2.02  18 2.06   7 2.08  15 2.14
  50  0.647  0.797  0.112-  74 1.88  75 1.96  68 2.02  17 2.06   8 2.08  16 2.14
  51  0.147  0.703  0.112-  75 1.88  74 1.96  65 2.02  16 2.06   9 2.08  17 2.14
  52  0.853  0.703  0.888-  75 1.88  74 1.96  65 2.02  15 2.06  10 2.08  18 2.14
  53  0.853  0.297  0.888-  76 1.88  73 1.96  66 2.02  14 2.06  11 2.08  19 2.14
  54  0.147  0.297  0.112-  76 1.88  73 1.96  66 2.02  13 2.06  12 2.08  20 2.14
  55  0.860  0.196  0.393-  79 1.89  69 1.92  78 2.01   5 2.08  20 2.17  13 2.18
  56  0.140  0.196  0.607-  79 1.89  69 1.92  78 2.01   6 2.08  19 2.17  14 2.18
  57  0.140  0.804  0.607-  80 1.89  70 1.92  77 2.01   7 2.08  18 2.17  15 2.18
  58  0.860  0.804  0.393-  80 1.89  70 1.92  77 2.01   8 2.08  17 2.17  16 2.18
  59  0.360  0.696  0.393-  77 1.89  71 1.92  80 2.01   9 2.08  16 2.17  17 2.18
  60  0.640  0.696  0.607-  77 1.89  71 1.92  80 2.01  10 2.08  15 2.17  18 2.18
  61  0.640  0.304  0.607-  78 1.89  72 1.92  79 2.01  11 2.08  14 2.17  19 2.18
  62  0.360  0.304  0.393-  78 1.89  72 1.92  79 2.01  12 2.08  13 2.17  20 2.18
  63  0.000  0.500  0.500-  29 1.89  30 1.89  43 1.91  44 1.91  45 1.91  46 1.91   3 2.81   4 2.81
                            77 2.81  78 2.81  71 2.84  72 2.84  71 2.84  72 2.84   9 2.86  10 2.86
  64  0.500  0.000  0.500-  27 1.89  28 1.89  39 1.91  40 1.91  41 1.91  42 1.91   1 2.81   2 2.81
                            79 2.81  80 2.81  69 2.84  70 2.84  69 2.84  70 2.84   5 2.86   6 2.86
  65  0.000  0.600  0.000-  25 2.00  26 2.00  35 2.01  36 2.01  51 2.02  52 2.02  17 2.82  18 2.82
                             3 2.83   4 2.83   9 2.84  10 2.84  75 2.84  75 2.84  74 2.85  22 2.85
  66  0.000  0.400  0.000-  25 2.00  26 2.00  37 2.01  38 2.01  53 2.02  54 2.02  19 2.82  20 2.82
                             3 2.83   4 2.83  11 2.84  12 2.84  76 2.84  76 2.84  73 2.85  22 2.85
  67  0.500  0.100  0.000-  23 2.00  24 2.00  31 2.01  32 2.01  47 2.02  48 2.02  13 2.82  14 2.82
                             1 2.83   2 2.83   5 2.84   6 2.84  73 2.84  73 2.84  76 2.85  21 2.85
  68  0.500  0.900  0.000-  23 2.00  24 2.00  33 2.01  34 2.01  49 2.02  50 2.02  15 2.82  16 2.82
                             1 2.83   2 2.83   7 2.84   8 2.84  74 2.84  74 2.84  75 2.85  21 2.85
  69  0.000  0.099  0.500-  27 1.91  28 1.91  55 1.92  56 1.92  39 2.04  40 2.04  70 2.82  79 2.84
                            79 2.84  64 2.84  64 2.84  78 2.90
  70  0.000  0.901  0.500-  27 1.91  28 1.91  57 1.92  58 1.92  41 2.04  42 2.04  69 2.82  80 2.84
                            80 2.84  64 2.84  64 2.84  77 2.90
  71  0.500  0.599  0.500-  29 1.91  30 1.91  59 1.92  60 1.92  43 2.04  44 2.04  72 2.82  77 2.84
                            77 2.84  63 2.84  63 2.84  80 2.90
  72  0.500  0.401  0.500-  29 1.91  30 1.91  61 1.92  62 1.92  45 2.04  46 2.04  71 2.82  78 2.84
                            78 2.84  63 2.84  63 2.84  79 2.90
  73  0.000  0.200  0.000-  47 1.88  48 1.88  53 1.96  54 1.96  31 1.98  32 1.98  67 2.84  67 2.84
                            66 2.85  21 2.85  76 2.85  76 2.85
  74  0.000  0.800  0.000-  49 1.88  50 1.88  51 1.96  52 1.96  33 1.98  34 1.98  68 2.84  68 2.84
                            65 2.85  21 2.85  75 2.85  75 2.85
  75  0.500  0.700  0.000-  51 1.88  52 1.88  49 1.96  50 1.96  35 1.98  36 1.98  65 2.84  65 2.84
                            68 2.85  22 2.85  74 2.85  74 2.85
  76  0.500  0.300  0.000-  53 1.88  54 1.88  47 1.96  48 1.96  37 1.98  38 1.98  66 2.84  66 2.84
[...]
   0.155E+02 0.153E+02 0.227E+03   -.173E+02 -.161E+02 -.239E+03   0.176E+01 0.884E+00 0.118E+02
   0.155E+02 -.153E+02 0.227E+03   -.173E+02 0.161E+02 -.239E+03   0.176E+01 -.884E+00 0.118E+02
   -.155E+02 -.153E+02 -.227E+03   0.173E+02 0.161E+02 0.239E+03   -.176E+01 -.884E+00 -.118E+02
   -.155E+02 0.153E+02 -.227E+03   0.173E+02 -.161E+02 0.239E+03   -.176E+01 0.884E+00 -.118E+02
   0.155E+02 0.153E+02 0.227E+03   -.173E+02 -.161E+02 -.239E+03   0.176E+01 0.884E+00 0.118E+02
   0.211E+02 -.649E+01 -.259E+03   -.237E+02 0.524E+01 0.271E+03   0.265E+01 0.125E+01 -.126E+02
   -.211E+02 -.649E+01 0.259E+03   0.237E+02 0.524E+01 -.271E+03   -.265E+01 0.125E+01 0.126E+02
   -.211E+02 0.649E+01 0.259E+03   0.237E+02 -.524E+01 -.271E+03   -.265E+01 -.125E+01 0.126E+02
   0.211E+02 0.649E+01 -.259E+03   -.237E+02 -.524E+01 0.271E+03   0.265E+01 -.125E+01 -.126E+02
   0.211E+02 -.649E+01 -.259E+03   -.237E+02 0.524E+01 0.271E+03   0.265E+01 0.125E+01 -.126E+02
   -.211E+02 -.649E+01 0.259E+03   0.237E+02 0.524E+01 -.271E+03   -.265E+01 0.125E+01 0.126E+02
   -.211E+02 0.649E+01 0.259E+03   0.237E+02 -.524E+01 -.271E+03   -.265E+01 -.125E+01 0.126E+02
   0.211E+02 0.649E+01 -.259E+03   -.237E+02 -.524E+01 0.271E+03   0.265E+01 -.125E+01 -.126E+02
   -.151E+02 -.250E+02 0.237E+03   0.170E+02 0.267E+02 -.250E+03   -.192E+01 -.173E+01 0.131E+02
   0.151E+02 -.250E+02 -.237E+03   -.170E+02 0.267E+02 0.250E+03   0.192E+01 -.173E+01 -.131E+02
   0.151E+02 0.250E+02 -.237E+03   -.170E+02 -.267E+02 0.250E+03   0.192E+01 0.173E+01 -.131E+02
   -.151E+02 0.250E+02 0.237E+03   0.170E+02 -.267E+02 -.250E+03   -.192E+01 0.173E+01 0.131E+02
   -.151E+02 -.250E+02 0.237E+03   0.170E+02 0.267E+02 -.250E+03   -.192E+01 -.173E+01 0.131E+02
   0.151E+02 -.250E+02 -.237E+03   -.170E+02 0.267E+02 0.250E+03   0.192E+01 -.173E+01 -.131E+02
[...]
   -.787E-08 -.525E+02 0.243E-05   0.397E-13 0.522E+02 -.219E-12   0.000E+00 0.301E+00 -.217E-18
   0.787E-08 0.525E+02 -.243E-05   0.227E-13 -.522E+02 -.199E-12   0.271E-19 -.301E+00 0.108E-18
   -.728E-06 -.318E+02 0.963E-05   -.126E-12 0.321E+02 0.105E-12   -.813E-19 -.269E+00 -.542E-19
   0.728E-06 0.318E+02 -.963E-05   -.744E-13 -.321E+02 0.418E-13   0.136E-19 0.269E+00 -.542E-19
   -.728E-06 -.318E+02 0.963E-05   -.137E-12 0.321E+02 0.840E-13   0.813E-19 -.269E+00 -.542E-19
   0.728E-06 0.318E+02 -.963E-05   -.721E-13 -.321E+02 0.389E-13   -.542E-19 0.269E+00 -.542E-19
   -.473E-08 -.397E+02 0.146E-05   -.720E-13 0.404E+02 -.431E-13   0.271E-19 -.795E+00 0.000E+00
   0.473E-08 0.397E+02 -.146E-05   -.642E-13 -.404E+02 -.582E-13   0.000E+00 0.795E+00 0.000E+00
   -.473E-08 -.397E+02 0.146E-05   -.393E-13 0.404E+02 -.474E-13   0.136E-19 -.795E+00 0.000E+00
   0.473E-08 0.397E+02 -.146E-05   -.319E-13 -.404E+02 -.267E-13   0.136E-19 0.795E+00 0.000E+00
   0.688E-06 -.410E+02 -.910E-05   -.133E-12 0.399E+02 -.110E-12   0.000E+00 0.118E+01 -.542E-19
   -.688E-06 0.410E+02 0.910E-05   -.193E-12 -.399E+02 -.107E-12   0.678E-19 -.118E+01 -.542E-19
   0.688E-06 -.410E+02 -.910E-05   -.157E-12 0.399E+02 -.113E-12   0.000E+00 0.118E+01 -.542E-19
   -.688E-06 0.410E+02 0.910E-05   -.188E-12 -.399E+02 -.136E-12   -.407E-19 -.118E+01 -.542E-19
   0.210E-10 0.685E-10 -.239E-10   -.884E-13 -.313E-12 -.124E-12   -.355E-14 -.222E-15 -.178E-14

 POSITION                                       TOTAL-FORCE (eV/Angst)
      1.72609      0.00000      2.32834         0.006704      0.000000      0.003174
      4.83083      0.00000      7.01069        -0.006704     -0.000000     -0.003174
      4.19278      7.12296      2.32834         0.006704      0.000000      0.003174
      2.36414      7.12296      7.01069        -0.006704      0.000000     -0.003174
      4.10035      1.41720      2.32771         0.001127     -0.002318      0.001891
      2.45657      1.41720      7.01132        -0.001127     -0.002318     -0.001891
      2.45657     12.82871      7.01132        -0.001127      0.002318     -0.001891
      4.10035     12.82871      2.32771         0.001127      0.002318      0.001891
      1.63366      8.54016      2.32771         0.001127     -0.002318      0.001891
      4.92326      8.54016      7.01132        -0.001127     -0.002318     -0.001891
      4.92326      5.70575      7.01132        -0.001127      0.002318     -0.001891
      1.63366      5.70575      2.32771         0.001127      0.002318      0.001891
      1.65702      2.80373      2.32732         0.004886     -0.002468     -0.000299
      4.89990      2.80373      7.01171        -0.004886     -0.002468      0.000299
      4.89990     11.44218      7.01171        -0.004886      0.002468      0.000299
      1.65702     11.44218      2.32732         0.004886      0.002468     -0.000299
      4.12371      9.92668      2.32732         0.004886     -0.002468     -0.000299
      2.43321      9.92668      7.01171        -0.004886     -0.002468      0.000299
      2.43321      4.31923      7.01171        -0.004886      0.002468      0.000299
      4.12371      4.31923      2.32732         0.004886      0.002468     -0.000299
      0.00000      0.00000      0.00000         0.000000      0.000000      0.000000
      2.46669      7.12296      0.00000         0.000000      0.000000      0.000000
      3.37556      0.00000      1.06522        -0.003266      0.000000      0.017069
      3.18136      0.00000      8.27381         0.003266      0.000000     -0.017069
      0.90887      7.12296      1.06522        -0.003266     -0.000000      0.017069
      5.64805      7.12296      8.27381         0.003266      0.000000     -0.017069
      4.90521      0.00000      3.69968         0.005138      0.000000      0.008414
      1.65171      0.00000      5.63936        -0.005138      0.000000     -0.008414
      2.43852      7.12296      3.69968         0.005138      0.000000      0.008414
      4.11840      7.12296      5.63936        -0.005138      0.000000     -0.008414
      0.77043      1.37309      1.08212         0.001557     -0.009520      0.008867
      5.78649      1.37309      8.25692        -0.001557     -0.009520     -0.008867
      5.78649     12.87282      8.25692        -0.001557      0.009520     -0.008867
      0.77043     12.87282      1.08212         0.001557      0.009520      0.008867
      3.23712      8.49605      1.08212         0.001557     -0.009520      0.008867
      3.31980      8.49605      8.25692        -0.001557     -0.009520     -0.008867
      3.31980      5.74986      8.25692        -0.001557      0.009520     -0.008867
      3.23712      5.74986      1.08212         0.001557      0.009520      0.008867
      2.52963      1.37787      3.57332        -0.007369     -0.001698     -0.007789
      4.02729      1.37787      5.76571         0.007369     -0.001698      0.007789
      4.02729     12.86804      5.76571         0.007369      0.001698      0.007789
      2.52963     12.86804      3.57332        -0.007369      0.001698     -0.007789
      4.99632      8.50083      3.57332        -0.007369     -0.001698     -0.007789
      1.56060      8.50083      5.76571         0.007369     -0.001698      0.007789
      1.56060      5.74508      5.76571         0.007369      0.001698      0.007789
      4.99632      5.74508      3.57332        -0.007369      0.001698     -0.007789
      3.37515      2.89396      1.04899        -0.002357     -0.002591      0.008991
      3.18177      2.89396      8.29005         0.002357     -0.002591     -0.008991
      3.18177     11.35196      8.29005         0.002357      0.002591     -0.008991
      3.37515     11.35196      1.04899        -0.002357      0.002591      0.008991
      0.90846     10.01691      1.04899        -0.002357     -0.002591      0.008991
      5.64846     10.01691      8.29005         0.002357     -0.002591     -0.008991
      5.64846      4.22900      8.29005         0.002357      0.002591     -0.008991
      0.90846      4.22900      1.04899        -0.002357      0.002591      0.008991
      4.87895      2.79545      3.67290         0.000303     -0.004120     -0.000447
      1.67797      2.79545      5.66613        -0.000303     -0.004120      0.000447
      1.67797     11.45046      5.66613        -0.000303      0.004120      0.000447
      4.87895     11.45046      3.67290         0.000303      0.004120     -0.000447
      2.41226      9.91841      3.67290         0.000303     -0.004120     -0.000447
      4.14466      9.91841      5.66613        -0.000303     -0.004120      0.000447
[...]
      0.00000      5.69189      0.00000         0.000000      0.015679      0.000000
      2.46669      1.43107      0.00000         0.000000     -0.015679     -0.000000
      2.46669     12.81484      0.00000         0.000000      0.015679     -0.000000
      0.81177      1.40843      4.66952         0.000000     -0.016154      0.000000
      0.81177     12.83748      4.66952         0.000000      0.016154     -0.000000
      3.27846      8.53139      4.66952         0.000000     -0.016154      0.000000
      3.27846      5.71452      4.66952         0.000000      0.016154     -0.000000
      0.00000      2.84669      0.00000         0.000000     -0.015532      0.000000
      0.00000     11.39922      0.00000         0.000000      0.015532      0.000000
      2.46669      9.96964      0.00000         0.000000     -0.015532      0.000000
      2.46669      4.27627      0.00000         0.000000      0.015532      0.000000
      0.81177      9.93768      4.66952         0.000000     -0.002855      0.000000
      0.81177      4.30824      4.66952         0.000000      0.002855     -0.000000
      3.27846      2.81472      4.66952         0.000000     -0.002855      0.000000
      3.27846     11.43119      4.66952         0.000000      0.002855     -0.000000
    total drift:                                0.000000      0.000000     -0.000000

  FREE ENERGIE OF THE ION-ELECTRON SYSTEM (eV)
  free  energy   TOTEN  =     -1768.2670110921 eV

  energy  without entropy=    -1768.2451395483  energy(sigma->0) =    -1768.25607532

volume of typ            1:    23.8 %

[...]

volume of typ            5:    15.5 %

total charge

# of ion       s       p       d       tot
    1        2.086   0.278   0.115   2.479
    2        2.086   0.278   0.115   2.479
    3        2.086   0.278   0.115   2.479
    4        2.086   0.278   0.115   2.479
    5        2.095   0.301   0.126   2.521
    6        2.095   0.301   0.126   2.521
    7        2.095   0.301   0.126   2.521
    8        2.095   0.301   0.126   2.521
    9        2.095   0.301   0.126   2.521
   10        2.095   0.301   0.126   2.521
   11        2.095   0.301   0.126   2.521
   12        2.095   0.301   0.126   2.521
   13        2.075   0.243   0.098   2.416
   14        2.075   0.243   0.098   2.416
   15        2.075   0.243   0.098   2.416
   16        2.075   0.243   0.098   2.416
   17        2.075   0.243   0.098   2.416
   18        2.075   0.243   0.098   2.416
   19        2.075   0.243   0.098   2.416
   20        2.075   0.243   0.098   2.416
   21        0.232   6.256   4.558  11.046
   22        0.232   6.256   4.558  11.046
   23        1.257   2.862   0.005   4.124
   24        1.257   2.862   0.005   4.124
   25        1.257   2.862   0.005   4.124
   26        1.257   2.862   0.005   4.124
   27        1.263   2.836   0.006   4.105
   28        1.263   2.836   0.006   4.105
   29        1.263   2.836   0.006   4.105
   30        1.263   2.836   0.006   4.105
   31        1.259   2.850   0.004   4.114
   32        1.259   2.850   0.004   4.114
   33        1.259   2.850   0.004   4.114
   34        1.259   2.850   0.004   4.114
   35        1.259   2.850   0.004   4.114
   36        1.259   2.850   0.004   4.114
   37        1.259   2.850   0.004   4.114
   38        1.259   2.850   0.004   4.114
   39        1.258   2.847   0.004   4.109
   40        1.258   2.847   0.004   4.109
   41        1.258   2.847   0.004   4.109
   42        1.258   2.847   0.004   4.109
   43        1.258   2.847   0.004   4.109
   44        1.258   2.847   0.004   4.109
   45        1.258   2.847   0.004   4.109
   46        1.258   2.847   0.004   4.109
   47        1.261   2.834   0.005   4.100
   48        1.261   2.834   0.005   4.100
   49        1.261   2.834   0.005   4.100
   50        1.261   2.834   0.005   4.100
   51        1.261   2.834   0.005   4.100
   52        1.261   2.834   0.005   4.100
   53        1.261   2.834   0.005   4.100
   54        1.261   2.834   0.005   4.100
   55        1.263   2.829   0.005   4.097
   56        1.263   2.829   0.005   4.097
   57        1.263   2.829   0.005   4.097
   58        1.263   2.829   0.005   4.097
   59        1.263   2.829   0.005   4.097
   60        1.263   2.829   0.005   4.097
[...]
   66        0.222   0.267   7.854   8.343
   67        0.222   0.267   7.854   8.343
   68        0.222   0.267   7.854   8.343
   69        0.254   0.325   7.805   8.385
   70        0.254   0.325   7.805   8.385
   71        0.254   0.325   7.805   8.385
   72        0.254   0.325   7.805   8.385
   73        0.256   0.337   7.792   8.386
   74        0.256   0.337   7.792   8.386
   75        0.256   0.337   7.792   8.386
   76        0.256   0.337   7.792   8.386
   77        0.254   0.327   7.798   8.379
   78        0.254   0.327   7.798   8.379
   79        0.254   0.327   7.798   8.379
   80        0.254   0.327   7.798   8.379
tot          97.03  137.39  150.20  384.62

magnetization (x)

# of ion       s       p       d       tot
    1        0.003   0.008   0.000   0.012
    2        0.003   0.008   0.000   0.012
    3        0.003   0.008   0.000   0.012
    4        0.003   0.008   0.000   0.012
    5        0.004   0.011   0.001   0.017
    6        0.004   0.011   0.001   0.017
    7        0.004   0.011   0.001   0.017
    8        0.004   0.011   0.001   0.017
    9        0.004   0.011   0.001   0.017
   10        0.004   0.011   0.001   0.017
   11        0.004   0.011   0.001   0.017
   12        0.004   0.011   0.001   0.017
   13        0.002   0.003  -0.000   0.004
   14        0.002   0.003  -0.000   0.004
   15        0.002   0.003  -0.000   0.004
   16        0.002   0.003  -0.000   0.004
   17        0.002   0.003  -0.000   0.004
   18        0.002   0.003  -0.000   0.004
   19        0.002   0.003  -0.000   0.004
   20        0.002   0.003  -0.000   0.004
   21       -0.013  -0.014  -2.663  -2.691
   22       -0.013  -0.014  -2.663  -2.691
   23        0.008   0.033   0.000   0.041
   24        0.008   0.033   0.000   0.041
   25        0.008   0.033   0.000   0.041
   26        0.008   0.033   0.000   0.041
   27        0.003  -0.049   0.000  -0.046
   28        0.003  -0.049   0.000  -0.046
   29        0.003  -0.049   0.000  -0.046
   30        0.003  -0.049   0.000  -0.046
   31        0.008   0.034   0.000   0.041
   32        0.008   0.034   0.000   0.041
   33        0.008   0.034   0.000   0.041
   34        0.008   0.034   0.000   0.041
   35        0.008   0.034   0.000   0.041
   36        0.008   0.034   0.000   0.041
   37        0.008   0.034   0.000   0.041
   38        0.008   0.034   0.000   0.041
   39        0.010   0.087   0.000   0.098
   40        0.010   0.087   0.000   0.098
   41        0.010   0.087   0.000   0.098
   42        0.010   0.087   0.000   0.098
   43        0.010   0.087   0.000   0.098
   44        0.010   0.087   0.000   0.098
   45        0.010   0.087   0.000   0.098
   46        0.010   0.087   0.000   0.098
   47        0.009   0.013   0.000   0.022
   48        0.009   0.013   0.000   0.022
   49        0.009   0.013   0.000   0.022
   50        0.009   0.013   0.000   0.022
   51        0.009   0.013   0.000   0.022
   52        0.009   0.013   0.000   0.022
   53        0.009   0.013   0.000   0.022
   54        0.009   0.013   0.000   0.022
   55        0.007  -0.021   0.000  -0.014
   56        0.007  -0.021   0.000  -0.014
   57        0.007  -0.021   0.000  -0.014
   58        0.007  -0.021   0.000  -0.014
   59        0.007  -0.021   0.000  -0.014
   60        0.007  -0.021   0.000  -0.014
[...]
   66       -0.000  -0.000   1.454   1.454
   67       -0.000  -0.000   1.454   1.454
   68       -0.000  -0.000   1.454   1.454
   69        0.003   0.002   0.937   0.943
   70        0.003   0.002   0.937   0.943
   71        0.003   0.002   0.937   0.943
   72        0.003   0.002   0.937   0.943
   73        0.000   0.001   0.780   0.781
   74        0.000   0.001   0.780   0.781
   75        0.000   0.001   0.780   0.781
   76        0.000   0.001   0.780   0.781
   77        0.002   0.002   0.888   0.893
   78        0.002   0.002   0.888   0.893
   79        0.002   0.002   0.888   0.893
   80        0.002   0.002   0.888   0.893
tot           0.37    0.97   10.68   12.02