 vasp.5.4.4.18Apr17-6-g9f103f2a35 (build May 12 2020 04:58:55) complex

 MD_VERSION_INFO: Compiled 2020-05-12T11:58:55-UTC in devlin.sd.materialsdesign.
 com:/home/medea2/data/build/wwolf/vasp-gpu5.4.4/13047/x86_64/src/src/build/std
 from svn 13047

 executed on                        Lin64 date 2022.11.17  13:35:22

 INCAR:
 POTCAR:    PAW_PBE Li_sv 10Sep2004
 POTCAR:    PAW_PBE Mn_pv 02Aug2007
 POTCAR:    PAW_PBE O 08Apr2002
 POTCAR:    PAW_PBE Co 02Aug2007
 POTCAR:    PAW_PBE Ni 02Aug2007

 POTCAR:    PAW_PBE Li_sv 10Sep2004

 POTCAR:    PAW_PBE Mn_pv 02Aug2007

 POTCAR:    PAW_PBE O 08Apr2002

 POTCAR:    PAW_PBE Co 02Aug2007

 POTCAR:    PAW_PBE Ni 02Aug2007

 Optimization of the real space projectors (new method)

 maximal supplied QI-value         = 22.11
 optimisation between [QCUT,QGAM] = [ 11.28, 22.77] = [ 35.61,145.23] Ry
 Optimized for a Real-space Cutoff    1.10 Angstroem

   l    n(q)    QCUT    max X(q) W(low)/X(q) W(high)/X(q)  e(spline)
   0      7    11.276    10.506    0.54E-04    0.58E-04    0.16E-07
   0      7    11.276     8.367    0.11E-03    0.14E-03    0.35E-07
   1      7    11.276     8.983    0.23E-03    0.43E-03    0.86E-07
 Optimization of the real space projectors (new method)

[...]

   l    n(q)    QCUT    max X(q) W(low)/X(q) W(high)/X(q)  e(spline)
   2      9    11.376    65.824    0.18E-03    0.28E-04    0.14E-06
   2      9    11.376    61.429    0.18E-03    0.29E-04    0.14E-06
   0     10    11.376    56.174    0.51E-04    0.12E-03    0.20E-06
   0     10    11.376    31.263    0.46E-04    0.11E-03    0.18E-06
   1      9    11.376    19.828    0.23E-03    0.17E-03    0.10E-06
   1      9    11.376    15.139    0.20E-03    0.14E-03    0.89E-07
 Optimization of the real space projectors (new method)

 maximal supplied QI-value         = 16.25
 optimisation between [QCUT,QGAM] = [ 11.38, 22.75] = [ 36.24,144.96] Ry
 Optimized for a Real-space Cutoff    1.47 Angstroem

   l    n(q)    QCUT    max X(q) W(low)/X(q) W(high)/X(q)  e(spline)
   2      9    11.376    60.317    0.17E-03    0.16E-04    0.16E-06
   2      9    11.376    55.921    0.17E-03    0.16E-04    0.17E-06
   0     10    11.376    51.690    0.45E-04    0.60E-04    0.21E-06
   0     10    11.376    30.015    0.37E-04    0.55E-04    0.19E-06
   1     10    11.376    18.849    0.83E-04    0.11E-03    0.92E-07
   1     10    11.376    14.624    0.69E-04    0.92E-04    0.82E-07

  PAW_PBE Li_sv 10Sep2004               :
  PAW_PBE Mn_pv 02Aug2007               :
  PAW_PBE O 08Apr2002                   :
  PAW_PBE Co 02Aug2007                  :
  PAW_PBE Ni 02Aug2007                  :

 POSCAR: ce123913_1
  positions in direct lattice

 METAGGA = SCAN     LMAXTAU =  6    LMIXTAU =  T

 ion  position               nearest neighbor table
   1  0.245  0.997  0.743-   8 2.06  19 2.10  16 2.13  27 2.14  12 2.16  24 2.20
   2  0.754  0.199  0.257-  38 2.01  17 2.03  33 2.07  25 2.09  46 2.11  41 2.16  52 2.79  61 2.83
                            58 2.83
   3  0.247  0.695  0.252-  36 1.97  20 2.00  28 2.09  44 2.13  35 2.18  43 2.22  50 2.77  60 2.82

   4  0.755  0.694  0.748-  37 1.97  21 2.03  34 2.09  29 2.09  45 2.14  42 2.19  50 2.79  60 2.82
                            56 2.84
   5  0.245  0.306  0.244-  23 2.01  32 2.04  39 2.07  31 2.11  47 2.17  40 2.18  51 2.80  61 2.83

   6  0.986  0.998  1.000-   9 1.83  18 1.88  19 1.89  17 1.89  16 1.90   8 1.95  59 2.77  53 2.77
                            52 2.79  52 2.80  53 2.81  58 2.81
   7  0.005  0.501  0.500-  10 1.85  22 1.87  23 1.90  21 1.90  11 1.91  20 1.92  50 2.77  51 2.77
                            60 2.78  51 2.79  61 2.80  50 2.81
   8  0.094  0.996  0.382-  53 1.85  52 1.86   6 1.95   1 2.06
   9  0.883  0.990  0.643-   6 1.83  53 1.85  52 2.05
  10  0.111  0.508  0.859-  50 1.85   7 1.85  51 2.02
  11  0.902  0.503  0.123-  51 1.85  50 1.85   7 1.91
  12  0.402  0.999  0.122-  55 1.85  54 1.86  49 1.92   1 2.16
  13  0.603  0.001  0.872-  54 1.85  55 1.86  49 1.88
  14  0.403  0.499  0.626-  57 1.84  56 1.85  48 1.88
  15  0.602  0.501  0.370-  56 1.84  57 1.85  48 1.88
  16  0.098  0.096  0.872-  52 1.87  58 1.90   6 1.90   1 2.13
  17  0.892  0.104  0.134-  58 1.87  52 1.89   6 1.89   2 2.03
  18  0.890  0.897  0.139-  53 1.86   6 1.88  59 1.88
  19  0.097  0.902  0.868-  53 1.88   6 1.89  59 1.89   1 2.10
  20  0.106  0.603  0.359-  50 1.85  60 1.88   7 1.92   3 2.00
  21  0.900  0.602  0.634-  50 1.86  60 1.86   7 1.90   4 2.03
  22  0.900  0.401  0.623-  61 1.87   7 1.87  51 1.88
  23  0.104  0.397  0.367-  61 1.86   7 1.90  51 1.90   5 2.01
  24  0.400  0.099  0.633-  54 1.85  64 1.88  49 1.89   1 2.20
  25  0.603  0.103  0.362-  64 1.85  54 1.86  49 1.90   2 2.09
  26  0.603  0.898  0.367-  65 1.85  55 1.85  49 1.87
  27  0.402  0.902  0.635-  65 1.86  55 1.87  49 1.87   1 2.14
  28  0.399  0.603  0.135-  62 1.86  56 1.86  48 1.91   3 2.09
  29  0.602  0.602  0.865-  62 1.85  56 1.86  48 1.90   4 2.09
  30  0.602  0.399  0.869-  63 1.85  57 1.85  48 1.87
  31  0.401  0.398  0.136-  63 1.84  57 1.87  48 1.90   5 2.11
  32  0.107  0.207  0.354-  58 1.84  61 1.86  52 2.04   5 2.04
  33  0.898  0.202  0.629-  52 1.86  61 1.86  58 1.89   2 2.07
  34  0.896  0.796  0.640-  59 1.85  53 1.86  60 1.86   4 2.09
  35  0.099  0.801  0.365-  59 1.85  60 1.86  53 1.88   3 2.18
  36  0.110  0.703  0.898-  59 1.84  50 1.86   3 1.97  60 2.02
  37  0.893  0.700  0.102-  59 1.83  50 1.86   4 1.97  60 2.02
  38  0.893  0.292  0.145-  58 1.84  61 1.84   2 2.01  51 2.03
  39  0.100  0.299  0.873-  58 1.86  51 1.87  61 1.88   5 2.07
  40  0.398  0.202  0.136-  64 1.86  63 1.88  54 1.90   5 2.18
  41  0.602  0.200  0.870-  63 1.87  54 1.87  64 1.88   2 2.16
  42  0.604  0.798  0.864-  65 1.86  62 1.87  55 1.89   4 2.19
  43  0.401  0.800  0.134-  65 1.86  62 1.86  55 1.90   3 2.22
  44  0.399  0.701  0.631-  62 1.88  56 1.88  65 1.88   3 2.13
  45  0.602  0.701  0.370-  65 1.86  62 1.88  56 1.89   4 2.14
  46  0.603  0.297  0.362-  63 1.86  64 1.87  57 1.90   2 2.11
  47  0.400  0.301  0.628-  64 1.86  63 1.88  57 1.88   5 2.17
  48  0.501  0.500  1.000-  30 1.87  15 1.88  14 1.88  31 1.90  29 1.90  28 1.91  56 2.77  57 2.77
                            63 2.78  56 2.79  57 2.79  62 2.79
  49  0.505  0.000  0.500-  26 1.87  27 1.87  13 1.88  24 1.89  25 1.90  12 1.92  65 2.77  55 2.77
                            54 2.78  64 2.78  54 2.79  55 2.80
  50  0.004  0.601  0.997-  10 1.85  20 1.85  11 1.85  36 1.86  21 1.86  37 1.86  59 2.76  60 2.77
                             3 2.77   7 2.77  60 2.79  51 2.79   4 2.79   7 2.81
  51  0.998  0.401  0.995-  11 1.85  39 1.87  22 1.88  23 1.90  10 2.02  38 2.03  61 2.77   7 2.77
                             7 2.79  50 2.79  58 2.80   5 2.80  61 2.82
  52  0.996  0.100  0.504-  33 1.86   8 1.86  16 1.87  17 1.89  32 2.04   9 2.05  58 2.77   6 2.79
                             2 2.79  61 2.79   6 2.80  58 2.81  53 2.82
  53  0.990  0.897  0.504-   9 1.85   8 1.85  18 1.86  34 1.86  19 1.88  35 1.88  60 2.75  59 2.76
                             6 2.77  59 2.78   6 2.81  52 2.82
  54  0.500  0.100  0.998-  13 1.85  24 1.85  12 1.86  25 1.86  41 1.87  40 1.90  49 2.78  64 2.78
                            64 2.78  55 2.79  49 2.79  63 2.80
  55  0.505  0.900  0.001-  12 1.85  26 1.85  13 1.86  27 1.87  42 1.89  43 1.90  65 2.77  49 2.77
                            62 2.78  65 2.78  54 2.79  49 2.80
  56  0.501  0.599  0.499-  15 1.84  14 1.85  28 1.86  29 1.86  44 1.88  45 1.89  57 2.77  48 2.77
                            62 2.78  48 2.79  62 2.80  65 2.81   4 2.84
  57  0.505  0.401  0.502-  14 1.84  15 1.85  30 1.85  31 1.87  47 1.88  46 1.90  56 2.77  48 2.77
                            63 2.78  63 2.79  48 2.79  64 2.80
  58  0.999  0.200  0.001-  38 1.84  32 1.84  39 1.86  17 1.87  33 1.89  16 1.90  52 2.77  61 2.77
                            61 2.80  51 2.80  52 2.81   6 2.81   2 2.83
  59  0.998  0.800  0.003-  37 1.83  36 1.84  35 1.85  34 1.85  18 1.88  19 1.89  50 2.76  53 2.76
                             6 2.77  60 2.77  53 2.78  60 2.79
  60  0.001  0.700  0.500-  21 1.86  35 1.86  34 1.86  20 1.88  37 2.02  36 2.02  53 2.75  50 2.77
                            59 2.77   7 2.78  50 2.79  59 2.79   3 2.82   4 2.82
  61  0.001  0.300  0.500-  38 1.84  32 1.86  23 1.86  33 1.86  22 1.87  39 1.88  58 2.77  51 2.77
                            52 2.79   7 2.80  58 2.80  51 2.82   5 2.83   2 2.83
  62  0.501  0.700  0.999-  29 1.85  28 1.86  43 1.86  42 1.87  44 1.88  45 1.88  55 2.78  65 2.78
                            56 2.78  48 2.79  65 2.80  56 2.80
  63  0.500  0.301  0.998-  31 1.84  30 1.85  46 1.86  41 1.87  47 1.88  40 1.88  64 2.77  48 2.78
                            57 2.78  57 2.79  54 2.80  64 2.81
  64  0.500  0.200  0.500-  25 1.85  40 1.86  47 1.86  46 1.87  24 1.88  41 1.88  63 2.77  54 2.78
                            49 2.78  54 2.78  57 2.80  63 2.81
  65  0.501  0.801  0.499-  26 1.85  43 1.86  42 1.86  45 1.86  27 1.86  44 1.88  49 2.77  55 2.77
                            62 2.78  55 2.78  62 2.80  56 2.81

  LATTYP: Found a triclinic cell.
 ALAT       =     4.8216330678
 B/A-ratio  =     3.0514606095
 C/A-ratio  =     3.8568707729
 COS(alpha) =     0.0006716666
 COS(beta)  =     0.4256353343
 COS(gamma) =     0.7669880775

  Lattice vectors:

 A1 = (   0.8259356600,   0.0290117000,  -4.7502772600)
 A2 = (  11.2342847600,   0.0580234000,  -9.5005545200)
 A3 = (  -7.9463790100, -13.8715968700,  -9.5005545200)

Analysis of symmetry for initial positions (statically):
 Subroutine PRICEL returns:
 Original cell was already a primitive cell.

 Routine SETGRP: Setting up the symmetry group for a
 triclinic supercell.

 Subroutine GETGRP returns: Found  1 space group operations
 (whereof  1 operations were pure point group operations)
 out of a pool of  2 trial point group operations.

The static configuration has the point symmetry C_1 .

Analysis of symmetry for dynamics (positions and initial velocities):
 Subroutine PRICEL returns:
 Original cell was already a primitive cell.

[...]

The dynamic configuration has the point symmetry C_1 .

Analysis of structural, dynamic, and magnetic symmetry:
 Subroutine PRICEL returns:
 Original cell was already a primitive cell.

 Routine SETGRP: Setting up the symmetry group for a
 triclinic supercell.

 Subroutine GETGRP returns: Found  1 space group operations
 (whereof  1 operations were pure point group operations)
 out of a pool of  2 trial point group operations.

The magnetic configuration has the point symmetry C_1 .

 Subroutine INISYM returns: Found  1 space group operations
 (whereof  1 operations are pure point group operations),
 and found     1 'primitive' translations

 KPOINTS: Automatic mesh

Automatic generation of k-mesh.
Space group operators:
 irot       det(A)        alpha          n_x          n_y          n_z        tau_x        tau_y        tau_z
    1     1.000000     0.000000     1.000000     0.000000     0.000000     0.000000     0.000000     0.000000

 Subroutine IBZKPT returns following result:

 Found      5 irreducible k-points:

 Following reciprocal coordinates:
[...]
   -.360E+03 0.163E+02 -.330E+02   0.388E+03 -.163E+02 0.362E+02   -.283E+02 0.180E-01 -.325E+01
   -.394E+03 -.556E+02 -.629E+02   0.416E+03 0.572E+02 0.682E+02   -.222E+02 -.161E+01 -.533E+01
   0.356E+03 -.207E+02 0.499E+02   -.378E+03 0.204E+02 -.538E+02   0.221E+02 0.330E+00 0.393E+01
   0.398E+03 0.355E+02 0.406E+02   -.425E+03 -.377E+02 -.452E+02   0.274E+02 0.219E+01 0.461E+01
   -.408E+03 0.409E+02 -.648E+02   0.432E+03 -.433E+02 0.697E+02   -.231E+02 0.243E+01 -.482E+01
   -.372E+03 0.715E+01 -.757E+02   0.393E+03 -.937E+01 0.815E+02   -.218E+02 0.222E+01 -.578E+01
   0.383E+03 0.158E+02 0.784E+02   -.406E+03 -.179E+02 -.835E+02   0.228E+02 0.211E+01 0.515E+01
   0.415E+03 0.308E+02 0.437E+02   -.442E+03 -.311E+02 -.476E+02   0.272E+02 0.286E+00 0.386E+01
   -.372E+03 0.832E+01 -.497E+02   0.394E+03 -.678E+01 0.529E+02   -.220E+02 -.154E+01 -.317E+01
   0.342E+03 0.232E+00 0.875E+02   -.365E+03 0.753E+00 -.937E+02   0.234E+02 -.986E+00 0.619E+01
   -.307E+03 0.456E+02 -.809E+02   0.330E+03 -.492E+02 0.864E+02   -.232E+02 0.355E+01 -.556E+01
   -.331E+03 -.269E+02 -.655E+02   0.359E+03 0.271E+02 0.707E+02   -.283E+02 -.165E+00 -.520E+01
   0.337E+03 -.987E+01 0.802E+02   -.361E+03 0.896E+01 -.850E+02   0.233E+02 0.913E+00 0.480E+01
   0.313E+03 0.624E+02 0.854E+02   -.336E+03 -.660E+02 -.917E+02   0.232E+02 0.367E+01 0.632E+01
   -.318E+03 0.721E+02 -.854E+02   0.341E+03 -.761E+02 0.914E+02   -.233E+02 0.398E+01 -.608E+01
   -.356E+03 -.297E+02 -.729E+02   0.384E+03 0.304E+02 0.785E+02   -.280E+02 -.698E+00 -.559E+01
   0.321E+03 -.521E+02 0.793E+02   -.344E+03 0.560E+02 -.841E+02   0.233E+02 -.392E+01 0.472E+01
   -.365E+03 0.560E+02 -.987E+02   0.386E+03 -.628E+02 0.106E+03   -.208E+02 0.681E+01 -.753E+01
   0.344E+03 -.175E+02 0.268E+02   -.367E+03 0.183E+02 -.282E+02   0.234E+02 -.898E+00 0.137E+01
   0.346E+03 -.540E+01 0.888E+02   -.369E+03 0.623E+01 -.939E+02   0.237E+02 -.823E+00 0.514E+01
   -.369E+03 -.320E+02 -.910E+02   0.392E+03 0.347E+02 0.966E+02   -.235E+02 -.275E+01 -.561E+01
   -.382E+03 -.123E+02 -.437E+01   0.404E+03 0.124E+02 0.743E+00   -.225E+02 -.162E+00 0.362E+01
   0.373E+03 0.193E+02 0.408E+00   -.396E+03 -.205E+02 0.342E+01   0.227E+02 0.118E+01 -.382E+01
   0.353E+03 -.720E+02 0.973E+02   -.374E+03 0.795E+02 -.105E+03   0.210E+02 -.748E+01 0.733E+01
   -.356E+03 0.458E+00 -.332E+02   0.379E+03 -.148E+00 0.352E+02   -.230E+02 -.309E+00 -.192E+01
   0.353E+03 0.255E+02 0.786E+02   -.376E+03 -.275E+02 -.847E+02   0.235E+02 0.208E+01 0.612E+01
   -.332E+03 -.808E+01 -.278E+02   0.357E+03 0.808E+01 0.298E+02   -.246E+02 0.624E-02 -.202E+01
   -.322E+03 -.253E+02 -.712E+02   0.347E+03 0.271E+02 0.769E+02   -.245E+02 -.186E+01 -.567E+01
   0.345E+03 -.380E+02 0.746E+02   -.369E+03 0.409E+02 -.809E+02   0.240E+02 -.290E+01 0.625E+01
   0.349E+03 0.338E+01 0.351E+02   -.373E+03 -.318E+01 -.373E+02   0.238E+02 -.192E+00 0.223E+01
   -.341E+03 0.186E+02 -.310E+02   0.365E+03 -.190E+02 0.330E+02   -.241E+02 0.435E+00 -.198E+01
   -.337E+03 -.475E+02 -.774E+02   0.361E+03 0.502E+02 0.831E+02   -.235E+02 -.271E+01 -.578E+01
   0.344E+03 -.115E+02 0.337E+02   -.368E+03 0.124E+02 -.363E+02   0.242E+02 -.943E+00 0.255E+01
   0.645E-02 0.897E+01 -.839E+00   0.178E+00 -.918E+01 0.848E+00   -.264E+00 0.315E+00 0.120E-01
   -.861E+01 -.135E+02 0.195E+02   0.942E+01 0.133E+02 -.194E+02   -.762E+00 0.322E+00 -.271E+00
   -.142E-03 0.436E+02 -.776E+01   0.363E+00 -.442E+02 0.792E+01   -.378E+00 0.536E+00 -.171E+00
   0.458E+02 0.203E+02 0.127E+02   -.466E+02 -.196E+02 -.132E+02   0.862E+00 -.716E+00 0.528E+00
   -.300E+02 -.319E+02 -.331E+01   0.302E+02 0.321E+02 0.345E+01   -.175E+00 -.212E+00 -.170E+00
   0.856E+01 0.240E+02 0.197E+02   -.979E+01 -.242E+02 -.203E+02   0.124E+01 0.110E+00 0.539E+00
   0.400E+02 0.135E+01 0.235E+01   -.399E+02 -.162E+01 -.239E+01   -.113E+00 0.376E+00 0.852E-01
   -.108E+02 -.123E+01 -.667E+01   0.117E+02 0.126E+01 0.699E+01   -.906E+00 -.179E+00 -.337E+00
   0.107E+01 0.522E+02 -.108E+01   -.116E+01 -.532E+02 0.106E+01   0.742E-01 0.113E+01 0.352E-01
   -.533E+02 -.145E+02 -.116E+02   0.541E+02 0.152E+02 0.119E+02   -.703E+00 -.896E+00 -.383E+00
   -.320E+02 -.678E+01 0.430E+02   0.323E+02 0.699E+01 -.432E+02   -.242E+00 -.340E+00 -.485E-01
   -.240E+02 -.283E+02 -.713E+01   0.240E+02 0.277E+02 0.726E+01   0.903E-01 0.787E+00 -.148E+00
   -.167E+02 -.785E+01 0.183E+01   0.168E+02 0.804E+01 -.185E+01   -.787E-01 -.209E+00 0.176E-01
   -.608E+01 -.263E+01 -.455E+02   0.596E+01 0.264E+01 0.457E+02   0.143E+00 0.804E-02 -.712E-01
   0.719E+01 0.226E+02 0.260E+00   -.727E+01 -.229E+02 -.340E+00   0.856E-01 0.316E+00 0.922E-01
   0.785E+01 -.343E+02 0.265E+02   -.765E+01 0.349E+02 -.269E+02   -.230E+00 -.684E+00 0.396E+00
   0.284E+02 0.153E+02 -.255E+02   -.287E+02 -.158E+02 0.259E+02   0.286E+00 0.490E+00 -.345E+00
   0.270E+02 -.355E+02 0.886E+00   -.269E+02 0.363E+02 -.798E+00   -.182E+00 -.846E+00 -.521E-01
   -.115E+01 -.419E+01 -.116E+00   0.341E-12 0.284E-13 0.177E-12   0.120E+01 0.419E+01 0.156E+00

 POSITION                                       TOTAL-FORCE (eV/Angst)
      1.74692     13.86372      3.52921         0.001024      0.002390      0.002404
      7.01285      2.76282      1.22038        -0.004162     -0.017010      0.007605
      2.17038      9.67814      1.19510         0.003680      0.009123      0.000967
      6.62960      9.64051      3.55370        -0.002625      0.005761     -0.000662
      2.15178      4.25046      1.16019         0.001630      0.005147     -0.001431
      8.63629     13.87836      4.74947         0.002042      0.021225      0.005214
     -0.35720      6.95977      2.37735        -0.006959     -0.004026     -0.020644
      0.59828     13.86771      1.81464         0.002248     -0.002550      0.003066
      7.94767     13.77615      3.05518         0.001912      0.001311      0.006355
      0.36640      7.05131      4.07856        -0.002756      0.000273     -0.003745
      8.54886      6.99920      0.58634        -0.007059      0.004284     -0.001853
      3.76380     13.91257      0.58105         0.000277      0.001018      0.003004
      5.05872     -0.00961      4.14131         0.006025     -0.001260     -0.001348
      3.35048      6.93445      2.97546        -0.004570      0.000128     -0.001342
      5.46881      6.96749      1.75819         0.003158     -0.001156     -0.001920
      0.21878      1.30899      4.14020         0.000844     -0.002570      0.001421
      8.43996      1.44766      0.63741         0.004369     -0.007724      0.004344
      8.42385     12.48611      0.65917        -0.001156      0.001670      0.003528
      0.22872     12.53748      4.12469         0.003257     -0.004480     -0.000455
      0.73254      8.39203      1.70362        -0.000842      0.001869     -0.005514
      8.11132      8.36052      3.01095        -0.005442      0.004387     -0.001357
      8.11244      5.57444      2.95938        -0.004798      0.002855     -0.000297
      0.70132      5.51907      1.74145        -0.002574      0.004015     -0.003266
      3.31179      1.36682      3.00900         0.002268     -0.000897      0.002241
      5.48269      1.43008      1.72152         0.003879     -0.003211      0.000992
      5.49386     12.50410      1.74446         0.004850      0.001170     -0.000124
      3.34642     12.53997      3.01578         0.000663      0.001764      0.000585
      3.72481      8.40165      0.64096        -0.002947      0.001624      0.001450
      5.06591      8.36537      4.10878         0.002967     -0.000981     -0.001439
      5.05446      5.53744      4.12979         0.002597     -0.001407     -0.003037
      3.73406      5.54237      0.64674        -0.001522     -0.003188      0.000797
      0.73750      2.87136      1.68209         0.001871      0.000106      0.000775
      8.08518      2.78868      2.98588        -0.001081     -0.003199      0.004280
      8.06756     11.07023      3.04060        -0.001764      0.003616      0.000434
      0.65549     11.14508      1.73537        -0.000438     -0.000914     -0.002461
      0.32225      9.77277      4.26631        -0.000682     -0.002015     -0.004462
      8.47985      9.74795      0.48665        -0.002648      0.002925     -0.000719
      8.44269      4.06675      0.69114        -0.003968     -0.003462      0.000868
      0.24388      4.14546      4.14571         0.000504      0.000159     -0.001569
      3.70467      2.80628      0.64576         0.002841     -0.000307      0.002144
      5.05063      2.76215      4.13125         0.003476     -0.001778     -0.000019
      5.08927     11.09346      4.10187         0.003898      0.000091      0.000043
      3.74031     11.13848      0.63845        -0.000234     -0.000964      0.002166
      3.31410      9.74277      2.99635        -0.000466     -0.000116      0.001693
      5.47801      9.75246      1.75818         0.003520     -0.001694     -0.000273
      5.48796      4.12792      1.72062         0.001707     -0.001614     -0.000285
      3.32098      4.17306      2.98113         0.002406     -0.002782      0.000814
      3.98054      6.93850      4.74928        -0.001737      0.001323     -0.000887
      4.42929     -0.01264      2.37418        -0.001180     -0.001518      0.001290
     -0.77591      8.34905      4.73489         0.002221      0.001543      0.002092
      8.75011      5.56279      4.72518        -0.001169     -0.000058     -0.000715
      9.12910      1.37240      2.39443         0.002993     -0.003188      0.001470
      9.08920     12.48672      2.39278         0.002954     -0.000288     -0.002770
      3.97168      1.36539      4.74124        -0.002141      0.002705     -0.001682
      4.85553     12.53809      0.00549        -0.001024     -0.002204     -0.000377
      4.39745      8.33477      2.37226        -0.003588      0.003550     -0.000327
      4.43364      5.56897      2.38360        -0.002338     -0.005674      0.000208
      9.57068      2.78963      0.00475         0.002644     -0.003709      0.001675
      9.57220     11.13860      0.01249         0.001474     -0.002012      0.002895
     -0.38995      9.73978      2.37557         0.001965      0.001871     -0.000893
     -0.39821      4.16440      2.37472         0.002059      0.000601      0.001136
      3.98941      9.72820      4.74706        -0.002926      0.000700     -0.000760
      3.97572      4.16079      4.73850        -0.001532     -0.003196     -0.000672
      4.38629      2.77032      2.37334        -0.004998      0.004050     -0.000014
      4.40413     11.14644      2.37235        -0.002897     -0.002101     -0.000637
    total drift:                                0.041719      0.000098      0.039278

  FREE ENERGIE OF THE ION-ELECTRON SYSTEM (eV)
  free  energy   TOTEN  =     -1652.2241319225 eV

  energy  without entropy=    -1652.2239642098  energy(sigma->0) =    -1652.22404807

volume of typ            1:     6.1 %

[...]

volume of typ            5:    16.1 %

total charge

# of ion       s       p       d       tot
    1        2.060   0.203   0.083   2.346
    2        2.079   0.251   0.108   2.438
    3        2.076   0.246   0.104   2.426
    4        2.077   0.247   0.105   2.429
    5        2.073   0.235   0.099   2.407
    6        0.240   6.265   4.567  11.072
    7        0.237   6.262   4.556  11.055
    8        1.273   2.817   0.007   4.097
    9        1.286   2.780   0.007   4.073
   10        1.284   2.784   0.007   4.075
   11        1.282   2.790   0.007   4.080
   12        1.279   2.793   0.007   4.079
   13        1.290   2.759   0.008   4.057
   14        1.289   2.766   0.008   4.063
   15        1.288   2.768   0.008   4.064
   16        1.273   2.815   0.007   4.094
   17        1.274   2.821   0.007   4.101
   18        1.286   2.782   0.007   4.075
   19        1.276   2.812   0.007   4.095
   20        1.274   2.821   0.007   4.102
   21        1.274   2.822   0.007   4.103
   22        1.284   2.788   0.008   4.079
   23        1.274   2.819   0.007   4.099
   24        1.278   2.795   0.007   4.080
   25        1.278   2.797   0.007   4.083
   26        1.289   2.766   0.008   4.063
   27        1.277   2.800   0.007   4.084
   28        1.279   2.794   0.007   4.080
   29        1.279   2.795   0.007   4.081
   30        1.289   2.765   0.008   4.061
   31        1.278   2.796   0.007   4.081
   32        1.281   2.787   0.006   4.075
   33        1.277   2.802   0.007   4.085
   34        1.279   2.801   0.007   4.087
   35        1.279   2.797   0.007   4.083
   36        1.280   2.796   0.007   4.083
   37        1.280   2.796   0.007   4.083
   38        1.283   2.787   0.007   4.077
   39        1.277   2.800   0.007   4.083
   40        1.283   2.781   0.007   4.070
   41        1.281   2.788   0.007   4.076
   42        1.283   2.783   0.007   4.073
   43        1.282   2.784   0.007   4.073
   44        1.281   2.786   0.007   4.073
   45        1.282   2.784   0.007   4.072
   46        1.283   2.782   0.007   4.071
   47        1.281   2.787   0.007   4.075
   48        0.258   0.366   6.821   7.446
   49        0.262   0.372   6.831   7.465
   50        0.303   0.438   7.778   8.519
   51        0.267   0.353   7.804   8.423
   52        0.268   0.354   7.810   8.432
   53        0.296   0.420   7.769   8.485
   54        0.299   0.420   7.774   8.493
   55        0.295   0.412   7.768   8.475
   56        0.301   0.424   7.778   8.503
   57        0.297   0.415   7.771   8.483
   58        0.298   0.421   7.768   8.486
   59        0.303   0.433   7.775   8.510
   60        0.271   0.361   7.811   8.443
   61        0.300   0.427   7.770   8.496
   62        0.297   0.419   7.766   8.482
   63        0.299   0.422   7.771   8.492
   64        0.298   0.419   7.767   8.484
   65        0.300   0.423   7.770   8.493
tot          67.28  132.69  148.01  347.97

magnetization (x)

# of ion       s       p       d       tot
    1        0.000  -0.000  -0.000   0.000
    2        0.001   0.003   0.001   0.005
    3        0.001   0.003   0.001   0.005
    4        0.001   0.003   0.001   0.005
    5        0.001   0.002   0.001   0.004
    6        0.013   0.014   2.664   2.691
    7        0.013   0.014   2.681   2.709
    8        0.002  -0.010   0.000  -0.008
    9        0.008   0.110   0.001   0.118
   10        0.008   0.098   0.001   0.106
   11        0.001  -0.029   0.000  -0.028
   12        0.000  -0.006   0.000  -0.006
   13        0.000  -0.009   0.000  -0.009
   14        0.000  -0.009   0.000  -0.009
   15        0.000  -0.008   0.000  -0.008
   16        0.002  -0.012   0.000  -0.010
   17        0.002   0.014   0.001   0.017
   18        0.001  -0.000   0.000   0.002
   19        0.001   0.004   0.000   0.006
   20        0.002   0.001   0.000   0.003
   21        0.002   0.000   0.000   0.003
   22        0.002  -0.014   0.001  -0.010
   23        0.003   0.015   0.001   0.019
   24        0.000  -0.003   0.000  -0.003
   25        0.000  -0.004   0.000  -0.004
   26        0.000  -0.007   0.000  -0.007
   27        0.000  -0.002   0.000  -0.002
   28        0.000  -0.005   0.000  -0.005
   29        0.000  -0.003   0.000  -0.003
   30        0.000  -0.006   0.000  -0.006
   31        0.000  -0.003   0.000  -0.003
   32        0.007   0.096   0.000   0.104
   33        0.000  -0.026   0.000  -0.026
   34        0.002  -0.016   0.000  -0.014
   35        0.001  -0.018   0.000  -0.016
   36        0.008   0.096   0.000   0.104
   37        0.007   0.086   0.000   0.094
   38        0.007   0.078   0.000   0.085
   39        0.001  -0.021   0.000  -0.021
   40        0.000  -0.002   0.000  -0.002
   41        0.000  -0.004   0.000  -0.003
   42        0.000  -0.004   0.000  -0.003
   43        0.000  -0.003   0.000  -0.003
   44        0.000  -0.002   0.000  -0.002
   45        0.000  -0.003   0.000  -0.003
   46        0.000  -0.003   0.000  -0.003
   47        0.000  -0.004   0.000  -0.004
   48        0.000   0.000  -0.006  -0.006
   49        0.000   0.000  -0.007  -0.006
   50        0.003   0.003  -0.001   0.005
   51        0.008   0.004   0.833   0.845
   52        0.008   0.003   0.844   0.855
   53        0.004   0.004   0.060   0.069
   54        0.000   0.000   0.026   0.027
   55        0.000   0.000   0.033   0.034
   56        0.000   0.000   0.029   0.030
   57        0.000   0.000   0.031   0.031
   58        0.001   0.001   0.000   0.003
   59        0.001   0.002   0.007   0.009
   60        0.006   0.002   0.852   0.860
   61        0.002   0.002   0.003   0.006
   62        0.000   0.000   0.023   0.023
   63        0.000   0.000   0.017   0.018
   64        0.000   0.000   0.030   0.030
   65        0.000   0.000   0.019   0.019
tot           0.14    0.42    8.15    8.71