 vasp.5.4.4.18Apr17-6-g9f103f2a35 (build May 12 2020 04:58:55) complex

 MD_VERSION_INFO: Compiled 2020-05-12T11:58:55-UTC in devlin.sd.materialsdesign.
 com:/home/medea2/data/build/wwolf/vasp-gpu5.4.4/13047/x86_64/src/src/build/std
 from svn 13047

 executed on                        Lin64 date 2022.11.15  22:55:45

 INCAR:
 POTCAR:    PAW_PBE Li_sv 10Sep2004
 POTCAR:    PAW_PBE Ni 02Aug2007
 POTCAR:    PAW_PBE Ta_pv 07Sep2000
 POTCAR:    PAW_PBE Mn_pv 02Aug2007
 POTCAR:    PAW_PBE O 08Apr2002
 POTCAR:    PAW_PBE Co 02Aug2007

 POTCAR:    PAW_PBE Li_sv 10Sep2004

 POTCAR:    PAW_PBE Ni 02Aug2007

 POTCAR:    PAW_PBE Ta_pv 07Sep2000

 POTCAR:    PAW_PBE Mn_pv 02Aug2007

 POTCAR:    PAW_PBE O 08Apr2002

 POTCAR:    PAW_PBE Co 02Aug2007

 Optimization of the real space projectors (new method)

 maximal supplied QI-value         = 22.11
 optimisation between [QCUT,QGAM] = [ 11.28, 22.77] = [ 35.61,145.23] Ry
 Optimized for a Real-space Cutoff    1.10 Angstroem

   l    n(q)    QCUT    max X(q) W(low)/X(q) W(high)/X(q)  e(spline)
   0      7    11.276    10.506    0.54E-04    0.58E-04    0.16E-07
   0      7    11.276     8.367    0.11E-03    0.14E-03    0.35E-07
   1      7    11.276     8.983    0.23E-03    0.43E-03    0.86E-07
 Optimization of the real space projectors (new method)

[...]

   l    n(q)    QCUT    max X(q) W(low)/X(q) W(high)/X(q)  e(spline)
   0      7    11.387    20.381    0.22E-03    0.48E-03    0.18E-06
   0      7    11.387    15.268    0.22E-03    0.52E-03    0.19E-06
   1      7    11.387     5.964    0.22E-03    0.73E-03    0.24E-06
   1      7    11.387     5.382    0.19E-03    0.60E-03    0.21E-06
 Optimization of the real space projectors (new method)

 maximal supplied QI-value         = 16.25
 optimisation between [QCUT,QGAM] = [ 11.38, 22.75] = [ 36.24,144.96] Ry
 Optimized for a Real-space Cutoff    1.43 Angstroem

   l    n(q)    QCUT    max X(q) W(low)/X(q) W(high)/X(q)  e(spline)
   2      9    11.376    65.824    0.18E-03    0.28E-04    0.14E-06
   2      9    11.376    61.429    0.18E-03    0.29E-04    0.14E-06
   0     10    11.376    56.174    0.51E-04    0.12E-03    0.20E-06
   0     10    11.376    31.263    0.46E-04    0.11E-03    0.18E-06
   1      9    11.376    19.828    0.23E-03    0.17E-03    0.10E-06
   1      9    11.376    15.139    0.20E-03    0.14E-03    0.89E-07

  PAW_PBE Li_sv 10Sep2004               :
  PAW_PBE Ni 02Aug2007                  :
  PAW_PBE Ta_pv 07Sep2000               :
  PAW_PBE Mn_pv 02Aug2007               :
  PAW_PBE O 08Apr2002                   :
  PAW_PBE Co 02Aug2007                  :

 POSCAR: ce131292_1
  positions in direct lattice

 METAGGA = SCAN     LMAXTAU =  6    LMIXTAU =  T

 ion  position               nearest neighbor table
   1  0.256  0.013  0.262-  22 2.01  45 2.02  26 2.06  42 2.15  34 2.19  37 2.25  63 2.76   9 2.77
                             7 2.81   6 2.84  20 2.87
   2  0.748  0.979  0.740-  43 1.94  36 2.01  23 2.02  27 2.04  35 2.08  44 2.19   8 2.69   6 2.78
                            63 2.78   7 2.83
   3  0.240  0.294  0.760-  46 2.07  30 2.10  38 2.18  61 2.18  53 2.18  54 2.21
   4  0.991  0.407  0.004-  25 1.84  30 1.85  31 1.86  24 1.86  46 1.87  47 1.87  21 2.75   5 2.75
                            13 2.77  21 2.79  13 2.82  19 2.94
   5  0.016  0.603  0.998-  25 1.83  48 1.85  32 1.86  33 1.86  49 1.87  24 1.87  12 2.74   4 2.75
                            18 2.78  18 2.78  21 2.79  21 2.80
   6  0.014  0.896  0.499-  51 1.85  50 1.85  35 1.86  34 1.86  22 1.86  23 1.87  18 2.73  12 2.77
                             2 2.78  20 2.78  12 2.78  20 2.82   7 2.84   1 2.84
   7  0.986  0.098  0.504-  37 1.87  23 1.88  53 1.88  36 1.90  52 2.02  22 2.04  20 2.81   1 2.81
                            20 2.82   2 2.83   6 2.84  19 2.90  13 2.93  19 2.95
   8  0.496  0.898  0.000-  59 1.85  42 1.85  58 1.86  43 1.86  27 1.88  26 1.89   2 2.69  16 2.78
                            15 2.79  16 2.79  63 2.80  63 2.81   9 2.83
   9  0.512  0.100  0.991-  44 1.85  45 1.86  26 1.86  27 1.86  61 1.88  60 1.92   1 2.77  17 2.79
                            63 2.79  17 2.80  63 2.81  14 2.82   8 2.83
  10  0.506  0.401  0.495-  29 1.84  39 1.85  28 1.85  38 1.88  54 1.89  55 1.89  62 2.79  11 2.79
                            14 2.79  62 2.80  14 2.80  17 2.82
  11  0.497  0.599  0.500-  29 1.85  28 1.86  41 1.87  40 1.87  56 1.87  57 1.88  10 2.79  15 2.79
                            62 2.79  62 2.79  15 2.79  16 2.79
  12  0.018  0.798  0.997-  48 1.83  49 1.85  51 1.86  50 1.86  35 1.87  34 1.91   5 2.74   6 2.77
                            20 2.77  18 2.78  18 2.78   6 2.78
  13  0.980  0.307  0.502-  31 1.84  53 1.86  46 1.92  47 1.94  30 1.98  52 2.02  21 2.77   4 2.77
                             4 2.82  19 2.87  19 2.89   7 2.93
  14  0.514  0.300  0.992-  38 1.84  39 1.85  55 1.85  61 1.89  54 1.89  60 1.93  10 2.79  10 2.80
                            17 2.80  62 2.80  17 2.81   9 2.82
  15  0.496  0.699  1.000-  40 1.85  41 1.85  57 1.87  56 1.87  59 1.88  58 1.88   8 2.79  62 2.79
                            11 2.79  16 2.79  11 2.79  16 2.79
  16  0.495  0.799  0.500-  56 1.85  57 1.85  59 1.86  58 1.86  43 1.88  42 1.90   8 2.78  15 2.79
                             8 2.79  11 2.79  15 2.79  63 2.81
  17  0.518  0.199  0.490-  54 1.85  61 1.85  55 1.86  45 1.89  44 1.89  60 1.91   9 2.79  14 2.80
                             9 2.80  14 2.81  63 2.81  10 2.82
  18  0.018  0.701  0.497-  32 1.85  51 1.85  33 1.85  50 1.86  49 1.86  48 1.87   6 2.73  21 2.77
                            12 2.78  12 2.78   5 2.78   5 2.78
  19  0.910  0.205  0.026-  52 1.84  47 1.91  36 1.96  46 2.10  53 2.12  37 2.25  60 2.59  13 2.87
                            13 2.89   7 2.90   4 2.94   7 2.95  20 3.05
  20  0.006  0.996  0.998-  37 1.86  22 1.86  34 1.88  35 1.89  36 1.91  23 1.92  12 2.77   6 2.78
                             7 2.81   7 2.82   6 2.82   1 2.87  19 3.05
  21  0.009  0.503  0.501-  30 1.88  31 1.88  32 1.89  24 1.89  25 1.89  33 1.90   4 2.75  13 2.77
                            18 2.77   4 2.79   5 2.79   5 2.80
  22  0.115  0.995  0.632-  20 1.86   6 1.86   1 2.01   7 2.04
  23  0.899  0.990  0.378-   6 1.87   7 1.88  20 1.92   2 2.02
  24  0.112  0.498  0.123-   4 1.86   5 1.87  21 1.89
  25  0.902  0.512  0.876-   5 1.83   4 1.84  21 1.89
  26  0.398  0.004  0.879-   9 1.86   8 1.89  63 1.91   1 2.06
  27  0.607  0.996  0.117-   9 1.86   8 1.88  63 1.90   2 2.04
  28  0.398  0.498  0.377-  10 1.85  11 1.86  62 1.88
  29  0.602  0.501  0.623-  10 1.84  11 1.85  62 1.88
  30  0.105  0.402  0.644-   4 1.85  21 1.88  13 1.98   3 2.10
  31  0.891  0.411  0.375-  13 1.84   4 1.86  21 1.88
  32  0.911  0.606  0.367-  18 1.85   5 1.86  21 1.89
  33  0.120  0.602  0.626-  18 1.85   5 1.86  21 1.90
  34  0.119  0.902  0.130-   6 1.86  20 1.88  12 1.91   1 2.19
  35  0.907  0.893  0.866-   6 1.86  12 1.87  20 1.89   2 2.08
  36  0.871  0.080  0.871-   7 1.90  20 1.91  19 1.96   2 2.01
  37  0.083  0.106  0.128-  20 1.86   7 1.87  19 2.25   1 2.25
  38  0.401  0.393  0.868-  14 1.84  10 1.88  62 1.93   3 2.18
  39  0.607  0.401  0.126-  14 1.85  10 1.85  62 1.88
  40  0.599  0.601  0.127-  15 1.85  62 1.87  11 1.87
  41  0.394  0.600  0.872-  15 1.85  11 1.87  62 1.88
  42  0.393  0.902  0.369-   8 1.85  63 1.88  16 1.90   1 2.15
  43  0.601  0.897  0.631-   8 1.86  63 1.87  16 1.88   2 1.94
  44  0.614  0.095  0.623-   9 1.85  63 1.88  17 1.89   2 2.19
  45  0.408  0.103  0.360-   9 1.86  63 1.88  17 1.89   1 2.02
  46  0.074  0.296  0.114-   4 1.87  13 1.92   3 2.07  19 2.10
  47  0.862  0.324  0.877-   4 1.87  19 1.91  13 1.94
  48  0.915  0.702  0.870-  12 1.83   5 1.85  18 1.87
  49  0.122  0.701  0.126-  12 1.85  18 1.86   5 1.87
  50  0.122  0.799  0.626-   6 1.85  12 1.86  18 1.86
  51  0.914  0.798  0.367-   6 1.85  18 1.85  12 1.86
  52  0.850  0.200  0.412-  19 1.84   7 2.02  13 2.02
  53  0.069  0.205  0.647-  13 1.86   7 1.88  19 2.12   3 2.18
  54  0.409  0.296  0.369-  17 1.85  14 1.89  10 1.89   3 2.21
  55  0.615  0.301  0.622-  14 1.85  17 1.86  10 1.89
  56  0.598  0.700  0.627-  16 1.85  15 1.87  11 1.87
  57  0.393  0.700  0.373-  16 1.85  15 1.87  11 1.88
  58  0.392  0.800  0.872-   8 1.86  16 1.86  15 1.88
  59  0.598  0.799  0.128-   8 1.85  16 1.86  15 1.88
  60  0.627  0.199  0.112-  17 1.91   9 1.92  14 1.93  19 2.59
  61  0.411  0.201  0.856-  17 1.85   9 1.88  14 1.89   3 2.18
  62  0.499  0.500  0.999-  40 1.87  41 1.88  29 1.88  39 1.88  28 1.88  38 1.93  10 2.79  15 2.79
                            11 2.79  11 2.79  10 2.80  14 2.80
  63  0.503  0.999  0.497-  43 1.87  44 1.88  42 1.88  45 1.88  27 1.90  26 1.91   1 2.76   2 2.78
                             9 2.79   8 2.80   8 2.81   9 2.81  16 2.81  17 2.81

  LATTYP: Found a triclinic cell.
 ALAT       =    11.2958846956
 B/A-ratio  =     0.4279351510
 C/A-ratio  =     1.2411652914
 COS(alpha) =     0.0003913652
 COS(beta)  =     0.0027963762
 COS(gamma) =     0.5889087565

  Lattice vectors:

 A1 = ( -10.2529004700,   0.0011204500,  -4.7407849300)
 A2 = (  -0.9442485900,   0.0011204500,  -4.7407849300)
 A3 = (  -0.0447256800, -14.0199886800,   0.0000000000)

Analysis of symmetry for initial positions (statically):
 Subroutine PRICEL returns:
 Original cell was already a primitive cell.

 Routine SETGRP: Setting up the symmetry group for a
 triclinic supercell.

 Subroutine GETGRP returns: Found  1 space group operations
 (whereof  1 operations were pure point group operations)
 out of a pool of  2 trial point group operations.

The static configuration has the point symmetry C_1 .

Analysis of symmetry for dynamics (positions and initial velocities):
 Subroutine PRICEL returns:
 Original cell was already a primitive cell.

[...]

The dynamic configuration has the point symmetry C_1 .

Analysis of structural, dynamic, and magnetic symmetry:
 Subroutine PRICEL returns:
 Original cell was already a primitive cell.

 Routine SETGRP: Setting up the symmetry group for a
 triclinic supercell.

 Subroutine GETGRP returns: Found  1 space group operations
 (whereof  1 operations were pure point group operations)
 out of a pool of  2 trial point group operations.

The magnetic configuration has the point symmetry C_1 .

 Subroutine INISYM returns: Found  1 space group operations
 (whereof  1 operations are pure point group operations),
 and found     1 'primitive' translations

 KPOINTS: Automatic mesh

Automatic generation of k-mesh.
Space group operators:
 irot       det(A)        alpha          n_x          n_y          n_z        tau_x        tau_y        tau_z
    1     1.000000     0.000000     1.000000     0.000000     0.000000     0.000000     0.000000     0.000000

 Subroutine IBZKPT returns following result:

 Found      5 irreducible k-points:

 Following reciprocal coordinates:
            Coordinates               Weight
  0.000000  0.000000  0.000000      1.000000
  0.333333  0.000000 -0.000000      2.000000
  0.000000  0.000000  0.333333      2.000000
  0.333333  0.000000  0.333333      2.000000
 -0.333333 -0.000000  0.333333      2.000000

 Following cartesian coordinates:
[...]
   -.665E+02 0.398E+02 0.141E+02   0.664E+02 -.403E+02 -.142E+02   0.851E-01 0.670E+00 0.110E-01
   -.514E+02 0.248E+02 0.138E+02   0.513E+02 -.248E+02 -.137E+02   0.102E+00 0.166E+00 -.345E-01
   0.902E+02 -.538E+01 -.108E+01   -.896E+02 0.507E+01 0.855E+00   -.495E+00 0.193E+00 0.122E+00
   0.498E+02 0.980E+01 -.123E+02   -.495E+02 -.983E+01 0.122E+02   -.243E+00 0.521E-01 0.126E+00
   0.727E+02 -.141E+02 0.458E+00   -.699E+02 0.144E+02 -.628E+00   -.304E+01 -.440E+00 -.622E-01
   -.975E+02 -.102E+03 0.221E+01   0.989E+02 0.102E+03 -.270E+01   -.135E+01 -.564E-01 0.498E+00
   -.392E+02 0.228E+02 0.184E+02   0.392E+02 -.231E+02 -.184E+02   -.675E-01 0.314E+00 -.193E-01
   -.367E+03 -.108E+03 0.101E+03   0.388E+03 0.112E+03 -.105E+03   -.209E+02 -.454E+01 0.471E+01
   0.325E+03 0.277E+02 -.635E+02   -.347E+03 -.294E+02 0.659E+02   0.224E+02 0.170E+01 -.240E+01
   -.388E+03 0.553E+02 0.106E+03   0.416E+03 -.572E+02 -.113E+03   -.277E+02 0.195E+01 0.706E+01
   0.397E+03 -.531E+02 -.105E+03   -.426E+03 0.555E+02 0.111E+03   0.288E+02 -.239E+01 -.562E+01
   0.335E+03 -.398E+02 -.190E+02   -.358E+03 0.398E+02 0.197E+02   0.228E+02 -.167E-01 -.649E+00
   -.283E+03 0.437E+02 0.159E+01   0.306E+03 -.454E+02 -.214E+01   -.229E+02 0.166E+01 0.553E+00
   0.323E+03 0.225E+02 -.406E+02   -.350E+03 -.227E+02 0.452E+02   0.267E+02 0.182E+00 -.456E+01
   -.328E+03 -.391E+02 0.407E+02   0.355E+03 0.403E+02 -.447E+02   -.273E+02 -.114E+01 0.397E+01
   -.390E+03 0.105E+03 0.857E+02   0.412E+03 -.108E+03 -.916E+02   -.221E+02 0.333E+01 0.592E+01
   0.347E+03 -.147E+02 -.515E+02   -.376E+03 0.173E+02 0.572E+02   0.281E+02 -.255E+01 -.573E+01
   0.426E+03 -.536E+02 -.635E+02   -.454E+03 0.550E+02 0.680E+02   0.287E+02 -.139E+01 -.454E+01
   -.369E+03 0.303E+01 0.574E+02   0.397E+03 -.354E+01 -.624E+02   -.284E+02 0.506E+00 0.502E+01
   -.353E+03 0.326E+02 0.655E+02   0.377E+03 -.357E+02 -.717E+02   -.248E+02 0.313E+01 0.622E+01
   0.376E+03 0.110E+03 -.768E+02   -.400E+03 -.114E+03 0.829E+02   0.239E+02 0.385E+01 -.611E+01
   0.247E+03 -.314E+02 -.483E+02   -.268E+03 0.233E+02 0.494E+02   0.205E+02 0.812E+01 -.110E+01
   -.356E+03 -.208E+03 0.878E+02   0.376E+03 0.219E+03 -.955E+02   -.201E+02 -.111E+02 0.770E+01
   0.343E+03 -.267E+02 -.956E+02   -.365E+03 0.303E+02 0.101E+03   0.226E+02 -.365E+01 -.583E+01
   -.275E+03 -.788E+02 0.644E+02   0.302E+03 0.815E+02 -.704E+02   -.271E+02 -.277E+01 0.597E+01
   -.355E+03 0.881E+01 0.785E+02   0.382E+03 -.926E+01 -.835E+02   -.273E+02 0.442E+00 0.502E+01
   0.289E+03 0.489E+02 -.685E+02   -.316E+03 -.499E+02 0.736E+02   0.267E+02 0.101E+01 -.510E+01
   0.275E+03 -.146E+01 -.882E+02   -.298E+03 -.694E+00 0.954E+02   0.229E+02 0.215E+01 -.716E+01
   -.300E+03 0.625E+02 0.951E+02   0.320E+03 -.661E+02 -.102E+03   -.209E+02 0.359E+01 0.667E+01
   -.232E+03 0.162E+02 0.802E+02   0.256E+03 -.157E+02 -.872E+02   -.233E+02 -.483E+00 0.699E+01
   0.360E+03 -.605E+02 -.990E+02   -.381E+03 0.641E+02 0.105E+03   0.211E+02 -.360E+01 -.652E+01
   -.356E+03 0.985E+02 0.572E+02   0.379E+03 -.104E+03 -.599E+02   -.223E+02 0.531E+01 0.274E+01
   0.252E+03 -.535E+02 -.337E+02   -.277E+03 0.673E+02 0.310E+02   0.249E+02 -.138E+02 0.273E+01
   0.416E+03 0.102E+02 -.783E+02   -.445E+03 -.105E+02 0.833E+02   0.294E+02 0.321E+00 -.500E+01
   -.329E+03 0.257E+02 0.657E+02   0.359E+03 -.267E+02 -.712E+02   -.291E+02 0.921E+00 0.550E+01
   -.332E+03 0.221E+02 0.646E+02   0.361E+03 -.223E+02 -.702E+02   -.289E+02 0.243E+00 0.559E+01
   0.407E+03 0.496E+02 -.739E+02   -.436E+03 -.504E+02 0.789E+02   0.289E+02 0.844E+00 -.501E+01
   0.175E+03 -.131E+02 -.929E+02   -.191E+03 0.123E+02 0.113E+03   0.160E+02 0.839E+00 -.206E+02
   -.365E+03 -.288E+01 0.408E+02   0.387E+03 0.153E+01 -.427E+02   -.223E+02 0.136E+01 0.184E+01
   0.398E+03 0.687E-01 -.498E+02   -.422E+03 0.124E+00 0.523E+02   0.232E+02 -.191E+00 -.244E+01
   -.260E+03 -.563E+02 0.582E+02   0.287E+03 0.584E+02 -.646E+02   -.267E+02 -.206E+01 0.634E+01
   -.382E+03 0.239E+02 0.745E+02   0.410E+03 -.246E+02 -.798E+02   -.274E+02 0.691E+00 0.530E+01
   0.287E+03 0.305E+02 -.563E+02   -.314E+03 -.314E+02 0.617E+02   0.271E+02 0.932E+00 -.545E+01
   0.293E+03 0.184E+02 -.550E+02   -.320E+03 -.194E+02 0.605E+02   0.269E+02 0.101E+01 -.554E+01
   -.376E+03 0.491E+02 0.681E+02   0.403E+03 -.506E+02 -.735E+02   -.270E+02 0.146E+01 0.531E+01
   -.216E+03 -.140E+02 0.493E+02   0.232E+03 0.141E+02 -.536E+02   -.161E+02 -.117E+00 0.428E+01
   0.402E+03 -.490E+01 -.965E+02   -.424E+03 0.372E+01 0.103E+03   0.223E+02 0.118E+01 -.640E+01
   0.197E+02 0.141E+01 0.267E+01   -.195E+02 -.733E+00 -.260E+01   -.345E+00 -.829E+00 -.121E+00
   0.453E+02 -.438E-01 -.941E+01   -.454E+02 -.337E+00 0.940E+01   0.236E-01 0.406E+00 0.292E-01
   0.833E+01 0.450E+01 -.158E+01   0.192E-12 -.561E-12 -.497E-13   -.838E+01 -.444E+01 0.149E+01

 POSITION                                       TOTAL-FORCE (eV/Angst)
      2.62836      0.18425      1.24202         0.001210     -0.001729      0.002107
      7.70763     13.72403      3.50132         0.006662     -0.005624      0.001781
      2.96597      4.12499      3.60359        -0.000037     -0.002812      0.002135
      9.24341      5.71359      0.01235        -0.008085      0.012119      0.000961
      1.12251      8.45310      4.72898        -0.009102      0.007129      0.002021
      0.64982     12.55959      2.36565         0.007086     -0.010295     -0.003711
      9.65769      1.37329      2.38456         0.001793     -0.000905     -0.006020
      4.65952     12.58638     -0.00095         0.010884      0.000792      0.000261
      5.70763      1.39416      4.69349        -0.008727     -0.002568      0.003690
      5.19930      5.61719      2.34468        -0.010473     -0.002167      0.002191
      5.12433      8.40344      2.36686         0.000317      0.003372      0.002044
      1.15342     11.19309      4.72484         0.008214     -0.005001     -0.005565
      9.60350      4.30582      2.37496        -0.001574      0.008538      0.001819
      5.73184      4.21203      4.70070        -0.014594     -0.003908      0.000275
      5.59084      9.79732      4.73620         0.006685      0.000669      0.000358
      5.11935     11.19615      2.36720         0.011662      0.000212      0.000572
      5.29330      2.79554      2.31833        -0.014647     -0.003176      0.005034
      0.67158      9.82629      2.35489         0.000055     -0.001787      0.000132
      8.50253      2.87073      0.11560         0.004364     -0.016025     -0.010882
      1.04870     13.96580      4.72978         0.008010      0.006564      0.003195
      0.58572      7.05507      2.37371        -0.005090      0.009854     -0.004986
      1.71691     13.95042      2.99058         0.001884     -0.009896     -0.002404
      8.76343     13.87860      1.78841        -0.000364     -0.009423      0.000035
      1.17750      6.98575      0.58139        -0.004234      0.007409     -0.004931
      9.24563      7.17357      4.14559        -0.010075      0.005902     -0.000771
      4.53708      0.04928      4.16347         0.002309     -0.004407      0.003137
      5.80756     13.96798      0.55263         0.008813      0.005143     -0.001432
      4.07871      6.97771      1.78339        -0.005996      0.003187      0.003870
      6.21835      7.02737      2.95197        -0.000034     -0.005332     -0.000930
      1.60593      5.63140      3.05352        -0.005207      0.004751      0.002685
      8.65877      5.76673      1.77315        -0.008244      0.007218      0.006552
      8.85110      8.49753      1.73784        -0.008003      0.003341      0.005932
      1.73677      8.43954      2.96884        -0.000484     -0.002121      0.004697
      1.27719     12.64519      0.61661         0.006730     -0.006721     -0.007888
      9.29841     12.52031      4.09842         0.007011     -0.001312     -0.001570
      8.93531      1.12458      4.12216         0.004292      0.005411     -0.003020
      0.89827      1.48329      0.60720         0.006876     -0.001140     -0.002558
      4.56835      5.50978      4.11031        -0.007664     -0.000718      0.002073
      5.78852      5.62622      0.59312        -0.002350     -0.005202     -0.002462
      5.72212      8.42588      0.59684         0.004152     -0.005683     -0.000922
      4.52108      8.41420      4.13324        -0.002296      0.004586      0.002691
      4.05014     12.64029      1.74735         0.008014      0.000433      0.001895
      6.23233     12.58090      2.98506         0.012090      0.001810     -0.002762
      6.30978      1.33566      2.94881         0.001244      0.005467      0.000289
      4.13833      1.43862      1.70344        -0.003106     -0.003626      0.005328
      0.80919      4.14488      0.53911         0.000288      0.010334     -0.002674
      8.86010      4.54293      4.15337        -0.008174      0.004694      0.005018
      9.37205      9.84818      4.12105        -0.004923      0.004379      0.002049
      1.28877      9.82901      0.59728         0.002159     -0.009216     -0.000443
      1.76311     11.20638      2.96521         0.006149     -0.009408     -0.007842
      8.88454     11.19287      1.73368         0.001715     -0.005136     -0.003891
      8.30604      2.81145      1.94624        -0.003097      0.009280      0.001010
      1.26760      2.87072      3.06645         0.000153      0.006442     -0.008192
      4.16742      4.15105      1.74500        -0.007746     -0.000152      0.002425
      6.32368      4.21713      2.94551        -0.005459     -0.003359     -0.001083
      6.19464      9.81667      2.96756         0.008097     -0.004869     -0.001352
      4.04095      9.81711      1.76396         0.004350      0.004587      0.001945
      4.51235     11.21849      4.12937         0.008032      0.003120      0.002831
      5.72709     11.20617      0.60513         0.012052     -0.002227     -0.002889
      5.94962      2.79032      0.52959        -0.003572     -0.000047     -0.000137
      4.64275      2.81341      4.05521        -0.008315     -0.001410      0.004567
      5.61287      7.00936      4.73340        -0.007059     -0.000887      0.001025
      5.19267     14.00577      2.35132         0.005377      0.001543      0.002685
    total drift:                               -0.049799      0.066482     -0.082960

  FREE ENERGIE OF THE ION-ELECTRON SYSTEM (eV)
  free  energy   TOTEN  =     -1783.1783653884 eV

  energy  without entropy=    -1783.1783653884  energy(sigma->0) =    -1783.17836539

 d Force = 0.1300314E-03[ 0.133E-03, 0.127E-03]  d Energy = 0.1659979E-03-0.360E-04
 d Force = 0.1609265E+01[ 0.161E+01, 0.161E+01]  d Ewald  = 0.3048341E+01-0.144E+01

 Quasi-Newton relaxation of ions (Broydens 2nd method)
  g(Force)  = 0.282E-03   g(Stress)= 0.881E-04

 retain information from N=  4 steps
 eigenvalues of (default step * inverse Hessian matrix)
  average eigenvalue of G=   2.1201
 eigenvalue spectrum of G is  0.2098  0.2710  3.9998  3.9998

 reached required accuracy - stopping structural energy minimisation

volume of typ            1:     3.8 %

[...]

volume of typ            6:     2.1 %

total charge

# of ion       s       p       d       tot
    1        2.071   0.236   0.100   2.407
    2        2.089   0.286   0.128   2.503
    3        2.056   0.190   0.076   2.322
    4        0.297   0.428   7.778   8.502
    5        0.299   0.425   7.770   8.494
    6        0.302   0.433   7.779   8.514
    7        0.261   0.347   7.818   8.425
    8        0.301   0.423   7.775   8.499
    9        0.295   0.413   7.771   8.479
   10        0.298   0.414   7.773   8.485
   11        0.297   0.414   7.765   8.476
   12        0.298   0.419   7.766   8.483
   13        0.259   0.350   7.813   8.423
   14        0.294   0.407   7.768   8.469
   15        0.298   0.416   7.765   8.478
   16        0.295   0.411   7.756   8.462
   17        0.292   0.405   7.757   8.453
   18        0.301   0.428   7.771   8.500
   19        0.280   6.152   1.971   8.403
   20        0.240   6.270   4.576  11.085
   21        0.240   6.269   4.565  11.075
   22        1.275   2.814   0.006   4.095
   23        1.275   2.819   0.007   4.101
   24        1.288   2.773   0.008   4.069
   25        1.289   2.782   0.008   4.079
   26        1.277   2.792   0.007   4.076
   27        1.277   2.799   0.007   4.083
   28        1.286   2.769   0.008   4.063
   29        1.287   2.769   0.008   4.064
   30        1.277   2.810   0.006   4.093
   31        1.286   2.789   0.008   4.083
   32        1.289   2.779   0.008   4.076
   33        1.289   2.775   0.008   4.072
   34        1.280   2.800   0.007   4.087
   35        1.278   2.813   0.007   4.098
   36        1.269   2.877   0.007   4.152
   37        1.273   2.817   0.006   4.097
   38        1.280   2.786   0.007   4.072
   39        1.289   2.769   0.008   4.065
   40        1.288   2.767   0.008   4.062
   41        1.287   2.769   0.008   4.063
   42        1.278   2.796   0.007   4.081
   43        1.273   2.817   0.007   4.097
   44        1.279   2.799   0.007   4.085
   45        1.274   2.810   0.007   4.091
   46        1.273   2.821   0.006   4.101
   47        1.283   2.829   0.008   4.120
   48        1.295   2.753   0.008   4.056
   49        1.294   2.750   0.008   4.053
   50        1.294   2.754   0.008   4.056
   51        1.292   2.762   0.008   4.062
   52        1.282   2.843   0.008   4.133
   53        1.271   2.823   0.007   4.101
   54        1.280   2.786   0.007   4.073
   55        1.292   2.756   0.007   4.056
   56        1.290   2.757   0.008   4.055
   57        1.291   2.757   0.007   4.055
   58        1.290   2.760   0.007   4.057
   59        1.290   2.762   0.008   4.059
   60        1.275   2.782   0.006   4.062
   61        1.281   2.787   0.007   4.074
   62        0.262   0.372   6.826   7.460
   63        0.262   0.373   6.836   7.470
tot          63.20  137.85  141.99  343.04

magnetization (x)

# of ion       s       p       d       tot
    1       -0.000  -0.001  -0.000  -0.002
    2        0.000  -0.000  -0.000   0.000
    3        0.000   0.000  -0.000   0.001
    4        0.004   0.004   0.013   0.021
    5        0.004   0.004   0.030   0.038
    6        0.004   0.004   0.023   0.030
    7        0.008   0.004   0.878   0.890
    8        0.000   0.000   0.005   0.005
    9        0.000   0.000   0.021   0.022
   10        0.000   0.000   0.004   0.004
   11        0.000   0.000   0.002   0.002
   12        0.001   0.001   0.006   0.009
   13        0.004   0.003   0.848   0.855
   14        0.000   0.000   0.018   0.019
   15        0.000   0.000   0.001   0.001
   16        0.000   0.000   0.001   0.001
   17        0.000   0.000   0.005   0.005
   18        0.002   0.002   0.027   0.030
   19        0.002   0.003   0.021   0.026
   20        0.013   0.014   2.653   2.680
   21        0.014   0.014   2.673   2.702
   22        0.008   0.117   0.001   0.126
   23        0.002  -0.007   0.000  -0.004
   24        0.001   0.002   0.000   0.004
   25        0.001  -0.000   0.000   0.002
   26        0.000  -0.001   0.000  -0.001
   27       -0.000  -0.003   0.000  -0.003
   28        0.000  -0.000   0.000  -0.000
   29       -0.000  -0.001   0.000  -0.001
   30        0.007   0.108   0.001   0.115
   31        0.002  -0.033   0.000  -0.030
   32        0.001  -0.001   0.000   0.000
   33        0.002   0.005   0.000   0.007
   34        0.001   0.005   0.000   0.007
   35        0.001   0.006   0.000   0.008
   36        0.002  -0.007   0.001  -0.005
   37        0.003   0.030   0.001   0.034
   38        0.000  -0.001   0.000  -0.001
   39       -0.000  -0.003   0.000  -0.003
   40        0.000  -0.000   0.000  -0.000
   41        0.000  -0.001   0.000  -0.001
   42        0.000  -0.001   0.000  -0.000
   43        0.000   0.000   0.000   0.000
   44        0.000  -0.003   0.000  -0.003
   45        0.000  -0.000   0.000   0.000
   46        0.003   0.033   0.000   0.036
   47        0.003   0.017   0.000   0.020
   48        0.000   0.007  -0.000   0.008
   49        0.000   0.005  -0.000   0.005
   50        0.000   0.004   0.000   0.005
   51        0.000   0.002   0.000   0.002
   52        0.010   0.110   0.001   0.121
   53        0.001  -0.062   0.000  -0.061
   54        0.000  -0.000   0.000  -0.000
   55        0.000  -0.004   0.000  -0.004
   56        0.000  -0.000   0.000  -0.000
   57        0.000  -0.000   0.000  -0.000
   58        0.000  -0.000   0.000  -0.000
   59        0.000  -0.000   0.000  -0.000
   60        0.000  -0.002   0.000  -0.002
   61        0.000  -0.002   0.000  -0.002
   62        0.000   0.000  -0.002  -0.002
   63        0.000   0.000  -0.002  -0.002
tot           0.11    0.37    7.23    7.71