 vasp.5.4.4.18Apr17-6-g9f103f2a35 (build May 12 2020 04:58:55) complex

 MD_VERSION_INFO: Compiled 2020-05-12T11:58:55-UTC in devlin.sd.materialsdesign.
 com:/home/medea2/data/build/wwolf/vasp-gpu5.4.4/13047/x86_64/src/src/build/std
 from svn 13047

 executed on                        Lin64 date 2023.03.25  01:03:59

 INCAR:
 POTCAR:    PAW_PBE Ni 02Aug2007
 POTCAR:    PAW_PBE O 08Apr2002

 POTCAR:    PAW_PBE Ni 02Aug2007

 POTCAR:    PAW_PBE O 08Apr2002

 Optimization of the real space projectors (new method)

 maximal supplied QI-value         = 16.25
 optimisation between [QCUT,QGAM] = [ 11.38, 22.75] = [ 36.24,144.96] Ry
 Optimized for a Real-space Cutoff    1.47 Angstroem

   l    n(q)    QCUT    max X(q) W(low)/X(q) W(high)/X(q)  e(spline)
   2      9    11.376    60.317    0.17E-03    0.16E-04    0.16E-06
   2      9    11.376    55.921    0.17E-03    0.16E-04    0.17E-06
   0     10    11.376    51.690    0.45E-04    0.60E-04    0.21E-06
   0     10    11.376    30.015    0.37E-04    0.55E-04    0.19E-06
   1     10    11.376    18.849    0.83E-04    0.11E-03    0.92E-07
   1     10    11.376    14.624    0.69E-04    0.92E-04    0.82E-07
 Optimization of the real space projectors (new method)

 maximal supplied QI-value         = 24.76
 optimisation between [QCUT,QGAM] = [ 11.39, 22.77] = [ 36.31,145.25] Ry
 Optimized for a Real-space Cutoff    1.10 Angstroem

   l    n(q)    QCUT    max X(q) W(low)/X(q) W(high)/X(q)  e(spline)
   0      7    11.387    20.381    0.22E-03    0.48E-03    0.18E-06
   0      7    11.387    15.268    0.22E-03    0.52E-03    0.19E-06
   1      7    11.387     5.964    0.22E-03    0.73E-03    0.24E-06
   1      7    11.387     5.382    0.19E-03    0.60E-03    0.21E-06

  PAW_PBE Ni 02Aug2007                  :
  PAW_PBE O 08Apr2002                   :

 POSCAR: Ni2O3_Cmcm_scale_1_050_disp_0_20_round_1
  positions in direct lattice
 exchange correlation table for  LEXCH =       14
   RHO(1)=    0.500       N(1)  =     2000
   RHO(2)=  100.500       N(2)  =     4000

 ion  position               nearest neighbor table
   1  0.959  0.338  0.035-  52 2.11  55 2.14  62 2.15 104 2.20  56 2.39 110 2.41   7 2.85  47 2.96

   2  0.139  0.102  0.918-  51 1.47  50 2.09  55 2.17  74 2.22  79 2.23  18 2.90  32 2.93
   3  0.025  0.369  0.421-  53 1.88  61 2.08  57 2.09  58 2.35 105 2.44  19 2.49  12 2.58  14 2.73
                             4 3.07
   4  0.175  0.131  0.505-  73 1.61  57 1.74  82 2.11  49 2.38  54 2.51  22 2.75  19 2.88   6 2.91
                            20 2.99   5 3.05   3 3.07
   5  0.144  0.383  0.611-  90 1.69  59 1.82  61 1.90  66 2.14  82 2.33  58 2.38  12 2.81   4 3.05

   6  0.007  0.073  0.348-  57 1.84  65 1.89  49 1.91  60 2.03 113 2.29 105 2.35  22 2.87   4 2.91

[...]

   9  0.151  0.833  0.027-  50 1.96  68 2.13  74 2.31  64 2.42  92 2.50  25 2.98
  10  0.021  0.612  0.887-  63 1.48  67 1.91  16 2.13  62 2.19 115 2.50  26 2.72   8 2.74
  11  0.151  0.806  0.446-  70 1.72  69 1.92  65 2.13  93 2.14  14 2.54  12 2.82  27 2.90  28 2.96
                            29 3.01  13 3.01
  12  0.009  0.582  0.512-  69 1.79  61 1.85  66 1.99  70 2.21 109 2.39   3 2.58  14 2.67   5 2.81
                            11 2.82
  13  0.010  0.888  0.615-  71 2.04  54 2.16  70 2.23 102 2.28  29 2.92  11 3.01
  14  0.158  0.592  0.362-  72 1.64  93 1.75  69 1.75  53 2.04  77 2.11  61 2.48  11 2.54  12 2.67
                             3 2.73  19 2.84  30 3.00
  15  0.143  0.559  0.135-  76 1.72  52 1.76  68 1.83  92 2.15  62 2.28  72 2.31  47 2.69  31 2.86
                            17 3.04
  16  0.987  0.804  0.836-  71 1.78 115 1.93  67 1.96  10 2.13  32 2.75  48 3.08
  17  0.318  0.328  0.065-  56 1.65  76 1.80  80 2.08  86 2.43  23 2.59  33 2.78  31 2.83  15 3.04

  18  0.454  0.117  0.932-  74 2.07  98 2.13  80 2.27  79 2.40  75 2.43   2 2.90  34 3.04
  19  0.297  0.359  0.421-  77 1.86  61 2.05  85 2.06  82 2.19  81 2.29  57 2.30   3 2.49  22 2.82
                            14 2.84   4 2.88  35 2.93  21 3.05
  20  0.497  0.149  0.535-  78 1.27  82 1.91 106 1.95  73 2.05  81 2.05  97 2.21  36 2.47  21 2.59
                            35 2.72   4 2.99
  21  0.506  0.396  0.574-  85 1.46 106 1.89 114 1.98  82 2.10  35 2.27  90 2.37  83 2.45  20 2.59
                            37 2.64  44 2.69  28 2.73  19 3.05
  22  0.319  0.105  0.349-  57 2.08  84 2.14  81 2.14  89 2.21  73 2.27  65 2.38   4 2.75  19 2.82
                             6 2.87  38 2.93
  23  0.320  0.098  0.137-  84 1.49  88 1.82  56 2.07  80 2.07  74 2.21  64 2.32  17 2.59  39 2.83
                             7 2.93
  24  0.444  0.406  0.829-  87 1.53  83 1.95 111 2.13  79 2.17 103 2.24  26 2.36  86 2.48   8 2.69

[...]

  27  0.466  0.806  0.420- 117 1.72  89 1.76  93 1.95  94 2.00  30 2.60  28 2.82  43 2.84  11 2.90
                            44 3.08
  28  0.347  0.614  0.532-  94 1.32  85 1.98  70 2.20  90 2.20  61 2.24  29 2.38  21 2.73  27 2.82
                            44 2.84  11 2.96
  29  0.316  0.808  0.616-  95 1.51  94 1.88  70 1.89  28 2.38  13 2.92  11 3.01
  30  0.481  0.595  0.326-  96 1.55  77 1.73 101 1.89  93 2.01 117 2.02  27 2.60  31 2.88  46 2.96
                            14 3.00
  31  0.456  0.549  0.141-  92 1.88 100 1.98  96 2.07  76 2.10  86 2.52  17 2.83  15 2.86  30 2.88
                            25 2.89  33 3.08
  32  0.274  0.884  0.823-  67 1.90  95 2.11  75 2.21  91 2.37  51 2.39  16 2.75   2 2.93
  33  0.622  0.323  0.051-  80 1.85 100 2.13 104 2.17 110 2.29  86 2.44  39 2.76  17 2.78  31 3.08

[...]

  38  0.636  0.071  0.335- 108 1.85 113 2.12  89 2.14  81 2.31 105 2.47  22 2.93  36 3.04
  39  0.628  0.078  0.128- 108 1.82  80 1.94  88 1.97 104 2.08 112 2.18  98 2.34  33 2.76  23 2.83

  40  0.790  0.370  0.835- 103 1.71 111 2.03 107 2.12  63 2.39  55 2.45  34 2.78
  41  0.765  0.807  0.060- 116 1.43 112 1.50  25 2.69  47 2.77  42 3.03
  42  0.637  0.625  0.923- 115 2.06 110 2.13  91 2.16  86 2.32 116 2.40  48 2.88  25 2.97  26 2.99
                            41 3.03
  43  0.776  0.806  0.418- 117 1.82 118 1.87 113 1.97  46 2.61  44 2.78  27 2.84  45 2.96
  44  0.657  0.609  0.521- 114 1.69 118 1.83 109 1.93 117 2.11  94 2.34  85 2.46  21 2.69  43 2.78
                            28 2.84  45 2.84  35 2.89  46 3.06  27 3.08
  45  0.666  0.864  0.595-  97 1.76 102 1.80 118 1.85 119 1.85  44 2.84  43 2.96  36 2.98
  46  0.803  0.578  0.342- 101 1.85 120 2.05 109 2.32 117 2.34  69 2.40  43 2.61  30 2.96  44 3.06

  47  0.849  0.569  0.132- 120 1.61  52 1.78  68 2.15 100 2.25 116 2.30 110 2.41  15 2.69  41 2.77
                             1 2.96
  48  0.658  0.864  0.824- 115 1.87  99 1.94 119 2.10  75 2.26  91 2.48  42 2.88  16 3.08
  49  0.976  0.996  0.461-   6 1.91   4 2.38  36 2.45
  50  0.019  0.981  0.002-   9 1.96   2 2.09
  51  0.108  0.066  0.827-   2 1.47  32 2.39
  52  0.992  0.453  0.148-  15 1.76  47 1.78   1 2.11
  53  0.050  0.436  0.308-   3 1.88  14 2.04
  54  0.129  0.058  0.659-  13 2.16   4 2.51
  55  0.009  0.279  0.904-   8 2.07   1 2.14   2 2.17  40 2.45
  56  0.179  0.227  0.076-  17 1.65  23 2.07   7 2.24   1 2.39
  57  0.133  0.190  0.401-   4 1.74   6 1.84  22 2.08   3 2.09  19 2.30
  58  0.949  0.260  0.549-  37 1.96  36 2.30   3 2.35   5 2.38
  59  0.173  0.308  0.718-   5 1.82   8 1.86
  60  0.999  0.197  0.244-   7 1.74   6 2.03
  61  0.168  0.470  0.503-  12 1.85   5 1.90  19 2.05   3 2.08  28 2.24  14 2.48
  62  0.104  0.492  0.995-   1 2.15  10 2.19  15 2.28
  63  0.998  0.511  0.819-  10 1.48   8 1.89  40 2.39
  64  0.184  0.914  0.174-  23 2.32   9 2.42
  65  0.143  0.934  0.336-   6 1.89  11 2.13  22 2.38
  66  0.000  0.543  0.639-  12 1.99   5 2.14
  67  0.180  0.726  0.858-  32 1.90  10 1.91  16 1.96  26 2.01
  68  0.029  0.666  0.068-  15 1.83   9 2.13  47 2.15
  69  0.013  0.674  0.412-  14 1.75  12 1.79  11 1.92  46 2.40
  70  0.156  0.743  0.550-  11 1.72  29 1.89  28 2.20  12 2.21  13 2.23
  71  0.990  0.770  0.722-  16 1.78  13 2.04
  72  0.147  0.667  0.267-  14 1.64  15 2.31
  73  0.320  0.044  0.491-   4 1.61  20 2.05  22 2.27
  74  0.305  0.010  0.005-  18 2.07  23 2.21   2 2.22   9 2.31
  75  0.471  0.002  0.794-  32 2.21  48 2.26  18 2.43
  76  0.266  0.435  0.154-  15 1.72  17 1.80  31 2.10
  77  0.346  0.478  0.333-  30 1.73  19 1.86  14 2.11
  78  0.499  0.086  0.606-  20 1.27
  79  0.279  0.268  0.872-   8 1.83  24 2.17   2 2.23  18 2.40
  80  0.487  0.191  0.071-  33 1.85  39 1.94  23 2.07  17 2.08  18 2.27
  81  0.490  0.218  0.408-  35 1.87  20 2.05  22 2.14  19 2.29  38 2.31
  82  0.334  0.265  0.548-  20 1.91  21 2.10   4 2.11  19 2.19   5 2.33
  83  0.477  0.307  0.722-  24 1.95  21 2.45
  84  0.336  0.177  0.218-  23 1.49  22 2.14
  85  0.454  0.456  0.493-  21 1.46  35 1.96  28 1.98  19 2.06  44 2.46
  86  0.462  0.485  0.981-  26 2.13  42 2.32  17 2.43  33 2.44  24 2.48  31 2.52
  87  0.341  0.519  0.804-  24 1.53  26 1.54   8 2.22
  88  0.454  0.967  0.140-  23 1.82  39 1.97  25 2.27
  89  0.462  0.931  0.340-  27 1.76  38 2.14  22 2.21
  90  0.289  0.478  0.639-   5 1.69  28 2.20  21 2.37
  91  0.448  0.736  0.881-  26 1.99  42 2.16  32 2.37  48 2.48
  92  0.326  0.667  0.086-  31 1.88  25 1.96  15 2.15   9 2.50
  93  0.311  0.693  0.376-  14 1.75  27 1.95  30 2.01  11 2.14
  94  0.433  0.718  0.535-  28 1.32  29 1.88  27 2.00  44 2.34
  95  0.338  0.777  0.711-  29 1.51  32 2.11
  96  0.505  0.677  0.241-  30 1.55  31 2.07
  97  0.647  0.983  0.513-  36 1.72  45 1.76  20 2.21
  98  0.624  0.998  0.984-  18 2.13  34 2.23  39 2.34
  99  0.801  0.001  0.801-  48 1.94  34 2.22
 100  0.643  0.455  0.158-  31 1.98  33 2.13  47 2.25
 101  0.638  0.475  0.328-  46 1.85  30 1.89  35 2.18
 102  0.789  0.991  0.630-  45 1.80  36 2.18  13 2.28
 103  0.640  0.305  0.885-  40 1.71  24 2.24  34 2.30
 104  0.801  0.193  0.085-  39 2.08  33 2.17   7 2.18   1 2.20
 105  0.824  0.215  0.400-  36 2.11   6 2.35   3 2.44  35 2.47  38 2.47
 106  0.650  0.263  0.581-  37 1.61  21 1.89  20 1.95  36 2.07  35 2.32
 107  0.845  0.297  0.710-  37 1.81  40 2.12
 108  0.612  0.162  0.232-  39 1.82  38 1.85
 109  0.785  0.474  0.477-  44 1.93  35 2.05  37 2.28  46 2.32  12 2.39
 110  0.765  0.486  0.993-  42 2.13  33 2.29   1 2.41  47 2.41
 111  0.640  0.492  0.780-  40 2.03  24 2.13
 112  0.752  0.896  0.138-  41 1.50  39 2.18
 113  0.812  0.937  0.325-  43 1.97  38 2.12   6 2.29
 114  0.638  0.536  0.620-  44 1.69  21 1.98  37 2.30
 115  0.794  0.746  0.870-  48 1.87  16 1.93  42 2.06  10 2.50
 116  0.669  0.697  0.072-  41 1.43  25 2.09  47 2.30  42 2.40
 117  0.614  0.705  0.402-  27 1.72  43 1.82  30 2.02  44 2.11  46 2.34
 118  0.781  0.748  0.533-  44 1.83  45 1.85  43 1.87
 119  0.666  0.775  0.701-  45 1.85  48 2.10
 120  0.769  0.634  0.215-  47 1.61  46 2.05

  LATTYP: Found a simple orthorhombic cell.
 ALAT       =     9.1436835000
 B/A-ratio  =     1.1146370060
 C/A-ratio  =     1.6738812646

  Lattice vectors:

 A1 = (   9.1436835000,   0.0000000000,   0.0000000000)
 A2 = (   0.0000000000,  10.1918880000,   0.0000000000)
 A3 = (   0.0000000000,   0.0000000000,  15.3054405000)

Analysis of symmetry for initial positions (statically):
 Subroutine PRICEL returns:
[...]
   0.113E+03 0.622E+02 0.325E+03   -.124E+03 -.650E+02 -.363E+03   0.946E+01 -.997E+00 0.286E+02   0.788E-01 -.263E+00 0.827E-01
   0.884E+02 0.208E+03 -.125E+03   -.888E+02 -.230E+03 0.139E+03   -.827E+00 0.199E+02 -.145E+02   0.180E-02 0.507E+00 -.115E-01
   0.130E+03 0.120E+03 0.347E+03   -.131E+03 -.125E+03 -.367E+03   0.382E+00 0.578E+01 0.232E+02   -.225E-01 0.869E-02 -.832E-01
   -.648E+01 -.385E+02 -.247E+03   0.997E+01 0.460E+02 0.254E+03   -.416E+01 -.929E+01 -.989E+01   -.540E-02 -.139E+00 0.231E+00
   0.114E+03 0.110E+03 0.584E+02   -.114E+03 -.111E+03 -.607E+02   -.142E+01 0.597E+00 0.312E+01   -.271E-01 -.164E+00 -.129E+00
   0.210E+03 0.103E+03 0.439E+02   -.225E+03 -.110E+03 -.475E+02   0.132E+02 0.464E+01 0.363E+01   -.133E+00 -.375E+00 0.406E-01
   0.761E+02 -.192E+02 0.210E+03   -.790E+02 0.276E+02 -.219E+03   0.357E+01 -.730E+01 0.714E+01   -.509E-01 0.367E+00 -.560E-01
   -.630E+02 0.162E+03 -.193E+03   0.672E+02 -.169E+03 0.190E+03   -.350E+01 0.762E+01 0.191E+01   -.141E+00 -.735E-01 0.553E-01
   0.429E+02 0.285E+03 -.110E+03   -.373E+02 -.303E+03 0.111E+03   -.661E+01 0.189E+02 -.165E+01   0.433E-01 -.106E+00 0.499E-02
   0.101E+03 -.886E+02 0.675E+02   -.102E+03 0.107E+03 -.591E+02   0.129E+01 -.211E+02 -.777E+01   -.122E-01 0.304E-01 -.334E+00
[...]
   -.746E+02 0.197E+03 -.241E+03   0.833E+02 -.208E+03 0.248E+03   -.935E+01 0.131E+02 -.652E+01   -.526E-01 -.789E-01 0.110E+00
   -.103E+03 -.152E+03 0.207E+02   0.996E+02 0.171E+03 -.184E+02   0.375E+01 -.199E+02 -.142E+01   0.513E-01 -.121E+00 -.328E+00
   -.167E+03 0.465E+02 0.376E+02   0.177E+03 -.510E+02 -.404E+02   -.104E+02 0.476E+01 0.264E+01   0.117E+00 -.893E-02 0.120E+00
   -.532E+02 -.355E+01 0.674E+02   0.551E+02 0.356E+01 -.673E+02   -.209E+01 -.947E+00 0.256E+00   0.880E-01 0.364E+00 -.689E-01
   -.836E+02 -.143E+03 0.569E+02   0.838E+02 0.152E+03 -.686E+02   0.205E+00 -.104E+02 0.139E+02   -.799E-03 0.594E-01 0.773E-01
   -.140E+03 -.136E+03 -.236E+03   0.143E+03 0.150E+03 0.268E+03   -.248E+01 -.800E+01 -.264E+02   0.729E-01 0.118E-01 -.261E+00
   -.691E+02 0.320E+02 0.328E+03   0.739E+02 -.337E+02 -.339E+03   -.586E+01 0.218E+01 0.131E+02   0.321E-01 -.122E+00 -.768E-01
   -.997E+02 -.117E+03 -.523E+03   0.102E+03 0.121E+03 0.550E+03   -.187E+01 -.603E+01 -.262E+02   -.858E-01 0.207E-01 0.128E+00
   -.448E+01 -.835E+01 -.268E+02   0.707E+01 0.159E+01 0.285E+02   -.327E+01 0.694E+01 -.101E+01   -.753E-01 0.136E+00 0.808E-01
   0.903E+02 0.113E+03 -.359E+01   -.112E+03 -.149E+03 0.134E+02   0.119E+02 0.251E+02 -.939E+01   0.215E+00 0.165E+00 -.213E+00
   -.118E+03 -.647E+02 0.198E+03   0.122E+03 0.537E+02 -.205E+03   -.254E+01 0.936E+01 0.723E+01   0.300E+00 0.677E-01 0.233E+00
   -.228E+03 -.517E+02 -.234E+03   0.245E+03 0.499E+02 0.243E+03   -.168E+02 0.157E+01 -.930E+01   -.164E-01 0.180E+00 0.191E+00
   -.641E+01 0.767E+02 -.223E+03   0.723E+01 -.911E+02 0.230E+03   -.125E+01 0.157E+02 -.654E+01   -.481E-01 0.153E+00 0.909E-01
   -.171E+02 -.214E+03 -.399E+02   0.266E+01 0.229E+03 0.509E+02   0.143E+02 -.141E+02 -.595E+01   0.450E+00 -.642E-02 -.495E+00
   0.748E+01 -.945E+02 -.241E+02   0.195E-11 -.369E-12 -.341E-12   -.742E+01 0.940E+02 0.214E+02   -.788E-01 0.569E+00 0.267E+01

 POSITION                                       TOTAL-FORCE (eV/Angst)
      8.76574      3.44426      0.52825         0.920765      1.394899     -0.642632
      1.26658      1.04198     14.05620         1.710435      2.931790     10.444080
      0.22977      3.76086      6.44645        -1.406685     -1.417850     -0.716296
      1.59590      1.33690      7.73346        -4.407390      1.305182      4.137269
      1.31618      3.90781      9.35503        -1.084766     -0.436252      1.681505
      0.06674      0.74229      5.32881        -2.379574     -0.755920     -0.130389
      0.00372      1.17533      2.20619        -0.010761      0.453274     -0.472899
      1.38334      3.95230     12.64855        -1.271808     -0.746890      0.085270
      1.37628      8.49092      0.40728        -0.464270      1.138271      1.695910
      0.19653      6.23732     13.57569         2.283671      4.413529      9.368248
      1.38400      8.21690      6.82279        -0.264230      3.631691     -3.418380
      0.08583      5.92997      7.83333        -1.486264      0.346442      3.446365
      0.08698      9.04765      9.41313        -0.015099      1.058295      2.059411
      1.44918      6.02921      5.54083         0.036951     -5.062678     -1.845996
      1.30588      5.69335      2.06381         0.570177      1.647907     -1.441172
      9.02623      8.19101     12.79984        -1.398298      1.738472     -2.005219
      2.91006      3.34642      0.99414         1.844574      2.624504     -0.601463
      4.15033      1.19745     14.27153         0.646652     -1.736426      0.310611
      2.71363      3.65752      6.44466         1.157202     -0.217880      0.351542
      4.54483      1.52252      8.18289        -2.314590     18.834376    -35.958105
      4.62996      4.04010      8.79270         1.947411     -5.636193     15.066439
      2.91682      1.06637      5.34106         0.686256     -1.355566     -0.606308
      2.92320      0.99834      2.09805        -1.924464     -7.037626     -9.072902
      4.06340      4.13600     12.68105         7.136539     -7.476055      0.414063
      4.31691      8.10171      0.70954        -0.872553      0.461086      0.503077
      2.89790      5.92686     13.68267        -0.193946      4.390814      6.986408
      4.26123      8.21728      6.43281        -2.031605      2.639098      0.477576
      3.17058      6.25862      8.14245       -20.551935    -27.745883     -0.144017
      2.88889      8.23748      9.42918        -1.666425      1.781028     -6.269651
      4.40003      6.06361      4.98779         0.180158     -3.317477      3.650092
      4.16563      5.59811      2.15125         1.101509      0.293753      0.140714
      2.50245      9.01177     12.59135         2.271497     -0.141422     -1.495830
      5.68366      3.29459      0.77636         1.232210      2.474127     -0.147217
      7.18157      1.30116     14.05105        -0.922562     -1.022338     -0.336978
      5.61774      3.59610      6.79442         2.546146      0.516951     -3.000989
      6.97319      1.18481      7.89416         4.632837      1.098976      0.201938
      7.20234      3.62936      9.24127         6.252527      3.306750      2.763541
      5.81811      0.71854      5.12260         0.296683     -0.283234     -0.753603
      5.74532      0.79484      1.95226         0.009459     -1.652600     -1.013183
      7.22278      3.77581     12.77613         0.794801      1.366506     -2.822645
      6.99082      8.22316      0.92140         8.901488      7.102752     -7.385008
      5.82453      6.37439     14.13139         0.227508     -0.858710      0.125280
      7.09674      8.21681      6.39301         1.547043      2.539884     -0.947190
      6.00431      6.20254      7.97546         0.756174      0.568459     -1.477367
      6.08585      8.80614      9.11243         1.119013     -0.464966      3.358630
      7.34181      5.88991      5.24006        -0.266863     -0.722546     -1.266702
      7.76189      5.79746      2.02023        -0.551805     -1.131280     -2.994620
      6.01911      8.81026     12.61058        -0.294032      1.195039     -1.885853
      8.92027     10.15451      7.05164         0.428064     -0.233040      0.538220
      0.17429      9.99938      0.03661         0.797837     -0.070164     -0.402824
      0.98447      0.67083     12.65997        -1.227877     -4.033192     -9.044904
      9.06831      4.61472      2.25973        -1.219211     -0.953422     -0.545239
      0.46146      4.44249      4.71151        -0.325473      0.911022      3.033784
      1.17555      0.59352     10.08906        -0.675190     -1.888542     -2.009020
      0.08683      2.84793     13.82949        -1.287752     -0.332298      0.772049
      1.63222      2.31298      1.16406        -2.591287     -2.460384      0.047878
      1.21155      1.93712      6.14431         0.665664      1.476929     -1.375516
      8.67909      2.64728      8.39771         0.574160      0.893643     -0.473243
      1.57905      3.14348     10.98845        -0.905113      0.586499     -0.381511
      9.13208      2.00375      3.74186         0.192097     -2.311704      0.319461
[...]
      5.94561      2.68112      8.89775        -2.182299     -2.180761     -1.705392
      7.72748      3.02470     10.86110        -0.770504      1.305240      0.852315
      5.59492      1.65370      3.54773         0.652978     -1.677170      0.478120
      7.18212      4.82724      7.29962        -0.674639      0.245372     -0.034311
      6.99745      4.95247     15.19953        -0.128169     -0.581389      0.259542
      5.84855      5.01885     11.93563         0.365897     -0.924753      2.232667
      6.87836      9.12899      2.10745        -0.181093      6.390175      6.118589
      7.42823      9.54516      4.97692        -0.996462      0.396348      1.449443
      5.82983      5.45890      9.48287        -0.041061     -1.894673      0.463065
      7.26282      7.60688     13.31686        -0.751535      0.315686      0.819135
      6.11256      7.10462      1.09868        -9.392779    -10.876126      0.236979
      5.61220      7.18448      6.14744         1.622910     -1.513175      0.296377
      7.14188      7.61920      8.15959         0.200497     -0.077144     -0.523686
      6.08530      7.89416     10.72616        -0.479163      1.432085     -0.288451
      7.03419      6.46495      3.29224         0.293760      0.916418      4.568436
    total drift:                               -0.013592      0.001562      0.038759

  FREE ENERGIE OF THE ION-ELECTRON SYSTEM (eV)
  free  energy   TOTEN  =      -646.0210851145 eV

  energy  without entropy=     -645.8812009193  energy(sigma->0) =     -645.95114302

volume of typ            1:    21.4 %

volume of typ            2:     8.2 %

total charge

# of ion       s       p       d       tot
    1        0.172   0.148   7.876   8.196
    2        0.305   0.338   7.915   8.558
    3        0.209   0.201   7.892   8.302
    4        0.285   0.311   7.938   8.534
    5        0.267   0.307   7.855   8.429
    6        0.237   0.265   7.829   8.330
    7        0.211   0.170   7.866   8.248
    8        0.247   0.281   7.859   8.386
    9        0.181   0.131   7.859   8.171
   10        0.325   0.364   8.030   8.720
   11        0.235   0.252   7.928   8.415
   12        0.240   0.263   7.934   8.437
   13        0.174   0.127   7.862   8.163
   14        0.318   0.405   7.920   8.644
   15        0.276   0.341   7.845   8.461
   16        0.253   0.250   7.915   8.418
   17        0.261   0.275   7.951   8.486
   18        0.167   0.125   7.878   8.170
   19        0.205   0.210   7.931   8.345
   20        0.412   0.613   8.115   9.140
   21        0.332   0.429   8.023   8.784
   22        0.175   0.153   7.882   8.209
   23        0.325   0.408   7.895   8.629
   24        0.287   0.339   7.918   8.543
   25        0.167   0.134   7.906   8.207
   26        0.282   0.326   7.966   8.573
   27        0.273   0.306   7.949   8.529
   28        0.381   0.482   8.172   9.035
   29        0.333   0.370   7.981   8.684
   30        0.338   0.445   7.895   8.678
   31        0.216   0.213   7.859   8.287
   32        0.180   0.150   7.890   8.220
   33        0.196   0.180   7.886   8.261
   34        0.157   0.100   7.881   8.138
   35        0.213   0.230   7.951   8.394
   36        0.232   0.242   7.887   8.361
   37        0.278   0.315   7.901   8.494
   38        0.205   0.177   7.823   8.206
   39        0.231   0.254   7.820   8.306
   40        0.229   0.216   7.858   8.303
   41        0.444   0.493   8.080   9.017
   42        0.175   0.144   7.875   8.194
   43        0.240   0.230   7.910   8.380
   44        0.274   0.308   7.934   8.517
   45        0.281   0.340   7.873   8.495
   46        0.198   0.161   7.920   8.279
   47        0.284   0.321   7.859   8.464
   48        0.213   0.194   7.803   8.211
   49        1.297   2.632   0.003   3.931
   50        1.283   2.648   0.003   3.934
   51        1.312   2.703   0.017   4.032
   52        1.285   2.715   0.010   4.010
   53        1.303   2.618   0.005   3.925
   54        1.313   2.535   0.001   3.850
   55        1.291   2.642   0.003   3.936
   56        1.279   2.730   0.009   4.018
   57        1.275   2.758   0.010   4.044
   58        1.286   2.651   0.003   3.940
   59        1.296   2.650   0.006   3.952
   60        1.293   2.653   0.006   3.952
[...]
  106        1.283   2.793   0.016   4.092
  107        1.297   2.624   0.004   3.925
  108        1.290   2.669   0.006   3.965
  109        1.287   2.680   0.005   3.972
  110        1.289   2.627   0.002   3.917
  111        1.308   2.582   0.003   3.893
  112        1.298   2.732   0.015   4.044
  113        1.284   2.639   0.003   3.926
  114        1.296   2.685   0.009   3.990
  115        1.269   2.712   0.006   3.987
  116        1.300   2.786   0.021   4.108
  117        1.274   2.783   0.012   4.068
  118        1.278   2.739   0.009   4.026
  119        1.295   2.625   0.004   3.923
  120        1.298   2.685   0.010   3.993
tot         105.09  206.44  380.39  691.92

magnetization (x)

# of ion       s       p       d       tot
    1        0.002   0.001   1.093   1.096
    2        0.007   0.010   0.856   0.872
    3        0.005   0.005   1.044   1.054
    4       -0.000  -0.002   0.130   0.127
    5       -0.002  -0.002   0.072   0.069
    6       -0.002  -0.001  -0.110  -0.114
    7        0.011   0.010   1.298   1.319
    8       -0.001  -0.001  -0.142  -0.144
    9       -0.000   0.007   1.275   1.282
   10       -0.002   0.002   0.413   0.413
   11        0.005   0.006   0.672   0.683
   12        0.001   0.001   0.053   0.055
   13       -0.006   0.008   1.358   1.360
   14       -0.003  -0.002   0.155   0.151
   15        0.000   0.006   0.355   0.361
   16       -0.000   0.009   0.977   0.985
   17        0.005   0.002   0.461   0.468
   18       -0.002  -0.004  -1.149  -1.155
   19       -0.000  -0.000   0.952   0.951
   20        0.005   0.016   0.727   0.747
   21        0.001  -0.003   0.297   0.294
   22        0.000   0.003   1.274   1.277
   23        0.004   0.001   0.691   0.696
   24       -0.008  -0.002   0.286   0.275
   25        0.002   0.005   1.213   1.219
   26       -0.003  -0.007  -0.370  -0.380
   27        0.005   0.009   0.410   0.424
   28       -0.000   0.000   0.052   0.052
   29        0.011   0.005   0.384   0.400
   30       -0.004  -0.015  -0.609  -0.628
   31        0.005   0.003   0.848   0.856
   32       -0.000   0.005   0.685   0.689
   33        0.001   0.005   0.752   0.758
   34       -0.005  -0.005  -1.281  -1.290
   35       -0.001  -0.000  -0.054  -0.056
   36       -0.006  -0.004  -0.561  -0.571
   37       -0.001  -0.002   0.001  -0.002
   38       -0.001   0.015   1.441   1.455
   39        0.001   0.006   0.238   0.245
   40       -0.004   0.003   0.695   0.694
   41        0.008   0.001   0.011   0.020
   42        0.003   0.003   0.912   0.917
   43        0.006   0.004   0.729   0.740
   44       -0.001  -0.004  -0.232  -0.237
   45       -0.002   0.003   0.399   0.399
   46        0.003   0.004   0.853   0.861
   47        0.000   0.009   0.656   0.665
   48        0.001   0.006   0.875   0.882
   49        0.001   0.074  -0.000   0.075
   50        0.007   0.200   0.000   0.207
   51        0.009   0.439   0.000   0.448
   52        0.005   0.114   0.000   0.119
   53        0.009   0.423  -0.000   0.432
   54        0.016   0.830  -0.000   0.846
   55        0.003   0.041   0.000   0.045
   56        0.008   0.201  -0.000   0.210
   57        0.004   0.073  -0.000   0.076
   58       -0.000   0.010  -0.000   0.010
   59        0.005   0.227  -0.000   0.232
   60        0.010   0.470  -0.000   0.480
[...]
  106       -0.002  -0.028  -0.000  -0.029
  107        0.009   0.460  -0.000   0.469
  108        0.011   0.489  -0.000   0.500
  109       -0.001   0.006  -0.000   0.005
  110        0.009   0.274   0.000   0.284
  111        0.011   0.514  -0.000   0.525
  112       -0.001  -0.059   0.000  -0.059
  113        0.009   0.343   0.000   0.352
  114        0.001   0.027  -0.000   0.028
  115        0.009   0.157   0.000   0.166
  116        0.003   0.090  -0.000   0.093
  117        0.002   0.036   0.000   0.038
  118        0.002   0.030  -0.000   0.032
  119        0.013   0.556  -0.000   0.569
  120        0.008   0.296   0.000   0.304
tot           0.41   14.22   21.09   35.72