 vasp.5.4.4.18Apr17-6-g9f103f2a35 (build May 12 2020 04:58:55) complex

 MD_VERSION_INFO: Compiled 2020-05-12T11:58:55-UTC in devlin.sd.materialsdesign.
 com:/home/medea2/data/build/wwolf/vasp-gpu5.4.4/13047/x86_64/src/src/build/std
 from svn 13047

 executed on                        Lin64 date 2023.03.25  10:23:21

 INCAR:
 POTCAR:    PAW_PBE Ni 02Aug2007
 POTCAR:    PAW_PBE O 08Apr2002

 POTCAR:    PAW_PBE Ni 02Aug2007

 POTCAR:    PAW_PBE O 08Apr2002

 Optimization of the real space projectors (new method)

 maximal supplied QI-value         = 16.25
 optimisation between [QCUT,QGAM] = [ 11.38, 22.75] = [ 36.24,144.96] Ry
 Optimized for a Real-space Cutoff    1.47 Angstroem

   l    n(q)    QCUT    max X(q) W(low)/X(q) W(high)/X(q)  e(spline)
   2      9    11.376    60.317    0.17E-03    0.16E-04    0.16E-06
   2      9    11.376    55.921    0.17E-03    0.16E-04    0.17E-06
   0     10    11.376    51.690    0.45E-04    0.60E-04    0.21E-06
   0     10    11.376    30.015    0.37E-04    0.55E-04    0.19E-06
   1     10    11.376    18.849    0.83E-04    0.11E-03    0.92E-07
   1     10    11.376    14.624    0.69E-04    0.92E-04    0.82E-07
 Optimization of the real space projectors (new method)

 maximal supplied QI-value         = 24.76
 optimisation between [QCUT,QGAM] = [ 11.39, 22.77] = [ 36.31,145.25] Ry
 Optimized for a Real-space Cutoff    1.10 Angstroem

   l    n(q)    QCUT    max X(q) W(low)/X(q) W(high)/X(q)  e(spline)
   0      7    11.387    20.381    0.22E-03    0.48E-03    0.18E-06
   0      7    11.387    15.268    0.22E-03    0.52E-03    0.19E-06
   1      7    11.387     5.964    0.22E-03    0.73E-03    0.24E-06
   1      7    11.387     5.382    0.19E-03    0.60E-03    0.21E-06

  PAW_PBE Ni 02Aug2007                  :
  PAW_PBE O 08Apr2002                   :

 POSCAR: Ni2O3_Cmcm_scale_0_950_disp_0_15_round_2
  positions in direct lattice
 exchange correlation table for  LEXCH =       14
   RHO(1)=    0.500       N(1)  =     2000
   RHO(2)=  100.500       N(2)  =     4000

 ion  position               nearest neighbor table
   1  0.994  0.394  0.052- 110 1.57  55 1.79  52 1.98 104 1.98  62 2.07  56 2.10  40 2.38  33 2.45
                            34 2.54  10 2.59   8 2.69  47 2.85   7 2.92  15 2.93  17 2.99   2 3.06
   2  0.159  0.103  0.013-  50 1.54  51 1.54  56 1.67  74 2.00   9 2.12   7 2.21  55 2.23  64 2.26
                            34 2.36  79 2.43  16 2.49  23 2.52  32 2.64  41 2.80  18 3.02   1 3.06
   3  0.020  0.358  0.495-  58 1.49 105 1.82  57 1.87 109 1.87  61 2.11  53 2.19   4 2.33  37 2.38
                            36 2.48  19 2.58  35 2.72   5 2.84   6 2.85  46 3.08
   4  0.168  0.187  0.582-  82 1.65  58 1.79  54 1.94  57 1.99   3 2.33  36 2.45  49 2.49  73 2.49
                            19 2.68   5 2.70  29 2.85  20 2.94  13 3.06  11 3.08
   5  0.169  0.448  0.670-  66 1.73  59 1.95  37 2.04  90 2.08  61 2.14  58 2.32  82 2.51   4 2.70
                            12 2.76   3 2.84  21 3.03  28 3.08
   6  0.002  0.100  0.382- 113 1.26  65 1.54  60 1.61 105 1.77  43 2.30  49 2.32  57 2.40  38 2.56
                            11 2.80   3 2.85  22 2.92  36 3.00
   7  0.011  0.112  0.146-  64 1.53 112 1.62  60 1.77 104 1.79  56 2.04   2 2.21  34 2.25  50 2.25
                            39 2.31  41 2.37   9 2.76  23 2.89   1 2.92
   8  0.208  0.405  0.905-  59 1.71  62 1.78  87 1.82  79 1.95  55 2.11  63 2.14  17 2.36  24 2.59
                             1 2.69  40 2.89  26 3.05
   9  0.190  0.890  0.066-  67 1.76  50 1.91  92 1.98  68 2.00  64 2.09  74 2.10   2 2.12  23 2.46
                            26 2.52  15 2.53  41 2.54  10 2.64  25 2.65  32 2.73   7 2.76  16 3.00
  10  0.013  0.667  0.009-  68 1.28  62 1.68 110 1.88 115 1.90  63 2.06  67 2.06  15 2.21  47 2.42
                            42 2.51   1 2.59   9 2.64  41 2.70  26 2.77  40 3.03
  11  0.165  0.885  0.486-  70 1.57  49 1.81  73 1.88  93 1.98  69 2.11  65 2.28  43 2.40  12 2.62
                            14 2.65  28 2.78   6 2.80  27 2.85  22 2.88  13 3.02   4 3.08
  12  0.017  0.672  0.575-  61 1.85 118 1.97  69 2.00  66 2.02  70 2.07 109 2.17  44 2.53  37 2.61
                            11 2.62   5 2.76  13 2.80  46 2.83  28 2.93  43 2.96  14 3.05
  13  0.961  0.940  0.664- 102 0.89 118 1.73  49 1.91  54 2.11  71 2.25  45 2.28  36 2.46  70 2.47
                            43 2.60  12 2.80  11 3.02   4 3.06
  14  0.180  0.648  0.378-  72 1.67  77 2.00  69 2.03  53 2.11  93 2.15  61 2.31  46 2.51  11 2.65
                            30 2.75  12 3.05  19 3.09
  15  0.161  0.641  0.141-  72 1.83  76 1.87  68 1.95  52 1.97  10 2.21  92 2.25  62 2.26  47 2.39
                             9 2.53  26 2.57  31 2.90   1 2.93
  16  0.975  0.974  0.901-  99 1.06  50 1.49  71 1.61  51 1.83 115 1.90  41 2.22  34 2.32  67 2.35
                            48 2.44   2 2.49   9 3.00
  17  0.356  0.383  0.050-  79 1.60  76 1.92  56 2.00  80 2.23  86 2.27  24 2.29  62 2.34   8 2.36
                            18 2.76  33 2.85  26 2.85  31 2.89   1 2.99
  18  0.522  0.135  0.999-  74 1.70  80 1.71  75 1.88  79 1.89  98 1.89  25 2.03 103 2.11  24 2.44
                            32 2.45  88 2.48  23 2.56  48 2.60  33 2.70  17 2.76  39 2.84  34 2.95
  19  0.329  0.374  0.470-  57 1.52  82 1.78  77 1.93  81 2.10  61 2.19  85 2.43   3 2.58   4 2.68
                            22 2.86  35 3.01  20 3.05  14 3.09
  20  0.518  0.137  0.574-  82 1.91  97 2.02  73 2.06  81 2.07  78 2.08 106 2.34  45 2.39  27 2.40
                            29 2.45  38 2.77  35 2.83   4 2.94  36 2.95  21 2.95  22 3.00  19 3.05
  21  0.535  0.422  0.670-  83 1.70  90 1.85 106 2.02 114 2.15  82 2.46  35 2.87  20 2.95   5 3.03

  22  0.356  0.094  0.382-  89 1.43  84 1.54  65 1.58  73 2.17  57 2.19  81 2.22  27 2.62  38 2.84
                            19 2.86  11 2.88   6 2.92  20 3.00
  23  0.357  0.071  0.150-  88 1.48  64 1.53  84 1.99  74 2.21  80 2.25  56 2.36  25 2.39   9 2.46
                             2 2.52  18 2.56   7 2.89
  24  0.518  0.367  0.916-  79 1.65  83 1.85 103 1.89  86 2.03 111 2.26  17 2.29  33 2.38  87 2.40
                            18 2.44   8 2.59  40 2.87
  25  0.505  0.923  0.039-  74 1.45  91 1.48  88 1.73  98 1.91  92 1.96  18 2.03  32 2.19  48 2.19
                           116 2.27  75 2.31  23 2.39   9 2.65  26 2.66  42 2.99  39 3.06  31 3.08
  26  0.347  0.681  0.995-  92 1.34  87 1.80  91 1.81  67 1.94  62 2.04  86 2.13  31 2.50   9 2.52
                            15 2.57  25 2.66  10 2.77  32 2.84  17 2.85  42 3.01   8 3.05
  27  0.508  0.907  0.492-  73 1.58  94 1.79  93 1.83  97 2.00  89 2.03  20 2.40 117 2.41  28 2.58
                            22 2.62  38 2.77  11 2.85  29 2.88  44 2.91  30 2.94  45 2.94
  28  0.371  0.693  0.580-  94 1.59  90 1.76  70 1.86  93 1.86  85 2.12  61 2.32  27 2.58  11 2.78
                            44 2.82  29 2.89  12 2.93  30 3.06   5 3.08
  29  0.360  0.971  0.675-  78 1.33  54 1.56  95 1.71  73 2.12  94 2.20  70 2.23  20 2.45  45 2.73
                             4 2.85  27 2.88  28 2.89
  30  0.512  0.638  0.378-  77 1.72  96 1.77 101 1.92  85 1.96  93 2.04 117 2.23  14 2.75  27 2.94
                            46 3.04  28 3.06
  31  0.511  0.627  0.142-  96 1.84  92 1.85 116 1.93  76 1.95 100 1.97  86 2.10  26 2.50  42 2.58
                            17 2.89  15 2.90  47 3.01  25 3.08
  32  0.367  0.958  0.906-  74 1.33  75 1.44  95 1.93  51 1.96  91 2.07  67 2.17  25 2.19  18 2.45
                             2 2.64  48 2.69   9 2.73  26 2.84
  33  0.700  0.369  0.049- 103 1.28  80 1.94 110 1.99 100 2.00 104 2.01  86 2.10  24 2.38   1 2.45
                            40 2.49  34 2.58  18 2.70  42 2.80  17 2.85  39 2.86
  34  0.878  0.148  0.007- 104 1.21  55 1.81  50 1.84 103 1.98  98 2.05  41 2.10  99 2.10   7 2.25
                            16 2.32   2 2.36  39 2.46   1 2.54  33 2.58  48 2.84  40 2.90  18 2.95
  35  0.692  0.367  0.489-  81 1.82 106 1.88 109 1.94 105 2.11 101 2.15  85 2.17  38 2.58   3 2.72
                            36 2.73  20 2.83  21 2.87  37 3.01  19 3.01
  36  0.873  0.162  0.580-  58 1.56 106 1.89 105 1.98  49 2.03  97 2.05 102 2.07   4 2.45  13 2.46
                             3 2.48  43 2.49  45 2.55  37 2.66  35 2.73  38 2.87  20 2.95   6 3.00
  37  0.926  0.426  0.651-  66 1.36  58 1.55 107 2.04   5 2.04 109 2.09 106 2.10 114 2.19   3 2.38
                            12 2.61  36 2.66  35 3.01
  38  0.696  0.119  0.404-  89 1.71  81 1.86 105 1.89 113 1.92 108 1.97  97 2.05  43 2.53   6 2.56
                            35 2.58  27 2.77  20 2.77  22 2.84  36 2.87
  39  0.734  0.110  0.160- 112 1.53 108 1.70 104 1.84  80 2.07  88 2.09   7 2.31  34 2.46  41 2.59
                            18 2.84  33 2.86  25 3.06
  40  0.859  0.418  0.900- 110 1.72 107 1.74  63 1.75 111 1.84  55 1.90 103 2.02   1 2.38  33 2.49
                            24 2.87   8 2.89  34 2.90  42 2.92  10 3.03
  41  0.888  0.930  0.050-  50 1.38 115 1.39  68 1.86  98 1.97  34 2.10 112 2.14  16 2.22   7 2.37
                            48 2.40 116 2.45   9 2.54  39 2.59  10 2.70   2 2.80  42 2.96
  42  0.710  0.663  1.000- 111 1.66 116 1.67  86 1.72 110 1.97 115 2.07  91 2.12  10 2.51  31 2.58
                            48 2.63  47 2.63  33 2.80  40 2.92  41 2.96  25 2.99  26 3.01
  43  0.880  0.935  0.483-  49 1.21 118 1.60  97 1.75 113 1.91  69 2.07 117 2.24   6 2.30  11 2.40
                            36 2.49  38 2.53  13 2.60  12 2.96  44 3.00  45 3.04
  44  0.712  0.688  0.583- 114 1.53 118 1.86 117 1.92  94 2.02  85 2.18 109 2.34  12 2.53  28 2.82
                            27 2.91  45 2.96  43 3.00  46 3.05
  45  0.690  0.983  0.668-  78 1.59 102 1.71  97 1.87 119 2.12  13 2.28 118 2.35  94 2.38  20 2.39
                            36 2.55  29 2.73  27 2.94  44 2.96  43 3.04
  46  0.878  0.625  0.391-  69 1.53  53 1.76 101 1.82 117 1.86 109 2.03 120 2.07  14 2.51  12 2.83
                            30 3.04  44 3.05   3 3.08
  47  0.874  0.632  0.161- 120 1.45  52 1.55  68 1.95 100 2.01 116 2.16  15 2.39 110 2.40  10 2.42
                            42 2.63   1 2.85  31 3.01
  48  0.688  0.924  0.924-  98 1.08  75 1.75 119 1.78  91 1.93 115 1.95  99 1.98  25 2.19  41 2.40
                            16 2.44  18 2.60  42 2.63  32 2.69  34 2.84
  49  0.990  0.983  0.530-  43 1.21  11 1.81 118 1.82  13 1.91  36 2.03   6 2.32   4 2.49
  50  0.019  0.994  0.004-  41 1.38  16 1.49   2 1.54  34 1.84   9 1.91   7 2.25
  51  0.167  0.071  0.904-   2 1.54  16 1.83  32 1.96
  52  0.989  0.501  0.175-  47 1.55  15 1.97   1 1.98
  53  0.008  0.481  0.360-  46 1.76  14 2.11   3 2.19
  54  0.189  0.041  0.682-  29 1.56   4 1.94  13 2.11
  55  0.008  0.279  0.948-   1 1.79  34 1.81  40 1.90   8 2.11   2 2.23
  56  0.179  0.247  0.086-   2 1.67  17 2.00   7 2.04   1 2.10  23 2.36
  57  0.202  0.260  0.449-  19 1.52   3 1.87   4 1.99  22 2.19   6 2.40
  58  0.988  0.294  0.592-   3 1.49  37 1.55  36 1.56   4 1.79   5 2.32
  59  0.175  0.341  0.791-   8 1.71   5 1.95
  60  0.020  0.149  0.271-   6 1.61   7 1.77
  61  0.166  0.539  0.528-  12 1.85   3 2.11   5 2.14  19 2.19  14 2.31  28 2.32
[...]
   -.150E+03 -.203E+03 0.716E+03   0.156E+03 0.211E+03 -.750E+03   -.197E+01 -.847E+01 0.237E+02   -.194E-01 0.693E-02 0.102E-01
   -.128E+03 0.326E+03 -.504E+03   0.141E+03 -.355E+03 0.525E+03   -.749E+01 0.226E+02 -.211E+02   -.122E-01 0.537E-01 -.523E-01
   -.934E+02 0.216E+03 0.290E+03   0.984E+02 -.234E+03 -.304E+03   -.323E+01 0.179E+02 0.149E+02   -.373E-02 -.216E-01 -.715E-01
   0.708E+02 -.135E+03 -.295E+03   -.905E+02 0.141E+03 0.310E+03   0.130E+02 -.194E+01 -.150E+02   -.408E-01 0.467E-01 0.265E-01
   -.142E+03 -.421E+02 0.439E+03   0.155E+03 0.343E+02 -.457E+03   -.112E+02 0.942E+01 0.143E+02   -.628E-02 0.249E-01 0.179E-01
   -.150E+03 -.339E+03 -.413E+03   0.156E+03 0.352E+03 0.429E+03   -.533E+01 -.706E+01 -.125E+02   -.303E-01 0.415E-01 -.958E-02
   -.158E+02 -.228E+02 0.338E+03   0.418E+01 0.357E+00 -.358E+03   0.469E+01 0.158E+02 0.174E+02   0.106E-01 0.476E-02 -.102E-01
   -.857E+02 0.216E+02 -.290E+03   0.923E+02 -.291E+02 0.310E+03   -.146E+01 0.153E+01 -.108E+02   0.117E-01 -.104E-01 0.194E-01
   -.111E+03 0.118E+03 0.226E+03   0.108E+03 -.134E+03 -.235E+03   0.353E+01 0.155E+02 0.549E+01   0.124E-01 -.998E-02 0.677E-01
   -.107E+03 -.335E+03 -.477E+02   0.111E+03 0.350E+03 0.380E+02   -.338E+01 -.895E+01 0.666E+01   -.955E-02 -.489E-02 -.241E-01
[...]
   0.909E+02 0.107E+03 0.186E+03   -.897E+02 -.122E+03 -.194E+03   -.174E+01 0.134E+02 0.758E+01   -.254E-01 -.298E-02 0.460E-01
   0.155E+03 -.312E+03 -.142E+03   -.153E+03 0.330E+03 0.150E+03   -.364E+01 -.158E+02 -.589E+01   0.207E-01 0.647E-02 -.386E-01
   0.114E+03 -.718E+02 0.598E+02   -.118E+03 0.814E+02 -.597E+02   0.305E+01 -.938E+01 0.198E+00   -.505E-01 0.655E-02 0.530E-02
   0.974E+02 -.108E+03 -.761E+01   -.110E+03 0.125E+03 0.772E+01   0.627E+01 -.145E+02 0.116E+01   0.384E-02 -.614E-03 0.418E-01
   0.133E+03 -.110E+03 0.648E+03   -.143E+03 0.111E+03 -.673E+03   0.113E+02 -.220E+01 0.175E+02   -.109E-01 -.256E-01 0.276E-01
   0.769E+02 0.376E+03 -.512E+03   -.726E+02 -.410E+03 0.542E+03   -.244E+01 0.239E+02 -.286E+02   0.137E-01 -.172E-01 -.352E-01
   0.277E+03 0.364E+03 0.349E+03   -.333E+03 -.415E+03 -.390E+03   0.174E+02 0.212E+02 0.295E+02   0.247E-01 0.109E-02 -.333E-01
   0.105E+03 0.236E+02 -.415E+03   -.102E+03 -.363E+02 0.442E+03   -.412E+01 0.772E+01 -.209E+02   -.299E-01 0.246E-01 -.127E-01
   0.106E+03 0.419E+03 0.394E+03   -.108E+03 -.453E+03 -.431E+03   -.524E+01 0.136E+02 0.169E+02   -.497E-02 0.110E-01 0.469E-01
   0.370E+02 -.776E+02 -.468E+03   -.360E+02 0.945E+02 0.485E+03   -.867E+00 -.151E+02 -.134E+02   0.206E-01 -.293E-01 0.265E-02
   0.166E+03 -.284E+02 0.246E+03   -.171E+03 0.347E+02 -.252E+03   0.225E+01 -.409E+01 0.511E+01   -.317E-01 -.195E-01 0.391E-02
   0.104E+03 0.301E+03 -.219E+03   -.113E+03 -.313E+03 0.226E+03   0.657E+01 0.199E+01 -.863E+00   -.739E-01 0.455E-03 0.645E-02
   0.725E+02 0.313E+03 0.319E+03   -.705E+02 -.324E+03 -.329E+03   -.285E+01 0.107E+02 0.792E+01   0.886E-02 -.630E-02 0.555E-01
   0.841E+02 -.192E+03 -.349E+03   -.903E+02 0.218E+03 0.377E+03   0.522E+01 -.194E+02 -.151E+02   -.378E-02 -.267E-01 -.101E+00
   -.889E+01 0.436E+02 0.717E+02   0.114E-12 -.114E-12 0.966E-12   0.898E+01 -.435E+02 -.716E+02   -.104E+00 -.171E+00 -.279E-01

 POSITION                                       TOTAL-FORCE (eV/Angst)
      8.22609      3.63633      0.71413         8.572799     -4.534874      8.068171
      1.31654      0.95329      0.18436         6.241588      9.985564      4.823525
      0.16906      3.29986      6.85274         3.087523      8.605527    -15.291445
      1.38692      1.72100      8.06003        -1.757757     -4.363479      1.535100
      1.40103      4.12672      9.27821         6.841741      0.312613      2.095000
      0.01937      0.92364      5.29180        30.561693     28.947911     13.230136
      0.09513      1.03382      2.02646        -1.365115      7.195714      0.720123
      1.72330      3.73759     12.53383        -1.178043      0.749308     -2.553683
      1.57511      8.20379      0.91613         1.096078     -1.067074      4.871224
      0.10691      6.15243      0.12750         2.670175    -26.805785    -34.942053
      1.36342      8.15798      6.73544         1.105974      2.820261     -7.701017
      0.14146      6.19675      7.96647         0.070787      0.174037      0.537010
      7.95378      8.66918      9.19171       198.257244   -200.792148   -100.376042
      1.48646      5.97326      5.23713         0.898932     -3.118000      0.829776
      1.33438      5.90884      1.95423         1.784238     -1.496364      3.799302
      8.06756      8.97711     12.47475       103.841318    -70.273323     24.127937
      2.94576      3.53475      0.68919        -1.695144      3.360940      7.798960
      4.32120      1.24332     13.83907         2.446287      6.622100     -3.983774
      2.72507      3.44775      6.50732         9.109606      9.641862      0.362194
      4.28907      1.25952      7.94847        -0.496801      1.981409     -0.054779
      4.42200      3.89464      9.27516         0.935809      1.195512     -0.021392
      2.94327      0.86505      5.29332       -10.640414      5.067085      5.352407
      2.95603      0.65738      2.07182        -2.578349      8.045071      3.486750
      4.28328      3.38752     12.68345         2.472887      4.161069     -6.058969
      4.17393      8.51400      0.53375        12.786301     -4.653616     23.153316
      2.87113      6.27951     13.77572        -4.894133    -18.102726    -27.360965
      4.20482      8.36314      6.81238         7.591040     -3.366234     -4.548632
      3.06768      6.38967      8.02747        -4.166657     -7.354016     -2.220961
      2.97597      8.95488      9.34682       -22.040953    -11.401239     -6.835123
      4.23339      5.88290      5.24106         3.703213     -0.482447      1.153130
      4.23115      5.78631      1.96128         1.311969     -1.335624      2.640364
      3.03363      8.83611     12.53924       -20.957899    -19.191496    -34.672313
      5.79106      3.40397      0.67612        -3.725790     27.931532     40.001494
      7.26532      1.36560      0.09471         1.999232    -28.029783    -52.614933
      5.72562      3.38818      6.77094        -0.061067      3.967929     -1.624850
      7.22416      1.49096      8.03777        -5.408339     -5.513979      0.118360
      7.65928      3.92667      9.01341       -18.446920    -13.480193     -2.795694
      5.75823      1.09397      5.60025         0.240990      1.954368     -3.391113
      6.06816      1.01256      2.21379       -10.348364      4.402779     -0.290887
      7.10988      3.85837     12.46672        -0.279740      0.410293     -5.403387
      7.35007      8.58014      0.69201       -19.313692      4.710512     36.660313
      5.87332      6.11631     13.84565         1.215375      1.588167     -2.225879
      7.28148      8.61790      6.68444       -47.402979    -25.015673    -42.488096
      5.88935      6.34738      8.07294        -1.323960      3.030554     -6.248033
      5.70419      9.06204      9.24784         1.628217     -1.757993      2.536853
      7.26604      5.76057      5.41205        -8.828866     -6.842857     -4.975425
      7.23082      5.82714      2.23640        -7.114819     -2.000740     -9.468796
      5.69346      8.52134     12.80086        -5.732707    -84.228601    -95.227477
      8.18864      9.06620      7.34212        51.613616     28.062763     30.906998
      0.16105      9.16491      0.05946        16.751559      3.327771      2.049800
      1.38069      0.65867     12.51904         4.123732     -0.685371    -10.545698
      8.18354      4.62435      2.42396         5.708467     -6.129324     -0.324136
      0.06394      4.43137      4.98096         1.799885     -0.119963      0.749267
      1.56043      0.37480      9.44277        -6.708648      4.771907      0.144318
      0.06704      2.56826     13.12882         1.460661      1.657516     -3.415347
      1.47749      2.27550      1.19422         0.250358      5.635833      2.736183
      1.67176      2.39525      6.21340        -6.965682     -6.620581     -3.079705
      8.17636      2.71337      8.19889         5.135074     -5.936427      8.931951
      1.44598      3.14382     10.95890         0.225566      0.010262     -2.555124
      0.16419      1.37686      3.75687         0.711227      6.614722     -3.145255
[...]
      5.95065      2.79624      8.53869        -2.320227      0.251133      0.158875
      7.34756      3.17537     10.88487        -0.535043     -1.076468     -1.013360
      6.08216      1.71901      3.76499        -1.337445      1.481433      2.254198
      7.16863      4.64504      7.11018        -1.059337      0.232140      0.252063
      7.21557      4.68190      0.12420        -5.927730      3.183714      1.321419
      5.74946      5.09694     12.54247         0.671853     -1.158359     -7.158107
      7.20966      0.11482      2.69015         1.798880    -10.920204      2.139348
      7.32667      0.19963      4.94750       -38.191441    -29.798359    -10.815301
      6.00078      5.34691      9.21915        -1.152130     -4.994777      5.867923
      7.26045      7.62247     13.54185        -6.796081    -20.276331    -20.451158
      5.62249      6.99094      1.39457         0.088340      1.825048      3.369306
      5.98624      6.84690      6.21978        -2.748432      2.270296     -0.786223
      7.15721      7.70854      7.99106        -2.829506    -10.066266      6.529653
      5.95283      8.06267     11.10418        -0.900639     -0.704080     -1.811415
      7.09511      6.52525      3.49521        -0.974378      6.655005     12.913117
    total drift:                               -0.006755     -0.007345      0.012309

  FREE ENERGIE OF THE ION-ELECTRON SYSTEM (eV)
  free  energy   TOTEN  =      -453.1992041237 eV

  energy  without entropy=     -453.0932891338  energy(sigma->0) =     -453.14624663

volume of typ            1:    28.9 %

volume of typ            2:    11.1 %

total charge

# of ion       s       p       d       tot
    1        0.313   0.418   8.077   8.808
    2        0.430   0.650   8.211   9.292
    3        0.332   0.498   8.077   8.907
    4        0.290   0.366   8.048   8.703
    5        0.247   0.276   8.008   8.531
    6        0.542   0.869   8.294   9.705
    7        0.395   0.597   8.151   9.142
    8        0.288   0.390   7.921   8.599
    9        0.267   0.333   8.142   8.742
   10        0.466   0.728   8.280   9.474
   11        0.299   0.398   8.066   8.764
   12        0.230   0.275   7.996   8.500
   13        0.630   0.977   8.829  10.436
   14        0.258   0.296   7.888   8.442
   15        0.258   0.313   7.987   8.559
   16        0.710   1.176   8.545  10.432
   17        0.273   0.345   8.044   8.662
   18        0.331   0.467   8.120   8.918
   19        0.319   0.393   8.004   8.717
   20        0.220   0.245   8.040   8.504
   21        0.251   0.276   7.873   8.399
   22        0.461   0.662   8.105   9.228
   23        0.378   0.561   8.116   9.055
   24        0.279   0.363   8.012   8.654
   25        0.472   0.756   8.305   9.532
   26        0.395   0.638   8.141   9.174
   27        0.314   0.419   8.031   8.764
   28        0.324   0.434   7.937   8.696
   29        0.472   0.721   8.127   9.320
   30        0.283   0.363   7.841   8.488
   31        0.264   0.336   7.873   8.473
   32        0.501   0.757   8.262   9.520
   33        0.418   0.621   8.252   9.291
   34        0.502   0.765   8.478   9.745
   35        0.244   0.292   7.931   8.467
   36        0.296   0.400   8.151   8.847
   37        0.434   0.690   8.173   9.297
   38        0.274   0.363   7.997   8.634
   39        0.345   0.469   8.037   8.851
   40        0.325   0.478   7.936   8.739
   41        0.504   0.775   8.431   9.710
   42        0.327   0.477   8.057   8.861
   43        0.514   0.817   8.401   9.732
   44        0.316   0.425   7.950   8.691
   45        0.292   0.397   8.116   8.805
   46        0.345   0.516   7.923   8.784
   47        0.415   0.579   8.051   9.045
   48        0.575   0.951   8.492  10.018
   49        1.329   3.036   0.064   4.429
   50        1.296   3.156   0.072   4.525
   51        1.305   2.823   0.019   4.147
   52        1.292   2.773   0.016   4.081
   53        1.291   2.686   0.006   3.983
   54        1.287   2.791   0.014   4.092
   55        1.283   2.816   0.013   4.111
   56        1.280   2.807   0.011   4.098
   57        1.288   2.842   0.020   4.150
   58        1.275   3.030   0.050   4.356
   59        1.286   2.695   0.007   3.988
   60        1.309   2.766   0.014   4.089
[...]
  106        1.278   2.759   0.008   4.046
  107        1.290   2.685   0.006   3.981
  108        1.295   2.691   0.008   3.994
  109        1.298   2.748   0.009   4.054
  110        1.297   2.903   0.026   4.227
  111        1.301   2.753   0.014   4.068
  112        1.298   2.836   0.025   4.159
  113        1.325   2.935   0.047   4.306
  114        1.296   2.753   0.014   4.064
  115        1.316   2.971   0.037   4.324
  116        1.277   2.801   0.011   4.088
  117        1.282   2.751   0.006   4.039
  118        1.300   2.887   0.022   4.209
  119        1.286   2.705   0.005   3.996
  120        1.304   2.767   0.019   4.090
tot         110.77  229.17  391.39  731.33

magnetization (x)

# of ion       s       p       d       tot
    1        0.001   0.000   0.154   0.155
    2       -0.000  -0.000   0.003   0.002
    3       -0.000  -0.002  -0.067  -0.070
    4       -0.000  -0.003  -0.062  -0.066
    5        0.000   0.002   0.215   0.217
    6       -0.001  -0.000   0.036   0.034
    7       -0.000   0.001   0.033   0.034
    8        0.002   0.006   0.566   0.574
    9       -0.000   0.000  -0.032  -0.033
   10       -0.000  -0.003   0.001  -0.002
   11        0.000  -0.000   0.026   0.026
   12        0.000  -0.000   0.132   0.132
   13        0.001   0.000  -0.011  -0.010
   14        0.002   0.009   1.013   1.023
   15       -0.000   0.007   0.599   0.606
   16        0.000   0.001   0.019   0.021
   17        0.001   0.000   0.134   0.135
   18        0.002   0.002   0.094   0.098
   19       -0.001  -0.001  -0.046  -0.048
   20        0.000   0.000  -0.124  -0.124
   21       -0.004  -0.005  -0.826  -0.835
   22        0.001  -0.000   0.009   0.009
   23        0.000   0.000   0.013   0.014
   24       -0.001  -0.001  -0.189  -0.190
   25       -0.000   0.000  -0.011  -0.011
   26       -0.000   0.001  -0.040  -0.039
   27       -0.000  -0.002  -0.157  -0.159
   28       -0.000   0.002   0.045   0.046
   29       -0.001  -0.000  -0.028  -0.029
   30       -0.001   0.001   0.167   0.167
   31       -0.001   0.001   0.119   0.118
   32        0.000   0.001   0.005   0.006
   33       -0.000   0.000  -0.004  -0.004
   34        0.000   0.002   0.007   0.008
   35       -0.002  -0.000  -0.117  -0.118
   36       -0.000  -0.001   0.048   0.048
   37       -0.003  -0.001   0.078   0.074
   38       -0.001  -0.001   0.043   0.041
   39       -0.001   0.002   0.085   0.086
   40       -0.002  -0.001   0.133   0.130
   41        0.000   0.001   0.004   0.005
   42       -0.001   0.000  -0.015  -0.015
   43        0.001   0.003   0.019   0.023
   44        0.010   0.010   0.671   0.690
   45       -0.000  -0.000   0.021   0.020
   46       -0.000   0.001   0.098   0.099
   47        0.001   0.004   0.148   0.153
   48        0.001   0.004   0.079   0.084
   49        0.000   0.005   0.000   0.006
   50        0.000   0.002   0.000   0.002
   51        0.000   0.001  -0.000   0.002
   52        0.004   0.114   0.000   0.118
   53        0.005   0.202  -0.000   0.207
   54       -0.000  -0.013  -0.000  -0.013
   55        0.002   0.023   0.000   0.025
   56        0.000   0.003   0.000   0.004
   57       -0.001  -0.015  -0.000  -0.016
   58       -0.000  -0.007   0.000  -0.007
   59        0.010   0.368   0.000   0.379
   60        0.003   0.136   0.000   0.139
[...]
  106       -0.000  -0.016   0.000  -0.016
  107        0.009   0.345  -0.000   0.353
  108        0.004   0.189   0.000   0.193
  109       -0.000   0.011   0.000   0.010
  110        0.000   0.006   0.000   0.006
  111        0.000  -0.011   0.000  -0.011
  112        0.001   0.021  -0.000   0.022
  113        0.000   0.011  -0.000   0.012
  114        0.004   0.226   0.000   0.230
  115       -0.000  -0.004   0.000  -0.004
  116        0.000  -0.005   0.000  -0.004
  117        0.002   0.022   0.000   0.024
  118        0.003   0.025   0.000   0.028
  119        0.001   0.050   0.000   0.051
  120        0.003   0.128   0.000   0.131
tot           0.10    2.86    3.09    6.04