 vasp.5.4.4.18Apr17-6-g9f103f2a35 (build May 12 2020 04:58:55) complex

 MD_VERSION_INFO: Compiled 2020-05-12T11:58:55-UTC in devlin.sd.materialsdesign.
 com:/home/medea2/data/build/wwolf/vasp-gpu5.4.4/13047/x86_64/src/src/build/std
 from svn 13047

 executed on                        Lin64 date 2023.03.25  11:13:11

 INCAR:
 POTCAR:    PAW_PBE Ni 02Aug2007
 POTCAR:    PAW_PBE O 08Apr2002

 POTCAR:    PAW_PBE Ni 02Aug2007

 POTCAR:    PAW_PBE O 08Apr2002

 Optimization of the real space projectors (new method)

 maximal supplied QI-value         = 16.25
 optimisation between [QCUT,QGAM] = [ 11.38, 22.75] = [ 36.24,144.96] Ry
 Optimized for a Real-space Cutoff    1.47 Angstroem

   l    n(q)    QCUT    max X(q) W(low)/X(q) W(high)/X(q)  e(spline)
   2      9    11.376    60.317    0.17E-03    0.16E-04    0.16E-06
   2      9    11.376    55.921    0.17E-03    0.16E-04    0.17E-06
   0     10    11.376    51.690    0.45E-04    0.60E-04    0.21E-06
   0     10    11.376    30.015    0.37E-04    0.55E-04    0.19E-06
   1     10    11.376    18.849    0.83E-04    0.11E-03    0.92E-07
   1     10    11.376    14.624    0.69E-04    0.92E-04    0.82E-07
 Optimization of the real space projectors (new method)

 maximal supplied QI-value         = 24.76
 optimisation between [QCUT,QGAM] = [ 11.39, 22.77] = [ 36.31,145.25] Ry
 Optimized for a Real-space Cutoff    1.10 Angstroem

   l    n(q)    QCUT    max X(q) W(low)/X(q) W(high)/X(q)  e(spline)
   0      7    11.387    20.381    0.22E-03    0.48E-03    0.18E-06
   0      7    11.387    15.268    0.22E-03    0.52E-03    0.19E-06
   1      7    11.387     5.964    0.22E-03    0.73E-03    0.24E-06
   1      7    11.387     5.382    0.19E-03    0.60E-03    0.21E-06

  PAW_PBE Ni 02Aug2007                  :
  PAW_PBE O 08Apr2002                   :

 POSCAR: Ni2O3_Cmcm_pris
  positions in direct lattice
 exchange correlation table for  LEXCH =       14
   RHO(1)=    0.500       N(1)  =     2000
   RHO(2)=  100.500       N(2)  =     4000

 ion  position               nearest neighbor table
   1  0.000  0.363  0.047-  52 1.90  55 1.98  56 2.06 104 2.06  62 2.08 110 2.08  17 2.90  33 2.90
                             7 2.92  15 2.96  47 2.96  34 2.97   2 2.97  10 2.98  40 3.05   8 3.05
   2  0.167  0.137  0.953-  51 1.90  56 1.98  79 2.06  55 2.06  74 2.08  50 2.08  18 2.90  34 2.90
                             8 2.92  32 2.96  16 2.96  17 2.97   1 2.97   9 2.98  23 3.05   7 3.05
   3  0.000  0.363  0.453-  53 1.90  58 1.98  57 2.06 105 2.06  61 2.08 109 2.08  19 2.90  35 2.90
                             6 2.92  14 2.96  46 2.96  36 2.97   4 2.97  12 2.98  37 3.05   5 3.05
   4  0.167  0.137  0.547-  54 1.90  57 1.98  82 2.06  58 2.06  73 2.08  49 2.08  20 2.90  36 2.90
                             5 2.92  29 2.96  13 2.96  19 2.97   3 2.97  11 2.98  22 3.05   6 3.05
   5  0.167  0.406  0.635-  59 1.85  90 1.92  66 1.92  82 2.08  58 2.08  61 2.17  21 2.90  37 2.90
                             4 2.92  28 2.96  12 2.96  19 3.05   3 3.05
   6  0.000  0.094  0.365-  60 1.85  65 1.92 113 1.92 105 2.08  57 2.08  49 2.17  22 2.90  38 2.90
                             3 2.92  11 2.96  43 2.96   4 3.05  36 3.05
   7  0.000  0.094  0.135-  60 1.85  64 1.92 112 1.92 104 2.08  56 2.08  50 2.17  23 2.90  39 2.90
                             1 2.92   9 2.96  41 2.96   2 3.05  34 3.05
   8  0.167  0.406  0.865-  59 1.85  87 1.92  63 1.92  79 2.08  55 2.08  62 2.17  24 2.90  40 2.90
                             2 2.92  26 2.96  10 2.96  17 3.05   1 3.05
   9  0.167  0.863  0.047-  64 1.90  67 1.98  92 2.06  68 2.06  74 2.08  50 2.08  25 2.90  41 2.90
                            15 2.92  23 2.96   7 2.96  26 2.97  10 2.97   2 2.98  32 3.05  16 3.05
  10  0.000  0.637  0.953-  63 1.90  68 1.98  67 2.06 115 2.06 110 2.08  62 2.08  26 2.90  42 2.90
                            16 2.92  40 2.96   8 2.96  41 2.97   9 2.97   1 2.98  15 3.05  47 3.05
  11  0.167  0.863  0.453-  65 1.90  70 1.98  93 2.06  69 2.06  73 2.08  49 2.08  27 2.90  43 2.90
                            14 2.92  22 2.96   6 2.96  28 2.97  12 2.97   4 2.98  29 3.05  13 3.05
  12  0.000  0.637  0.547-  66 1.90  69 1.98  70 2.06 118 2.06 109 2.08  61 2.08  28 2.90  44 2.90
                            13 2.92  37 2.96   5 2.96  43 2.97  11 2.97   3 2.98  14 3.05  46 3.05
  13  0.000  0.906  0.635-  71 1.85  54 1.92 102 1.92  70 2.08 118 2.08  49 2.17  29 2.90  45 2.90
                            12 2.92  36 2.96   4 2.96  43 3.05  11 3.05
  14  0.167  0.594  0.365-  72 1.85  77 1.92  53 1.92  93 2.08  69 2.08  61 2.17  30 2.90  46 2.90
                            11 2.92  19 2.96   3 2.96  28 3.05  12 3.05
  15  0.167  0.594  0.135-  72 1.85  76 1.92  52 1.92  92 2.08  68 2.08  62 2.17  31 2.90  47 2.90
                             9 2.92  17 2.96   1 2.96  26 3.05  10 3.05
  16  0.000  0.906  0.865-  71 1.85  51 1.92  99 1.92  67 2.08 115 2.08  50 2.17  32 2.90  48 2.90
                            10 2.92  34 2.96   2 2.96  41 3.05   9 3.05
  17  0.333  0.363  0.047-  76 1.90  79 1.98  56 2.06  80 2.06  62 2.08  86 2.08   1 2.90  33 2.90
                            23 2.92  15 2.96  31 2.96   2 2.97  18 2.97  26 2.98   8 3.05  24 3.05
  18  0.500  0.137  0.953-  75 1.90  80 1.98  79 2.06 103 2.06  98 2.08  74 2.08   2 2.90  34 2.90
                            24 2.92  32 2.96  48 2.96  17 2.97  33 2.97  25 2.98  39 3.05  23 3.05
  19  0.333  0.363  0.453-  77 1.90  82 1.98  57 2.06  81 2.06  61 2.08  85 2.08   3 2.90  35 2.90
                            22 2.92  14 2.96  30 2.96   4 2.97  20 2.97  28 2.98   5 3.05  21 3.05
  20  0.500  0.137  0.547-  78 1.90  81 1.98  82 2.06 106 2.06  97 2.08  73 2.08   4 2.90  36 2.90
                            21 2.92  29 2.96  45 2.96  19 2.97  35 2.97  27 2.98  38 3.05  22 3.05
  21  0.500  0.406  0.635-  83 1.85  90 1.92 114 1.92 106 2.08  82 2.08  85 2.17   5 2.90  37 2.90
                            20 2.92  28 2.96  44 2.96  19 3.05  35 3.05
  22  0.333  0.094  0.365-  84 1.85  65 1.92  89 1.92  57 2.08  81 2.08  73 2.17   6 2.90  38 2.90
                            19 2.92  11 2.96  27 2.96   4 3.05  20 3.05
  23  0.333  0.094  0.135-  84 1.85  64 1.92  88 1.92  56 2.08  80 2.08  74 2.17   7 2.90  39 2.90
                            17 2.92   9 2.96  25 2.96   2 3.05  18 3.05
  24  0.500  0.406  0.865-  83 1.85  87 1.92 111 1.92 103 2.08  79 2.08  86 2.17   8 2.90  40 2.90
                            18 2.92  26 2.96  42 2.96  17 3.05  33 3.05
  25  0.500  0.863  0.047-  88 1.90  91 1.98  92 2.06 116 2.06  98 2.08  74 2.08   9 2.90  41 2.90
                            31 2.92  39 2.96  23 2.96  26 2.97  42 2.97  18 2.98  32 3.05  48 3.05
  26  0.333  0.637  0.953-  87 1.90  92 1.98  67 2.06  91 2.06  62 2.08  86 2.08  10 2.90  42 2.90
                            32 2.92   8 2.96  24 2.96   9 2.97  25 2.97  17 2.98  15 3.05  31 3.05
  27  0.500  0.863  0.453-  89 1.90  94 1.98  93 2.06 117 2.06  97 2.08  73 2.08  11 2.90  43 2.90
                            30 2.92  38 2.96  22 2.96  28 2.97  44 2.97  20 2.98  29 3.05  45 3.05
  28  0.333  0.637  0.547-  90 1.90  93 1.98  70 2.06  94 2.06  61 2.08  85 2.08  12 2.90  44 2.90
                            29 2.92   5 2.96  21 2.96  11 2.97  27 2.97  19 2.98  14 3.05  30 3.05
  29  0.333  0.906  0.635-  95 1.85  54 1.92  78 1.92  70 2.08  94 2.08  73 2.17  13 2.90  45 2.90
                            28 2.92   4 2.96  20 2.96  11 3.05  27 3.05
  30  0.500  0.594  0.365-  96 1.85  77 1.92 101 1.92  93 2.08 117 2.08  85 2.17  14 2.90  46 2.90
                            27 2.92  35 2.96  19 2.96  44 3.05  28 3.05
  31  0.500  0.594  0.135-  96 1.85  76 1.92 100 1.92  92 2.08 116 2.08  86 2.17  15 2.90  47 2.90
                            25 2.92  33 2.96  17 2.96  42 3.05  26 3.05
  32  0.333  0.906  0.865-  95 1.85  51 1.92  75 1.92  67 2.08  91 2.08  74 2.17  16 2.90  48 2.90
                            26 2.92   2 2.96  18 2.96   9 3.05  25 3.05
  33  0.667  0.363  0.047- 100 1.90 103 1.98 104 2.06  80 2.06 110 2.08  86 2.08   1 2.90  17 2.90
                            39 2.92  47 2.96  31 2.96  34 2.97  18 2.97  42 2.98  40 3.05  24 3.05
  34  0.833  0.137  0.953-  99 1.90 104 1.98 103 2.06  55 2.06  98 2.08  50 2.08  18 2.90   2 2.90
                            40 2.92  48 2.96  16 2.96  33 2.97   1 2.97  41 2.98  39 3.05   7 3.05
  35  0.667  0.363  0.453- 101 1.90 106 1.98 105 2.06  81 2.06 109 2.08  85 2.08   3 2.90  19 2.90
                            38 2.92  46 2.96  30 2.96  36 2.97  20 2.97  44 2.98  37 3.05  21 3.05
  36  0.833  0.137  0.547- 102 1.90 105 1.98 106 2.06  58 2.06  97 2.08  49 2.08  20 2.90   4 2.90
                            37 2.92  45 2.96  13 2.96  35 2.97   3 2.97  43 2.98  38 3.05   6 3.05
  37  0.833  0.406  0.635- 107 1.85 114 1.92  66 1.92 106 2.08  58 2.08 109 2.17  21 2.90   5 2.90
                            36 2.92  44 2.96  12 2.96  35 3.05   3 3.05
  38  0.667  0.094  0.365- 108 1.85 113 1.92  89 1.92 105 2.08  81 2.08  97 2.17   6 2.90  22 2.90
                            35 2.92  43 2.96  27 2.96  36 3.05  20 3.05
  39  0.667  0.094  0.135- 108 1.85 112 1.92  88 1.92 104 2.08  80 2.08  98 2.17   7 2.90  23 2.90
                            33 2.92  41 2.96  25 2.96  34 3.05  18 3.05
  40  0.833  0.406  0.865- 107 1.85 111 1.92  63 1.92 103 2.08  55 2.08 110 2.17  24 2.90   8 2.90
                            34 2.92  42 2.96  10 2.96  33 3.05   1 3.05
  41  0.833  0.863  0.047- 112 1.90 115 1.98 116 2.06  68 2.06  98 2.08  50 2.08  25 2.90   9 2.90
                            47 2.92  39 2.96   7 2.96  42 2.97  10 2.97  34 2.98  48 3.05  16 3.05
  42  0.667  0.637  0.953- 111 1.90 116 1.98 115 2.06  91 2.06 110 2.08  86 2.08  10 2.90  26 2.90
                            48 2.92  40 2.96  24 2.96  41 2.97  25 2.97  33 2.98  47 3.05  31 3.05
  43  0.833  0.863  0.453- 113 1.90 118 1.98 117 2.06  69 2.06  97 2.08  49 2.08  27 2.90  11 2.90
                            46 2.92  38 2.96   6 2.96  44 2.97  12 2.97  36 2.98  45 3.05  13 3.05
  44  0.667  0.637  0.547- 114 1.90 117 1.98 118 2.06  94 2.06 109 2.08  85 2.08  12 2.90  28 2.90
                            45 2.92  37 2.96  21 2.96  43 2.97  27 2.97  35 2.98  46 3.05  30 3.05
  45  0.667  0.906  0.635- 119 1.85 102 1.92  78 1.92 118 2.08  94 2.08  97 2.17  13 2.90  29 2.90
                            44 2.92  36 2.96  20 2.96  43 3.05  27 3.05
  46  0.833  0.594  0.365- 120 1.85 101 1.92  53 1.92 117 2.08  69 2.08 109 2.17  30 2.90  14 2.90
                            43 2.92  35 2.96   3 2.96  44 3.05  12 3.05
  47  0.833  0.594  0.135- 120 1.85 100 1.92  52 1.92 116 2.08  68 2.08 110 2.17  31 2.90  15 2.90
                            41 2.92  33 2.96   1 2.96  42 3.05  10 3.05
  48  0.667  0.906  0.865- 119 1.85  99 1.92  75 1.92 115 2.08  91 2.08  98 2.17  16 2.90  32 2.90
                            42 2.92  34 2.96  18 2.96  41 3.05  25 3.05
  49  0.000  0.000  0.500-   4 2.08  11 2.08  36 2.08  43 2.08   6 2.17  13 2.17
  50  0.000  0.000  0.000-   2 2.08   9 2.08  34 2.08  41 2.08   7 2.17  16 2.17
  51  0.167  0.032  0.843-   2 1.90  32 1.92  16 1.92
  52  0.000  0.468  0.157-   1 1.90  15 1.92  47 1.92
[...]
   0.645E-01 -.160E+03 0.350E+03   -.176E-01 0.171E+03 -.370E+03   -.549E-01 -.116E+02 0.213E+02   -.635E-02 -.452E-02 -.458E-02
   -.251E-13 0.160E+03 -.350E+03   -.888E-13 -.171E+03 0.370E+03   0.000E+00 0.116E+02 -.212E+02   0.703E-12 -.874E-02 -.782E-03
   0.229E-14 0.160E+03 0.350E+03   -.320E-13 -.171E+03 -.370E+03   0.867E-18 0.116E+02 0.212E+02   -.903E-12 -.874E-02 0.782E-03
   0.645E-01 -.160E+03 -.350E+03   -.176E-01 0.171E+03 0.370E+03   -.549E-01 -.116E+02 -.213E+02   -.635E-02 -.452E-02 0.458E-02
   -.638E-13 0.682E+02 0.244E+03   0.528E-13 -.704E+02 -.251E+03   0.434E-18 0.220E+01 0.740E+01   0.800E-12 -.811E-05 0.302E-02
   0.281E-01 -.681E+02 -.244E+03   -.186E-01 0.703E+02 0.251E+03   0.914E-02 -.242E+01 -.745E+01   -.122E-01 0.267E-02 0.739E-02
   0.281E-01 -.681E+02 0.244E+03   -.186E-01 0.703E+02 -.251E+03   0.914E-02 -.242E+01 0.745E+01   -.122E-01 0.267E-02 -.739E-02
   0.440E-13 0.682E+02 -.244E+03   0.595E-13 -.704E+02 0.251E+03   -.434E-18 0.220E+01 -.740E+01   0.729E-13 -.811E-05 -.302E-02
   -.440E-01 0.199E+03 -.557E-06   -.108E-01 -.215E+03 0.344E-13   0.445E-01 0.175E+02 0.414E-24   0.540E-02 -.118E-02 0.286E-12
   -.146E-13 -.199E+03 0.517E-06   -.799E-13 0.215E+03 0.480E-14   0.217E-18 -.175E+02 0.000E+00   0.460E-13 -.275E-02 -.510E-12
[...]
   0.440E-01 0.199E+03 -.507E-06   0.108E-01 -.215E+03 0.269E-13   -.445E-01 0.175E+02 -.207E-24   -.540E-02 -.118E-02 0.110E-12
   -.440E-01 -.199E+03 0.507E-06   -.108E-01 0.215E+03 0.294E-13   0.445E-01 -.175E+02 0.000E+00   0.540E-02 0.118E-02 0.207E-12
   0.779E-01 -.234E-08 0.223E-07   0.195E-01 -.888E-14 -.107E-13   -.174E+00 0.000E+00 -.651E-18   0.965E-02 0.127E-12 -.606E-13
   0.779E-01 0.233E-08 0.223E-07   0.195E-01 0.266E-13 0.711E-14   -.174E+00 -.325E-18 -.651E-18   0.965E-02 -.840E-13 0.232E-14
   0.645E-01 -.160E+03 0.350E+03   -.176E-01 0.171E+03 -.370E+03   -.549E-01 -.116E+02 0.213E+02   -.635E-02 -.452E-02 -.458E-02
   -.645E-01 0.160E+03 -.350E+03   0.176E-01 -.171E+03 0.370E+03   0.549E-01 0.116E+02 -.213E+02   0.635E-02 0.452E-02 0.458E-02
   -.645E-01 0.160E+03 0.350E+03   0.176E-01 -.171E+03 -.370E+03   0.549E-01 0.116E+02 0.213E+02   0.635E-02 0.452E-02 -.458E-02
   0.645E-01 -.160E+03 -.350E+03   -.176E-01 0.171E+03 0.370E+03   -.549E-01 -.116E+02 -.213E+02   -.635E-02 -.452E-02 0.458E-02
   -.281E-01 0.681E+02 0.244E+03   0.186E-01 -.703E+02 -.251E+03   -.914E-02 0.242E+01 0.745E+01   0.122E-01 -.267E-02 -.739E-02
   0.281E-01 -.681E+02 -.244E+03   -.186E-01 0.703E+02 0.251E+03   0.914E-02 -.242E+01 -.745E+01   -.122E-01 0.267E-02 0.739E-02
   0.281E-01 -.681E+02 0.244E+03   -.186E-01 0.703E+02 -.251E+03   0.914E-02 -.242E+01 0.745E+01   -.122E-01 0.267E-02 -.739E-02
   -.281E-01 0.681E+02 -.244E+03   0.186E-01 -.703E+02 0.251E+03   -.914E-02 0.242E+01 -.745E+01   0.122E-01 -.267E-02 0.739E-02
   -.440E-01 0.199E+03 -.557E-06   -.108E-01 -.215E+03 0.359E-13   0.445E-01 0.175E+02 0.000E+00   0.540E-02 -.118E-02 -.165E-12
   0.440E-01 -.199E+03 0.557E-06   0.108E-01 0.215E+03 0.458E-13   -.445E-01 -.175E+02 0.000E+00   -.540E-02 0.118E-02 0.110E-12
   0.573E-10 0.892E-10 0.468E-09   0.618E-12 0.568E-13 -.259E-12   0.555E-16 -.355E-14 -.799E-14   -.438E-11 -.102E-11 0.130E-11

 POSITION                                       TOTAL-FORCE (eV/Angst)
      0.00000      3.52698      0.68146        -0.000000      0.596706      0.465002
      1.45141      1.32630     13.89515        -0.011485     -0.627532     -0.419033
      0.00000      3.52698      6.60685        -0.000000      0.596706     -0.465002
      1.45141      1.32630      7.96976        -0.011485     -0.627532      0.419033
      1.45141      3.94106      9.26154         0.004730      0.327189      1.282776
      0.00000      0.91222      5.31507        -0.000000     -0.350426     -1.265010
      0.00000      0.91222      1.97324        -0.000000     -0.350426      1.265010
      1.45141      3.94106     12.60337         0.004730      0.327189     -1.282776
      1.45141      8.38026      0.68146        -0.011485      0.627532      0.419033
      0.00000      6.17958     13.89515        -0.000000     -0.596706     -0.465002
      1.45141      8.38026      6.60685        -0.011485      0.627532     -0.419033
      0.00000      6.17958      7.96976        -0.000000     -0.596706      0.465002
      0.00000      8.79434      9.26154        -0.000000      0.350426      1.265010
      1.45141      5.76550      5.31507         0.004730     -0.327189     -1.282776
      1.45141      5.76550      1.97324         0.004730     -0.327189      1.282776
      0.00000      8.79434     12.60337        -0.000000      0.350426     -1.265010
      2.90273      3.52698      0.68146         0.011485      0.627532      0.419033
      4.35414      1.32630     13.89515        -0.000000     -0.596706     -0.465002
      2.90273      3.52698      6.60685         0.011485      0.627532     -0.419033
      4.35414      1.32630      7.96976        -0.000000     -0.596706      0.465002
      4.35414      3.94106      9.26154        -0.000000      0.350426      1.265010
      2.90273      0.91222      5.31507        -0.004730     -0.327189     -1.282776
      2.90273      0.91222      1.97324        -0.004730     -0.327189      1.282776
      4.35414      3.94106     12.60337        -0.000000      0.350426     -1.265010
      4.35414      8.38026      0.68146        -0.000000      0.596706      0.465002
      2.90273      6.17958     13.89515         0.011485     -0.627532     -0.419033
      4.35414      8.38026      6.60685        -0.000000      0.596706     -0.465002
      2.90273      6.17958      7.96976         0.011485     -0.627532      0.419033
      2.90273      8.79434      9.26154        -0.004730      0.327189      1.282776
      4.35414      5.76550      5.31507        -0.000000     -0.350426     -1.265010
      4.35414      5.76550      1.97324        -0.000000     -0.350426      1.265010
      2.90273      8.79434     12.60337        -0.004730      0.327189     -1.282776
      5.80554      3.52698      0.68146        -0.011485      0.627532      0.419033
      7.25686      1.32630     13.89515         0.011485     -0.627532     -0.419033
      5.80554      3.52698      6.60685        -0.011485      0.627532     -0.419033
      7.25686      1.32630      7.96976         0.011485     -0.627532      0.419033
      7.25686      3.94106      9.26154        -0.004730      0.327189      1.282776
      5.80554      0.91222      5.31507         0.004730     -0.327189     -1.282776
      5.80554      0.91222      1.97324         0.004730     -0.327189      1.282776
      7.25686      3.94106     12.60337        -0.004730      0.327189     -1.282776
      7.25686      8.38026      0.68146         0.011485      0.627532      0.419033
      5.80554      6.17958     13.89515        -0.011485     -0.627532     -0.419033
      7.25686      8.38026      6.60685         0.011485      0.627532     -0.419033
      5.80554      6.17958      7.96976        -0.011485     -0.627532      0.419033
      5.80554      8.79434      9.26154         0.004730      0.327189      1.282776
      7.25686      5.76550      5.31507        -0.004730     -0.327189     -1.282776
      7.25686      5.76550      1.97324        -0.004730     -0.327189      1.282776
      5.80554      8.79434     12.60337         0.004730      0.327189     -1.282776
      0.00000      0.00000      7.28831        -0.000000     -0.000000      0.000000
      0.00000      0.00000      0.00000        -0.000000     -0.000000      0.000000
      1.45141      0.30818     12.29362        -0.014319     -0.274765      1.309994
      0.00000      4.54510      2.28299        -0.000000      0.313407     -1.309816
      0.00000      4.54510      5.00532        -0.000000      0.313407      1.309816
      1.45141      0.30818      9.57129        -0.014319     -0.274765     -1.309994
      0.00000      2.72046     13.44867        -0.000000      0.074726      0.580678
      1.45141      2.13282      1.12794         0.006457     -0.132370     -0.600689
      1.45141      2.13282      6.16037         0.006457     -0.132370      0.600689
      0.00000      2.72046      8.41624        -0.000000      0.074726     -0.580678
      1.45141      3.15745     10.93246        -0.004931      0.795302      0.000000
      0.00000      1.69583      3.64415        -0.000000     -0.799181     -0.000000
[...]
      5.80554      2.72046      8.41624         0.006457      0.132370     -0.600689
      7.25686      3.15745     10.93246         0.004931      0.795302      0.000000
      5.80554      1.69583      3.64415        -0.004931     -0.795302      0.000000
      7.25686      4.85328      7.28831        -0.066715     -0.000000      0.000000
      7.25686      4.85328      0.00000        -0.066715     -0.000000      0.000000
      5.80554      5.16146     12.29362        -0.014319     -0.274765      1.309994
      7.25686      9.39838      2.28299         0.014319      0.274765     -1.309994
      7.25686      9.39838      5.00532         0.014319      0.274765      1.309994
      5.80554      5.16146      9.57129        -0.014319     -0.274765     -1.309994
      7.25686      7.57374     13.44867        -0.006457      0.132370      0.600689
      5.80554      6.98610      1.12794         0.006457     -0.132370     -0.600689
      5.80554      6.98610      6.16037         0.006457     -0.132370      0.600689
      7.25686      7.57374      8.41624        -0.006457      0.132370     -0.600689
      5.80554      8.01073     10.93246        -0.004931      0.795302      0.000000
      7.25686      6.54911      3.64415         0.004931     -0.795302      0.000000
    total drift:                                0.000000      0.000000      0.000000

  FREE ENERGIE OF THE ION-ELECTRON SYSTEM (eV)
  free  energy   TOTEN  =      -738.3169016148 eV

  energy  without entropy=     -738.1984325514  energy(sigma->0) =     -738.25766708

volume of typ            1:    24.8 %

volume of typ            2:     9.5 %

total charge

# of ion       s       p       d       tot
    1        0.222   0.250   7.894   8.367
    2        0.222   0.250   7.895   8.367
    3        0.222   0.250   7.894   8.367
    4        0.222   0.250   7.895   8.367
    5        0.244   0.277   7.835   8.356
    6        0.244   0.277   7.836   8.357
    7        0.244   0.277   7.836   8.357
    8        0.244   0.277   7.835   8.356
    9        0.222   0.250   7.902   8.373
   10        0.222   0.250   7.894   8.367
   11        0.222   0.250   7.902   8.373
   12        0.222   0.250   7.894   8.367
   13        0.244   0.277   7.836   8.357
   14        0.244   0.277   7.836   8.357
   15        0.244   0.277   7.836   8.357
   16        0.244   0.277   7.836   8.357
   17        0.222   0.250   7.895   8.367
   18        0.222   0.250   7.894   8.367
   19        0.222   0.250   7.895   8.367
   20        0.222   0.250   7.894   8.367
   21        0.244   0.277   7.836   8.357
   22        0.244   0.277   7.835   8.356
   23        0.244   0.277   7.835   8.356
   24        0.244   0.277   7.836   8.357
   25        0.222   0.250   7.894   8.367
   26        0.222   0.250   7.902   8.373
   27        0.222   0.250   7.894   8.367
   28        0.222   0.250   7.902   8.373
   29        0.244   0.277   7.836   8.357
   30        0.244   0.277   7.836   8.357
   31        0.244   0.277   7.836   8.357
   32        0.244   0.277   7.836   8.357
   33        0.222   0.250   7.902   8.373
   34        0.222   0.250   7.902   8.373
   35        0.222   0.250   7.902   8.373
   36        0.222   0.250   7.902   8.373
   37        0.244   0.277   7.836   8.357
   38        0.244   0.277   7.836   8.357
   39        0.244   0.277   7.836   8.357
   40        0.244   0.277   7.836   8.357
   41        0.222   0.250   7.895   8.367
   42        0.222   0.250   7.895   8.367
   43        0.222   0.250   7.895   8.367
   44        0.222   0.250   7.895   8.367
   45        0.244   0.277   7.835   8.356
   46        0.244   0.277   7.835   8.356
   47        0.244   0.277   7.835   8.356
   48        0.244   0.277   7.835   8.356
   49        1.287   2.713   0.006   4.005
   50        1.287   2.713   0.006   4.005
   51        1.285   2.692   0.007   3.984
   52        1.285   2.692   0.007   3.984
   53        1.285   2.692   0.007   3.984
   54        1.285   2.692   0.007   3.984
   55        1.271   2.733   0.006   4.010
   56        1.271   2.734   0.006   4.011
   57        1.271   2.734   0.006   4.011
   58        1.271   2.733   0.006   4.010
   59        1.291   2.657   0.006   3.954
   60        1.291   2.658   0.006   3.954
[...]
  106        1.271   2.734   0.006   4.011
  107        1.291   2.658   0.006   3.955
  108        1.291   2.658   0.006   3.955
  109        1.286   2.715   0.006   4.007
  110        1.286   2.715   0.006   4.007
  111        1.285   2.692   0.007   3.984
  112        1.285   2.692   0.007   3.984
  113        1.285   2.692   0.007   3.984
  114        1.285   2.692   0.007   3.984
  115        1.271   2.734   0.006   4.011
  116        1.271   2.734   0.006   4.011
  117        1.271   2.734   0.006   4.011
  118        1.271   2.734   0.006   4.011
  119        1.291   2.657   0.006   3.954
  120        1.291   2.657   0.006   3.954
tot         103.45  207.35  378.02  688.81

magnetization (x)

# of ion       s       p       d       tot
    1       -0.002   0.001  -0.451  -0.453
    2       -0.001  -0.000  -0.071  -0.072
    3       -0.002   0.001  -0.451  -0.453
    4       -0.001  -0.000  -0.071  -0.072
    5       -0.001   0.006   0.565   0.570
    6       -0.002   0.007   0.533   0.538
    7       -0.002   0.007   0.533   0.538
    8       -0.001   0.006   0.565   0.570
    9       -0.001  -0.000  -0.066  -0.066
   10       -0.002   0.001  -0.451  -0.453
   11       -0.001  -0.000  -0.066  -0.066
   12       -0.002   0.001  -0.451  -0.453
   13       -0.002   0.007   0.533   0.538
   14       -0.001   0.007   0.567   0.572
   15       -0.001   0.007   0.567   0.572
   16       -0.002   0.007   0.533   0.538
   17       -0.001  -0.000  -0.071  -0.072
   18       -0.002   0.001  -0.451  -0.453
   19       -0.001  -0.000  -0.071  -0.072
   20       -0.002   0.001  -0.451  -0.453
   21       -0.002   0.007   0.533   0.538
   22       -0.001   0.006   0.565   0.570
   23       -0.001   0.006   0.565   0.570
   24       -0.002   0.007   0.533   0.538
   25       -0.002   0.001  -0.451  -0.453
   26       -0.001  -0.000  -0.066  -0.066
   27       -0.002   0.001  -0.451  -0.453
   28       -0.001  -0.000  -0.066  -0.066
   29       -0.001   0.007   0.567   0.572
   30       -0.002   0.007   0.533   0.538
   31       -0.002   0.007   0.533   0.538
   32       -0.001   0.007   0.567   0.572
   33       -0.001  -0.000  -0.066  -0.066
   34       -0.001  -0.000  -0.066  -0.066
   35       -0.001  -0.000  -0.066  -0.066
   36       -0.001  -0.000  -0.066  -0.066
   37       -0.001   0.007   0.567   0.572
   38       -0.001   0.007   0.567   0.572
   39       -0.001   0.007   0.567   0.572
   40       -0.001   0.007   0.567   0.572
   41       -0.001  -0.000  -0.071  -0.072
   42       -0.001  -0.000  -0.071  -0.072
   43       -0.001  -0.000  -0.071  -0.072
   44       -0.001  -0.000  -0.071  -0.072
   45       -0.001   0.006   0.565   0.570
   46       -0.001   0.006   0.565   0.570
   47       -0.001   0.006   0.565   0.570
   48       -0.001   0.006   0.565   0.570
   49        0.000  -0.003   0.000  -0.002
   50        0.000  -0.003   0.000  -0.002
   51        0.004   0.089   0.000   0.093
   52        0.004   0.055   0.000   0.059
   53        0.004   0.055   0.000   0.059
   54        0.004   0.089   0.000   0.093
   55        0.002  -0.031   0.000  -0.029
   56        0.000  -0.037   0.000  -0.037
   57        0.000  -0.037   0.000  -0.037
   58        0.002  -0.031   0.000  -0.029
   59        0.011   0.485  -0.000   0.495
   60        0.010   0.475  -0.000   0.486
[...]
  106        0.000  -0.036   0.000  -0.036
  107        0.011   0.484  -0.000   0.494
  108        0.011   0.484  -0.000   0.494
  109       -0.001  -0.008  -0.000  -0.009
  110       -0.001  -0.008  -0.000  -0.009
  111        0.004   0.089   0.000   0.093
  112        0.004   0.089   0.000   0.093
  113        0.004   0.089   0.000   0.093
  114        0.004   0.089   0.000   0.093
  115        0.000  -0.037   0.000  -0.037
  116        0.000  -0.037   0.000  -0.037
  117        0.000  -0.037   0.000  -0.037
  118        0.000  -0.037   0.000  -0.037
  119        0.011   0.485  -0.000   0.495
  120        0.011   0.485  -0.000   0.495
tot           0.18    6.89    8.61   15.68