 vasp.5.4.4.18Apr17-6-g9f103f2a35 (build May 12 2020 04:58:55) complex

 MD_VERSION_INFO: Compiled 2020-05-12T11:58:55-UTC in devlin.sd.materialsdesign.
 com:/home/medea2/data/build/wwolf/vasp-gpu5.4.4/13047/x86_64/src/src/build/std
 from svn 13047

 executed on                        Lin64 date 2023.03.25  13:06:49

 INCAR:
 POTCAR:    PAW_PBE Ni 02Aug2007
 POTCAR:    PAW_PBE O 08Apr2002

 POTCAR:    PAW_PBE Ni 02Aug2007

 POTCAR:    PAW_PBE O 08Apr2002

 Optimization of the real space projectors (new method)

 maximal supplied QI-value         = 16.25
 optimisation between [QCUT,QGAM] = [ 11.38, 22.75] = [ 36.24,144.96] Ry
 Optimized for a Real-space Cutoff    1.47 Angstroem

   l    n(q)    QCUT    max X(q) W(low)/X(q) W(high)/X(q)  e(spline)
   2      9    11.376    60.317    0.17E-03    0.16E-04    0.16E-06
   2      9    11.376    55.921    0.17E-03    0.16E-04    0.17E-06
   0     10    11.376    51.690    0.45E-04    0.60E-04    0.21E-06
   0     10    11.376    30.015    0.37E-04    0.55E-04    0.19E-06
   1     10    11.376    18.849    0.83E-04    0.11E-03    0.92E-07
   1     10    11.376    14.624    0.69E-04    0.92E-04    0.82E-07
 Optimization of the real space projectors (new method)

 maximal supplied QI-value         = 24.76
 optimisation between [QCUT,QGAM] = [ 11.39, 22.77] = [ 36.31,145.25] Ry
 Optimized for a Real-space Cutoff    1.10 Angstroem

   l    n(q)    QCUT    max X(q) W(low)/X(q) W(high)/X(q)  e(spline)
   0      7    11.387    20.381    0.22E-03    0.48E-03    0.18E-06
   0      7    11.387    15.268    0.22E-03    0.52E-03    0.19E-06
   1      7    11.387     5.964    0.22E-03    0.73E-03    0.24E-06
   1      7    11.387     5.382    0.19E-03    0.60E-03    0.21E-06

  PAW_PBE Ni 02Aug2007                  :
  PAW_PBE O 08Apr2002                   :

 POSCAR: Ni2O3_Cc_scale_1_050_disp_0_10_round_2
  positions in direct lattice
 exchange correlation table for  LEXCH =       14
   RHO(1)=    0.500       N(1)  =     2000
   RHO(2)=  100.500       N(2)  =     4000

 ion  position               nearest neighbor table
   1  0.870  0.437  0.241-  33 1.79  38 1.86  60 1.89  67 2.06  31 2.99
   2  0.712  0.211  0.252-  37 1.82  38 1.87  40 1.95  36 2.06   3 3.03   5 3.05  16 3.05
   3  0.401  0.279  0.009-  40 1.76  35 1.82  39 2.03   2 3.03   5 3.07
   4  0.242  0.044  0.016-  39 1.66  59 2.25  58 2.29   5 2.91
   5  0.397  0.193  0.238-  39 1.71  44 1.85  37 1.88  42 1.93   4 2.91   2 3.05   3 3.07
   6  0.255  0.449  0.260-  68 1.62  42 1.95  34 1.95  67 1.98  11 2.94  28 2.95
   7  0.870  0.046  0.997-  41 1.65  57 2.35  48 2.40  58 2.48
   8  0.696  0.276  0.985-  40 1.90  41 2.06  33 2.09  49 2.10
   9  0.863  0.428  0.718-  50 1.71  45 1.90  72 1.94  79 2.40  16 3.04
  10  0.725  0.193  0.729-  50 1.78  48 1.83  49 1.96  52 2.07
  11  0.383  0.280  0.466-  51 1.76  42 1.82  47 1.85  52 2.00   6 2.94
  12  0.241  0.041  0.471-  43 1.82  51 2.09  70 2.15  71 2.22
  13  0.389  0.181  0.723-  56 1.44  54 1.93  49 2.03  51 2.07  14 3.06
  14  0.257  0.421  0.708-  54 1.63  80 1.81  46 1.94  79 2.19  28 3.05  13 3.06
  15  0.896  0.037  0.484-  36 1.79  53 1.98  69 2.26  70 2.32
  16  0.714  0.271  0.489-  52 1.68  53 1.87  37 1.96  45 2.05   9 3.04   2 3.05
  17  0.889  0.900  0.251-  62 1.83  57 1.96  43 2.43  36 2.50  18 3.08
  18  0.736  0.674  0.259-  62 1.57  60 1.83  61 1.91  64 2.13  31 2.77  32 2.99  17 3.08
  19  0.390  0.752  0.013-  63 1.64  59 1.81  64 1.99  21 2.91  20 3.07
  20  0.251  0.516  0.008-  35 1.78  63 2.05  34 2.13  79 2.37  19 3.07  21 3.08
  21  0.402  0.677  0.239-  61 1.76  63 1.82  66 1.88  68 1.89  19 2.91  32 3.00  20 3.08
  22  0.250  0.900  0.259-  66 1.63  58 2.18  43 2.40  44 2.44  27 2.86
  23  0.871  0.509  0.988-  65 1.98  33 2.01  34 2.12  72 2.19
  24  0.702  0.745  0.002-  64 1.58  65 1.81  57 1.96  73 2.49
  25  0.858  0.904  0.709-  74 1.86  69 2.04  48 2.21  32 3.05  26 3.07
  26  0.711  0.672  0.702-  74 1.70  76 1.88  72 1.94  73 1.96  27 3.01  32 3.01  25 3.07
  27  0.398  0.764  0.484-  71 1.66  75 1.84  76 1.96  66 1.96  22 2.86  26 3.01  29 3.04
  28  0.241  0.523  0.478-  75 1.70  46 1.81  67 2.00  47 2.01  29 2.92   6 2.95  14 3.05
  29  0.388  0.667  0.704-  80 1.76  75 1.90  78 1.92  73 2.01  28 2.92  27 3.04
  30  0.259  0.920  0.716-  70 1.83  78 2.00  56 2.14  55 2.17
  31  0.855  0.520  0.459-  60 1.65  45 1.85  77 1.95  46 2.43  18 2.77   1 2.99
  32  0.711  0.752  0.474-  76 1.70  77 1.79  69 1.82  61 1.83  18 2.99  21 3.00  26 3.01  25 3.05

  33  0.771  0.435  0.073-   1 1.79  23 2.01   8 2.09
  34  0.112  0.451  0.076-   6 1.95  23 2.12  20 2.13
  35  0.422  0.429  0.053-  20 1.78   3 1.82
  36  0.761  0.045  0.315-  15 1.79   2 2.06  17 2.50
  37  0.589  0.275  0.303-   2 1.82   5 1.88  16 1.96
  38  0.901  0.285  0.290-   1 1.86   2 1.87
  39  0.302  0.174  0.077-   4 1.66   5 1.71   3 2.03
  40  0.595  0.225  0.067-   3 1.76   8 1.90   2 1.95
  41  0.899  0.183  0.036-   7 1.65   8 2.06
  42  0.287  0.285  0.295-  11 1.82   5 1.93   6 1.95
  43  0.101  0.035  0.299-  12 1.82  22 2.40  17 2.43
  44  0.448  0.046  0.301-   5 1.85  22 2.44
  45  0.780  0.438  0.542-  31 1.85   9 1.90  16 2.05
  46  0.121  0.454  0.528-  28 1.81  14 1.94  31 2.43
  47  0.434  0.431  0.517-  11 1.85  28 2.01
  48  0.771  0.043  0.775-  10 1.83  25 2.21   7 2.40
  49  0.600  0.263  0.789-  10 1.96  13 2.03   8 2.10
  50  0.883  0.292  0.774-   9 1.71  10 1.78
  51  0.288  0.210  0.532-  11 1.76  13 2.07  12 2.09
  52  0.599  0.212  0.534-  16 1.68  11 2.00  10 2.07
  53  0.908  0.197  0.541-  16 1.87  15 1.98
  54  0.296  0.296  0.775-  14 1.63  13 1.93
  55  0.115  0.010  0.771-  30 2.17
  56  0.416  0.062  0.755-  13 1.44  30 2.14
  57  0.769  0.902  0.065-  17 1.96  24 1.96   7 2.35
  58  0.097  0.917  0.053-  22 2.18   4 2.29   7 2.48
  59  0.414  0.899  0.064-  19 1.81   4 2.25
  60  0.766  0.522  0.304-  31 1.65  18 1.83   1 1.89
  61  0.593  0.738  0.301-  21 1.76  32 1.83  18 1.91
  62  0.880  0.747  0.278-  18 1.57  17 1.83
  63  0.295  0.683  0.067-  19 1.64  21 1.82  20 2.05
  64  0.605  0.698  0.060-  24 1.58  19 1.99  18 2.13
  65  0.883  0.667  0.048-  24 1.81  23 1.98
  66  0.301  0.767  0.300-  22 1.63  21 1.88  27 1.96
  67  0.090  0.500  0.291-   6 1.98  28 2.00   1 2.06
  68  0.409  0.529  0.300-   6 1.62  21 1.89
  69  0.763  0.901  0.519-  32 1.82  25 2.04  15 2.26
  70  0.130  0.939  0.544-  30 1.83  12 2.15  15 2.32
  71  0.418  0.899  0.532-  27 1.66  12 2.22
  72  0.763  0.523  0.783-   9 1.94  26 1.94  23 2.19
  73  0.600  0.745  0.773-  26 1.96  29 2.01  24 2.49
  74  0.878  0.753  0.761-  26 1.70  25 1.86
  75  0.295  0.660  0.526-  28 1.70  27 1.84  29 1.90
  76  0.599  0.693  0.525-  32 1.70  26 1.88  27 1.96
  77  0.892  0.676  0.526-  32 1.79  31 1.95
  78  0.281  0.755  0.765-  29 1.92  30 2.00
  79  0.125  0.496  0.785-  14 2.19  20 2.37   9 2.40
  80  0.416  0.524  0.756-  29 1.76  14 1.81

  LATTYP: Found a simple monoclinic cell.
 ALAT       =    16.7450373351
 B/A-ratio  =     0.6987547872
 C/A-ratio  =     1.5833429410
 COS(beta)  =    -0.9717709890

  Lattice vectors:

 A1 = ( -13.0139522300,   0.0000000000, -10.5372350600)
 A2 = (   0.0000000000, -11.7006750000,   0.0000000000)
 A3 = (  16.0876699600,   0.0000000000,  21.0744701200)

Analysis of symmetry for initial positions (statically):
 Subroutine PRICEL returns:
 Original cell was already a primitive cell.

 Routine SETGRP: Setting up the symmetry group for a
 simple monoclinic supercell.

 Subroutine GETGRP returns: Found  1 space group operations
 (whereof  1 operations were pure point group operations)
 out of a pool of  4 trial point group operations.

The static configuration has the point symmetry C_1 .

Analysis of symmetry for dynamics (positions and initial velocities):
 Subroutine PRICEL returns:
 Original cell was already a primitive cell.

[...]

The dynamic configuration has the point symmetry C_1 .

Analysis of structural, dynamic, and magnetic symmetry:
 Subroutine PRICEL returns:
 Original cell was already a primitive cell.

 Routine SETGRP: Setting up the symmetry group for a
 simple monoclinic supercell.

 Subroutine GETGRP returns: Found  1 space group operations
 (whereof  1 operations were pure point group operations)
 out of a pool of  4 trial point group operations.

The magnetic configuration has the point symmetry C_1 .

 Subroutine INISYM returns: Found  1 space group operations
 (whereof  1 operations are pure point group operations),
 and found     1 'primitive' translations

 KPOINTS: Automatic mesh

Automatic generation of k-mesh.
Space group operators:
 irot       det(A)        alpha          n_x          n_y          n_z        tau_x        tau_y        tau_z
    1     1.000000     0.000000     1.000000     0.000000     0.000000     0.000000     0.000000     0.000000

 Subroutine IBZKPT returns following result:

 Found     19 irreducible k-points:

 Following reciprocal coordinates:
            Coordinates               Weight
  0.000000  0.000000  0.000000      1.000000
  0.250000  0.000000  0.000000      2.000000
  0.500000  0.000000  0.000000      1.000000
  0.000000  0.333333  0.000000      2.000000
  0.250000  0.333333  0.000000      2.000000
  0.500000  0.333333  0.000000      2.000000
 -0.250000  0.333333  0.000000      2.000000
  0.000000  0.000000  0.333333      2.000000
  0.250000  0.000000  0.333333      2.000000
  0.500000  0.000000  0.333333      2.000000
 -0.250000  0.000000  0.333333      2.000000
  0.000000  0.333333  0.333333      2.000000
  0.250000  0.333333  0.333333      2.000000
  0.500000  0.333333  0.333333      2.000000
 -0.250000  0.333333  0.333333      2.000000
  0.000000 -0.333333  0.333333      2.000000
  0.250000 -0.333333  0.333333      2.000000
  0.500000 -0.333333  0.333333      2.000000
 -0.250000 -0.333333  0.333333      2.000000

 Following cartesian coordinates:
            Coordinates               Weight
  0.000000  0.000000  0.000000      1.000000
  0.025150  0.000000  0.016389      2.000000
  0.050301  0.000000  0.032778      1.000000
  0.000000  0.028488  0.000000      2.000000
  0.025150  0.028488  0.016389      2.000000
  0.050301  0.028488  0.032778      2.000000
 -0.025150  0.028488 -0.016389      2.000000
  0.000000  0.000000  0.031634      2.000000
  0.025150  0.000000  0.048023      2.000000
  0.050301  0.000000  0.064412      2.000000
 -0.025150  0.000000  0.015245      2.000000
  0.000000  0.028488  0.031634      2.000000
  0.025150  0.028488  0.048023      2.000000
  0.050301  0.028488  0.064412      2.000000
 -0.025150  0.028488  0.015245      2.000000
  0.000000 -0.028488  0.031634      2.000000
  0.025150 -0.028488  0.048023      2.000000
  0.050301 -0.028488  0.064412      2.000000
 -0.025150 -0.028488  0.015245      2.000000

 SYSTEM =  unknown system
 POSCAR =  Ni2O3_Cc_scale_1_050_disp_0_10_round_2

 Startparameter for this run:
   NWRITE =      1    write-flag & timer
   PREC   = accura    normal or accurate (medium, high low for compatibility)
   ISTART =      0    job   : 0-new  1-cont  2-samecut
   ICHARG =      2    charge: 1-file 2-atom 10-const
   ISPIN  =      2    spin polarized calculation?
[...]
   0.200E+03 0.479E+02 0.202E+02   -.216E+03 -.439E+02 -.213E+02   0.155E+02 -.600E+01 0.196E+01   0.103E+00 0.275E+00 -.114E+00
   0.600E+02 0.246E+03 -.698E+02   -.688E+02 -.260E+03 0.699E+02   0.669E+01 0.136E+02 0.125E+01   -.354E+00 -.472E-01 -.504E-01
   -.187E+03 0.240E+02 -.208E+03   0.199E+03 -.189E+02 0.218E+03   -.128E+02 -.641E+01 -.108E+02   0.198E+00 0.299E-01 0.144E+00
   0.191E+03 0.174E+03 -.110E+03   -.201E+03 -.187E+03 0.120E+03   0.111E+02 0.945E+01 -.975E+01   -.478E-01 0.351E+00 0.235E+00
   0.563E+02 -.666E+02 -.874E+02   -.594E+02 0.737E+02 0.877E+02   0.374E+01 -.858E+01 -.481E+00   -.278E+00 -.231E-01 0.403E-01
   -.420E+02 0.319E+03 -.209E+03   0.494E+02 -.352E+03 0.221E+03   -.816E+01 0.197E+02 -.946E+01   0.121E+00 0.744E-02 0.195E+00
   0.488E+01 -.180E+03 0.154E+03   -.817E+01 0.188E+03 -.160E+03   0.393E+01 -.838E+01 0.691E+01   0.618E-01 -.139E+00 0.837E-01
   0.504E+02 0.649E+02 0.161E+03   -.520E+02 -.737E+02 -.168E+03   0.214E+01 0.114E+02 0.844E+01   -.109E+00 -.109E+00 0.284E-01
   -.625E+02 -.206E+03 0.406E+02   0.670E+02 0.216E+03 -.323E+02   -.539E+01 -.110E+02 -.980E+01   0.291E-02 0.300E-01 0.131E+00
   0.721E+02 0.998E+02 0.151E+03   -.813E+02 -.108E+03 -.167E+03   0.104E+02 0.811E+01 0.123E+02   -.451E-01 0.202E+00 0.318E+00
[...]
   0.491E+02 -.915E+02 0.118E+03   -.520E+02 0.988E+02 -.125E+03   0.304E+01 -.820E+01 0.871E+01   -.988E-01 0.570E-01 -.994E-01
   -.155E+03 0.217E+02 -.660E+02   0.172E+03 -.210E+02 0.787E+02   -.154E+02 0.204E+01 -.127E+02   0.129E+00 0.706E-01 -.183E+00
   -.203E+02 -.209E+03 -.647E+01   0.179E+02 0.220E+03 -.646E+00   0.295E+01 -.114E+02 0.854E+01   -.962E-01 0.251E-01 0.268E+00
   0.638E+02 0.784E+02 0.646E+02   -.662E+02 -.862E+02 -.760E+02   0.252E+01 0.955E+01 0.114E+02   -.603E-01 -.149E+00 -.237E+00
   -.282E+02 -.247E+03 -.167E+03   0.316E+02 0.263E+03 0.179E+03   -.450E+01 -.138E+02 -.123E+02   0.134E+00 -.228E+00 -.830E-01
   0.557E+02 0.397E+02 -.104E+03   -.665E+02 -.435E+02 0.105E+03   0.122E+02 0.405E+01 -.110E+01   -.820E-01 0.594E-01 0.175E+00
   0.327E+01 -.228E+03 -.167E+03   -.307E+01 0.240E+03 0.172E+03   -.700E+00 -.141E+02 -.561E+01   0.338E-01 -.259E-02 0.108E+00
   -.228E+03 -.450E+02 -.294E+03   0.244E+03 0.418E+02 0.308E+03   -.151E+02 0.509E+01 -.149E+02   0.879E-01 0.296E+00 0.462E-01
   0.162E+03 -.162E+03 0.448E+02   -.170E+03 0.172E+03 -.487E+02   0.860E+01 -.851E+01 0.481E+01   0.131E-01 0.523E-01 -.863E-01
   0.442E+02 0.918E+02 -.373E+02   -.509E+02 -.105E+03 0.327E+02   0.477E+01 0.126E+02 0.613E+01   -.160E+00 -.324E-01 -.904E-01
   -.246E+03 -.969E+02 -.263E+03   0.261E+03 0.102E+03 0.276E+03   -.162E+02 -.563E+01 -.137E+02   0.160E+00 -.441E+00 -.192E+00
   0.193E+03 -.239E+02 -.786E+02   -.206E+03 0.188E+02 0.827E+02   0.144E+02 0.665E+01 -.437E+01   -.340E-01 -.289E+00 0.237E-01
   0.415E+02 -.874E+02 -.398E+02   -.428E+02 0.941E+02 0.369E+02   0.860E+00 -.748E+01 0.324E+01   0.172E+00 -.101E-01 0.257E+00
   -.799E+02 0.566E+02 -.231E+03   0.918E+02 -.630E+02 0.243E+03   -.128E+02 0.633E+01 -.129E+02   -.152E+00 -.158E+00 0.775E-01
   0.526E+01 0.591E+01 0.390E+02   -.114E-12 0.320E-12 0.142E-12   -.434E+01 -.649E+01 -.378E+02   -.914E+00 0.523E+00 -.114E+01

 POSITION                                       TOTAL-FORCE (eV/Angst)
      6.98961      5.11856      2.54393         0.989532     -0.987407      0.484831
      5.34862      2.47137      2.65401         1.804657     -0.422855      0.021520
      3.92427      3.26164      0.09660        -0.527216      0.956887      0.369761
      2.29734      0.51982      0.16900        -0.339477     -4.632100     -0.825887
      2.31357      2.25892      2.50579        -0.709370     -1.028275      2.454566
      0.74977      5.25020      2.74438        -3.131506     -1.877644     -1.597965
      1.80373      0.53987     10.50727         0.726196     -2.479446     -0.447496
      0.16104      3.22550     10.37648         0.977683     -0.045374     -0.026861
      3.64186      5.01053      7.56955         0.053160      1.398364     -0.280056
      2.20298      2.25623      7.67950        -0.307491     -0.369231      0.247999
      0.60560      3.27673      4.91214         0.595254      0.557353      0.435786
     -0.83279      0.47936      4.96052        -0.423985     -0.657289     -0.139243
     -1.10275      2.11997      7.62049         0.193754     14.262895     -3.031425
     -2.31014      4.93148      7.45935        -0.453167      3.108536     -1.427359
      5.58301      0.43246      5.09980        -0.317350      0.308850      0.437918
      3.74276      3.17515      5.14986         3.222880      1.117020     -0.466999
      7.11540     10.53017      2.64134         0.220790     -0.033760     -1.242860
      5.53706      7.88154      2.73338        -3.740189     -1.803349     -1.183921
      3.78229      8.79818      0.13942         3.219631      3.278430     -0.523021
      2.44367      6.03965      0.08415        -0.164090     -0.623658     -0.528028
      2.35684      7.92393      2.52288        -1.279212     -1.082367      0.221194
      0.70439     10.53003      2.72658        -0.555076      4.597961     -2.374982
      1.87759      5.95036     10.41096         0.106430      1.183725      0.791141
      6.96126      8.71835      0.02431         5.613535      2.393940     -1.062006
      3.66131     10.58158      7.47039         0.175397      0.322176     -0.240593
      2.25049      7.85868      7.39213        -1.487892     -1.038403      0.906780
      0.62631      8.94247      5.10272         0.450363     -1.165558     -0.679907
     -0.88684      6.11498      5.03818         0.530447     -3.077115     -1.350612
     -0.97786      7.79855      7.41626         0.018500      1.361419      1.225986
     -2.34265     10.76535      7.54649        -1.340441      0.166022      0.160592
      5.34287      6.08621      4.83883        -0.754322      0.504942      4.347416
      3.81119      8.80256      4.99699         2.669908      0.970547      0.121763
      7.16796      5.08955      0.76773         1.308560     -0.851543     -1.330826
      0.58766      5.27854      0.80166         0.185038      1.204823     -0.380423
      3.82588      5.01760      0.55964        -1.084363     -0.656189     -0.849848
      5.39938      0.52175      3.31724         0.918042      0.703300      0.184410
      3.77856      3.21540      3.18920        -0.179355     -0.554381      0.744709
      6.96117      3.33288      3.06034        -1.581642      0.878591     -0.700191
      2.47542      2.03624      0.81336         1.218259      2.006263     -1.585125
      5.45130      2.62830      0.70858         0.699958      0.189801      0.221064
      8.68601      2.13747      0.38027        -1.737932      1.252025     -0.463059
      0.83345      3.34044      3.10627         0.726496      0.475129      0.255318
     -1.04937      0.41302      3.15302         0.188850     -1.957703      0.885650
      2.38661      0.53243      3.17538        -1.184423      0.848711     -0.784545
      4.02725      5.12294      5.71130         0.667083     -0.683987      0.388245
     -2.41757      5.30733      5.56270        -0.220874      0.599130      1.366295
      0.75766      5.03959      5.45060        -1.880932     -0.496263     -1.112172
      2.33767      0.50049      8.16904         0.597607      0.169308      0.400757
      0.54467      3.07948      8.31407        -0.130635     -1.264622      0.966071
      3.46704      3.41144      8.15168        -0.636123     -0.259236     -0.280772
     -0.79317      2.46263      5.60655         0.132234     -1.642900      0.712403
      2.29073      2.48098      5.62751        -2.532253     -0.200731      1.366488
      5.30719      2.30175      5.69938        -1.129383     -1.271369     -1.110485
     -2.37799      3.46300      8.16980         0.667257     -2.730930      1.003328
     -4.15032      0.11908      8.12419         0.448476     -1.600904     -0.077419
     -1.04784      0.72015      7.95138        -0.698221    -13.640724      2.652991
      7.19303     10.55357      0.68616         0.711188     -0.520121      0.584522
      0.60434     10.72376      0.55417         0.407227      2.459756      1.356535
      3.67784     10.52356      0.67776        -0.916237     -0.484114     -1.390245
      5.52710      6.11210      3.20110         1.089501      0.030219     -2.771202
[...]
      0.93058      8.97151      3.16432         0.815011     -2.864964      1.156368
     -1.10485      5.85608      3.06765         0.043899     -0.813249      0.995899
      2.00145      6.18655      3.16429         1.969628      2.898155     -0.168563
      4.01998     10.54716      5.46654         0.482402      0.296144      1.698006
     -2.44725     10.98555      5.73212         0.052270      1.572860     -0.173548
      0.49749     10.52312      5.60882        -1.018643      2.229165     -0.346370
      2.21012      6.12177      8.25323         1.233680      0.320128      0.420794
      0.65473      8.72103      8.14025        -0.468232     -1.662870     -0.441648
      3.50417      8.81316      8.02099         0.458341      2.221936     -0.490823
     -0.68052      7.72519      5.53849         0.530919      1.670832      0.881401
      2.34894      8.11238      5.52900        -2.100721     -0.129237      1.359654
      5.26002      7.90652      5.53738        -0.741898     -1.348689     -1.149118
     -2.45895      8.83905      8.06288         1.494085      1.254939     -0.227617
     -4.14826      5.80363      8.27696        -0.286641     -0.726878      0.623883
     -1.05680      6.13205      7.96477        -1.066710     -0.179937     -0.667063
    total drift:                                0.007405     -0.057413      0.003853

  FREE ENERGIE OF THE ION-ELECTRON SYSTEM (eV)
  free  energy   TOTEN  =      -449.4844251582 eV

  energy  without entropy=     -449.3871585097  energy(sigma->0) =     -449.43579183

volume of typ            1:    16.6 %

volume of typ            2:     6.4 %

total charge

# of ion       s       p       d       tot
    1        0.253   0.272   7.835   8.360
    2        0.245   0.254   7.831   8.329
    3        0.237   0.225   7.908   8.371
    4        0.224   0.190   7.908   8.322
    5        0.278   0.322   7.831   8.431
    6        0.285   0.328   7.821   8.434
    7        0.231   0.188   7.869   8.289
    8        0.199   0.179   7.855   8.233
    9        0.256   0.255   7.845   8.356
   10        0.258   0.276   7.810   8.343
   11        0.277   0.311   7.826   8.414
   12        0.215   0.181   7.836   8.231
   13        0.343   0.423   7.913   8.679
   14        0.288   0.328   7.828   8.444
   15        0.219   0.186   7.822   8.227
   16        0.274   0.304   7.837   8.414
   17        0.197   0.154   7.882   8.233
   18        0.291   0.353   7.915   8.560
   19        0.281   0.285   7.895   8.461
   20        0.212   0.185   7.844   8.241
   21        0.270   0.316   7.864   8.450
   22        0.242   0.211   7.876   8.330
   23        0.193   0.157   7.835   8.185
   24        0.298   0.318   7.868   8.484
   25        0.199   0.154   7.831   8.184
   26        0.271   0.301   7.840   8.412
   27        0.280   0.325   7.862   8.467
   28        0.278   0.309   7.826   8.414
   29        0.259   0.282   7.807   8.348
   30        0.222   0.189   7.818   8.228
   31        0.272   0.290   7.860   8.421
   32        0.308   0.382   7.837   8.527
   33        1.272   2.705   0.006   3.982
   34        1.276   2.667   0.003   3.946
   35        1.280   2.695   0.007   3.982
   36        1.281   2.672   0.005   3.958
   37        1.270   2.741   0.007   4.018
   38        1.286   2.667   0.005   3.959
   39        1.264   2.794   0.013   4.071
   40        1.266   2.740   0.008   4.014
   41        1.286   2.688   0.008   3.982
   42        1.269   2.729   0.007   4.005
   43        1.287   2.644   0.004   3.934
   44        1.297   2.612   0.003   3.912
   45        1.269   2.717   0.006   3.992
   46        1.281   2.685   0.005   3.972
   47        1.290   2.649   0.005   3.944
   48        1.275   2.668   0.004   3.947
   49        1.279   2.670   0.004   3.953
   50        1.281   2.720   0.009   4.010
   51        1.276   2.703   0.006   3.985
   52        1.278   2.731   0.009   4.017
   53        1.285   2.655   0.004   3.945
   54        1.278   2.730   0.009   4.018
   55        1.297   2.582   0.001   3.880
   56        1.293   2.783   0.018   4.094
   57        1.276   2.664   0.003   3.944
   58        1.294   2.590   0.001   3.885
   59        1.291   2.631   0.004   3.926
   60        1.267   2.786   0.013   4.066
[...]
   66        1.269   2.775   0.012   4.055
   67        1.280   2.675   0.004   3.958
   68        1.283   2.732   0.010   4.025
   69        1.277   2.682   0.005   3.963
   70        1.278   2.673   0.004   3.955
   71        1.287   2.683   0.007   3.976
   72        1.274   2.681   0.004   3.959
   73        1.287   2.644   0.003   3.935
   74        1.284   2.701   0.008   3.993
   75        1.263   2.783   0.011   4.057
   76        1.273   2.754   0.010   4.037
   77        1.288   2.671   0.006   3.965
   78        1.280   2.659   0.003   3.943
   79        1.297   2.585   0.001   3.884
   80        1.284   2.700   0.008   3.992
tot          69.59  137.82  251.56  458.98

magnetization (x)

# of ion       s       p       d       tot
    1       -0.001   0.016   0.834   0.849
    2       -0.000   0.023   1.201   1.223
    3        0.005   0.003   0.273   0.282
    4       -0.017  -0.012  -0.981  -1.009
    5       -0.002   0.018   1.010   1.026
    6        0.002   0.017   1.132   1.152
    7       -0.022  -0.017  -1.329  -1.369
    8        0.006   0.009   0.754   0.769
    9        0.002   0.010   0.894   0.906
   10        0.002   0.017   0.932   0.952
   11       -0.001   0.010   0.506   0.515
   12        0.001   0.021   1.455   1.477
   13       -0.018  -0.023  -1.012  -1.053
   14        0.000   0.005   0.554   0.559
   15        0.000   0.020   1.477   1.497
   16        0.004   0.023   1.162   1.189
   17        0.000   0.011   1.168   1.179
   18        0.002   0.005   0.170   0.177
   19        0.001   0.007   0.764   0.772
   20       -0.000   0.010   1.252   1.263
   21        0.000  -0.008  -0.598  -0.605
   22        0.009   0.015   1.230   1.255
   23        0.002   0.015   1.262   1.280
   24        0.003   0.002   0.394   0.399
   25        0.002   0.014   1.318   1.334
   26       -0.000   0.007   0.473   0.480
   27        0.009   0.014   0.893   0.916
   28        0.001   0.020   1.040   1.061
   29        0.001   0.019   1.191   1.211
   30       -0.002   0.018   1.400   1.416
   31       -0.006  -0.014  -0.827  -0.847
   32        0.002   0.014   0.573   0.589
   33        0.010   0.260   0.000   0.270
   34        0.012   0.383   0.000   0.395
   35        0.008   0.364  -0.000   0.371
   36        0.012   0.468   0.000   0.481
   37        0.012   0.314   0.000   0.326
   38        0.009   0.401   0.000   0.410
   39        0.002  -0.095   0.000  -0.093
   40        0.007   0.141   0.000   0.148
   41       -0.007  -0.406  -0.000  -0.413
   42        0.009   0.195   0.000   0.204
   43        0.012   0.509   0.000   0.521
   44        0.014   0.691  -0.000   0.706
   45        0.005   0.052   0.000   0.057
   46        0.005   0.138   0.000   0.143
   47        0.008   0.377   0.000   0.385
   48        0.003   0.112   0.000   0.115
   49        0.003   0.073   0.000   0.076
   50        0.007   0.270   0.000   0.277
   51        0.001   0.042   0.000   0.043
   52        0.006   0.219   0.000   0.225
   53        0.012   0.537   0.000   0.549
   54       -0.001  -0.038   0.000  -0.039
   55        0.013   0.610  -0.000   0.623
   56       -0.005  -0.307  -0.001  -0.313
   57        0.006   0.137   0.000   0.143
   58       -0.002  -0.125   0.000  -0.127
   59        0.008   0.413  -0.000   0.421
   60        0.000  -0.073  -0.000  -0.073
[...]
   66        0.007   0.169   0.000   0.177
   67        0.010   0.353   0.000   0.363
   68        0.004   0.162   0.000   0.166
   69        0.009   0.279   0.000   0.288
   70        0.014   0.452   0.000   0.465
   71        0.011   0.487   0.000   0.498
   72        0.006   0.142   0.000   0.149
   73        0.009   0.349   0.000   0.358
   74        0.007   0.332  -0.000   0.339
   75        0.011   0.173   0.001   0.185
   76        0.007   0.076   0.000   0.083
   77       -0.000  -0.005   0.000  -0.005
   78        0.010   0.393   0.000   0.403
   79        0.015   0.668   0.000   0.683
   80        0.008   0.341   0.000   0.349
tot           0.30   11.02   20.57   31.90