 vasp.5.4.4.18Apr17-6-g9f103f2a35 (build May 12 2020 04:58:55) complex

 MD_VERSION_INFO: Compiled 2020-05-12T11:58:55-UTC in devlin.sd.materialsdesign.
 com:/home/medea2/data/build/wwolf/vasp-gpu5.4.4/13047/x86_64/src/src/build/std
 from svn 13047

 executed on                        Lin64 date 2023.03.25  15:30:06

 INCAR:
 POTCAR:    PAW_PBE Ni 02Aug2007
 POTCAR:    PAW_PBE O 08Apr2002

 POTCAR:    PAW_PBE Ni 02Aug2007

 POTCAR:    PAW_PBE O 08Apr2002

 Optimization of the real space projectors (new method)

 maximal supplied QI-value         = 16.25
 optimisation between [QCUT,QGAM] = [ 11.38, 22.75] = [ 36.24,144.96] Ry
 Optimized for a Real-space Cutoff    1.47 Angstroem

   l    n(q)    QCUT    max X(q) W(low)/X(q) W(high)/X(q)  e(spline)
   2      9    11.376    60.317    0.17E-03    0.16E-04    0.16E-06
   2      9    11.376    55.921    0.17E-03    0.16E-04    0.17E-06
   0     10    11.376    51.690    0.45E-04    0.60E-04    0.21E-06
   0     10    11.376    30.015    0.37E-04    0.55E-04    0.19E-06
   1     10    11.376    18.849    0.83E-04    0.11E-03    0.92E-07
   1     10    11.376    14.624    0.69E-04    0.92E-04    0.82E-07
 Optimization of the real space projectors (new method)

 maximal supplied QI-value         = 24.76
 optimisation between [QCUT,QGAM] = [ 11.39, 22.77] = [ 36.31,145.25] Ry
 Optimized for a Real-space Cutoff    1.10 Angstroem

   l    n(q)    QCUT    max X(q) W(low)/X(q) W(high)/X(q)  e(spline)
   0      7    11.387    20.381    0.22E-03    0.48E-03    0.18E-06
   0      7    11.387    15.268    0.22E-03    0.52E-03    0.19E-06
   1      7    11.387     5.964    0.22E-03    0.73E-03    0.24E-06
   1      7    11.387     5.382    0.19E-03    0.60E-03    0.21E-06

  PAW_PBE Ni 02Aug2007                  :
  PAW_PBE O 08Apr2002                   :

 POSCAR: Ni2O3_Cc_scale_1_025_disp_0_15_round_1
  positions in direct lattice
 exchange correlation table for  LEXCH =       14
   RHO(1)=    0.500       N(1)  =     2000
   RHO(2)=  100.500       N(2)  =     4000

 ion  position               nearest neighbor table
   1  0.900  0.417  0.254-  38 1.48  33 1.96  60 2.20  67 2.31   2 2.87   8 2.93
   2  0.749  0.200  0.252-  38 1.72  37 1.82  40 2.15  36 2.17   1 2.87   8 2.98  16 3.06
   3  0.393  0.266  0.988-  40 1.68  39 1.88  35 1.90  54 1.96   4 2.92   5 3.04
   4  0.245  0.043  0.985-  39 1.93  55 2.05  58 2.13  59 2.15   3 2.92   5 3.02
   5  0.407  0.188  0.230-  39 1.64  44 1.78  37 2.02  42 2.11   4 3.02  16 3.03   3 3.04
   6  0.260  0.439  0.288-  67 1.56  42 1.66  68 2.13  34 2.21  11 2.52  28 2.87
   7  0.898  0.073  0.001-  41 1.37  48 2.02  58 2.26  57 2.46   8 2.76
   8  0.751  0.272  0.020-  41 1.74  40 1.88  33 2.10  49 2.27   7 2.76   1 2.93   2 2.98
   9  0.873  0.427  0.729-  50 1.60  45 1.89  72 2.12  79 2.16  10 2.98  31 3.03
  10  0.765  0.183  0.727-  48 1.49  50 1.68  52 2.10  49 2.14  25 2.81   9 2.98  16 3.02
  11  0.395  0.304  0.482-  47 1.90  42 1.94  51 2.00  52 2.15   6 2.52  28 2.98
  12  0.273  0.038  0.487-  43 1.83  51 1.86  71 2.09  70 2.29  22 3.05
  13  0.416  0.199  0.754-  56 1.73  54 1.74  49 2.09  51 2.39
  14  0.236  0.444  0.741-  79 1.88  46 1.91  54 1.95  80 2.08
  15  0.900  0.046  0.506-  53 1.69  36 1.86  69 1.89  70 2.29  25 2.93  16 3.05
  16  0.716  0.272  0.477-  52 1.49  53 1.75  37 1.79  45 1.92  10 3.02   5 3.03  15 3.05   2 3.06

  17  0.844  0.925  0.224-  57 1.56  36 1.92  62 1.96  18 2.80  24 2.94
  18  0.767  0.694  0.250-  62 1.48  60 1.74  64 1.99  61 2.27  17 2.80
  19  0.382  0.756  0.009-  63 1.52  64 2.06  78 2.15  59 2.17  21 2.70  20 2.99
  20  0.249  0.517  0.996-  35 1.91  34 1.93  79 2.11  63 2.25  19 2.99  21 3.04
  21  0.403  0.684  0.226-  68 1.74  63 1.76  61 1.88  66 2.09  19 2.70  20 3.04
  22  0.231  0.928  0.244-  66 1.65  44 1.95  43 2.00  58 2.01  27 2.95  12 3.05
  23  0.890  0.518  0.003-  33 1.58  65 1.97  34 2.11  72 2.21
  24  0.742  0.781  0.994-  65 1.63  57 1.79  64 1.90  73 1.95  17 2.94
  25  0.888  0.960  0.726-  69 1.90  55 2.03  48 2.07  74 2.11  10 2.81  15 2.93
  26  0.739  0.714  0.733-  74 1.65  72 1.93  73 1.94  76 2.25  32 2.83
  27  0.392  0.780  0.479-  71 1.50  76 1.71  75 1.84  66 1.92  22 2.95  32 3.03
  28  0.256  0.528  0.505-  47 1.74  75 1.99  46 2.01  67 2.26   6 2.87  29 2.90  11 2.98
  29  0.409  0.679  0.732-  80 1.76  73 1.79  75 1.79  78 1.98  28 2.90
  30  0.279  0.953  0.754-  56 1.65  70 1.71  55 1.94  78 2.09
  31  0.888  0.516  0.503-  45 1.65  46 1.87  77 1.96  60 2.16   9 3.03
  32  0.718  0.775  0.501-  76 1.58  61 1.79  77 1.85  69 1.95  26 2.83  27 3.03
  33  0.818  0.448  0.072-  23 1.58   1 1.96   8 2.10
  34  0.135  0.470  0.077-  20 1.93  23 2.11   6 2.21
  35  0.438  0.425  0.041-   3 1.90  20 1.91
  36  0.798  0.022  0.328-  15 1.86  17 1.92   2 2.17
  37  0.626  0.269  0.306-  16 1.79   2 1.82   5 2.02
  38  0.910  0.295  0.300-   1 1.48   2 1.72
  39  0.301  0.193  0.071-   5 1.64   3 1.88   4 1.93
  40  0.586  0.222  0.046-   3 1.68   8 1.88   2 2.15
  41  0.915  0.186  0.046-   7 1.37   8 1.74
  42  0.288  0.295  0.295-   6 1.66  11 1.94   5 2.11
  43  0.125  0.030  0.311-  12 1.83  22 2.00
  44  0.396  0.050  0.293-   5 1.78  22 1.95
  45  0.803  0.423  0.552-  31 1.65   9 1.89  16 1.92
  46  0.103  0.475  0.559-  31 1.87  14 1.91  28 2.01
  47  0.440  0.455  0.558-  28 1.74  11 1.90
  48  0.805  0.075  0.808-  10 1.49   7 2.02  25 2.07
  49  0.640  0.273  0.802-  13 2.09  10 2.14   8 2.27
  50  0.900  0.292  0.772-   9 1.60  10 1.68
  51  0.267  0.196  0.522-  12 1.86  11 2.00  13 2.39
  52  0.620  0.221  0.528-  16 1.49  10 2.10  11 2.15
  53  0.895  0.190  0.532-  15 1.69  16 1.75
  54  0.314  0.286  0.805-  13 1.74  14 1.95   3 1.96
  55  0.119  0.014  0.789-  30 1.94  25 2.03   4 2.05
  56  0.421  0.049  0.782-  30 1.65  13 1.73
  57  0.807  0.915  0.084-  17 1.56  24 1.79   7 2.46
  58  0.111  0.954  0.052-  22 2.01   4 2.13   7 2.26
  59  0.459  0.938  0.047-   4 2.15  19 2.17
  60  0.773  0.550  0.298-  18 1.74  31 2.16   1 2.20
  61  0.614  0.748  0.330-  32 1.79  21 1.88  18 2.27
  62  0.913  0.770  0.304-  18 1.48  17 1.96
  63  0.281  0.705  0.057-  19 1.52  21 1.76  20 2.25
  64  0.618  0.720  0.059-  24 1.90  18 1.99  19 2.06
  65  0.888  0.686  0.038-  24 1.63  23 1.97
  66  0.294  0.793  0.296-  22 1.65  27 1.92  21 2.09
  67  0.127  0.517  0.287-   6 1.56  28 2.26   1 2.31
  68  0.445  0.543  0.291-  21 1.74   6 2.13
  69  0.783  0.939  0.544-  15 1.89  25 1.90  32 1.95
  70  0.154  0.964  0.589-  30 1.71  15 2.29  12 2.29
  71  0.436  0.898  0.543-  27 1.50  12 2.09
  72  0.773  0.554  0.793-  26 1.93   9 2.12  23 2.21
  73  0.610  0.742  0.809-  29 1.79  26 1.94  24 1.95
  74  0.912  0.783  0.781-  26 1.65  25 2.11
  75  0.311  0.694  0.559-  29 1.79  27 1.84  28 1.99
  76  0.576  0.725  0.515-  32 1.58  27 1.71  26 2.25
  77  0.898  0.682  0.546-  32 1.85  31 1.96
  78  0.326  0.779  0.815-  29 1.98  30 2.09  19 2.15
  79  0.103  0.513  0.792-  14 1.88  20 2.11   9 2.16
  80  0.449  0.541  0.807-  29 1.76  14 2.08

  LATTYP: Found a simple monoclinic cell.
 ALAT       =    16.3463459659
 B/A-ratio  =     0.6987547874
 C/A-ratio  =     1.5833429409
 COS(beta)  =    -0.9717709890

  Lattice vectors:

 A1 = ( -12.7040962200,   0.0000000000, -10.2863485100)
 A2 = (   0.0000000000, -11.4220875000,   0.0000000000)
 A3 = (  15.7046301900,   0.0000000000,  20.5726970200)

Analysis of symmetry for initial positions (statically):
 Subroutine PRICEL returns:
 Original cell was already a primitive cell.

 Routine SETGRP: Setting up the symmetry group for a
 simple monoclinic supercell.

 Subroutine GETGRP returns: Found  1 space group operations
 (whereof  1 operations were pure point group operations)
 out of a pool of  4 trial point group operations.

The static configuration has the point symmetry C_1 .

Analysis of symmetry for dynamics (positions and initial velocities):
 Subroutine PRICEL returns:
 Original cell was already a primitive cell.

[...]

The dynamic configuration has the point symmetry C_1 .

Analysis of structural, dynamic, and magnetic symmetry:
 Subroutine PRICEL returns:
 Original cell was already a primitive cell.

 Routine SETGRP: Setting up the symmetry group for a
 simple monoclinic supercell.

 Subroutine GETGRP returns: Found  1 space group operations
 (whereof  1 operations were pure point group operations)
 out of a pool of  4 trial point group operations.

The magnetic configuration has the point symmetry C_1 .

 Subroutine INISYM returns: Found  1 space group operations
 (whereof  1 operations are pure point group operations),
 and found     1 'primitive' translations

 KPOINTS: Automatic mesh

Automatic generation of k-mesh.
Space group operators:
 irot       det(A)        alpha          n_x          n_y          n_z        tau_x        tau_y        tau_z
    1     1.000000     0.000000     1.000000     0.000000     0.000000     0.000000     0.000000     0.000000

 Subroutine IBZKPT returns following result:

 Found     19 irreducible k-points:

 Following reciprocal coordinates:
            Coordinates               Weight
  0.000000  0.000000  0.000000      1.000000
  0.250000  0.000000  0.000000      2.000000
  0.500000  0.000000  0.000000      1.000000
  0.000000  0.333333  0.000000      2.000000
  0.250000  0.333333  0.000000      2.000000
  0.500000  0.333333  0.000000      2.000000
 -0.250000  0.333333 -0.000000      2.000000
  0.000000  0.000000  0.333333      2.000000
  0.250000  0.000000  0.333333      2.000000
  0.500000  0.000000  0.333333      2.000000
 -0.250000  0.000000  0.333333      2.000000
  0.000000  0.333333  0.333333      2.000000
  0.250000  0.333333  0.333333      2.000000
  0.500000  0.333333  0.333333      2.000000
 -0.250000  0.333333  0.333333      2.000000
  0.000000 -0.333333  0.333333      2.000000
  0.250000 -0.333333  0.333333      2.000000
  0.500000 -0.333333  0.333333      2.000000
 -0.250000 -0.333333  0.333333      2.000000

 Following cartesian coordinates:
            Coordinates               Weight
  0.000000  0.000000  0.000000      1.000000
  0.025764  0.000000  0.016789      2.000000
  0.051527  0.000000  0.033578      1.000000
  0.000000  0.029183  0.000000      2.000000
  0.025764  0.029183  0.016789      2.000000
  0.051527  0.029183  0.033578      2.000000
 -0.025764  0.029183 -0.016789      2.000000
  0.000000  0.000000  0.032405      2.000000
  0.025764  0.000000  0.049194      2.000000
  0.051527  0.000000  0.065983      2.000000
 -0.025764  0.000000  0.015617      2.000000
  0.000000  0.029183  0.032405      2.000000
  0.025764  0.029183  0.049194      2.000000
  0.051527  0.029183  0.065983      2.000000
 -0.025764  0.029183  0.015617      2.000000
  0.000000 -0.029183  0.032405      2.000000
  0.025764 -0.029183  0.049194      2.000000
  0.051527 -0.029183  0.065983      2.000000
 -0.025764 -0.029183  0.015617      2.000000

 SYSTEM =  unknown system
 POSCAR =  Ni2O3_Cc_scale_1_025_disp_0_15_round_1

 Startparameter for this run:
   NWRITE =      1    write-flag & timer
   PREC   = accura    normal or accurate (medium, high low for compatibility)
   ISTART =      0    job   : 0-new  1-cont  2-samecut
[...]
   0.147E+03 -.597E+02 0.953E+00   -.161E+03 0.684E+02 -.175E+01   0.152E+02 -.925E+01 0.139E+01   0.136E-01 -.307E-01 0.474E-01
   0.232E+03 0.186E+03 -.487E+02   -.256E+03 -.204E+03 0.533E+02   0.141E+02 0.141E+02 0.513E-01   0.424E-01 0.276E-01 0.178E-01
   -.227E+03 -.708E+02 -.162E+03   0.241E+03 0.820E+02 0.173E+03   -.136E+02 -.109E+02 -.110E+02   -.293E-01 0.513E-02 0.531E-02
   0.118E+03 0.103E+02 0.842E+02   -.128E+03 -.989E+01 -.861E+02   0.959E+01 0.777E+00 0.256E+01   0.376E-01 -.588E-01 -.201E-01
   0.211E+02 -.451E+02 -.271E+01   -.224E+02 0.521E+02 -.275E+01   0.551E+00 -.770E+01 0.676E+01   0.523E-01 0.497E-01 0.323E-01
   -.195E+03 0.833E+02 -.107E+03   0.211E+03 -.865E+02 0.116E+03   -.152E+02 0.426E+01 -.857E+01   -.234E-01 0.367E-01 -.548E-01
   -.813E+02 -.143E+03 0.171E+03   0.893E+02 0.153E+03 -.187E+03   -.560E+01 -.941E+01 0.106E+02   0.425E-01 -.130E-02 -.101E+00
   0.256E+02 0.122E+03 0.101E+03   -.271E+02 -.132E+03 -.109E+03   0.135E+01 0.107E+02 0.794E+01   0.372E-01 0.666E-01 -.705E-01
   -.751E+02 -.592E+02 -.592E+02   0.845E+02 0.626E+02 0.645E+02   -.117E+02 -.372E+01 -.648E+01   -.403E-01 0.840E-01 -.575E-01
   0.625E+02 0.115E+03 0.485E+02   -.714E+02 -.126E+03 -.496E+02   0.103E+02 0.106E+02 0.197E+01   0.117E-01 0.494E-01 0.112E-01
[...]
   0.167E+03 -.235E+03 0.476E+02   -.185E+03 0.255E+03 -.549E+02   0.128E+02 -.174E+02 0.881E+01   0.302E-01 -.144E-01 -.107E-01
   -.882E+02 0.148E+03 -.774E+02   0.972E+02 -.161E+03 0.856E+02   -.103E+02 0.132E+02 -.848E+01   -.156E-01 -.872E-01 0.379E-01
   0.581E+02 -.145E+02 0.833E+02   -.659E+02 0.160E+02 -.929E+02   0.827E+01 -.190E+01 0.106E+02   0.293E-01 0.842E-01 -.254E-03
   0.154E+02 0.101E+03 0.172E+03   -.165E+02 -.106E+03 -.189E+03   0.857E+00 0.563E+01 0.158E+02   0.358E-01 0.230E-01 0.330E-01
   -.227E+02 -.274E+03 -.210E+03   0.289E+02 0.300E+03 0.229E+03   -.757E+01 -.157E+02 -.156E+02   -.578E-01 -.496E-01 -.704E-02
   0.295E+02 0.760E+02 -.793E+01   -.378E+02 -.813E+02 0.666E+01   0.979E+01 0.499E+01 0.153E+01   -.399E-01 -.491E-01 0.217E-01
   -.302E+02 -.139E+03 -.205E+02   0.323E+02 0.146E+03 0.216E+02   -.108E+01 -.610E+01 -.908E+00   -.106E+00 -.290E-01 -.576E-01
   -.225E+03 -.134E+02 -.192E+03   0.246E+03 0.145E+02 0.203E+03   -.198E+02 0.147E+01 -.117E+02   0.278E-01 0.219E-01 0.142E-01
   0.185E+03 -.770E+02 0.987E+02   -.195E+03 0.816E+02 -.105E+03   0.108E+02 -.554E+01 0.550E+01   0.246E-01 0.709E-01 0.601E-01
   0.418E+02 0.181E+03 -.491E+02   -.490E+02 -.200E+03 0.498E+02   0.394E+01 0.167E+02 0.168E+01   -.151E+00 0.105E-01 -.398E-02
   -.196E+03 -.801E+02 -.149E+03   0.208E+03 0.838E+02 0.158E+03   -.131E+02 -.462E+01 -.982E+01   0.711E-01 -.505E-01 -.636E-02
   0.131E+03 0.696E+01 0.469E+02   -.136E+03 -.883E+01 -.470E+02   0.603E+01 0.262E+01 0.428E+00   0.766E-01 0.164E-02 -.111E+00
   0.605E+02 -.157E+03 -.269E+02   -.661E+02 0.169E+03 0.231E+02   0.561E+01 -.131E+02 0.518E+01   0.108E-01 -.231E-01 -.209E-01
   -.623E+02 0.137E+03 -.159E+03   0.703E+02 -.149E+03 0.172E+03   -.956E+01 0.116E+02 -.142E+02   0.238E-01 0.511E-01 -.346E-01
   0.265E+02 -.166E+02 0.449E+02   0.540E-12 -.398E-12 -.313E-12   -.265E+02 0.169E+02 -.449E+02   -.656E-02 -.284E+00 -.550E-01

 POSITION                                       TOTAL-FORCE (eV/Angst)
      7.02446      4.75994      2.61633         1.189563     10.482152     -3.699163
      5.57798      2.28519      2.59579        -0.535777     -1.289545     -0.441416
     -2.81089      3.04256     10.16761        -1.847651      2.044291     -1.013788
     -4.22954      0.49026     10.13537         0.480357     -1.693980     -0.013790
      2.40505      2.14584      2.37048        -1.036938     -0.449725      4.553030
      0.59041      5.01774      2.96692         5.443806      0.316286     -1.982066
      8.70459      0.83384      0.01073         3.587093    -20.633010     -7.414927
      7.15458      3.10674      0.20269        -0.232622      0.398836     -1.202010
      3.58298      4.88141      7.49557         0.320853      4.844261     -0.175346
      2.54515      2.08613      7.48210        -1.348062      8.298725     -5.783570
      0.60895      3.47356      4.95484        -0.481489     -0.418635      0.492910
     -0.61422      0.43974      5.00726        -0.768391      0.125033     -0.095437
     -1.01873      2.26769      7.75764         2.040692      0.593855     -0.525098
     -2.67575      5.07439      7.62552         0.317820      0.711521      0.342813
      5.34159      0.52271      5.20879         0.408875     -2.073279     -0.476587
      3.74803      3.10931      4.90937         8.650273      4.369742     -3.344098
      6.68266     10.56384      2.30871        -2.397481      1.055344      6.783204
      5.76580      7.92689      2.56810        -7.655933     -6.088734     -4.361519
      3.65119      8.63603      0.08794         9.029261      4.856312     -3.688056
     -4.25772      5.90088     10.24866        -0.161687     -1.251909     -0.046213
      2.39039      7.81130      2.32924         0.079375      0.078195      1.770373
      0.60689     10.60155      2.51325         0.032346      4.944531     -1.737885
      8.61157      5.91874      0.03037         4.988849      4.150209     -2.707698
      0.53766      8.91943     10.21965        -2.109788      0.571807     -1.166458
      3.75349     10.97002      7.46676         0.727352     -0.430229      0.332266
      2.25349      8.15517      7.54092        -1.866511     -2.305787      0.686902
      0.58674      8.90924      4.92990        -1.575168     -7.445542     -4.479622
     -0.90795      6.02944      5.19871        -0.851619      0.517377     -0.059581
     -0.93293      7.75027      7.52758        -1.289586      0.163724      1.649274
     -2.35254     10.88886      7.76095        -1.976492     -1.995353      0.452686
      5.24627      5.89500      5.17093         2.195928      3.869083     -1.133091
      3.60664      8.85520      5.15143         6.502209      1.108152     -0.877012
      7.45773      5.11478      0.74151        -3.942585     -4.044727      2.840184
      0.79134      5.36336      0.79582         0.063066      0.690590     -1.003980
      3.98185      4.85793      0.41915        -2.179310     -0.003983     -1.031067
      5.54674      0.25579      3.37631         1.168685      0.589931     -0.708902
      4.02776      3.06846      3.14320        -0.704737     -0.822653     -0.959639
      6.81480      3.36988      3.08611        -1.090201     -8.490491      2.802704
      2.44770      2.20351      0.73307         1.075411     -0.617660     -4.202183
      5.38415      2.54012      0.46955         2.951878     -0.536913      1.913919
      8.56728      2.11977      0.47136        -2.665368     19.554070      7.106934
      0.81735      3.37214      3.03075         1.436650     -2.431311      0.806209
     -0.87007      0.34805      3.19928         0.955199     -1.687009      0.529837
      1.87511      0.57046      3.01552        -0.552738      0.095747     -0.927089
      4.08892      4.83140      5.67522        -2.016622     -2.044888      1.092577
     -2.74336      5.42550      5.74748         0.695727      0.292247      0.104360
      0.52792      5.19885      5.73835        -0.084271     -1.563913     -0.818622
      2.39854      0.86021      8.31303        -0.154236     -9.760838      6.217276
      0.82833      3.11431      8.25224        -1.249550     -1.559862      0.160830
      3.55717      3.33983      7.94089         0.733622     -1.604082      0.867553
     -0.90233      2.23659      5.36752         1.713089     -0.581534      0.630773
      2.47680      2.52419      5.43142        -9.740060     -3.432430      4.708544
      5.11671      2.17296      5.47303         0.242450      0.323606      0.315092
     -2.34799      3.27001      8.27935        -0.592500      1.138779      0.585798
     -4.13088      0.15953      8.11464        -0.697772     -0.664159      1.331659
     -1.15297      0.56473      8.04179         1.183378      1.014465      0.532760
      7.26880     10.45284      0.86413         2.357671     -0.381537     -5.307933
      0.72952     10.89540      0.53280        -0.072532      1.578790      0.515061
      4.13268     10.70883      0.48768        -2.366544     -0.297207     -1.234114
      5.50238      6.27837      3.06124         1.431405     -0.975553      0.887878
[...]
      0.87239      9.06214      3.03991         0.626663     -2.591510      0.828592
     -0.69652      5.90163      2.95335        -5.567559      2.598540      1.455842
      2.36448      6.20105      2.99284        -1.365423     -0.136910     -0.285055
      3.95458     10.72146      5.59656         0.497129     -0.258472      1.056519
     -2.45746     11.00959      6.06346        -0.143514      0.712750     -1.438525
      0.58503     10.25205      5.58738        -1.465328      9.887702      3.533899
      2.18129      6.32499      8.15961         1.463327     -0.408302      0.285589
      0.49967      8.47546      8.31815         0.943503      0.639287      0.178902
      3.61505      8.93834      8.03794         0.962400      2.528639     -0.361436
     -0.73624      7.93239      5.75493         0.245184     -0.896856     -0.736779
      2.13932      8.28204      5.29283        -3.384504     -2.475948      2.318910
      5.04896      7.79168      5.61963        -0.921743     -0.948954     -0.589103
     -2.30119      8.89698      8.37914         0.365051      0.757480      0.209784
     -4.30558      5.85820      8.14328         0.012698     -1.162872      1.298317
     -1.05411      6.17853      8.30576        -1.609159     -0.310590     -1.154302
    total drift:                                0.008740      0.027293      0.004939

  FREE ENERGIE OF THE ION-ELECTRON SYSTEM (eV)
  free  energy   TOTEN  =      -449.7850445086 eV

  energy  without entropy=     -449.6915898953  energy(sigma->0) =     -449.73831720

volume of typ            1:    17.9 %

volume of typ            2:     6.9 %

total charge

# of ion       s       p       d       tot
    1        0.308   0.333   7.967   8.608
    2        0.241   0.252   7.905   8.399
    3        0.271   0.311   7.878   8.460
    4        0.205   0.177   7.821   8.203
    5        0.280   0.316   7.871   8.467
    6        0.332   0.410   7.877   8.619
    7        0.346   0.387   8.064   8.797
    8        0.227   0.233   7.908   8.368
    9        0.263   0.285   7.889   8.438
   10        0.343   0.436   7.957   8.737
   11        0.225   0.217   7.861   8.302
   12        0.234   0.211   7.841   8.286
   13        0.263   0.273   7.848   8.384
   14        0.233   0.230   7.811   8.274
   15        0.265   0.287   7.840   8.392
   16        0.364   0.488   7.917   8.769
   17        0.290   0.313   7.917   8.520
   18        0.350   0.419   7.901   8.671
   19        0.298   0.320   7.915   8.533
   20        0.215   0.188   7.829   8.232
   21        0.277   0.316   7.857   8.450
   22        0.275   0.303   7.824   8.401
   23        0.269   0.285   7.869   8.423
   24        0.297   0.352   7.856   8.505
   25        0.204   0.187   7.881   8.273
   26        0.272   0.289   7.850   8.412
   27        0.359   0.470   7.920   8.749
   28        0.237   0.232   7.864   8.332
   29        0.289   0.337   7.803   8.429
   30        0.299   0.344   7.836   8.479
   31        0.268   0.296   7.852   8.416
   32        0.315   0.392   7.875   8.582
   33        1.273   2.768   0.012   4.053
   34        1.280   2.663   0.003   3.946
   35        1.288   2.653   0.005   3.945
   36        1.269   2.706   0.005   3.980
   37        1.270   2.747   0.008   4.025
   38        1.285   2.806   0.021   4.112
   39        1.266   2.783   0.012   4.060
   40        1.272   2.747   0.009   4.028
   41        1.296   2.846   0.030   4.172
   42        1.276   2.740   0.010   4.026
   43        1.287   2.659   0.005   3.951
   44        1.283   2.677   0.005   3.966
   45        1.270   2.774   0.011   4.055
   46        1.263   2.730   0.006   3.999
   47        1.282   2.696   0.007   3.985
   48        1.275   2.799   0.017   4.091
   49        1.290   2.624   0.002   3.916
   50        1.281   2.780   0.015   4.077
   51        1.280   2.669   0.004   3.953
   52        1.283   2.787   0.016   4.086
   53        1.281   2.741   0.010   4.032
   54        1.264   2.749   0.008   4.021
   55        1.275   2.686   0.004   3.964
   56        1.279   2.753   0.012   4.043
   57        1.274   2.786   0.014   4.074
   58        1.281   2.648   0.003   3.931
   59        1.298   2.591   0.002   3.890
   60        1.280   2.688   0.006   3.974
[...]
   66        1.271   2.760   0.010   4.041
   67        1.287   2.733   0.011   4.032
   68        1.289   2.663   0.005   3.957
   69        1.269   2.722   0.006   3.997
   70        1.285   2.679   0.006   3.970
   71        1.288   2.765   0.015   4.068
   72        1.277   2.661   0.003   3.941
   73        1.270   2.732   0.007   4.010
   74        1.288   2.688   0.008   3.984
   75        1.266   2.751   0.008   4.025
   76        1.281   2.794   0.016   4.091
   77        1.287   2.658   0.004   3.949
   78        1.280   2.659   0.003   3.942
   79        1.278   2.673   0.004   3.956
   80        1.291   2.656   0.005   3.952
tot          70.36  140.42  252.54  463.31

magnetization (x)

# of ion       s       p       d       tot
    1       -0.016  -0.009  -0.574  -0.598
    2        0.000   0.008   0.585   0.594
    3        0.002  -0.010  -0.406  -0.413
    4       -0.003   0.012   1.390   1.399
    5       -0.002  -0.010  -0.899  -0.911
    6        0.018   0.019   1.047   1.084
    7        0.007   0.006   0.177   0.191
    8        0.001   0.005   0.717   0.723
    9        0.003   0.008   0.756   0.767
   10       -0.004  -0.002  -0.074  -0.079
   11        0.003   0.017   1.205   1.225
   12        0.004   0.011   0.913   0.928
   13        0.003   0.011   1.051   1.065
   14       -0.000   0.023   1.378   1.401
   15        0.004   0.015   0.942   0.962
   16       -0.003  -0.013  -0.499  -0.515
   17       -0.009  -0.007  -0.551  -0.568
   18        0.004   0.010   0.665   0.679
   19       -0.011  -0.004  -0.431  -0.446
   20       -0.002  -0.011  -1.243  -1.255
   21       -0.000   0.009   0.677   0.686
   22        0.006   0.018   0.957   0.981
   23        0.008   0.014   1.039   1.061
   24        0.004   0.009   0.629   0.642
   25        0.000   0.012   1.005   1.017
   26        0.013   0.025   1.187   1.224
   27        0.000  -0.011  -0.682  -0.692
   28        0.008   0.022   1.343   1.374
   29        0.002   0.019   1.000   1.021
   30        0.000  -0.009  -0.490  -0.499
   31        0.004   0.015   0.907   0.925
   32       -0.001   0.007   0.373   0.379
   33        0.005   0.169   0.001   0.174
   34        0.004   0.026   0.000   0.031
   35       -0.009  -0.450   0.000  -0.459
   36        0.005   0.073   0.000   0.078
   37       -0.000  -0.017  -0.000  -0.018
   38       -0.001  -0.114  -0.000  -0.116
   39       -0.002  -0.041  -0.000  -0.043
   40        0.003   0.131  -0.000   0.133
   41        0.003   0.125  -0.000   0.128
   42        0.005   0.170   0.000   0.175
   43        0.008   0.271   0.000   0.279
   44       -0.003  -0.239   0.000  -0.242
   45        0.003   0.073   0.000   0.077
   46        0.012   0.281   0.000   0.292
   47        0.011   0.487   0.000   0.498
   48        0.000  -0.015  -0.000  -0.015
   49        0.006   0.258   0.000   0.264
   50        0.004   0.151   0.000   0.155
   51        0.009   0.340   0.000   0.349
   52       -0.001  -0.078  -0.001  -0.080
   53        0.002   0.120   0.000   0.122
   54        0.006   0.181   0.000   0.187
   55        0.005   0.200  -0.000   0.205
   56        0.002   0.069  -0.000   0.070
   57       -0.000  -0.116  -0.000  -0.116
   58        0.008   0.306   0.000   0.314
   59        0.011   0.575  -0.000   0.586
   60        0.003   0.088   0.000   0.091
[...]
   66        0.002   0.091   0.000   0.094
   67        0.008   0.344   0.001   0.353
   68        0.010   0.416   0.000   0.426
   69        0.008   0.204   0.000   0.212
   70        0.001   0.025  -0.000   0.026
   71       -0.005  -0.259  -0.000  -0.265
   72        0.011   0.302   0.000   0.313
   73        0.011   0.172   0.000   0.183
   74        0.011   0.485   0.000   0.496
   75        0.005   0.110   0.000   0.115
   76        0.001   0.042   0.000   0.044
   77        0.008   0.374   0.000   0.382
   78        0.000  -0.045   0.000  -0.044
   79        0.005   0.205   0.000   0.211
   80        0.011   0.499   0.000   0.509
tot           0.25    6.92   14.10   21.27