 vasp.5.4.4.18Apr17-6-g9f103f2a35 (build May 12 2020 04:58:55) complex

 MD_VERSION_INFO: Compiled 2020-05-12T11:58:55-UTC in devlin.sd.materialsdesign.
 com:/home/medea2/data/build/wwolf/vasp-gpu5.4.4/13047/x86_64/src/src/build/std
 from svn 13047

 executed on                        Lin64 date 2023.03.25  20:46:24

 INCAR:
 POTCAR:    PAW_PBE Ni 02Aug2007
 POTCAR:    PAW_PBE O 08Apr2002

 POTCAR:    PAW_PBE Ni 02Aug2007

 POTCAR:    PAW_PBE O 08Apr2002

 Optimization of the real space projectors (new method)

 maximal supplied QI-value         = 16.25
 optimisation between [QCUT,QGAM] = [ 11.38, 22.75] = [ 36.24,144.96] Ry
 Optimized for a Real-space Cutoff    1.47 Angstroem

   l    n(q)    QCUT    max X(q) W(low)/X(q) W(high)/X(q)  e(spline)
   2      9    11.376    60.317    0.17E-03    0.16E-04    0.16E-06
   2      9    11.376    55.921    0.17E-03    0.16E-04    0.17E-06
   0     10    11.376    51.690    0.45E-04    0.60E-04    0.21E-06
   0     10    11.376    30.015    0.37E-04    0.55E-04    0.19E-06
   1     10    11.376    18.849    0.83E-04    0.11E-03    0.92E-07
   1     10    11.376    14.624    0.69E-04    0.92E-04    0.82E-07
 Optimization of the real space projectors (new method)

 maximal supplied QI-value         = 24.76
 optimisation between [QCUT,QGAM] = [ 11.39, 22.77] = [ 36.31,145.25] Ry
 Optimized for a Real-space Cutoff    1.10 Angstroem

   l    n(q)    QCUT    max X(q) W(low)/X(q) W(high)/X(q)  e(spline)
   0      7    11.387    20.381    0.22E-03    0.48E-03    0.18E-06
   0      7    11.387    15.268    0.22E-03    0.52E-03    0.19E-06
   1      7    11.387     5.964    0.22E-03    0.73E-03    0.24E-06
   1      7    11.387     5.382    0.19E-03    0.60E-03    0.21E-06

  PAW_PBE Ni 02Aug2007                  :
  PAW_PBE O 08Apr2002                   :

 POSCAR: Ni2O3_Cc_scale_0_975_disp_0_10_round_2
  positions in direct lattice
 exchange correlation table for  LEXCH =       14
   RHO(1)=    0.500       N(1)  =     2000
   RHO(2)=  100.500       N(2)  =     4000

 ion  position               nearest neighbor table
   1  0.927  0.472  0.256-  67 1.84  60 1.90  38 1.94  33 2.05   2 3.02  28 3.05  18 3.07
   2  0.783  0.226  0.267-  38 1.73  37 1.76  40 1.93  36 1.98  17 3.00   1 3.02   3 3.03
   3  0.447  0.312  0.015-  54 1.68  40 1.82  35 1.86  39 2.07  14 2.83  13 3.00   2 3.03
   4  0.241  0.036  0.992-  55 1.57  59 1.84  58 1.84  39 2.04  30 2.64  25 2.72   7 2.82  19 2.97

   5  0.435  0.206  0.266-  44 1.71  39 1.78  37 1.78  42 1.88  22 3.04  16 3.05
   6  0.280  0.471  0.283-  67 1.73  68 1.73  42 1.86  34 2.28  11 2.97  28 3.01
   7  0.935  0.048  0.990-  58 1.54  48 1.59  41 1.92  57 2.03  10 2.74  25 2.75   4 2.82  22 2.94
                            24 3.03
   8  0.779  0.308  0.994-  49 1.69  41 1.78  33 1.79  40 2.11  10 2.61  23 3.07
   9  0.916  0.460  0.750-  79 1.78  50 1.88  72 1.92  45 1.93  16 2.86  20 2.96  23 3.01  31 3.04
                            10 3.07
  10  0.772  0.218  0.783-  49 1.70  50 1.75  48 1.76  52 1.94   8 2.61   7 2.74   9 3.07  25 3.09

  11  0.424  0.301  0.519-  51 1.88  52 1.95  47 1.96  42 1.99   6 2.97  13 3.04
  12  0.278  0.034  0.510-  71 1.49  43 1.81  51 1.94  70 2.14  27 2.76  22 2.89  17 2.93
  13  0.411  0.214  0.761-  51 1.82  56 1.89  49 1.90  54 2.04  30 2.96   3 3.00  11 3.04  14 3.07

[...]

  24  0.780  0.804  0.999-  65 1.76  73 1.78  64 1.86  57 1.97  26 2.73   7 3.03
  25  0.932  0.976  0.763-  55 1.62  48 1.76  69 1.79  74 1.85   4 2.72   7 2.75  15 2.95  30 2.97
                            32 3.00  10 3.09
  26  0.763  0.721  0.771-  73 1.84  72 1.90  74 1.91  76 2.04  24 2.73  23 2.92  29 3.01  27 3.05

[...]

  29  0.424  0.724  0.752-  75 1.74  73 1.81  78 1.94  80 2.06  28 2.91  27 2.97  26 3.01
  30  0.267  0.979  0.784-  55 1.69  56 1.74  78 1.79  70 1.97   4 2.64  19 2.88  13 2.96  25 2.97
                            15 2.99
  31  0.940  0.569  0.520-  60 1.71  77 1.74  46 1.75  45 1.77  28 2.94   9 3.04  18 3.05  32 3.06

[...]

  33  0.817  0.465  0.049-   8 1.79  23 1.85   1 2.05
  34  0.115  0.502  0.052-  23 1.43  20 1.69   6 2.28
  35  0.452  0.481  0.046-   3 1.86  20 1.90
  36  0.829  0.052  0.328-  17 1.75  15 1.91   2 1.98
  37  0.642  0.266  0.318-   2 1.76   5 1.78  16 2.06
  38  0.973  0.303  0.321-   2 1.73   1 1.94
  39  0.327  0.203  0.085-   5 1.78   4 2.04   3 2.07
  40  0.642  0.224  0.069-   3 1.82   2 1.93   8 2.11
  41  0.964  0.213  0.057-   8 1.78   7 1.92
  42  0.310  0.303  0.317-   6 1.86   5 1.88  11 1.99
  43  0.144  0.042  0.325-  22 1.69  17 1.72  12 1.81
  44  0.453  0.053  0.304-   5 1.71  22 1.90
  45  0.823  0.465  0.556-  31 1.77  16 1.92   9 1.93
  46  0.135  0.493  0.578-  31 1.75  28 1.78  14 2.00
  47  0.442  0.471  0.583-  28 1.74  11 1.96
  48  0.831  0.062  0.828-   7 1.59  10 1.76  25 1.76
  49  0.637  0.274  0.827-   8 1.69  10 1.70  13 1.90
  50  0.955  0.298  0.814-  10 1.75   9 1.88
  51  0.307  0.202  0.576-  13 1.82  11 1.88  12 1.94
  52  0.646  0.222  0.585-  16 1.78  10 1.94  11 1.95
  53  0.945  0.207  0.566-  16 1.71  15 1.84
  54  0.300  0.303  0.846-   3 1.68  14 1.86  13 2.04
  55  0.131  0.019  0.833-   4 1.57  25 1.62  30 1.69
  56  0.460  0.051  0.830-  30 1.74  13 1.89
  57  0.811  0.972  0.073-  17 1.84  24 1.97   7 2.03
  58  0.125  0.006  0.077-   7 1.54  22 1.77   4 1.84
  59  0.456  0.972  0.055-  19 1.83   4 1.84
  60  0.839  0.559  0.347-  31 1.71   1 1.90  18 1.94
  61  0.638  0.786  0.327-  21 1.81  32 1.89  18 1.90
  62  0.961  0.826  0.301-  17 1.79  18 2.00
  63  0.311  0.710  0.074-  21 1.78  20 1.88  19 1.98
  64  0.651  0.739  0.064-  24 1.86  18 1.90  19 1.91
  65  0.960  0.711  0.048-  23 1.75  24 1.76
  66  0.330  0.808  0.326-  21 1.76  27 1.88  22 1.97
  67  0.150  0.526  0.337-   6 1.73  28 1.81   1 1.84
  68  0.457  0.558  0.318-   6 1.73  21 1.90
  69  0.822  0.007  0.584-  15 1.64  25 1.79  32 2.24
  70  0.117  0.989  0.583-  15 1.52  30 1.97  12 2.14
  71  0.435  0.962  0.548-  12 1.49  27 1.64
  72  0.833  0.559  0.839-  23 1.62  26 1.90   9 1.92
  73  0.628  0.803  0.819-  24 1.78  29 1.81  26 1.84
  74  0.964  0.811  0.812-  25 1.85  26 1.91
  75  0.327  0.701  0.578-  28 1.67  29 1.74  27 1.94
  76  0.628  0.757  0.567-  27 1.69  32 1.76  26 2.04
  77  0.967  0.724  0.565-  31 1.74  32 1.86
  78  0.308  0.818  0.820-  30 1.79  19 1.85  29 1.94
  79  0.131  0.518  0.848-  20 1.49   9 1.78  14 1.94
  80  0.470  0.550  0.834-  14 1.84  29 2.06

  LATTYP: Found a simple monoclinic cell.
 ALAT       =    15.5489632352
 B/A-ratio  =     0.6987547874
 C/A-ratio  =     1.5833429408
 COS(beta)  =    -0.9717709890

  Lattice vectors:

 A1 = ( -12.0843842100,   0.0000000000,  -9.7845754100)
 A2 = (   0.0000000000, -10.8649125000,   0.0000000000)
 A3 = (  14.9385506700,   0.0000000000,  19.5691508200)

Analysis of symmetry for initial positions (statically):
 Subroutine PRICEL returns:
 Original cell was already a primitive cell.

 Routine SETGRP: Setting up the symmetry group for a
 simple monoclinic supercell.

 Subroutine GETGRP returns: Found  1 space group operations
 (whereof  1 operations were pure point group operations)
 out of a pool of  4 trial point group operations.

The static configuration has the point symmetry C_1 .

Analysis of symmetry for dynamics (positions and initial velocities):
 Subroutine PRICEL returns:
 Original cell was already a primitive cell.

[...]

The dynamic configuration has the point symmetry C_1 .

Analysis of structural, dynamic, and magnetic symmetry:
 Subroutine PRICEL returns:
 Original cell was already a primitive cell.

 Routine SETGRP: Setting up the symmetry group for a
 simple monoclinic supercell.

 Subroutine GETGRP returns: Found  1 space group operations
 (whereof  1 operations were pure point group operations)
 out of a pool of  4 trial point group operations.

The magnetic configuration has the point symmetry C_1 .

 Subroutine INISYM returns: Found  1 space group operations
 (whereof  1 operations are pure point group operations),
 and found     1 'primitive' translations

 KPOINTS: Automatic mesh

Automatic generation of k-mesh.
Space group operators:
 irot       det(A)        alpha          n_x          n_y          n_z        tau_x        tau_y        tau_z
    1     1.000000     0.000000     1.000000     0.000000     0.000000     0.000000     0.000000     0.000000

 Subroutine IBZKPT returns following result:

 Found     19 irreducible k-points:

 Following reciprocal coordinates:
            Coordinates               Weight
  0.000000  0.000000  0.000000      1.000000
  0.250000  0.000000  0.000000      2.000000
  0.500000  0.000000  0.000000      1.000000
  0.000000  0.333333  0.000000      2.000000
  0.250000  0.333333  0.000000      2.000000
  0.500000  0.333333  0.000000      2.000000
 -0.250000  0.333333 -0.000000      2.000000
  0.000000  0.000000  0.333333      2.000000
  0.250000  0.000000  0.333333      2.000000
  0.500000  0.000000  0.333333      2.000000
 -0.250000  0.000000  0.333333      2.000000
  0.000000  0.333333  0.333333      2.000000
  0.250000  0.333333  0.333333      2.000000
  0.500000  0.333333  0.333333      2.000000
 -0.250000  0.333333  0.333333      2.000000
  0.000000 -0.333333  0.333333      2.000000
  0.250000 -0.333333  0.333333      2.000000
  0.500000 -0.333333  0.333333      2.000000
 -0.250000 -0.333333  0.333333      2.000000

 Following cartesian coordinates:
            Coordinates               Weight
  0.000000  0.000000  0.000000      1.000000
  0.027085  0.000000  0.017650      2.000000
  0.054170  0.000000  0.035299      1.000000
  0.000000  0.030680  0.000000      2.000000
  0.027085  0.030680  0.017650      2.000000
  0.054170  0.030680  0.035299      2.000000
 -0.027085  0.030680 -0.017650      2.000000
  0.000000  0.000000  0.034067      2.000000
  0.027085  0.000000  0.051717      2.000000
  0.054170  0.000000  0.069367      2.000000
 -0.027085  0.000000  0.016418      2.000000
  0.000000  0.030680  0.034067      2.000000
  0.027085  0.030680  0.051717      2.000000
  0.054170  0.030680  0.069367      2.000000
 -0.027085  0.030680  0.016418      2.000000
  0.000000 -0.030680  0.034067      2.000000
  0.027085 -0.030680  0.051717      2.000000
  0.054170 -0.030680  0.069367      2.000000
 -0.027085 -0.030680  0.016418      2.000000

 SYSTEM =  unknown system
 POSCAR =  Ni2O3_Cc_scale_0_975_disp_0_10_round_2

 Startparameter for this run:
   NWRITE =      1    write-flag & timer
   PREC   = accura    normal or accurate (medium, high low for compatibility)
   ISTART =      0    job   : 0-new  1-cont  2-samecut
   ICHARG =      2    charge: 1-file 2-atom 10-const
   ISPIN  =      2    spin polarized calculation?
   LNONCOLLINEAR =      F non collinear calculations
   LSORBIT =      F    spin-orbit coupling
   INIWAV =      1    electr: 0-lowe 1-rand  2-diag
   LASPH  =      F    aspherical Exc in radial PAW
   METAGGA=      F    non-selfconsistent MetaGGA calc.

 Electronic Relaxation 1
   ENCUT  =  500.0 eV  36.75 Ry    6.06 a.u.  16.83 19.81 21.29*2*pi/ulx,y,z
   ENINI  =  500.0     initial cutoff
   ENAUG  =  605.4 eV  augmentation charge cutoff
[...]
   0.121E+03 -.871E+02 0.102E+03   -.133E+03 0.909E+02 -.111E+03   0.126E+02 -.406E+01 0.883E+01   0.221E+00 0.109E+00 0.234E+00
   0.641E+02 0.101E+03 0.784E+02   -.676E+02 -.115E+03 -.814E+02   0.250E+01 0.157E+02 0.319E+01   -.512E+00 -.135E+00 -.183E+00
   -.190E+03 -.125E+03 -.807E+02   0.204E+03 0.131E+03 0.908E+02   -.146E+02 -.625E+01 -.105E+02   0.281E+00 -.279E+00 0.162E+00
   0.121E+03 0.104E+03 0.141E+03   -.137E+03 -.116E+03 -.153E+03   0.165E+02 0.112E+02 0.965E+01   0.172E+00 -.930E-01 -.100E+01
   -.450E+02 -.119E+03 0.825E+02   0.480E+02 0.130E+03 -.938E+02   -.901E+00 -.955E+01 0.812E+01   -.407E+00 -.609E+00 -.585E+00
   -.197E+03 0.429E+02 -.106E+03   0.214E+03 -.477E+02 0.119E+03   -.177E+02 0.635E+01 -.135E+02   0.269E+00 -.184E+00 -.205E+00
   0.158E+03 -.581E+02 0.727E+02   -.170E+03 0.655E+02 -.800E+02   0.133E+02 -.736E+01 0.730E+01   0.965E-01 -.596E+00 -.409E+00
   -.818E+02 0.117E+03 -.871E+02   0.937E+02 -.126E+03 0.941E+02   -.592E+01 0.676E+01 -.353E+01   -.452E+00 -.499E+00 0.661E-01
   -.173E+03 -.856E+02 -.206E+03   0.187E+03 0.977E+02 0.217E+03   -.160E+02 -.117E+02 -.118E+02   0.345E+00 -.136E+01 -.220E+00
   0.117E+03 0.768E+02 0.140E+03   -.126E+03 -.838E+02 -.150E+03   0.975E+01 0.723E+01 0.696E+01   0.262E+00 0.360E+00 -.271E+00
[...]
   0.190E+02 -.112E+03 0.519E+02   -.217E+02 0.121E+03 -.546E+02   0.161E+01 -.890E+01 0.274E+01   -.187E+00 0.363E-02 -.430E+00
   -.188E+03 0.808E+02 -.126E+03   0.205E+03 -.840E+02 0.136E+03   -.169E+02 0.415E+01 -.110E+02   -.902E-01 0.873E-01 0.501E-01
   0.226E+03 -.347E+01 0.146E+03   -.248E+03 0.886E+01 -.152E+03   0.196E+02 -.710E+01 0.699E+01   -.705E-01 -.583E+00 0.272E+00
   -.164E+03 0.158E+03 0.164E+02   0.183E+03 -.173E+03 -.124E+02   -.117E+02 0.120E+02 -.401E+00   0.123E-01 -.235E+00 0.906E-02
   -.214E+03 -.824E+02 -.166E+03   0.242E+03 0.881E+02 0.180E+03   -.202E+02 -.837E+01 -.111E+02   0.451E-01 -.231E+00 0.139E+00
   0.140E+03 0.591E+02 0.219E+03   -.149E+03 -.650E+02 -.236E+03   0.100E+02 0.565E+01 0.112E+02   -.199E+00 0.512E+00 0.462E+00
   0.340E+02 -.152E+03 0.655E+02   -.363E+02 0.168E+03 -.734E+02   0.242E+01 -.171E+02 0.700E+01   -.133E+00 -.185E+00 0.253E+00
   -.128E+03 0.155E+03 -.720E+02   0.141E+03 -.164E+03 0.808E+02   -.140E+02 0.962E+01 -.959E+01   -.504E-01 0.584E-01 -.879E-01
   0.657E+02 -.884E+02 0.107E+03   -.697E+02 0.983E+02 -.114E+03   0.479E+01 -.792E+01 0.690E+01   0.857E-01 0.324E+00 0.471E+00
   -.406E+02 0.178E+03 0.600E+00   0.433E+02 -.192E+03 0.492E-01   -.181E+01 0.126E+02 0.123E+01   0.266E+00 0.216E+00 0.105E+00
   -.128E+03 -.991E+02 -.973E+02   0.141E+03 0.111E+03 0.107E+03   -.141E+02 -.115E+02 -.102E+02   -.269E+00 0.340E+00 0.238E-01
   0.797E+02 0.167E+03 0.103E+03   -.896E+02 -.177E+03 -.111E+03   0.108E+02 0.952E+01 0.810E+01   0.181E+00 -.456E+00 0.669E+00
   -.497E+02 -.678E+02 0.173E+03   0.513E+02 0.687E+02 -.195E+03   -.102E+01 -.424E+01 0.112E+02   0.116E-02 0.678E+00 0.330E+00
   -.145E+03 0.259E+02 -.107E+03   0.158E+03 -.288E+02 0.116E+03   -.145E+02 0.320E+01 -.113E+02   0.211E+00 0.651E+00 0.280E-02
   0.101E+03 -.312E+02 0.462E+01   0.654E-12 0.504E-12 -.199E-12   -.101E+03 0.319E+02 -.529E+01   -.421E-01 -.663E+00 0.694E+00

 POSITION                                       TOTAL-FORCE (eV/Angst)
      6.92382      5.12650      2.50482        -0.441775     -1.002598     -0.098484
      5.52383      2.45403      2.60826         0.856543     -0.700800     -0.679855
      4.03152      3.39262      0.14827        -0.324500      0.300715      2.848152
     -4.10050      0.38746      9.70458         1.667376      2.216285      7.846126
      2.31790      2.24092      2.60064        -0.832683      0.356567     -0.516264
      0.77694      5.11812      2.77007         1.648454     -0.988641      0.056034
      2.31452      0.51795      9.68656        -7.478111      2.021129      2.393262
      0.85656      3.34751      9.72202         0.010707     -0.030960      2.808911
      3.67297      5.00299      7.33458        -0.872959     -1.200802     -0.916950
      2.13314      2.36487      7.66499         2.077762      0.797691     -1.817446
      0.60599      3.26891      5.08212        -0.152715      0.816001     -0.052340
     -0.68431      0.37352      4.98643        -8.090856      6.124286     -1.307775
     -1.05187      2.32004      7.44158        -0.594613     -0.936969      0.504952
     -2.47800      5.03329      7.62899         1.411096      0.649527     -0.141338
      5.32869      0.47763      5.09963        -4.438499      5.074690     -5.029382
      3.72523      3.17537      5.13681         0.532727      0.871979     -0.656414
      7.00944     10.71339      2.54933        -1.427851     -2.075036     -1.530744
      5.40219      7.78957      2.50233         1.269493      0.684562     -0.094862
      3.93737      8.79147      0.08958        -0.118490      0.071925      0.598922
     -4.14986      6.01168      9.73750         3.996838      3.618441     10.047518
      2.29290      7.85068      2.49410         0.015534     -1.102989      0.494695
      0.62152     10.58890      2.48897         3.777002     -1.248928      0.294033
      8.72924      6.02799      0.05052       -13.654487      5.712129     -0.627778
      0.82949      8.73953      9.77909        -0.341297      1.055117      1.574301
      3.73259     10.59887      7.46921        -3.422018     -3.504798     -2.132287
      2.12472      7.83593      7.54861         1.556828      0.723804     -0.552859
      0.70295      8.85300      5.04730        -1.618452     -1.960636     -1.352375
     -0.92864      6.08562      5.05666         0.881274     -2.092692     -0.553006
     -0.88125      7.86273      7.36057        -1.135465     -0.688085      1.945567
     -2.53674     10.63299      7.66828         3.216078     -0.018557     -1.455042
      5.36217      6.17866      5.09249        -0.914703      0.934661      0.893641
      3.77751      8.79346      5.06804         1.843552     -0.237902     -0.163784
      7.22445      5.05118      0.48167        -0.096028     -0.177548      1.860569
      0.73149      5.45805      0.51277        11.404788     -6.712778      6.514153
      3.87594      5.22068      0.45312        -1.036114     -0.871945     -0.363355
      5.55871      0.56611      3.20588        -0.059076      1.406496      0.844571
      3.89759      2.88822      3.10674        -0.704608      0.505011      1.089955
      6.93554      3.29450      3.13792        -0.555139      1.412552     -0.969786
      2.47331      2.20450      0.83054         0.832561     -0.302227     -0.416666
      5.48459      2.43422      0.67404         0.218920      1.113282      0.756684
      8.53705      2.31662      0.56054        -0.900167     -0.402382     -0.826937
      0.83737      3.29179      3.10141         0.891758      0.585996      1.035062
     -0.74055      0.45515      3.17739        -0.887673      1.224804      1.118106
      2.24843      0.57630      2.97289        -1.453944     -0.832590     -0.187216
      4.04579      5.04817      5.44460        -0.724490     -1.209787      1.247033
     -2.43827      5.35300      5.65815         0.200126     -0.565382      1.889398
      0.36254      5.11449      5.70788         0.276268     -2.081962     -0.773289
      2.38443      0.67739      8.10643        -0.722472      0.160650     -4.871381
      0.60659      2.97440      8.08883        -2.826650     -0.168952     -1.557344
      3.62098      3.23509      7.96720        -0.089888      1.338606     -0.610496
     -0.84134      2.20012      5.63413         1.039362     -0.180283      0.065352
      2.23566      2.40752      5.72373        -1.537860      0.786160      0.048393
      5.10868      2.25110      5.54104         0.452334     -0.667225     -0.267458
     -2.63111      3.29612      8.28116         1.043266     -0.271456     -2.888800
     -4.10030      0.20420      8.14622         1.668507      0.975035     -3.743275
     -1.04860      0.55577      8.12355        -0.260664      1.434359     -1.049527
      7.01829     10.55883      0.71691         1.562202     -0.567814     -0.425235
      0.66464      0.06010      0.75314         5.581905     -2.638020      3.571217
      3.86285     10.55933      0.53805        -0.964045     -0.913699     -0.587980
      5.53655      6.07418      3.39312         0.922402      0.574046     -2.755328
[...]
      0.96449      8.77967      3.19131        -0.482425      1.156036     -0.007938
     -0.75768      5.71777      3.29258        -1.325726      0.203686     -0.408519
      2.19243      6.05858      3.11092        -0.669674      1.005988     -0.887175
      3.86251      0.07434      5.71585        -2.536472     -2.283497      0.591868
     -2.63815     10.74846      5.70469         7.452695     -2.896847      3.619580
      0.51860     10.44806      5.36087         7.044000     -2.939288      3.214139
      2.33612      6.06957      8.21223         0.294570      0.302360     -5.366251
      0.57637      8.72133      8.01784        -0.048742     -0.467141     -0.618701
      3.71584      8.81662      7.94822        -1.497511      0.186735     -0.827987
     -0.66794      7.62048      5.65450         0.854883      2.353726     -0.004439
      2.18680      8.22350      5.54586         1.138776     -1.075914      1.982388
      5.32555      7.86462      5.53111        -1.309161      0.442930     -0.425598
     -2.38836      8.88640      8.02583         1.097982     -1.087104      0.149369
     -4.19870      5.63214      8.29488         0.589724     -2.577452    -10.443066
     -0.98274      5.97097      8.16229        -1.440432      0.880708     -1.567601
    total drift:                                0.004935      0.042593      0.019611

  FREE ENERGIE OF THE ION-ELECTRON SYSTEM (eV)
  free  energy   TOTEN  =      -464.9903953927 eV

  energy  without entropy=     -464.8859508880  energy(sigma->0) =     -464.93817314

volume of typ            1:    20.8 %

volume of typ            2:     8.0 %

total charge

# of ion       s       p       d       tot
    1        0.230   0.240   7.875   8.344
    2        0.282   0.335   7.844   8.460
    3        0.289   0.334   7.873   8.496
    4        0.310   0.381   7.957   8.648
    5        0.306   0.375   7.855   8.536
    6        0.286   0.318   7.885   8.489
    7        0.361   0.486   7.955   8.801
    8        0.297   0.358   7.873   8.528
    9        0.251   0.287   7.896   8.434
   10        0.305   0.392   7.899   8.597
   11        0.227   0.233   7.854   8.313
   12        0.323   0.401   7.979   8.703
   13        0.241   0.258   7.855   8.354
   14        0.245   0.264   7.856   8.366
   15        0.371   0.508   7.918   8.797
   16        0.275   0.317   7.858   8.450
   17        0.312   0.396   7.863   8.571
   18        0.231   0.238   7.843   8.311
   19        0.255   0.281   7.800   8.336
   20        0.360   0.487   7.951   8.798
   21        0.288   0.346   7.862   8.496
   22        0.276   0.335   7.904   8.516
   23        0.420   0.609   7.971   8.999
   24        0.276   0.327   7.839   8.442
   25        0.318   0.422   7.922   8.662
   26        0.238   0.255   7.869   8.362
   27        0.307   0.395   7.922   8.624
   28        0.321   0.420   7.890   8.631
   29        0.258   0.290   7.880   8.428
   30        0.299   0.382   7.906   8.587
   31        0.327   0.431   7.852   8.611
   32        0.246   0.267   7.868   8.381
   33        1.271   2.740   0.008   4.019
   34        1.290   2.859   0.026   4.175
   35        1.287   2.675   0.005   3.968
   36        1.276   2.734   0.008   4.019
   37        1.273   2.754   0.009   4.036
   38        1.285   2.689   0.007   3.981
   39        1.281   2.695   0.006   3.982
   40        1.281   2.704   0.006   3.991
   41        1.288   2.678   0.006   3.972
   42        1.273   2.712   0.007   3.992
   43        1.270   2.807   0.015   4.093
   44        1.286   2.703   0.008   3.997
   45        1.267   2.751   0.008   4.026
   46        1.273   2.763   0.010   4.046
   47        1.285   2.680   0.007   3.971
   48        1.266   2.849   0.019   4.134
   49        1.268   2.809   0.014   4.091
   50        1.284   2.703   0.007   3.994
   51        1.269   2.730   0.008   4.007
   52        1.273   2.734   0.008   4.015
   53        1.285   2.706   0.008   3.999
   54        1.273   2.755   0.011   4.039
   55        1.273   2.890   0.027   4.189
   56        1.285   2.689   0.007   3.981
   57        1.279   2.698   0.006   3.983
   58        1.269   2.849   0.019   4.138
   59        1.289   2.686   0.007   3.982
   60        1.268   2.762   0.010   4.040
[...]
   66        1.269   2.746   0.008   4.023
   67        1.268   2.782   0.012   4.062
   68        1.284   2.694   0.007   3.985
   69        1.278   2.760   0.012   4.051
   70        1.282   2.786   0.015   4.084
   71        1.287   2.832   0.024   4.143
   72        1.268   2.798   0.012   4.078
   73        1.269   2.766   0.011   4.046
   74        1.283   2.678   0.005   3.967
   75        1.267   2.797   0.014   4.078
   76        1.267   2.785   0.012   4.064
   77        1.280   2.705   0.007   3.993
   78        1.270   2.746   0.009   4.024
   79        1.276   2.847   0.021   4.144
   80        1.291   2.637   0.004   3.932
tot          70.62  143.16  252.87  466.64

magnetization (x)

# of ion       s       p       d       tot
    1       -0.000   0.005   0.434   0.439
    2        0.004   0.015   0.841   0.860
    3        0.002   0.018   0.874   0.895
    4        0.001   0.004   0.133   0.138
    5        0.001  -0.002  -0.025  -0.027
    6        0.006   0.007   0.574   0.586
    7       -0.002  -0.005  -0.203  -0.211
    8        0.002   0.017   0.807   0.826
    9        0.000   0.016   0.859   0.875
   10        0.002   0.017   0.799   0.818
   11        0.001   0.002   0.112   0.115
   12        0.002   0.000   0.022   0.025
   13        0.001  -0.011  -0.866  -0.876
   14        0.002   0.017   1.090   1.108
   15       -0.002  -0.006  -0.139  -0.146
   16        0.004   0.016   1.044   1.064
   17       -0.000   0.008   0.415   0.423
   18        0.001   0.013   1.053   1.067
   19        0.001   0.025   1.268   1.294
   20        0.002  -0.001  -0.130  -0.129
   21        0.000   0.005   0.279   0.283
   22        0.001   0.007   0.329   0.337
   23       -0.001   0.001  -0.044  -0.043
   24        0.001   0.019   0.802   0.821
   25       -0.000   0.004   0.257   0.262
   26        0.002   0.016   1.107   1.126
   27        0.001   0.002   0.070   0.073
   28        0.000   0.002   0.016   0.018
   29       -0.001  -0.003  -0.179  -0.183
   30        0.002   0.005   0.218   0.225
   31       -0.001  -0.014  -0.550  -0.565
   32        0.002   0.013   0.718   0.733
   33        0.003   0.081   0.000   0.084
   34        0.000  -0.022  -0.000  -0.022
   35        0.005   0.215   0.000   0.220
   36        0.004   0.071   0.000   0.075
   37        0.006   0.139   0.000   0.145
   38        0.006   0.292   0.000   0.298
   39        0.003   0.057   0.000   0.060
   40        0.009   0.260   0.000   0.269
   41        0.005   0.266   0.000   0.272
   42        0.003   0.060   0.000   0.063
   43        0.002   0.043   0.000   0.046
   44        0.003   0.089  -0.000   0.092
   45        0.002   0.071   0.000   0.073
   46        0.000   0.009  -0.000   0.010
   47        0.001   0.022   0.000   0.022
   48        0.003   0.006   0.000   0.009
   49        0.004   0.084   0.000   0.088
   50        0.008   0.380   0.000   0.388
   51       -0.003  -0.112  -0.000  -0.115
   52        0.008   0.209   0.000   0.217
   53        0.005   0.246   0.000   0.251
   54        0.005   0.119   0.000   0.124
   55        0.001   0.013   0.000   0.014
   56       -0.003  -0.145   0.000  -0.148
   57        0.004   0.084   0.000   0.087
   58        0.001   0.004  -0.000   0.004
   59        0.008   0.365   0.000   0.373
   60        0.001   0.030  -0.000   0.031
[...]
   66        0.001   0.012   0.000   0.013
   67        0.003   0.062   0.000   0.066
   68        0.006   0.243   0.000   0.249
   69        0.002   0.033  -0.000   0.035
   70        0.001  -0.012  -0.000  -0.011
   71        0.000   0.014   0.000   0.015
   72        0.004   0.114   0.000   0.118
   73        0.005   0.123   0.000   0.128
   74        0.007   0.332   0.000   0.339
   75        0.001  -0.031   0.000  -0.030
   76        0.006   0.146   0.000   0.152
   77       -0.001  -0.019  -0.000  -0.020
   78        0.005   0.125   0.000   0.130
   79        0.004   0.055  -0.000   0.059
   80        0.009   0.431   0.000   0.440
tot           0.21    5.78   11.99   17.98