 vasp.5.4.4.18Apr17-6-g9f103f2a35 (build May 12 2020 04:58:55) complex

 MD_VERSION_INFO: Compiled 2020-05-12T11:58:55-UTC in devlin.sd.materialsdesign.
 com:/home/medea2/data/build/wwolf/vasp-gpu5.4.4/13047/x86_64/src/src/build/std
 from svn 13047

 executed on                        Lin64 date 2022.11.25  12:12:21

 INCAR:
 POTCAR:    PAW_PBE Li_sv 10Sep2004
 POTCAR:    PAW_PBE Ni 02Aug2007
 POTCAR:    PAW_PBE Ta_pv 07Sep2000
 POTCAR:    PAW_PBE Mn_pv 02Aug2007
 POTCAR:    PAW_PBE O 08Apr2002
 POTCAR:    PAW_PBE Co 02Aug2007

 POTCAR:    PAW_PBE Li_sv 10Sep2004

 POTCAR:    PAW_PBE Ni 02Aug2007

 POTCAR:    PAW_PBE Ta_pv 07Sep2000

 POTCAR:    PAW_PBE Mn_pv 02Aug2007

 POTCAR:    PAW_PBE O 08Apr2002

 POTCAR:    PAW_PBE Co 02Aug2007

 Optimization of the real space projectors (new method)

 maximal supplied QI-value         = 22.11
 optimisation between [QCUT,QGAM] = [ 11.28, 22.77] = [ 35.61,145.23] Ry
 Optimized for a Real-space Cutoff    1.10 Angstroem

   l    n(q)    QCUT    max X(q) W(low)/X(q) W(high)/X(q)  e(spline)
   0      7    11.276    10.506    0.54E-04    0.58E-04    0.16E-07
   0      7    11.276     8.367    0.11E-03    0.14E-03    0.35E-07
   1      7    11.276     8.983    0.23E-03    0.43E-03    0.86E-07
 Optimization of the real space projectors (new method)

[...]

   l    n(q)    QCUT    max X(q) W(low)/X(q) W(high)/X(q)  e(spline)
   0      7    11.387    20.381    0.22E-03    0.48E-03    0.18E-06
   0      7    11.387    15.268    0.22E-03    0.52E-03    0.19E-06
   1      7    11.387     5.964    0.22E-03    0.73E-03    0.24E-06
   1      7    11.387     5.382    0.19E-03    0.60E-03    0.21E-06
 Optimization of the real space projectors (new method)

 maximal supplied QI-value         = 16.25
 optimisation between [QCUT,QGAM] = [ 11.38, 22.75] = [ 36.24,144.96] Ry
 Optimized for a Real-space Cutoff    1.43 Angstroem

   l    n(q)    QCUT    max X(q) W(low)/X(q) W(high)/X(q)  e(spline)
   2      9    11.376    65.824    0.18E-03    0.28E-04    0.14E-06
   2      9    11.376    61.429    0.18E-03    0.29E-04    0.14E-06
   0     10    11.376    56.174    0.51E-04    0.12E-03    0.20E-06
   0     10    11.376    31.263    0.46E-04    0.11E-03    0.18E-06
   1      9    11.376    19.828    0.23E-03    0.17E-03    0.10E-06
   1      9    11.376    15.139    0.20E-03    0.14E-03    0.89E-07

  PAW_PBE Li_sv 10Sep2004               :
  PAW_PBE Ni 02Aug2007                  :
  PAW_PBE Ta_pv 07Sep2000               :
  PAW_PBE Mn_pv 02Aug2007               :
  PAW_PBE O 08Apr2002                   :
  PAW_PBE Co 02Aug2007                  :

 POSCAR: ce125052_2
  positions in direct lattice

 METAGGA = SCAN     LMAXTAU =  6    LMIXTAU =  T

 ion  position               nearest neighbor table
   1  0.728  0.996  0.254-  45 1.97  25 2.10  40 2.14  48 2.16  29 2.21  37 2.23  66 2.80
   2  0.272  0.996  0.746-  46 1.97  26 2.10  39 2.14  47 2.16  30 2.21  38 2.23  66 2.80
   3  0.247  0.602  0.748-  35 2.04  59 2.05  28 2.08  43 2.15  51 2.15  32 2.17
   4  0.753  0.602  0.252-  36 2.04  60 2.05  27 2.08  44 2.15  52 2.15  31 2.17
   5  0.263  0.315  0.251-  33 2.02  49 2.02  41 2.03  57 2.13  56 2.23  13 2.79  22 2.98
   6  0.737  0.315  0.749-  34 2.02  50 2.02  42 2.03  58 2.13  55 2.23  13 2.79  22 2.98
   7  0.000  0.404  0.000-  33 1.85  34 1.85  27 1.96  28 1.96  49 2.02  50 2.02  22 2.76   8 2.78
                            24 2.80  24 2.80  16 2.81  16 2.81
   8  0.000  0.602  0.000-  27 1.85  28 1.85  51 1.87  52 1.87  35 2.04  36 2.04  15 2.73   7 2.78
                            24 2.78  24 2.78  21 2.79  21 2.79
   9  0.500  0.893  0.000-  53 1.85  54 1.85  25 1.86  26 1.86  37 1.86  38 1.86  21 2.72  15 2.78
                            15 2.78  23 2.79  23 2.79  10 2.82
  10  0.500  0.094  0.000-  39 1.85  40 1.85  25 1.97  26 1.97  55 2.00  56 2.00  23 2.82  23 2.82
                             9 2.82  22 2.90  22 2.90  16 2.94
  11  0.000  0.902  0.500-  45 1.86  46 1.86  61 1.87  62 1.87  29 1.89  30 1.89  66 2.81  66 2.81
                            19 2.81  19 2.81  12 2.82  18 2.83
  12  0.000  0.102  0.500-  29 1.85  30 1.85  47 1.86  48 1.86  63 1.90  64 1.90  20 2.79  20 2.79
                            17 2.80  66 2.80  66 2.80  11 2.82
  13  0.500  0.402  0.500-  41 1.86  42 1.86  31 1.87  32 1.87  57 1.88  58 1.88  14 2.78  65 2.79
                            65 2.79   6 2.79   5 2.79  17 2.81  17 2.81  20 2.82
  14  0.500  0.600  0.500-  59 1.85  60 1.85  31 1.87  32 1.87  43 1.88  44 1.88  13 2.78  65 2.80
                            65 2.80  18 2.81  18 2.81  19 2.83
  15  0.000  0.796  0.000-  51 1.85  52 1.85  53 1.87  54 1.87  37 1.88  38 1.88   8 2.73  23 2.75
                            21 2.78  21 2.78   9 2.78   9 2.78
  16  0.500  0.303  0.000-  33 1.87  34 1.87  55 1.90  56 1.90  49 2.09  50 2.09  22 2.77  22 2.77
                             7 2.81   7 2.81  24 2.82  10 2.94
  17  0.000  0.301  0.500-  41 1.86  42 1.86  63 1.87  64 1.87  57 1.89  58 1.89  12 2.80  65 2.80
                            20 2.80  20 2.80  13 2.81  13 2.81
  18  0.000  0.700  0.500-  59 1.86  60 1.86  61 1.87  62 1.87  43 1.88  44 1.88  19 2.81  19 2.81
                            14 2.81  14 2.81  65 2.82  11 2.83
  19  0.500  0.801  0.500-  61 1.85  62 1.85  45 1.97  46 1.97  59 1.99  60 1.99  11 2.81  11 2.81
                            18 2.81  18 2.81  66 2.83  14 2.83
  20  0.500  0.201  0.500-  63 1.86  64 1.86  47 1.87  48 1.87  57 1.88  58 1.88  66 2.79  12 2.79
                            12 2.79  17 2.80  17 2.80  13 2.82
  21  0.500  0.699  0.000-  35 1.85  36 1.85  51 1.85  52 1.85  53 1.86  54 1.86   9 2.72  24 2.74
                            15 2.78  15 2.78   8 2.79   8 2.79
  22  0.000  0.207  0.000-  49 1.90  50 1.90  55 1.97  56 1.97  39 2.12  40 2.12   7 2.76  16 2.77
                            16 2.77  10 2.90  10 2.90   6 2.98   5 2.98  23 3.03
  23  0.000  0.991  0.000-  37 1.88  38 1.88  39 1.89  40 1.89  25 1.90  26 1.90  15 2.75   9 2.79
                             9 2.79  10 2.82  10 2.82  22 3.03
  24  0.500  0.504  0.000-  35 1.86  36 1.86  27 1.88  28 1.88  33 1.93  34 1.93  21 2.74   8 2.78
                             8 2.78   7 2.80   7 2.80  16 2.82
  25  0.366  0.988  0.104-   9 1.86  23 1.90  10 1.97   1 2.10
  26  0.634  0.988  0.896-   9 1.86  23 1.90  10 1.97   2 2.10
  27  0.861  0.508  0.104-   8 1.85  24 1.88   7 1.96   4 2.08
  28  0.139  0.508  0.896-   8 1.85  24 1.88   7 1.96   3 2.08
  29  0.126  0.003  0.400-  12 1.85  11 1.89  66 1.91   1 2.21
  30  0.874  0.003  0.600-  12 1.85  11 1.89  66 1.91   2 2.21
  31  0.634  0.501  0.400-  13 1.87  14 1.87  65 1.88   4 2.17
  32  0.366  0.501  0.600-  13 1.87  14 1.87  65 1.88   3 2.17
  33  0.359  0.401  0.099-   7 1.85  16 1.87  24 1.93   5 2.02
  34  0.641  0.401  0.901-   7 1.85  16 1.87  24 1.93   6 2.02
  35  0.603  0.602  0.891-  21 1.85  24 1.86   8 2.04   3 2.04
  36  0.397  0.602  0.109-  21 1.85  24 1.86   8 2.04   4 2.04
  37  0.860  0.894  0.102-   9 1.86  23 1.88  15 1.88   1 2.23
  38  0.140  0.894  0.898-   9 1.86  23 1.88  15 1.88   2 2.23
  39  0.144  0.088  0.898-  10 1.85  23 1.89  22 2.12   2 2.14
  40  0.856  0.088  0.102-  10 1.85  23 1.89  22 2.12   1 2.14
  41  0.139  0.398  0.401-  13 1.86  17 1.86  65 1.91   5 2.03
  42  0.861  0.398  0.599-  13 1.86  17 1.86  65 1.91   6 2.03
  43  0.867  0.600  0.599-  65 1.88  18 1.88  14 1.88   3 2.15
  44  0.133  0.600  0.401-  65 1.88  18 1.88  14 1.88   4 2.15
  45  0.641  0.907  0.398-  66 1.86  11 1.86  19 1.97   1 1.97
  46  0.359  0.907  0.602-  66 1.86  11 1.86  19 1.97   2 1.97
  47  0.361  0.102  0.599-  12 1.86  20 1.87  66 1.89   2 2.16
  48  0.639  0.102  0.401-  12 1.86  20 1.87  66 1.89   1 2.16
  49  0.893  0.300  0.124-  22 1.90   7 2.02   5 2.02  16 2.09
  50  0.107  0.300  0.876-  22 1.90   7 2.02   6 2.02  16 2.09
  51  0.140  0.699  0.901-  15 1.85  21 1.85   8 1.87   3 2.15
  52  0.860  0.699  0.099-  15 1.85  21 1.85   8 1.87   4 2.15
  53  0.364  0.797  0.100-   9 1.85  21 1.86  15 1.87
  54  0.636  0.797  0.900-   9 1.85  21 1.86  15 1.87
  55  0.621  0.203  0.892-  16 1.90  22 1.97  10 2.00   6 2.23
  56  0.379  0.203  0.108-  16 1.90  22 1.97  10 2.00   5 2.23
  57  0.633  0.301  0.400-  20 1.88  13 1.88  17 1.89   5 2.13
  58  0.367  0.301  0.600-  20 1.88  13 1.88  17 1.89   6 2.13
  59  0.359  0.693  0.602-  14 1.85  18 1.86  19 1.99   3 2.05
  60  0.641  0.693  0.398-  14 1.85  18 1.86  19 1.99   4 2.05
  61  0.137  0.801  0.405-  19 1.85  11 1.87  18 1.87
  62  0.863  0.801  0.595-  19 1.85  11 1.87  18 1.87
  63  0.861  0.203  0.600-  20 1.86  17 1.87  12 1.90
  64  0.139  0.203  0.400-  20 1.86  17 1.87  12 1.90
  65  0.000  0.500  0.500-  43 1.88  44 1.88  31 1.88  32 1.88  41 1.91  42 1.91  13 2.79  13 2.79
                            17 2.80  14 2.80  14 2.80  18 2.82
  66  0.500  0.002  0.500-  45 1.86  46 1.86  47 1.89  48 1.89  29 1.91  30 1.91  20 2.79   2 2.80
                             1 2.80  12 2.80  12 2.80  11 2.81  11 2.81  19 2.83

  LATTYP: Found a simple monoclinic cell.
 ALAT       =    10.1617220066
 B/A-ratio  =     1.3830895306
 C/A-ratio  =     1.8996990709
 COS(beta)  =    -0.9713696684

  Lattice vectors:

 A1 = (  -3.2947895400,   0.0000000000,  -9.6127496600)
 A2 = (   0.0000000000, -14.0545713200,   0.0000000000)
 A3 = (   1.7415075200,   0.0000000000,  19.2254993200)

Analysis of symmetry for initial positions (statically):
 Subroutine PRICEL returns:
 Original cell was already a primitive cell.

 Routine SETGRP: Setting up the symmetry group for a
 simple monoclinic supercell.

 Subroutine GETGRP returns: Found  2 space group operations
 (whereof  2 operations were pure point group operations)
 out of a pool of  4 trial point group operations.

The static configuration has the point symmetry C_2 .

Analysis of symmetry for dynamics (positions and initial velocities):
 Subroutine PRICEL returns:
 Original cell was already a primitive cell.

[...]

The dynamic configuration has the point symmetry C_2 .

Analysis of structural, dynamic, and magnetic symmetry:
 Subroutine PRICEL returns:
 Original cell was already a primitive cell.

 Routine SETGRP: Setting up the symmetry group for a
 simple monoclinic supercell.

 Subroutine GETGRP returns: Found  2 space group operations
 (whereof  2 operations were pure point group operations)
 out of a pool of  4 trial point group operations.

The magnetic configuration has the point symmetry C_2 .

 Subroutine INISYM returns: Found  2 space group operations
 (whereof  2 operations are pure point group operations),
 and found     1 'primitive' translations

 KPOINTS: Automatic mesh

Automatic generation of k-mesh.
Space group operators:
 irot       det(A)        alpha          n_x          n_y          n_z        tau_x        tau_y        tau_z
    1     1.000000     0.000000     1.000000     0.000000     0.000000     0.000000     0.000000     0.000000
    2     1.000000   180.000000     0.000000     1.000000     0.000000     0.000000     0.000000     0.000000

 Subroutine IBZKPT returns following result:

 Found      5 irreducible k-points:

 Following reciprocal coordinates:
[...]
   0.213E-07 -.198E+02 0.376E-06   -.839E-13 0.207E+02 -.198E-14   0.000E+00 -.876E+00 0.000E+00
   0.493E-06 0.554E+02 0.872E-05   0.546E-13 -.565E+02 0.287E-13   0.203E-19 0.111E+01 0.000E+00
   0.162E-06 -.824E+02 0.125E-05   0.143E-13 0.823E+02 -.770E-14   -.542E-19 0.115E+00 0.000E+00
   0.252E-07 0.110E+03 0.432E-06   -.296E-13 -.111E+03 -.711E-13   -.136E-19 0.866E+00 0.000E+00
   0.595E-07 -.111E+03 0.358E-05   -.129E-12 0.111E+03 -.971E-14   0.000E+00 0.347E+00 0.000E+00
   0.631E-07 0.131E+03 -.263E-05   0.207E-13 -.130E+03 -.756E-14   0.542E-19 -.143E+01 0.000E+00
   -.117E+02 -.454E+02 -.400E+03   0.114E+02 0.471E+02 0.422E+03   0.306E+00 -.170E+01 -.222E+02
   0.117E+02 -.454E+02 0.400E+03   -.114E+02 0.471E+02 -.422E+03   -.306E+00 -.170E+01 0.222E+02
   -.668E+02 0.534E+02 -.393E+03   0.701E+02 -.573E+02 0.415E+03   -.332E+01 0.394E+01 -.218E+02
   0.668E+02 0.534E+02 0.393E+03   -.701E+02 -.573E+02 -.415E+03   0.332E+01 0.394E+01 0.218E+02
   -.473E+02 0.866E+01 0.346E+03   0.506E+02 -.970E+01 -.369E+03   -.336E+01 0.103E+01 0.231E+02
   0.473E+02 0.866E+01 -.346E+03   -.506E+02 -.970E+01 0.369E+03   0.336E+01 0.103E+01 -.231E+02
   -.738E+01 0.217E+02 0.335E+03   0.698E+01 -.230E+02 -.358E+03   0.399E+00 0.125E+01 0.236E+02
   0.738E+01 0.217E+02 -.335E+03   -.698E+01 -.230E+02 0.358E+03   -.399E+00 0.125E+01 -.236E+02
   0.465E+00 0.404E+02 -.363E+03   0.110E+01 -.377E+02 0.385E+03   -.156E+01 -.277E+01 -.222E+02
   -.465E+00 0.404E+02 0.363E+03   -.110E+01 -.377E+02 -.385E+03   0.156E+01 -.277E+01 0.222E+02
   -.842E+02 -.436E+02 0.418E+03   0.919E+02 0.447E+02 -.440E+03   -.773E+01 -.112E+01 0.227E+02
   0.842E+02 -.436E+02 -.418E+03   -.919E+02 0.447E+02 0.440E+03   0.773E+01 -.112E+01 -.227E+02
   0.440E+01 0.491E+02 -.416E+03   -.383E+01 -.524E+02 0.442E+03   -.564E+00 0.333E+01 -.255E+02
   -.440E+01 0.491E+02 0.416E+03   0.383E+01 -.524E+02 -.442E+03   0.564E+00 0.333E+01 0.255E+02
   0.153E+02 -.113E+03 0.352E+03   -.167E+02 0.115E+03 -.375E+03   0.144E+01 -.231E+01 0.227E+02
   -.153E+02 -.113E+03 -.352E+03   0.167E+02 0.115E+03 0.375E+03   -.144E+01 -.231E+01 -.227E+02
   0.285E+02 -.385E+02 0.335E+03   -.311E+02 0.424E+02 -.358E+03   0.268E+01 -.391E+01 0.226E+02
   -.285E+02 -.385E+02 -.335E+03   0.311E+02 0.424E+02 0.358E+03   -.268E+01 -.391E+01 -.226E+02
   0.187E+02 -.188E+01 -.342E+03   -.209E+02 0.209E+01 0.365E+03   0.219E+01 -.205E+00 -.233E+02
   -.187E+02 -.188E+01 0.342E+03   0.209E+02 0.209E+01 -.365E+03   -.219E+01 -.205E+00 0.233E+02
   0.389E+02 0.396E+02 0.318E+03   -.422E+02 -.449E+02 -.339E+03   0.334E+01 0.532E+01 0.204E+02
   -.389E+02 0.396E+02 -.318E+03   0.422E+02 -.449E+02 0.339E+03   -.334E+01 0.532E+01 -.204E+02
   -.240E+02 0.163E+01 -.348E+03   0.254E+02 -.729E+00 0.371E+03   -.144E+01 -.898E+00 -.234E+02
   0.240E+02 0.163E+01 0.348E+03   -.254E+02 -.729E+00 -.371E+03   0.144E+01 -.898E+00 0.234E+02
   0.470E+02 0.255E+02 -.331E+03   -.559E+02 -.173E+02 0.354E+03   0.888E+01 -.823E+01 -.235E+02
   -.470E+02 0.255E+02 0.331E+03   0.559E+02 -.173E+02 -.354E+03   -.888E+01 -.823E+01 0.235E+02
   0.280E+02 -.431E+02 0.386E+03   -.287E+02 0.440E+02 -.411E+03   0.653E+00 -.893E+00 0.250E+02
   -.280E+02 -.431E+02 -.386E+03   0.287E+02 0.440E+02 0.411E+03   -.653E+00 -.893E+00 -.250E+02
   0.135E+02 -.490E+01 -.418E+03   -.144E+02 0.466E+01 0.447E+03   0.907E+00 0.247E+00 -.290E+02
   -.135E+02 -.490E+01 0.418E+03   0.144E+02 0.466E+01 -.447E+03   -.907E+00 0.247E+00 0.290E+02
   0.149E+02 0.542E+02 0.323E+03   -.237E+02 -.583E+02 -.345E+03   0.876E+01 0.413E+01 0.227E+02
   -.149E+02 0.542E+02 -.323E+03   0.237E+02 -.583E+02 0.345E+03   -.876E+01 0.413E+01 -.227E+02
   -.249E+02 0.147E+02 0.358E+03   0.272E+02 -.151E+02 -.382E+03   -.228E+01 0.396E+00 0.236E+02
   0.249E+02 0.147E+02 -.358E+03   -.272E+02 -.151E+02 0.382E+03   0.228E+01 0.396E+00 -.236E+02
   -.279E+02 -.757E+02 -.331E+03   0.314E+02 0.816E+02 0.352E+03   -.350E+01 -.585E+01 -.216E+02
   0.279E+02 -.757E+02 0.331E+03   -.314E+02 0.816E+02 -.352E+03   0.350E+01 -.585E+01 0.216E+02
   -.117E+02 -.119E+02 0.355E+03   0.119E+02 0.119E+02 -.382E+03   -.198E+00 0.196E-01 0.269E+02
   0.117E+02 -.119E+02 -.355E+03   -.119E+02 0.119E+02 0.382E+03   0.198E+00 0.196E-01 -.269E+02
   -.115E+02 0.429E+02 -.362E+03   0.132E+02 -.454E+02 0.386E+03   -.162E+01 0.247E+01 -.243E+02
   0.115E+02 0.429E+02 0.362E+03   -.132E+02 -.454E+02 -.386E+03   0.162E+01 0.247E+01 0.243E+02
   -.137E-07 0.270E+02 -.165E-06   -.787E-13 -.266E+02 0.300E-13   0.000E+00 -.631E+00 0.000E+00
   0.374E-07 0.124E+02 0.387E-05   -.211E-13 -.138E+02 0.569E-13   -.813E-19 0.153E+01 0.000E+00
   -.173E-06 0.146E+02 0.120E-04   -.192E-12 0.625E-12 0.869E-13   0.155E-14 -.146E+02 0.000E+00

 POSITION                                       TOTAL-FORCE (eV/Angst)
      3.13491     13.99311      2.43971         0.003523     -0.005545      0.005445
      0.15988     13.99311      7.17304        -0.003523     -0.005545     -0.005445
      0.03393      8.45653      7.18831        -0.004262     -0.000642     -0.010811
      3.26085      8.45653      2.42444         0.004262     -0.000642      0.010811
      0.88779      4.42547      2.40948        -0.002454     -0.006305      0.010617
      2.40700      4.42547      7.20327         0.002454     -0.006305     -0.010617
      0.00000      5.67670      0.00000         0.000000     -0.002241      0.000000
      0.00000      8.45523      0.00000         0.000000     -0.000137      0.000000
      2.42404     12.54972      0.00000         0.000000      0.006547      0.000000
      2.42404      1.31904      0.00000         0.000000      0.001337      0.000000
     -0.77664     12.67230      4.80637         0.000000      0.001848      0.000000
     -0.77664      1.43365      4.80637         0.000000      0.003792      0.000000
      1.64739      5.64605      4.80637         0.000000     -0.002523      0.000000
      1.64739      8.42649      4.80637         0.000000      0.001401      0.000000
      0.00000     11.18559      0.00000         0.000000     -0.004477      0.000000
      2.42404      4.26191      0.00000         0.000000     -0.005394      0.000000
     -0.77664      4.22884      4.80637         0.000000     -0.000869      0.000000
     -0.77664      9.84236      4.80637         0.000000      0.003014      0.000000
      1.64739     11.25748      4.80637         0.000000      0.000801      0.000000
      1.64739      2.82128      4.80637         0.000000      0.003467      0.000000
      2.42404      9.83057      0.00000         0.000000     -0.005497      0.000000
      0.00000      2.91234      0.00000         0.000000     -0.013488      0.000000
      0.00000     13.93478      0.00000         0.000000     -0.019747      0.000000
      2.42404      7.08570      0.00000         0.000000     -0.004196      0.000000
      1.61163     13.89007      1.00255         0.001536      0.003455      0.003432
      1.68316     13.89007      8.61020        -0.001536      0.003455     -0.003432
      4.01512      7.13733      0.99860         0.000196     -0.004998      0.004773
     -0.72033      7.13733      8.61415        -0.000196     -0.004998     -0.004773
     -0.00829      0.04664      3.84616        -0.000882      0.000529     -0.006797
      3.30308      0.04664      5.76659         0.000882      0.000529      0.006797
      2.45218      7.03437      3.84760         0.001295      0.005640     -0.006334
      0.84261      7.03437      5.76515        -0.001295      0.005640      0.006334
      1.58582      5.63151      0.95095        -0.001355     -0.001751      0.006997
      1.70897      5.63151      8.66180         0.001355     -0.001751     -0.006997
      1.54085      8.46550      8.56731         0.000007     -0.001527     -0.006432
      1.75393      8.46550      1.04544        -0.000007     -0.001527      0.006432
      4.00955     12.56174      0.97716         0.001607      0.008681      0.002793
     -0.71476     12.56174      8.63559        -0.001607      0.008681     -0.002793
     -0.69825      1.24328      8.62936         0.003318      0.007174     -0.006036
      3.99304      1.24328      0.98339        -0.003318      0.007174      0.006036
      0.05344      5.59245      3.85092        -0.001078      0.002379     -0.004230
      3.24135      5.59245      5.76183         0.001078      0.002379      0.004230
      3.27435      8.43311      5.75727         0.000124      0.004173      0.004939
      0.02044      8.43311      3.85548        -0.000124      0.004173     -0.004939
      2.48769     12.74569      3.82679         0.000398     -0.003540     -0.002819
      0.80710     12.74569      5.78596        -0.000398     -0.003540      0.002819
      0.82060      1.43924      5.76035        -0.000806      0.000096      0.006178
      2.47419      1.43924      3.85240         0.000806      0.000096     -0.006178
      4.13844      4.21004      1.18760        -0.003062      0.001815      0.006532
     -0.84365      4.21004      8.42515         0.003062      0.001815     -0.006532
     -0.72073      9.83097      8.66298         0.000490     -0.000288     -0.004234
      4.01552      9.83097      0.94977        -0.000490     -0.000288      0.004234
      1.60878     11.19744      0.96159         0.000264     -0.001927      0.003948
      1.68601     11.19744      8.65116        -0.000264     -0.001927     -0.003948
      1.62458      2.85627      8.57355        -0.001816     -0.001450     -0.005778
      1.67021      2.85627      1.03920         0.001816     -0.001450      0.005778
      2.44543      4.23197      3.84954         0.000824      0.001145     -0.005205
      0.84936      4.23197      5.76321        -0.000824      0.001145      0.005205
      0.80331      9.74430      5.79108         0.000131      0.005507      0.003590
      2.49148      9.74430      3.82167        -0.000131      0.005507     -0.003590
      0.03611     11.25807      3.89466        -0.001229      0.002032     -0.007425
      3.25868     11.25807      5.71809         0.001229      0.002032      0.007425
      3.24432      2.85703      5.76460         0.000346      0.002112      0.004843
      0.05047      2.85703      3.84815        -0.000346      0.002112     -0.004843
     -0.77664      7.02644      4.80637         0.000000     -0.000370      0.000000
      1.64739      0.02938      4.80637         0.000000      0.003198      0.000000
    total drift:                               -0.000000      0.004252      0.000012

  FREE ENERGIE OF THE ION-ELECTRON SYSTEM (eV)
  free  energy   TOTEN  =     -1807.3503135327 eV

  energy  without entropy=    -1807.3502172912  energy(sigma->0) =    -1807.35026541

volume of typ            1:     7.1 %

[...]

volume of typ            6:     2.0 %

total charge

# of ion       s       p       d       tot
    1        2.065   0.215   0.088   2.368
    2        2.065   0.215   0.088   2.368
    3        2.070   0.225   0.093   2.388
    4        2.070   0.225   0.093   2.388
    5        2.070   0.234   0.098   2.402
    6        2.070   0.234   0.098   2.402
    7        0.255   0.343   7.815   8.413
    8        0.271   0.364   7.811   8.446
    9        0.302   0.433   7.774   8.509
   10        0.255   0.338   7.810   8.403
   11        0.295   0.411   7.767   8.473
   12        0.294   0.408   7.768   8.470
   13        0.295   0.413   7.772   8.480
   14        0.296   0.416   7.763   8.475
   15        0.292   0.409   7.763   8.463
   16        0.258   0.344   7.814   8.416
   17        0.294   0.411   7.761   8.466
   18        0.296   0.414   7.765   8.476
   19        0.256   0.331   7.779   8.366
   20        0.294   0.410   7.764   8.468
   21        0.305   0.440   7.777   8.521
   22        0.307   6.202   1.949   8.457
   23        0.238   6.269   4.567  11.074
   24        0.241   6.270   4.569  11.080
   25        1.275   2.809   0.006   4.090
   26        1.275   2.809   0.006   4.090
   27        1.273   2.820   0.007   4.100
   28        1.273   2.820   0.007   4.100
   29        1.279   2.785   0.007   4.070
   30        1.279   2.785   0.007   4.070
   31        1.277   2.797   0.007   4.081
   32        1.277   2.797   0.007   4.081
   33        1.271   2.825   0.007   4.102
   34        1.271   2.825   0.007   4.102
   35        1.278   2.809   0.007   4.094
   36        1.278   2.809   0.007   4.094
   37        1.280   2.802   0.007   4.089
   38        1.280   2.801   0.007   4.088
   39        1.269   2.845   0.006   4.121
   40        1.269   2.846   0.006   4.121
   41        1.277   2.800   0.007   4.083
   42        1.277   2.800   0.007   4.084
   43        1.278   2.792   0.007   4.076
   44        1.278   2.792   0.007   4.076
   45        1.273   2.809   0.006   4.089
   46        1.273   2.809   0.006   4.089
   47        1.278   2.795   0.007   4.079
   48        1.278   2.795   0.007   4.079
   49        1.274   2.838   0.007   4.119
   50        1.274   2.838   0.007   4.119
   51        1.281   2.793   0.008   4.081
   52        1.281   2.793   0.008   4.081
   53        1.292   2.758   0.008   4.058
   54        1.292   2.758   0.008   4.058
   55        1.272   2.836   0.007   4.115
   56        1.272   2.836   0.007   4.115
   57        1.282   2.780   0.007   4.068
   58        1.282   2.780   0.007   4.068
   59        1.279   2.788   0.006   4.074
   60        1.279   2.788   0.006   4.074
   61        1.286   2.764   0.007   4.058
   62        1.286   2.765   0.007   4.058
   63        1.282   2.780   0.007   4.069
   64        1.282   2.780   0.007   4.069
   65        0.261   0.370   6.834   7.464
   66        0.263   0.375   6.833   7.470
tot          69.09  138.77  142.29  350.14

magnetization (x)

# of ion       s       p       d       tot
    1        0.002   0.002   0.000   0.004
    2        0.002   0.002   0.000   0.004
    3        0.005   0.007   0.001   0.013
    4        0.005   0.007   0.001   0.013
    5        0.001   0.004   0.001   0.007
    6        0.001   0.004   0.001   0.007
    7        0.004   0.002   0.847   0.853
    8        0.010   0.004   0.846   0.859
    9        0.004   0.003   0.012   0.020
   10        0.005   0.004   0.849   0.858
   11        0.000   0.000   0.011   0.012
   12        0.000   0.001   0.030   0.031
   13        0.001   0.001   0.071   0.072
   14        0.000   0.000   0.020   0.020
   15        0.002   0.002   0.120   0.125
   16        0.009   0.002   0.862   0.874
   17        0.000   0.000   0.026   0.027
   18        0.000   0.000   0.007   0.007
   19        0.002   0.002   0.863   0.866
   20        0.001   0.001   0.086   0.088
   21        0.002   0.002   0.010   0.015
   22       -0.001   0.001  -0.013  -0.012
   23        0.013   0.014   2.684   2.711
   24        0.013   0.014   2.683   2.710
   25        0.006   0.075   0.001   0.081
   26        0.006   0.075   0.001   0.081
   27        0.007   0.032   0.001   0.040
   28        0.007   0.032   0.001   0.040
   29        0.000  -0.003   0.000  -0.003
   30        0.000  -0.003   0.000  -0.003
   31        0.000  -0.012   0.000  -0.012
   32        0.000  -0.012   0.000  -0.012
   33        0.001  -0.051   0.001  -0.049
   34        0.001  -0.051   0.001  -0.049
   35        0.008   0.085   0.001   0.094
   36        0.008   0.086   0.001   0.094
   37        0.002   0.007   0.000   0.010
   38        0.002   0.007   0.000   0.009
   39        0.001  -0.018   0.000  -0.016
   40        0.001  -0.018   0.000  -0.016
   41        0.000  -0.009   0.000  -0.009
   42        0.000  -0.009   0.000  -0.009
   43        0.000  -0.001   0.000  -0.000
   44        0.000  -0.001   0.000  -0.000
   45        0.005   0.031   0.000   0.036
   46        0.005   0.031   0.000   0.036
   47        0.000  -0.013   0.000  -0.013
   48        0.000  -0.013   0.000  -0.013
   49        0.010   0.129   0.000   0.139
   50        0.010   0.128   0.000   0.139
   51        0.002  -0.018   0.000  -0.016
   52        0.002  -0.018   0.000  -0.016
   53        0.000  -0.011   0.000  -0.011
   54        0.000  -0.011   0.000  -0.011
   55        0.006   0.031   0.000   0.037
   56        0.006   0.031   0.000   0.037
   57        0.001  -0.004   0.000  -0.003
   58        0.001  -0.004   0.000  -0.003
   59        0.005   0.032   0.000   0.037
   60        0.005   0.032   0.000   0.037
   61       -0.000  -0.048   0.000  -0.048
   62       -0.000  -0.048   0.000  -0.048
   63        0.000  -0.008   0.000  -0.008
   64        0.000  -0.008   0.000  -0.008
   65        0.000   0.000  -0.014  -0.014
   66       -0.000   0.000  -0.036  -0.036
tot           0.19    0.53    9.98   10.70

JobServer Home

Summary

Jobs

Administration

Documentation