 vasp.5.4.4.18Apr17-6-g9f103f2a35 (build May 12 2020 04:58:55) complex

 MD_VERSION_INFO: Compiled 2020-05-12T11:58:55-UTC in devlin.sd.materialsdesign.
 com:/home/medea2/data/build/wwolf/vasp-gpu5.4.4/13047/x86_64/src/src/build/std
 from svn 13047

 executed on                        Lin64 date 2022.11.15  22:14:44

 INCAR:
 POTCAR:    PAW_PBE Li_sv 10Sep2004
 POTCAR:    PAW_PBE Mn_pv 02Aug2007
 POTCAR:    PAW_PBE O 08Apr2002
 POTCAR:    PAW_PBE Co 02Aug2007
 POTCAR:    PAW_PBE Ni 02Aug2007

 POTCAR:    PAW_PBE Li_sv 10Sep2004

 POTCAR:    PAW_PBE Mn_pv 02Aug2007

 POTCAR:    PAW_PBE O 08Apr2002

 POTCAR:    PAW_PBE Co 02Aug2007

 POTCAR:    PAW_PBE Ni 02Aug2007

 Optimization of the real space projectors (new method)

 maximal supplied QI-value         = 22.11
 optimisation between [QCUT,QGAM] = [ 11.28, 22.77] = [ 35.61,145.23] Ry
 Optimized for a Real-space Cutoff    1.10 Angstroem

   l    n(q)    QCUT    max X(q) W(low)/X(q) W(high)/X(q)  e(spline)
   0      7    11.276    10.506    0.54E-04    0.58E-04    0.16E-07
   0      7    11.276     8.367    0.11E-03    0.14E-03    0.35E-07
   1      7    11.276     8.983    0.23E-03    0.43E-03    0.86E-07
 Optimization of the real space projectors (new method)

[...]

   l    n(q)    QCUT    max X(q) W(low)/X(q) W(high)/X(q)  e(spline)
   2      9    11.376    65.824    0.18E-03    0.28E-04    0.14E-06
   2      9    11.376    61.429    0.18E-03    0.29E-04    0.14E-06
   0     10    11.376    56.174    0.51E-04    0.12E-03    0.20E-06
   0     10    11.376    31.263    0.46E-04    0.11E-03    0.18E-06
   1      9    11.376    19.828    0.23E-03    0.17E-03    0.10E-06
   1      9    11.376    15.139    0.20E-03    0.14E-03    0.89E-07
 Optimization of the real space projectors (new method)

 maximal supplied QI-value         = 16.25
 optimisation between [QCUT,QGAM] = [ 11.38, 22.75] = [ 36.24,144.96] Ry
 Optimized for a Real-space Cutoff    1.47 Angstroem

   l    n(q)    QCUT    max X(q) W(low)/X(q) W(high)/X(q)  e(spline)
   2      9    11.376    60.317    0.17E-03    0.16E-04    0.16E-06
   2      9    11.376    55.921    0.17E-03    0.16E-04    0.17E-06
   0     10    11.376    51.690    0.45E-04    0.60E-04    0.21E-06
   0     10    11.376    30.015    0.37E-04    0.55E-04    0.19E-06
   1     10    11.376    18.849    0.83E-04    0.11E-03    0.92E-07
   1     10    11.376    14.624    0.69E-04    0.92E-04    0.82E-07

  PAW_PBE Li_sv 10Sep2004               :
  PAW_PBE Mn_pv 02Aug2007               :
  PAW_PBE O 08Apr2002                   :
  PAW_PBE Co 02Aug2007                  :
  PAW_PBE Ni 02Aug2007                  :

 POSCAR: ce1_1
  positions in direct lattice

 METAGGA = SCAN     LMAXTAU =  6    LMIXTAU =  T

 ion  position               nearest neighbor table
   1  0.742  0.000  0.251-  20 2.03  23 2.03  19 2.06  16 2.06  12 2.12  14 2.19  32 2.82  11 2.88

   2  0.258  0.000  0.749-  22 2.03  21 2.03  17 2.06  18 2.06  13 2.12  15 2.19  32 2.82  11 2.88

   3  0.354  0.799  0.250-  20 2.00  16 2.02  24 2.06  28 2.06  12 2.08  14 2.14  39 2.83  33 2.84
                            32 2.86  11 2.87
   4  0.847  0.799  0.750-  21 2.00  17 2.02  25 2.06  29 2.06  13 2.08  15 2.14  39 2.83  33 2.84
                            32 2.86  11 2.87
   5  0.646  0.201  0.750-  22 2.00  18 2.02  26 2.06  30 2.06  13 2.08  15 2.14  40 2.83  34 2.84
                            32 2.86  11 2.87
   6  0.153  0.201  0.250-  23 2.00  19 2.02  27 2.06  31 2.06  12 2.08  14 2.14  40 2.83  34 2.84
                            32 2.86  11 2.87
   7  0.947  0.608  0.250-  20 2.08  16 2.09  27 2.10  28 2.16  24 2.17  31 2.17  33 2.83  35 2.84

[...]

  10  0.554  0.392  0.250-  23 2.08  19 2.09  24 2.10  31 2.16  27 2.17  28 2.17  34 2.83  36 2.84

  11  0.000  0.000  0.000-  12 1.90  13 1.90  16 1.91  18 1.91  17 1.91  19 1.91  37 2.84  38 2.84
                            33 2.86  34 2.86  33 2.86  34 2.86   6 2.87   4 2.87   3 2.87   5 2.87
  12  0.359  0.000  0.110-  11 1.90  34 1.98  33 1.98   3 2.08   6 2.08   1 2.12
  13  0.641  0.000  0.890-  11 1.90  33 1.98  34 1.98   5 2.08   4 2.08   2 2.12
  14  0.137  0.000  0.396-  32 1.89  35 1.91  36 1.91   6 2.14   3 2.14   1 2.19
  15  0.863  0.000  0.604-  32 1.89  36 1.91  35 1.91   4 2.14   5 2.14   2 2.19
  16  0.982  0.809  0.119-  11 1.91  37 1.99   3 2.02  33 2.04   1 2.06   7 2.09
  17  0.209  0.809  0.881-  11 1.91  37 1.99   4 2.02  33 2.04   2 2.06   8 2.09
  18  0.018  0.191  0.881-  11 1.91  38 1.99   5 2.02  34 2.04   2 2.06   9 2.09
  19  0.791  0.191  0.119-  11 1.91  38 1.99   6 2.02  34 2.04   1 2.06  10 2.09
  20  0.711  0.807  0.382-  32 1.91  39 1.96   3 2.00   1 2.03  35 2.04   7 2.08
  21  0.482  0.807  0.618-  32 1.91  39 1.96   4 2.00   2 2.03  35 2.04   8 2.08
  22  0.289  0.193  0.618-  32 1.91  40 1.96   5 2.00   2 2.03  36 2.04   9 2.08
  23  0.518  0.193  0.382-  32 1.91  40 1.96   6 2.00   1 2.03  36 2.04  10 2.08
  24  0.554  0.600  0.111-  37 1.88  33 1.96  38 1.99   3 2.06  10 2.10   7 2.17
  25  0.846  0.600  0.889-  37 1.88  33 1.96  38 1.99   4 2.06   9 2.10   8 2.17
  26  0.446  0.400  0.889-  38 1.88  34 1.96  37 1.99   5 2.06   8 2.10   9 2.17
  27  0.154  0.400  0.111-  38 1.88  34 1.96  37 1.99   6 2.06   7 2.10  10 2.17
  28  0.338  0.608  0.393-  39 1.88  35 1.92  40 2.01   3 2.06   7 2.16  10 2.17
  29  0.054  0.608  0.607-  39 1.88  35 1.92  40 2.01   4 2.06   8 2.16   9 2.17
  30  0.662  0.392  0.607-  40 1.88  36 1.92  39 2.01   5 2.06   9 2.16   8 2.17
  31  0.946  0.392  0.393-  40 1.88  36 1.92  39 2.01   6 2.06  10 2.16   7 2.17
  32  0.500  0.000  0.500-  14 1.89  15 1.89  21 1.91  23 1.91  22 1.91  20 1.91  39 2.81  40 2.81
                             1 2.82   2 2.82  35 2.84  36 2.84  35 2.84  36 2.84   5 2.86   3 2.86
  33  0.601  0.797  0.000-  24 1.96  25 1.96  13 1.98  12 1.98  16 2.04  17 2.04   8 2.83   7 2.83
                            37 2.83  37 2.83   4 2.84   3 2.84  38 2.85  11 2.86  11 2.86  34 2.89
  34  0.399  0.203  0.000-  26 1.96  27 1.96  12 1.98  13 1.98  18 2.04  19 2.04  10 2.83   9 2.83
                            38 2.83  38 2.83   6 2.84   5 2.84  37 2.85  11 2.86  11 2.86  33 2.89
  35  0.099  0.802  0.500-  14 1.91  15 1.91  29 1.92  28 1.92  21 2.04  20 2.04  36 2.82  39 2.84
                            39 2.84   7 2.84   8 2.84  32 2.84  32 2.84  40 2.90
  36  0.901  0.198  0.500-  15 1.91  14 1.91  31 1.92  30 1.92  23 2.04  22 2.04  35 2.82  40 2.84
                            40 2.84   9 2.84  10 2.84  32 2.84  32 2.84  39 2.90
  37  0.199  0.602  0.000-  25 1.88  24 1.88  27 1.99  26 1.99  17 1.99  16 1.99  33 2.83  33 2.83
                            11 2.84  34 2.85  38 2.86  38 2.86
  38  0.801  0.398  0.000-  27 1.88  26 1.88  25 1.99  24 1.99  19 1.99  18 1.99  34 2.83  34 2.83
                            11 2.84  33 2.85  37 2.86  37 2.86
  39  0.697  0.605  0.500-  29 1.88  28 1.88  20 1.96  21 1.96  30 2.01  31 2.01  32 2.81   4 2.83
                             3 2.83  35 2.84  35 2.84  40 2.89  40 2.89  36 2.90
  40  0.303  0.395  0.500-  31 1.88  30 1.88  22 1.96  23 1.96  28 2.01  29 2.01  32 2.81   6 2.83
                             5 2.83  36 2.84  36 2.84  39 2.89  39 2.89  35 2.90

  LATTYP: Found a base centered monoclinic cell.
 ALAT       =     4.9293156300
 B/A-ratio  =     2.8921532541
 C/A-ratio  =     2.5309799022
 COS(beta)  =    -0.2165175093

  Lattice vectors:

 A1 = (   2.4646578100,   7.1281681200,   0.0000000000)
 A2 = (   2.4646578200,  -7.1281681200,   0.0000000000)
 A3 = (  -8.2663123700,   0.0000000000,  -9.3444435700)

Analysis of symmetry for initial positions (statically):
 Subroutine PRICEL returns:
 Original cell was already a primitive cell.

 Routine SETGRP: Setting up the symmetry group for a
 base centered monoclinic supercell.

 Subroutine GETGRP returns: Found  4 space group operations
 (whereof  4 operations were pure point group operations)
 out of a pool of  4 trial point group operations.

The static configuration has the point symmetry C_2h.

Analysis of symmetry for dynamics (positions and initial velocities):
 Subroutine PRICEL returns:
 Original cell was already a primitive cell.

[...]

The dynamic configuration has the point symmetry C_2h.

Analysis of structural, dynamic, and magnetic symmetry:
 Subroutine PRICEL returns:
 Original cell was already a primitive cell.

 Routine SETGRP: Setting up the symmetry group for a
 base centered monoclinic supercell.

 Subroutine GETGRP returns: Found  4 space group operations
 (whereof  4 operations were pure point group operations)
 out of a pool of  4 trial point group operations.

The magnetic configuration has the point symmetry C_2h.

 Subroutine INISYM returns: Found  4 space group operations
 (whereof  4 operations are pure point group operations),
 and found     1 'primitive' translations

 KPOINTS: Automatic mesh

Automatic generation of k-mesh.
Space group operators:
 irot       det(A)        alpha          n_x          n_y          n_z        tau_x        tau_y        tau_z
    1     1.000000     0.000001     1.000000     0.000000     0.000000     0.000000     0.000000     0.000000
    2    -1.000000     0.000001     1.000000     0.000000     0.000000     0.000000     0.000000     0.000000
    3     1.000000   180.000000     0.000000     1.000000     0.000000     0.000000     0.000000     0.000000
    4    -1.000000   180.000000     0.000000     1.000000     0.000000     0.000000     0.000000     0.000000

 Subroutine IBZKPT returns following result:

 Found     10 irreducible k-points:

 Following reciprocal coordinates:
            Coordinates               Weight
  0.000000  0.000000  0.000000      1.000000
  0.333333  0.000000  0.000000      4.000000
  0.000000  0.333333  0.000000      2.000000
 -0.333333  0.333333 -0.000000      2.000000
  0.000000  0.000000  0.333333      2.000000
  0.333333  0.000000  0.333333      4.000000
 -0.333333 -0.000000  0.333333      4.000000
  0.000000  0.333333  0.333333      4.000000
 -0.333333  0.333333  0.333333      2.000000
  0.333333 -0.333333  0.333333      2.000000

 Following cartesian coordinates:
            Coordinates               Weight
  0.000000  0.000000  0.000000      1.000000
  0.067623 -0.023381  0.011523      4.000000
  0.000000  0.046763  0.000000      2.000000
 -0.067623  0.070144 -0.011523      2.000000
  0.000000  0.000000  0.035672      2.000000
  0.067623 -0.023381  0.047195      4.000000
 -0.067623  0.023381  0.024149      4.000000
  0.000000  0.046763  0.035672      4.000000
 -0.067623  0.070144  0.024149      2.000000
  0.067623 -0.070144  0.047195      2.000000

 SYSTEM =  unknown system
 POSCAR =  ce1_1

 Startparameter for this run:
   NWRITE =      1    write-flag & timer
   PREC   = accura    normal or accurate (medium, high low for compatibility)
   ISTART =      0    job   : 0-new  1-cont  2-samecut
   ICHARG =      2    charge: 1-file 2-atom 10-const
   ISPIN  =      2    spin polarized calculation?
   LNONCOLLINEAR =      F non collinear calculations
   LSORBIT =      F    spin-orbit coupling
   INIWAV =      1    electr: 0-lowe 1-rand  2-diag
   LASPH  =      T    aspherical Exc in radial PAW
[...]
    243      30.3728      0.00000
    244      30.3865      0.00000
    245      30.4716      0.00000
    246      30.5167      0.00000
    247      30.5364      0.00000
    248      30.5523      0.00000
    249      30.8689      0.00000
    250      31.0238      0.00000
    251      31.0632      0.00000
    252      31.3310      0.00000
    253      31.6065      0.00000
    254      31.8710      0.00000
    255      32.1739      0.00000
    256      32.3127      0.00000

[...]

 spin component 2

[...]

 k-point    10 :       0.3333   -0.3333    0.3333
  band No.  band energies     occupation
      1     -43.9193      1.00000
      2     -43.8949      1.00000
      3     -43.8693      1.00000
      4     -40.5408      1.00000
      5     -40.5408      1.00000
      6     -40.5347      1.00000
      7     -40.5346      1.00000
      8     -40.0039      1.00000
      9     -40.0038      1.00000
     10     -39.8188      1.00000
     11     -39.8187      1.00000
     12     -39.8111      1.00000
     13     -39.8111      1.00000
     14     -14.9342      1.00000
     15     -14.7913      1.00000
     16     -14.6659      1.00000
     17     -14.5884      1.00000
     18     -14.4384      1.00000
     19     -14.2151      1.00000
     20     -14.1127      1.00000
     21     -13.9538      1.00000
     22     -13.9202      1.00000
     23     -13.7779      1.00000
     24     -13.7741      1.00000
     25     -13.7118      1.00000
     26     -13.6838      1.00000
     27     -13.5699      1.00000
     28     -13.5059      1.00000
     29     -13.4791      1.00000
     30     -13.4436      1.00000
     31     -13.3142      1.00000
     32     -13.3114      1.00000
     33     -13.2360      1.00000
     34      -1.6851      1.00000
     35      -1.4667      1.00000
     36      -1.4095      1.00000
     37      -1.2435      1.00000
     38      -1.1336      1.00000
     39      -0.7911      1.00000
     40      -0.7244      1.00000
     41      -0.6931      1.00000
     42      -0.6859      1.00000
     43      -0.6231      1.00000
     44      -0.5861      1.00000
     45      -0.5506      1.00000
     46      -0.3833      1.00000
     47      -0.2707      1.00000
     48      -0.2336      1.00000
     49      -0.2224      1.00000
     50      -0.1941      1.00000
     51      -0.0273      1.00000
     52       0.1109      1.00000
     53       0.1792      1.00000
     54       0.2600      1.00000
     55       0.3766      1.00000
     56       0.4062      1.00000
     57       0.5974      1.00000
     58       0.6144      1.00000
     59       0.7171      1.00000
     60       0.7543      1.00000
[...]
    242      30.9973      0.00000
    243      31.0397      0.00000
    244      31.2093      0.00000
    245      31.5769      0.00000
    246      31.7760      0.00000
    247      31.9266      0.00000
    248      31.9511      0.00000
    249      32.0955      0.00000
    250      32.1099      0.00000
    251      32.1364      0.00000
    252      32.2625      0.00000
    253      32.6915      0.00000
    254      32.9499      0.00000
    255      33.3073      0.00000
    256      34.1396      0.00000

 soft charge-density along one line, spin component           1
         0         1         2         3         4         5         6         7         8         9
 total charge-density along one line

 soft charge-density along one line, spin component           2
         0         1         2         3         4         5         6         7         8         9
 total charge-density along one line

------------------------ aborting loop because EDIFF is reached ----------------------------------------

  FORCE on cell =-STRESS in cart. coord.  units (eV):
  Direction    XX          YY          ZZ          XY          YZ          ZX
  Alpha Z   834.84308   834.84308   834.84308
  Ewald   -3968.37575 -4028.17051 -8320.77425     0.00000    -0.00000    25.87764
  Hartree  3084.00611  3052.13350  -175.06135    -0.00003     0.00002     7.70403
  E(xc)    -713.29586  -713.13125  -711.10330    -0.02308     0.03076    -0.35653
  Local   -3743.41821 -3659.58339  3802.31653     0.00025     0.00004   -24.92083
  n-local  -890.08234  -891.03587  -907.75401     0.18024    -0.27234     2.70088
  augment  1555.23834  1561.84761  1576.42431     0.00025     0.00010    -4.64510
  Kinetic  3841.00463  3843.09438  3901.06688    -0.63168     0.96982    -6.31690
  Fock        0.00000     0.00000     0.00000     0.00000     0.00000     0.00000
  Total       -0.0800031     -0.0024409     -0.0421152      0.0000000      0.0000000      0.0431894
  in kB       -0.3903905     -0.0119108     -0.2055092      0.0000000      0.0000000      0.2107510

 VOLUME and BASIS-vectors are now :
  energy-cutoff  :      500.00
  volume of cell :      328.34
      direct lattice vectors                 reciprocal lattice vectors
     4.929315630  0.000000000  0.000000000     0.202867918 -0.070144249  0.034569251
     2.464657810  7.128168120  0.000000000     0.000000000  0.140288498  0.000000000
    -1.592318890  0.000000000  9.344443570     0.000000000  0.000000000  0.107015468

  length of vectors
     4.929315630  7.542235668  9.479140524     0.217418125  0.140288498  0.107015468

 FORCES acting on ions:
    Electron-Ion                     Ewald-Force                    Non-Local-Force
   0.172E+01 0.131E-04 -.133E+02   -.202E+01 0.142E-08 0.134E+02   0.288E+00 0.000E+00 -.103E+00
   -.172E+01 -.131E-04 0.133E+02   0.202E+01 -.142E-08 -.134E+02   -.288E+00 0.000E+00 0.103E+00
   -.146E+01 0.110E+02 -.152E+02   0.172E+01 -.113E+02 0.151E+02   -.270E+00 0.300E+00 0.559E-01
   0.146E+01 0.110E+02 0.152E+02   -.172E+01 -.113E+02 -.151E+02   0.270E+00 0.300E+00 -.559E-01
   0.146E+01 -.110E+02 0.152E+02   -.172E+01 0.113E+02 -.151E+02   0.270E+00 -.300E+00 -.559E-01
   -.146E+01 -.110E+02 -.152E+02   0.172E+01 0.113E+02 0.151E+02   -.270E+00 -.300E+00 0.559E-01
   0.138E+01 0.103E+02 -.929E+01   -.129E+01 -.101E+02 0.913E+01   -.964E-01 -.219E+00 0.170E+00
   -.138E+01 0.103E+02 0.929E+01   0.129E+01 -.101E+02 -.913E+01   0.964E-01 -.219E+00 -.170E+00
   -.138E+01 -.103E+02 0.929E+01   0.129E+01 0.101E+02 -.913E+01   0.964E-01 0.219E+00 -.170E+00
   0.138E+01 -.103E+02 -.929E+01   -.129E+01 0.101E+02 0.913E+01   -.964E-01 0.219E+00 0.170E+00
   -.571E-13 -.754E-13 -.897E-13   0.552E-13 -.147E-12 -.180E-12   -.108E-18 0.000E+00 0.000E+00
   -.677E+02 -.192E-05 -.280E+03   0.719E+02 -.108E-06 0.293E+03   -.413E+01 0.347E-17 -.124E+02
   0.677E+02 0.192E-05 0.280E+03   -.719E+02 0.108E-06 -.293E+03   0.413E+01 -.347E-17 0.124E+02
   -.255E+01 0.152E-04 0.232E+03   0.301E+01 0.134E-06 -.248E+03   -.466E+00 0.000E+00 0.157E+02
   0.255E+01 -.152E-04 -.232E+03   -.301E+01 -.134E-06 0.248E+03   0.466E+00 0.000E+00 -.157E+02
   0.452E+02 0.709E+02 -.286E+03   -.473E+02 -.732E+02 0.299E+03   0.210E+01 0.231E+01 -.126E+02
   -.452E+02 0.709E+02 0.286E+03   0.473E+02 -.732E+02 -.299E+03   -.210E+01 0.231E+01 0.126E+02
   -.452E+02 -.709E+02 0.286E+03   0.473E+02 0.732E+02 -.299E+03   -.210E+01 -.231E+01 0.126E+02
   0.452E+02 -.709E+02 -.286E+03   -.473E+02 0.732E+02 0.299E+03   0.210E+01 -.231E+01 -.126E+02
   -.137E+02 0.166E+02 0.227E+03   0.154E+02 -.174E+02 -.239E+03   -.170E+01 0.820E+00 0.117E+02
   0.137E+02 0.166E+02 -.227E+03   -.154E+02 -.174E+02 0.239E+03   0.170E+01 0.820E+00 -.117E+02
   0.137E+02 -.166E+02 -.227E+03   -.154E+02 0.174E+02 0.239E+03   0.170E+01 -.820E+00 -.117E+02
   -.137E+02 -.166E+02 0.227E+03   0.154E+02 0.174E+02 -.239E+03   -.170E+01 -.820E+00 0.117E+02
   -.206E+02 0.218E+02 -.259E+03   0.230E+02 -.220E+02 0.272E+03   -.239E+01 0.278E+00 -.127E+02
   0.206E+02 0.218E+02 0.259E+03   -.230E+02 -.220E+02 -.272E+03   0.239E+01 0.278E+00 0.127E+02
   0.206E+02 -.218E+02 0.259E+03   -.230E+02 0.220E+02 -.272E+03   0.239E+01 -.278E+00 0.127E+02
   -.206E+02 -.218E+02 -.259E+03   0.230E+02 0.220E+02 0.272E+03   -.239E+01 -.278E+00 -.127E+02
   0.154E+02 0.287E+02 0.238E+03   -.174E+02 -.306E+02 -.250E+03   0.203E+01 0.186E+01 0.128E+02
   -.154E+02 0.287E+02 -.238E+03   0.174E+02 -.306E+02 0.250E+03   -.203E+01 0.186E+01 -.128E+02
   -.154E+02 -.287E+02 -.238E+03   0.174E+02 0.306E+02 0.250E+03   -.203E+01 -.186E+01 -.128E+02
   0.154E+02 -.287E+02 0.238E+03   -.174E+02 0.306E+02 -.250E+03   0.203E+01 -.186E+01 0.128E+02
   -.375E-12 -.444E-14 0.191E-11   0.375E-13 0.426E-13 -.363E-13   0.745E-19 0.000E+00 0.000E+00
   -.374E-04 0.553E+02 -.521E-05   -.688E-07 -.552E+02 -.170E-07   0.377E-10 -.537E-01 -.108E-18
   0.374E-04 -.553E+02 0.521E-05   0.688E-07 0.552E+02 0.170E-07   -.377E-10 0.537E-01 0.000E+00
   -.216E-04 0.361E+02 0.248E-04   0.178E-07 -.364E+02 -.824E-08   -.180E-09 0.256E+00 0.000E+00
   0.216E-04 -.361E+02 -.248E-04   -.178E-07 0.364E+02 0.824E-08   0.180E-09 -.256E+00 0.000E+00
   -.558E-04 0.552E+02 -.311E-05   0.734E-07 -.556E+02 -.148E-07   -.220E-09 0.314E+00 0.000E+00
   0.558E-04 -.552E+02 0.311E-05   -.734E-07 0.556E+02 0.148E-07   0.220E-09 -.314E+00 0.000E+00
   -.253E-04 0.441E+02 0.333E-04   0.190E-07 -.430E+02 -.466E-08   0.897E-09 -.128E+01 0.867E-18
   0.253E-04 -.441E+02 -.333E-04   -.190E-07 0.430E+02 0.466E-08   -.897E-09 0.128E+01 -.867E-18
   0.174E-10 0.197E-10 0.514E-10   0.475E-13 0.298E-12 -.816E-13   0.444E-15 -.444E-15 0.178E-14

 POSITION                                       TOTAL-FORCE (eV/Angst)
      3.25753      0.00000      2.34272        -0.004402     -0.000000     -0.012867
      0.07947      0.00000      7.00173         0.004402     -0.000000      0.012867
      3.31516      5.69764      2.33826        -0.003209     -0.002776      0.004256
      4.95115      5.69764      7.00618         0.003209     -0.002776     -0.004256
      2.48649      1.43053      7.00618         0.003209      0.002776     -0.004256
      0.85050      1.43053      2.33826        -0.003209      0.002776      0.004256
      5.76487      4.33072      2.33926        -0.002546      0.015033      0.007668
      2.50145      4.33072      7.00519         0.002546      0.015033     -0.007668
      0.03679      2.79745      7.00519         0.002546     -0.015033     -0.007668
      3.30021      2.79745      2.33926        -0.002546     -0.015033      0.007668
      0.00000      0.00000      0.00000         0.000000     -0.000000      0.000000
      1.59384      0.00000      1.02778         0.000803     -0.000000     -0.010319
      1.74316      0.00000      8.31666        -0.000803     -0.000000      0.010319
      0.04330      0.00000      3.70370        -0.000975     -0.000000      0.007471
      3.29370      0.00000      5.64074         0.000975     -0.000000     -0.007471
      6.64630      5.76886      1.10738        -0.001496      0.001520     -0.004741
      1.62001      5.76886      8.23707         0.001496      0.001520      0.004741
     -0.84465      1.35930      8.23707         0.001496     -0.001520      0.004741
      4.18164      1.35930      1.10738        -0.001496     -0.001520     -0.004741
      4.88323      5.75255      3.57154        -0.006495      0.003179     -0.003244
      3.38308      5.75255      5.77291         0.006495      0.003179      0.003244
      0.91842      1.37562      5.77291         0.006495     -0.003179      0.003244
      2.41858      1.37562      3.57154        -0.006495     -0.003179     -0.003244
      4.03216      4.27509      1.03477         0.001101      0.008601     -0.002572
      4.23415      4.27509      8.30967        -0.001101      0.008601      0.002572
      1.76950      2.85308      8.30967        -0.001101     -0.008601      0.002572
      1.56750      2.85308      1.03477         0.001101     -0.008601     -0.002572
      2.53662      4.33334      3.67346         0.000212     -0.001174     -0.006410
      0.80038      4.33334      5.67098        -0.000212     -0.001174      0.006410
      3.26504      2.79483      5.67098        -0.000212      0.001174      0.006410
      5.00127      2.79483      3.67346         0.000212      0.001174     -0.006410
      1.66850      0.00000      4.67222         0.000000     -0.000000      0.000000
      4.92932      5.68198      0.00000        -0.000000      0.010303      0.000000
      2.46466      1.44619      0.00000         0.000000     -0.010303      0.000000
      1.66850      5.71829      4.67222         0.000000     -0.003915     -0.000000
      4.13316      1.40988      4.67222        -0.000000      0.003915      0.000000
      2.46466      4.29256      0.00000        -0.000000      0.001749      0.000000
      4.92932      2.83560      0.00000         0.000000     -0.001749      0.000000
      4.13316      4.31410      4.67222         0.000000     -0.018404      0.000000
      1.66850      2.81406      4.67222        -0.000000      0.018404      0.000000
    total drift:                                0.000000      0.000000      0.000000

  FREE ENERGIE OF THE ION-ELECTRON SYSTEM (eV)
  free  energy   TOTEN  =      -884.0905041183 eV

  energy  without entropy=     -884.0850435253  energy(sigma->0) =     -884.08777382

volume of typ            1:    23.7 %

[...]

volume of typ            5:    15.5 %

total charge

# of ion       s       p       d       tot
    1        2.087   0.282   0.118   2.488
    2        2.087   0.282   0.118   2.488
    3        2.096   0.303   0.127   2.526
    4        2.096   0.303   0.127   2.526
    5        2.096   0.303   0.127   2.526
    6        2.096   0.303   0.127   2.526
    7        2.072   0.236   0.095   2.403
    8        2.072   0.236   0.095   2.403
    9        2.072   0.236   0.095   2.403
   10        2.072   0.236   0.095   2.403
   11        0.233   6.258   4.547  11.037
   12        1.262   2.851   0.005   4.117
   13        1.262   2.851   0.005   4.117
   14        1.263   2.837   0.006   4.106
   15        1.263   2.837   0.006   4.106
   16        1.258   2.854   0.004   4.116
   17        1.259   2.855   0.004   4.117
   18        1.258   2.854   0.004   4.116
   19        1.259   2.855   0.004   4.117
   20        1.257   2.848   0.004   4.109
   21        1.257   2.850   0.004   4.111
   22        1.257   2.848   0.004   4.109
   23        1.257   2.850   0.004   4.112
   24        1.261   2.834   0.005   4.100
   25        1.261   2.836   0.005   4.101
   26        1.261   2.834   0.005   4.100
   27        1.261   2.835   0.005   4.101
   28        1.262   2.831   0.005   4.098
   29        1.262   2.832   0.005   4.099
   30        1.262   2.831   0.005   4.098
   31        1.262   2.832   0.005   4.099
   32        0.252   0.357   6.820   7.429
   33        0.230   0.282   7.837   8.349
   34        0.230   0.282   7.837   8.349
   35        0.254   0.325   7.806   8.385
   36        0.254   0.325   7.806   8.385
   37        0.251   0.327   7.802   8.379
   38        0.251   0.327   7.802   8.379
   39        0.253   0.325   7.800   8.378
   40        0.253   0.325   7.800   8.378
tot          48.51   68.71   75.08  192.29

magnetization (x)

# of ion       s       p       d       tot
    1        0.003   0.008   0.001   0.012
    2        0.003   0.008   0.001   0.012
    3        0.006   0.013   0.002   0.021
    4        0.006   0.013   0.002   0.021
    5        0.006   0.013   0.002   0.021
    6        0.006   0.013   0.002   0.021
    7        0.001  -0.000  -0.001  -0.001
    8        0.001  -0.001  -0.001  -0.001
    9        0.001  -0.000  -0.001  -0.001
   10        0.001  -0.001  -0.001  -0.001
   11        0.012   0.013   2.668   2.692
   12        0.010   0.030   0.001   0.040
   13        0.010   0.030   0.001   0.040
   14        0.003  -0.048   0.000  -0.045
   15        0.003  -0.048   0.000  -0.045
   16        0.011   0.102   0.001   0.113
   17        0.011   0.100   0.001   0.112
   18        0.011   0.102   0.001   0.113
   19        0.011   0.101   0.001   0.112
   20        0.011   0.094   0.000   0.105
   21        0.011   0.097   0.000   0.108
   22        0.011   0.095   0.000   0.106
   23        0.011   0.097   0.000   0.108
   24        0.009   0.007   0.000   0.016
   25        0.009   0.007   0.000   0.016
   26        0.009   0.007   0.000   0.016
   27        0.009   0.007   0.000   0.016
   28        0.007  -0.017   0.000  -0.009
   29        0.007  -0.015   0.000  -0.008
   30        0.007  -0.016   0.000  -0.009
   31        0.007  -0.016   0.000  -0.008
   32       -0.001  -0.001  -0.126  -0.128
   33        0.006   0.003   1.338   1.347
   34        0.006   0.003   1.338   1.347
   35        0.003   0.002   0.935   0.940
   36        0.003   0.002   0.935   0.940
   37        0.003   0.002   0.900   0.905
   38        0.003   0.002   0.900   0.905
   39        0.002   0.002   0.903   0.907
   40        0.002   0.002   0.903   0.907
tot           0.25    0.81   10.71   11.76