 vasp.5.4.4.18Apr17-6-g9f103f2a35 (build May 12 2020 04:58:55) complex

 MD_VERSION_INFO: Compiled 2020-05-12T11:58:55-UTC in devlin.sd.materialsdesign.
 com:/home/medea2/data/build/wwolf/vasp-gpu5.4.4/13047/x86_64/src/src/build/std
 from svn 13047

 executed on                        Lin64 date 2022.11.16  13:32:00

 INCAR:
 POTCAR:    PAW_PBE Li_sv 10Sep2004
 POTCAR:    PAW_PBE Mn_pv 02Aug2007
 POTCAR:    PAW_PBE O 08Apr2002
 POTCAR:    PAW_PBE Co 02Aug2007
 POTCAR:    PAW_PBE Ni 02Aug2007

 POTCAR:    PAW_PBE Li_sv 10Sep2004

 POTCAR:    PAW_PBE Mn_pv 02Aug2007

 POTCAR:    PAW_PBE O 08Apr2002

 POTCAR:    PAW_PBE Co 02Aug2007

 POTCAR:    PAW_PBE Ni 02Aug2007

 Optimization of the real space projectors (new method)

 maximal supplied QI-value         = 22.11
 optimisation between [QCUT,QGAM] = [ 11.28, 22.77] = [ 35.61,145.23] Ry
 Optimized for a Real-space Cutoff    1.10 Angstroem

   l    n(q)    QCUT    max X(q) W(low)/X(q) W(high)/X(q)  e(spline)
   0      7    11.276    10.506    0.54E-04    0.58E-04    0.16E-07
   0      7    11.276     8.367    0.11E-03    0.14E-03    0.35E-07
   1      7    11.276     8.983    0.23E-03    0.43E-03    0.86E-07
 Optimization of the real space projectors (new method)

[...]

   l    n(q)    QCUT    max X(q) W(low)/X(q) W(high)/X(q)  e(spline)
   2      9    11.376    65.824    0.18E-03    0.28E-04    0.14E-06
   2      9    11.376    61.429    0.18E-03    0.29E-04    0.14E-06
   0     10    11.376    56.174    0.51E-04    0.12E-03    0.20E-06
   0     10    11.376    31.263    0.46E-04    0.11E-03    0.18E-06
   1      9    11.376    19.828    0.23E-03    0.17E-03    0.10E-06
   1      9    11.376    15.139    0.20E-03    0.14E-03    0.89E-07
 Optimization of the real space projectors (new method)

 maximal supplied QI-value         = 16.25
 optimisation between [QCUT,QGAM] = [ 11.38, 22.75] = [ 36.24,144.96] Ry
 Optimized for a Real-space Cutoff    1.47 Angstroem

   l    n(q)    QCUT    max X(q) W(low)/X(q) W(high)/X(q)  e(spline)
   2      9    11.376    60.317    0.17E-03    0.16E-04    0.16E-06
   2      9    11.376    55.921    0.17E-03    0.16E-04    0.17E-06
   0     10    11.376    51.690    0.45E-04    0.60E-04    0.21E-06
   0     10    11.376    30.015    0.37E-04    0.55E-04    0.19E-06
   1     10    11.376    18.849    0.83E-04    0.11E-03    0.92E-07
   1     10    11.376    14.624    0.69E-04    0.92E-04    0.82E-07

  PAW_PBE Li_sv 10Sep2004               :
  PAW_PBE Mn_pv 02Aug2007               :
  PAW_PBE O 08Apr2002                   :
  PAW_PBE Co 02Aug2007                  :
  PAW_PBE Ni 02Aug2007                  :

 POSCAR: ce129622_1
  positions in direct lattice

 METAGGA = SCAN     LMAXTAU =  6    LMIXTAU =  T

 ion  position               nearest neighbor table
   1  0.742  0.089  0.252-  25 2.00  17 2.04   9 2.04  13 2.05  33 2.23  41 2.24  50 2.78   7 2.83

   2  0.258  0.089  0.748-  26 2.00  18 2.04  10 2.04  14 2.05  34 2.23  42 2.24  50 2.78   7 2.83

[...]

   6  0.757  0.311  0.249-  40 1.99  32 2.01  24 2.02  41 2.19  48 2.19  33 2.24  52 2.79  58 2.83

   7  0.000  0.000  0.000-  17 1.85  18 1.85   9 1.89  10 1.89  19 1.92  20 1.92  59 2.77  60 2.79
                            53 2.80  53 2.80  54 2.81  54 2.81   1 2.83   2 2.83
   8  0.500  0.500  0.000-  21 1.87  22 1.87  11 1.90  12 1.90  23 1.91  24 1.91  61 2.76  62 2.79
                            51 2.80  51 2.80  52 2.80  52 2.80
   9  0.635  1.000  0.101-  53 1.87   7 1.89  54 1.89   1 2.04
  10  0.365  1.000  0.899-  53 1.87   7 1.89  54 1.89   2 2.04
  11  0.132  0.501  0.101-  51 1.85  52 1.88   8 1.90
  12  0.868  0.501  0.899-  51 1.85  52 1.88   8 1.90
  13  0.864  0.001  0.401-  55 1.86  56 1.86  50 1.87   1 2.05
  14  0.136  0.001  0.599-  55 1.86  56 1.86  50 1.87   2 2.05
  15  0.369  0.501  0.401-  57 1.84  58 1.85  49 1.89
  16  0.631  0.501  0.599-  57 1.84  58 1.85  49 1.89
  17  0.099  0.099  0.111-   7 1.85  59 1.86   1 2.04  53 2.07
  18  0.901  0.099  0.889-   7 1.85  59 1.86   2 2.04  53 2.07
  19  0.858  0.897  0.898-  54 1.86  60 1.87   7 1.92   3 2.07
  20  0.142  0.897  0.102-  54 1.86  60 1.87   7 1.92   4 2.07
  21  0.637  0.600  0.101-  61 1.87   8 1.87  51 1.88
  22  0.363  0.600  0.899-  61 1.87   8 1.87  51 1.88
  23  0.359  0.398  0.899-  52 1.86  62 1.87   8 1.91   5 2.02
  24  0.641  0.398  0.101-  52 1.86  62 1.87   8 1.91   6 2.02
  25  0.395  0.102  0.393-  65 1.83  50 1.86   1 2.00  55 2.03
  26  0.605  0.102  0.607-  65 1.83  50 1.86   2 2.00  55 2.03
  27  0.639  0.897  0.602-  66 1.85  56 1.87  50 1.92   3 2.06
  28  0.361  0.897  0.398-  66 1.85  56 1.87  50 1.92   4 2.06
  29  0.864  0.601  0.401-  63 1.84  49 1.87  57 1.87
  30  0.136  0.601  0.599-  63 1.84  49 1.87  57 1.87
  31  0.139  0.398  0.600-  64 1.85  58 1.86  49 1.91   5 2.01
  32  0.861  0.398  0.400-  64 1.85  58 1.86  49 1.91   6 2.01
  33  0.643  0.199  0.100-  59 1.85  62 1.88  53 1.88   1 2.23   6 2.24
  34  0.357  0.199  0.900-  59 1.85  62 1.88  53 1.88   2 2.23   5 2.24
  35  0.397  0.799  0.893-  54 1.84  61 1.85   3 2.00  60 2.04
  36  0.603  0.799  0.107-  54 1.84  61 1.85   4 2.00  60 2.04
  37  0.141  0.700  0.099-  61 1.86  60 1.86  51 1.88   4 2.17
  38  0.859  0.700  0.901-  61 1.86  60 1.86  51 1.88   3 2.17
  39  0.898  0.300  0.892-  52 1.84  59 1.85   5 1.99  62 2.05
  40  0.102  0.300  0.108-  52 1.84  59 1.85   6 1.99  62 2.05
  41  0.857  0.202  0.398-  65 1.85  64 1.88  55 1.91   6 2.19   1 2.24
  42  0.143  0.202  0.602-  65 1.85  64 1.88  55 1.91   5 2.19   2 2.24
  43  0.134  0.801  0.601-  56 1.87  63 1.88  66 1.89   3 2.19
  44  0.866  0.801  0.399-  56 1.87  63 1.88  66 1.89   4 2.19
  45  0.361  0.702  0.399-  66 1.86  63 1.87  57 1.90   4 2.13
  46  0.639  0.702  0.601-  66 1.86  63 1.87  57 1.90   3 2.13
  47  0.633  0.302  0.602-  58 1.88  65 1.89  64 1.90   5 2.19
  48  0.367  0.302  0.398-  58 1.88  65 1.89  64 1.90   6 2.19
  49  0.000  0.501  0.500-  29 1.87  30 1.87  15 1.89  16 1.89  31 1.91  32 1.91  63 2.75  64 2.78
                            57 2.79  57 2.79  58 2.79  58 2.79
  50  0.500  0.000  0.500-  25 1.86  26 1.86  13 1.87  14 1.87  27 1.92  28 1.92  66 2.77  65 2.77
                             1 2.78   2 2.78  56 2.79  56 2.79  55 2.80  55 2.80
  51  0.000  0.600  0.000-  11 1.85  12 1.85  37 1.88  38 1.88  21 1.88  22 1.88  60 2.76  52 2.78
                            61 2.80  61 2.80   8 2.80   8 2.80
  52  0.000  0.399  0.000-  39 1.84  40 1.84  23 1.86  24 1.86  11 1.88  12 1.88  59 2.77  51 2.78
                             5 2.79   6 2.79   8 2.80   8 2.80  62 2.80  62 2.80
  53  0.500  0.100  0.000-   9 1.87  10 1.87  33 1.88  34 1.88  17 2.07  18 2.07  62 2.76  54 2.79
                             7 2.80   7 2.80  59 2.80  59 2.80
  54  0.500  0.899  0.000-  35 1.84  36 1.84  19 1.86  20 1.86   9 1.89  10 1.89  61 2.76  53 2.79
                            60 2.80  60 2.80   7 2.81   7 2.81   3 2.84   4 2.84
  55  0.000  0.101  0.500-  13 1.86  14 1.86  41 1.91  42 1.91  25 2.03  26 2.03  56 2.77  64 2.77
                            65 2.80  65 2.80  50 2.80  50 2.80
  56  0.000  0.901  0.500-  13 1.86  14 1.86  43 1.87  44 1.87  27 1.87  28 1.87  55 2.77  63 2.79
                            50 2.79  50 2.79  66 2.80  66 2.80
  57  0.500  0.600  0.500-  15 1.84  16 1.84  29 1.87  30 1.87  45 1.90  46 1.90  58 2.75  66 2.77
                            63 2.79  63 2.79  49 2.79  49 2.79
  58  0.500  0.402  0.500-  15 1.85  16 1.85  31 1.86  32 1.86  47 1.88  48 1.88  57 2.75  65 2.79
                            49 2.79  49 2.79  64 2.81  64 2.81   5 2.83   6 2.83
  59  0.000  0.200  0.000-  33 1.85  34 1.85  39 1.85  40 1.85  17 1.86  18 1.86  52 2.77   7 2.77
                            62 2.79  62 2.79  53 2.80  53 2.80
  60  0.000  0.799  0.000-  37 1.86  38 1.86  19 1.87  20 1.87  35 2.04  36 2.04  51 2.76   7 2.79
                            61 2.79  61 2.79  54 2.80  54 2.80
  61  0.500  0.700  0.000-  35 1.85  36 1.85  37 1.86  38 1.86  21 1.87  22 1.87  54 2.76   8 2.76
                            60 2.79  60 2.79  51 2.80  51 2.80
  62  0.500  0.299  0.000-  23 1.87  24 1.87  33 1.88  34 1.88  39 2.05  40 2.05  53 2.76  59 2.79
                            59 2.79   8 2.79  52 2.80  52 2.80
  63  0.000  0.699  0.500-  29 1.84  30 1.84  45 1.87  46 1.87  43 1.88  44 1.88  49 2.75  56 2.79
                            57 2.79  57 2.79  66 2.80  66 2.80
  64  0.000  0.300  0.500-  31 1.85  32 1.85  41 1.88  42 1.88  47 1.90  48 1.90  55 2.77  49 2.78
                            65 2.80  65 2.80  58 2.81  58 2.81
  65  0.500  0.200  0.500-  25 1.83  26 1.83  41 1.85  42 1.85  47 1.89  48 1.89  50 2.77  58 2.79
                            55 2.80  55 2.80  64 2.80  64 2.80
  66  0.500  0.800  0.500-  27 1.85  28 1.85  45 1.86  46 1.86  43 1.89  44 1.89  57 2.77  50 2.77
                            63 2.80  63 2.80  56 2.80  56 2.80

  LATTYP: Found a simple monoclinic cell.
 ALAT       =    11.4806057828
 B/A-ratio  =     1.2069909839
 C/A-ratio  =     1.7986580327
 COS(beta)  =    -0.9807005935

  Lattice vectors:

 A1 = (  -6.3984977900,   0.0000000000,  -9.5322366300)
 A2 = (   0.0000000000, -13.8569876700,   0.0000000000)
 A3 = (   7.9344376500,   0.0000000000,  19.0644732600)

Analysis of symmetry for initial positions (statically):
 Subroutine PRICEL returns:
 Original cell was already a primitive cell.

 Routine SETGRP: Setting up the symmetry group for a
 simple monoclinic supercell.

 Subroutine GETGRP returns: Found  2 space group operations
 (whereof  2 operations were pure point group operations)
 out of a pool of  4 trial point group operations.

The static configuration has the point symmetry C_2 .

Analysis of symmetry for dynamics (positions and initial velocities):
 Subroutine PRICEL returns:
 Original cell was already a primitive cell.

[...]

The dynamic configuration has the point symmetry C_2 .

Analysis of structural, dynamic, and magnetic symmetry:
 Subroutine PRICEL returns:
 Original cell was already a primitive cell.

 Routine SETGRP: Setting up the symmetry group for a
 simple monoclinic supercell.

 Subroutine GETGRP returns: Found  2 space group operations
 (whereof  2 operations were pure point group operations)
 out of a pool of  4 trial point group operations.

The magnetic configuration has the point symmetry C_2 .

 Subroutine INISYM returns: Found  2 space group operations
 (whereof  2 operations are pure point group operations),
 and found     1 'primitive' translations

 KPOINTS: Automatic mesh

Automatic generation of k-mesh.
Space group operators:
 irot       det(A)        alpha          n_x          n_y          n_z        tau_x        tau_y        tau_z
    1     1.000000     0.000001     1.000000     0.000000     0.000000     0.000000     0.000000     0.000000
    2     1.000000   179.999999     0.000000     1.000000     0.000000     0.000000     0.000000     0.000000

 Subroutine IBZKPT returns following result:

 Found      5 irreducible k-points:

 Following reciprocal coordinates:
            Coordinates               Weight
  0.000000  0.000000  0.000000      1.000000
  0.333333  0.000000 -0.000000      2.000000
[...]
   0.892E+02 -.413E+02 0.401E+03   -.970E+02 0.431E+02 -.423E+03   0.779E+01 -.177E+01 0.220E+02
   -.746E+01 0.335E+02 0.383E+03   0.874E+01 -.317E+02 -.405E+03   -.129E+01 -.178E+01 0.228E+02
   0.746E+01 0.335E+02 -.383E+03   -.874E+01 -.317E+02 0.405E+03   0.129E+01 -.178E+01 -.228E+02
   -.288E+02 -.297E+02 -.425E+03   0.301E+02 0.308E+02 0.453E+03   -.128E+01 -.107E+01 -.282E+02
   0.288E+02 -.297E+02 0.425E+03   -.301E+02 0.308E+02 -.453E+03   0.128E+01 -.107E+01 0.282E+02
   -.138E+02 -.198E+02 0.382E+03   0.152E+02 0.212E+02 -.405E+03   -.139E+01 -.146E+01 0.227E+02
   0.138E+02 -.198E+02 -.382E+03   -.152E+02 0.212E+02 0.405E+03   0.139E+01 -.146E+01 -.227E+02
   0.590E+02 0.256E+02 0.334E+03   -.666E+02 -.261E+02 -.355E+03   0.758E+01 0.498E+00 0.212E+02
   -.590E+02 0.256E+02 -.334E+03   0.666E+02 -.261E+02 0.355E+03   -.758E+01 0.498E+00 -.212E+02
   0.214E+02 -.299E+02 -.329E+03   -.232E+02 0.341E+02 0.352E+03   0.178E+01 -.418E+01 -.228E+02
   -.214E+02 -.299E+02 0.329E+03   0.232E+02 0.341E+02 -.352E+03   -.178E+01 -.418E+01 0.228E+02
   -.272E+01 0.330E+02 0.365E+03   0.189E+01 -.340E+02 -.393E+03   0.828E+00 0.909E+00 0.281E+02
   0.272E+01 0.330E+02 -.365E+03   -.189E+01 -.340E+02 0.393E+03   -.828E+00 0.909E+00 -.281E+02
   0.309E+02 -.864E+02 -.329E+03   -.330E+02 0.907E+02 0.351E+03   0.214E+01 -.426E+01 -.226E+02
   -.309E+02 -.864E+02 0.329E+03   0.330E+02 0.907E+02 -.351E+03   -.214E+01 -.426E+01 0.226E+02
   0.529E+02 -.212E+02 -.339E+03   -.547E+02 0.212E+02 0.360E+03   0.177E+01 0.195E-01 -.214E+02
   -.529E+02 -.212E+02 0.339E+03   0.547E+02 0.212E+02 -.360E+03   -.177E+01 0.195E-01 0.214E+02
   0.648E+02 0.342E+02 0.375E+03   -.725E+02 -.345E+02 -.397E+03   0.772E+01 0.293E+00 0.220E+02
   -.648E+02 0.342E+02 -.375E+03   0.725E+02 -.345E+02 0.397E+03   -.772E+01 0.293E+00 -.220E+02
   0.280E+02 0.418E+02 -.371E+03   -.290E+02 -.436E+02 0.395E+03   0.991E+00 0.186E+01 -.244E+02
   -.280E+02 0.418E+02 0.371E+03   0.290E+02 -.436E+02 -.395E+03   -.991E+00 0.186E+01 0.244E+02
   0.706E+02 -.236E+02 0.371E+03   -.782E+02 0.231E+02 -.392E+03   0.762E+01 0.575E+00 0.215E+02
   -.706E+02 -.236E+02 -.371E+03   0.782E+02 0.231E+02 0.392E+03   -.762E+01 0.575E+00 -.215E+02
   -.411E+02 -.307E+01 0.318E+03   0.436E+02 0.162E+01 -.339E+03   -.252E+01 0.145E+01 0.209E+02
   0.411E+02 -.307E+01 -.318E+03   -.436E+02 0.162E+01 0.339E+03   0.252E+01 0.145E+01 -.209E+02
   -.268E+02 0.257E+02 -.356E+03   0.290E+02 -.260E+02 0.380E+03   -.219E+01 0.336E+00 -.238E+02
   0.268E+02 0.257E+02 0.356E+03   -.290E+02 -.260E+02 -.380E+03   0.219E+01 0.336E+00 0.238E+02
   -.155E+02 0.600E+02 0.348E+03   0.171E+02 -.631E+02 -.372E+03   -.163E+01 0.314E+01 0.239E+02
   0.155E+02 0.600E+02 -.348E+03   -.171E+02 -.631E+02 0.372E+03   0.163E+01 0.314E+01 -.239E+02
   -.346E+02 -.321E+02 -.354E+03   0.370E+02 0.317E+02 0.378E+03   -.233E+01 0.411E+00 -.235E+02
   0.346E+02 -.321E+02 0.354E+03   -.370E+02 0.317E+02 -.378E+03   0.233E+01 0.411E+00 0.235E+02
   -.225E-06 -.126E+02 0.207E-05   0.567E-13 0.131E+02 -.477E-14   0.136E-19 -.691E+00 0.000E+00
   -.213E-07 0.599E+02 0.246E-06   -.564E-13 -.590E+02 -.128E-14   -.136E-18 -.121E+01 0.000E+00
   0.146E-06 -.268E+02 0.217E-06   0.193E-13 0.272E+02 -.837E-13   0.271E-19 -.291E+00 0.000E+00
   -.108E-06 -.678E+02 -.160E-06   0.800E-13 0.673E+02 0.280E-13   -.356E-19 0.592E+00 0.000E+00
   0.156E-06 -.377E+02 -.442E-06   0.724E-13 0.381E+02 -.436E-13   0.108E-18 -.319E+00 0.000E+00
   -.438E-07 0.920E+01 0.124E-06   0.126E-12 -.920E+01 -.548E-13   -.322E-19 0.213E+00 0.000E+00
   -.540E-06 -.159E+01 0.581E-05   -.571E-13 0.840E+00 0.498E-13   -.136E-18 0.904E+00 0.000E+00
   0.683E-06 -.633E+01 -.735E-05   -.538E-13 0.762E+01 -.107E-12   0.000E+00 -.127E+01 0.000E+00
   -.726E-06 0.732E+01 0.763E-05   0.426E-13 -.783E+01 0.624E-13   -.136E-19 0.722E+00 0.000E+00
   0.590E-06 -.837E+02 -.620E-05   0.706E-13 0.846E+02 -.108E-12   0.000E+00 -.876E+00 0.000E+00
   0.689E-07 -.478E+02 0.102E-06   0.491E-14 0.482E+02 -.126E-13   -.136E-19 -.432E+00 0.000E+00
   -.150E-06 0.649E+02 -.223E-06   -.402E-13 -.651E+02 -.131E-13   -.136E-18 0.164E+00 0.000E+00
   0.475E-07 0.513E+02 -.135E-06   0.682E-13 -.509E+02 -.108E-12   0.542E-19 -.536E+00 0.000E+00
   -.156E-06 -.154E+02 0.443E-06   0.380E-13 0.150E+02 -.726E-13   0.542E-19 0.400E+00 0.000E+00
   -.200E-06 0.651E+02 0.216E-05   -.372E-14 -.660E+02 -.137E-12   0.136E-19 0.106E+01 0.000E+00
   0.210E-06 -.449E+02 -.226E-05   0.335E-13 0.450E+02 -.175E-13   -.136E-19 -.143E+00 0.000E+00
   -.616E-06 -.310E+02 0.647E-05   0.145E-13 0.299E+02 0.603E-13   -.103E-18 0.126E+01 0.000E+00
   0.426E-06 0.356E+02 -.448E-05   -.769E-13 -.354E+02 0.522E-14   -.136E-19 -.241E+00 0.000E+00
   -.168E-05 0.727E+01 -.375E-05   -.144E-12 0.348E-12 0.351E-12   0.133E-14 -.725E+01 0.000E+00

 POSITION                                       TOTAL-FORCE (eV/Angst)
      3.99458      1.23042      2.40149        -0.005522      0.004339     -0.007939
      2.40391      1.23042      7.13074         0.005522      0.004339      0.007939
      4.77691     11.12851      7.15668        -0.005252      0.000890     -0.002685
      1.62159     11.12851      2.37556         0.005252      0.000890      0.002685
      2.33400      4.30894      7.15429         0.002583     -0.008445      0.003246
      4.06450      4.30894      2.37795        -0.002583     -0.008445     -0.003246
      0.00000      0.00096      0.00000         0.000000     -0.010885      0.000000
      2.43128      6.92948      0.00000         0.000000     -0.004796      0.000000
      3.24280     13.85534      0.96488         0.000160     -0.000774      0.002012
      3.15570     13.85534      8.56735        -0.000160     -0.000774     -0.002012
      0.79615      6.93903      0.95904         0.001667     -0.005429      0.006906
      5.60235      6.93903      8.57320        -0.001667     -0.005429     -0.006906
      4.81539      0.01187      3.82580        -0.002950      0.000839     -0.003863
      1.58311      0.01187      5.70644         0.002950      0.000839      0.003863
      2.40889      6.94646      3.82398        -0.002402      0.002078     -0.004935
      3.98961      6.94646      5.70826         0.002402      0.002078      0.004935
      0.65102      1.37875      1.05415         0.001852     -0.000280     -0.002078
      5.74748      1.37875      8.47809        -0.001852     -0.000280      0.002078
      5.55365     12.42715      8.56275        -0.005433     -0.004171     -0.006876
      0.84485     12.42715      0.96949         0.005433     -0.004171      0.006876
      3.25110      8.31474      0.96002         0.008205      0.002419      0.010847
      3.14740      8.31474      8.57221        -0.008205      0.002419     -0.010847
      3.12804      5.50942      8.57334         0.002970      0.002457      0.002236
      3.27046      5.50942      0.95889        -0.002970      0.002457     -0.002236
      2.52590      1.40865      3.74715        -0.005063      0.003347     -0.003605
      3.87260      1.40865      5.78509         0.005063      0.003347      0.003605
      4.03047     12.42813      5.73673         0.000887      0.004260      0.002828
      2.36803     12.42813      3.79550        -0.000887      0.004260     -0.002828
      4.81694      8.33360      3.82667        -0.002212      0.002488     -0.004121
      1.58156      8.33360      5.70557         0.002212      0.002488      0.004121
      1.59893      5.51569      5.72169         0.003137      0.006279      0.006227
      4.79957      5.51569      3.81055        -0.003137      0.006279     -0.006227
      3.28156      2.76246      0.95316         0.003256     -0.001317      0.002850
      3.11694      2.76246      8.57908        -0.003256     -0.001317     -0.002850
      3.29984     11.07803      8.51077        -0.004041     -0.005878     -0.003656
      3.09865     11.07803      1.02147         0.004041     -0.005878      0.003656
      0.83573      9.69963      0.94625         0.000531     -0.002341      0.004100
      5.56277      9.69963      8.58599        -0.000531     -0.002341     -0.004100
      5.73428      4.15856      8.50256        -0.006037      0.003412     -0.003674
      0.66422      4.15856      1.02968         0.006037      0.003412      0.003674
      4.77775      2.79897      3.79513        -0.001534      0.001684     -0.003750
      1.62075      2.79897      5.73711         0.001534      0.001684      0.003750
      1.57494     11.09618      5.72804         0.003062      0.001757      0.002222
      4.82356     11.09618      3.80420        -0.003062      0.001757     -0.002222
      2.36605      9.72806      3.80271        -0.001451      0.000779     -0.001707
      4.03245      9.72806      5.72953         0.001451      0.000779      0.001707
      4.00197      4.17842      5.74036         0.002738      0.004535      0.006916
      2.39653      4.17842      3.79188        -0.002738      0.004535     -0.006916
      0.76797      6.94253      4.76612         0.000000      0.002470      0.000000
      3.19925      0.00130      4.76612         0.000000      0.001299      0.000000
      0.00000      8.31271      0.00000        -0.000000      0.006491      0.000000
      0.00000      5.53344      0.00000         0.000000     -0.001095      0.000000
      2.43128      1.38118      0.00000         0.000000     -0.008061      0.000000
      2.43128     12.45142      0.00000         0.000000     -0.001510      0.000000
      0.76797      1.39432      4.76612         0.000000      0.002673      0.000000
      0.76797     12.48496      4.76612         0.000000     -0.001884      0.000000
      3.19925      8.31851      4.76612         0.000000      0.007653      0.000000
      3.19925      5.56538      4.76612         0.000000      0.003066      0.000000
      0.00000      2.76828      0.00000        -0.000000     -0.021738      0.000000
      0.00000     11.06789      0.00000         0.000000     -0.010852      0.000000
      2.43128      9.69336      0.00000        -0.000000      0.008156      0.000000
      2.43128      4.13682      0.00000         0.000000      0.007693      0.000000
      0.76797      9.69275      4.76612         0.000000      0.004566      0.000000
      0.76797      4.16396      4.76612         0.000000     -0.002524      0.000000
      3.19925      2.77539      4.76612         0.000000     -0.003751      0.000000
      3.19925     11.08754      4.76612         0.000000     -0.002822      0.000000
    total drift:                               -0.000002      0.019957     -0.000004

  FREE ENERGIE OF THE ION-ELECTRON SYSTEM (eV)
  free  energy   TOTEN  =     -1660.3771641172 eV

  energy  without entropy=    -1660.3771641172  energy(sigma->0) =    -1660.37716412

volume of typ            1:     7.3 %

[...]

volume of typ            5:    15.9 %

total charge

# of ion       s       p       d       tot
    1        2.078   0.249   0.104   2.431
    2        2.078   0.249   0.104   2.431
    3        2.071   0.231   0.096   2.399
    4        2.071   0.231   0.096   2.399
    5        2.075   0.241   0.101   2.417
    6        2.075   0.241   0.101   2.417
    7        0.242   6.271   4.573  11.087
    8        0.237   6.261   4.555  11.054
    9        1.273   2.822   0.007   4.102
   10        1.273   2.822   0.007   4.102
   11        1.286   2.779   0.007   4.073
   12        1.286   2.780   0.007   4.073
   13        1.273   2.812   0.007   4.093
   14        1.273   2.812   0.007   4.093
   15        1.287   2.768   0.008   4.063
   16        1.287   2.768   0.008   4.063
   17        1.277   2.810   0.006   4.093
   18        1.277   2.810   0.006   4.093
   19        1.274   2.818   0.007   4.099
   20        1.274   2.818   0.007   4.098
   21        1.287   2.779   0.007   4.073
   22        1.287   2.779   0.007   4.073
   23        1.274   2.820   0.007   4.101
   24        1.274   2.820   0.007   4.100
   25        1.276   2.803   0.007   4.085
   26        1.276   2.803   0.007   4.085
   27        1.277   2.797   0.007   4.081
   28        1.277   2.797   0.007   4.081
   29        1.288   2.768   0.008   4.063
   30        1.288   2.768   0.008   4.063
   31        1.277   2.802   0.007   4.085
   32        1.277   2.802   0.007   4.085
   33        1.272   2.816   0.007   4.095
   34        1.272   2.816   0.007   4.095
   35        1.281   2.790   0.007   4.078
   36        1.281   2.790   0.007   4.078
   37        1.280   2.793   0.007   4.080
   38        1.280   2.793   0.007   4.080
   39        1.280   2.792   0.006   4.079
   40        1.280   2.793   0.006   4.079
   41        1.273   2.810   0.007   4.089
   42        1.273   2.810   0.007   4.089
   43        1.281   2.782   0.007   4.070
   44        1.281   2.783   0.007   4.070
   45        1.280   2.788   0.007   4.075
   46        1.280   2.788   0.007   4.075
   47        1.280   2.783   0.007   4.070
   48        1.280   2.783   0.007   4.070
   49        0.260   0.369   6.825   7.454
   50        0.265   0.380   6.839   7.484
   51        0.292   0.410   7.761   8.463
   52        0.301   0.430   7.776   8.506
   53        0.261   0.341   7.804   8.406
   54        0.299   0.425   7.771   8.495
   55        0.263   0.340   7.803   8.406
   56        0.296   0.415   7.768   8.479
   57        0.294   0.407   7.763   8.465
   58        0.301   0.425   7.775   8.501
   59        0.305   0.440   7.776   8.521
   60        0.270   0.357   7.806   8.434
   61        0.303   0.434   7.772   8.509
   62        0.265   0.346   7.803   8.414
   63        0.301   0.423   7.774   8.498
   64        0.291   0.404   7.763   8.458
   65        0.305   0.434   7.779   8.518
   66        0.297   0.418   7.766   8.480
tot          69.25  133.04  148.13  350.42

magnetization (x)

# of ion       s       p       d       tot
    1        0.004   0.006   0.001   0.012
    2        0.004   0.006   0.001   0.012
    3        0.001   0.003   0.001   0.005
    4        0.001   0.003   0.001   0.005
    5        0.002   0.004   0.001   0.006
    6        0.002   0.004   0.001   0.006
    7        0.013   0.014   2.665   2.693
    8        0.014   0.014   2.699   2.728
    9        0.002  -0.019   0.001  -0.017
   10        0.002  -0.019   0.001  -0.017
   11        0.001   0.001   0.000   0.002
   12        0.001   0.001   0.000   0.002
   13        0.001  -0.039   0.000  -0.038
   14        0.001  -0.039   0.000  -0.038
   15       -0.000  -0.004   0.000  -0.004
   16       -0.000  -0.004   0.000  -0.004
   17        0.008   0.094   0.001   0.103
   18        0.008   0.094   0.001   0.103
   19        0.002   0.001   0.000   0.004
   20        0.002   0.001   0.000   0.004
   21        0.001  -0.002   0.000   0.000
   22        0.001  -0.002   0.000   0.000
   23        0.002   0.002   0.000   0.004
   24        0.002   0.002   0.000   0.004
   25        0.007   0.075   0.000   0.082
   26        0.007   0.075   0.000   0.082
   27        0.000  -0.007   0.000  -0.006
   28        0.000  -0.007   0.000  -0.006
   29        0.000  -0.004   0.000  -0.004
   30        0.000  -0.004   0.000  -0.004
   31        0.000  -0.004   0.000  -0.004
   32        0.000  -0.004   0.000  -0.004
   33        0.002  -0.022   0.000  -0.020
   34        0.002  -0.022   0.000  -0.020
   35        0.007   0.098   0.000   0.105
   36        0.007   0.097   0.000   0.105
   37        0.001  -0.015   0.000  -0.013
   38        0.001  -0.015   0.000  -0.013
   39        0.007   0.096   0.000   0.103
   40        0.007   0.096   0.000   0.103
   41        0.002  -0.011   0.000  -0.009
   42        0.002  -0.011   0.000  -0.009
   43        0.000  -0.000   0.000   0.000
   44        0.000  -0.000   0.000   0.000
   45        0.000  -0.001   0.000  -0.001
   46        0.000  -0.001   0.000  -0.001
   47        0.000  -0.008   0.000  -0.008
   48        0.000  -0.008   0.000  -0.008
   49        0.000   0.000  -0.006  -0.006
   50       -0.000   0.000  -0.056  -0.056
   51        0.005   0.004   0.060   0.070
   52        0.003   0.003  -0.016  -0.009
   53        0.010   0.004   0.897   0.911
   54        0.002   0.003   0.001   0.005
   55        0.004   0.001   0.873   0.878
   56        0.001   0.001   0.058   0.059
   57        0.000   0.000   0.012   0.012
   58        0.000   0.000   0.009   0.009
   59        0.001   0.001  -0.013  -0.011
   60        0.006   0.002   0.853   0.861
   61        0.001   0.002  -0.009  -0.006
   62        0.006   0.002   0.871   0.879
   63        0.000   0.000   0.008   0.008
   64        0.001   0.001   0.082   0.084
   65       -0.001   0.000  -0.019  -0.020
   66        0.000   0.000   0.010   0.010
tot           0.17    0.54    8.99    9.70