 vasp.5.4.4.18Apr17-6-g9f103f2a35 (build May 12 2020 04:58:55) complex

 MD_VERSION_INFO: Compiled 2020-05-12T11:58:55-UTC in devlin.sd.materialsdesign.
 com:/home/medea2/data/build/wwolf/vasp-gpu5.4.4/13047/x86_64/src/src/build/std
 from svn 13047

 executed on                        Lin64 date 2023.03.24  20:52:24

 INCAR:
 POTCAR:    PAW_PBE Ni 02Aug2007
 POTCAR:    PAW_PBE O 08Apr2002

 POTCAR:    PAW_PBE Ni 02Aug2007

 POTCAR:    PAW_PBE O 08Apr2002

 Optimization of the real space projectors (new method)

 maximal supplied QI-value         = 16.25
 optimisation between [QCUT,QGAM] = [ 11.38, 22.75] = [ 36.24,144.96] Ry
 Optimized for a Real-space Cutoff    1.47 Angstroem

   l    n(q)    QCUT    max X(q) W(low)/X(q) W(high)/X(q)  e(spline)
   2      9    11.376    60.317    0.17E-03    0.16E-04    0.16E-06
   2      9    11.376    55.921    0.17E-03    0.16E-04    0.17E-06
   0     10    11.376    51.690    0.45E-04    0.60E-04    0.21E-06
   0     10    11.376    30.015    0.37E-04    0.55E-04    0.19E-06
   1     10    11.376    18.849    0.83E-04    0.11E-03    0.92E-07
   1     10    11.376    14.624    0.69E-04    0.92E-04    0.82E-07
 Optimization of the real space projectors (new method)

 maximal supplied QI-value         = 24.76
 optimisation between [QCUT,QGAM] = [ 11.39, 22.77] = [ 36.31,145.25] Ry
 Optimized for a Real-space Cutoff    1.10 Angstroem

   l    n(q)    QCUT    max X(q) W(low)/X(q) W(high)/X(q)  e(spline)
   0      7    11.387    20.381    0.22E-03    0.48E-03    0.18E-06
   0      7    11.387    15.268    0.22E-03    0.52E-03    0.19E-06
   1      7    11.387     5.964    0.22E-03    0.73E-03    0.24E-06
   1      7    11.387     5.382    0.19E-03    0.60E-03    0.21E-06

  PAW_PBE Ni 02Aug2007                  :
  PAW_PBE O 08Apr2002                   :

 POSCAR: NiO2_Fd-3m_scale_0_975_disp_0_15_round_2
  positions in direct lattice
 exchange correlation table for  LEXCH =       14
   RHO(1)=    0.500       N(1)  =     2000
   RHO(2)=  100.500       N(2)  =     4000

 ion  position               nearest neighbor table
   1  0.158  0.643  0.132-  41 1.54  24 1.76  43 1.84  28 1.88  22 1.94  47 1.97   2 2.42   3 2.42
                             8 2.46  11 2.75   4 2.76  14 2.94
   2  0.383  0.859  0.131-  29 1.58  41 1.68  18 1.91  19 1.92  46 2.06  24 2.21   1 2.42   3 2.51
                            12 2.62  13 2.67   7 2.68   4 2.69
   3  0.356  0.645  0.374-  47 1.66  41 1.79  18 1.80  27 1.88  21 2.29  44 2.35   1 2.42   4 2.50
                             2 2.51  16 2.83   6 2.91   9 3.07
   4  0.149  0.894  0.385-  18 1.49  20 1.55  47 1.61  30 1.65  24 1.73  45 1.94   3 2.50  15 2.58
                             2 2.69  10 2.69   5 2.75   1 2.76
   5  0.107  0.141  0.638-  39 1.40  35 1.52  32 1.74  20 1.80  30 1.92  33 2.26  15 2.37  10 2.40
                             4 2.75   7 2.82   6 3.01   8 3.02
   6  0.397  0.400  0.656-  27 1.58  38 1.62  26 1.79  32 1.86  21 2.01  33 2.07   9 2.49  16 2.64
                             8 2.84   3 2.91   7 2.93   5 3.01
   7  0.380  0.092  0.875-  29 1.73  36 1.80  33 1.80  39 2.04  26 2.19  19 2.26  12 2.46   2 2.68
                            13 2.73   5 2.82   6 2.93   8 3.05
   8  0.144  0.404  0.922-  28 1.69  37 1.72  22 1.78  26 1.82  39 2.16  32 2.27   1 2.46  14 2.53
                            11 2.78   6 2.84   5 3.02   7 3.05
   9  0.630  0.622  0.659-  31 1.75  40 1.89  27 1.92  38 2.01  44 2.04  25 2.19   6 2.49  16 2.50
                            12 2.75  11 2.77  10 3.07   3 3.07
  10  0.914  0.898  0.641-  30 1.77  35 1.77  34 1.88  25 1.93  45 2.01  40 2.13  15 2.38   5 2.40
                             4 2.69  12 2.99  11 2.99   9 3.07
  11  0.871  0.637  0.923-  43 1.51  31 1.68  28 1.82  37 1.90  34 1.91  25 2.21  14 2.52  12 2.74
                             1 2.75   9 2.77   8 2.78  10 2.99
  12  0.623  0.888  0.895-  34 1.67  40 1.71  31 1.76  29 1.79  46 1.86  36 1.92  13 2.35   7 2.46
                             2 2.62  11 2.74   9 2.75  10 2.99
  13  0.635  0.093  0.119-  46 1.03  36 1.59  17 1.96  19 1.98  48 2.07  23 2.21  12 2.35   2 2.67
                             7 2.73  14 2.95  15 3.08
  14  0.886  0.379  0.121-  48 1.48  37 1.63  22 1.66  42 1.77  43 1.97  17 2.01  11 2.52   8 2.53
                             1 2.94  13 2.95  16 3.00
  15  0.898  0.109  0.417-  45 1.53  35 1.65  20 1.72  42 1.81  23 1.87   5 2.37  10 2.38  17 2.45
                             4 2.58  13 3.08
  16  0.635  0.413  0.413-  44 1.41  38 1.61  21 2.03  42 2.14  23 2.24  48 2.36   9 2.50   6 2.64
                             3 2.83  14 3.00
  17  0.885  0.120  0.101-  13 1.96  14 2.01  15 2.45
  18  0.341  0.877  0.373-   4 1.49   3 1.80   2 1.91
  19  0.384  0.104  0.166-   2 1.92  13 1.98   7 2.26
  20  0.119  0.090  0.411-   4 1.55  15 1.72   5 1.80
  21  0.380  0.352  0.402-   6 2.01  16 2.03   3 2.29
  22  0.098  0.400  0.148-  14 1.66   8 1.78   1 1.94
  23  0.657  0.125  0.401-  15 1.87  13 2.21  16 2.24
  24  0.101  0.859  0.169-   4 1.73   1 1.76   2 2.21
  25  0.911  0.649  0.640-  10 1.93   9 2.19  11 2.21
  26  0.375  0.375  0.884-   6 1.79   8 1.82   7 2.19
  27  0.388  0.599  0.611-   6 1.58   3 1.88   9 1.92
  28  0.104  0.617  0.897-   8 1.69  11 1.82   1 1.88
  29  0.394  0.875  0.928-   2 1.58   7 1.73  12 1.79
  30  0.138  0.898  0.598-   4 1.65  10 1.77   5 1.92
  31  0.661  0.664  0.879-  11 1.68   9 1.75  12 1.76
  32  0.161  0.359  0.634-   5 1.74   6 1.86   8 2.27
  33  0.399  0.133  0.647-   7 1.80   6 2.07   5 2.26
  34  0.838  0.875  0.870-  12 1.67  10 1.88  11 1.91
  35  0.911  0.127  0.630-   5 1.52  15 1.65  10 1.77
  36  0.604  0.134  0.919-  13 1.59   7 1.80  12 1.92
  37  0.923  0.398  0.913-  14 1.63   8 1.72  11 1.90
  38  0.599  0.369  0.613-  16 1.61   6 1.62   9 2.01
  39  0.129  0.146  0.818-   5 1.40   7 2.04   8 2.16
  40  0.643  0.865  0.676-  12 1.71   9 1.89  10 2.13
  41  0.357  0.644  0.142-   1 1.54   2 1.68   3 1.79
  42  0.890  0.330  0.344-  14 1.77  15 1.81  16 2.14
  43  0.922  0.630  0.111-  11 1.51   1 1.84  14 1.97
  44  0.654  0.594  0.398-  16 1.41   9 2.04   3 2.35
  45  0.900  0.915  0.383-  15 1.53   4 1.94  10 2.01
  46  0.629  0.960  0.124-  13 1.03  12 1.86   2 2.06
  47  0.146  0.686  0.382-   4 1.61   3 1.66   1 1.97
  48  0.697  0.353  0.121-  14 1.48  13 2.07  16 2.36

  LATTYP: Found a simple cubic cell.
 ALAT       =     7.7433427500

  Lattice vectors:

 A1 = (   7.7433427500,   0.0000000000,   0.0000000000)
 A2 = (   0.0000000000,   7.7433427500,   0.0000000000)
 A3 = (   0.0000000000,   0.0000000000,   7.7433427500)

Analysis of symmetry for initial positions (statically):
 Subroutine PRICEL returns:
 Original cell was already a primitive cell.

 Routine SETGRP: Setting up the symmetry group for a
 simple cubic supercell.

 Subroutine GETGRP returns: Found  1 space group operations
 (whereof  1 operations were pure point group operations)
 out of a pool of 48 trial point group operations.

The static configuration has the point symmetry C_1 .

Analysis of symmetry for dynamics (positions and initial velocities):
 Subroutine PRICEL returns:
 Original cell was already a primitive cell.

[...]

The dynamic configuration has the point symmetry C_1 .

Analysis of structural, dynamic, and magnetic symmetry:
 Subroutine PRICEL returns:
 Original cell was already a primitive cell.

 Routine SETGRP: Setting up the symmetry group for a
 simple cubic supercell.

 Subroutine GETGRP returns: Found  1 space group operations
 (whereof  1 operations were pure point group operations)
 out of a pool of 48 trial point group operations.

The magnetic configuration has the point symmetry C_1 .

 Subroutine INISYM returns: Found  1 space group operations
 (whereof  1 operations are pure point group operations),
 and found     1 'primitive' translations

 KPOINTS: Automatic mesh

Automatic generation of k-mesh.
Space group operators:
 irot       det(A)        alpha          n_x          n_y          n_z        tau_x        tau_y        tau_z
    1     1.000000     0.000000     1.000000     0.000000     0.000000     0.000000     0.000000     0.000000

 Subroutine IBZKPT returns following result:

 Found     36 irreducible k-points:

 Following reciprocal coordinates:
            Coordinates               Weight
  0.000000  0.000000  0.000000      1.000000
  0.250000  0.000000  0.000000      2.000000
  0.500000  0.000000  0.000000      1.000000
  0.000000  0.250000  0.000000      2.000000
  0.250000  0.250000  0.000000      2.000000
  0.500000  0.250000  0.000000      2.000000
 -0.250000  0.250000  0.000000      2.000000
  0.000000  0.500000  0.000000      1.000000
  0.250000  0.500000  0.000000      2.000000
  0.500000  0.500000  0.000000      1.000000
  0.000000  0.000000  0.250000      2.000000
  0.250000  0.000000  0.250000      2.000000
  0.500000  0.000000  0.250000      2.000000
 -0.250000  0.000000  0.250000      2.000000
  0.000000  0.250000  0.250000      2.000000
  0.250000  0.250000  0.250000      2.000000
  0.500000  0.250000  0.250000      2.000000
 -0.250000  0.250000  0.250000      2.000000
  0.000000  0.500000  0.250000      2.000000
  0.250000  0.500000  0.250000      2.000000
  0.500000  0.500000  0.250000      2.000000
 -0.250000  0.500000  0.250000      2.000000
  0.000000 -0.250000  0.250000      2.000000
  0.250000 -0.250000  0.250000      2.000000
  0.500000 -0.250000  0.250000      2.000000
 -0.250000 -0.250000  0.250000      2.000000
  0.000000  0.000000  0.500000      1.000000
  0.250000  0.000000  0.500000      2.000000
  0.500000  0.000000  0.500000      1.000000
  0.000000  0.250000  0.500000      2.000000
  0.250000  0.250000  0.500000      2.000000
  0.500000  0.250000  0.500000      2.000000
 -0.250000  0.250000  0.500000      2.000000
  0.000000  0.500000  0.500000      1.000000
  0.250000  0.500000  0.500000      2.000000
  0.500000  0.500000  0.500000      1.000000

 Following cartesian coordinates:
            Coordinates               Weight
  0.000000  0.000000  0.000000      1.000000
  0.032286  0.000000  0.000000      2.000000
  0.064572  0.000000  0.000000      1.000000
  0.000000  0.032286  0.000000      2.000000
  0.032286  0.032286  0.000000      2.000000
  0.064572  0.032286  0.000000      2.000000
 -0.032286  0.032286  0.000000      2.000000
  0.000000  0.064572  0.000000      1.000000
  0.032286  0.064572  0.000000      2.000000
  0.064572  0.064572  0.000000      1.000000
  0.000000  0.000000  0.032286      2.000000
  0.032286  0.000000  0.032286      2.000000
  0.064572  0.000000  0.032286      2.000000
 -0.032286  0.000000  0.032286      2.000000
  0.000000  0.032286  0.032286      2.000000
  0.032286  0.032286  0.032286      2.000000
  0.064572  0.032286  0.032286      2.000000
 -0.032286  0.032286  0.032286      2.000000
  0.000000  0.064572  0.032286      2.000000
  0.032286  0.064572  0.032286      2.000000
  0.064572  0.064572  0.032286      2.000000
 -0.032286  0.064572  0.032286      2.000000
  0.000000 -0.032286  0.032286      2.000000
  0.032286 -0.032286  0.032286      2.000000
  0.064572 -0.032286  0.032286      2.000000
 -0.032286 -0.032286  0.032286      2.000000
[...]
  Alpha Z  1180.50648  1180.50648  1180.50648
  Ewald   -6763.54474 -6355.68566 -6808.30310   235.10784   501.77947  -339.36624
  Hartree  3899.52801  3950.61293  3890.44741   179.14455   416.43561  -265.70757
  E(xc)   -1818.18535 -1819.23805 -1818.01514    -0.03404     0.17685    -0.29570
  Local   -4169.19365 -4464.92825 -4101.57935  -412.37682  -934.30443   601.12020
  n-local  -672.87872  -614.57071  -673.77170     2.50543    -5.95857     1.39775
  augment  2994.49738  2932.73989  2989.09873     0.14297    11.52251     1.50134
  Kinetic  5490.29410  5476.02182  5486.52798     3.69961    -5.18260    10.65866
  Fock        0.00000     0.00000     0.00000     0.00000     0.00000     0.00000
  Total      141.0235155    285.4584526    144.9113101      8.1895388    -15.5311403      9.3084530
  in kB      486.6499347    985.0721481    500.0661014     28.2608080    -53.5955183     32.1220048

 VOLUME and BASIS-vectors are now :
  energy-cutoff  :      500.00
  volume of cell :      464.29
      direct lattice vectors                 reciprocal lattice vectors
     7.743342750  0.000000000  0.000000000     0.129143192  0.000000000  0.000000000
     0.000000000  7.743342750  0.000000000     0.000000000  0.129143192  0.000000000
     0.000000000  0.000000000  7.743342750     0.000000000  0.000000000  0.129143192

  length of vectors
     7.743342750  7.743342750  7.743342750     0.129143192  0.129143192  0.129143192

 FORCES acting on ions
    electron-ion (+dipol)            ewald-force                    non-local-force                 convergence-correction
   0.213E+02 0.124E+03 0.512E+02   -.342E+02 -.125E+03 -.523E+02   0.125E+01 -.243E+00 0.120E+01   0.334E-01 -.997E-02 0.147E-01
   -.105E+03 -.175E+02 -.494E+02   0.103E+03 0.233E+02 0.551E+02   0.827E+00 -.876E+00 0.580E+00   -.652E-01 -.779E-01 0.222E-01
   -.303E+03 0.253E+03 -.125E+03   0.309E+03 -.259E+03 0.131E+03   0.150E+01 0.118E+01 -.333E+01   -.352E-01 -.205E-01 -.416E-01
   0.251E+02 -.301E+02 0.364E+02   -.381E+02 0.304E+02 -.398E+02   -.445E+00 -.226E+01 0.157E+01   0.159E-01 -.555E-01 -.600E-02
   -.165E+03 -.169E+03 0.101E+02   0.180E+03 0.172E+03 -.287E+02   -.309E+01 -.221E+01 0.165E+01   -.637E-02 -.999E-02 0.812E-03
   0.591E+02 0.409E+02 -.916E+02   -.677E+02 -.506E+02 0.936E+02   0.185E+01 -.582E+00 -.325E+01   -.164E-01 -.105E-02 -.414E-01
   0.186E+03 -.972E+02 0.963E+01   -.189E+03 0.103E+03 -.128E+02   -.762E+00 0.436E-01 0.372E+01   -.326E-01 0.768E-02 -.119E-01
   -.239E+03 0.182E+03 0.852E+02   0.244E+03 -.186E+03 -.900E+02   -.364E+01 0.128E+00 -.118E+00   0.106E-01 0.494E-01 0.323E-01
   -.587E+02 0.318E+02 0.673E+02   0.608E+02 -.272E+02 -.683E+02   0.203E+00 -.277E+01 -.202E+01   -.274E-01 -.348E-01 -.558E-01
   0.156E+03 0.209E+03 -.119E+03   -.160E+03 -.220E+03 0.123E+03   -.714E+00 0.540E+01 -.292E+01   0.327E-01 0.106E-01 0.206E-02
   0.129E+03 -.161E+02 0.140E+03   -.129E+03 0.186E+02 -.154E+03   0.196E+01 -.848E+00 -.532E+00   0.646E-01 0.176E-02 0.222E-01
   0.396E+02 0.496E+02 0.636E+02   -.402E+02 -.519E+02 -.697E+02   0.252E+00 0.168E+01 0.508E+01   0.159E-03 0.101E-02 -.664E-02
   -.569E+02 -.554E+03 -.269E+03   0.682E+02 0.724E+03 0.276E+03   -.334E+01 -.133E+02 -.446E+01   0.470E-02 0.364E-01 0.308E-01
   0.860E+02 0.371E+02 -.126E+03   -.791E+02 -.405E+02 0.133E+03   0.505E+00 0.443E+00 -.138E+01   0.334E-01 0.182E-01 0.297E-01
   0.268E+03 -.248E+03 0.172E+03   -.277E+03 0.262E+03 -.183E+03   0.410E+01 -.297E+01 0.370E+01   -.922E-02 0.945E-02 0.266E-01
   -.957E+02 0.157E+03 0.231E+03   0.966E+02 -.182E+03 -.239E+03   -.121E+01 0.332E+01 0.187E+01   -.206E-01 0.133E-01 -.159E-01
   -.200E+03 0.126E+03 0.109E+03   0.214E+03 -.136E+03 -.114E+03   -.147E+02 0.995E+01 0.592E+01   0.220E-01 -.401E-03 -.556E-02
   -.434E+03 -.190E+03 -.193E+03   0.474E+03 0.208E+03 0.205E+03   -.246E+02 -.190E+02 -.138E+02   -.172E-01 -.201E-01 -.609E-02
   0.174E+03 -.292E+03 -.146E+03   -.187E+03 0.308E+03 0.157E+03   0.125E+02 -.164E+02 -.139E+02   -.216E-01 0.582E-02 0.134E-01
   -.244E+03 -.358E+03 0.238E+03   0.263E+03 0.389E+03 -.253E+03   -.171E+02 -.198E+02 0.133E+02   0.261E-01 -.735E-02 -.364E-02
   0.123E+03 0.133E+03 0.233E+03   -.134E+03 -.145E+03 -.243E+03   0.123E+02 0.154E+02 0.103E+02   0.118E-01 0.197E-01 0.391E-02
   -.266E+03 0.212E+03 -.279E+03   0.284E+03 -.224E+03 0.302E+03   -.122E+02 0.116E+02 -.219E+02   0.329E-01 0.481E-01 0.203E-01
   0.218E+03 0.868E+02 -.114E+03   -.234E+03 -.921E+02 0.121E+03   0.169E+02 0.610E+01 -.713E+01   -.207E-01 0.291E-01 0.147E-01
   0.206E+03 -.232E+03 0.274E+03   -.224E+03 0.249E+03 -.291E+03   0.186E+02 -.147E+02 0.135E+02   0.295E-01 -.598E-01 -.262E-02
   -.102E+03 0.225E+03 0.167E+03   0.112E+03 -.238E+03 -.175E+03   -.118E+02 0.145E+02 0.958E+01   0.466E-01 0.266E-01 -.201E-01
   -.201E+03 -.956E+02 -.232E+03   0.219E+03 0.979E+02 0.251E+03   -.175E+02 -.265E+01 -.172E+02   -.630E-02 0.136E-01 -.394E-03
   0.153E+03 -.261E+03 -.118E+03   -.168E+03 0.288E+03 0.126E+03   0.150E+02 -.200E+02 -.807E+01   -.514E-01 -.239E-01 -.204E-01
   -.191E+03 -.227E+03 0.299E+03   0.201E+03 0.248E+03 -.321E+03   -.844E+01 -.174E+02 0.216E+02   0.368E-01 0.150E-01 0.387E-01
   0.224E+03 0.214E+03 0.268E+03   -.240E+03 -.235E+03 -.292E+03   0.158E+02 0.195E+02 0.180E+02   -.457E-01 -.181E-01 0.938E-02
   -.247E+03 0.240E+03 -.319E+03   0.269E+03 -.254E+03 0.342E+03   -.207E+02 0.127E+02 -.167E+02   -.246E-01 -.212E-01 0.199E-02
   0.219E+03 0.256E+03 -.170E+03   -.239E+03 -.271E+03 0.184E+03   0.155E+02 0.127E+02 -.120E+02   -.110E-01 -.845E-02 0.512E-01
   0.164E+03 -.253E+03 0.155E+03   -.175E+03 0.274E+03 -.165E+03   0.106E+02 -.179E+02 0.106E+02   0.179E-01 0.238E-01 -.131E-01
   -.165E+03 0.133E+03 0.202E+03   0.174E+03 -.140E+03 -.222E+03   -.938E+01 0.738E+01 0.202E+02   0.228E-02 0.155E-01 -.122E-01
   -.246E+03 -.158E+03 -.118E+03   0.266E+03 0.171E+03 0.129E+03   -.146E+02 -.119E+02 -.845E+01   0.501E-01 0.167E-01 -.309E-01
   0.375E+03 -.269E+03 -.257E+03   -.412E+03 0.288E+03 0.281E+03   0.266E+02 -.185E+02 -.214E+02   -.121E-01 -.277E-01 0.226E-01
   -.139E+03 -.324E+03 0.270E+03   0.151E+03 0.351E+03 -.298E+03   -.123E+02 -.253E+02 0.205E+02   -.596E-02 0.233E-01 -.228E-01
   0.219E+03 0.194E+03 0.339E+03   -.233E+03 -.208E+03 -.368E+03   0.122E+02 0.142E+02 0.240E+02   0.180E-01 -.491E-02 -.850E-02
   -.265E+03 0.206E+03 -.202E+03   0.286E+03 -.231E+03 0.223E+03   -.154E+02 0.248E+02 -.156E+02   -.179E-01 -.276E-01 -.531E-01
   0.719E+02 0.924E+02 -.395E+03   -.778E+02 -.962E+02 0.443E+03   0.948E+01 0.353E+01 -.256E+02   -.142E-02 -.710E-02 0.124E-01
   0.151E+03 -.138E+03 0.320E+03   -.158E+03 0.150E+03 -.342E+03   0.706E+01 -.133E+02 0.177E+02   0.213E-01 0.453E-01 -.268E-01
   -.370E+03 0.316E+03 0.171E+03   0.400E+03 -.341E+03 -.186E+03   -.211E+02 0.220E+02 0.154E+02   -.674E-01 -.951E-02 0.490E-02
   -.957E+02 -.196E+03 -.191E+03   0.104E+03 0.208E+03 0.203E+03   -.844E+01 -.948E+01 -.899E+01   -.956E-02 0.335E-01 0.116E-01
   0.223E+03 -.159E+03 -.341E+03   -.229E+03 0.171E+03 0.378E+03   0.572E+01 -.114E+02 -.251E+02   0.650E-01 0.445E-02 0.350E-01
   -.153E+03 -.348E+03 0.195E+03   0.167E+03 0.394E+03 -.208E+03   -.135E+02 -.269E+02 0.127E+02   -.104E-01 -.489E-01 -.380E-01
   0.308E+03 0.343E+03 0.199E+03   -.322E+03 -.377E+03 -.217E+03   0.132E+02 0.228E+02 0.176E+02   0.137E-01 -.410E-01 0.221E-01
   -.130E+03 0.562E+03 -.285E+03   0.132E+03 -.764E+03 0.310E+03   -.738E+01 0.457E+02 -.164E+02   -.693E-02 -.301E-01 0.230E-01
   0.278E+03 0.354E+03 -.222E+03   -.306E+03 -.378E+03 0.236E+03   0.242E+02 0.158E+02 -.138E+02   0.584E-02 -.106E-01 -.377E-01
   0.384E+03 -.142E+03 0.638E+02   -.421E+03 0.145E+03 -.691E+02   0.232E+02 -.333E+01 0.555E+01   -.222E-01 0.170E-01 0.307E-01
   -.897E+01 0.342E+01 0.828E+01   0.853E-12 0.000E+00 -.483E-12   0.895E+01 -.334E+01 -.834E+01   0.299E-01 -.913E-01 0.162E-01

 POSITION                                       TOTAL-FORCE (eV/Angst)
      1.22544      4.97556      1.01883       -11.543116     -1.386660      0.145587
      2.96736      6.64850      1.01444        -0.991865      4.896814      6.299244
      2.75303      4.99535      2.89448         6.901087     -4.579124      3.027923
      1.15542      6.92121      2.98041       -13.432418     -1.984499     -1.856016
      0.83140      1.08907      4.93663        12.008302      1.180379    -17.021448
      3.07125      3.09985      5.08037        -6.802454    -10.317492     -1.235016
      2.94259      0.70895      6.77334        -3.395946      5.426158      0.554914
      1.11817      3.12960      7.14312         2.161695     -4.545055     -4.899611
      4.88128      4.81642      5.10088         2.327511      1.798480     -2.990958
      7.08011      6.95247      4.96306        -4.893571     -5.454044      0.792041
      6.74678      4.93245      7.14813         1.414538      1.651856    -14.006840
      4.82624      6.87865      6.92674        -0.340556     -0.651461     -0.987306
      4.91489      0.72188      0.91768         7.985081    156.701896      2.830531
      6.86444      2.93104      0.93323         7.415613     -2.975752      5.370947
      6.95004      0.84317      3.23187        -5.621193     10.917909     -6.789472
      4.91622      3.19798      3.19775        -0.331690    -21.160069     -6.063644
      6.85564      0.92885      0.78061        -0.046801      0.481991      0.795887
      2.63708      6.79237      2.88943        14.874477     -0.411454     -1.029881
      2.97364      0.80227      1.28437         0.474432     -0.391575     -2.034502
      0.92116      0.69814      3.17915         2.074546     11.059733     -2.214942
      2.94379      2.72528      3.11148         1.277725      2.642601      0.545657
      0.75874      3.09408      1.14386         5.684322     -0.398912      1.190244
      5.08447      0.97062      3.10362         0.559782      0.800024     -0.492498
      0.77917      6.65372      1.30876         0.590296      2.461722     -3.670363
      7.05788      5.02760      4.95896        -1.984130      0.945688      1.253208
      2.90299      2.90039      6.84763         0.351773     -0.333008      1.390845
      3.00588      4.64196      4.72839         0.109475      7.582824     -0.171745
      0.80318      4.77436      6.94599         2.145455      3.230035     -0.598031
      3.05379      6.77690      7.18198        -0.312907     -1.431750     -6.688210
      1.07128      6.95686      4.63015         1.407978     -1.409329      6.203703
      5.11571      5.14531      6.80487        -4.255926     -2.973951      2.540042
      1.24539      2.77731      4.90657        -0.909731      2.929515      0.583943
      3.08807      1.02899      5.00930        -0.820052      0.414334      0.256889
      6.48681      6.77728      6.74048         5.663855      0.973381      1.819855
      7.05622      0.98056      4.87725       -10.653468      0.690255      3.209560
      4.67468      1.03596      7.11597        -0.405495      1.249163     -7.184512
      7.14348      3.07836      7.07350        -2.233624      0.169869     -5.324352
      4.64005      2.85763      4.74697         5.416431      0.039463      5.287416
      0.99516      1.13294      6.33051         3.555375     -0.302383     22.737892
      4.98188      6.70123      5.23074        -0.293061     -0.517791     -4.335332
      2.76800      4.98298      1.10039         8.904326     -2.772017      0.168939
      6.88956      2.55459      2.66140        -0.372612      2.316809      2.941554
      7.14014      4.87981      0.86230        -0.245833      0.034324     11.892332
      5.06059      4.59729      3.08479         0.018006     18.373331     -0.849697
      6.96722      7.08534      2.96328        -0.191938    -10.761897      0.421499
      4.87318      7.43470      0.95825        -5.335249   -155.650453      8.076899
      1.12694      5.30836      2.95827        -4.077560     -7.774977     -0.203819
      5.39711      2.73126      0.93929       -13.830885     -0.784900      0.310646
    total drift:                                0.005959     -0.012201     -0.040474

  FREE ENERGIE OF THE ION-ELECTRON SYSTEM (eV)
  free  energy   TOTEN  =      -226.2951246653 eV

  energy  without entropy=     -226.2656636216  energy(sigma->0) =     -226.28039414

volume of typ            1:    22.0 %

volume of typ            2:    11.2 %

total charge

# of ion       s       p       d       tot
    1        0.358   0.537   7.958   8.852
    2        0.349   0.476   7.995   8.820
    3        0.309   0.396   7.941   8.646
    4        0.487   0.850   8.060   9.397
    5        0.469   0.744   8.067   9.280
    6        0.374   0.555   7.900   8.829
    7        0.292   0.354   7.887   8.532
    8        0.328   0.443   7.901   8.671
    9        0.266   0.328   7.887   8.481
   10        0.292   0.386   7.893   8.571
   11        0.378   0.544   7.947   8.869
   12        0.352   0.533   7.976   8.862
   13        0.603   0.959   8.431   9.994
   14        0.417   0.708   7.957   9.082
   15        0.400   0.623   7.960   8.983
   16        0.398   0.540   7.997   8.935
   17        1.311   2.625   0.004   3.940
   18        1.292   2.839   0.022   4.154
   19        1.306   2.650   0.005   3.961
   20        1.279   2.895   0.020   4.194
   21        1.312   2.603   0.004   3.919
   22        1.290   2.782   0.013   4.085
   23        1.299   2.653   0.004   3.956
   24        1.298   2.745   0.011   4.053
   25        1.301   2.631   0.004   3.936
   26        1.282   2.729   0.008   4.019
   27        1.277   2.804   0.015   4.095
   28        1.294   2.755   0.013   4.062
   29        1.274   2.855   0.019   4.149
   30        1.287   2.809   0.014   4.110
   31        1.273   2.826   0.015   4.114
   32        1.294   2.714   0.008   4.016
   33        1.303   2.658   0.006   3.967
   34        1.287   2.769   0.012   4.068
   35        1.288   2.865   0.026   4.179
   36        1.294   2.794   0.016   4.105
   37        1.288   2.812   0.016   4.115
   38        1.291   2.808   0.019   4.119
   39        1.295   2.846   0.023   4.164
   40        1.296   2.713   0.009   4.018
   41        1.278   2.872   0.023   4.173
   42        1.283   2.750   0.008   4.041
   43        1.294   2.824   0.019   4.138
   44        1.303   2.797   0.023   4.122
   45        1.300   2.788   0.017   4.105
   46        1.340   3.071   0.079   4.491
   47        1.296   2.815   0.018   4.130
   48        1.290   2.811   0.016   4.117
tot          47.47   97.89  128.27  273.62

magnetization (x)

# of ion       s       p       d       tot
    1        0.000   0.000  -0.001  -0.001
    2        0.000   0.000  -0.003  -0.003
    3       -0.000  -0.000  -0.006  -0.007
    4       -0.000   0.000   0.002   0.002
    5       -0.000  -0.000   0.004   0.004
    6       -0.000  -0.000   0.004   0.004
    7       -0.000  -0.000  -0.005  -0.005
    8        0.000  -0.000  -0.007  -0.007
    9        0.000  -0.000  -0.029  -0.029
   10        0.000   0.000  -0.002  -0.002
   11       -0.000   0.000  -0.003  -0.003
   12        0.000  -0.000  -0.005  -0.005
   13       -0.000  -0.000  -0.000  -0.001
   14        0.000  -0.000   0.025   0.025
   15       -0.000  -0.000   0.001   0.000
   16       -0.000  -0.001   0.010   0.009
   17        0.000   0.006  -0.000   0.006
   18       -0.000  -0.000  -0.000  -0.000
   19       -0.000  -0.004  -0.000  -0.004
   20       -0.000   0.000  -0.000   0.000
   21        0.000   0.004  -0.000   0.004
   22        0.000   0.001   0.000   0.001
   23        0.000   0.021  -0.000   0.021
   24        0.000   0.002  -0.000   0.002
   25       -0.000  -0.008  -0.000  -0.008
   26        0.000   0.006  -0.000   0.007
   27       -0.000   0.001  -0.000   0.001
   28       -0.000  -0.002  -0.000  -0.002
   29       -0.000  -0.001  -0.000  -0.001
   30        0.000   0.002  -0.000   0.002
   31       -0.000  -0.006  -0.000  -0.007
   32        0.000   0.001  -0.000   0.001
   33       -0.000   0.002  -0.000   0.002
   34       -0.000  -0.001   0.000  -0.002
   35       -0.000  -0.001  -0.000  -0.001
   36       -0.000  -0.003  -0.000  -0.003
   37        0.000   0.002   0.000   0.002
   38       -0.000  -0.001  -0.000  -0.001
   39        0.000   0.004  -0.000   0.004
   40       -0.000  -0.008  -0.000  -0.008
   41       -0.000  -0.000  -0.000  -0.000
   42        0.000   0.007  -0.000   0.007
   43       -0.000  -0.001  -0.000  -0.001
   44        0.000   0.006  -0.000   0.006
   45       -0.000   0.000  -0.000   0.000
   46       -0.000  -0.001  -0.000  -0.001
   47       -0.000  -0.001  -0.000  -0.001
   48        0.001   0.030   0.000   0.030
tot          -0.00    0.05   -0.01    0.04