 vasp.5.4.4.18Apr17-6-g9f103f2a35 (build May 12 2020 04:58:55) complex

 MD_VERSION_INFO: Compiled 2020-05-12T11:58:55-UTC in devlin.sd.materialsdesign.
 com:/home/medea2/data/build/wwolf/vasp-gpu5.4.4/13047/x86_64/src/src/build/std
 from svn 13047

 executed on                        Lin64 date 2023.03.24  21:39:17

 INCAR:
 POTCAR:    PAW_PBE Ni 02Aug2007
 POTCAR:    PAW_PBE O 08Apr2002

 POTCAR:    PAW_PBE Ni 02Aug2007

 POTCAR:    PAW_PBE O 08Apr2002

 Optimization of the real space projectors (new method)

 maximal supplied QI-value         = 16.25
 optimisation between [QCUT,QGAM] = [ 11.38, 22.75] = [ 36.24,144.96] Ry
 Optimized for a Real-space Cutoff    1.47 Angstroem

   l    n(q)    QCUT    max X(q) W(low)/X(q) W(high)/X(q)  e(spline)
   2      9    11.376    60.317    0.17E-03    0.16E-04    0.16E-06
   2      9    11.376    55.921    0.17E-03    0.16E-04    0.17E-06
   0     10    11.376    51.690    0.45E-04    0.60E-04    0.21E-06
   0     10    11.376    30.015    0.37E-04    0.55E-04    0.19E-06
   1     10    11.376    18.849    0.83E-04    0.11E-03    0.92E-07
   1     10    11.376    14.624    0.69E-04    0.92E-04    0.82E-07
 Optimization of the real space projectors (new method)

 maximal supplied QI-value         = 24.76
 optimisation between [QCUT,QGAM] = [ 11.39, 22.77] = [ 36.31,145.25] Ry
 Optimized for a Real-space Cutoff    1.10 Angstroem

   l    n(q)    QCUT    max X(q) W(low)/X(q) W(high)/X(q)  e(spline)
   0      7    11.387    20.381    0.22E-03    0.48E-03    0.18E-06
   0      7    11.387    15.268    0.22E-03    0.52E-03    0.19E-06
   1      7    11.387     5.964    0.22E-03    0.73E-03    0.24E-06
   1      7    11.387     5.382    0.19E-03    0.60E-03    0.21E-06

  PAW_PBE Ni 02Aug2007                  :
  PAW_PBE O 08Apr2002                   :

 POSCAR: NiO2_Fd-3m_pris
  positions in direct lattice
 exchange correlation table for  LEXCH =       14
   RHO(1)=    0.500       N(1)  =     2000
   RHO(2)=  100.500       N(2)  =     4000

 ion  position               nearest neighbor table
   1  0.125  0.625  0.125-  22 1.88  24 1.88  28 1.88  41 1.88  43 1.88  47 1.88   2 2.81   3 2.81
                             4 2.81   8 2.81  11 2.81  14 2.81
   2  0.375  0.875  0.125-  18 1.88  19 1.88  24 1.88  29 1.88  41 1.88  46 1.88   1 2.81   3 2.81
                             4 2.81   7 2.81  12 2.81  13 2.81
   3  0.375  0.625  0.375-  18 1.88  21 1.88  27 1.88  41 1.88  44 1.88  47 1.88   1 2.81   2 2.81
                             4 2.81   6 2.81   9 2.81  16 2.81
   4  0.125  0.875  0.375-  18 1.88  20 1.88  24 1.88  30 1.88  45 1.88  47 1.88   1 2.81   2 2.81
                             3 2.81   5 2.81  10 2.81  15 2.81
   5  0.125  0.125  0.625-  20 1.88  30 1.88  32 1.88  33 1.88  35 1.88  39 1.88   4 2.81   6 2.81
                             7 2.81   8 2.81  10 2.81  15 2.81
   6  0.375  0.375  0.625-  21 1.88  26 1.88  27 1.88  32 1.88  33 1.88  38 1.88   3 2.81   5 2.81
                             7 2.81   8 2.81   9 2.81  16 2.81
   7  0.375  0.125  0.875-  19 1.88  26 1.88  29 1.88  33 1.88  36 1.88  39 1.88   2 2.81   5 2.81
                             6 2.81   8 2.81  12 2.81  13 2.81
   8  0.125  0.375  0.875-  22 1.88  26 1.88  28 1.88  32 1.88  37 1.88  39 1.88   1 2.81   5 2.81
                             6 2.81   7 2.81  11 2.81  14 2.81
   9  0.625  0.625  0.625-  25 1.88  27 1.88  31 1.88  38 1.88  40 1.88  44 1.88   3 2.81   6 2.81
                            10 2.81  11 2.81  12 2.81  16 2.81
  10  0.875  0.875  0.625-  25 1.88  30 1.88  34 1.88  35 1.88  40 1.88  45 1.88   4 2.81   5 2.81
                             9 2.81  11 2.81  12 2.81  15 2.81
  11  0.875  0.625  0.875-  25 1.88  28 1.88  31 1.88  34 1.88  37 1.88  43 1.88   1 2.81   8 2.81
                             9 2.81  10 2.81  12 2.81  14 2.81
  12  0.625  0.875  0.875-  29 1.88  31 1.88  34 1.88  36 1.88  40 1.88  46 1.88   2 2.81   7 2.81
                             9 2.81  10 2.81  11 2.81  13 2.81
  13  0.625  0.125  0.125-  17 1.88  19 1.88  23 1.88  36 1.88  46 1.88  48 1.88   2 2.81   7 2.81
                            12 2.81  14 2.81  15 2.81  16 2.81
  14  0.875  0.375  0.125-  17 1.88  22 1.88  37 1.88  42 1.88  43 1.88  48 1.88   1 2.81   8 2.81
                            11 2.81  13 2.81  15 2.81  16 2.81
  15  0.875  0.125  0.375-  17 1.88  20 1.88  23 1.88  35 1.88  42 1.88  45 1.88   4 2.81   5 2.81
                            10 2.81  13 2.81  14 2.81  16 2.81
  16  0.625  0.375  0.375-  21 1.88  23 1.88  38 1.88  42 1.88  44 1.88  48 1.88   3 2.81   6 2.81
                             9 2.81  13 2.81  14 2.81  15 2.81
  17  0.861  0.139  0.139-  13 1.88  14 1.88  15 1.88
  18  0.361  0.861  0.361-   2 1.88   3 1.88   4 1.88
  19  0.389  0.111  0.111-   2 1.88   7 1.88  13 1.88
  20  0.111  0.111  0.389-   4 1.88   5 1.88  15 1.88
  21  0.389  0.389  0.389-   3 1.88   6 1.88  16 1.88
  22  0.111  0.389  0.111-   1 1.88   8 1.88  14 1.88
  23  0.639  0.139  0.361-  13 1.88  15 1.88  16 1.88
  24  0.139  0.861  0.139-   1 1.88   2 1.88   4 1.88
  25  0.861  0.639  0.639-   9 1.88  10 1.88  11 1.88
  26  0.361  0.361  0.861-   6 1.88   7 1.88   8 1.88
  27  0.389  0.611  0.611-   3 1.88   6 1.88   9 1.88
  28  0.111  0.611  0.889-   1 1.88   8 1.88  11 1.88
  29  0.389  0.889  0.889-   2 1.88   7 1.88  12 1.88
  30  0.111  0.889  0.611-   4 1.88   5 1.88  10 1.88
  31  0.639  0.639  0.861-   9 1.88  11 1.88  12 1.88
  32  0.139  0.361  0.639-   5 1.88   6 1.88   8 1.88
  33  0.361  0.139  0.639-   5 1.88   6 1.88   7 1.88
  34  0.861  0.861  0.861-  10 1.88  11 1.88  12 1.88
  35  0.889  0.111  0.611-   5 1.88  10 1.88  15 1.88
  36  0.611  0.111  0.889-   7 1.88  12 1.88  13 1.88
  37  0.889  0.389  0.889-   8 1.88  11 1.88  14 1.88
  38  0.611  0.389  0.611-   6 1.88   9 1.88  16 1.88
  39  0.139  0.139  0.861-   5 1.88   7 1.88   8 1.88
  40  0.639  0.861  0.639-   9 1.88  10 1.88  12 1.88
  41  0.361  0.639  0.139-   1 1.88   2 1.88   3 1.88
  42  0.861  0.361  0.361-  14 1.88  15 1.88  16 1.88
  43  0.889  0.611  0.111-   1 1.88  11 1.88  14 1.88
  44  0.611  0.611  0.389-   3 1.88   9 1.88  16 1.88
  45  0.889  0.889  0.389-   4 1.88  10 1.88  15 1.88
  46  0.611  0.889  0.111-   2 1.88  12 1.88  13 1.88
  47  0.139  0.639  0.361-   1 1.88   3 1.88   4 1.88
  48  0.639  0.361  0.139-  13 1.88  14 1.88  16 1.88

  LATTYP: Found a simple cubic cell.
 ALAT       =     7.9418900000

  Lattice vectors:

 A1 = (   7.9418900000,   0.0000000000,   0.0000000000)
 A2 = (   0.0000000000,   7.9418900000,   0.0000000000)
 A3 = (   0.0000000000,   0.0000000000,   7.9418900000)

Analysis of symmetry for initial positions (statically):
 Subroutine PRICEL returns following result:

  LATTYP: Found a face centered cubic cell.
 ALAT       =     7.9418900000

[...]

   4 primitive cells build up your supercell.

 Routine SETGRP: Setting up the symmetry group for a
 simple cubic supercell.

 Subroutine GETGRP returns: Found 48 space group operations
 (whereof 24 operations were pure point group operations)
 out of a pool of 48 trial point group operations.

The static configuration has the point symmetry T_d .
 The point group associated with its full space group is O_h .

Analysis of symmetry for dynamics (positions and initial velocities):
 Subroutine PRICEL returns following result:

[...]

The dynamic configuration has the point symmetry T_d .
 The point group associated with its full space group is O_h .

Analysis of structural, dynamic, and magnetic symmetry:
 Subroutine PRICEL returns following result:

  LATTYP: Found a face centered cubic cell.
 ALAT       =     7.9418900000

  Lattice vectors:

 A1 = (   3.9709450000,   3.9709450000,   0.0000000000)
 A2 = (   3.9709450000,   0.0000000000,  -3.9709450000)
 A3 = (   0.0000000000,   3.9709450000,  -3.9709450000)

   4 primitive cells build up your supercell.

 Routine SETGRP: Setting up the symmetry group for a
 simple cubic supercell.

 Subroutine GETGRP returns: Found 48 space group operations
 (whereof 24 operations were pure point group operations)
 out of a pool of 48 trial point group operations.

The magnetic configuration has the point symmetry T_d .
 The point group associated with its full space group is O_h .

 Subroutine INISYM returns: Found 48 space group operations
 (whereof 24 operations are pure point group operations),
 and found     4 'primitive' translations

 KPOINTS: Automatic mesh

Automatic generation of k-mesh.
Space group operators:
 irot       det(A)        alpha          n_x          n_y          n_z        tau_x        tau_y        tau_z
    1     1.000000     0.000001     1.000000     0.000000     0.000000     0.000000     0.000000     0.000000
    2     1.000000   120.000000    -0.577350    -0.577350    -0.577350     0.000000     0.000000     0.000000
    3     1.000000   120.000000     0.577350     0.577350     0.577350     0.000000     0.000000     0.000000
    4    -1.000000    90.000000     0.000000     0.000000    -1.000000     0.000000     0.000000     0.000000
    5    -1.000000   180.000000     0.000000     0.707107     0.707107     0.000000     0.000000     0.000000
    6    -1.000000    90.000000     0.000000     1.000000     0.000000     0.000000     0.000000     0.000000
    7     1.000000   180.000000     0.000000     0.000000     1.000000     0.000000     0.000000     0.000000
    8     1.000000   120.000000    -0.577350     0.577350     0.577350     0.000000     0.000000     0.000000
    9     1.000000   120.000000    -0.577350     0.577350    -0.577350     0.000000     0.000000     0.000000
   10    -1.000000    90.000000     0.000000     0.000000     1.000000     0.000000     0.000000     0.000000
   11    -1.000000    90.000000    -1.000000     0.000000     0.000000     0.000000     0.000000     0.000000
   12    -1.000000   180.000000     0.707107     0.000000     0.707107     0.000000     0.000000     0.000000
   13     1.000000   120.000000     0.577350    -0.577350     0.577350     0.000000     0.000000     0.000000
   14     1.000000   120.000000    -0.577350    -0.577350     0.577350     0.000000     0.000000     0.000000
   15     1.000000   180.000000     1.000000     0.000000     0.000000     0.000000     0.000000     0.000000
   16    -1.000000    90.000000     0.000000    -1.000000     0.000000     0.000000     0.000000     0.000000
   17    -1.000000   180.000000     0.707107     0.707107     0.000000     0.000000     0.000000     0.000000
   18    -1.000000    90.000000     1.000000     0.000000     0.000000     0.000000     0.000000     0.000000
   19     1.000000   120.000000     0.577350    -0.577350    -0.577350     0.000000     0.000000     0.000000
   20     1.000000   180.000000     0.000000     1.000000     0.000000     0.000000     0.000000     0.000000
   21     1.000000   120.000000     0.577350     0.577350    -0.577350     0.000000     0.000000     0.000000
   22    -1.000000   180.000000     0.000000    -0.707107     0.707107     0.000000     0.000000     0.000000
   23    -1.000000   180.000000     0.707107    -0.707107     0.000000     0.000000     0.000000     0.000000
[...]
  Alpha Z  1094.16350  1094.16350  1094.16350
  Ewald   -6808.43171 -6808.43171 -6808.43171    -0.00000     0.00000     0.00000
  Hartree  3712.26322  3712.26322  3712.26322    -0.00000    -0.00000    -0.00000
  E(xc)   -1793.57176 -1793.57176 -1793.57176    -0.00000     0.00000    -0.00000
  Local   -3819.37925 -3819.37925 -3819.37925    -0.00000    -0.00000     0.00000
  n-local  -776.60068  -778.81196  -780.65525     0.49465     0.42079     0.18124
  augment  2996.94793  2996.94793  2996.94793     0.00000     0.00000     0.00000
  Kinetic  5372.63889  5380.29155  5386.07806    -1.43009    -1.18725    -0.51650
  Fock        0.00000     0.00000     0.00000     0.00000     0.00000     0.00000
  Total      -17.0278554    -17.0278554    -17.0278554      0.0000000      0.0000000      0.0000000
  in kB      -54.4626704    -54.4626704    -54.4626704      0.0000000      0.0000000      0.0000000

 VOLUME and BASIS-vectors are now :
  energy-cutoff  :      500.00
  volume of cell :      500.92
      direct lattice vectors                 reciprocal lattice vectors
     7.941890000  0.000000000  0.000000000     0.125914612  0.000000000  0.000000000
     0.000000000  7.941890000  0.000000000     0.000000000  0.125914612  0.000000000
     0.000000000  0.000000000  7.941890000     0.000000000  0.000000000  0.125914612

  length of vectors
     7.941890000  7.941890000  7.941890000     0.125914612  0.125914612  0.125914612

 FORCES acting on ions
    electron-ion (+dipol)            ewald-force                    non-local-force                 convergence-correction
   -.113E-11 -.423E-11 0.652E-11   0.737E-13 -.604E-13 -.546E-13   0.424E-22 0.207E-22 -.132E-22   0.105E-12 -.470E-13 0.198E-12
   -.236E-11 0.640E-11 -.325E-11   -.959E-13 -.112E-12 0.591E-13   0.244E-22 0.331E-23 -.285E-22   0.236E-12 -.489E-13 -.301E-12
   -.271E-11 0.396E-11 -.512E-11   0.391E-13 -.355E-14 -.604E-13   0.331E-22 -.422E-22 -.165E-23   0.205E-12 -.220E-12 0.340E-12
   0.790E-12 -.965E-12 0.689E-11   -.488E-13 -.504E-13 0.675E-13   0.121E-22 -.133E-22 -.331E-23   -.156E-12 -.266E-12 0.600E-12
   -.112E-11 -.317E-11 0.547E-11   0.868E-13 -.124E-13 0.326E-13   0.232E-22 -.248E-23 -.331E-23   -.719E-13 -.299E-12 0.703E-13
   -.501E-11 -.245E-11 -.189E-11   -.711E-14 -.877E-13 0.271E-13   0.116E-22 -.194E-22 -.263E-22   0.188E-12 0.240E-12 -.281E-12
   0.683E-12 -.585E-13 0.147E-11   0.320E-13 0.213E-13 -.497E-13   0.215E-22 -.132E-22 -.455E-23   0.253E-12 -.330E-12 -.303E-12
   0.742E-12 -.253E-11 0.665E-11   -.351E-13 -.768E-13 0.639E-13   0.600E-23 0.290E-23 0.165E-22   0.501E-13 -.710E-13 -.199E-12
   -.309E-11 -.734E-11 0.123E-10   -.178E-13 -.959E-13 -.266E-13   -.103E-22 -.215E-22 0.306E-22   -.917E-13 0.136E-12 -.462E-12
   0.361E-11 -.391E-11 -.108E-10   -.119E-12 -.635E-13 0.291E-13   0.157E-22 -.331E-22 -.182E-22   0.650E-13 0.649E-13 -.184E-12
   -.320E-11 -.487E-11 -.239E-11   -.160E-12 -.249E-13 -.995E-13   -.215E-22 -.529E-22 -.496E-23   0.404E-13 0.119E-12 -.384E-12
   -.287E-11 -.460E-11 0.505E-11   -.234E-12 -.688E-13 0.924E-13   0.455E-23 -.186E-22 0.993E-23   -.204E-12 0.293E-12 -.315E-12
   0.578E-11 -.810E-11 0.146E-11   -.515E-13 -.853E-13 0.213E-13   0.223E-22 -.331E-23 -.165E-23   -.181E-12 -.105E-12 -.476E-12
   0.155E-11 0.164E-10 0.154E-10   -.142E-12 -.675E-13 0.728E-13   -.126E-22 -.827E-24 -.933E-23   0.209E-13 0.248E-12 0.512E-14
   -.662E-11 0.156E-10 -.308E-11   -.711E-13 -.426E-13 -.639E-13   0.720E-22 -.488E-22 0.786E-23   0.124E-12 -.245E-12 0.528E-12
   -.406E-12 -.512E-11 0.144E-10   -.211E-12 -.172E-12 0.568E-13   0.124E-23 -.165E-22 0.993E-23   -.239E-12 0.516E-12 0.362E-12
   -.207E+03 0.207E+03 0.207E+03   0.223E+03 -.223E+03 -.223E+03   -.158E+02 0.158E+02 0.158E+02   0.354E-02 -.354E-02 -.354E-02
   -.207E+03 -.207E+03 -.207E+03   0.223E+03 0.223E+03 0.223E+03   -.158E+02 -.158E+02 -.158E+02   0.354E-02 0.354E-02 0.354E-02
   0.207E+03 -.207E+03 -.207E+03   -.223E+03 0.223E+03 0.223E+03   0.158E+02 -.158E+02 -.158E+02   -.354E-02 0.354E-02 0.354E-02
   -.207E+03 -.207E+03 0.207E+03   0.223E+03 0.223E+03 -.223E+03   -.158E+02 -.158E+02 0.158E+02   0.354E-02 0.354E-02 -.354E-02
   0.207E+03 0.207E+03 0.207E+03   -.223E+03 -.223E+03 -.223E+03   0.158E+02 0.158E+02 0.158E+02   -.354E-02 -.354E-02 -.354E-02
   -.207E+03 0.207E+03 -.207E+03   0.223E+03 -.223E+03 0.223E+03   -.158E+02 0.158E+02 -.158E+02   0.354E-02 -.354E-02 0.354E-02
   0.207E+03 0.207E+03 -.207E+03   -.223E+03 -.223E+03 0.223E+03   0.158E+02 0.158E+02 -.158E+02   -.354E-02 -.354E-02 0.354E-02
   0.207E+03 -.207E+03 0.207E+03   -.223E+03 0.223E+03 -.223E+03   0.158E+02 -.158E+02 0.158E+02   -.354E-02 0.354E-02 -.354E-02
   -.207E+03 0.207E+03 0.207E+03   0.223E+03 -.223E+03 -.223E+03   -.158E+02 0.158E+02 0.158E+02   0.354E-02 -.354E-02 -.354E-02
   -.207E+03 -.207E+03 -.207E+03   0.223E+03 0.223E+03 0.223E+03   -.158E+02 -.158E+02 -.158E+02   0.354E-02 0.354E-02 0.354E-02
   0.207E+03 -.207E+03 -.207E+03   -.223E+03 0.223E+03 0.223E+03   0.158E+02 -.158E+02 -.158E+02   -.354E-02 0.354E-02 0.354E-02
   -.207E+03 -.207E+03 0.207E+03   0.223E+03 0.223E+03 -.223E+03   -.158E+02 -.158E+02 0.158E+02   0.354E-02 0.354E-02 -.354E-02
   0.207E+03 0.207E+03 0.207E+03   -.223E+03 -.223E+03 -.223E+03   0.158E+02 0.158E+02 0.158E+02   -.354E-02 -.354E-02 -.354E-02
   -.207E+03 0.207E+03 -.207E+03   0.223E+03 -.223E+03 0.223E+03   -.158E+02 0.158E+02 -.158E+02   0.354E-02 -.354E-02 0.354E-02
   0.207E+03 0.207E+03 -.207E+03   -.223E+03 -.223E+03 0.223E+03   0.158E+02 0.158E+02 -.158E+02   -.354E-02 -.354E-02 0.354E-02
   0.207E+03 -.207E+03 0.207E+03   -.223E+03 0.223E+03 -.223E+03   0.158E+02 -.158E+02 0.158E+02   -.354E-02 0.354E-02 -.354E-02
   -.207E+03 0.207E+03 0.207E+03   0.223E+03 -.223E+03 -.223E+03   -.158E+02 0.158E+02 0.158E+02   0.354E-02 -.354E-02 -.354E-02
   -.207E+03 -.207E+03 -.207E+03   0.223E+03 0.223E+03 0.223E+03   -.158E+02 -.158E+02 -.158E+02   0.354E-02 0.354E-02 0.354E-02
   0.207E+03 -.207E+03 -.207E+03   -.223E+03 0.223E+03 0.223E+03   0.158E+02 -.158E+02 -.158E+02   -.354E-02 0.354E-02 0.354E-02
   -.207E+03 -.207E+03 0.207E+03   0.223E+03 0.223E+03 -.223E+03   -.158E+02 -.158E+02 0.158E+02   0.354E-02 0.354E-02 -.354E-02
   0.207E+03 0.207E+03 0.207E+03   -.223E+03 -.223E+03 -.223E+03   0.158E+02 0.158E+02 0.158E+02   -.354E-02 -.354E-02 -.354E-02
   -.207E+03 0.207E+03 -.207E+03   0.223E+03 -.223E+03 0.223E+03   -.158E+02 0.158E+02 -.158E+02   0.354E-02 -.354E-02 0.354E-02
   0.207E+03 0.207E+03 -.207E+03   -.223E+03 -.223E+03 0.223E+03   0.158E+02 0.158E+02 -.158E+02   -.354E-02 -.354E-02 0.354E-02
   0.207E+03 -.207E+03 0.207E+03   -.223E+03 0.223E+03 -.223E+03   0.158E+02 -.158E+02 0.158E+02   -.354E-02 0.354E-02 -.354E-02
   -.207E+03 0.207E+03 0.207E+03   0.223E+03 -.223E+03 -.223E+03   -.158E+02 0.158E+02 0.158E+02   0.354E-02 -.354E-02 -.354E-02
   -.207E+03 -.207E+03 -.207E+03   0.223E+03 0.223E+03 0.223E+03   -.158E+02 -.158E+02 -.158E+02   0.354E-02 0.354E-02 0.354E-02
   0.207E+03 -.207E+03 -.207E+03   -.223E+03 0.223E+03 0.223E+03   0.158E+02 -.158E+02 -.158E+02   -.354E-02 0.354E-02 0.354E-02
   -.207E+03 -.207E+03 0.207E+03   0.223E+03 0.223E+03 -.223E+03   -.158E+02 -.158E+02 0.158E+02   0.354E-02 0.354E-02 -.354E-02
   0.207E+03 0.207E+03 0.207E+03   -.223E+03 -.223E+03 -.223E+03   0.158E+02 0.158E+02 0.158E+02   -.354E-02 -.354E-02 -.354E-02
   -.207E+03 0.207E+03 -.207E+03   0.223E+03 -.223E+03 0.223E+03   -.158E+02 0.158E+02 -.158E+02   0.354E-02 -.354E-02 0.354E-02
   0.207E+03 0.207E+03 -.207E+03   -.223E+03 -.223E+03 0.223E+03   0.158E+02 0.158E+02 -.158E+02   -.354E-02 -.354E-02 0.354E-02
   0.207E+03 -.207E+03 0.207E+03   -.223E+03 0.223E+03 -.223E+03   0.158E+02 -.158E+02 0.158E+02   -.354E-02 0.354E-02 -.354E-02
   -.145E-11 -.494E-11 0.132E-10   0.199E-12 0.000E+00 0.114E-12   -.178E-13 -.178E-13 -.533E-14   0.452E-12 0.203E-13 -.961E-12

 POSITION                                       TOTAL-FORCE (eV/Angst)
      0.99274      4.96368      0.99274         0.000000     -0.000000      0.000000
      2.97821      6.94915      0.99274         0.000000     -0.000000      0.000000
      2.97821      4.96368      2.97821         0.000000     -0.000000      0.000000
      0.99274      6.94915      2.97821         0.000000     -0.000000      0.000000
      0.99274      0.99274      4.96368         0.000000     -0.000000      0.000000
      2.97821      2.97821      4.96368         0.000000     -0.000000      0.000000
      2.97821      0.99274      6.94915         0.000000     -0.000000      0.000000
      0.99274      2.97821      6.94915         0.000000     -0.000000      0.000000
      4.96368      4.96368      4.96368         0.000000     -0.000000      0.000000
      6.94915      6.94915      4.96368         0.000000     -0.000000      0.000000
      6.94915      4.96368      6.94915         0.000000     -0.000000      0.000000
      4.96368      6.94915      6.94915         0.000000     -0.000000      0.000000
      4.96368      0.99274      0.99274         0.000000     -0.000000      0.000000
      6.94915      2.97821      0.99274         0.000000     -0.000000      0.000000
      6.94915      0.99274      2.97821         0.000000     -0.000000      0.000000
      4.96368      2.97821      2.97821         0.000000     -0.000000      0.000000
      6.83630      1.10559      1.10559        -0.193417      0.193417      0.193417
      2.86535      6.83630      2.86535        -0.193417     -0.193417     -0.193417
      3.09106      0.87988      0.87988         0.193417     -0.193417     -0.193417
      0.87988      0.87988      3.09106        -0.193417     -0.193417      0.193417
      3.09106      3.09106      3.09106         0.193417      0.193417      0.193417
      0.87988      3.09106      0.87988        -0.193417      0.193417     -0.193417
      5.07654      1.10559      2.86535         0.193417      0.193417     -0.193417
      1.10559      6.83630      1.10559         0.193417     -0.193417      0.193417
      6.83630      5.07654      5.07654        -0.193417      0.193417      0.193417
      2.86535      2.86535      6.83630        -0.193417     -0.193417     -0.193417
      3.09106      4.85083      4.85083         0.193417     -0.193417     -0.193417
      0.87988      4.85083      7.06201        -0.193417     -0.193417      0.193417
      3.09106      7.06201      7.06201         0.193417      0.193417      0.193417
      0.87988      7.06201      4.85083        -0.193417      0.193417     -0.193417
      5.07654      5.07654      6.83630         0.193417      0.193417     -0.193417
      1.10559      2.86535      5.07654         0.193417     -0.193417      0.193417
      2.86535      1.10559      5.07654        -0.193417      0.193417      0.193417
      6.83630      6.83630      6.83630        -0.193417     -0.193417     -0.193417
      7.06201      0.87988      4.85083         0.193417     -0.193417     -0.193417
      4.85083      0.87988      7.06201        -0.193417     -0.193417      0.193417
      7.06201      3.09106      7.06201         0.193417      0.193417      0.193417
      4.85083      3.09106      4.85083        -0.193417      0.193417     -0.193417
      1.10559      1.10559      6.83630         0.193417      0.193417     -0.193417
      5.07654      6.83630      5.07654         0.193417     -0.193417      0.193417
      2.86535      5.07654      1.10559        -0.193417      0.193417      0.193417
      6.83630      2.86535      2.86535        -0.193417     -0.193417     -0.193417
      7.06201      4.85083      0.87988         0.193417     -0.193417     -0.193417
      4.85083      4.85083      3.09106        -0.193417     -0.193417      0.193417
      7.06201      7.06201      3.09106         0.193417      0.193417      0.193417
      4.85083      7.06201      0.87988        -0.193417      0.193417     -0.193417
      1.10559      5.07654      2.86535         0.193417      0.193417     -0.193417
      5.07654      2.86535      1.10559         0.193417     -0.193417      0.193417
    total drift:                               -0.000000     -0.000000      0.000000

  FREE ENERGIE OF THE ION-ELECTRON SYSTEM (eV)
  free  energy   TOTEN  =      -299.1457343844 eV

  energy  without entropy=     -299.1457343844  energy(sigma->0) =     -299.14573438

volume of typ            1:    20.3 %

volume of typ            2:    10.4 %

total charge

# of ion       s       p       d       tot
    1        0.297   0.403   7.811   8.511
    2        0.297   0.404   7.807   8.507
    3        0.297   0.404   7.806   8.507
    4        0.297   0.404   7.808   8.509
    5        0.297   0.403   7.811   8.511
    6        0.297   0.404   7.807   8.507
    7        0.297   0.404   7.806   8.507
    8        0.297   0.404   7.808   8.509
    9        0.297   0.403   7.811   8.511
   10        0.297   0.404   7.807   8.507
   11        0.297   0.404   7.806   8.507
   12        0.297   0.404   7.808   8.509
   13        0.297   0.403   7.811   8.511
   14        0.297   0.404   7.807   8.507
   15        0.297   0.404   7.806   8.507
   16        0.297   0.404   7.808   8.509
   17        1.286   2.713   0.008   4.006
   18        1.286   2.713   0.008   4.007
   19        1.286   2.713   0.008   4.006
   20        1.286   2.713   0.008   4.006
   21        1.286   2.713   0.008   4.007
   22        1.286   2.713   0.008   4.006
   23        1.286   2.713   0.008   4.006
   24        1.286   2.713   0.008   4.006
   25        1.286   2.713   0.008   4.006
   26        1.286   2.713   0.008   4.007
   27        1.286   2.713   0.008   4.006
   28        1.286   2.713   0.008   4.006
   29        1.286   2.713   0.008   4.007
   30        1.286   2.713   0.008   4.006
   31        1.286   2.713   0.008   4.006
   32        1.286   2.713   0.008   4.006
   33        1.286   2.713   0.008   4.006
   34        1.286   2.713   0.008   4.007
   35        1.286   2.713   0.008   4.006
   36        1.286   2.713   0.008   4.006
   37        1.286   2.713   0.008   4.007
   38        1.286   2.713   0.008   4.006
   39        1.286   2.713   0.008   4.006
   40        1.286   2.713   0.008   4.006
   41        1.286   2.713   0.008   4.006
   42        1.286   2.713   0.008   4.007
   43        1.286   2.713   0.008   4.006
   44        1.286   2.713   0.008   4.006
   45        1.286   2.713   0.008   4.007
   46        1.286   2.713   0.008   4.006
   47        1.286   2.713   0.008   4.006
   48        1.286   2.713   0.008   4.006
tot          45.89   93.28  125.17  264.34

magnetization (x)

# of ion       s       p       d       tot
    1        0.000   0.000   0.000   0.000
    2        0.000   0.000   0.000   0.000
    3        0.000   0.000   0.000   0.000
    4        0.000   0.000   0.000   0.000
    5        0.000   0.000   0.000   0.000
    6        0.000   0.000   0.000   0.000
    7        0.000   0.000   0.000   0.000
    8        0.000   0.000   0.000   0.000
    9        0.000   0.000   0.000   0.000
   10        0.000   0.000   0.000   0.000
   11        0.000   0.000   0.000   0.000
   12        0.000   0.000   0.000   0.000
   13        0.000   0.000   0.000   0.000
   14        0.000   0.000   0.000   0.000
   15        0.000   0.000   0.000   0.000
   16        0.000   0.000   0.000   0.000
   17       -0.000  -0.000   0.000  -0.000
   18       -0.000  -0.000   0.000  -0.000
   19       -0.000  -0.000   0.000  -0.000
   20       -0.000  -0.000   0.000  -0.000
   21       -0.000  -0.000   0.000  -0.000
   22       -0.000  -0.000   0.000  -0.000
   23       -0.000  -0.000   0.000  -0.000
   24       -0.000  -0.000   0.000  -0.000
   25       -0.000  -0.000   0.000  -0.000
   26       -0.000  -0.000   0.000  -0.000
   27       -0.000  -0.000   0.000  -0.000
   28       -0.000  -0.000   0.000  -0.000
   29       -0.000  -0.000   0.000  -0.000
   30       -0.000  -0.000   0.000  -0.000
   31       -0.000  -0.000   0.000  -0.000
   32       -0.000  -0.000   0.000  -0.000
   33       -0.000  -0.000   0.000  -0.000
   34       -0.000  -0.000   0.000  -0.000
   35       -0.000  -0.000   0.000  -0.000
   36       -0.000  -0.000   0.000  -0.000
   37       -0.000  -0.000   0.000  -0.000
   38       -0.000  -0.000   0.000  -0.000
   39       -0.000  -0.000   0.000  -0.000
   40       -0.000  -0.000   0.000  -0.000
   41       -0.000  -0.000   0.000  -0.000
   42       -0.000  -0.000   0.000  -0.000
   43       -0.000  -0.000   0.000  -0.000
   44       -0.000  -0.000   0.000  -0.000
   45       -0.000  -0.000   0.000  -0.000
   46       -0.000  -0.000   0.000  -0.000
   47       -0.000  -0.000   0.000  -0.000
   48       -0.000  -0.000   0.000  -0.000
tot          -0.00   -0.00    0.00   -0.00