 vasp.5.4.4.18Apr17-6-g9f103f2a35 (build May 12 2020 04:58:55) complex

 MD_VERSION_INFO: Compiled 2020-05-12T11:58:55-UTC in devlin.sd.materialsdesign.
 com:/home/medea2/data/build/wwolf/vasp-gpu5.4.4/13047/x86_64/src/src/build/std
 from svn 13047

 executed on                        Lin64 date 2023.03.24  21:40:04

 INCAR:
 POTCAR:    PAW_PBE Ni 02Aug2007
 POTCAR:    PAW_PBE O 08Apr2002

 POTCAR:    PAW_PBE Ni 02Aug2007

 POTCAR:    PAW_PBE O 08Apr2002

 Optimization of the real space projectors (new method)

 maximal supplied QI-value         = 16.25
 optimisation between [QCUT,QGAM] = [ 11.38, 22.75] = [ 36.24,144.96] Ry
 Optimized for a Real-space Cutoff    1.47 Angstroem

   l    n(q)    QCUT    max X(q) W(low)/X(q) W(high)/X(q)  e(spline)
   2      9    11.376    60.317    0.17E-03    0.16E-04    0.16E-06
   2      9    11.376    55.921    0.17E-03    0.16E-04    0.17E-06
   0     10    11.376    51.690    0.45E-04    0.60E-04    0.21E-06
   0     10    11.376    30.015    0.37E-04    0.55E-04    0.19E-06
   1     10    11.376    18.849    0.83E-04    0.11E-03    0.92E-07
   1     10    11.376    14.624    0.69E-04    0.92E-04    0.82E-07
 Optimization of the real space projectors (new method)

 maximal supplied QI-value         = 24.76
 optimisation between [QCUT,QGAM] = [ 11.39, 22.77] = [ 36.31,145.25] Ry
 Optimized for a Real-space Cutoff    1.10 Angstroem

   l    n(q)    QCUT    max X(q) W(low)/X(q) W(high)/X(q)  e(spline)
   0      7    11.387    20.381    0.22E-03    0.48E-03    0.18E-06
   0      7    11.387    15.268    0.22E-03    0.52E-03    0.19E-06
   1      7    11.387     5.964    0.22E-03    0.73E-03    0.24E-06
   1      7    11.387     5.382    0.19E-03    0.60E-03    0.21E-06

  PAW_PBE Ni 02Aug2007                  :
  PAW_PBE O 08Apr2002                   :

 POSCAR: NiO2_C2_m_scale_1_050_disp_0_20_round_2
  positions in direct lattice
 exchange correlation table for  LEXCH =       14
   RHO(1)=    0.500       N(1)  =     2000
   RHO(2)=  100.500       N(2)  =     4000

 ion  position               nearest neighbor table
   1  0.035  0.006  0.997-  22 1.74  27 1.82  54 2.17  19 2.24   7 2.50   9 2.62   3 2.77
   2  0.003  0.996  0.492-  20 1.41  29 1.86  21 2.06  52 2.08  44 2.24  53 2.28   8 2.62  10 2.68
                             6 2.92   4 2.96  14 3.06
   3  0.027  0.316  0.977-  23 1.80  26 2.04  46 2.06  50 2.07  19 2.13  43 2.40   9 2.64  11 2.72
                             1 2.77   5 2.89
   4  0.026  0.344  0.487-  25 1.35  21 1.68  24 1.82  44 2.07  12 2.14  45 2.19  48 2.37  10 2.88
                             6 2.92   2 2.96  14 3.08
   5  0.964  0.608  0.008-  47 1.83  50 1.85  23 2.06  27 2.07  30 2.27  54 2.42  17 2.85   3 2.89
                            15 2.92
   6  0.996  0.660  0.478-  29 1.71  49 1.80  28 1.95  52 2.24  25 2.31  48 2.51   4 2.92   2 2.92
                            18 2.94   8 3.03  12 3.03  16 3.06
   7  0.324  0.016  0.023-  31 1.83  27 1.85  22 1.99  39 2.05  34 2.41   1 2.50  15 2.52  13 2.55
                             9 2.64
   8  0.313  0.026  0.463-  32 1.60  20 1.76  29 1.85  33 1.88  28 2.14  10 2.24  41 2.42   2 2.62
                            16 2.75   6 3.03
   9  0.315  0.311  0.045-  31 1.49  19 1.80  35 1.85  22 2.40  38 2.42   1 2.62   3 2.64   7 2.64
                            11 2.70  15 2.72  17 2.78
  10  0.320  0.284  0.473-  33 1.66  36 1.72  20 2.07  24 2.11  37 2.21  21 2.22   8 2.24  16 2.57
                            12 2.67   2 2.68   4 2.88  18 3.01
  11  0.341  0.622  0.980-  42 1.77  35 1.85  26 2.02  23 2.20  39 2.28  30 2.40   9 2.70  17 2.71
                             3 2.72  13 3.06
  12  0.285  0.568  0.501-  24 1.05  37 1.54  25 1.98  40 2.03   4 2.14  41 2.29  10 2.67  18 2.95
                             6 3.03
  13  0.610  0.015  0.983-  43 1.63  34 1.86  46 1.87  39 1.91  51 2.11  15 2.47   7 2.55  11 3.06

  14  0.661  0.010  0.485-  45 1.55  41 1.93  32 1.94  53 1.98  44 1.99  40 2.34  16 2.95   2 3.06
                             4 3.08
  15  0.613  0.297  0.998-  47 1.60  34 1.79  43 1.90  31 1.95  50 2.22  38 2.30  13 2.47   7 2.52
                            17 2.65   9 2.72   5 2.92
  16  0.631  0.330  0.494-  33 1.63  49 1.71  32 1.73  45 2.10  36 2.14  48 2.20  10 2.57  18 2.63
                             8 2.75  14 2.95   6 3.06
  17  0.642  0.612  0.016-  47 1.71  35 1.95  51 2.06  54 2.23  38 2.24  42 2.42  15 2.65  11 2.71
                             9 2.78   5 2.85
  18  0.650  0.638  0.488-  53 1.51  52 1.58  37 1.79  40 2.13  49 2.19  36 2.31  16 2.63   6 2.94
                            12 2.95  10 3.01
  19  0.117  0.228  0.146-   9 1.80   3 2.13   1 2.24
  20  0.136  0.042  0.393-   2 1.41   8 1.76  10 2.07
  21  0.084  0.230  0.594-   4 1.68   2 2.06  10 2.22
  22  0.205  0.080  0.878-   1 1.74   7 1.99   9 2.40
  23  0.095  0.493  0.099-   3 1.80   5 2.06  11 2.20
  24  0.250  0.475  0.422-  12 1.05   4 1.82  10 2.11
  25  0.050  0.459  0.589-   4 1.35  12 1.98   6 2.31
  26  0.226  0.430  0.838-  11 2.02   3 2.04
  27  0.099  0.862  0.084-   1 1.82   7 1.85   5 2.07
  28  0.208  0.775  0.366-   6 1.95   8 2.14
  29  0.106  0.866  0.549-   6 1.71   8 1.85   2 1.86
  30  0.165  0.695  0.836-   5 2.27  11 2.40
  31  0.405  0.225  0.113-   9 1.49   7 1.83  15 1.95
  32  0.520  0.115  0.435-   8 1.60  16 1.73  14 1.94
  33  0.440  0.229  0.570-  16 1.63  10 1.66   8 1.88
  34  0.561  0.146  0.859-  15 1.79  13 1.86   7 2.41
  35  0.424  0.536  0.117-   9 1.85  11 1.85  17 1.95
  36  0.484  0.392  0.353-  10 1.72  16 2.14  18 2.31
  37  0.436  0.550  0.564-  12 1.54  18 1.79  10 2.21
  38  0.504  0.420  0.845-  17 2.24  15 2.30   9 2.42
  39  0.424  0.870  0.106-  13 1.91   7 2.05  11 2.28
  40  0.498  0.730  0.386-  12 2.03  18 2.13  14 2.34
  41  0.434  0.857  0.565-  14 1.93  12 2.29   8 2.42
  42  0.508  0.717  0.853-  11 1.77  17 2.42
  43  0.736  0.190  0.072-  13 1.63  15 1.90   3 2.40
  44  0.877  0.120  0.370-  14 1.99   4 2.07   2 2.24
  45  0.754  0.190  0.559-  14 1.55  16 2.10   4 2.19
  46  0.822  0.092  0.891-  13 1.87   3 2.06
  47  0.733  0.488  0.064-  15 1.60  17 1.71   5 1.83
  48  0.834  0.384  0.339-  16 2.20   4 2.37   6 2.51
  49  0.796  0.515  0.570-  16 1.71   6 1.80  18 2.19
  50  0.873  0.411  0.896-   5 1.85   3 2.07  15 2.22
  51  0.715  0.867  0.068-  17 2.06  13 2.11
  52  0.820  0.759  0.402-  18 1.58  53 1.89   2 2.08   6 2.24
  53  0.711  0.822  0.539-  18 1.51  52 1.89  14 1.98   2 2.28
  54  0.866  0.775  0.875-   1 2.17  17 2.23   5 2.42

  LATTYP: Found a hexagonal cell.
 ALAT       =     8.7810134983
 C/A-ratio  =     1.1065328053

  Lattice vectors:

 A1 = (   8.7810135000,   0.0000000000,   0.0000000000)
 A2 = (  -4.3905067500,   7.6045807600,   0.0000000000)
 A3 = (   0.0000000000,   0.0000000000,   9.7164795000)

Analysis of symmetry for initial positions (statically):
 Subroutine PRICEL returns:
 Original cell was already a primitive cell.

 Routine SETGRP: Setting up the symmetry group for a
 hexagonal supercell.

 Subroutine GETGRP returns: Found  1 space group operations
 (whereof  1 operations were pure point group operations)
 out of a pool of 24 trial point group operations.

The static configuration has the point symmetry C_1 .

Analysis of symmetry for dynamics (positions and initial velocities):
 Subroutine PRICEL returns:
 Original cell was already a primitive cell.

[...]

The dynamic configuration has the point symmetry C_1 .

Analysis of structural, dynamic, and magnetic symmetry:
 Subroutine PRICEL returns:
 Original cell was already a primitive cell.

 Routine SETGRP: Setting up the symmetry group for a
 hexagonal supercell.

 Subroutine GETGRP returns: Found  1 space group operations
 (whereof  1 operations were pure point group operations)
 out of a pool of 24 trial point group operations.

The magnetic configuration has the point symmetry C_1 .

 Subroutine INISYM returns: Found  1 space group operations
 (whereof  1 operations are pure point group operations),
 and found     1 'primitive' translations

 KPOINTS: Automatic mesh

Automatic generation of k-mesh.
Space group operators:
 irot       det(A)        alpha          n_x          n_y          n_z        tau_x        tau_y        tau_z
    1     1.000000     0.000000     1.000000     0.000000     0.000000     0.000000     0.000000     0.000000

 Subroutine IBZKPT returns following result:

 Found     26 irreducible k-points:

 Following reciprocal coordinates:
            Coordinates               Weight
  0.000000  0.000000  0.000000      1.000000
  0.250000  0.000000  0.000000      2.000000
  0.500000  0.000000  0.000000      1.000000
  0.000000  0.250000  0.000000      2.000000
  0.250000  0.250000  0.000000      2.000000
  0.500000  0.250000  0.000000      2.000000
 -0.250000  0.250000  0.000000      2.000000
  0.000000  0.500000  0.000000      1.000000
  0.250000  0.500000  0.000000      2.000000
  0.500000  0.500000  0.000000      1.000000
  0.000000  0.000000  0.333333      2.000000
  0.250000  0.000000  0.333333      2.000000
  0.500000  0.000000  0.333333      2.000000
 -0.250000  0.000000  0.333333      2.000000
  0.000000  0.250000  0.333333      2.000000
  0.250000  0.250000  0.333333      2.000000
  0.500000  0.250000  0.333333      2.000000
 -0.250000  0.250000  0.333333      2.000000
  0.000000  0.500000  0.333333      2.000000
  0.250000  0.500000  0.333333      2.000000
  0.500000  0.500000  0.333333      2.000000
 -0.250000  0.500000  0.333333      2.000000
  0.000000 -0.250000  0.333333      2.000000
  0.250000 -0.250000  0.333333      2.000000
  0.500000 -0.250000  0.333333      2.000000
 -0.250000 -0.250000  0.333333      2.000000

 Following cartesian coordinates:
            Coordinates               Weight
  0.000000  0.000000  0.000000      1.000000
  0.028471  0.016437  0.000000      2.000000
  0.056941  0.032875  0.000000      1.000000
  0.000000  0.032875  0.000000      2.000000
  0.028471  0.049312  0.000000      2.000000
  0.056941  0.065750  0.000000      2.000000
 -0.028471  0.016437  0.000000      2.000000
  0.000000  0.065750  0.000000      1.000000
  0.028471  0.082187  0.000000      2.000000
  0.056941  0.098625  0.000000      1.000000
  0.000000  0.000000  0.034306      2.000000
  0.028471  0.016437  0.034306      2.000000
  0.056941  0.032875  0.034306      2.000000
 -0.028471 -0.016437  0.034306      2.000000
  0.000000  0.032875  0.034306      2.000000
  0.028471  0.049312  0.034306      2.000000
  0.056941  0.065750  0.034306      2.000000
 -0.028471  0.016437  0.034306      2.000000
  0.000000  0.065750  0.034306      2.000000
  0.028471  0.082187  0.034306      2.000000
  0.056941  0.098625  0.034306      2.000000
 -0.028471  0.049312  0.034306      2.000000
  0.000000 -0.032875  0.034306      2.000000
  0.028471 -0.016437  0.034306      2.000000
  0.056941  0.000000  0.034306      2.000000
 -0.028471 -0.049312  0.034306      2.000000

 SYSTEM =  unknown system
 POSCAR =  NiO2_C2_m_scale_1_050_disp_0_20_round_2

 Startparameter for this run:
   NWRITE =      1    write-flag & timer
   PREC   = accura    normal or accurate (medium, high low for compatibility)
[...]
   0.518E+02 0.143E+03 0.144E+03   -.551E+02 -.143E+03 -.145E+03   0.669E+00 -.150E+01 0.163E+01   -.134E-01 -.799E-02 0.134E-01
   0.233E+03 0.206E+03 0.243E+03   -.240E+03 -.237E+03 -.264E+03   0.484E+01 0.107E+02 0.100E+01   -.288E-01 -.121E+00 -.336E-01
   -.505E+02 -.241E+03 -.310E+02   0.539E+02 0.241E+03 0.281E+02   -.155E+01 0.912E+00 0.719E+00   -.102E-01 -.256E-02 0.340E-01
   -.350E+02 0.622E+02 0.429E+02   0.348E+02 -.616E+02 -.446E+02   0.113E+01 -.249E+01 -.108E+01   -.111E+00 0.123E+00 -.318E-01
   -.941E+02 0.292E+03 0.758E+02   0.933E+02 -.298E+03 -.747E+02   0.157E+01 0.348E+01 -.180E+01   0.770E-02 -.537E-02 0.305E-01
   -.116E+03 0.288E+03 -.433E+01   0.118E+03 -.299E+03 0.399E+01   -.247E+01 0.516E+01 0.935E+00   -.101E+00 -.637E-01 0.208E-01
   0.149E+03 -.501E+02 0.136E+03   -.160E+03 0.570E+02 -.139E+03   0.207E+01 -.148E+01 -.319E+01   -.555E-02 0.123E-01 0.501E-01
   0.169E+03 0.251E+02 -.508E+02   -.171E+03 -.202E+02 0.495E+02   -.251E+01 -.294E+01 0.629E+00   -.600E-01 -.853E-01 0.156E-01
   0.174E+03 -.225E+03 0.470E+02   -.175E+03 0.227E+03 -.488E+02   -.138E+01 -.776E+00 0.103E+01   0.442E-02 0.994E-02 0.657E-02
   0.263E+03 -.603E+03 -.403E+03   -.280E+03 0.717E+03 0.510E+03   -.238E+01 -.135E+02 -.758E+01   -.526E-01 -.474E-01 0.170E-01
   -.757E+02 0.318E+03 0.148E+03   0.794E+02 -.323E+03 -.149E+03   -.521E+00 0.963E+00 -.701E+00   0.215E-01 0.168E-02 0.110E-01
   -.464E+02 0.186E+03 0.349E+02   0.468E+02 -.193E+03 -.379E+02   0.821E-01 0.377E+00 -.264E+00   0.122E+00 0.796E-01 -.608E-01
   -.266E+02 -.724E+01 0.938E+02   0.292E+02 0.408E+01 -.985E+02   -.192E+01 0.152E+00 0.116E+01   0.201E-01 0.118E-01 0.225E-01
   -.202E+03 -.151E+03 -.610E+02   0.211E+03 0.154E+03 0.576E+02   -.221E+01 -.238E+01 -.905E+00   0.456E-01 0.863E-02 -.458E-01
   -.520E+02 -.298E+03 0.274E+02   0.498E+02 0.303E+03 -.294E+02   0.180E-01 -.122E+01 -.258E+00   0.752E-02 0.173E-01 0.415E-01
   -.121E+03 0.112E+03 -.908E+02   0.118E+03 -.124E+03 0.902E+02   0.961E+00 0.189E+01 -.124E+01   0.190E+00 0.128E+00 -.778E-01
   0.171E+03 0.109E+03 -.232E+03   -.182E+03 -.112E+03 0.254E+03   0.103E+02 0.250E+01 -.249E+02   -.250E-01 -.202E-01 0.907E-01
   0.316E+01 0.327E+02 0.435E+03   0.980E+01 -.275E+02 -.482E+03   -.136E+01 0.129E+01 0.330E+02   -.103E+00 -.101E+00 0.109E+00
   -.304E+02 0.170E+03 -.425E+03   0.374E+02 -.176E+03 0.453E+03   -.298E+01 0.264E+01 -.276E+02   -.304E-01 -.693E-01 -.825E-01
   -.109E+02 0.473E+02 0.407E+03   0.171E+02 -.414E+02 -.433E+03   -.564E+01 -.549E+01 0.273E+02   -.322E-02 -.189E-02 -.643E-01
   0.534E+02 -.118E+03 -.264E+03   -.524E+02 0.122E+03 0.286E+03   -.639E+00 -.309E+01 -.243E+02   -.105E-01 -.853E-04 0.583E-01
   -.104E+01 0.203E+03 0.603E+03   0.265E+02 -.320E+03 -.757E+03   -.112E+02 0.213E+02 0.472E+02   -.359E-01 -.495E-01 0.156E-01
   0.202E+03 -.212E+03 -.490E+03   -.222E+03 0.241E+03 0.544E+03   0.130E+02 -.101E+02 -.346E+02   -.162E-01 -.219E-01 -.606E-01
   0.408E+01 0.376E+02 0.251E+03   0.483E+00 -.400E+02 -.270E+03   -.523E+01 0.252E+01 0.214E+02   -.356E-02 -.320E-02 -.544E-01
   0.278E+02 0.167E+03 -.202E+03   -.277E+02 -.177E+03 0.221E+03   -.396E+00 0.933E+01 -.195E+02   -.192E-01 -.189E-01 0.696E-01
   -.632E+02 0.357E+02 0.273E+03   0.723E+02 -.359E+02 -.287E+03   -.102E+02 0.230E-01 0.152E+02   -.843E-01 0.335E-02 0.642E-01
   -.325E+02 0.677E+02 -.413E+03   0.383E+02 -.668E+02 0.438E+03   -.637E+01 -.641E+00 -.207E+02   -.110E+00 -.142E-01 -.103E+00
   0.340E+02 -.116E+03 0.186E+03   -.344E+02 0.118E+03 -.195E+03   0.681E+00 -.332E+01 0.120E+02   -.867E-02 0.465E-02 -.547E-01
   -.145E+03 0.824E+02 -.316E+03   0.164E+03 -.892E+02 0.351E+03   -.987E+01 0.194E+01 -.301E+02   0.599E-02 0.388E-02 0.628E-01
   -.160E+03 0.116E+03 0.244E+03   0.175E+03 -.119E+03 -.261E+03   -.113E+02 0.340E+01 0.124E+02   0.874E-02 -.508E-02 0.320E-02
   -.111E+02 0.646E+02 -.531E+03   0.102E+02 -.719E+02 0.570E+03   -.196E+01 0.546E+01 -.320E+02   -.254E-02 -.353E-01 -.271E-01
   0.345E+02 0.920E+02 0.418E+03   -.376E+02 -.924E+02 -.446E+03   0.214E+01 -.101E+01 0.293E+02   0.762E-02 -.260E-02 -.475E-01
   0.175E+02 -.161E+03 -.271E+03   -.199E+02 0.167E+03 0.298E+03   0.329E+01 -.663E+01 -.279E+02   0.616E-02 0.101E-01 0.433E-01
   -.102E+03 -.111E+03 0.338E+03   0.107E+03 0.119E+03 -.362E+03   -.394E+01 -.636E+01 0.247E+02   0.300E-01 0.195E-01 0.232E-01
   -.138E+03 -.448E+02 -.431E+03   0.157E+03 0.406E+02 0.459E+03   -.113E+02 0.209E+01 -.223E+02   0.271E-01 -.534E-02 -.289E-02
   -.265E+02 -.279E+02 0.281E+03   0.244E+02 0.275E+02 -.294E+03   0.241E+01 0.343E+00 0.156E+02   0.396E-02 0.741E-02 -.452E-01
   0.798E+01 0.102E+03 -.218E+03   -.779E+01 -.111E+03 0.237E+03   -.113E+01 0.983E+01 -.221E+02   0.109E-01 -.341E-02 0.425E-01
   0.225E+02 -.158E+03 0.327E+03   -.229E+02 0.162E+03 -.339E+03   0.718E+00 -.247E+01 0.108E+02   0.538E-01 0.243E-01 0.206E-01
   0.768E+02 0.178E+02 -.301E+03   -.838E+02 -.209E+02 0.310E+03   0.708E+01 0.297E+01 -.938E+01   -.172E-01 0.215E-01 -.193E-01
   -.796E+02 -.158E+03 0.277E+03   0.895E+02 0.164E+03 -.295E+03   -.100E+02 -.597E+01 0.198E+02   0.677E-02 0.737E-02 -.366E-01
   -.156E+03 -.409E+02 -.317E+03   0.171E+03 0.558E+02 0.339E+03   -.156E+02 -.118E+02 -.204E+02   0.160E-01 0.951E-03 0.603E-01
   0.189E+02 0.676E+02 0.315E+03   -.173E+02 -.681E+02 -.333E+03   -.121E+01 0.203E+00 0.200E+02   0.332E-01 -.275E-01 0.567E-01
   -.314E+02 -.694E+02 -.358E+03   0.352E+02 0.908E+02 0.379E+03   -.382E+01 -.157E+02 -.170E+02   0.517E-01 -.115E-01 -.682E-01
   -.116E+03 0.101E+03 0.282E+03   0.122E+03 -.105E+03 -.299E+03   -.445E+01 0.452E+01 0.170E+02   0.405E-03 -.634E-02 -.372E-01
   -.934E+02 -.145E+03 -.259E+03   0.101E+03 0.152E+03 0.281E+03   -.674E+01 -.223E+01 -.190E+02   0.733E-02 0.124E-01 0.530E-01
   -.173E+02 -.440E+02 0.262E+03   0.179E+02 0.420E+02 -.273E+03   -.495E+00 0.293E+01 0.136E+02   0.257E-01 -.109E-03 0.521E-01
   -.341E+02 -.863E+02 -.360E+03   0.380E+02 0.900E+02 0.384E+03   -.531E+01 -.109E+01 -.232E+02   0.279E-01 0.750E-01 -.826E-01
   -.192E+01 -.153E+02 0.320E+03   -.211E+01 0.851E+01 -.338E+03   0.535E+01 0.715E+01 0.183E+02   -.415E-02 0.170E-02 -.349E-01
   -.736E+02 -.385E+02 -.156E+03   0.752E+02 0.427E+02 0.164E+03   -.121E+01 -.462E+01 -.941E+01   0.116E-01 0.607E-02 0.563E-01
   -.107E+03 -.622E+02 0.365E+03   0.120E+03 0.741E+02 -.391E+03   -.636E+01 -.952E+01 0.210E+02   0.100E+00 0.684E-01 0.900E-01
   0.424E+01 -.200E+03 -.342E+03   -.101E+02 0.224E+03 0.365E+03   0.416E+01 -.128E+02 -.164E+02   0.134E+00 0.206E-01 -.828E-01
   0.568E+01 -.276E+02 0.258E+03   -.658E+01 0.274E+02 -.270E+03   0.130E+01 -.869E-01 0.151E+02   -.187E-02 -.126E-02 -.493E-01
   0.914E+02 0.221E+02 0.364E+02   -.764E-12 -.654E-12 0.568E-13   -.914E+02 -.219E+02 -.363E+02   0.735E-01 -.176E+00 -.167E-01

 POSITION                                       TOTAL-FORCE (eV/Angst)
      0.28097      0.04422      9.68741        -3.093613     -2.198733     -0.449047
     -4.35021      7.57324      4.78130       -15.970556     -5.359802     11.389191
     -1.14996      2.40379      9.49483        -2.617731     -0.990804      0.237710
     -1.27760      2.61433      4.73445        -1.327745    -19.931375    -20.513819
      5.79822      4.62088      0.08136         1.855401      1.130182     -2.184059
      5.84567      5.01841      4.64667         0.823959     -1.822155     -2.750292
      2.77090      0.12215      0.22062         0.760687     -2.315512     -0.609728
      2.63532      0.19837      4.49894        -0.212133     -5.628289      0.610327
      1.40009      2.36558      0.44156        -8.914544      5.432466     -5.670557
      1.56272      2.16134      4.59838        -4.854675      1.889864     -0.671244
      0.26353      4.73048      9.52021        -2.478393      0.314011     -0.767664
      0.00830      4.31794      4.86760       -18.916641    100.428772     99.810638
      5.28762      0.11525      9.54824         3.152455     -4.819845     -1.392677
      5.76251      0.07229      4.70913         0.643638     -6.877081     -3.371559
      4.07558      2.26112      9.70094         0.681501     -2.992466     -3.514280
      4.09748      2.50740      4.80451         6.259052      1.473050     -4.365795
      2.95400      4.65338      0.15898        -2.168912      4.019308     -2.175272
      2.90946      4.84972      4.74526        -2.505610    -10.691022     -1.921935
      0.02464      1.73062      1.41946        -0.432942     -0.806638     -2.492563
      1.01048      0.32020      3.82124        11.497511      6.439663    -14.037231
     -0.27152      1.74976      5.77247         3.954401     -3.257340      0.694237
      1.44778      0.61054      8.52846         0.587511      0.396709      1.030170
     -1.32758      3.75127      0.95767         0.265946      1.562649     -1.801308
      0.11200      3.61044      4.10469        14.200439    -96.035512   -106.498661
     -1.57866      3.49131      5.71916        -7.305014     18.777295     19.373254
      0.09957      3.27074      8.14023        -0.675627      0.142804      2.628039
     -2.92137      6.55832      0.81196        -0.238879     -0.693389     -0.245273
     -1.57151      5.89129      3.55243        -1.120995     -0.172463      1.489815
     -2.86739      6.58591      5.32970        -0.713431      0.247826      3.329361
     -1.60325      5.28226      8.12440         0.222907     -0.470280      2.134128
      2.56527      1.71330      1.09330         9.513609     -4.799664      4.766658
      4.06342      0.87281      4.23138         4.059147     -0.368580     -4.834682
      2.85916      1.74346      5.53879        -2.803164     -1.859724      6.295597
      4.28783      1.10985      8.34223        -0.950191     -1.409105      1.090626
      1.37268      4.07554      1.13517         0.884829     -0.035207     -1.318206
      2.52992      2.98323      3.43217         1.736090      0.956847      0.638427
      1.41691      4.17987      5.47755         7.760573     -2.077945      6.333721
      2.58369      3.19515      8.21282         0.311255     -0.140764      2.423570
     -0.09837      6.61618      1.02668        -0.933564      0.822723     -2.525991
      1.16330      5.55319      3.75196         0.395075      1.471547     -1.255638
      0.04471      6.51739      5.49065         0.097383     -0.096712     -0.315128
      1.30976      5.45244      8.28344        -0.085545      0.222211      1.692007
      5.63435      1.44242      0.70383        -0.109912      3.070578      2.528688
      7.17582      0.91499      3.59474         0.440230     -0.363857      1.982932
      5.79150      1.44162      5.43239         0.028306      5.600437      3.520381
      6.81627      0.70256      8.65499         1.412462      0.284542      0.104882
      4.29935      3.70851      0.61819         0.964576      4.632890      3.766751
      5.64254      2.91870      3.29316         0.119708      0.879301      2.507412
      4.72436      3.91917      5.53477        -1.352139      2.613930      0.826130
      5.85737      3.12548      8.70561         1.317279      0.389230      0.788720
      2.47404      6.59429      0.66355         0.408094     -0.456534     -0.866959
      3.87205      5.76838      3.90172         6.636648      2.380883     -4.391951
      2.63684      6.25112      5.24159        -1.602537     11.394467      6.284999
      4.19877      5.89577      8.50018         0.393823     -0.303384      2.663146
    total drift:                               -0.002826     -0.001943      0.005582

  FREE ENERGIE OF THE ION-ELECTRON SYSTEM (eV)
  free  energy   TOTEN  =      -253.2382326422 eV

  energy  without entropy=     -253.1879086863  energy(sigma->0) =     -253.21307066

volume of typ            1:    17.7 %

volume of typ            2:     9.0 %

total charge

# of ion       s       p       d       tot
    1        0.250   0.259   7.871   8.381
    2        0.342   0.437   7.998   8.776
    3        0.238   0.263   7.825   8.325
    4        0.422   0.606   8.086   9.114
    5        0.229   0.249   7.829   8.307
    6        0.266   0.295   7.861   8.423
    7        0.251   0.281   7.880   8.412
    8        0.320   0.440   7.931   8.691
    9        0.347   0.430   7.963   8.739
   10        0.304   0.363   7.973   8.640
   11        0.252   0.279   7.823   8.354
   12        0.612   0.935   8.494  10.041
   13        0.310   0.387   7.852   8.548
   14        0.308   0.378   7.869   8.555
   15        0.308   0.427   7.900   8.634
   16        0.329   0.453   7.887   8.669
   17        0.247   0.270   7.854   8.371
   18        0.365   0.519   7.983   8.866
   19        1.301   2.636   0.006   3.943
   20        1.304   2.832   0.029   4.165
   21        1.291   2.712   0.009   4.011
   22        1.299   2.655   0.008   3.963
   23        1.296   2.652   0.006   3.953
   24        1.342   3.050   0.077   4.470
   25        1.319   2.819   0.031   4.169
   26        1.313   2.575   0.004   3.892
   27        1.278   2.707   0.007   3.991
   28        1.302   2.609   0.003   3.915
   29        1.282   2.763   0.012   4.057
   30        1.317   2.531   0.001   3.849
   31        1.292   2.804   0.022   4.118
   32        1.293   2.806   0.017   4.115
   33        1.289   2.802   0.020   4.111
   34        1.299   2.666   0.008   3.973
   35        1.293   2.686   0.009   3.987
   36        1.294   2.680   0.007   3.981
   37        1.288   2.815   0.016   4.119
   38        1.317   2.549   0.002   3.868
   39        1.296   2.634   0.004   3.935
   40        1.323   2.585   0.004   3.912
   41        1.306   2.608   0.003   3.917
   42        1.311   2.596   0.005   3.911
   43        1.305   2.690   0.012   4.007
   44        1.298   2.629   0.004   3.931
   45        1.308   2.715   0.014   4.037
   46        1.301   2.622   0.004   3.928
   47        1.274   2.827   0.018   4.119
   48        1.309   2.567   0.002   3.878
   49        1.280   2.741   0.010   4.031
   50        1.309   2.621   0.005   3.934
   51        1.306   2.587   0.002   3.895
   52        1.305   2.715   0.013   4.033
   53        1.295   2.768   0.017   4.080
   54        1.310   2.564   0.002   3.876
tot          52.54  104.09  143.29  299.92

magnetization (x)

# of ion       s       p       d       tot
    1       -0.005  -0.002   0.190   0.183
    2        0.001   0.002   0.255   0.258
    3       -0.004   0.001   0.340   0.337
    4        0.001  -0.001   0.221   0.221
    5       -0.003  -0.003   0.490   0.485
    6       -0.004  -0.005  -0.004  -0.013
    7       -0.001   0.008   0.850   0.857
    8       -0.001  -0.004   0.163   0.158
    9       -0.001  -0.009  -0.005  -0.015
   10        0.002   0.006   0.406   0.414
   11       -0.006  -0.005   0.109   0.099
   12        0.003  -0.003   0.177   0.176
   13       -0.004  -0.006   0.062   0.051
   14       -0.000  -0.007   0.400   0.393
   15       -0.005  -0.001   0.210   0.204
   16       -0.005  -0.005  -0.175  -0.185
   17       -0.004  -0.003   0.700   0.693
   18        0.002  -0.000   0.149   0.151
   19       -0.002  -0.138   0.000  -0.140
   20        0.004   0.167   0.000   0.171
   21        0.002   0.046   0.000   0.048
   22        0.007   0.346  -0.000   0.353
   23        0.000  -0.032   0.000  -0.032
   24        0.003   0.006   0.001   0.009
   25        0.003   0.167   0.000   0.170
   26        0.010   0.512  -0.000   0.522
   27        0.006   0.116   0.000   0.122
   28        0.006   0.346  -0.000   0.353
   29        0.001   0.008  -0.000   0.009
   30        0.016   0.865  -0.000   0.880
   31        0.003   0.094  -0.000   0.096
   32        0.003   0.037  -0.000   0.040
   33       -0.000   0.023  -0.000   0.023
   34        0.006   0.272  -0.000   0.278
   35       -0.001  -0.077   0.000  -0.078
   36        0.000  -0.002  -0.000  -0.002
   37        0.005   0.187  -0.000   0.192
   38        0.014   0.741   0.000   0.755
   39        0.002   0.025   0.000   0.027
   40        0.018   0.815   0.000   0.834
   41        0.014   0.683  -0.000   0.697
   42        0.011   0.571  -0.000   0.581
   43        0.005   0.156  -0.000   0.161
   44        0.002   0.086   0.000   0.087
   45        0.005   0.265   0.000   0.270
   46        0.008   0.390  -0.000   0.397
   47        0.007   0.104   0.000   0.112
   48        0.008   0.450  -0.000   0.458
   49       -0.001  -0.083  -0.000  -0.085
   50        0.006   0.269  -0.000   0.274
   51        0.011   0.497   0.000   0.508
   52       -0.000  -0.044   0.000  -0.044
   53        0.005   0.159   0.000   0.164
   54        0.011   0.556  -0.000   0.567
tot           0.16    8.55    4.54   13.25