 vasp.5.4.4.18Apr17-6-g9f103f2a35 (build May 12 2020 04:58:55) complex

 MD_VERSION_INFO: Compiled 2020-05-12T11:58:55-UTC in devlin.sd.materialsdesign.
 com:/home/medea2/data/build/wwolf/vasp-gpu5.4.4/13047/x86_64/src/src/build/std
 from svn 13047

 executed on                        Lin64 date 2023.03.25  00:27:38

 INCAR:
 POTCAR:    PAW_PBE Ni 02Aug2007
 POTCAR:    PAW_PBE O 08Apr2002

 POTCAR:    PAW_PBE Ni 02Aug2007

 POTCAR:    PAW_PBE O 08Apr2002

 Optimization of the real space projectors (new method)

 maximal supplied QI-value         = 16.25
 optimisation between [QCUT,QGAM] = [ 11.38, 22.75] = [ 36.24,144.96] Ry
 Optimized for a Real-space Cutoff    1.47 Angstroem

   l    n(q)    QCUT    max X(q) W(low)/X(q) W(high)/X(q)  e(spline)
   2      9    11.376    60.317    0.17E-03    0.16E-04    0.16E-06
   2      9    11.376    55.921    0.17E-03    0.16E-04    0.17E-06
   0     10    11.376    51.690    0.45E-04    0.60E-04    0.21E-06
   0     10    11.376    30.015    0.37E-04    0.55E-04    0.19E-06
   1     10    11.376    18.849    0.83E-04    0.11E-03    0.92E-07
   1     10    11.376    14.624    0.69E-04    0.92E-04    0.82E-07
 Optimization of the real space projectors (new method)

 maximal supplied QI-value         = 24.76
 optimisation between [QCUT,QGAM] = [ 11.39, 22.77] = [ 36.31,145.25] Ry
 Optimized for a Real-space Cutoff    1.10 Angstroem

   l    n(q)    QCUT    max X(q) W(low)/X(q) W(high)/X(q)  e(spline)
   0      7    11.387    20.381    0.22E-03    0.48E-03    0.18E-06
   0      7    11.387    15.268    0.22E-03    0.52E-03    0.19E-06
   1      7    11.387     5.964    0.22E-03    0.73E-03    0.24E-06
   1      7    11.387     5.382    0.19E-03    0.60E-03    0.21E-06

  PAW_PBE Ni 02Aug2007                  :
  PAW_PBE O 08Apr2002                   :

 POSCAR: NiO2_C2_m_scale_0_950_disp_0_15_round_2
  positions in direct lattice
 exchange correlation table for  LEXCH =       14
   RHO(1)=    0.500       N(1)  =     2000
   RHO(2)=  100.500       N(2)  =     4000

 ion  position               nearest neighbor table
   1  0.002  0.016  0.004-  46 1.27  54 1.37  51 1.48  19 1.54  27 1.55  22 1.71  17 2.43   5 2.46
                            13 2.48   3 2.73   7 2.78   9 3.06
   2  0.021  0.057  0.537-  44 1.11  53 1.56  21 1.64  29 1.77  20 1.81  52 1.85   4 2.34  10 2.35
                            14 2.39  18 2.43   6 2.50   8 2.99
   3  0.021  0.369  0.006-  50 1.23  43 1.40  23 1.53  26 1.69  46 1.93  19 2.02  11 2.60  15 2.65
                             1 2.73   5 2.83   9 2.92  13 2.96
   4  0.011  0.347  0.535-  45 1.55  21 1.62  48 1.63  25 1.73  24 1.74  44 1.82   2 2.34  16 2.44
                            12 2.61  14 2.65  10 2.86
   5  0.951  0.684  0.992-  54 1.39  47 1.43  30 2.10  50 2.17  27 2.18  17 2.25  23 2.37   1 2.46
                            15 2.51   3 2.83
   6  0.987  0.728  0.512-  52 1.25  29 1.70  49 1.85  28 1.86  18 2.01  48 2.12  25 2.27   2 2.50
                             8 2.72  16 2.75  12 2.97
   7  0.367  0.051  0.026-  22 1.56  31 1.59  39 1.59  34 1.73  27 1.73  30 1.77  15 2.39   9 2.58
                            13 2.78   1 2.78  11 2.84
   8  0.369  0.010  0.512-  41 1.47  28 1.50  20 1.53  33 1.58  32 1.70  29 2.22  10 2.44  12 2.49
                            14 2.64  16 2.66   6 2.72   2 2.99
   9  0.398  0.389  0.006-  38 1.38  35 1.53  26 1.66  31 1.79  22 1.95  15 2.42  19 2.48  17 2.50
                            11 2.57   7 2.58   3 2.92   1 3.06
  10  0.348  0.305  0.539-  33 1.53  20 1.72  21 1.84  24 1.90  36 1.94  37 2.23   2 2.35   8 2.44
                            16 2.68   4 2.86  12 3.05
  11  0.354  0.689  0.992-  26 1.56  30 1.59  35 1.62  42 1.65  23 1.78  39 2.27  13 2.41  17 2.54
                             9 2.57   3 2.60   7 2.84
  12  0.335  0.681  0.529-  37 1.74  41 1.77  24 1.80  25 1.98  28 2.07  40 2.10   8 2.49   4 2.61
                            14 2.71   6 2.97  18 3.02  10 3.05
  13  0.672  0.977  0.992-  42 1.17  51 1.58  34 1.69  46 1.80  39 1.82  43 1.98  17 2.10  11 2.41
                             1 2.48   7 2.78  15 2.88   3 2.96
  14  0.695  0.999  0.530-  40 1.39  53 1.66  41 1.74  32 1.76  44 1.82  45 1.87  18 2.30   2 2.39
                             8 2.64   4 2.65  12 2.71  16 2.71
  15  0.674  0.339  0.989-  34 1.44  50 1.56  38 1.77  31 1.87  47 1.92  43 2.07   7 2.39   9 2.42
                             5 2.51   3 2.65  13 2.88  17 2.98
  16  0.703  0.344  0.524-  49 1.75  33 1.76  45 1.86  48 1.86  36 1.89  32 1.92   4 2.44   8 2.66
                            10 2.68  14 2.71   6 2.75  18 2.96
  17  0.689  0.721  0.983-  42 1.46  38 1.67  54 1.70  35 1.83  51 1.85  13 2.10  47 2.10   5 2.25
                             1 2.43   9 2.50  11 2.54  15 2.98
  18  0.738  0.732  0.533-  52 1.46  53 1.84   6 2.01  40 2.03  49 2.05  37 2.08  36 2.08  14 2.30
                             2 2.43  16 2.96  12 3.02
  19  0.073  0.180  0.122-   1 1.54  46 1.89  51 1.93   3 2.02   9 2.48
  20  0.239  0.084  0.448-   8 1.53  10 1.72   2 1.81  28 1.92
  21  0.124  0.261  0.635-   4 1.62   2 1.64  10 1.84
  22  0.237  0.119  0.944-   7 1.56   1 1.71  27 1.72   9 1.95
  23  0.136  0.555  0.098-   3 1.53  11 1.78  26 1.93   5 2.37
  24  0.237  0.442  0.447-   4 1.74  12 1.80  10 1.90
  25  0.090  0.552  0.647-   4 1.73  12 1.98   6 2.27
  26  0.253  0.470  0.946-  11 1.56   9 1.66   3 1.69  35 1.84  23 1.93
  27  0.136  0.966  0.097-   1 1.55  22 1.72   7 1.73   5 2.18
  28  0.230  0.840  0.418-   8 1.50   6 1.86  20 1.92  12 2.07
  29  0.095  0.913  0.639-   6 1.70   2 1.77   8 2.22
  30  0.250  0.811  0.953-  11 1.59   7 1.77   5 2.10
  31  0.462  0.245  0.122-   7 1.59   9 1.79  15 1.87
  32  0.585  0.100  0.417-   8 1.70  14 1.76  16 1.92
  33  0.465  0.212  0.596-  10 1.53   8 1.58  16 1.76
  34  0.598  0.138  0.954-  15 1.44  13 1.69   7 1.73  39 1.83
  35  0.455  0.584  0.082-   9 1.53  11 1.62  17 1.83  26 1.84
  36  0.583  0.466  0.423-  16 1.89  10 1.94  18 2.08
  37  0.466  0.602  0.636-  12 1.74  18 2.08  10 2.23
  38  0.575  0.487  0.934-   9 1.38  17 1.67  15 1.77
  39  0.491  0.977  0.118-   7 1.59  13 1.82  34 1.83  11 2.27
  40  0.603  0.855  0.420-  14 1.39  18 2.03  12 2.10
  41  0.463  0.921  0.600-   8 1.47  14 1.74  12 1.77
  42  0.583  0.821  0.940-  13 1.17  17 1.46  11 1.65
  43  0.846  0.237  0.078-   3 1.40  50 1.52  46 1.91  13 1.98  15 2.07
  44  0.943  0.107  0.460-   2 1.11  14 1.82   4 1.82  53 1.91
  45  0.825  0.235  0.634-   4 1.55  16 1.86  14 1.87
  46  0.925  0.105  0.940-   1 1.27  51 1.73  13 1.80  19 1.89  43 1.91   3 1.93
  47  0.806  0.575  0.104-   5 1.43  15 1.92  17 2.10
  48  0.941  0.461  0.422-   4 1.63  16 1.86   6 2.12
  49  0.807  0.548  0.644-  16 1.75   6 1.85  18 2.05
  50  0.887  0.387  0.955-   3 1.23  43 1.52  15 1.56   5 2.17
  51  0.822  0.950  0.093-   1 1.48  13 1.58  46 1.73  17 1.85  19 1.93
  52  0.916  0.816  0.443-   6 1.25  18 1.46   2 1.85
  53  0.840  0.959  0.642-   2 1.56  14 1.66  18 1.84  44 1.91
  54  0.929  0.836  0.938-   1 1.37   5 1.39  17 1.70

  LATTYP: Found a hexagonal cell.
 ALAT       =     7.9447265042
 C/A-ratio  =     1.1065328045

  Lattice vectors:

 A1 = (   7.9447265000,   0.0000000000,   0.0000000000)
 A2 = (  -3.9723632500,   6.8803349800,   0.0000000000)
 A3 = (   0.0000000000,   0.0000000000,   8.7911005000)

Analysis of symmetry for initial positions (statically):
 Subroutine PRICEL returns:
 Original cell was already a primitive cell.

 Routine SETGRP: Setting up the symmetry group for a
 hexagonal supercell.

 Subroutine GETGRP returns: Found  1 space group operations
 (whereof  1 operations were pure point group operations)
 out of a pool of 24 trial point group operations.

The static configuration has the point symmetry C_1 .

Analysis of symmetry for dynamics (positions and initial velocities):
 Subroutine PRICEL returns:
 Original cell was already a primitive cell.

[...]

The dynamic configuration has the point symmetry C_1 .

Analysis of structural, dynamic, and magnetic symmetry:
 Subroutine PRICEL returns:
 Original cell was already a primitive cell.

 Routine SETGRP: Setting up the symmetry group for a
 hexagonal supercell.

 Subroutine GETGRP returns: Found  1 space group operations
 (whereof  1 operations were pure point group operations)
 out of a pool of 24 trial point group operations.

The magnetic configuration has the point symmetry C_1 .

 Subroutine INISYM returns: Found  1 space group operations
 (whereof  1 operations are pure point group operations),
 and found     1 'primitive' translations

 KPOINTS: Automatic mesh

Automatic generation of k-mesh.
Space group operators:
 irot       det(A)        alpha          n_x          n_y          n_z        tau_x        tau_y        tau_z
    1     1.000000     0.000000     1.000000     0.000000     0.000000     0.000000     0.000000     0.000000

 Subroutine IBZKPT returns following result:

 Found     26 irreducible k-points:

 Following reciprocal coordinates:
            Coordinates               Weight
  0.000000  0.000000  0.000000      1.000000
  0.250000  0.000000  0.000000      2.000000
  0.500000  0.000000  0.000000      1.000000
  0.000000  0.250000  0.000000      2.000000
  0.250000  0.250000  0.000000      2.000000
  0.500000  0.250000  0.000000      2.000000
 -0.250000  0.250000  0.000000      2.000000
  0.000000  0.500000  0.000000      1.000000
  0.250000  0.500000  0.000000      2.000000
  0.500000  0.500000  0.000000      1.000000
  0.000000  0.000000  0.333333      2.000000
  0.250000  0.000000  0.333333      2.000000
  0.500000  0.000000  0.333333      2.000000
 -0.250000  0.000000  0.333333      2.000000
  0.000000  0.250000  0.333333      2.000000
  0.250000  0.250000  0.333333      2.000000
  0.500000  0.250000  0.333333      2.000000
 -0.250000  0.250000  0.333333      2.000000
  0.000000  0.500000  0.333333      2.000000
  0.250000  0.500000  0.333333      2.000000
  0.500000  0.500000  0.333333      2.000000
 -0.250000  0.500000  0.333333      2.000000
  0.000000 -0.250000  0.333333      2.000000
  0.250000 -0.250000  0.333333      2.000000
  0.500000 -0.250000  0.333333      2.000000
 -0.250000 -0.250000  0.333333      2.000000

 Following cartesian coordinates:
            Coordinates               Weight
  0.000000  0.000000  0.000000      1.000000
  0.031467  0.018168  0.000000      2.000000
  0.062935  0.036335  0.000000      1.000000
  0.000000  0.036335  0.000000      2.000000
  0.031467  0.054503  0.000000      2.000000
  0.062935  0.072671  0.000000      2.000000
 -0.031467  0.018168  0.000000      2.000000
  0.000000  0.072671  0.000000      1.000000
  0.031467  0.090839  0.000000      2.000000
  0.062935  0.109006  0.000000      1.000000
  0.000000  0.000000  0.037917      2.000000
  0.031467  0.018168  0.037917      2.000000
  0.062935  0.036335  0.037917      2.000000
 -0.031467 -0.018168  0.037917      2.000000
  0.000000  0.036335  0.037917      2.000000
  0.031467  0.054503  0.037917      2.000000
  0.062935  0.072671  0.037917      2.000000
 -0.031467  0.018168  0.037917      2.000000
  0.000000  0.072671  0.037917      2.000000
[...]
   -.314E+03 -.183E+03 -.465E+02   0.384E+03 0.185E+03 0.532E+02   -.722E+01 -.100E+01 0.185E-01   -.337E-02 0.201E-01 0.104E-01
   0.741E+01 -.258E+03 0.228E+03   -.509E+01 0.269E+03 -.232E+03   0.207E+01 -.446E+01 -.178E+00   0.266E-01 0.253E-01 0.769E-03
   -.436E+03 0.164E+03 0.375E+02   0.465E+03 -.172E+03 -.392E+02   -.494E+01 0.681E+00 -.104E+01   0.268E-01 -.730E-02 0.106E-01
   -.379E+03 0.388E+03 0.140E+03   0.430E+03 -.419E+03 -.116E+03   -.801E+01 0.348E+01 -.206E+01   0.241E-01 0.121E-01 -.122E-01
   0.104E+01 0.160E+03 -.587E+02   -.134E+01 -.171E+03 0.584E+02   0.265E+00 0.186E+01 -.921E+00   0.355E-01 -.321E-01 0.566E-02
   -.928E+01 0.423E+02 0.637E+02   0.764E+01 -.388E+02 -.636E+02   -.224E+01 0.138E+01 0.161E+01   -.175E-01 -.272E-01 -.484E-02
   0.132E+03 0.243E+03 -.138E+03   -.149E+03 -.270E+03 0.147E+03   -.567E+00 0.435E+01 -.102E+01   -.258E-01 0.170E-01 0.283E-02
   -.243E+02 -.370E+03 0.431E+02   0.167E+02 0.386E+03 -.471E+02   0.105E+00 -.345E+01 0.477E+00   -.257E-01 0.201E-02 0.715E-04
   0.224E+03 -.945E+02 -.185E+02   -.236E+03 0.101E+03 0.210E+02   0.676E+01 -.566E+00 0.289E+01   -.117E-01 0.109E-01 0.627E-02
   0.198E+02 0.101E+03 0.178E+03   -.186E+02 -.105E+03 -.177E+03   -.758E+00 0.282E+01 -.200E+01   -.200E-01 -.180E-01 -.218E-02
   0.240E+03 -.255E+03 -.590E+02   -.244E+03 0.336E+03 0.879E+02   0.364E+01 -.645E+01 -.745E+00   -.421E-01 -.912E-02 0.120E-01
   0.157E+03 -.285E+02 0.448E+01   -.162E+03 0.476E+02 0.117E+02   0.226E+01 0.503E+00 -.318E+01   0.510E-03 -.290E-02 0.965E-02
   0.103E+03 -.183E+03 0.226E+02   -.112E+03 0.198E+03 -.164E+02   0.178E+01 -.961E+00 0.848E+00   0.250E-01 -.282E-01 0.683E-02
   0.906E+02 -.106E+03 0.179E+03   -.910E+02 0.109E+03 -.182E+03   0.164E+00 -.255E+01 0.243E+00   0.795E-02 0.233E-02 -.269E-02
   -.111E+03 0.264E+03 -.349E+02   0.124E+03 -.279E+03 0.395E+02   -.230E+01 0.821E+01 0.119E+01   -.386E-01 0.111E-01 0.716E-02
   0.331E+03 0.442E+03 0.357E+02   -.357E+03 -.461E+03 -.250E+02   0.838E+01 0.643E+01 -.363E+01   0.142E-01 0.394E-02 -.419E-02
   -.101E+03 -.259E+03 -.583E+03   0.104E+03 0.278E+03 0.618E+03   -.148E+01 -.770E+01 -.245E+02   -.923E-02 0.147E-01 0.143E-01
   0.509E+02 -.802E+02 0.470E+03   -.653E+02 0.767E+02 -.505E+03   0.598E+01 0.986E+01 0.248E+02   -.422E-02 -.295E-02 -.109E-02
   -.150E+03 -.183E+03 -.413E+03   0.157E+03 0.193E+03 0.452E+03   -.213E+01 -.925E+01 -.300E+02   0.324E-02 0.132E-01 -.475E-02
   -.450E+02 -.114E+03 0.389E+03   0.373E+02 0.124E+03 -.419E+03   0.485E+01 -.163E+01 0.175E+02   0.120E-01 -.578E-02 -.772E-02
   0.664E+02 -.180E+03 -.529E+03   -.725E+02 0.201E+03 0.564E+03   0.471E+01 -.137E+02 -.269E+02   0.195E-01 0.131E-01 -.797E-02
   -.112E+03 -.117E+03 0.444E+03   0.120E+03 0.117E+03 -.470E+03   -.657E+01 0.151E+01 0.221E+02   -.508E-02 0.114E-01 0.741E-02
   -.623E+01 -.156E+03 -.287E+03   -.184E+01 0.166E+03 0.307E+03   0.957E+01 -.681E+01 -.199E+02   0.162E-01 0.871E-02 -.805E-02
   0.281E+02 0.836E+02 0.320E+03   -.305E+02 -.100E+03 -.348E+03   0.269E+01 0.882E+01 0.169E+02   -.187E-01 0.403E-01 0.667E-02
   -.164E+03 0.164E+03 -.532E+03   0.174E+03 -.179E+03 0.566E+03   -.259E+01 0.900E+01 -.216E+02   0.217E-01 -.630E-02 0.127E-01
   -.374E+02 0.249E+03 0.476E+03   0.336E+02 -.268E+03 -.512E+03   0.281E+01 0.633E+01 0.288E+02   -.285E-02 -.177E-01 0.462E-03
   -.197E+03 0.346E+02 -.422E+03   0.207E+03 -.299E+02 0.450E+03   -.713E+01 -.479E+01 -.230E+02   0.715E-02 -.848E-02 -.879E-02
   0.111E+03 0.456E+02 0.227E+03   -.129E+03 -.442E+02 -.240E+03   0.117E+02 0.727E+00 0.759E+01   0.362E-01 -.118E-01 0.862E-02
   0.108E+02 -.127E+03 -.558E+03   -.959E+01 0.137E+03 0.597E+03   -.614E+00 -.387E+01 -.332E+02   0.998E-02 -.168E-01 0.101E-01
   -.127E+02 -.114E+03 0.484E+03   0.176E+02 0.119E+03 -.517E+03   -.384E+01 -.519E+00 0.281E+02   -.917E-02 -.706E-02 -.181E-01
   -.693E+02 -.115E+03 -.368E+03   0.834E+02 0.117E+03 0.403E+03   -.641E+01 0.129E+01 -.246E+02   -.189E-01 -.570E-02 0.485E-02
   0.474E+02 0.779E+02 0.335E+03   -.430E+02 -.975E+02 -.358E+03   -.549E+01 0.735E+01 0.121E+02   0.839E-02 -.259E-01 0.120E-01
   0.267E+01 -.256E+02 -.621E+03   0.620E+00 0.388E+02 0.663E+03   -.634E+00 -.668E+01 -.293E+02   -.380E-01 0.284E-01 -.234E-02
   0.697E+02 -.723E+02 0.372E+03   -.749E+02 0.777E+02 -.391E+03   0.585E+01 -.549E+01 0.199E+02   -.142E-01 0.269E-02 -.667E-02
   -.603E+02 0.697E+02 -.200E+03   0.684E+02 -.754E+02 0.219E+03   -.599E+01 0.519E+01 -.177E+02   -.234E-01 -.180E-02 -.537E-02
   -.128E+03 0.635E+01 0.395E+03   0.158E+03 0.690E+01 -.434E+03   -.122E+02 -.501E+01 0.217E+02   -.668E-03 0.918E-02 -.804E-02
   -.142E+02 0.128E+03 -.532E+03   0.237E+02 -.135E+03 0.564E+03   -.505E+01 0.160E+01 -.241E+02   0.245E-02 -.135E-01 -.111E-01
   0.506E+02 0.302E+03 0.546E+03   -.576E+02 -.332E+03 -.593E+03   0.639E+01 0.980E+01 0.309E+02   -.137E-01 -.188E-01 -.121E-01
   -.162E+02 0.111E+03 -.406E+03   0.278E+02 -.117E+03 0.443E+03   -.353E+01 -.165E+01 -.255E+02   -.125E-01 -.249E-01 0.680E-02
   0.199E+03 0.215E+03 0.432E+03   -.224E+03 -.289E+03 -.498E+03   0.922E+01 0.112E+02 0.256E+02   -.384E-01 -.270E-02 0.780E-02
   0.152E+03 0.484E+02 -.577E+03   -.179E+03 -.854E+02 0.620E+03   0.121E+02 0.213E+02 -.244E+02   -.611E-02 -.778E-03 0.365E-02
   0.230E+03 -.164E+03 0.704E+03   -.321E+03 0.205E+03 -.811E+03   0.137E+02 -.569E+01 0.372E+02   0.846E-02 0.118E-01 -.547E-02
   0.172E+03 -.165E+02 -.362E+03   -.182E+03 0.857E+01 0.397E+03   0.188E+01 0.416E+01 -.299E+02   0.153E-01 0.643E-02 0.102E-01
   0.122E+03 -.242E+03 0.468E+03   -.168E+03 0.282E+03 -.517E+03   0.150E+02 -.164E+02 0.167E+02   -.223E-01 0.127E-01 -.825E-02
   0.348E+02 0.862E+02 -.593E+03   -.507E+02 -.103E+03 0.636E+03   0.771E+01 0.871E+01 -.312E+02   0.398E-02 -.592E-02 0.182E-01
   0.311E+02 -.117E+03 0.484E+03   -.332E+02 0.129E+03 -.513E+03   -.292E+01 -.103E+02 0.246E+02   0.198E-01 0.170E-01 -.489E-02
   0.569E+02 0.377E+02 -.303E+03   -.561E+02 -.384E+02 0.330E+03   -.228E+01 0.128E+01 -.254E+02   0.120E-01 0.162E-01 -.619E-03
   0.172E+03 -.212E+03 0.349E+03   -.227E+03 0.234E+03 -.405E+03   0.114E+02 -.113E+02 0.279E+02   0.155E-01 -.675E-02 0.800E-02
   0.823E+02 0.136E+03 -.703E+03   -.913E+02 -.141E+03 0.758E+03   0.241E+01 -.617E+01 -.361E+02   -.257E-01 0.191E-04 0.124E-01
   0.769E+02 -.102E+02 0.657E+03   -.106E+03 0.511E+02 -.726E+03   0.378E+01 -.145E+02 0.358E+02   0.236E-01 -.467E-02 0.154E-02
   0.895E+02 0.134E+03 -.460E+03   -.943E+02 -.141E+03 0.508E+03   0.878E+00 0.780E+00 -.366E+02   0.827E-02 0.682E-03 0.742E-02
   -.112E+03 0.125E+03 0.415E+03   0.109E+03 -.129E+03 -.464E+03   -.341E+01 -.476E+01 0.249E+02   0.243E-03 -.226E-03 -.101E-01
   -.499E+02 0.194E+02 0.676E+02   0.952E-12 0.625E-12 -.108E-11   0.499E+02 -.194E+02 -.677E+02   -.269E-01 0.847E-02 0.778E-01

 POSITION                                       TOTAL-FORCE (eV/Angst)
     -0.04677      0.10935      0.03267        36.001839      5.029584     15.632863
     -0.06448      0.39469      4.71717        84.611044    -33.776921     58.434853
     -1.29866      2.53573      0.05322        62.766769      0.836533      6.734081
     -1.28689      2.38698      4.70702         4.419810      6.476524     -3.983332
      4.83802      4.70317      8.72127        24.823808     -7.366190     -2.757448
      4.95180      5.01110      4.49827        43.185058    -27.611596     22.076864
      2.71688      0.35049      0.22542         0.000438     -9.823541     -1.231727
      2.89662      0.06661      4.49837        -3.891922      4.853709      1.646135
      1.61415      2.67656      0.05303       -17.770402    -23.393706      8.606697
      1.55799      2.09516      4.73961        -7.513789     12.448318     -3.463491
      0.07840      4.73955      8.71948        -5.158010      5.577021      5.389637
     -0.04467      4.68311      4.65196         0.427316     -1.793302     -0.547098
      1.45991      6.71941      8.71843        -0.566468     74.813359     28.163965
      1.55591      6.87139      4.65602        -2.195806     19.657705     12.983584
      4.00381      2.33490      8.69157        -6.824483     14.291332      7.052919
      4.22202      2.36695      4.60515        -0.285581      0.686377     -1.998455
      2.60743      4.96208      8.64339        10.509051     -7.487815      5.731896
      2.95259      5.03842      4.68460       -17.422175    -12.354450      7.120265
     -0.13486      1.23640      1.07190         1.631886     11.080647      9.704130
      1.56286      0.57760      3.93788        -8.349571      6.335846     -9.459281
     -0.05038      1.79508      5.57847         4.802180      1.065442      8.670253
      1.41317      0.81613      8.29561        -2.829492      8.237159    -12.068532
     -1.12195      3.82015      0.86537        -1.387026      7.851672      8.017640
      0.12370      3.04237      3.92666         1.512309      1.726893     -3.213569
     -1.48183      3.80134      5.69039         1.522227      3.500085      0.559992
      0.14146      3.23600      8.31559         0.279183     -7.560591    -10.761656
     -2.75258      6.64550      0.85697         7.697015     -6.113606     13.120339
     -1.51086      5.77638      3.67297        -1.093334    -13.532827     -7.566798
     -2.87186      6.28272      5.61562         2.832486     -0.007479      5.038270
     -1.23279      5.57671      8.37833        -5.997602      2.103762     -5.156312
      2.69828      1.68867      1.07588         0.561311      6.426501      5.668791
      4.24542      0.69099      3.66763         1.050932      4.475086     -4.429997
      2.85463      1.45722      5.24196         7.634128      3.134992     10.697443
      4.20756      0.94739      8.38516        -1.070590    -12.273346    -11.692880
      1.29726      4.01653      0.71755         2.621719      6.573360     12.386923
      2.78225      3.20521      3.71843         0.598486     -0.078716      0.194716
      1.31266      4.14260      5.58785         2.130680     -0.514305      0.784611
      2.63236      3.34998      8.20794        17.771061      8.248292    -17.357387
      0.01684      6.72346      1.03903         4.433389     -5.311682      8.069357
      1.39090      5.88247      3.69658        -0.637160    -20.068424    -16.421326
      0.01745      6.33541      5.27470         8.106389     -7.614369     11.852088
      1.37285      5.65028      8.25963       -15.474380    -62.682267    -40.328603
      5.77972      1.63232      0.69002       -14.976745    -15.733451     19.111270
      7.06557      0.73753      4.04284       -77.163031     34.815289    -69.484783
      5.61831      1.61720      5.56954        -8.207529     -3.766265      5.622138
      6.93613      0.72172      8.26279       -31.501159     23.608993    -32.360419
      4.11637      3.95683      0.91362        -8.167134     -7.869488     12.252321
      5.64313      3.17242      3.70560        -4.951047      1.466622     -3.976514
      4.23474      3.76878      5.66039        -1.554977      0.600269      1.563803
      5.50442      2.66530      8.39896       -44.094751     10.957340    -28.204415
      2.75604      6.53767      0.81547        -6.672251    -11.214305     19.653208
      4.03212      5.61592      3.89751       -25.584937     26.403787    -33.411265
      2.86088      6.59829      5.64709        -3.973064     -6.481710     10.933354
      4.06069      5.75043      8.24487        -6.616101     -8.852148    -23.599116
    total drift:                               -0.025211     -0.005767     -0.005658

  FREE ENERGIE OF THE ION-ELECTRON SYSTEM (eV)
  free  energy   TOTEN  =      -180.7815220052 eV

  energy  without entropy=     -180.7511504678  energy(sigma->0) =     -180.76633624

volume of typ            1:    23.9 %

volume of typ            2:    12.2 %

total charge

# of ion       s       p       d       tot
    1        0.698   1.441   8.472  10.611
    2        0.623   1.112   8.477  10.213
    3        0.621   1.063   8.424  10.109
    4        0.445   0.765   8.036   9.245
    5        0.490   0.660   8.208   9.358
    6        0.478   0.729   8.204   9.411
    7        0.448   0.789   8.059   9.296
    8        0.525   0.979   8.158   9.662
    9        0.483   0.750   8.161   9.394
   10        0.356   0.515   7.964   8.835
   11        0.438   0.707   8.084   9.229
   12        0.302   0.390   7.881   8.572
   13        0.584   0.985   8.399   9.967
   14        0.469   0.753   8.125   9.347
   15        0.420   0.660   8.148   9.229
   16        0.320   0.459   7.882   8.661
   17        0.417   0.631   8.195   9.243
   18        0.343   0.497   8.097   8.937
   19        1.320   2.780   0.016   4.116
   20        1.290   2.904   0.023   4.217
   21        1.290   2.865   0.020   4.175
   22        1.281   2.899   0.021   4.201
   23        1.304   2.812   0.018   4.134
   24        1.278   2.793   0.011   4.082
   25        1.300   2.703   0.008   4.011
   26        1.284   2.930   0.026   4.240
   27        1.309   2.847   0.021   4.176
   28        1.293   2.833   0.019   4.145
   29        1.292   2.796   0.011   4.099
   30        1.271   2.853   0.014   4.137
   31        1.292   2.831   0.017   4.140
   32        1.300   2.777   0.013   4.090
   33        1.276   2.947   0.027   4.250
   34        1.291   2.965   0.034   4.290
   35        1.303   2.902   0.027   4.232
   36        1.290   2.692   0.006   3.988
   37        1.282   2.718   0.006   4.006
   38        1.290   2.981   0.039   4.310
   39        1.305   2.792   0.015   4.112
   40        1.307   2.847   0.027   4.182
   41        1.286   2.923   0.025   4.234
   42        1.321   3.177   0.089   4.586
   43        1.336   2.874   0.037   4.247
   44        1.333   3.110   0.073   4.515
   45        1.282   2.858   0.017   4.157
   46        1.328   3.028   0.048   4.404
   47        1.300   2.844   0.024   4.168
   48        1.284   2.782   0.012   4.077
   49        1.290   2.734   0.010   4.034
   50        1.318   3.046   0.067   4.430
   51        1.314   2.950   0.035   4.299
   52        1.326   3.061   0.067   4.455
   53        1.288   2.897   0.023   4.208
   54        1.299   3.108   0.057   4.464
tot          55.21  117.74  147.98  320.93

magnetization (x)

# of ion       s       p       d       tot
    1        0.000   0.001   0.060   0.061
    2        0.000  -0.000  -0.030  -0.030
    3       -0.000  -0.001  -0.004  -0.005
    4        0.000   0.000   0.009   0.009
    5       -0.000   0.001  -0.016  -0.016
    6        0.000   0.002  -0.010  -0.008
    7       -0.000   0.000   0.013   0.013
    8        0.000  -0.000  -0.005  -0.005
    9       -0.000  -0.000  -0.018  -0.018
   10        0.001   0.001  -0.015  -0.014
   11        0.001   0.001  -0.006  -0.005
   12        0.000   0.001  -0.008  -0.007
   13       -0.000  -0.001   0.075   0.074
   14       -0.001  -0.002  -0.068  -0.071
   15       -0.000  -0.000   0.008   0.007
   16        0.001  -0.001  -0.041  -0.041
   17        0.000   0.000   0.016   0.016
   18        0.001   0.001  -0.393  -0.391
   19        0.000   0.017  -0.000   0.017
   20       -0.000  -0.006  -0.000  -0.006
   21       -0.000   0.002  -0.000   0.002
   22        0.000   0.005  -0.000   0.005
   23       -0.000   0.000  -0.000   0.000
   24       -0.000  -0.001   0.000  -0.001
   25       -0.000   0.004  -0.000   0.004
   26       -0.002  -0.008  -0.000  -0.009
   27        0.001   0.049   0.000   0.050
   28        0.000   0.007  -0.000   0.007
   29       -0.000  -0.004  -0.000  -0.004
   30       -0.000  -0.003   0.000  -0.004
   31       -0.000  -0.002  -0.000  -0.003
   32       -0.004  -0.026  -0.000  -0.030
   33       -0.000   0.002  -0.000   0.002
   34        0.000   0.004   0.000   0.005
   35       -0.000  -0.003   0.000  -0.003
   36       -0.004  -0.117  -0.000  -0.122
   37       -0.000  -0.020   0.000  -0.021
   38        0.000  -0.009   0.000  -0.009
   39        0.000   0.009   0.000   0.009
   40       -0.003  -0.108  -0.000  -0.110
   41       -0.000  -0.000  -0.000  -0.001
   42        0.001   0.018   0.000   0.019
   43        0.001   0.036   0.000   0.036
   44       -0.000  -0.013  -0.000  -0.014
   45       -0.001  -0.003  -0.000  -0.004
   46        0.005   0.120   0.000   0.125
   47       -0.000  -0.011  -0.000  -0.012
   48        0.000  -0.001   0.000  -0.001
   49       -0.003  -0.094  -0.000  -0.097
   50        0.000  -0.004  -0.000  -0.004
   51        0.001   0.013   0.000   0.015
   52       -0.000  -0.009   0.000  -0.009
   53       -0.002  -0.043  -0.000  -0.045
   54       -0.000   0.002   0.000   0.002
tot          -0.01   -0.20   -0.43   -0.64