 vasp.5.4.4.18Apr17-6-g9f103f2a35 (build May 12 2020 05:39:39) gamma-only

 MD_VERSION_INFO: Compiled 2020-05-12T12:39:39-UTC in devlin.sd.materialsdesign.
 com:/home/medea2/data/build/wwolf/vasp-gpu5.4.4/13047/x86_64/src/src/build/gam
 from svn 13047

 executed on                        Lin64 date 2023.02.09  14:04:33

 INCAR:
 POTCAR:    PAW_PBE Li_sv 10Sep2004
 POTCAR:    PAW_PBE Ni 02Aug2007
 POTCAR:    PAW_PBE O 08Apr2002

 POTCAR:    PAW_PBE Li_sv 10Sep2004

 POTCAR:    PAW_PBE Ni 02Aug2007

 POTCAR:    PAW_PBE O 08Apr2002

 Optimization of the real space projectors (new method)

 maximal supplied QI-value         = 22.11
 optimisation between [QCUT,QGAM] = [ 11.28, 22.77] = [ 35.61,145.23] Ry
 Optimized for a Real-space Cutoff    1.10 Angstroem

   l    n(q)    QCUT    max X(q) W(low)/X(q) W(high)/X(q)  e(spline)
   0      7    11.276    10.506    0.54E-04    0.58E-04    0.16E-07
   0      7    11.276     8.367    0.11E-03    0.14E-03    0.35E-07
   1      7    11.276     8.983    0.23E-03    0.43E-03    0.86E-07
 Optimization of the real space projectors (new method)

[...]

   l    n(q)    QCUT    max X(q) W(low)/X(q) W(high)/X(q)  e(spline)
   2      9    11.376    60.317    0.17E-03    0.16E-04    0.16E-06
   2      9    11.376    55.921    0.17E-03    0.16E-04    0.17E-06
   0     10    11.376    51.690    0.45E-04    0.60E-04    0.21E-06
   0     10    11.376    30.015    0.37E-04    0.55E-04    0.19E-06
   1     10    11.376    18.849    0.83E-04    0.11E-03    0.92E-07
   1     10    11.376    14.624    0.69E-04    0.92E-04    0.82E-07
 Optimization of the real space projectors (new method)

 maximal supplied QI-value         = 24.76
 optimisation between [QCUT,QGAM] = [ 11.39, 22.77] = [ 36.31,145.25] Ry
 Optimized for a Real-space Cutoff    1.10 Angstroem

   l    n(q)    QCUT    max X(q) W(low)/X(q) W(high)/X(q)  e(spline)
   0      7    11.387    20.381    0.22E-03    0.48E-03    0.18E-06
   0      7    11.387    15.268    0.22E-03    0.52E-03    0.19E-06
   1      7    11.387     5.964    0.22E-03    0.73E-03    0.24E-06
   1      7    11.387     5.382    0.19E-03    0.60E-03    0.21E-06

  PAW_PBE Li_sv 10Sep2004               :
  PAW_PBE Ni 02Aug2007                  :
  PAW_PBE O 08Apr2002                   :

 POSCAR: ce11_1
  positions in direct lattice
 exchange correlation table for  LEXCH =       14
   RHO(1)=    0.500       N(1)  =     2000
   RHO(2)=  100.500       N(2)  =     4000

 ion  position               nearest neighbor table
   1  0.000  0.500  0.115-  34 1.92  31 1.92  37 1.92  41 2.03
   2  0.667  0.833  0.456-  35 1.94  32 1.94  38 1.94  39 1.99
   3  0.333  0.167  0.790-  40 1.93  36 1.94  30 1.94  33 1.94
   4  0.667  0.833  0.213-  19 1.93  25 1.93  22 1.93  28 1.98
   5  0.333  0.167  0.546-  23 1.94  20 1.94  26 1.94  29 1.98
   6  0.332  0.666  0.668-  27 1.87  26 1.88  23 1.88  39 1.88  33 1.89  36 1.89  15 2.82  17 2.82
                             9 2.85  12 2.85  12 2.87   9 2.87
   7  0.999  0.999  0.999-  24 1.86  21 1.86  37 1.88  34 1.88  28 1.89  40 1.89  15 2.76  16 2.81
                            10 2.85  13 2.85  13 2.87  10 2.87
   8  0.667  0.333  0.333-  22 1.88  25 1.88  38 1.88  35 1.88  29 1.89  41 1.89  17 2.80  16 2.80
                            11 2.86  14 2.86  11 2.86  14 2.86
   9  0.834  0.666  0.668-  27 1.87  26 1.88  20 1.88  39 1.88  30 1.89  36 1.89  15 2.82  17 2.82
                             6 2.85  12 2.85  12 2.87   6 2.87
  10  0.501  0.999  0.999-  18 1.86  24 1.86  31 1.88  37 1.88  28 1.89  40 1.89  15 2.76  16 2.81
                             7 2.85  13 2.85  13 2.87   7 2.87
  11  0.167  0.333  0.333-  19 1.88  25 1.88  32 1.88  38 1.88  29 1.89  41 1.89  17 2.80  16 2.80
                             8 2.86  14 2.86   8 2.86  14 2.86
  12  0.834  0.168  0.668-  27 1.87  20 1.88  23 1.88  39 1.88  33 1.89  30 1.89  15 2.82  17 2.82
                             6 2.85   9 2.85   9 2.87   6 2.87
  13  0.501  0.501  0.999-  18 1.86  21 1.86  31 1.88  34 1.88  28 1.89  40 1.89  15 2.76  16 2.81
                             7 2.85  10 2.85  10 2.87   7 2.87
  14  0.167  0.833  0.333-  22 1.88  19 1.88  32 1.88  35 1.88  29 1.89  41 1.89  17 2.80  16 2.80
                             8 2.86  11 2.86   8 2.86  11 2.86
  15  0.667  0.833  0.836-  18 1.88  24 1.88  21 1.88  30 1.90  36 1.90  33 1.90  10 2.76   7 2.76
                            13 2.76   9 2.82  12 2.82   6 2.82
  16  0.333  0.167  0.166-  31 1.91  34 1.91  37 1.91  22 1.91  25 1.91  19 1.91  11 2.80  14 2.80
                             8 2.80  13 2.81   7 2.81  10 2.81
  17  0.000  0.500  0.499-  32 1.91  35 1.91  38 1.91  26 1.91  20 1.91  23 1.91   8 2.80  14 2.80
                            11 2.80  12 2.82   6 2.82   9 2.82
  18  0.375  0.687  0.924-  13 1.86  10 1.86  15 1.88
  19  0.038  0.019  0.257-  11 1.88  14 1.88  16 1.91   4 1.93
  20  0.705  0.353  0.590-  12 1.88   9 1.88  17 1.91   5 1.94
  21  0.813  0.687  0.924-   7 1.86  13 1.86  15 1.88
  22  0.481  0.019  0.257-   8 1.88  14 1.88  16 1.91   4 1.93
  23  0.147  0.353  0.590-   6 1.88  12 1.88  17 1.91   5 1.94
  24  0.813  0.125  0.924-   7 1.86  10 1.86  15 1.88
  25  0.481  0.462  0.257-  11 1.88   8 1.88  16 1.91   4 1.93
  26  0.147  0.795  0.590-   6 1.88   9 1.88  17 1.91   5 1.94
  27  0.000  0.500  0.733-   6 1.87  12 1.87   9 1.87
  28  0.667  0.833  0.068-  10 1.89   7 1.89  13 1.89   4 1.98
  29  0.333  0.167  0.401-  11 1.89   8 1.89  14 1.89   5 1.98
  30  0.960  0.980  0.746-   9 1.89  12 1.89  15 1.90   3 1.94
  31  0.627  0.314  0.075-  13 1.88  10 1.88  16 1.91   1 1.92
  32  0.296  0.648  0.409-  14 1.88  11 1.88  17 1.91   2 1.94
  33  0.520  0.980  0.746-   6 1.89  12 1.89  15 1.90   3 1.94
  34  0.186  0.314  0.075-  13 1.88   7 1.88  16 1.91   1 1.92
  35  0.852  0.648  0.409-   8 1.88  14 1.88  17 1.91   2 1.94
  36  0.520  0.540  0.746-   9 1.89   6 1.89  15 1.90   3 1.94
  37  0.186  0.873  0.075-   7 1.88  10 1.88  16 1.91   1 1.92
  38  0.852  0.204  0.409-   8 1.88  11 1.88  17 1.91   2 1.94
  39  0.667  0.833  0.602-   9 1.88   6 1.88  12 1.88   2 1.99
  40  0.333  0.167  0.932-   7 1.89  13 1.89  10 1.89   3 1.93
  41  0.000  0.500  0.265-   8 1.89  14 1.89  11 1.89   1 2.03

  LATTYP: Found a hexagonal cell.
 ALAT       =     5.7175404878
 C/A-ratio  =     2.3749238827

  Lattice vectors:

 A1 = (   0.0000000000,   4.0429116506,   4.0429116506)
 A2 = (   4.0429116506,  -4.0429116506,   0.0000000000)
 A3 = (   7.8396796418,   7.8396796418,  -7.8396796418)

Analysis of symmetry for initial positions (statically):
 Subroutine PRICEL returns:
 Original cell was already a primitive cell.

 Routine SETGRP: Setting up the symmetry group for a
 hexagonal supercell.

 Subroutine GETGRP returns: Found  6 space group operations
 (whereof  2 operations were pure point group operations)
 out of a pool of 24 trial point group operations.

The static configuration has the point symmetry C_1h.
 The point group associated with its full space group is C_3v.

Analysis of symmetry for dynamics (positions and initial velocities):
 Subroutine PRICEL returns:
 Original cell was already a primitive cell.

[...]

The dynamic configuration has the point symmetry C_1h.
 The point group associated with its full space group is C_3v.

Analysis of structural, dynamic, and magnetic symmetry:
 Subroutine PRICEL returns:
 Original cell was already a primitive cell.

 Routine SETGRP: Setting up the symmetry group for a
 hexagonal supercell.

 Subroutine GETGRP returns: Found  6 space group operations
 (whereof  2 operations were pure point group operations)
 out of a pool of 24 trial point group operations.

The magnetic configuration has the point symmetry C_1h.
 The point group associated with its full space group is C_3v.

 Subroutine INISYM returns: Found  6 space group operations
 (whereof  2 operations are pure point group operations),
 and found     1 'primitive' translations

 KPOINTS: Automatic mesh

Automatic generation of k-mesh.
Space group operators:
 irot       det(A)        alpha          n_x          n_y          n_z        tau_x        tau_y        tau_z
    1     1.000000     0.000000     1.000000     0.000000     0.000000     0.000000     0.000000     0.000000
    2    -1.000000   180.000000     0.707107    -0.707107    -0.000000     0.000000     0.000000     0.000000
    3     1.000000   120.000000    -0.577350    -0.577350     0.577350     0.500000     0.000000     0.000000
    4     1.000000   120.000000     0.577350     0.577350    -0.577350     0.500000     0.500000     0.000000
    5    -1.000000   180.000000    -0.000000     0.707107     0.707107     0.500000     0.000000     0.000000
    6    -1.000000   180.000000     0.707107     0.000000     0.707107     0.500000     0.500000     0.000000

 Subroutine IBZKPT returns following result:

 Found      1 irreducible k-points:

 Following reciprocal coordinates:
            Coordinates               Weight
  0.000000  0.000000  0.000000      1.000000

 Following cartesian coordinates:
            Coordinates               Weight
  0.000000  0.000000  0.000000      1.000000

 SYSTEM =  unknown system
 POSCAR =  ce11_1

 Startparameter for this run:
   NWRITE =      1    write-flag & timer
   PREC   = accura    normal or accurate (medium, high low for compatibility)
   ISTART =      0    job   : 0-new  1-cont  2-samecut
   ICHARG =      2    charge: 1-file 2-atom 10-const
   ISPIN  =      2    spin polarized calculation?
   LNONCOLLINEAR =      F non collinear calculations
   LSORBIT =      F    spin-orbit coupling
   INIWAV =      1    electr: 0-lowe 1-rand  2-diag
   LASPH  =      F    aspherical Exc in radial PAW
   METAGGA=      F    non-selfconsistent MetaGGA calc.

 Electronic Relaxation 1
   ENCUT  =  500.0 eV  36.75 Ry    6.06 a.u.  10.42 10.42 24.76*2*pi/ulx,y,z
   ENINI  =  500.0     initial cutoff
   ENAUG  =  628.9 eV  augmentation charge cutoff
   NELM   =     80;   NELMIN=  2; NELMDL= -5     # of ELM steps
   EDIFF  = 0.1E-04   stopping-criterion for ELM
   LREAL  =      T    real-space projection
   NLSPLINE    = F    spline interpolate recip. space projectors
   LCOMPAT=      F    compatible to vasp.4.4
   GGA_COMPAT  = T    GGA compatible to vasp.4.4-vasp.4.6
   LMAXPAW     = -100 max onsite density
   LMAXMIX     =    2 max onsite mixed and CHGCAR
   VOSKOWN=      1    Vosko Wilk Nusair interpolation
   ROPT   =   -0.00025  -0.00025  -0.00025
 Ionic relaxation
   EDIFFG = -.2E-01   stopping-criterion for IOM
   NSW    =     20    number of steps for IOM
   NBLOCK =      1;   KBLOCK =     20    inner block; outer block
   IBRION =      1    ionic relax: 0-MD 1-quasi-New 2-CG
   NFREE  =      0    steps in history (QN), initial steepest desc. (CG)
   ISIF   =      3    stress and relaxation
   IWAVPR =     11    prediction:  0-non 1-charg 2-wave 3-comb
   ISYM   =      2    0-nonsym 1-usesym 2-fastsym
   LCORR  =      T    Harris-Foulkes like correction to forces

   POTIM  = 0.5000    time-step for ionic-motion
   TEIN   =    0.0    initial temperature
   TEBEG  =    0.0;   TEEND  =   0.0 temperature during run
   SMASS  =  -3.00    Nose mass-parameter (am)
[...]
     42      -1.6401      1.00000
     43      -1.6401      1.00000
     44      -1.5206      1.00000
     45      -1.5206      1.00000
     46      -1.5006      1.00000
     47      -1.5006      1.00000
     48      -1.4202      1.00000
     49      -1.4202      1.00000
     50      -1.3943      1.00000
     51      -1.3943      1.00000
     52      -1.3515      1.00000
     53      -1.3515      1.00000
     54      -1.1045      1.00000
     55      -1.0543      1.00000
     56      -1.0489      1.00000
     57      -0.9178      1.00000
     58      -0.8857      1.00000
     59      -0.7722      1.00000
     60      -0.6767      1.00000
[...]
    178      15.2191      0.00000
    179      15.2912      0.00000
    180      15.2912      0.00000
    181      15.7426      0.00000
    182      15.7426      0.00000
    183      16.7370      0.00000
    184      16.8653      0.00000
    185      17.0566      0.00000
    186      17.4064      0.00000
    187      17.4868      0.00000
    188      17.4868      0.00000
    189      17.6305      0.00000
    190      17.6305      0.00000
    191      17.7738      0.00000
    192      17.8114      0.00000

[...]

 soft charge-density along one line, spin component           2
         0         1         2         3         4         5         6         7         8         9
 total charge-density along one line

------------------------ aborting loop because EDIFF is reached ----------------------------------------

  FORCE on cell =-STRESS in cart. coord.  units (eV):
  Direction    XX          YY          ZZ          XY          YZ          ZX
  Alpha Z   876.24495   876.24495   876.24495
  Ewald   -5562.31927 -5562.31924 -5562.31927  -175.65463   175.65463   175.65466
  Hartree  2671.35059  2671.35059  2671.35059  -100.91773   100.91773   100.91774
  E(xc)   -1420.86764 -1420.86760 -1420.86764    -0.12610     0.12610     0.12606
  Local   -2482.71200 -2482.71115 -2482.71200   264.33603  -264.33603  -264.33694
  n-local  -692.71549  -692.71552  -692.71549    -1.37432     1.37432     1.37431
  augment  2344.53224  2344.53187  2344.53224     6.25468    -6.25468    -6.25433
  Kinetic  4266.79204  4266.79202  4266.79204     7.51510    -7.51509    -7.51511
  Fock        0.00000     0.00000     0.00000     0.00000     0.00000     0.00000
  Total        0.3055759      0.3055759      0.3055759      0.0332218     -0.0332218     -0.0332218
  in kB        1.2747936      1.2747936      1.2747936      0.1385940     -0.1385940     -0.1385940

 VOLUME and BASIS-vectors are now :
  energy-cutoff  :      500.00
  volume of cell :      384.05
      direct lattice vectors                 reciprocal lattice vectors
     0.000000000  4.043537747  4.043537747     0.082436063  0.082436063  0.164872126
     4.043537747 -4.043537747  0.000000000     0.164872126 -0.082436063  0.082436063
     7.829706732  7.829706732 -7.829706732     0.042572901  0.042572901 -0.042572901

  length of vectors
     5.718425922  5.718425922 13.561449868     0.201926291  0.201926291  0.073738428

 FORCES acting on ions
    electron-ion (+dipol)            ewald-force                    non-local-force                 convergence-correction
   0.223E+01 0.223E+01 -.223E+01   -.221E+01 -.221E+01 0.221E+01   0.115E-02 0.115E-02 -.115E-02   -.181E-01 -.181E-01 0.181E-01
   -.658E+01 -.658E+01 0.658E+01   0.656E+01 0.656E+01 -.656E+01   0.204E-02 0.204E-02 -.204E-02   0.143E-02 0.143E-02 -.143E-02
   -.613E+00 -.613E+00 0.613E+00   0.962E+00 0.962E+00 -.962E+00   -.371E+00 -.371E+00 0.371E+00   0.180E-01 0.180E-01 -.180E-01
   0.534E+01 0.534E+01 -.534E+01   -.542E+01 -.542E+01 0.542E+01   0.105E+00 0.105E+00 -.105E+00   -.253E-01 -.253E-01 0.253E-01
   -.240E+01 -.240E+01 0.240E+01   0.226E+01 0.226E+01 -.226E+01   0.127E+00 0.127E+00 -.127E+00   0.183E-01 0.183E-01 -.183E-01
   -.187E+02 -.187E+02 0.218E+02   0.187E+02 0.187E+02 -.220E+02   -.144E+00 -.144E+00 0.225E+00   0.136E+00 0.136E+00 -.101E+00
   0.137E+02 0.137E+02 -.284E+02   -.134E+02 -.134E+02 0.290E+02   -.221E+00 -.221E+00 -.551E+00   -.264E-01 -.264E-01 0.267E-01
   -.176E+01 -.176E+01 0.304E+00   0.187E+01 0.187E+01 -.352E+00   0.198E-01 0.198E-01 -.185E-01   -.122E+00 -.122E+00 0.624E-01
   -.187E+02 -.218E+02 0.187E+02   0.187E+02 0.220E+02 -.187E+02   -.144E+00 -.225E+00 0.144E+00   0.136E+00 0.101E+00 -.136E+00
   0.137E+02 0.284E+02 -.137E+02   -.134E+02 -.290E+02 0.134E+02   -.221E+00 0.551E+00 0.221E+00   -.264E-01 -.267E-01 0.264E-01
   -.176E+01 -.304E+00 0.176E+01   0.187E+01 0.352E+00 -.187E+01   0.198E-01 0.185E-01 -.198E-01   -.122E+00 -.624E-01 0.122E+00
   -.218E+02 -.187E+02 0.187E+02   0.220E+02 0.187E+02 -.187E+02   -.225E+00 -.144E+00 0.144E+00   0.101E+00 0.136E+00 -.136E+00
   0.284E+02 0.137E+02 -.137E+02   -.290E+02 -.134E+02 0.134E+02   0.551E+00 -.221E+00 0.221E+00   -.267E-01 -.264E-01 0.264E-01
   -.304E+00 -.176E+01 0.176E+01   0.352E+00 0.187E+01 -.187E+01   0.185E-01 0.198E-01 -.198E-01   -.624E-01 -.122E+00 0.122E+00
   0.105E+02 0.105E+02 -.105E+02   -.111E+02 -.111E+02 0.111E+02   0.514E+00 0.514E+00 -.514E+00   0.383E-01 0.383E-01 -.383E-01
   0.117E+02 0.117E+02 -.117E+02   -.117E+02 -.117E+02 0.117E+02   0.754E-01 0.754E-01 -.754E-01   -.718E-01 -.718E-01 0.718E-01
   -.150E+02 -.150E+02 0.150E+02   0.152E+02 0.152E+02 -.152E+02   -.215E+00 -.215E+00 0.215E+00   0.458E-01 0.458E-01 -.458E-01
   0.217E+03 0.217E+03 0.210E+03   -.232E+03 -.232E+03 -.225E+03   0.147E+02 0.147E+02 0.155E+02   -.690E-04 -.692E-04 0.195E-01
   0.185E+03 0.185E+03 0.171E+03   -.194E+03 -.194E+03 -.179E+03   0.911E+01 0.911E+01 0.858E+01   -.631E-01 -.631E-01 0.867E-01
   0.171E+03 0.171E+03 0.184E+03   -.180E+03 -.180E+03 -.192E+03   0.891E+01 0.891E+01 0.784E+01   0.565E-01 0.565E-01 -.139E+00
   0.217E+03 -.210E+03 -.217E+03   -.232E+03 0.225E+03 0.232E+03   0.147E+02 -.155E+02 -.147E+02   -.692E-04 -.195E-01 0.692E-04
   0.185E+03 -.171E+03 -.185E+03   -.194E+03 0.179E+03 0.194E+03   0.911E+01 -.858E+01 -.911E+01   -.631E-01 -.867E-01 0.631E-01
   0.171E+03 -.184E+03 -.171E+03   -.180E+03 0.192E+03 0.180E+03   0.891E+01 -.784E+01 -.891E+01   0.565E-01 0.139E+00 -.565E-01
   -.210E+03 0.217E+03 -.217E+03   0.225E+03 -.232E+03 0.232E+03   -.155E+02 0.147E+02 -.147E+02   -.195E-01 -.692E-04 0.690E-04
   -.171E+03 0.185E+03 -.185E+03   0.179E+03 -.194E+03 0.194E+03   -.858E+01 0.911E+01 -.911E+01   -.867E-01 -.631E-01 0.631E-01
   -.184E+03 0.171E+03 -.171E+03   0.192E+03 -.180E+03 0.180E+03   -.784E+01 0.891E+01 -.891E+01   0.139E+00 0.565E-01 -.565E-01
   -.217E+03 -.217E+03 0.217E+03   0.229E+03 0.229E+03 -.229E+03   -.129E+02 -.129E+02 0.129E+02   0.558E-01 0.558E-01 -.558E-01
   -.176E+03 -.176E+03 0.176E+03   0.183E+03 0.183E+03 -.183E+03   -.728E+01 -.728E+01 0.728E+01   -.256E-01 -.256E-01 0.256E-01
   -.188E+03 -.188E+03 0.188E+03   0.195E+03 0.195E+03 -.195E+03   -.709E+01 -.709E+01 0.709E+01   -.207E-01 -.207E-01 0.207E-01
   -.187E+03 -.187E+03 -.173E+03   0.197E+03 0.197E+03 0.182E+03   -.920E+01 -.920E+01 -.888E+01   0.410E-01 0.410E-01 -.766E-01
   -.170E+03 -.170E+03 -.194E+03   0.179E+03 0.179E+03 0.203E+03   -.916E+01 -.916E+01 -.899E+01   -.257E-01 -.257E-01 -.238E-02
   -.187E+03 -.187E+03 -.169E+03   0.196E+03 0.196E+03 0.178E+03   -.917E+01 -.917E+01 -.873E+01   -.102E-01 -.102E-01 0.111E+00
   -.187E+03 0.173E+03 0.187E+03   0.197E+03 -.182E+03 -.197E+03   -.920E+01 0.888E+01 0.920E+01   0.410E-01 0.766E-01 -.410E-01
   -.170E+03 0.194E+03 0.170E+03   0.179E+03 -.203E+03 -.179E+03   -.916E+01 0.899E+01 0.916E+01   -.257E-01 0.238E-02 0.257E-01
   -.187E+03 0.169E+03 0.187E+03   0.196E+03 -.178E+03 -.196E+03   -.917E+01 0.873E+01 0.917E+01   -.102E-01 -.111E+00 0.102E-01
   0.173E+03 -.187E+03 0.187E+03   -.182E+03 0.197E+03 -.197E+03   0.888E+01 -.920E+01 0.920E+01   0.766E-01 0.410E-01 -.410E-01
   0.194E+03 -.170E+03 0.170E+03   -.203E+03 0.179E+03 -.179E+03   0.899E+01 -.916E+01 0.916E+01   0.238E-02 -.257E-01 0.257E-01
   0.169E+03 -.187E+03 0.187E+03   -.178E+03 0.196E+03 -.196E+03   0.873E+01 -.917E+01 0.917E+01   -.111E+00 -.102E-01 0.102E-01
   0.174E+03 0.174E+03 -.174E+03   -.182E+03 -.182E+03 0.182E+03   0.782E+01 0.782E+01 -.782E+01   0.638E-01 0.638E-01 -.638E-01
   0.189E+03 0.189E+03 -.189E+03   -.197E+03 -.197E+03 0.197E+03   0.723E+01 0.723E+01 -.723E+01   0.653E-03 0.653E-03 -.653E-03
   0.189E+03 0.189E+03 -.189E+03   -.196E+03 -.196E+03 0.196E+03   0.743E+01 0.743E+01 -.743E+01   -.744E-01 -.744E-01 0.744E-01
   -.280E+00 -.280E+00 0.280E+00   0.171E-12 -.853E-13 -.142E-12   0.299E+00 0.299E+00 -.299E+00   -.687E-02 -.687E-02 0.687E-02

 POSITION                                       TOTAL-FORCE (eV/Angst)
      2.92443     -1.11910     -0.90266         0.002857      0.002857     -0.002857
      6.93424      2.89070     -0.86893        -0.011393     -0.011393      0.011393
      6.86008      6.86008     -4.83832        -0.004866     -0.004866      0.004866
      5.03882      0.99528      1.02648        -0.002294     -0.002294      0.002294
      4.95234      4.95234     -2.93057         0.006485      0.006485     -0.006485
      7.92455      3.88101     -3.88803         0.001575      0.001575      0.002883
     11.86451      7.82097     -3.78421        -0.002452     -0.002452      0.000891
      3.95384      3.95384      0.09067         0.002172      0.002172     -0.003866
      7.92455      5.90980     -1.85924         0.001575     -0.002883     -0.001575
     11.86451      5.80598     -5.79920        -0.002452     -0.000891      0.002452
      3.95384      1.93110     -1.93207         0.002172      0.003866     -0.002172
      5.90980      7.92455     -1.85924        -0.002883      0.001575     -0.001575
      9.84952      7.82097     -5.79920        -0.000891     -0.002452      0.002452
      5.97464     -0.08970     -1.93207         0.003866      0.002172     -0.002172
      9.91451      5.87097     -3.84920        -0.002598     -0.002598      0.002598
      1.97360      1.97360      0.04817         0.001827      0.001827     -0.001827
      5.93183      1.88829     -3.91006         0.002039      0.002039     -0.002039
     10.01350      5.96996     -5.71891        -0.001946     -0.001946      0.003354
      2.08775      2.08775     -1.85548         0.002423      0.002423     -0.002899
      6.04901      6.04901     -1.77341         0.003495      0.003495     -0.006678
     10.01350      7.74068     -3.94819        -0.001946     -0.003354      0.001946
      2.08775      3.87725     -0.06599         0.002423      0.002899     -0.002423
      6.04901      3.79517     -4.02724         0.003495      0.006678     -0.003495
      7.74068     10.01350     -3.94819        -0.003354     -0.001946      0.001946
      3.87725      2.08775     -0.06599         0.002899      0.002423     -0.002423
      7.83871      2.00547     -4.02724         0.006678      0.003495     -0.003495
      7.76276      3.71922     -5.74099         0.002683      0.002683     -0.002683
      3.89917     -0.14437      2.16614        -0.002427     -0.002427      0.002427
      3.81273      3.81273     -1.79096         0.003440      0.003440     -0.003440
      9.80274      5.75920     -1.95819        -0.001230     -0.001230     -0.000414
      1.85590      1.85590      1.94715        -0.001191     -0.001191      0.000063
      5.82089      1.77736     -2.00328        -0.000573     -0.000573      0.002134
      9.80274      3.97996     -3.73743        -0.001230      0.000414      0.001230
      1.85590      0.07461      0.16587        -0.001191     -0.000063      0.001191
      5.82089      4.02505      0.24441        -0.000573     -0.002134      0.000573
      8.02350      5.75920     -3.73743         0.000414     -0.001230      0.001230
      4.11815     -2.18764      0.16587        -0.000063     -0.001191      0.001191
      4.02505      5.82089      0.24441        -0.002134     -0.000573      0.000573
      8.08188      4.03835     -2.01658        -0.002308     -0.002308      0.002308
      7.97103      7.97103     -5.94926        -0.002789     -0.002789      0.002789
      4.09337      0.04983     -2.07160         0.000264      0.000264     -0.000264
    total drift:                                0.011858      0.011855     -0.011857

  FREE ENERGIE OF THE ION-ELECTRON SYSTEM (eV)
  free  energy   TOTEN  =      -254.6514759392 eV

  energy  without entropy=     -254.6180299911  energy(sigma->0) =     -254.63475297

 d Force = 0.1918080E-04[ 0.831E-05, 0.301E-04]  d Energy = 0.2925600E-04-0.101E-04
 d Force = 0.9017401E-01[ 0.899E-01, 0.905E-01]  d Ewald  =-0.5522463E+00 0.642E+00

 Quasi-Newton relaxation of ions (Broydens 2nd method)
  g(Force)  = 0.624E-04   g(Stress)= 0.337E-03

 retain information from N=  2 steps
 eigenvalues of (default step * inverse Hessian matrix)
  average eigenvalue of G=   3.0831
 eigenvalue spectrum of G is  0.0736  6.0927

 reached required accuracy - stopping structural energy minimisation

volume of typ            1:    10.1 %

[...]

volume of typ            3:    10.2 %

total charge

# of ion       s       p       d       tot
    1        2.098   0.308   0.114   2.520
    2        2.098   0.305   0.111   2.515
    3        2.101   0.316   0.117   2.534
    4        2.101   0.316   0.116   2.533
    5        2.101   0.316   0.115   2.532
    6        0.282   0.390   7.844   8.516
    7        0.287   0.400   7.843   8.530
    8        0.281   0.392   7.847   8.521
    9        0.282   0.390   7.844   8.516
   10        0.287   0.400   7.843   8.530
   11        0.281   0.392   7.847   8.521
   12        0.282   0.390   7.844   8.516
   13        0.287   0.400   7.843   8.530
   14        0.281   0.392   7.847   8.521
   15        0.284   0.389   7.839   8.512
   16        0.269   0.360   7.855   8.485
   17        0.266   0.354   7.862   8.481
   18        1.278   2.735   0.008   4.021
   19        1.261   2.788   0.007   4.055
   20        1.261   2.785   0.006   4.053
   21        1.278   2.735   0.008   4.021
   22        1.261   2.788   0.007   4.055
   23        1.261   2.785   0.006   4.053
   24        1.278   2.735   0.008   4.021
   25        1.261   2.788   0.007   4.055
   26        1.261   2.785   0.006   4.053
   27        1.282   2.727   0.008   4.016
   28        1.269   2.771   0.007   4.047
   29        1.269   2.770   0.006   4.045
   30        1.263   2.780   0.006   4.049
   31        1.261   2.788   0.007   4.056
   32        1.261   2.787   0.007   4.054
   33        1.263   2.780   0.006   4.049
   34        1.261   2.788   0.007   4.056
   35        1.261   2.787   0.007   4.054
   36        1.263   2.780   0.006   4.049
   37        1.261   2.788   0.007   4.056
   38        1.261   2.787   0.007   4.054
   39        1.267   2.772   0.007   4.046
   40        1.271   2.768   0.006   4.045
   41        1.269   2.767   0.007   4.043
tot          44.25   72.78   94.89  211.92

magnetization (x)

# of ion       s       p       d       tot
    1        0.002   0.007   0.003   0.011
    2        0.002   0.006   0.002   0.010
    3        0.002   0.010   0.003   0.015
    4        0.002   0.009   0.003   0.014
    5        0.002   0.011   0.004   0.017
    6       -0.001  -0.001   0.243   0.241
    7       -0.001  -0.001   0.197   0.195
    8       -0.001  -0.001   0.280   0.277
    9       -0.001  -0.001   0.243   0.241
   10       -0.001  -0.001   0.197   0.195
   11       -0.001  -0.001   0.280   0.277
   12       -0.001  -0.001   0.243   0.241
   13       -0.001  -0.001   0.197   0.195
   14       -0.001  -0.001   0.280   0.277
   15       -0.000  -0.001   0.148   0.146
   16       -0.000  -0.001   0.475   0.473
   17       -0.001  -0.001   0.518   0.516
   18        0.001   0.018   0.000   0.019
   19        0.006   0.050   0.000   0.056
   20        0.007   0.066   0.000   0.074
   21        0.001   0.018   0.000   0.019
   22        0.006   0.050   0.000   0.056
   23        0.007   0.066   0.000   0.074
   24        0.001   0.018   0.000   0.019
   25        0.006   0.050   0.000   0.056
   26        0.007   0.066   0.000   0.074
   27        0.005   0.059   0.000   0.064
   28        0.011   0.085   0.000   0.096
   29        0.011   0.078   0.000   0.088
   30        0.005   0.039   0.000   0.044
   31        0.005   0.043   0.000   0.048
   32        0.006   0.046   0.000   0.052
   33        0.005   0.039   0.000   0.044
   34        0.005   0.043   0.000   0.048
   35        0.006   0.046   0.000   0.052
   36        0.005   0.039   0.000   0.044
   37        0.005   0.043   0.000   0.048
   38        0.006   0.046   0.000   0.052
   39        0.006   0.035   0.000   0.040
   40        0.011   0.079   0.000   0.089
   41        0.010   0.084   0.000   0.094
tot           0.15    1.23    3.32    4.70