 vasp.5.4.4.18Apr17-6-g9f103f2a35 (build May 12 2020 05:39:39) gamma-only

 MD_VERSION_INFO: Compiled 2020-05-12T12:39:39-UTC in devlin.sd.materialsdesign.
 com:/home/medea2/data/build/wwolf/vasp-gpu5.4.4/13047/x86_64/src/src/build/gam
 from svn 13047

 executed on                        Lin64 date 2023.02.09  13:48:28

 INCAR:
 POTCAR:    PAW_PBE Li_sv 10Sep2004
 POTCAR:    PAW_PBE Ni 02Aug2007
 POTCAR:    PAW_PBE O 08Apr2002

 POTCAR:    PAW_PBE Li_sv 10Sep2004

 POTCAR:    PAW_PBE Ni 02Aug2007

 POTCAR:    PAW_PBE O 08Apr2002

 Optimization of the real space projectors (new method)

 maximal supplied QI-value         = 22.11
 optimisation between [QCUT,QGAM] = [ 11.28, 22.77] = [ 35.61,145.23] Ry
 Optimized for a Real-space Cutoff    1.10 Angstroem

   l    n(q)    QCUT    max X(q) W(low)/X(q) W(high)/X(q)  e(spline)
   0      7    11.276    10.506    0.54E-04    0.58E-04    0.16E-07
   0      7    11.276     8.367    0.11E-03    0.14E-03    0.35E-07
   1      7    11.276     8.983    0.23E-03    0.43E-03    0.86E-07
 Optimization of the real space projectors (new method)

[...]

   l    n(q)    QCUT    max X(q) W(low)/X(q) W(high)/X(q)  e(spline)
   2      9    11.376    60.317    0.17E-03    0.16E-04    0.16E-06
   2      9    11.376    55.921    0.17E-03    0.16E-04    0.17E-06
   0     10    11.376    51.690    0.45E-04    0.60E-04    0.21E-06
   0     10    11.376    30.015    0.37E-04    0.55E-04    0.19E-06
   1     10    11.376    18.849    0.83E-04    0.11E-03    0.92E-07
   1     10    11.376    14.624    0.69E-04    0.92E-04    0.82E-07
 Optimization of the real space projectors (new method)

 maximal supplied QI-value         = 24.76
 optimisation between [QCUT,QGAM] = [ 11.39, 22.77] = [ 36.31,145.25] Ry
 Optimized for a Real-space Cutoff    1.10 Angstroem

   l    n(q)    QCUT    max X(q) W(low)/X(q) W(high)/X(q)  e(spline)
   0      7    11.387    20.381    0.22E-03    0.48E-03    0.18E-06
   0      7    11.387    15.268    0.22E-03    0.52E-03    0.19E-06
   1      7    11.387     5.964    0.22E-03    0.73E-03    0.24E-06
   1      7    11.387     5.382    0.19E-03    0.60E-03    0.21E-06

  PAW_PBE Li_sv 10Sep2004               :
  PAW_PBE Ni 02Aug2007                  :
  PAW_PBE O 08Apr2002                   :

 POSCAR: ce79_1
  positions in direct lattice
 exchange correlation table for  LEXCH =       14
   RHO(1)=    0.500       N(1)  =     2000
   RHO(2)=  100.500       N(2)  =     4000

 ion  position               nearest neighbor table
   1  0.939  0.469  0.092-  38 1.90  42 1.90  34 1.90  47 1.96
   2  1.000  1.000  0.999-  30 1.84  46 1.85  25 1.85  29 1.85  42 1.87  38 1.87  17 2.76  10 2.79
                             6 2.79   6 2.81  10 2.81  14 2.81
   3  0.498  0.249  0.251-  31 1.85  43 1.86  39 1.86  47 1.86  22 1.86  26 1.86  14 2.76  15 2.76
                            11 2.79   7 2.79   7 2.81  11 2.81
   4  1.000  0.500  0.500-  32 1.85  48 1.85  44 1.86  40 1.86  23 1.86  27 1.86  15 2.76  16 2.77
                             8 2.80  12 2.80  12 2.80   8 2.80
   5  0.500  0.750  0.750-  33 1.85  49 1.85  24 1.86  28 1.86  45 1.86  41 1.86  17 2.76  16 2.77
                             9 2.80  13 2.80  13 2.80   9 2.80
   6  0.501  1.000  0.999-  30 1.84  46 1.85  21 1.85  29 1.85  42 1.87  34 1.87  17 2.76  10 2.79
                             2 2.79   2 2.81  10 2.81  14 2.81
   7  1.000  0.249  0.251-  31 1.85  35 1.86  43 1.86  47 1.86  18 1.86  26 1.86  14 2.76  15 2.76
                            11 2.79   3 2.79   3 2.81  11 2.81
   8  0.500  0.500  0.500-  32 1.85  48 1.85  44 1.86  36 1.86  19 1.86  27 1.86  15 2.76  16 2.77
                             4 2.80  12 2.80  12 2.80   4 2.80
   9  0.000  0.750  0.750-  33 1.85  49 1.85  20 1.86  28 1.86  37 1.86  45 1.86  17 2.76  16 2.77
                             5 2.80  13 2.80  13 2.80   5 2.80
  10  0.501  0.501  0.999-  30 1.84  46 1.85  21 1.85  25 1.85  38 1.87  34 1.87  17 2.76   6 2.79
                             2 2.79   2 2.81   6 2.81  14 2.81
  11  1.000  0.750  0.251-  31 1.85  35 1.86  39 1.86  47 1.86  22 1.86  18 1.86  14 2.76  15 2.76
                             7 2.79   3 2.79   3 2.81   7 2.81
  12  0.500  1.000  0.500-  32 1.85  48 1.85  36 1.86  40 1.86  19 1.86  23 1.86  15 2.76  16 2.77
                             4 2.80   8 2.80   8 2.80   4 2.80
  13  0.000  0.250  0.750-  33 1.85  49 1.85  24 1.86  20 1.86  37 1.86  41 1.86  17 2.76  16 2.77
                             5 2.80   9 2.80   9 2.80   5 2.80
  14  0.249  0.124  0.127-  18 1.87  22 1.87  26 1.87  34 1.90  38 1.90  42 1.90   7 2.76  11 2.76
                             3 2.76   6 2.81  10 2.81   2 2.81
  15  0.749  0.375  0.376-  23 1.87  19 1.87  27 1.87  35 1.87  39 1.87  43 1.87   4 2.76   8 2.76
                            12 2.76   3 2.76  11 2.76   7 2.76
  16  0.250  0.625  0.625-  36 1.87  40 1.87  44 1.87  20 1.87  28 1.87  24 1.87   9 2.77  13 2.77
                             5 2.77  12 2.77   4 2.77   8 2.77
  17  0.751  0.875  0.874-  37 1.86  41 1.86  45 1.86  25 1.88  21 1.88  29 1.88   2 2.76  10 2.76
                             6 2.76   5 2.76  13 2.76   9 2.76
  18  0.908  0.954  0.193-   7 1.86  11 1.86  14 1.87
  19  0.409  0.204  0.442-   8 1.86  12 1.86  15 1.87
  20  0.909  0.455  0.692-   9 1.86  13 1.86  16 1.87
  21  0.408  0.704  0.941-   6 1.85  10 1.85  17 1.88
  22  0.353  0.954  0.193-   3 1.86  11 1.86  14 1.87
  23  0.854  0.204  0.442-   4 1.86  12 1.86  15 1.87
  24  0.354  0.455  0.692-   5 1.86  13 1.86  16 1.87
  25  0.855  0.704  0.941-   2 1.85  10 1.85  17 1.88
  26  0.353  0.399  0.193-   7 1.86   3 1.86  14 1.87
  27  0.854  0.649  0.442-   8 1.86   4 1.86  15 1.87
  28  0.354  0.899  0.692-   9 1.86   5 1.86  16 1.87
  29  0.855  0.151  0.941-   2 1.85   6 1.85  17 1.88
  30  0.634  0.817  0.048-   2 1.84  10 1.84   6 1.84
  31  0.133  0.066  0.301-   7 1.85  11 1.85   3 1.85
  32  0.634  0.317  0.550-   4 1.85  12 1.85   8 1.85
  33  0.134  0.567  0.799-   5 1.85   9 1.85  13 1.85
  34  0.591  0.295  0.058-   6 1.87  10 1.87  14 1.90   1 1.90
  35  0.090  0.545  0.309-   7 1.86  11 1.86  15 1.87
  36  0.590  0.795  0.558-  12 1.86   8 1.86  16 1.87
  37  0.090  0.045  0.808-  13 1.86   9 1.86  17 1.86
  38  0.147  0.295  0.058-   2 1.87  10 1.87  14 1.90   1 1.90
  39  0.646  0.545  0.309-   3 1.86  11 1.86  15 1.87
  40  0.146  0.795  0.558-   4 1.86  12 1.86  16 1.87
  41  0.647  0.045  0.808-   5 1.86  13 1.86  17 1.86
  42  0.147  0.851  0.058-   2 1.87   6 1.87  14 1.90   1 1.90
  43  0.646  0.100  0.309-   3 1.86   7 1.86  15 1.87
  44  0.146  0.351  0.558-   8 1.86   4 1.86  16 1.87
  45  0.647  0.601  0.808-   5 1.86   9 1.86  17 1.86
  46  0.367  0.184  0.949-   2 1.85   6 1.85  10 1.85
  47  0.866  0.433  0.201-   3 1.86   7 1.86  11 1.86   1 1.96
  48  0.366  0.683  0.451-   8 1.85  12 1.85   4 1.85
  49  0.866  0.933  0.700-   5 1.85  13 1.85   9 1.85

  LATTYP: Found a trigonal (rhomboedric) cell.
 ALAT       =    18.2751011815
 COS(alpha) =     0.9530759736

  Lattice vectors:

 A1 = ( -11.7043707689, -11.7043707689,   7.7456267016)
 A2 = (  -7.7456267016, -11.7043707689,  11.7043707689)
 A3 = ( -11.7043707689,  -7.7456267016,  11.7043707689)

Analysis of symmetry for initial positions (statically):
 Subroutine PRICEL returns:
 Original cell was already a primitive cell.

 Routine SETGRP: Setting up the symmetry group for a
 trigonal (rhombohedral) supercell.

 Subroutine GETGRP returns: Found  6 space group operations
 (whereof  2 operations were pure point group operations)
 out of a pool of 12 trial point group operations.

The static configuration has the point symmetry C_1h.
 The point group associated with its full space group is C_3v.

Analysis of symmetry for dynamics (positions and initial velocities):
 Subroutine PRICEL returns:
 Original cell was already a primitive cell.

[...]

The dynamic configuration has the point symmetry C_1h.
 The point group associated with its full space group is C_3v.

Analysis of structural, dynamic, and magnetic symmetry:
 Subroutine PRICEL returns:
 Original cell was already a primitive cell.

 Routine SETGRP: Setting up the symmetry group for a
 trigonal (rhombohedral) supercell.

 Subroutine GETGRP returns: Found  6 space group operations
 (whereof  2 operations were pure point group operations)
 out of a pool of 12 trial point group operations.

The magnetic configuration has the point symmetry C_1h.
 The point group associated with its full space group is C_3v.

 Subroutine INISYM returns: Found  6 space group operations
 (whereof  2 operations are pure point group operations),
 and found     1 'primitive' translations

 KPOINTS: Automatic mesh

Automatic generation of k-mesh.
Space group operators:
 irot       det(A)        alpha          n_x          n_y          n_z        tau_x        tau_y        tau_z
    1     1.000000     0.000000     1.000000     0.000000     0.000000     0.000000     0.000000     0.000000
    2    -1.000000   180.000000    -0.707107     0.707107    -0.000000     0.000000     0.000000     0.000000
    3     1.000000   120.000000     0.577350     0.577350    -0.577350     0.500000     0.500000    -1.000000
    4    -1.000000   180.000000    -0.707107     0.000000    -0.707107     0.500000     0.500000    -1.000000
    5     1.000000   120.000000    -0.577350    -0.577350     0.577350     0.500000    -0.000000    -1.000000
    6    -1.000000   180.000000     0.000000     0.707107     0.707107     0.500000    -0.000000    -1.000000

 Subroutine IBZKPT returns following result:

 Found      1 irreducible k-points:

 Following reciprocal coordinates:
            Coordinates               Weight
  0.000000  0.000000  0.000000      1.000000

 Following cartesian coordinates:
            Coordinates               Weight
  0.000000  0.000000  0.000000      1.000000

 SYSTEM =  unknown system
 POSCAR =  ce79_1

 Startparameter for this run:
   NWRITE =      1    write-flag & timer
   PREC   = accura    normal or accurate (medium, high low for compatibility)
   ISTART =      0    job   : 0-new  1-cont  2-samecut
   ICHARG =      2    charge: 1-file 2-atom 10-const
   ISPIN  =      2    spin polarized calculation?
   LNONCOLLINEAR =      F non collinear calculations
   LSORBIT =      F    spin-orbit coupling
   INIWAV =      1    electr: 0-lowe 1-rand  2-diag
   LASPH  =      F    aspherical Exc in radial PAW
   METAGGA=      F    non-selfconsistent MetaGGA calc.

 Electronic Relaxation 1
   ENCUT  =  500.0 eV  36.75 Ry    6.06 a.u.  10.21 10.21 33.32*2*pi/ulx,y,z
   ENINI  =  500.0     initial cutoff
   ENAUG  =  628.9 eV  augmentation charge cutoff
   NELM   =     80;   NELMIN=  2; NELMDL= -5     # of ELM steps
   EDIFF  = 0.1E-04   stopping-criterion for ELM
   LREAL  =      T    real-space projection
   NLSPLINE    = F    spline interpolate recip. space projectors
   LCOMPAT=      F    compatible to vasp.4.4
   GGA_COMPAT  = T    GGA compatible to vasp.4.4-vasp.4.6
   LMAXPAW     = -100 max onsite density
   LMAXMIX     =    2 max onsite mixed and CHGCAR
   VOSKOWN=      1    Vosko Wilk Nusair interpolation
   ROPT   =   -0.00025  -0.00025  -0.00025
 Ionic relaxation
[...]
  in kB       -0.0662036     -0.0662036     -0.0662036      0.0295664     -0.0295664     -0.0295664

 VOLUME and BASIS-vectors are now :
  energy-cutoff  :      500.00
  volume of cell :      487.97
      direct lattice vectors                 reciprocal lattice vectors
    -0.000000000  3.957839403  3.957839403     0.062820324  0.062820324  0.189842783
     3.957839403 -3.957839403  0.000000000     0.157741715 -0.094921391  0.094921391
    11.703150509 11.703150509 -7.745311106     0.032101067  0.032101067 -0.032101067

  length of vectors
     5.597230161  5.597230161 18.273404385     0.209602167  0.207129404  0.055600680

 FORCES acting on ions
    electron-ion (+dipol)            ewald-force                    non-local-force                 convergence-correction
   -.427E+01 -.427E+01 0.427E+01   0.419E+01 0.419E+01 -.419E+01   0.950E-01 0.950E-01 -.950E-01   0.621E-03 0.621E-03 -.622E-03
   0.139E+02 0.139E+02 -.293E+02   -.138E+02 -.138E+02 0.300E+02   -.154E+00 -.154E+00 -.604E+00   0.456E-01 0.456E-01 -.179E-01
   -.249E+02 -.249E+02 0.311E+02   0.252E+02 0.252E+02 -.314E+02   -.346E+00 -.346E+00 0.293E+00   -.433E-01 -.433E-01 0.264E-01
   -.837E+01 -.837E+01 0.844E+01   0.839E+01 0.839E+01 -.845E+01   -.167E-01 -.167E-01 0.548E-02   0.191E-02 0.191E-02 -.303E-02
   0.139E+02 0.139E+02 -.157E+02   -.139E+02 -.139E+02 0.157E+02   0.300E-01 0.300E-01 -.427E-01   0.493E-02 0.493E-02 0.352E-02
   0.139E+02 0.293E+02 -.139E+02   -.138E+02 -.300E+02 0.138E+02   -.154E+00 0.604E+00 0.154E+00   0.456E-01 0.179E-01 -.456E-01
   -.249E+02 -.311E+02 0.249E+02   0.252E+02 0.314E+02 -.252E+02   -.346E+00 -.293E+00 0.346E+00   -.433E-01 -.264E-01 0.433E-01
   -.837E+01 -.844E+01 0.837E+01   0.839E+01 0.845E+01 -.839E+01   -.167E-01 -.548E-02 0.167E-01   0.191E-02 0.303E-02 -.191E-02
   0.139E+02 0.157E+02 -.139E+02   -.139E+02 -.157E+02 0.139E+02   0.300E-01 0.427E-01 -.300E-01   0.493E-02 -.352E-02 -.493E-02
   0.293E+02 0.139E+02 -.139E+02   -.300E+02 -.138E+02 0.138E+02   0.604E+00 -.154E+00 0.154E+00   0.179E-01 0.456E-01 -.456E-01
   -.311E+02 -.249E+02 0.249E+02   0.314E+02 0.252E+02 -.252E+02   -.293E+00 -.346E+00 0.346E+00   -.264E-01 -.433E-01 0.433E-01
   -.844E+01 -.837E+01 0.837E+01   0.845E+01 0.839E+01 -.839E+01   -.548E-02 -.167E-01 0.167E-01   0.303E-02 0.191E-02 -.191E-02
   0.157E+02 0.139E+02 -.139E+02   -.157E+02 -.139E+02 0.139E+02   0.427E-01 0.300E-01 -.300E-01   -.352E-02 0.493E-02 -.493E-02
   0.173E+01 0.173E+01 -.173E+01   -.208E+01 -.208E+01 0.208E+01   0.363E+00 0.363E+00 -.363E+00   -.101E-01 -.101E-01 0.101E-01
   -.150E+02 -.150E+02 0.150E+02   0.150E+02 0.150E+02 -.150E+02   -.940E-02 -.940E-02 0.940E-02   0.465E-02 0.465E-02 -.465E-02
   0.229E+01 0.229E+01 -.229E+01   -.232E+01 -.232E+01 0.232E+01   0.310E-01 0.310E-01 -.310E-01   0.254E-02 0.254E-02 -.254E-02
   0.185E+02 0.185E+02 -.185E+02   -.186E+02 -.186E+02 0.186E+02   0.184E+00 0.184E+00 -.184E+00   -.733E-02 -.733E-02 0.733E-02
   0.201E+03 0.201E+03 0.224E+03   -.216E+03 -.216E+03 -.241E+03   0.151E+02 0.151E+02 0.163E+02   -.249E-01 -.249E-01 0.613E-01
   0.205E+03 0.205E+03 0.221E+03   -.221E+03 -.221E+03 -.238E+03   0.156E+02 0.156E+02 0.162E+02   0.245E-03 0.245E-03 0.307E-03
   0.219E+03 0.219E+03 0.208E+03   -.235E+03 -.235E+03 -.224E+03   0.156E+02 0.156E+02 0.160E+02   0.101E-03 0.101E-03 0.373E-02
   0.228E+03 0.228E+03 0.190E+03   -.244E+03 -.244E+03 -.206E+03   0.160E+02 0.160E+02 0.156E+02   0.200E-02 0.200E-02 -.119E-01
   0.201E+03 -.224E+03 -.201E+03   -.216E+03 0.241E+03 0.216E+03   0.151E+02 -.163E+02 -.151E+02   -.249E-01 -.613E-01 0.249E-01
   0.205E+03 -.221E+03 -.205E+03   -.221E+03 0.238E+03 0.221E+03   0.156E+02 -.162E+02 -.156E+02   0.246E-03 -.307E-03 -.246E-03
   0.219E+03 -.208E+03 -.219E+03   -.235E+03 0.224E+03 0.235E+03   0.156E+02 -.160E+02 -.156E+02   0.102E-03 -.373E-02 -.102E-03
   0.228E+03 -.190E+03 -.228E+03   -.244E+03 0.206E+03 0.244E+03   0.160E+02 -.156E+02 -.160E+02   0.200E-02 0.119E-01 -.200E-02
   -.224E+03 0.201E+03 -.201E+03   0.241E+03 -.216E+03 0.216E+03   -.163E+02 0.151E+02 -.151E+02   -.613E-01 -.249E-01 0.249E-01
   -.221E+03 0.205E+03 -.205E+03   0.238E+03 -.221E+03 0.221E+03   -.162E+02 0.156E+02 -.156E+02   -.307E-03 0.246E-03 -.246E-03
   -.208E+03 0.219E+03 -.219E+03   0.224E+03 -.235E+03 0.235E+03   -.160E+02 0.156E+02 -.156E+02   -.373E-02 0.102E-03 -.102E-03
   -.190E+03 0.228E+03 -.228E+03   0.206E+03 -.244E+03 0.244E+03   -.156E+02 0.160E+02 -.160E+02   0.119E-01 0.200E-02 -.200E-02
   -.212E+03 -.212E+03 0.212E+03   0.226E+03 0.226E+03 -.226E+03   -.141E+02 -.141E+02 0.141E+02   0.216E-01 0.216E-01 -.216E-01
   -.227E+03 -.227E+03 0.227E+03   0.242E+03 0.242E+03 -.242E+03   -.149E+02 -.149E+02 0.149E+02   -.287E-02 -.287E-02 0.287E-02
   -.217E+03 -.217E+03 0.217E+03   0.232E+03 0.232E+03 -.232E+03   -.150E+02 -.150E+02 0.150E+02   0.303E-02 0.303E-02 -.303E-02
   -.203E+03 -.203E+03 0.203E+03   0.218E+03 0.218E+03 -.218E+03   -.149E+02 -.149E+02 0.149E+02   0.150E-02 0.150E-02 -.150E-02
   -.181E+03 -.181E+03 -.176E+03   0.191E+03 0.191E+03 0.186E+03   -.995E+01 -.995E+01 -.948E+01   0.143E-01 0.143E-01 -.589E-01
   -.226E+03 -.226E+03 -.200E+03   0.241E+03 0.241E+03 0.216E+03   -.155E+02 -.155E+02 -.159E+02   0.165E-02 0.165E-02 0.988E-02
   -.215E+03 -.215E+03 -.211E+03   0.231E+03 0.231E+03 0.227E+03   -.156E+02 -.156E+02 -.160E+02   0.385E-02 0.385E-02 -.765E-02
   -.201E+03 -.201E+03 -.226E+03   0.217E+03 0.217E+03 0.242E+03   -.154E+02 -.154E+02 -.161E+02   -.210E-03 -.210E-03 -.331E-03
   -.181E+03 0.176E+03 0.181E+03   0.191E+03 -.186E+03 -.191E+03   -.995E+01 0.948E+01 0.995E+01   0.143E-01 0.589E-01 -.143E-01
   -.226E+03 0.200E+03 0.226E+03   0.241E+03 -.216E+03 -.241E+03   -.155E+02 0.159E+02 0.155E+02   0.165E-02 -.988E-02 -.165E-02
   -.215E+03 0.211E+03 0.215E+03   0.231E+03 -.227E+03 -.231E+03   -.156E+02 0.160E+02 0.156E+02   0.385E-02 0.765E-02 -.385E-02
   -.201E+03 0.226E+03 0.201E+03   0.217E+03 -.242E+03 -.217E+03   -.154E+02 0.161E+02 0.154E+02   -.211E-03 0.330E-03 0.211E-03
   0.176E+03 -.181E+03 0.181E+03   -.186E+03 0.191E+03 -.191E+03   0.948E+01 -.995E+01 0.995E+01   0.589E-01 0.143E-01 -.143E-01
   0.200E+03 -.226E+03 0.226E+03   -.216E+03 0.241E+03 -.241E+03   0.159E+02 -.155E+02 0.155E+02   -.988E-02 0.165E-02 -.165E-02
   0.211E+03 -.215E+03 0.215E+03   -.227E+03 0.231E+03 -.231E+03   0.160E+02 -.156E+02 0.156E+02   0.765E-02 0.385E-02 -.385E-02
   0.226E+03 -.201E+03 0.201E+03   -.242E+03 0.217E+03 -.217E+03   0.161E+02 -.154E+02 0.154E+02   0.330E-03 -.211E-03 0.211E-03
   0.226E+03 0.226E+03 -.226E+03   -.240E+03 -.240E+03 0.240E+03   0.144E+02 0.144E+02 -.144E+02   0.891E-02 0.891E-02 -.891E-02
   0.178E+03 0.178E+03 -.178E+03   -.188E+03 -.188E+03 0.188E+03   0.967E+01 0.967E+01 -.967E+01   -.292E-01 -.292E-01 0.292E-01
   0.208E+03 0.208E+03 -.208E+03   -.222E+03 -.222E+03 0.222E+03   0.150E+02 0.150E+02 -.150E+02   -.119E-02 -.119E-02 0.118E-02
   0.221E+03 0.221E+03 -.221E+03   -.236E+03 -.236E+03 0.236E+03   0.150E+02 0.150E+02 -.150E+02   0.156E-02 0.156E-02 -.156E-02
   -.288E+00 -.288E+00 0.290E+00   0.369E-12 -.227E-12 -.853E-13   0.290E+00 0.290E+00 -.290E+00   0.550E-03 0.550E-03 -.551E-03

 POSITION                                       TOTAL-FORCE (eV/Angst)
      2.93176      2.93176      3.00500         0.009806      0.009806     -0.009806
     15.64509     11.68725     -3.77706         0.000470      0.000470      0.001953
      3.92582      3.92582      0.02723        -0.000079     -0.000079      0.000127
      7.83249      7.83249      0.08353         0.003276      0.003276     -0.004063
     11.74226      7.78442     -3.82774        -0.003493     -0.003493      0.004041
     15.64509      9.71382     -5.75049         0.000470     -0.001953     -0.000470
      3.92582      5.90953      2.01094        -0.000079     -0.000127      0.000079
      7.83249      5.85323     -1.89573         0.003276      0.004063     -0.003276
     11.74226      5.80666     -5.80550        -0.003493     -0.004041      0.003493
     13.67166     11.68725     -5.75049        -0.001953      0.000470     -0.000470
      5.90953      3.92582      2.01094        -0.000127     -0.000079      0.000079
      9.81107      3.87465     -1.89573         0.004063      0.003276     -0.003276
      9.76450      7.78442     -5.80550        -0.004041     -0.003493      0.003493
      1.97417      1.97417      0.00475        -0.000027     -0.000027      0.000027
      5.88075      5.88075      0.05601         0.000796      0.000796     -0.000796
      9.78753      5.82969     -3.85077         0.001965      0.001965     -0.001965
     13.69576      9.73792     -3.80116        -0.002102     -0.002102      0.002102
      6.03149      2.07365      2.10194        -0.003602     -0.003602      0.000768
      5.98062      5.98062     -1.80402         0.002714      0.002714     -0.002655
      9.89200      9.89200     -1.75679        -0.006116     -0.006116      0.001401
     13.79774      9.83990     -5.67434        -0.000773     -0.000773     -0.004057
      6.03149     -0.12302     -0.09473        -0.003602     -0.000768      0.003602
      5.98062      7.74078     -0.04386         0.002714      0.002655     -0.002714
      9.89200      7.69355     -3.95524        -0.006116     -0.001401      0.006116
     13.79774     11.61110     -3.90314        -0.000773      0.004057      0.000773
      3.83482      2.07365     -0.09473        -0.000768     -0.003602      0.003602
      7.74078      5.98062     -0.04386         0.002655      0.002714     -0.002714
     11.65139      5.93416     -3.95524        -0.001401     -0.006116      0.006116
     11.61110     13.79774     -3.90314         0.004057     -0.000773      0.000773
      3.80139     -0.15645      2.13537         0.000536      0.000536     -0.000536
      3.78780      3.78780     -1.80888        -0.002401     -0.002401      0.002401
      7.68704      7.68704     -1.75028         0.003892      0.003892     -0.003892
     11.59812      7.64028     -5.66136        -0.001795     -0.001795      0.001795
      1.84612      1.84612      1.89140         0.000996      0.000996      0.000002
      5.77483      1.81700     -2.03558        -0.000012     -0.000012      0.001864
      9.68378      5.72594     -1.98930         0.003782      0.003782     -0.000801
      9.63781      9.63781     -5.90251        -0.000429     -0.000429      0.001537
      1.84612      0.08752      0.13280         0.000996     -0.000002     -0.000996
      5.77483      4.01450      0.16192        -0.000012     -0.001864      0.000012
      9.68378      3.96822     -3.74702         0.003782      0.000801     -0.003782
      9.63781     11.83927     -3.70105        -0.000429     -0.001537      0.000429
      4.04536     -2.11172      0.13280        -0.000002      0.000996     -0.000996
      4.01450      5.77483      0.16192        -0.001864     -0.000012      0.000012
      7.92606      5.72594     -3.74702         0.000801      0.003782     -0.003782
     11.83927      9.63781     -3.70105        -0.001537     -0.000429      0.000429
     11.83497     11.83497     -5.89821        -0.000580     -0.000580      0.000580
      4.06294      4.06294      1.87382        -0.001147     -0.001147      0.001147
      7.97698      4.01914     -2.04022         0.004277      0.004277     -0.004277
     11.88834      7.93050     -1.99374        -0.006569     -0.006569      0.006569
    total drift:                                0.002404      0.002572     -0.000858

  FREE ENERGIE OF THE ION-ELECTRON SYSTEM (eV)
  free  energy   TOTEN  =      -309.4601182077 eV

  energy  without entropy=     -309.4230671012  energy(sigma->0) =     -309.44159265

 d Force = 0.1296865E-03[ 0.426E-04, 0.217E-03]  d Energy = 0.2928051E-03-0.163E-03
 d Force = 0.3615927E+01[ 0.361E+01, 0.362E+01]  d Ewald  =-0.2551617E+00 0.387E+01

 Quasi-Newton relaxation of ions (Broydens 2nd method)
  g(Force)  = 0.660E-04   g(Stress)= 0.168E-05

 retain information from N=  1 steps
 eigenvalues of (default step * inverse Hessian matrix)
  average eigenvalue of G=   0.3684
 eigenvalue spectrum of G is  0.3684

 reached required accuracy - stopping structural energy minimisation

volume of typ            1:     1.6 %

[...]

volume of typ            3:    10.7 %

total charge

# of ion       s       p       d       tot
    1        2.109   0.340   0.130   2.579
    2        0.298   0.427   7.844   8.568
    3        0.299   0.428   7.843   8.570
    4        0.301   0.431   7.838   8.570
    5        0.301   0.430   7.838   8.569
    6        0.298   0.427   7.844   8.568
    7        0.299   0.428   7.843   8.570
    8        0.301   0.431   7.838   8.570
    9        0.301   0.430   7.838   8.569
   10        0.298   0.427   7.844   8.568
   11        0.299   0.428   7.843   8.570
   12        0.301   0.431   7.838   8.570
   13        0.301   0.430   7.838   8.569
   14        0.288   0.397   7.844   8.528
   15        0.296   0.415   7.838   8.550
   16        0.297   0.415   7.836   8.548
   17        0.295   0.412   7.839   8.547
   18        1.279   2.737   0.008   4.024
   19        1.281   2.730   0.008   4.020
   20        1.281   2.730   0.008   4.020
   21        1.281   2.732   0.008   4.021
   22        1.279   2.737   0.008   4.024
   23        1.281   2.730   0.008   4.020
   24        1.281   2.730   0.008   4.020
   25        1.281   2.732   0.008   4.021
   26        1.279   2.737   0.008   4.024
   27        1.281   2.730   0.008   4.020
   28        1.281   2.730   0.008   4.020
   29        1.281   2.732   0.008   4.021
   30        1.281   2.741   0.009   4.031
   31        1.284   2.727   0.009   4.020
   32        1.283   2.730   0.009   4.022
   33        1.283   2.731   0.009   4.023
   34        1.262   2.790   0.007   4.059
   35        1.281   2.731   0.008   4.020
   36        1.281   2.730   0.008   4.020
   37        1.282   2.730   0.008   4.020
   38        1.262   2.790   0.007   4.059
   39        1.281   2.731   0.008   4.020
   40        1.281   2.730   0.008   4.020
   41        1.282   2.730   0.008   4.020
   42        1.262   2.790   0.007   4.059
   43        1.281   2.731   0.008   4.020
   44        1.281   2.730   0.008   4.020
   45        1.282   2.730   0.008   4.020
   46        1.283   2.730   0.009   4.022
   47        1.267   2.782   0.008   4.057
   48        1.283   2.730   0.009   4.022
   49        1.283   2.729   0.009   4.021
tot          47.82   94.75  125.84  268.41

magnetization (x)

# of ion       s       p       d       tot
    1        0.001   0.003   0.001   0.005
    2       -0.000  -0.000   0.070   0.069
    3       -0.000  -0.000   0.051   0.050
    4       -0.000  -0.000   0.007   0.006
    5       -0.000  -0.000   0.009   0.009
    6       -0.000  -0.000   0.070   0.069
    7       -0.000  -0.000   0.051   0.050
    8       -0.000  -0.000   0.007   0.006
    9       -0.000  -0.000   0.009   0.009
   10       -0.000  -0.000   0.070   0.069
   11       -0.000  -0.000   0.051   0.050
   12       -0.000  -0.000   0.007   0.006
   13       -0.000  -0.000   0.009   0.009
   14       -0.000  -0.000   0.157   0.156
   15       -0.000  -0.000   0.026   0.026
   16       -0.000  -0.000   0.011   0.011
   17       -0.000  -0.000   0.023   0.023
   18        0.001   0.013   0.000   0.014
   19        0.000   0.001   0.000   0.002
   20        0.000   0.000   0.000   0.000
   21        0.000   0.007   0.000   0.008
   22        0.001   0.013   0.000   0.014
   23        0.000   0.001   0.000   0.002
   24        0.000   0.000   0.000   0.000
   25        0.000   0.007   0.000   0.008
   26        0.001   0.013   0.000   0.014
   27        0.000   0.001   0.000   0.002
   28        0.000   0.000   0.000   0.000
   29        0.000   0.007   0.000   0.008
   30        0.002   0.022   0.000   0.024
   31        0.003   0.037   0.000   0.039
   32        0.000   0.004   0.000   0.004
   33        0.000   0.003   0.000   0.003
   34        0.003   0.020   0.000   0.022
   35        0.000   0.002   0.000   0.003
   36        0.000   0.001   0.000   0.002
   37        0.000   0.004   0.000   0.005
   38        0.003   0.020   0.000   0.022
   39        0.000   0.002   0.000   0.003
   40        0.000   0.001   0.000   0.002
   41        0.000   0.004   0.000   0.005
   42        0.003   0.020   0.000   0.022
   43        0.000   0.002   0.000   0.003
   44        0.000   0.001   0.000   0.002
   45        0.000   0.004   0.000   0.005
   46        0.002   0.023   0.000   0.025
   47        0.003   0.020   0.000   0.024
   48        0.000   0.003   0.000   0.003
   49        0.000   0.004   0.000   0.004
tot           0.02    0.27    0.63    0.92