 vasp.5.4.4.18Apr17-6-g9f103f2a35 (build May 12 2020 05:39:39) gamma-only

 MD_VERSION_INFO: Compiled 2020-05-12T12:39:39-UTC in devlin.sd.materialsdesign.
 com:/home/medea2/data/build/wwolf/vasp-gpu5.4.4/13047/x86_64/src/src/build/gam
 from svn 13047

 executed on                        Lin64 date 2023.02.09  13:57:15

 INCAR:
 POTCAR:    PAW_PBE Li_sv 10Sep2004
 POTCAR:    PAW_PBE Ni 02Aug2007
 POTCAR:    PAW_PBE O 08Apr2002

 POTCAR:    PAW_PBE Li_sv 10Sep2004

 POTCAR:    PAW_PBE Ni 02Aug2007

 POTCAR:    PAW_PBE O 08Apr2002

 Optimization of the real space projectors (new method)

 maximal supplied QI-value         = 22.11
 optimisation between [QCUT,QGAM] = [ 11.28, 22.77] = [ 35.61,145.23] Ry
 Optimized for a Real-space Cutoff    1.10 Angstroem

   l    n(q)    QCUT    max X(q) W(low)/X(q) W(high)/X(q)  e(spline)
   0      7    11.276    10.506    0.54E-04    0.58E-04    0.16E-07
   0      7    11.276     8.367    0.11E-03    0.14E-03    0.35E-07
   1      7    11.276     8.983    0.23E-03    0.43E-03    0.86E-07
 Optimization of the real space projectors (new method)

[...]

   l    n(q)    QCUT    max X(q) W(low)/X(q) W(high)/X(q)  e(spline)
   2      9    11.376    60.317    0.17E-03    0.16E-04    0.16E-06
   2      9    11.376    55.921    0.17E-03    0.16E-04    0.17E-06
   0     10    11.376    51.690    0.45E-04    0.60E-04    0.21E-06
   0     10    11.376    30.015    0.37E-04    0.55E-04    0.19E-06
   1     10    11.376    18.849    0.83E-04    0.11E-03    0.92E-07
   1     10    11.376    14.624    0.69E-04    0.92E-04    0.82E-07
 Optimization of the real space projectors (new method)

 maximal supplied QI-value         = 24.76
 optimisation between [QCUT,QGAM] = [ 11.39, 22.77] = [ 36.31,145.25] Ry
 Optimized for a Real-space Cutoff    1.10 Angstroem

   l    n(q)    QCUT    max X(q) W(low)/X(q) W(high)/X(q)  e(spline)
   0      7    11.387    20.381    0.22E-03    0.48E-03    0.18E-06
   0      7    11.387    15.268    0.22E-03    0.52E-03    0.19E-06
   1      7    11.387     5.964    0.22E-03    0.73E-03    0.24E-06
   1      7    11.387     5.382    0.19E-03    0.60E-03    0.21E-06

  PAW_PBE Li_sv 10Sep2004               :
  PAW_PBE Ni 02Aug2007                  :
  PAW_PBE O 08Apr2002                   :

 POSCAR: ce23_1
  positions in direct lattice
 exchange correlation table for  LEXCH =       14
   RHO(1)=    0.500       N(1)  =     2000
   RHO(2)=  100.500       N(2)  =     4000

 ion  position               nearest neighbor table
   1  0.000  0.500  0.122-  30 1.90  27 1.90  33 1.90  37 1.96
   2  0.333  0.667  0.667-  23 1.85  35 1.85  22 1.86  19 1.86  29 1.86  32 1.86  11 2.76  13 2.77
                             5 2.80   8 2.80   8 2.81   5 2.81
   3  0.999  1.000  0.999-  24 1.84  36 1.85  20 1.86  17 1.86  33 1.87  30 1.87  11 2.76   9 2.80
                             6 2.80   6 2.81   9 2.81  12 2.82
   4  0.666  0.333  0.335-  25 1.85  34 1.86  31 1.86  18 1.86  21 1.86  37 1.86  12 2.76  13 2.76
                             7 2.80  10 2.80  10 2.81   7 2.81
   5  0.833  0.667  0.667-  23 1.85  35 1.85  16 1.86  22 1.86  32 1.86  26 1.86  11 2.76  13 2.77
                             2 2.80   8 2.80   8 2.81   2 2.81
   6  0.500  1.000  0.999-  24 1.84  36 1.85  14 1.86  20 1.86  33 1.87  27 1.87  11 2.76   9 2.80
                             3 2.80   9 2.81   3 2.81  12 2.82
   7  0.167  0.333  0.335-  25 1.85  28 1.86  34 1.86  21 1.86  15 1.86  37 1.86  12 2.76  13 2.76
                             4 2.80  10 2.80  10 2.81   4 2.81
   8  0.833  0.167  0.667-  23 1.85  35 1.85  16 1.86  19 1.86  29 1.86  26 1.86  11 2.76  13 2.77
                             2 2.80   5 2.80   5 2.81   2 2.81
   9  0.500  0.501  0.999-  24 1.84  36 1.85  14 1.86  17 1.86  27 1.87  30 1.87  11 2.76   6 2.80
                             3 2.80   6 2.81   3 2.81  12 2.82
  10  0.167  0.834  0.335-  25 1.85  28 1.86  31 1.86  18 1.86  15 1.86  37 1.86  12 2.76  13 2.76
                             4 2.80   7 2.80   7 2.81   4 2.81
  11  0.667  0.833  0.832-  29 1.86  26 1.86  32 1.86  20 1.88  14 1.88  17 1.88   5 2.76   2 2.76
                             8 2.76   3 2.76   9 2.76   6 2.76
  12  0.333  0.167  0.169-  18 1.86  15 1.86  21 1.86  33 1.89  27 1.89  30 1.89   7 2.76   4 2.76
                            10 2.76   9 2.82   3 2.82   6 2.82
  13  0.000  0.500  0.500-  16 1.87  19 1.87  22 1.87  31 1.87  34 1.87  28 1.87   4 2.76  10 2.76
                             7 2.76   8 2.77   2 2.77   5 2.77
  14  0.370  0.685  0.921-   9 1.86   6 1.86  11 1.88
  15  0.038  0.019  0.257-   7 1.86  10 1.86  12 1.86
  16  0.704  0.352  0.589-   8 1.86   5 1.86  13 1.87
  17  0.815  0.685  0.921-   3 1.86   9 1.86  11 1.88
  18  0.481  0.019  0.257-   4 1.86  10 1.86  12 1.86
  19  0.148  0.352  0.589-   2 1.86   8 1.86  13 1.87
  20  0.815  0.130  0.921-   3 1.86   6 1.86  11 1.88
  21  0.481  0.462  0.257-   7 1.86   4 1.86  12 1.86
  22  0.148  0.796  0.589-   2 1.86   5 1.86  13 1.87
  23  0.000  0.500  0.733-   2 1.85   8 1.85   5 1.85
  24  0.667  0.833  0.065-   3 1.84   9 1.84   6 1.84
  25  0.333  0.167  0.401-   7 1.85   4 1.85  10 1.85
  26  0.962  0.981  0.744-   5 1.86   8 1.86  11 1.86
  27  0.629  0.314  0.078-   9 1.87   6 1.87  12 1.89   1 1.90
  28  0.296  0.648  0.412-  10 1.86   7 1.86  13 1.87
  29  0.519  0.981  0.744-   8 1.86   2 1.86  11 1.86
  30  0.186  0.314  0.078-   3 1.87   9 1.87  12 1.89   1 1.90
  31  0.852  0.648  0.412-   4 1.86  10 1.86  13 1.87
  32  0.519  0.538  0.744-   5 1.86   2 1.86  11 1.86
  33  0.186  0.871  0.078-   3 1.87   6 1.87  12 1.89   1 1.90
  34  0.852  0.204  0.412-   4 1.86   7 1.86  13 1.87
  35  0.667  0.833  0.601-   5 1.85   2 1.85   8 1.85
  36  0.333  0.167  0.933-   3 1.85   9 1.85   6 1.85
  37  0.000  0.500  0.267-   4 1.86  10 1.86   7 1.86   1 1.96

  LATTYP: Found a hexagonal cell.
 ALAT       =     5.6085369037
 C/A-ratio  =     2.4071328429

  Lattice vectors:

 A1 = (   0.0000000000,   3.9658344772,   3.9658344772)
 A2 = (   3.9658344772,  -3.9658344772,   0.0000000000)
 A3 = (   7.7945134882,   7.7945134882,  -7.7945134882)

Analysis of symmetry for initial positions (statically):
 Subroutine PRICEL returns:
 Original cell was already a primitive cell.

 Routine SETGRP: Setting up the symmetry group for a
 hexagonal supercell.

 Subroutine GETGRP returns: Found  6 space group operations
 (whereof  2 operations were pure point group operations)
 out of a pool of 24 trial point group operations.

The static configuration has the point symmetry C_1h.
 The point group associated with its full space group is C_3v.

Analysis of symmetry for dynamics (positions and initial velocities):
 Subroutine PRICEL returns:
 Original cell was already a primitive cell.

[...]

The dynamic configuration has the point symmetry C_1h.
 The point group associated with its full space group is C_3v.

Analysis of structural, dynamic, and magnetic symmetry:
 Subroutine PRICEL returns:
 Original cell was already a primitive cell.

 Routine SETGRP: Setting up the symmetry group for a
 hexagonal supercell.

 Subroutine GETGRP returns: Found  6 space group operations
 (whereof  2 operations were pure point group operations)
 out of a pool of 24 trial point group operations.

The magnetic configuration has the point symmetry C_1h.
 The point group associated with its full space group is C_3v.

 Subroutine INISYM returns: Found  6 space group operations
 (whereof  2 operations are pure point group operations),
 and found     1 'primitive' translations

 KPOINTS: Automatic mesh

Automatic generation of k-mesh.
Space group operators:
 irot       det(A)        alpha          n_x          n_y          n_z        tau_x        tau_y        tau_z
    1     1.000000     0.000000     1.000000     0.000000     0.000000     0.000000     0.000000     0.000000
    2    -1.000000   180.000000     0.707107    -0.707107     0.000000     0.000000     0.000000     0.000000
    3     1.000000   120.000000    -0.577350    -0.577350     0.577350     0.500000     0.000000     0.000000
    4     1.000000   120.000000     0.577350     0.577350    -0.577350     0.500000     0.500000     0.000000
    5    -1.000000   180.000000     0.000000     0.707107     0.707107     0.500000     0.000000     0.000000
    6    -1.000000   180.000000     0.707107     0.000000     0.707107     0.500000     0.500000     0.000000

 Subroutine IBZKPT returns following result:

 Found      1 irreducible k-points:

 Following reciprocal coordinates:
            Coordinates               Weight
  0.000000  0.000000  0.000000      1.000000

 Following cartesian coordinates:
            Coordinates               Weight
  0.000000  0.000000  0.000000      1.000000

 SYSTEM =  unknown system
 POSCAR =  ce23_1

 Startparameter for this run:
   NWRITE =      1    write-flag & timer
   PREC   = accura    normal or accurate (medium, high low for compatibility)
   ISTART =      0    job   : 0-new  1-cont  2-samecut
   ICHARG =      2    charge: 1-file 2-atom 10-const
   ISPIN  =      2    spin polarized calculation?
   LNONCOLLINEAR =      F non collinear calculations
   LSORBIT =      F    spin-orbit coupling
   INIWAV =      1    electr: 0-lowe 1-rand  2-diag
   LASPH  =      F    aspherical Exc in radial PAW
   METAGGA=      F    non-selfconsistent MetaGGA calc.

 Electronic Relaxation 1
   ENCUT  =  500.0 eV  36.75 Ry    6.06 a.u.  10.23 10.23 24.61*2*pi/ulx,y,z
   ENINI  =  500.0     initial cutoff
   ENAUG  =  628.9 eV  augmentation charge cutoff
   NELM   =     80;   NELMIN=  2; NELMDL= -5     # of ELM steps
   EDIFF  = 0.1E-04   stopping-criterion for ELM
   LREAL  =      T    real-space projection
   NLSPLINE    = F    spline interpolate recip. space projectors
   LCOMPAT=      F    compatible to vasp.4.4
   GGA_COMPAT  = T    GGA compatible to vasp.4.4-vasp.4.6
   LMAXPAW     = -100 max onsite density
   LMAXMIX     =    2 max onsite mixed and CHGCAR
   VOSKOWN=      1    Vosko Wilk Nusair interpolation
   ROPT   =   -0.00025  -0.00025  -0.00025
 Ionic relaxation
   EDIFFG = -.2E-01   stopping-criterion for IOM
   NSW    =     20    number of steps for IOM
   NBLOCK =      1;   KBLOCK =     20    inner block; outer block
   IBRION =      1    ionic relax: 0-MD 1-quasi-New 2-CG
   NFREE  =      0    steps in history (QN), initial steepest desc. (CG)
   ISIF   =      3    stress and relaxation
   IWAVPR =     11    prediction:  0-non 1-charg 2-wave 3-comb
   ISYM   =      2    0-nonsym 1-usesym 2-fastsym
   LCORR  =      T    Harris-Foulkes like correction to forces

   POTIM  = 0.5000    time-step for ionic-motion
   TEIN   =    0.0    initial temperature
   TEBEG  =    0.0;   TEEND  =   0.0 temperature during run
   SMASS  =  -3.00    Nose mass-parameter (am)
   estimated Nose-frequenzy (Omega)   =  0.10E-29 period in steps =****** mass=  -0.719E-27a.u.
   SCALEE = 1.0000    scale energy and forces
   NPACO  =    256;   APACO  = 16.0  distance and # of slots for P.C.
   PSTRESS=    0.0 pullay stress

  Mass of Ions in am
   POMASS =   7.01 58.69 16.00
  Ionic Valenz
   ZVAL   =   3.00 10.00  6.00
  Atomic Wigner-Seitz radii
  virtual crystal weights
[...]
      6     -15.2862      1.00000
      7     -15.0402      1.00000
      8     -14.5318      1.00000
      9     -14.5234      1.00000
     10     -14.4953      1.00000
     11     -14.4953      1.00000
     12     -14.4412      1.00000
     13     -14.4230      1.00000
     14     -14.4230      1.00000
     15     -14.3850      1.00000
     16     -14.3850      1.00000
     17     -14.3294      1.00000
     18     -14.3126      1.00000
     19     -14.3126      1.00000
     20     -14.2945      1.00000
     21     -14.2194      1.00000
     22     -14.2057      1.00000
     23     -14.2057      1.00000
     24     -14.1807      1.00000
     25     -14.1807      1.00000
     26      -3.7011      1.00000
     27      -3.5242      1.00000
     28      -3.5242      1.00000
     29      -3.4446      1.00000
     30      -3.2791      1.00000
     31      -3.2102      1.00000
     32      -3.1385      1.00000
     33      -3.1385      1.00000
     34      -3.0924      1.00000
     35      -3.0924      1.00000
     36      -2.5723      1.00000
     37      -2.5511      1.00000
     38      -2.5511      1.00000
     39      -2.5367      1.00000
     40      -2.5189      1.00000
     41      -2.5189      1.00000
     42      -2.4993      1.00000
     43      -2.4993      1.00000
     44      -2.2754      1.00000
     45      -2.2754      1.00000
     46      -2.2284      1.00000
     47      -2.2284      1.00000
     48      -2.0510      1.00000
     49      -2.0510      1.00000
     50      -1.7847      1.00000
     51      -1.7828      1.00000
     52      -1.7692      1.00000
     53      -1.6902      1.00000
     54      -1.6507      1.00000
     55      -1.6507      1.00000
     56      -1.6235      1.00000
     57      -1.5501      1.00000
     58      -1.5501      1.00000
     59      -1.5218      1.00000
     60      -1.5218      1.00000
[...]
    162      13.8017      0.00000
    163      13.8228      0.00000
    164      13.8228      0.00000
    165      14.2176      0.00000
    166      14.4674      0.00000
    167      14.4674      0.00000
    168      14.7674      0.00000
    169      15.3907      0.00000
    170      15.3907      0.00000
    171      15.4741      0.00000
    172      15.4741      0.00000
    173      15.8159      0.00000
    174      15.9749      0.00000
    175      16.0883      0.00000
    176      16.0883      0.00000

[...]

 soft charge-density along one line, spin component           2
         0         1         2         3         4         5         6         7         8         9
 total charge-density along one line

------------------------ aborting loop because EDIFF is reached ----------------------------------------

  FORCE on cell =-STRESS in cart. coord.  units (eV):
  Direction    XX          YY          ZZ          XY          YZ          ZX
  Alpha Z   853.26343   853.26343   853.26343
  Ewald   -5213.84189 -5213.84191 -5213.84189  -109.85477   109.85477   109.85473
  Hartree  2770.15453  2770.15453  2770.15453   -61.15068    61.15068    61.15068
  E(xc)   -1363.90056 -1363.90052 -1363.90056    -0.09234     0.09234     0.09230
  Local   -2802.10587 -2802.10476 -2802.10587   161.68596  -161.68596  -161.68703
  n-local  -606.11805  -606.11808  -606.11805    -1.12126     1.12126     1.12128
  augment  2266.32301  2266.32219  2266.32301     5.52470    -5.52470    -5.52389
  Kinetic  4096.08221  4096.08229  4096.08221     4.96773    -4.96773    -4.96770
  Fock        0.00000     0.00000     0.00000     0.00000     0.00000     0.00000
  Total       -0.1430760     -0.1430760     -0.1430760     -0.0405646      0.0405646      0.0405646
  in kB       -0.6232074     -0.6232074     -0.6232074     -0.1766905      0.1766905      0.1766905

 VOLUME and BASIS-vectors are now :
  energy-cutoff  :      500.00
  volume of cell :      367.83
      direct lattice vectors                 reciprocal lattice vectors
    -0.000000000  3.966329151  3.966329151     0.084040764  0.084040764  0.168081529
     3.966329151 -3.966329151  0.000000000     0.168081529 -0.084040764  0.084040764
     7.793742725  7.793742725 -7.793742725     0.042769353  0.042769353 -0.042769353

  length of vectors
     5.609236478  5.609236478 13.499158381     0.205856990  0.205856990  0.074078692

 FORCES acting on ions
    electron-ion (+dipol)            ewald-force                    non-local-force                 convergence-correction
   -.272E+01 -.272E+01 0.272E+01   0.270E+01 0.270E+01 -.270E+01   0.288E-01 0.288E-01 -.288E-01   0.539E-02 0.539E-02 -.539E-02
   0.351E+01 0.351E+01 -.485E+01   -.353E+01 -.353E+01 0.486E+01   0.389E-01 0.389E-01 -.347E-01   -.180E-01 -.180E-01 0.187E-01
   0.125E+02 0.125E+02 -.277E+02   -.124E+02 -.124E+02 0.283E+02   -.126E+00 -.126E+00 -.583E+00   0.406E-01 0.406E-01 -.227E-01
   -.213E+02 -.213E+02 0.271E+02   0.216E+02 0.216E+02 -.274E+02   -.318E+00 -.318E+00 0.277E+00   -.141E-01 -.141E-01 -.107E-01
   0.351E+01 0.485E+01 -.351E+01   -.353E+01 -.486E+01 0.353E+01   0.389E-01 0.347E-01 -.389E-01   -.180E-01 -.187E-01 0.180E-01
   0.125E+02 0.277E+02 -.125E+02   -.124E+02 -.283E+02 0.124E+02   -.126E+00 0.583E+00 0.126E+00   0.406E-01 0.227E-01 -.406E-01
   -.213E+02 -.271E+02 0.213E+02   0.216E+02 0.274E+02 -.216E+02   -.318E+00 -.277E+00 0.318E+00   -.141E-01 0.107E-01 0.141E-01
   0.485E+01 0.351E+01 -.351E+01   -.486E+01 -.353E+01 0.353E+01   0.347E-01 0.389E-01 -.389E-01   -.187E-01 -.180E-01 0.180E-01
   0.277E+02 0.125E+02 -.125E+02   -.283E+02 -.124E+02 0.124E+02   0.583E+00 -.126E+00 0.126E+00   0.227E-01 0.406E-01 -.406E-01
   -.271E+02 -.213E+02 0.213E+02   0.274E+02 0.216E+02 -.216E+02   -.277E+00 -.318E+00 0.318E+00   0.107E-01 -.141E-01 0.141E-01
   0.119E+02 0.119E+02 -.119E+02   -.120E+02 -.120E+02 0.120E+02   0.665E-01 0.665E-01 -.665E-01   -.705E-02 -.705E-02 0.705E-02
   0.332E+01 0.332E+01 -.332E+01   -.372E+01 -.372E+01 0.372E+01   0.397E+00 0.397E+00 -.397E+00   0.638E-02 0.637E-02 -.638E-02
   -.907E+01 -.907E+01 0.907E+01   0.910E+01 0.910E+01 -.910E+01   -.541E-02 -.541E-02 0.541E-02   -.197E-01 -.197E-01 0.197E-01
   0.225E+03 0.225E+03 0.196E+03   -.241E+03 -.241E+03 -.211E+03   0.157E+02 0.157E+02 0.154E+02   -.762E-03 -.762E-03 -.143E-01
   0.203E+03 0.203E+03 0.225E+03   -.218E+03 -.218E+03 -.241E+03   0.150E+02 0.150E+02 0.163E+02   0.650E-02 0.650E-02 0.811E-02
   0.211E+03 0.211E+03 0.216E+03   -.227E+03 -.227E+03 -.232E+03   0.155E+02 0.155E+02 0.159E+02   -.112E-01 -.112E-01 0.161E-01
   0.225E+03 -.196E+03 -.225E+03   -.241E+03 0.211E+03 0.241E+03   0.157E+02 -.154E+02 -.157E+02   -.762E-03 0.143E-01 0.762E-03
   0.203E+03 -.225E+03 -.203E+03   -.218E+03 0.241E+03 0.218E+03   0.150E+02 -.163E+02 -.150E+02   0.650E-02 -.811E-02 -.650E-02
   0.211E+03 -.216E+03 -.211E+03   -.227E+03 0.232E+03 0.227E+03   0.155E+02 -.159E+02 -.155E+02   -.112E-01 -.161E-01 0.112E-01
   -.196E+03 0.225E+03 -.225E+03   0.211E+03 -.241E+03 0.241E+03   -.154E+02 0.157E+02 -.157E+02   0.143E-01 -.762E-03 0.762E-03
   -.225E+03 0.203E+03 -.203E+03   0.241E+03 -.218E+03 0.218E+03   -.163E+02 0.150E+02 -.150E+02   -.811E-02 0.650E-02 -.650E-02
   -.216E+03 0.211E+03 -.211E+03   0.232E+03 -.227E+03 0.227E+03   -.159E+02 0.155E+02 -.155E+02   -.161E-01 -.112E-01 0.112E-01
   -.209E+03 -.209E+03 0.209E+03   0.224E+03 0.224E+03 -.224E+03   -.149E+02 -.149E+02 0.149E+02   -.106E-01 -.106E-01 0.106E-01
   -.211E+03 -.211E+03 0.211E+03   0.225E+03 0.225E+03 -.225E+03   -.140E+02 -.140E+02 0.140E+02   0.250E-01 0.250E-01 -.250E-01
   -.224E+03 -.224E+03 0.224E+03   0.239E+03 0.239E+03 -.239E+03   -.145E+02 -.145E+02 0.145E+02   -.939E-02 -.939E-02 0.939E-02
   -.207E+03 -.207E+03 -.222E+03   0.222E+03 0.222E+03 0.238E+03   -.154E+02 -.154E+02 -.161E+02   -.855E-02 -.855E-02 0.973E-02
   -.180E+03 -.180E+03 -.180E+03   0.190E+03 0.190E+03 0.189E+03   -.978E+01 -.978E+01 -.955E+01   0.242E-01 0.242E-01 -.303E-01
   -.223E+03 -.223E+03 -.205E+03   0.238E+03 0.238E+03 0.221E+03   -.154E+02 -.154E+02 -.160E+02   -.863E-02 -.863E-02 0.508E-02
   -.207E+03 0.222E+03 0.207E+03   0.222E+03 -.238E+03 -.222E+03   -.154E+02 0.161E+02 0.154E+02   -.855E-02 -.973E-02 0.855E-02
   -.180E+03 0.180E+03 0.180E+03   0.190E+03 -.189E+03 -.190E+03   -.978E+01 0.955E+01 0.978E+01   0.242E-01 0.303E-01 -.242E-01
   -.223E+03 0.205E+03 0.223E+03   0.238E+03 -.221E+03 -.238E+03   -.154E+02 0.160E+02 0.154E+02   -.863E-02 -.508E-02 0.863E-02
   0.222E+03 -.207E+03 0.207E+03   -.238E+03 0.222E+03 -.222E+03   0.161E+02 -.154E+02 0.154E+02   -.973E-02 -.855E-02 0.855E-02
   0.180E+03 -.180E+03 0.180E+03   -.189E+03 0.190E+03 -.190E+03   0.955E+01 -.978E+01 0.978E+01   0.303E-01 0.242E-01 -.242E-01
   0.205E+03 -.223E+03 0.223E+03   -.221E+03 0.238E+03 -.238E+03   0.160E+02 -.154E+02 0.154E+02   -.508E-02 -.863E-02 0.863E-02
   0.214E+03 0.214E+03 -.214E+03   -.228E+03 -.228E+03 0.228E+03   0.149E+02 0.149E+02 -.149E+02   -.101E-01 -.101E-01 0.101E-01
   0.223E+03 0.223E+03 -.223E+03   -.238E+03 -.238E+03 0.238E+03   0.143E+02 0.143E+02 -.143E+02   0.754E-02 0.754E-02 -.754E-02
   0.179E+03 0.179E+03 -.179E+03   -.189E+03 -.189E+03 0.189E+03   0.931E+01 0.931E+01 -.931E+01   0.320E-02 0.320E-02 -.320E-02
   -.299E+00 -.299E+00 0.299E+00   -.568E-13 0.568E-13 -.369E-12   0.265E+00 0.265E+00 -.265E+00   0.308E-01 0.308E-01 -.308E-01

 POSITION                                       TOTAL-FORCE (eV/Angst)
      2.93815     -1.02818     -0.95499         0.011170      0.011170     -0.011170
      7.83909      3.87276     -3.87338        -0.000301     -0.000301     -0.003116
     11.74645      7.78012     -3.81923        -0.006507     -0.006507      0.007429
      3.92893      3.92893      0.03241         0.000494      0.000494      0.000924
      7.83909      5.85654     -1.88959        -0.000301      0.003116      0.000301
     11.74645      5.80240     -5.79696        -0.006507     -0.007429      0.006507
      3.92893      1.95075     -1.94577         0.000494     -0.000924     -0.000494
      5.85654      7.83909     -1.88959         0.003116     -0.000301      0.000301
      9.76873      7.78012     -5.79696        -0.007429     -0.006507      0.006507
      5.91708     -0.03740     -1.94577        -0.000924      0.000494     -0.000494
      9.79267      5.82634     -3.84318        -0.002114     -0.002114      0.002114
      1.97665      1.97665      0.00652         0.001941      0.001941     -0.001941
      5.88352      1.91719     -3.90036         0.004240      0.004240     -0.004240
      9.89565      5.92932     -5.71245         0.001246      0.001246      0.001302
      2.07639      2.07639     -1.85250        -0.001173     -0.001173      0.005599
      5.98779      5.98779     -1.79663         0.000868      0.000868      0.002918
      9.89565      7.69561     -3.94616         0.001246     -0.001302     -0.001246
      2.07639      3.83567     -0.09323        -0.001173     -0.005599      0.001173
      5.98779      3.77980     -4.00463         0.000868     -0.002918     -0.000868
      7.69561      9.89565     -3.94616        -0.001302      0.001246     -0.001246
      3.83567      2.07639     -0.09323        -0.005599     -0.001173      0.001173
      7.74613      2.02146     -4.00463        -0.002918      0.000868     -0.000868
      7.69238      3.72605     -5.70922        -0.001489     -0.001489      0.001489
      3.80865     -0.15768      2.14084         0.003152      0.003152     -0.003152
      3.78973      3.78973     -1.80656        -0.001021     -0.001021      0.001021
      9.69257      5.72624     -1.98623        -0.000424     -0.000424     -0.002360
      1.85191      1.85191      1.88970         0.001391      0.001391      0.000033
      5.77862      1.81230     -2.03642        -0.000171     -0.000171     -0.001263
      9.69257      3.96940     -3.74308        -0.000424      0.002360      0.000424
      1.85191      0.09346      0.13125         0.001391     -0.000033     -0.001391
      5.77862      4.01958      0.17087        -0.000171      0.001263      0.000171
      7.93573      5.72624     -3.74308         0.002360     -0.000424      0.000424
      4.05979     -2.11442      0.13125        -0.000033      0.001391     -0.001391
      4.01958      5.77862      0.17087         0.001263     -0.000171      0.000171
      7.98605      4.01972     -2.03656         0.000238      0.000238     -0.000238
      7.93151      7.93151     -5.94834         0.001632      0.001632     -0.001632
      4.06663      0.10031     -2.08347         0.002872      0.002872     -0.002872
    total drift:                               -0.002842     -0.003111      0.002842

  FREE ENERGIE OF THE ION-ELECTRON SYSTEM (eV)
  free  energy   TOTEN  =      -233.3899167329 eV

  energy  without entropy=     -233.3500779487  energy(sigma->0) =     -233.36999734

 d Force = 0.4028932E-04[ 0.116E-04, 0.690E-04]  d Energy = 0.3673177E-04 0.356E-05
 d Force = 0.1767823E+00[ 0.176E+00, 0.177E+00]  d Ewald  = 0.1109701E+00 0.658E-01

 Quasi-Newton relaxation of ions (Broydens 2nd method)
  g(Force)  = 0.560E-04   g(Stress)= 0.929E-04

 retain information from N=  1 steps
 eigenvalues of (default step * inverse Hessian matrix)
  average eigenvalue of G=   0.3170
 eigenvalue spectrum of G is  0.3170

 reached required accuracy - stopping structural energy minimisation

volume of typ            1:     2.1 %

[...]

volume of typ            3:    10.6 %

total charge

# of ion       s       p       d       tot
    1        2.108   0.337   0.129   2.573
    2        0.300   0.428   7.837   8.565
    3        0.296   0.422   7.844   8.562
    4        0.298   0.425   7.842   8.565
    5        0.300   0.428   7.837   8.565
    6        0.296   0.422   7.844   8.562
    7        0.298   0.425   7.842   8.565
    8        0.300   0.428   7.837   8.565
    9        0.296   0.422   7.844   8.562
   10        0.298   0.425   7.842   8.565
   11        0.296   0.414   7.837   8.547
   12        0.289   0.400   7.842   8.532
   13        0.296   0.414   7.837   8.547
   14        1.280   2.732   0.008   4.020
   15        1.279   2.736   0.008   4.024
   16        1.281   2.730   0.008   4.020
   17        1.280   2.732   0.008   4.020
   18        1.279   2.736   0.008   4.024
   19        1.281   2.730   0.008   4.020
   20        1.280   2.732   0.008   4.020
   21        1.279   2.736   0.008   4.024
   22        1.281   2.730   0.008   4.020
   23        1.283   2.729   0.009   4.021
   24        1.281   2.740   0.009   4.030
   25        1.284   2.728   0.009   4.020
   26        1.282   2.730   0.008   4.020
   27        1.263   2.789   0.007   4.058
   28        1.281   2.731   0.008   4.020
   29        1.282   2.730   0.008   4.020
   30        1.263   2.789   0.007   4.058
   31        1.281   2.731   0.008   4.020
   32        1.282   2.730   0.008   4.020
   33        1.263   2.789   0.007   4.058
   34        1.281   2.731   0.008   4.020
   35        1.284   2.727   0.009   4.020
   36        1.283   2.730   0.009   4.022
   37        1.268   2.781   0.008   4.056
tot          36.35   71.17   94.41  201.93

magnetization (x)

# of ion       s       p       d       tot
    1        0.001   0.004   0.001   0.006
    2       -0.000  -0.000   0.010   0.009
    3       -0.000  -0.000   0.086   0.085
    4       -0.000  -0.000   0.065   0.064
    5       -0.000  -0.000   0.010   0.009
    6       -0.000  -0.000   0.086   0.085
    7       -0.000  -0.000   0.065   0.064
    8       -0.000  -0.000   0.010   0.009
    9       -0.000  -0.000   0.086   0.085
   10       -0.000  -0.000   0.065   0.064
   11       -0.000  -0.000  -0.003  -0.003
   12       -0.000  -0.000   0.115   0.115
   13       -0.000  -0.000   0.012   0.012
   14        0.001   0.016   0.000   0.016
   15        0.001   0.012   0.000   0.013
   16        0.000   0.005   0.000   0.005
   17        0.001   0.016   0.000   0.016
   18        0.001   0.012   0.000   0.013
   19        0.000   0.005   0.000   0.005
   20        0.001   0.016   0.000   0.016
   21        0.001   0.012   0.000   0.013
   22        0.000   0.005   0.000   0.005
   23        0.000   0.004   0.000   0.004
   24        0.002   0.022   0.000   0.024
   25        0.003   0.049   0.000   0.053
   26        0.000  -0.000   0.000  -0.000
   27        0.003   0.020   0.000   0.023
   28        0.000   0.002   0.000   0.002
   29        0.000  -0.000   0.000  -0.000
   30        0.003   0.020   0.000   0.023
   31        0.000   0.002   0.000   0.002
   32        0.000  -0.000   0.000  -0.000
   33        0.003   0.020   0.000   0.023
   34        0.000   0.002   0.000   0.002
   35        0.000   0.003   0.000   0.004
   36        0.002   0.022   0.000   0.024
   37        0.004   0.028   0.000   0.032
tot           0.03    0.29    0.61    0.92