 vasp.5.4.4.18Apr17-6-g9f103f2a35 (build May 12 2020 05:39:39) gamma-only

 MD_VERSION_INFO: Compiled 2020-05-12T12:39:39-UTC in devlin.sd.materialsdesign.
 com:/home/medea2/data/build/wwolf/vasp-gpu5.4.4/13047/x86_64/src/src/build/gam
 from svn 13047

 executed on                        Lin64 date 2023.02.09  14:33:06

 INCAR:
 POTCAR:    PAW_PBE Li_sv 10Sep2004
 POTCAR:    PAW_PBE Ni 02Aug2007
 POTCAR:    PAW_PBE O 08Apr2002

 POTCAR:    PAW_PBE Li_sv 10Sep2004

 POTCAR:    PAW_PBE Ni 02Aug2007

 POTCAR:    PAW_PBE O 08Apr2002

 Optimization of the real space projectors (new method)

 maximal supplied QI-value         = 22.11
 optimisation between [QCUT,QGAM] = [ 11.28, 22.77] = [ 35.61,145.23] Ry
 Optimized for a Real-space Cutoff    1.10 Angstroem

   l    n(q)    QCUT    max X(q) W(low)/X(q) W(high)/X(q)  e(spline)
   0      7    11.276    10.506    0.54E-04    0.58E-04    0.16E-07
   0      7    11.276     8.367    0.11E-03    0.14E-03    0.35E-07
   1      7    11.276     8.983    0.23E-03    0.43E-03    0.86E-07
 Optimization of the real space projectors (new method)

[...]

   l    n(q)    QCUT    max X(q) W(low)/X(q) W(high)/X(q)  e(spline)
   2      9    11.376    60.317    0.17E-03    0.16E-04    0.16E-06
   2      9    11.376    55.921    0.17E-03    0.16E-04    0.17E-06
   0     10    11.376    51.690    0.45E-04    0.60E-04    0.21E-06
   0     10    11.376    30.015    0.37E-04    0.55E-04    0.19E-06
   1     10    11.376    18.849    0.83E-04    0.11E-03    0.92E-07
   1     10    11.376    14.624    0.69E-04    0.92E-04    0.82E-07
 Optimization of the real space projectors (new method)

 maximal supplied QI-value         = 24.76
 optimisation between [QCUT,QGAM] = [ 11.39, 22.77] = [ 36.31,145.25] Ry
 Optimized for a Real-space Cutoff    1.10 Angstroem

   l    n(q)    QCUT    max X(q) W(low)/X(q) W(high)/X(q)  e(spline)
   0      7    11.387    20.381    0.22E-03    0.48E-03    0.18E-06
   0      7    11.387    15.268    0.22E-03    0.52E-03    0.19E-06
   1      7    11.387     5.964    0.22E-03    0.73E-03    0.24E-06
   1      7    11.387     5.382    0.19E-03    0.60E-03    0.21E-06

  PAW_PBE Li_sv 10Sep2004               :
  PAW_PBE Ni 02Aug2007                  :
  PAW_PBE O 08Apr2002                   :

 POSCAR: ce75_1
  positions in direct lattice
 exchange correlation table for  LEXCH =       14
   RHO(1)=    0.500       N(1)  =     2000
   RHO(2)=  100.500       N(2)  =     4000

 ion  position               nearest neighbor table
   1  0.942  0.471  0.087-  39 1.88  43 1.88  35 1.88  48 2.05
   2  0.558  0.779  0.163-  23 1.88  27 1.88  19 1.88  31 2.05
   3  0.001  0.001  0.998-  30 1.85  26 1.85  47 1.86  39 1.86  43 1.86  31 1.87  18 2.76  15 2.81
                             7 2.81  11 2.81  11 2.81   7 2.81
   4  0.499  0.249  0.252-  44 1.85  40 1.85  32 1.86  23 1.86  27 1.86  48 1.87  16 2.76  15 2.81
                             8 2.81  12 2.81  12 2.81   8 2.81
   5  1.000  0.500  0.501-  33 1.85  49 1.85  45 1.86  41 1.86  24 1.86  28 1.86  16 2.76  17 2.77
                             9 2.81  13 2.81  13 2.81   9 2.81
   6  0.500  0.750  0.749-  50 1.85  34 1.85  25 1.86  29 1.86  42 1.86  46 1.86  18 2.76  17 2.77
                            10 2.81  14 2.81  14 2.81  10 2.81
   7  0.502  0.001  0.998-  22 1.85  30 1.85  47 1.86  35 1.86  43 1.86  31 1.87  18 2.76  15 2.81
                             3 2.81  11 2.81  11 2.81   3 2.81
   8  0.998  0.249  0.252-  36 1.85  44 1.85  32 1.86  19 1.86  27 1.86  48 1.87  16 2.76  15 2.81
                             4 2.81  12 2.81  12 2.81   4 2.81
   9  0.500  0.500  0.501-  33 1.85  49 1.85  37 1.86  45 1.86  20 1.86  28 1.86  16 2.76  17 2.77
                             5 2.81  13 2.81  13 2.81   5 2.81
  10  0.000  0.750  0.749-  50 1.85  34 1.85  21 1.86  29 1.86  38 1.86  46 1.86  18 2.76  17 2.77
                             6 2.81  14 2.81  14 2.81   6 2.81
  11  0.502  0.501  0.998-  26 1.85  22 1.85  47 1.86  35 1.86  39 1.86  31 1.87  18 2.76  15 2.81
                             3 2.81   7 2.81   7 2.81   3 2.81
  12  0.998  0.749  0.252-  40 1.85  36 1.85  32 1.86  19 1.86  23 1.86  48 1.87  16 2.76  15 2.81
                             4 2.81   8 2.81   8 2.81   4 2.81
  13  0.500  1.000  0.501-  33 1.85  49 1.85  37 1.86  41 1.86  20 1.86  24 1.86  16 2.76  17 2.77
                             5 2.81   9 2.81   9 2.81   5 2.81
  14  0.000  0.250  0.749-  50 1.85  34 1.85  21 1.86  25 1.86  38 1.86  42 1.86  18 2.76  17 2.77
                             6 2.81  10 2.81  10 2.81   6 2.81
  15  0.250  0.125  0.125-  19 1.92  35 1.92  27 1.92  23 1.92  39 1.92  43 1.92   3 2.81   4 2.81
                            11 2.81  12 2.81   7 2.81   8 2.81
  16  0.749  0.375  0.376-  24 1.87  20 1.87  28 1.87  36 1.89  44 1.89  40 1.89   8 2.76   4 2.76
                            12 2.76  13 2.76   5 2.76   9 2.76
  17  0.250  0.625  0.625-  21 1.87  37 1.87  25 1.87  41 1.87  29 1.87  45 1.87   5 2.77   6 2.77
                            13 2.77  14 2.77   9 2.77  10 2.77
  18  0.751  0.875  0.874-  42 1.87  38 1.87  46 1.87  22 1.89  30 1.89  26 1.89   7 2.76   3 2.76
                            11 2.76  14 2.76   6 2.76  10 2.76
  19  0.906  0.953  0.195-   8 1.86  12 1.86   2 1.88  15 1.92
  20  0.410  0.205  0.442-   9 1.86  13 1.86  16 1.87
  21  0.910  0.455  0.691-  10 1.86  14 1.86  17 1.87
  22  0.409  0.704  0.941-   7 1.85  11 1.85  18 1.89
  23  0.352  0.953  0.195-   4 1.86  12 1.86   2 1.88  15 1.92
  24  0.853  0.205  0.442-   5 1.86  13 1.86  16 1.87
  25  0.353  0.455  0.691-   6 1.86  14 1.86  17 1.87
  26  0.855  0.704  0.941-   3 1.85  11 1.85  18 1.89
  27  0.352  0.399  0.195-   4 1.86   8 1.86   2 1.88  15 1.92
  28  0.853  0.648  0.442-   5 1.86   9 1.86  16 1.87
  29  0.353  0.898  0.691-   6 1.86  10 1.86  17 1.87
  30  0.855  0.150  0.941-   3 1.85   7 1.85  18 1.89
  31  0.634  0.817  0.049-   7 1.87   3 1.87  11 1.87   2 2.05
  32  0.132  0.066  0.303-   4 1.86   8 1.86  12 1.86
  33  0.633  0.317  0.550-   5 1.85   9 1.85  13 1.85
  34  0.134  0.567  0.799-   6 1.85  10 1.85  14 1.85
  35  0.594  0.297  0.055-   7 1.86  11 1.86   1 1.88  15 1.92
  36  0.091  0.546  0.309-   8 1.85  12 1.85  16 1.89
  37  0.590  0.795  0.559-   9 1.86  13 1.86  17 1.87
  38  0.090  0.045  0.808-  10 1.86  14 1.86  18 1.87
  39  0.148  0.297  0.055-   3 1.86  11 1.86   1 1.88  15 1.92
  40  0.645  0.546  0.309-   4 1.85  12 1.85  16 1.89
  41  0.147  0.795  0.559-   5 1.86  13 1.86  17 1.87
  42  0.647  0.045  0.808-   6 1.86  14 1.86  18 1.87
  43  0.148  0.851  0.055-   3 1.86   7 1.86   1 1.88  15 1.92
  44  0.645  0.100  0.309-   4 1.85   8 1.85  16 1.89
  45  0.147  0.352  0.559-   5 1.86   9 1.86  17 1.87
  46  0.647  0.602  0.808-   6 1.86  10 1.86  18 1.87
  47  0.368  0.184  0.947-   3 1.86   7 1.86  11 1.86
  48  0.866  0.433  0.201-   8 1.87   4 1.87  12 1.87   1 2.05
  49  0.366  0.683  0.451-   5 1.85   9 1.85  13 1.85
  50  0.867  0.933  0.700-   6 1.85  10 1.85  14 1.85

  LATTYP: Found a trigonal (rhomboedric) cell.
 ALAT       =    18.2781303185
 COS(alpha) =     0.9526801943

  Lattice vectors:

 A1 = ( -11.7104504117, -11.7104504117,   7.7343875163)
 A2 = (  -7.7343875163, -11.7104504117,  11.7104504117)
 A3 = ( -11.7104504117,  -7.7343875163,  11.7104504117)

Analysis of symmetry for initial positions (statically):
 Subroutine PRICEL returns:
 Original cell was already a primitive cell.

 Routine SETGRP: Setting up the symmetry group for a
 trigonal (rhombohedral) supercell.

 Subroutine GETGRP returns: Found 12 space group operations
 (whereof  2 operations were pure point group operations)
 out of a pool of 12 trial point group operations.

The static configuration has the point symmetry C_1h.
 The point group associated with its full space group is D_3d.

Analysis of symmetry for dynamics (positions and initial velocities):
 Subroutine PRICEL returns:
 Original cell was already a primitive cell.

[...]

The dynamic configuration has the point symmetry C_1h.
 The point group associated with its full space group is D_3d.

Analysis of structural, dynamic, and magnetic symmetry:
 Subroutine PRICEL returns:
 Original cell was already a primitive cell.

 Routine SETGRP: Setting up the symmetry group for a
 trigonal (rhombohedral) supercell.

 Subroutine GETGRP returns: Found 12 space group operations
 (whereof  2 operations were pure point group operations)
 out of a pool of 12 trial point group operations.

The magnetic configuration has the point symmetry C_1h.
 The point group associated with its full space group is D_3d.

 Subroutine INISYM returns: Found 12 space group operations
 (whereof  2 operations are pure point group operations),
 and found     1 'primitive' translations

 KPOINTS: Automatic mesh

Automatic generation of k-mesh.
Space group operators:
 irot       det(A)        alpha          n_x          n_y          n_z        tau_x        tau_y        tau_z
    1     1.000000     0.000000     1.000000     0.000000     0.000000     0.000000     0.000000     0.000000
    2    -1.000000   180.000000    -0.707107     0.707107     0.000000     0.000000     0.000000     0.000000
    3    -1.000000     0.000000     1.000000     0.000000     0.000000     0.500000     0.250000    -0.750000
    4     1.000000   180.000000    -0.707107     0.707107     0.000000     0.500000     0.250000    -0.750000
    5     1.000000   120.000000     0.577350     0.577350    -0.577350     0.500000     0.500000    -1.000000
    6    -1.000000   120.000000     0.577350     0.577350    -0.577350     1.000000     0.750000    -1.750000
    7     1.000000   180.000000     0.707107     0.000000     0.707107     1.000000     0.750000    -1.750000
    8    -1.000000   180.000000     0.707107     0.000000     0.707107     0.500000     0.500000    -1.000000
    9     1.000000   120.000000    -0.577350    -0.577350     0.577350     0.500000     0.000000    -1.000000
   10    -1.000000   120.000000    -0.577350    -0.577350     0.577350     1.000000     0.250000    -1.750000
   11     1.000000   180.000000    -0.000000    -0.707107    -0.707107     1.000000     0.250000    -1.750000
   12    -1.000000   180.000000    -0.000000    -0.707107    -0.707107     0.500000    -0.000000    -1.000000

 Subroutine IBZKPT returns following result:

 Found      1 irreducible k-points:

 Following reciprocal coordinates:
            Coordinates               Weight
  0.000000  0.000000  0.000000      1.000000

 Following cartesian coordinates:
            Coordinates               Weight
  0.000000  0.000000  0.000000      1.000000

 SYSTEM =  unknown system
 POSCAR =  ce75_1

 Startparameter for this run:
   NWRITE =      1    write-flag & timer
   PREC   = accura    normal or accurate (medium, high low for compatibility)
   ISTART =      0    job   : 0-new  1-cont  2-samecut
   ICHARG =      2    charge: 1-file 2-atom 10-const
   ISPIN  =      2    spin polarized calculation?
   LNONCOLLINEAR =      F non collinear calculations
   LSORBIT =      F    spin-orbit coupling
   INIWAV =      1    electr: 0-lowe 1-rand  2-diag
   LASPH  =      F    aspherical Exc in radial PAW
[...]
     0.000000000  3.975244214  3.975244214     0.062450262  0.062450262  0.189106610
     3.975244214 -3.975244214  0.000000000     0.157003567 -0.094553305  0.094553305
    11.708312994 11.708312994 -7.733068781     0.032103043  0.032103043 -0.032103043

  length of vectors
     5.621844281  5.621844281 18.274833491     0.208713633  0.206229908  0.055604102

 FORCES acting on ions
    electron-ion (+dipol)            ewald-force                    non-local-force                 convergence-correction
   -.518E+01 -.518E+01 0.518E+01   0.485E+01 0.485E+01 -.485E+01   0.338E+00 0.338E+00 -.338E+00   0.392E-02 0.392E-02 -.392E-02
   0.518E+01 0.518E+01 -.518E+01   -.485E+01 -.485E+01 0.485E+01   -.338E+00 -.338E+00 0.338E+00   -.392E-02 -.392E-02 0.392E-02
   0.381E+02 0.381E+02 -.551E+02   -.382E+02 -.382E+02 0.559E+02   0.368E-01 0.368E-01 -.799E+00   0.734E-01 0.734E-01 -.405E-01
   -.381E+02 -.381E+02 0.551E+02   0.382E+02 0.382E+02 -.559E+02   -.368E-01 -.368E-01 0.799E+00   -.734E-01 -.734E-01 0.405E-01
   -.208E+02 -.208E+02 0.219E+02   0.209E+02 0.209E+02 -.220E+02   -.221E-01 -.221E-01 0.249E-01   -.229E-02 -.229E-02 0.586E-02
   0.208E+02 0.208E+02 -.219E+02   -.209E+02 -.209E+02 0.220E+02   0.221E-01 0.221E-01 -.249E-01   0.229E-02 0.229E-02 -.586E-02
   0.381E+02 0.551E+02 -.381E+02   -.382E+02 -.559E+02 0.382E+02   0.368E-01 0.799E+00 -.368E-01   0.734E-01 0.405E-01 -.734E-01
   -.381E+02 -.551E+02 0.381E+02   0.382E+02 0.559E+02 -.382E+02   -.368E-01 -.799E+00 0.368E-01   -.734E-01 -.405E-01 0.734E-01
   -.208E+02 -.219E+02 0.208E+02   0.209E+02 0.220E+02 -.209E+02   -.221E-01 -.249E-01 0.221E-01   -.229E-02 -.586E-02 0.229E-02
   0.208E+02 0.219E+02 -.208E+02   -.209E+02 -.220E+02 0.209E+02   0.221E-01 0.249E-01 -.221E-01   0.229E-02 0.586E-02 -.229E-02
   0.551E+02 0.381E+02 -.381E+02   -.559E+02 -.382E+02 0.382E+02   0.799E+00 0.368E-01 -.368E-01   0.405E-01 0.734E-01 -.734E-01
   -.551E+02 -.381E+02 0.381E+02   0.559E+02 0.382E+02 -.382E+02   -.799E+00 -.368E-01 0.368E-01   -.405E-01 -.734E-01 0.734E-01
   -.219E+02 -.208E+02 0.208E+02   0.220E+02 0.209E+02 -.209E+02   -.249E-01 -.221E-01 0.221E-01   -.586E-02 -.229E-02 0.229E-02
   0.219E+02 0.208E+02 -.208E+02   -.220E+02 -.209E+02 0.209E+02   0.249E-01 0.221E-01 -.221E-01   0.586E-02 0.229E-02 -.229E-02
   0.432E-11 -.344E-12 0.199E-10   0.746E-13 -.131E-12 -.103E-12   0.271E-19 -.271E-19 -.136E-19   -.207E-11 -.114E-11 -.968E-12
   -.351E+02 -.351E+02 0.351E+02   0.353E+02 0.353E+02 -.353E+02   -.199E+00 -.199E+00 0.199E+00   -.661E-02 -.661E-02 0.661E-02
   0.882E-11 0.122E-11 0.172E-10   0.497E-13 0.000E+00 -.497E-13   -.542E-19 -.271E-19 0.000E+00   -.231E-11 -.270E-11 0.186E-11
   0.351E+02 0.351E+02 -.351E+02   -.353E+02 -.353E+02 0.353E+02   0.199E+00 0.199E+00 -.199E+00   0.661E-02 0.661E-02 -.661E-02
   0.171E+03 0.171E+03 0.180E+03   -.180E+03 -.180E+03 -.189E+03   0.984E+01 0.984E+01 0.871E+01   -.352E-01 -.352E-01 0.953E-01
   0.193E+03 0.193E+03 0.234E+03   -.209E+03 -.209E+03 -.250E+03   0.154E+02 0.154E+02 0.161E+02   -.437E-02 -.437E-02 0.101E-01
   0.219E+03 0.219E+03 0.209E+03   -.235E+03 -.235E+03 -.225E+03   0.155E+02 0.155E+02 0.160E+02   0.401E-03 0.401E-03 -.605E-02
   0.240E+03 0.240E+03 0.177E+03   -.256E+03 -.256E+03 -.192E+03   0.160E+02 0.160E+02 0.154E+02   0.546E-02 0.546E-02 -.147E-01
   0.171E+03 -.180E+03 -.171E+03   -.180E+03 0.189E+03 0.180E+03   0.984E+01 -.871E+01 -.984E+01   -.352E-01 -.953E-01 0.352E-01
   0.193E+03 -.234E+03 -.193E+03   -.209E+03 0.250E+03 0.209E+03   0.154E+02 -.161E+02 -.154E+02   -.437E-02 -.101E-01 0.437E-02
   0.219E+03 -.209E+03 -.219E+03   -.235E+03 0.225E+03 0.235E+03   0.155E+02 -.160E+02 -.155E+02   0.401E-03 0.605E-02 -.401E-03
   0.240E+03 -.177E+03 -.240E+03   -.256E+03 0.192E+03 0.256E+03   0.160E+02 -.154E+02 -.160E+02   0.546E-02 0.147E-01 -.546E-02
   -.180E+03 0.171E+03 -.171E+03   0.189E+03 -.180E+03 0.180E+03   -.871E+01 0.984E+01 -.984E+01   -.953E-01 -.352E-01 0.352E-01
   -.234E+03 0.193E+03 -.193E+03   0.250E+03 -.209E+03 0.209E+03   -.161E+02 0.154E+02 -.154E+02   -.101E-01 -.437E-02 0.437E-02
   -.209E+03 0.219E+03 -.219E+03   0.225E+03 -.235E+03 0.235E+03   -.160E+02 0.155E+02 -.155E+02   0.605E-02 0.401E-03 -.401E-03
   -.177E+03 0.240E+03 -.240E+03   0.192E+03 -.256E+03 0.256E+03   -.154E+02 0.160E+02 -.160E+02   0.147E-01 0.546E-02 -.546E-02
   -.178E+03 -.178E+03 0.178E+03   0.187E+03 0.187E+03 -.187E+03   -.896E+01 -.896E+01 0.896E+01   0.409E-01 0.409E-01 -.409E-01
   -.238E+03 -.238E+03 0.238E+03   0.252E+03 0.252E+03 -.252E+03   -.140E+02 -.140E+02 0.140E+02   -.127E-01 -.127E-01 0.127E-01
   -.222E+03 -.222E+03 0.222E+03   0.237E+03 0.237E+03 -.237E+03   -.148E+02 -.148E+02 0.148E+02   0.877E-03 0.877E-03 -.877E-03
   -.196E+03 -.196E+03 0.196E+03   0.211E+03 0.211E+03 -.211E+03   -.148E+02 -.148E+02 0.148E+02   0.475E-02 0.475E-02 -.475E-02
   -.171E+03 -.171E+03 -.180E+03   0.180E+03 0.180E+03 0.189E+03   -.984E+01 -.984E+01 -.871E+01   0.352E-01 0.352E-01 -.953E-01
   -.240E+03 -.240E+03 -.177E+03   0.256E+03 0.256E+03 0.192E+03   -.160E+02 -.160E+02 -.154E+02   -.546E-02 -.546E-02 0.147E-01
   -.219E+03 -.219E+03 -.209E+03   0.235E+03 0.235E+03 0.225E+03   -.155E+02 -.155E+02 -.160E+02   -.401E-03 -.401E-03 0.605E-02
   -.193E+03 -.193E+03 -.234E+03   0.209E+03 0.209E+03 0.250E+03   -.154E+02 -.154E+02 -.161E+02   0.437E-02 0.437E-02 -.101E-01
   -.171E+03 0.180E+03 0.171E+03   0.180E+03 -.189E+03 -.180E+03   -.984E+01 0.871E+01 0.984E+01   0.352E-01 0.953E-01 -.352E-01
   -.240E+03 0.177E+03 0.240E+03   0.256E+03 -.192E+03 -.256E+03   -.160E+02 0.154E+02 0.160E+02   -.546E-02 -.147E-01 0.546E-02
   -.219E+03 0.209E+03 0.219E+03   0.235E+03 -.225E+03 -.235E+03   -.155E+02 0.160E+02 0.155E+02   -.401E-03 -.605E-02 0.401E-03
   -.193E+03 0.234E+03 0.193E+03   0.209E+03 -.250E+03 -.209E+03   -.154E+02 0.161E+02 0.154E+02   0.437E-02 0.101E-01 -.437E-02
   0.180E+03 -.171E+03 0.171E+03   -.189E+03 0.180E+03 -.180E+03   0.871E+01 -.984E+01 0.984E+01   0.953E-01 0.352E-01 -.352E-01
   0.177E+03 -.240E+03 0.240E+03   -.192E+03 0.256E+03 -.256E+03   0.154E+02 -.160E+02 0.160E+02   -.147E-01 -.546E-02 0.546E-02
   0.209E+03 -.219E+03 0.219E+03   -.225E+03 0.235E+03 -.235E+03   0.160E+02 -.155E+02 0.155E+02   -.605E-02 -.401E-03 0.401E-03
   0.234E+03 -.193E+03 0.193E+03   -.250E+03 0.209E+03 -.209E+03   0.161E+02 -.154E+02 0.154E+02   0.101E-01 0.437E-02 -.437E-02
   0.238E+03 0.238E+03 -.238E+03   -.252E+03 -.252E+03 0.252E+03   0.140E+02 0.140E+02 -.140E+02   0.127E-01 0.127E-01 -.127E-01
   0.178E+03 0.178E+03 -.178E+03   -.187E+03 -.187E+03 0.187E+03   0.896E+01 0.896E+01 -.896E+01   -.409E-01 -.409E-01 0.409E-01
   0.196E+03 0.196E+03 -.196E+03   -.211E+03 -.211E+03 0.211E+03   0.148E+02 0.148E+02 -.148E+02   -.475E-02 -.475E-02 0.475E-02
   0.222E+03 0.222E+03 -.222E+03   -.237E+03 -.237E+03 0.237E+03   0.148E+02 0.148E+02 -.148E+02   -.877E-03 -.877E-03 0.877E-03
   0.616E-09 0.159E-08 0.123E-09   -.227E-12 -.654E-12 0.398E-12   0.213E-13 0.195E-13 0.000E+00   -.435E-11 -.399E-11 -.688E-11

 POSITION                                       TOTAL-FORCE (eV/Angst)
      2.88967      2.88967      3.07319         0.008551      0.008551     -0.008551
      5.00646      1.03122      0.95641        -0.008551     -0.008551      0.008551
     11.68362     11.68362     -7.70910        -0.006929     -0.006929     -0.001118
      3.94559      3.94559      0.03039         0.006929      0.006929      0.001118
      7.84774      7.84774      0.10330         0.004629      0.004629      0.000490
     11.75671      7.78147     -3.80677        -0.004629     -0.004629     -0.000490
     11.68362     13.67197     -5.72075        -0.006929      0.001118      0.006929
      3.94559      5.93248      2.01728         0.006929     -0.001118     -0.006929
      7.84774      5.85957     -1.88487         0.004629     -0.000490     -0.004629
     11.75671      5.79439     -5.79384        -0.004629      0.000490      0.004629
     13.67197     11.68362     -5.72075         0.001118     -0.006929      0.006929
      5.93248      3.94559      2.01728        -0.001118      0.006929     -0.006929
      9.83481      3.87249     -1.88487        -0.000490      0.004629     -0.004629
      9.76963      7.78147     -5.79384         0.000490     -0.004629      0.004629
      1.96044      1.96044      0.02718         0.000000      0.000000      0.000000
      5.89469      5.89469      0.06818         0.000414      0.000414     -0.000414
      9.80222      5.82698     -3.83936         0.000000      0.000000      0.000000
     13.70976      9.73451     -3.77165        -0.000414     -0.000414      0.000414
      6.06684      2.09159      2.09615        -0.003993     -0.003993      0.010360
      5.99460      5.99460     -1.79189        -0.000014     -0.000014      0.001523
      9.90520      9.90520     -1.72738        -0.002454     -0.002454      0.001134
     13.81583      9.84058     -5.64970        -0.001177     -0.001177      0.002800
      6.06684     -0.10853     -0.10397        -0.003993     -0.010360      0.003993
      5.99460      7.75475     -0.03174        -0.000014     -0.001523      0.000014
      9.90520      7.69025     -3.94233        -0.002454     -0.001134      0.002454
     13.81583     11.61256     -3.87772        -0.001177     -0.002800      0.001177
      3.86672      2.09159     -0.10397        -0.010360     -0.003993      0.003993
      7.75475      5.99460     -0.03174        -0.001523     -0.000014      0.000014
     11.66549      5.92996     -3.94233        -0.001134     -0.002454      0.002454
     11.61256     13.81583     -3.87772        -0.002800     -0.001177      0.001177
      3.82515     -0.15009      2.13772        -0.002082     -0.002082      0.002082
      3.80490      3.80490     -1.81728        -0.002196     -0.002196      0.002196
      7.69854      7.69854     -1.73568         0.002930      0.002930     -0.002930
     11.60889      7.63365     -5.64602        -0.002577     -0.002577      0.002577
      1.82930      1.82930      1.93345         0.003993      0.003993     -0.010360
      5.78862      1.81338     -2.02902         0.001177      0.001177     -0.002800
      9.69925      5.72400     -1.97609         0.002454      0.002454     -0.001134
      9.63460      9.63460     -5.88683         0.000014      0.000014     -0.001523
      1.82930      0.05417      0.15832         0.003993      0.010360     -0.003993
      5.78862      4.01664      0.17425         0.001177      0.002800     -0.001177
      9.69925      3.96371     -3.73638         0.002454      0.001134     -0.002454
      9.63460     11.84969     -3.67173         0.000014      0.001523     -0.000014
      4.02942     -2.14595      0.15832         0.010360      0.003993     -0.003993
      4.01664      5.78862      0.17425         0.002800      0.001177     -0.001177
      7.93896      5.72400     -3.73638         0.001134      0.002454     -0.002454
     11.84969      9.63460     -3.67173         0.001523      0.000014     -0.000014
     11.82430     11.82430     -5.86144         0.002196      0.002196     -0.002196
      4.07098      4.07098      1.89188         0.002082      0.002082     -0.002082
      7.99556      4.02031     -2.03269         0.002577      0.002577     -0.002577
     11.90590      7.93066     -1.96779        -0.002930     -0.002930      0.002930
    total drift:                                0.000000      0.000000      0.000000

  FREE ENERGIE OF THE ION-ELECTRON SYSTEM (eV)
  free  energy   TOTEN  =      -314.6353779367 eV

  energy  without entropy=     -314.5995273857  energy(sigma->0) =     -314.61745266

 d Force = 0.1926577E-03[-0.227E-04, 0.408E-03]  d Energy = 0.4384118E-03-0.246E-03
 d Force = 0.4656336E+01[ 0.465E+01, 0.466E+01]  d Ewald  =-0.4492924E+00 0.511E+01

 Quasi-Newton relaxation of ions (Broydens 2nd method)
  g(Force)  = 0.117E-03   g(Stress)= 0.143E-05

 retain information from N=  1 steps
 eigenvalues of (default step * inverse Hessian matrix)
  average eigenvalue of G=   0.4348
 eigenvalue spectrum of G is  0.4348

 reached required accuracy - stopping structural energy minimisation

volume of typ            1:     3.2 %

[...]

volume of typ            3:    10.6 %

total charge

# of ion       s       p       d       tot
    1        2.110   0.340   0.129   2.579
    2        2.110   0.340   0.129   2.579
    3        0.296   0.423   7.844   8.563
    4        0.296   0.423   7.844   8.563
    5        0.299   0.427   7.835   8.561
    6        0.299   0.427   7.835   8.561
    7        0.296   0.423   7.844   8.563
    8        0.296   0.423   7.844   8.563
    9        0.299   0.427   7.835   8.561
   10        0.299   0.427   7.835   8.561
   11        0.296   0.423   7.844   8.563
   12        0.296   0.423   7.844   8.563
   13        0.299   0.427   7.835   8.561
   14        0.299   0.427   7.835   8.561
   15        0.265   0.352   7.864   8.481
   16        0.293   0.407   7.841   8.540
   17        0.297   0.415   7.837   8.548
   18        0.293   0.407   7.841   8.540
   19        1.260   2.797   0.007   4.064
   20        1.282   2.729   0.008   4.019
   21        1.282   2.729   0.008   4.019
   22        1.280   2.732   0.008   4.021
   23        1.260   2.797   0.007   4.064
   24        1.282   2.729   0.008   4.019
   25        1.282   2.729   0.008   4.019
   26        1.280   2.732   0.008   4.021
   27        1.260   2.797   0.007   4.064
   28        1.282   2.729   0.008   4.019
   29        1.282   2.729   0.008   4.019
   30        1.280   2.732   0.008   4.021
   31        1.269   2.775   0.007   4.051
   32        1.285   2.723   0.008   4.016
   33        1.284   2.726   0.009   4.018
   34        1.284   2.727   0.009   4.019
   35        1.260   2.797   0.007   4.064
   36        1.280   2.732   0.008   4.021
   37        1.282   2.729   0.008   4.019
   38        1.282   2.729   0.008   4.019
   39        1.260   2.797   0.007   4.064
   40        1.280   2.732   0.008   4.021
   41        1.282   2.729   0.008   4.019
   42        1.282   2.729   0.008   4.019
   43        1.260   2.797   0.007   4.064
   44        1.280   2.732   0.008   4.021
   45        1.282   2.729   0.008   4.019
   46        1.282   2.729   0.008   4.019
   47        1.285   2.723   0.008   4.016
   48        1.269   2.775   0.007   4.051
   49        1.284   2.727   0.009   4.019
   50        1.284   2.726   0.009   4.018
tot          49.80   95.19  125.97  270.96

magnetization (x)

# of ion       s       p       d       tot
    1       -0.002  -0.004  -0.002  -0.007
    2       -0.002  -0.004  -0.002  -0.007
    3        0.001   0.001  -0.084  -0.082
    4        0.001   0.001  -0.084  -0.082
    5        0.000   0.000  -0.005  -0.005
    6        0.000   0.000  -0.005  -0.005
    7        0.001   0.001  -0.084  -0.082
    8        0.001   0.001  -0.084  -0.082
    9        0.000   0.000  -0.005  -0.005
   10        0.000   0.000  -0.005  -0.005
   11        0.001   0.001  -0.084  -0.082
   12        0.001   0.001  -0.084  -0.082
   13        0.000   0.000  -0.005  -0.005
   14        0.000   0.000  -0.005  -0.005
   15        0.000   0.001  -0.625  -0.623
   16        0.000   0.000  -0.065  -0.065
   17       -0.000   0.000  -0.022  -0.021
   18        0.000   0.000  -0.065  -0.065
   19       -0.004  -0.044  -0.000  -0.048
   20       -0.000  -0.008  -0.000  -0.009
   21       -0.000  -0.000  -0.000  -0.000
   22       -0.000   0.003  -0.000   0.003
   23       -0.004  -0.044  -0.000  -0.048
   24       -0.000  -0.008  -0.000  -0.009
   25       -0.000  -0.000  -0.000  -0.000
   26       -0.000   0.003  -0.000   0.003
   27       -0.004  -0.044  -0.000  -0.048
   28       -0.000  -0.008  -0.000  -0.009
   29       -0.000  -0.000  -0.000  -0.000
   30       -0.000   0.003  -0.000   0.003
   31       -0.005  -0.033  -0.000  -0.039
   32       -0.004  -0.062  -0.000  -0.066
   33       -0.000  -0.003  -0.000  -0.004
   34       -0.000  -0.003  -0.000  -0.003
   35       -0.004  -0.044  -0.000  -0.048
   36       -0.000   0.003  -0.000   0.003
   37       -0.000  -0.000  -0.000  -0.000
   38       -0.000  -0.008  -0.000  -0.009
   39       -0.004  -0.044  -0.000  -0.048
   40       -0.000   0.003  -0.000   0.003
   41       -0.000  -0.000  -0.000  -0.000
   42       -0.000  -0.008  -0.000  -0.009
   43       -0.004  -0.044  -0.000  -0.048
   44       -0.000   0.003  -0.000   0.003
   45       -0.000  -0.000  -0.000  -0.000
   46       -0.000  -0.008  -0.000  -0.009
   47       -0.004  -0.062  -0.000  -0.066
   48       -0.005  -0.033  -0.000  -0.039
   49       -0.000  -0.003  -0.000  -0.003
   50       -0.000  -0.003  -0.000  -0.004
tot          -0.05   -0.50   -1.31   -1.86