 vasp.5.4.4.18Apr17-6-g9f103f2a35 (build May 12 2020 05:39:39) gamma-only

 MD_VERSION_INFO: Compiled 2020-05-12T12:39:39-UTC in devlin.sd.materialsdesign.
 com:/home/medea2/data/build/wwolf/vasp-gpu5.4.4/13047/x86_64/src/src/build/gam
 from svn 13047

 executed on                        Lin64 date 2023.02.09  14:29:42

 INCAR:
 POTCAR:    PAW_PBE Li_sv 10Sep2004
 POTCAR:    PAW_PBE Ni 02Aug2007
 POTCAR:    PAW_PBE O 08Apr2002

 POTCAR:    PAW_PBE Li_sv 10Sep2004

 POTCAR:    PAW_PBE Ni 02Aug2007

 POTCAR:    PAW_PBE O 08Apr2002

 Optimization of the real space projectors (new method)

 maximal supplied QI-value         = 22.11
 optimisation between [QCUT,QGAM] = [ 11.28, 22.77] = [ 35.61,145.23] Ry
 Optimized for a Real-space Cutoff    1.10 Angstroem

   l    n(q)    QCUT    max X(q) W(low)/X(q) W(high)/X(q)  e(spline)
   0      7    11.276    10.506    0.54E-04    0.58E-04    0.16E-07
   0      7    11.276     8.367    0.11E-03    0.14E-03    0.35E-07
   1      7    11.276     8.983    0.23E-03    0.43E-03    0.86E-07
 Optimization of the real space projectors (new method)

[...]

   l    n(q)    QCUT    max X(q) W(low)/X(q) W(high)/X(q)  e(spline)
   2      9    11.376    60.317    0.17E-03    0.16E-04    0.16E-06
   2      9    11.376    55.921    0.17E-03    0.16E-04    0.17E-06
   0     10    11.376    51.690    0.45E-04    0.60E-04    0.21E-06
   0     10    11.376    30.015    0.37E-04    0.55E-04    0.19E-06
   1     10    11.376    18.849    0.83E-04    0.11E-03    0.92E-07
   1     10    11.376    14.624    0.69E-04    0.92E-04    0.82E-07
 Optimization of the real space projectors (new method)

 maximal supplied QI-value         = 24.76
 optimisation between [QCUT,QGAM] = [ 11.39, 22.77] = [ 36.31,145.25] Ry
 Optimized for a Real-space Cutoff    1.10 Angstroem

   l    n(q)    QCUT    max X(q) W(low)/X(q) W(high)/X(q)  e(spline)
   0      7    11.387    20.381    0.22E-03    0.48E-03    0.18E-06
   0      7    11.387    15.268    0.22E-03    0.52E-03    0.19E-06
   1      7    11.387     5.964    0.22E-03    0.73E-03    0.24E-06
   1      7    11.387     5.382    0.19E-03    0.60E-03    0.21E-06

  PAW_PBE Li_sv 10Sep2004               :
  PAW_PBE Ni 02Aug2007                  :
  PAW_PBE O 08Apr2002                   :

 POSCAR: ce61_1
  positions in direct lattice
 exchange correlation table for  LEXCH =       14
   RHO(1)=    0.500       N(1)  =     2000
   RHO(2)=  100.500       N(2)  =     4000

 ion  position               nearest neighbor table
   1  0.940  0.470  0.090-  40 1.91  44 1.91  36 1.91  49 1.97
   2  0.440  0.720  0.340-  41 1.90  37 1.90  45 1.90  50 1.98
   3  0.940  0.970  0.591-  42 1.91  46 1.91  38 1.91  51 1.98
   4  1.000  1.000  0.999-  32 1.85  27 1.86  31 1.86  48 1.86  44 1.87  40 1.87  19 2.76  12 2.81
                             8 2.81  16 2.83   8 2.83  12 2.83
   5  0.498  0.249  0.250-  24 1.85  28 1.85  33 1.85  45 1.87  41 1.87  49 1.87  16 2.74   9 2.80
                            13 2.80  17 2.82  13 2.83   9 2.83
   6  0.998  0.499  0.500-  25 1.85  29 1.85  34 1.85  46 1.87  42 1.87  50 1.87  17 2.74  14 2.80
                            10 2.80  18 2.81  10 2.84  14 2.84
   7  0.499  0.749  0.751-  35 1.85  30 1.86  26 1.86  43 1.86  47 1.86  51 1.87  18 2.76  19 2.77
                            11 2.81  15 2.81  15 2.83  11 2.83
   8  0.501  1.000  0.999-  32 1.85  23 1.86  31 1.86  48 1.86  36 1.87  44 1.87  19 2.76  12 2.81
                             4 2.81  16 2.83   4 2.83  12 2.83
   9  0.001  0.249  0.250-  20 1.85  28 1.85  33 1.85  37 1.87  45 1.87  49 1.87  16 2.74   5 2.80
                            13 2.80  17 2.82  13 2.83   5 2.83
  10  0.501  0.499  0.500-  21 1.85  29 1.85  34 1.85  46 1.87  38 1.87  50 1.87  17 2.74  14 2.80
                             6 2.80  18 2.81   6 2.84  14 2.84
  11  1.000  0.749  0.751-  35 1.85  30 1.86  22 1.86  39 1.86  47 1.86  51 1.87  18 2.76  19 2.77
                             7 2.81  15 2.81  15 2.83   7 2.83
  12  0.501  0.501  0.999-  32 1.85  23 1.86  27 1.86  48 1.86  36 1.87  40 1.87  19 2.76   8 2.81
                             4 2.81  16 2.83   4 2.83   8 2.83
  13  0.001  0.752  0.250-  24 1.85  20 1.85  33 1.85  37 1.87  41 1.87  49 1.87  16 2.74   5 2.80
                             9 2.80  17 2.82   9 2.83   5 2.83
  14  0.501  0.002  0.500-  21 1.85  25 1.85  34 1.85  38 1.87  42 1.87  50 1.87  17 2.74  10 2.80
                             6 2.80  18 2.81   6 2.84  10 2.84
  15  1.000  0.251  0.751-  35 1.85  26 1.86  22 1.86  39 1.86  43 1.86  51 1.87  18 2.76  19 2.77
                             7 2.81  11 2.81  11 2.83   7 2.83
  16  0.249  0.124  0.127-  20 1.89  28 1.89  24 1.89  40 1.91  44 1.91  36 1.91   9 2.74   5 2.74
                            13 2.74   4 2.83  12 2.83   8 2.83
  17  0.749  0.374  0.377-  21 1.89  29 1.89  25 1.89  37 1.91  45 1.91  41 1.91   6 2.74  10 2.74
                            14 2.74  13 2.82   9 2.82   5 2.82
  18  0.249  0.624  0.627-  22 1.87  30 1.87  26 1.87  38 1.90  42 1.90  46 1.90  11 2.76   7 2.76
                            15 2.76   6 2.81  14 2.81  10 2.81
  19  0.750  0.875  0.875-  39 1.87  43 1.87  47 1.87  23 1.88  27 1.88  31 1.88  12 2.76   8 2.76
                             4 2.76  11 2.77  15 2.77   7 2.77
  20  0.906  0.953  0.193-   9 1.85  13 1.85  16 1.89
  21  0.405  0.202  0.444-  14 1.85  10 1.85  17 1.89
  22  0.909  0.454  0.693-  11 1.86  15 1.86  18 1.87
  23  0.408  0.704  0.942-   8 1.86  12 1.86  19 1.88
  24  0.354  0.953  0.193-   5 1.85  13 1.85  16 1.89
  25  0.854  0.202  0.444-   6 1.85  14 1.85  17 1.89
  26  0.352  0.454  0.693-   7 1.86  15 1.86  18 1.87
  27  0.854  0.704  0.942-   4 1.86  12 1.86  19 1.88
  28  0.354  0.402  0.193-   5 1.85   9 1.85  16 1.89
  29  0.854  0.652  0.444-  10 1.85   6 1.85  17 1.89
  30  0.352  0.898  0.693-   7 1.86  11 1.86  18 1.87
  31  0.854  0.150  0.942-   8 1.86   4 1.86  19 1.88
  32  0.635  0.817  0.048-   4 1.85  12 1.85   8 1.85
  33  0.133  0.067  0.300-   5 1.85   9 1.85  13 1.85
  34  0.633  0.317  0.550-   6 1.85  10 1.85  14 1.85
  35  0.133  0.566  0.801-   7 1.85  11 1.85  15 1.85
  36  0.590  0.295  0.057-   8 1.87  12 1.87   1 1.91  16 1.91
  37  0.090  0.545  0.308-  13 1.87   9 1.87   2 1.90  17 1.91
  38  0.589  0.795  0.558-  14 1.87  10 1.87  18 1.90   3 1.91
  39  0.088  0.044  0.808-  11 1.86  15 1.86  19 1.87
  40  0.148  0.295  0.057-   4 1.87  12 1.87   1 1.91  16 1.91
  41  0.647  0.545  0.308-   5 1.87  13 1.87   2 1.90  17 1.91
  42  0.147  0.795  0.558-   6 1.87  14 1.87  18 1.90   3 1.91
  43  0.647  0.044  0.808-   7 1.86  15 1.86  19 1.87
  44  0.148  0.853  0.057-   4 1.87   8 1.87   1 1.91  16 1.91
  45  0.647  0.103  0.308-   5 1.87   9 1.87   2 1.90  17 1.91
  46  0.147  0.352  0.558-   6 1.87  10 1.87  18 1.90   3 1.91
  47  0.647  0.603  0.808-   7 1.86  11 1.86  19 1.87
  48  0.367  0.183  0.950-   4 1.86   8 1.86  12 1.86
  49  0.867  0.434  0.199-  13 1.87   5 1.87   9 1.87   1 1.97
  50  0.367  0.683  0.450-   6 1.87  10 1.87  14 1.87   2 1.98
  51  0.866  0.933  0.701-   7 1.87  15 1.87  11 1.87   3 1.98

  LATTYP: Found a trigonal (rhomboedric) cell.
 ALAT       =    18.3158256000
 COS(alpha) =     0.9526215251

  Lattice vectors:

 A1 = ( -11.7352139727, -11.7352139727,   7.7484820089)
 A2 = (  -7.7484820089, -11.7352139727,  11.7352139727)
 A3 = ( -11.7352139727,  -7.7484820089,  11.7352139727)

Analysis of symmetry for initial positions (statically):
 Subroutine PRICEL returns:
 Original cell was already a primitive cell.

 Routine SETGRP: Setting up the symmetry group for a
 trigonal (rhombohedral) supercell.

 Subroutine GETGRP returns: Found  6 space group operations
 (whereof  2 operations were pure point group operations)
 out of a pool of 12 trial point group operations.

The static configuration has the point symmetry C_1h.
 The point group associated with its full space group is C_3v.

Analysis of symmetry for dynamics (positions and initial velocities):
 Subroutine PRICEL returns:
 Original cell was already a primitive cell.

[...]

The dynamic configuration has the point symmetry C_1h.
 The point group associated with its full space group is C_3v.

Analysis of structural, dynamic, and magnetic symmetry:
 Subroutine PRICEL returns:
 Original cell was already a primitive cell.

 Routine SETGRP: Setting up the symmetry group for a
 trigonal (rhombohedral) supercell.

 Subroutine GETGRP returns: Found  6 space group operations
 (whereof  2 operations were pure point group operations)
 out of a pool of 12 trial point group operations.

The magnetic configuration has the point symmetry C_1h.
 The point group associated with its full space group is C_3v.

 Subroutine INISYM returns: Found  6 space group operations
 (whereof  2 operations are pure point group operations),
 and found     1 'primitive' translations

 KPOINTS: Automatic mesh

Automatic generation of k-mesh.
Space group operators:
 irot       det(A)        alpha          n_x          n_y          n_z        tau_x        tau_y        tau_z
    1     1.000000     0.000001     1.000000     0.000000     0.000000     0.000000     0.000000     0.000000
    2    -1.000000   179.999999     0.707107    -0.707107    -0.000000     0.000000     0.000000     0.000000
    3     1.000000   120.000000     0.577350     0.577350    -0.577350     0.500000     0.500000    -1.000000
    4    -1.000000   180.000000     0.707107     0.000000     0.707107     0.500000     0.500000    -1.000000
    5     1.000000   120.000000    -0.577350    -0.577350     0.577350     0.500000    -0.000000    -1.000000
    6    -1.000000   180.000000    -0.000000     0.707107     0.707107     0.500000    -0.000000    -1.000000

 Subroutine IBZKPT returns following result:

 Found      1 irreducible k-points:

 Following reciprocal coordinates:
            Coordinates               Weight
  0.000000  0.000000  0.000000      1.000000

 Following cartesian coordinates:
            Coordinates               Weight
  0.000000  0.000000  0.000000      1.000000

 SYSTEM =  unknown system
 POSCAR =  ce61_1

 Startparameter for this run:
   NWRITE =      1    write-flag & timer
   PREC   = accura    normal or accurate (medium, high low for compatibility)
   ISTART =      0    job   : 0-new  1-cont  2-samecut
   ICHARG =      2    charge: 1-file 2-atom 10-const
   ISPIN  =      2    spin polarized calculation?
   LNONCOLLINEAR =      F non collinear calculations
   LSORBIT =      F    spin-orbit coupling
   INIWAV =      1    electr: 0-lowe 1-rand  2-diag
   LASPH  =      F    aspherical Exc in radial PAW
   METAGGA=      F    non-selfconsistent MetaGGA calc.

 Electronic Relaxation 1
   ENCUT  =  500.0 eV  36.75 Ry    6.06 a.u.  10.28 10.28 33.39*2*pi/ulx,y,z
   ENINI  =  500.0     initial cutoff
   ENAUG  =  628.9 eV  augmentation charge cutoff
   NELM   =     80;   NELMIN=  2; NELMDL= -5     # of ELM steps
   EDIFF  = 0.1E-04   stopping-criterion for ELM
   LREAL  =      T    real-space projection
   NLSPLINE    = F    spline interpolate recip. space projectors
   LCOMPAT=      F    compatible to vasp.4.4
   GGA_COMPAT  = T    GGA compatible to vasp.4.4-vasp.4.6
[...]

 FORCES acting on ions
    electron-ion (+dipol)            ewald-force                    non-local-force                 convergence-correction
   0.187E+01 0.187E+01 -.187E+01   -.195E+01 -.195E+01 0.195E+01   0.716E-01 0.716E-01 -.716E-01   -.386E-02 -.386E-02 0.386E-02
   -.471E+01 -.471E+01 0.471E+01   0.465E+01 0.465E+01 -.465E+01   0.736E-01 0.736E-01 -.736E-01   -.129E-01 -.129E-01 0.129E-01
   -.107E+02 -.107E+02 0.107E+02   0.106E+02 0.106E+02 -.106E+02   0.982E-01 0.982E-01 -.982E-01   0.113E-01 0.113E-01 -.113E-01
   0.188E+02 0.188E+02 -.348E+02   -.185E+02 -.185E+02 0.354E+02   -.251E+00 -.251E+00 -.606E+00   -.109E-01 -.109E-01 0.416E-03
   0.249E+01 0.249E+01 -.138E+02   -.191E+01 -.191E+01 0.141E+02   -.542E+00 -.542E+00 -.350E+00   -.426E-01 -.426E-01 0.283E-01
   -.169E+02 -.169E+02 0.432E+01   0.174E+02 0.174E+02 -.392E+01   -.422E+00 -.422E+00 -.409E+00   0.103E-01 0.103E-01 -.559E-02
   -.221E+02 -.221E+02 0.258E+02   0.224E+02 0.224E+02 -.260E+02   -.326E+00 -.326E+00 0.232E+00   0.297E-01 0.297E-01 -.381E-01
   0.188E+02 0.348E+02 -.188E+02   -.185E+02 -.354E+02 0.185E+02   -.251E+00 0.606E+00 0.251E+00   -.109E-01 -.416E-03 0.109E-01
   0.249E+01 0.138E+02 -.249E+01   -.191E+01 -.141E+02 0.191E+01   -.542E+00 0.350E+00 0.542E+00   -.426E-01 -.283E-01 0.426E-01
   -.169E+02 -.432E+01 0.169E+02   0.174E+02 0.392E+01 -.174E+02   -.422E+00 0.409E+00 0.422E+00   0.103E-01 0.559E-02 -.103E-01
   -.221E+02 -.258E+02 0.221E+02   0.224E+02 0.260E+02 -.224E+02   -.326E+00 -.232E+00 0.326E+00   0.297E-01 0.381E-01 -.297E-01
   0.348E+02 0.188E+02 -.188E+02   -.354E+02 -.185E+02 0.185E+02   0.606E+00 -.251E+00 0.251E+00   -.416E-03 -.109E-01 0.109E-01
   0.138E+02 0.249E+01 -.249E+01   -.141E+02 -.191E+01 0.191E+01   0.350E+00 -.542E+00 0.542E+00   -.283E-01 -.426E-01 0.426E-01
   -.432E+01 -.169E+02 0.169E+02   0.392E+01 0.174E+02 -.174E+02   0.409E+00 -.422E+00 0.422E+00   0.559E-02 0.103E-01 -.103E-01
   -.258E+02 -.221E+02 0.221E+02   0.260E+02 0.224E+02 -.224E+02   -.232E+00 -.326E+00 0.326E+00   0.381E-01 0.297E-01 -.297E-01
   0.275E+02 0.275E+02 -.275E+02   -.282E+02 -.282E+02 0.282E+02   0.643E+00 0.643E+00 -.643E+00   -.142E-01 -.142E-01 0.142E-01
   0.621E+01 0.621E+01 -.621E+01   -.674E+01 -.674E+01 0.674E+01   0.573E+00 0.573E+00 -.573E+00   -.398E-01 -.398E-01 0.398E-01
   -.141E+02 -.141E+02 0.141E+02   0.137E+02 0.137E+02 -.137E+02   0.304E+00 0.304E+00 -.304E+00   0.500E-01 0.500E-01 -.500E-01
   0.582E+01 0.582E+01 -.582E+01   -.609E+01 -.609E+01 0.609E+01   0.258E+00 0.258E+00 -.258E+00   0.183E-01 0.183E-01 -.183E-01
   0.223E+03 0.223E+03 0.193E+03   -.239E+03 -.239E+03 -.208E+03   0.156E+02 0.156E+02 0.156E+02   -.108E-01 -.108E-01 0.149E-01
   0.211E+03 0.211E+03 0.203E+03   -.227E+03 -.227E+03 -.218E+03   0.156E+02 0.156E+02 0.153E+02   -.230E-01 -.230E-01 0.241E-02
   0.197E+03 0.197E+03 0.230E+03   -.212E+03 -.212E+03 -.246E+03   0.151E+02 0.151E+02 0.160E+02   0.269E-01 0.269E-01 -.144E-01
   0.225E+03 0.225E+03 0.193E+03   -.241E+03 -.241E+03 -.209E+03   0.159E+02 0.159E+02 0.155E+02   0.695E-02 0.695E-02 0.180E-02
   0.223E+03 -.193E+03 -.223E+03   -.239E+03 0.208E+03 0.239E+03   0.156E+02 -.156E+02 -.156E+02   -.108E-01 -.149E-01 0.108E-01
   0.211E+03 -.203E+03 -.211E+03   -.227E+03 0.218E+03 0.227E+03   0.156E+02 -.153E+02 -.156E+02   -.230E-01 -.241E-02 0.230E-01
   0.197E+03 -.230E+03 -.197E+03   -.212E+03 0.246E+03 0.212E+03   0.151E+02 -.160E+02 -.151E+02   0.269E-01 0.144E-01 -.269E-01
   0.225E+03 -.193E+03 -.225E+03   -.241E+03 0.209E+03 0.241E+03   0.159E+02 -.155E+02 -.159E+02   0.695E-02 -.180E-02 -.695E-02
   -.193E+03 0.223E+03 -.223E+03   0.208E+03 -.239E+03 0.239E+03   -.156E+02 0.156E+02 -.156E+02   -.149E-01 -.108E-01 0.108E-01
   -.203E+03 0.211E+03 -.211E+03   0.218E+03 -.227E+03 0.227E+03   -.153E+02 0.156E+02 -.156E+02   -.241E-02 -.230E-01 0.230E-01
   -.230E+03 0.197E+03 -.197E+03   0.246E+03 -.212E+03 0.212E+03   -.160E+02 0.151E+02 -.151E+02   0.144E-01 0.269E-01 -.269E-01
   -.193E+03 0.225E+03 -.225E+03   0.209E+03 -.241E+03 0.241E+03   -.155E+02 0.159E+02 -.159E+02   -.180E-02 0.695E-02 -.695E-02
   -.202E+03 -.202E+03 0.202E+03   0.216E+03 0.216E+03 -.216E+03   -.140E+02 -.140E+02 0.140E+02   -.117E-01 -.117E-01 0.117E-01
   -.213E+03 -.213E+03 0.213E+03   0.227E+03 0.227E+03 -.227E+03   -.136E+02 -.136E+02 0.136E+02   -.300E-01 -.300E-01 0.300E-01
   -.226E+03 -.226E+03 0.226E+03   0.239E+03 0.239E+03 -.239E+03   -.136E+02 -.136E+02 0.136E+02   0.276E-01 0.276E-01 -.276E-01
   -.219E+03 -.219E+03 0.219E+03   0.233E+03 0.233E+03 -.233E+03   -.147E+02 -.147E+02 0.147E+02   0.116E-01 0.116E-01 -.116E-01
   -.172E+03 -.172E+03 -.183E+03   0.182E+03 0.182E+03 0.192E+03   -.998E+01 -.998E+01 -.864E+01   -.930E-02 -.930E-02 0.991E-02
   -.183E+03 -.183E+03 -.171E+03   0.193E+03 0.193E+03 0.180E+03   -.990E+01 -.990E+01 -.862E+01   -.278E-01 -.278E-01 0.329E-01
   -.195E+03 -.195E+03 -.162E+03   0.205E+03 0.205E+03 0.172E+03   -.997E+01 -.997E+01 -.946E+01   0.289E-01 0.289E-01 -.231E-01
   -.217E+03 -.217E+03 -.211E+03   0.232E+03 0.232E+03 0.226E+03   -.152E+02 -.152E+02 -.156E+02   0.139E-01 0.139E-01 -.187E-01
   -.172E+03 0.183E+03 0.172E+03   0.182E+03 -.192E+03 -.182E+03   -.998E+01 0.864E+01 0.998E+01   -.930E-02 -.991E-02 0.930E-02
   -.183E+03 0.171E+03 0.183E+03   0.193E+03 -.180E+03 -.193E+03   -.990E+01 0.862E+01 0.990E+01   -.278E-01 -.329E-01 0.278E-01
   -.195E+03 0.162E+03 0.195E+03   0.205E+03 -.172E+03 -.205E+03   -.997E+01 0.946E+01 0.997E+01   0.289E-01 0.231E-01 -.289E-01
   -.217E+03 0.211E+03 0.217E+03   0.232E+03 -.226E+03 -.232E+03   -.152E+02 0.156E+02 0.152E+02   0.139E-01 0.187E-01 -.139E-01
   0.183E+03 -.172E+03 0.172E+03   -.192E+03 0.182E+03 -.182E+03   0.864E+01 -.998E+01 0.998E+01   -.991E-02 -.930E-02 0.930E-02
   0.171E+03 -.183E+03 0.183E+03   -.180E+03 0.193E+03 -.193E+03   0.862E+01 -.990E+01 0.990E+01   -.329E-01 -.278E-01 0.278E-01
   0.162E+03 -.195E+03 0.195E+03   -.172E+03 0.205E+03 -.205E+03   0.946E+01 -.997E+01 0.997E+01   0.231E-01 0.289E-01 -.289E-01
   0.211E+03 -.217E+03 0.217E+03   -.226E+03 0.232E+03 -.232E+03   0.156E+02 -.152E+02 0.152E+02   0.187E-01 0.139E-01 -.139E-01
   0.224E+03 0.224E+03 -.224E+03   -.238E+03 -.238E+03 0.238E+03   0.143E+02 0.143E+02 -.143E+02   0.521E-02 0.521E-02 -.521E-02
   0.195E+03 0.195E+03 -.195E+03   -.204E+03 -.204E+03 0.204E+03   0.893E+01 0.893E+01 -.893E+01   -.130E-01 -.130E-01 0.130E-01
   0.184E+03 0.184E+03 -.184E+03   -.193E+03 -.193E+03 0.193E+03   0.879E+01 0.879E+01 -.879E+01   -.208E-01 -.208E-01 0.208E-01
   0.174E+03 0.174E+03 -.174E+03   -.184E+03 -.184E+03 0.184E+03   0.967E+01 0.967E+01 -.967E+01   0.244E-01 0.244E-01 -.244E-01
   -.982E-01 -.982E-01 0.984E-01   -.568E-13 0.227E-12 -.227E-12   0.106E+00 0.106E+00 -.106E+00   -.458E-02 -.458E-02 0.458E-02

 POSITION                                       TOTAL-FORCE (eV/Angst)
      2.92634      2.92634      3.05296        -0.008727     -0.008727      0.008727
      6.85640      2.87020     -0.87710        -0.000735     -0.000735      0.000735
     10.79743      6.81123     -0.83193         0.005766      0.005766     -0.005766
     15.70530     11.71910     -3.75180        -0.004150     -0.004150      0.002013
      3.92224      3.92224      0.05315        -0.001566     -0.001566     -0.002359
      7.85866      7.85866      0.10189         0.003862      0.003862     -0.008396
     11.79770      7.81150     -3.83064         0.000692      0.000692     -0.004055
     15.70530      9.73110     -5.73980        -0.004150     -0.002013      0.004150
      3.92224      1.93995     -1.92914        -0.001566      0.002359      0.001566
      7.85866      5.87741     -1.87936         0.003862      0.008396     -0.003862
     11.79770      9.80994     -1.83220         0.000692      0.004055     -0.000692
     13.71730     11.71910     -5.73980        -0.002013     -0.004150      0.004150
      5.92615     -0.06396     -1.92914         0.002359     -0.001566      0.001566
      5.87741      7.85866     -1.87936         0.008396      0.003862     -0.003862
      9.80994     11.79770     -1.83220         0.004055      0.000692     -0.000692
      1.98049      1.98049      0.01261        -0.005428     -0.005428      0.005428
      5.91489      5.91489      0.06441        -0.002550     -0.002550      0.002550
      9.84586      5.85966     -3.86657         0.001519      0.001519     -0.001519
     13.75680      9.77060     -3.79130        -0.001199     -0.001199      0.001199
      6.06451      2.07831      2.11292         0.004521      0.004521     -0.000662
      6.01663      6.01663     -1.82671         0.008635      0.008635     -0.006028
      9.94620      9.94620     -1.74847         0.001812      0.001812      0.000040
     13.85691      9.87071     -5.67022        -0.000574     -0.000574      0.001727
      6.06451     -0.11982     -0.08521         0.004521      0.000662     -0.004521
      6.01663      7.80601     -0.03734         0.008635      0.006028     -0.008635
      9.94620      7.72777     -3.96690         0.001812     -0.000040     -0.001812
     13.85691     11.64952     -3.89141        -0.000574     -0.001727      0.000574
      3.86638      2.07831     -0.08521         0.000662      0.004521     -0.004521
      7.80601      6.01663     -0.03734         0.006028      0.008635     -0.008635
     11.71397      5.96000     -3.96690        -0.000040      0.001812     -0.001812
     11.64952     13.85691     -3.89141        -0.001727     -0.000574      0.000574
      3.82435     -0.16184      2.15494        -0.001442     -0.001442      0.001442
      3.78567      3.78567     -1.79257         0.003094      0.003094     -0.003094
      7.72165      7.72165     -1.74236         0.007636      0.007636     -0.007636
     11.65382      7.66762     -5.67452         0.001385      0.001385     -0.001385
      1.84616      1.84616      1.91352        -0.007207     -0.007207      0.010702
      5.78027      1.79407     -2.01964        -0.004552     -0.004552      0.009183
      9.71825      5.73205     -1.97249         0.003310      0.003310     -0.001623
      9.66335      9.66335     -5.90990         0.001010      0.001010      0.001157
      1.84616      0.07958      0.14694        -0.007207     -0.010702      0.007207
      5.78027      4.01274      0.19903        -0.004552     -0.009183      0.004552
      9.71825      3.96559     -3.73895         0.003310      0.001623     -0.003310
      9.66335     11.88920     -3.68405         0.001010     -0.001157     -0.001010
      4.06577     -2.14004      0.14694        -0.010702     -0.007207      0.007207
      4.01274      5.78027      0.19903        -0.009183     -0.004552      0.004552
      7.95179      5.73205     -3.73895         0.001623      0.003310     -0.003310
     11.88920      9.66335     -3.68405        -0.001157      0.001010     -0.001010
     11.87239     11.87239     -5.89309        -0.007029     -0.007029      0.007029
      4.06528      4.06528      1.91401        -0.005285     -0.005285      0.005285
      7.99986      4.01366     -2.02056         0.002032      0.002032     -0.002032
     11.94048      7.95428     -1.97499         0.001074      0.001074     -0.001074
    total drift:                                0.003162      0.003214     -0.002973

  FREE ENERGIE OF THE ION-ELECTRON SYSTEM (eV)
  free  energy   TOTEN  =      -320.2795073425 eV

  energy  without entropy=     -320.2625740876  energy(sigma->0) =     -320.27104072

 d Force = 0.9234187E-04[ 0.683E-04, 0.116E-03]  d Energy = 0.9304284E-04-0.701E-06
 d Force = 0.6365437E+00[ 0.636E+00, 0.637E+00]  d Ewald  =-0.4080189E+00 0.104E+01

 Quasi-Newton relaxation of ions (Broydens 2nd method)
  g(Force)  = 0.156E-03   g(Stress)= 0.312E-05

 retain information from N=  1 steps
 eigenvalues of (default step * inverse Hessian matrix)
  average eigenvalue of G=   0.3598
 eigenvalue spectrum of G is  0.3598

 reached required accuracy - stopping structural energy minimisation

volume of typ            1:     4.7 %

[...]

volume of typ            3:    10.5 %

total charge

# of ion       s       p       d       tot
    1        2.105   0.329   0.125   2.560
    2        2.106   0.330   0.125   2.562
    3        2.105   0.326   0.124   2.555
    4        0.296   0.422   7.837   8.555
    5        0.295   0.421   7.842   8.558
    6        0.295   0.421   7.843   8.559
    7        0.297   0.422   7.837   8.556
    8        0.296   0.422   7.837   8.555
    9        0.295   0.421   7.842   8.558
   10        0.295   0.421   7.843   8.559
   11        0.297   0.422   7.837   8.556
   12        0.296   0.422   7.837   8.555
   13        0.295   0.421   7.842   8.558
   14        0.295   0.421   7.843   8.559
   15        0.297   0.422   7.837   8.556
   16        0.275   0.371   7.856   8.503
   17        0.273   0.367   7.859   8.499
   18        0.284   0.388   7.849   8.520
   19        0.290   0.401   7.842   8.533
   20        1.278   2.737   0.008   4.023
   21        1.278   2.737   0.008   4.023
   22        1.279   2.735   0.008   4.022
   23        1.281   2.730   0.008   4.018
   24        1.278   2.737   0.008   4.023
   25        1.278   2.737   0.008   4.023
   26        1.279   2.735   0.008   4.022
   27        1.281   2.730   0.008   4.018
   28        1.278   2.737   0.008   4.023
   29        1.278   2.737   0.008   4.023
   30        1.279   2.735   0.008   4.022
   31        1.281   2.730   0.008   4.018
   32        1.282   2.734   0.009   4.024
   33        1.283   2.731   0.008   4.022
   34        1.283   2.733   0.008   4.024
   35        1.284   2.721   0.008   4.014
   36        1.263   2.786   0.007   4.056
   37        1.263   2.787   0.007   4.057
   38        1.263   2.788   0.007   4.057
   39        1.282   2.728   0.008   4.018
   40        1.263   2.786   0.007   4.056
   41        1.263   2.787   0.007   4.057
   42        1.263   2.788   0.007   4.057
   43        1.282   2.728   0.008   4.018
   44        1.263   2.786   0.007   4.056
   45        1.263   2.787   0.007   4.057
   46        1.263   2.788   0.007   4.057
   47        1.282   2.728   0.008   4.018
   48        1.284   2.722   0.008   4.015
   49        1.269   2.773   0.007   4.048
   50        1.269   2.771   0.007   4.048
   51        1.268   2.773   0.007   4.048
tot          51.77   95.61  126.10  273.48

magnetization (x)

# of ion       s       p       d       tot
    1       -0.001   0.001   0.001   0.001
    2       -0.002   0.001   0.001   0.000
    3       -0.001   0.001   0.001   0.000
    4       -0.000   0.000   0.002   0.002
    5        0.000   0.000  -0.064  -0.064
    6        0.000   0.000  -0.082  -0.082
    7       -0.000   0.000  -0.033  -0.033
    8       -0.000   0.000   0.002   0.002
    9        0.000   0.000  -0.064  -0.064
   10        0.000   0.000  -0.082  -0.082
   11       -0.000   0.000  -0.033  -0.033
   12       -0.000   0.000   0.002   0.002
   13        0.000   0.000  -0.064  -0.064
   14        0.000   0.000  -0.082  -0.082
   15       -0.000   0.000  -0.033  -0.033
   16       -0.000  -0.000   0.400   0.399
   17        0.000  -0.000   0.461   0.461
   18       -0.000   0.000   0.261   0.261
   19       -0.000  -0.000   0.123   0.123
   20        0.000   0.010   0.000   0.010
   21        0.001   0.020   0.000   0.020
   22        0.001   0.015   0.000   0.016
   23        0.000   0.002   0.000   0.003
   24        0.000   0.010   0.000   0.010
   25        0.001   0.020   0.000   0.020
   26        0.001   0.015   0.000   0.016
   27        0.000   0.002   0.000   0.003
   28        0.000   0.010   0.000   0.010
   29        0.001   0.020   0.000   0.020
   30        0.001   0.015   0.000   0.016
   31        0.000   0.002   0.000   0.003
   32       -0.001  -0.008  -0.000  -0.009
   33       -0.004  -0.049  -0.000  -0.053
   34       -0.004  -0.058  -0.000  -0.063
   35       -0.001  -0.021  -0.000  -0.022
   36        0.004   0.033   0.000   0.037
   37        0.004   0.028   0.000   0.032
   38        0.002   0.011   0.000   0.013
   39        0.001   0.011   0.000   0.011
   40        0.004   0.033   0.000   0.037
   41        0.004   0.028   0.000   0.032
   42        0.002   0.011   0.000   0.013
   43        0.001   0.011   0.000   0.011
   44        0.004   0.033   0.000   0.037
   45        0.004   0.028   0.000   0.032
   46        0.002   0.011   0.000   0.013
   47        0.001   0.011   0.000   0.011
   48       -0.001  -0.014   0.000  -0.014
   49       -0.004  -0.035  -0.000  -0.039
   50       -0.005  -0.038  -0.000  -0.043
   51       -0.002  -0.012  -0.000  -0.013
tot           0.01    0.16    0.72    0.89