 vasp.5.4.4.18Apr17-6-g9f103f2a35 (build May 12 2020 05:39:39) gamma-only

 MD_VERSION_INFO: Compiled 2020-05-12T12:39:39-UTC in devlin.sd.materialsdesign.
 com:/home/medea2/data/build/wwolf/vasp-gpu5.4.4/13047/x86_64/src/src/build/gam
 from svn 13047

 executed on                        Lin64 date 2023.02.09  14:54:56

 INCAR:
 POTCAR:    PAW_PBE Li_sv 10Sep2004
 POTCAR:    PAW_PBE Ni 02Aug2007
 POTCAR:    PAW_PBE O 08Apr2002

 POTCAR:    PAW_PBE Li_sv 10Sep2004

 POTCAR:    PAW_PBE Ni 02Aug2007

 POTCAR:    PAW_PBE O 08Apr2002

 Optimization of the real space projectors (new method)

 maximal supplied QI-value         = 22.11
 optimisation between [QCUT,QGAM] = [ 11.28, 22.77] = [ 35.61,145.23] Ry
 Optimized for a Real-space Cutoff    1.10 Angstroem

   l    n(q)    QCUT    max X(q) W(low)/X(q) W(high)/X(q)  e(spline)
   0      7    11.276    10.506    0.54E-04    0.58E-04    0.16E-07
   0      7    11.276     8.367    0.11E-03    0.14E-03    0.35E-07
   1      7    11.276     8.983    0.23E-03    0.43E-03    0.86E-07
 Optimization of the real space projectors (new method)

[...]

   l    n(q)    QCUT    max X(q) W(low)/X(q) W(high)/X(q)  e(spline)
   2      9    11.376    60.317    0.17E-03    0.16E-04    0.16E-06
   2      9    11.376    55.921    0.17E-03    0.16E-04    0.17E-06
   0     10    11.376    51.690    0.45E-04    0.60E-04    0.21E-06
   0     10    11.376    30.015    0.37E-04    0.55E-04    0.19E-06
   1     10    11.376    18.849    0.83E-04    0.11E-03    0.92E-07
   1     10    11.376    14.624    0.69E-04    0.92E-04    0.82E-07
 Optimization of the real space projectors (new method)

 maximal supplied QI-value         = 24.76
 optimisation between [QCUT,QGAM] = [ 11.39, 22.77] = [ 36.31,145.25] Ry
 Optimized for a Real-space Cutoff    1.10 Angstroem

   l    n(q)    QCUT    max X(q) W(low)/X(q) W(high)/X(q)  e(spline)
   0      7    11.387    20.381    0.22E-03    0.48E-03    0.18E-06
   0      7    11.387    15.268    0.22E-03    0.52E-03    0.19E-06
   1      7    11.387     5.964    0.22E-03    0.73E-03    0.24E-06
   1      7    11.387     5.382    0.19E-03    0.60E-03    0.21E-06

  PAW_PBE Li_sv 10Sep2004               :
  PAW_PBE Ni 02Aug2007                  :
  PAW_PBE O 08Apr2002                   :

 POSCAR: ce52_1
  positions in direct lattice
 exchange correlation table for  LEXCH =       14
   RHO(1)=    0.500       N(1)  =     2000
   RHO(2)=  100.500       N(2)  =     4000

 ion  position               nearest neighbor table
   1  0.940  0.470  0.091-  38 1.92  46 1.92  42 1.92  51 1.99
   2  0.438  0.719  0.343-  47 1.93  43 1.93  39 1.93  52 1.95
   3  0.940  0.970  0.590-  44 1.92  48 1.92  40 1.92  53 1.97
   4  0.561  0.780  0.159-  26 1.92  30 1.92  22 1.92  34 1.98
   5  0.062  0.531  0.906-  29 1.92  33 1.92  25 1.92  37 1.93
   6  0.002  0.001  0.999-  50 1.86  46 1.87  42 1.87  33 1.88  29 1.88  34 1.88  21 2.80  18 2.81
                            14 2.83  10 2.83  10 2.85  14 2.85
   7  0.498  0.249  0.251-  35 1.86  30 1.87  26 1.87  43 1.88  47 1.88  51 1.88  18 2.80  19 2.81
                            11 2.83  15 2.83  15 2.85  11 2.85
   8  0.997  0.499  0.501-  27 1.86  31 1.86  36 1.86  48 1.87  44 1.87  52 1.88  19 2.76  20 2.80
                            16 2.82  12 2.82  12 2.86  16 2.86
   9  0.501  0.750  0.749-  45 1.86  49 1.86  28 1.86  32 1.86  37 1.88  53 1.88  20 2.76  21 2.77
                            17 2.84  13 2.84  13 2.84  17 2.84
  10  0.500  0.001  0.999-  50 1.86  38 1.87  46 1.87  25 1.88  33 1.88  34 1.88  21 2.80  18 2.81
                            14 2.83   6 2.83   6 2.85  14 2.85
  11  1.000  0.249  0.251-  35 1.86  22 1.87  30 1.87  47 1.88  39 1.88  51 1.88  18 2.80  19 2.81
                             7 2.83  15 2.83  15 2.85   7 2.85
  12  0.501  0.499  0.501-  23 1.86  31 1.86  36 1.86  40 1.87  48 1.87  52 1.88  19 2.76  20 2.80
                            16 2.82   8 2.82   8 2.86  16 2.86
  13  0.000  0.750  0.749-  41 1.86  49 1.86  32 1.86  24 1.86  37 1.88  53 1.88  20 2.76  21 2.77
                            17 2.84   9 2.84   9 2.84  17 2.84
  14  0.500  0.499  0.999-  50 1.86  38 1.87  42 1.87  25 1.88  29 1.88  34 1.88  21 2.80  18 2.81
                            10 2.83   6 2.83   6 2.85  10 2.85
  15  1.000  0.751  0.251-  35 1.86  22 1.87  26 1.87  39 1.88  43 1.88  51 1.88  18 2.80  19 2.81
                             7 2.83  11 2.83  11 2.85   7 2.85
  16  0.501  0.002  0.501-  23 1.86  27 1.86  36 1.86  40 1.87  44 1.87  52 1.88  19 2.76  20 2.80
                            12 2.82   8 2.82   8 2.86  12 2.86
  17  0.000  0.250  0.749-  41 1.86  45 1.86  28 1.86  24 1.86  37 1.88  53 1.88  20 2.76  21 2.77
                            13 2.84   9 2.84   9 2.84  13 2.84
  18  0.250  0.125  0.125-  22 1.92  30 1.92  26 1.92  38 1.93  46 1.93  42 1.93   7 2.80  11 2.80
                            15 2.80  14 2.81   6 2.81  10 2.81
  19  0.748  0.374  0.377-  23 1.89  31 1.89  27 1.89  43 1.91  39 1.91  47 1.91  12 2.76   8 2.76
                            16 2.76  15 2.81   7 2.81  11 2.81
  20  0.249  0.625  0.626-  28 1.87  24 1.87  32 1.87  40 1.90  48 1.90  44 1.90   9 2.76  17 2.76
                            13 2.76  12 2.80  16 2.80   8 2.80
  21  0.751  0.876  0.873-  41 1.87  45 1.87  49 1.87  25 1.90  33 1.90  29 1.90   9 2.77  17 2.77
                            13 2.77  10 2.80   6 2.80  14 2.80
  22  0.905  0.952  0.194-  15 1.87  11 1.87   4 1.92  18 1.92
  23  0.408  0.204  0.444-  12 1.86  16 1.86  19 1.89
  24  0.912  0.456  0.692-  13 1.86  17 1.86  20 1.87
  25  0.410  0.705  0.941-  10 1.88  14 1.88  21 1.90   5 1.92
  26  0.354  0.952  0.194-   7 1.87  15 1.87   4 1.92  18 1.92
  27  0.852  0.204  0.444-   8 1.86  16 1.86  19 1.89
  28  0.352  0.456  0.692-   9 1.86  17 1.86  20 1.87
  29  0.854  0.705  0.941-   6 1.88  14 1.88  21 1.90   5 1.92
  30  0.354  0.401  0.194-   7 1.87  11 1.87   4 1.92  18 1.92
  31  0.852  0.648  0.444-   8 1.86  12 1.86  19 1.89
  32  0.352  0.896  0.692-   9 1.86  13 1.86  20 1.87
  33  0.854  0.150  0.941-   6 1.88  10 1.88  21 1.90   5 1.92
  34  0.634  0.817  0.049-   6 1.88  10 1.88  14 1.88   4 1.98
  35  0.133  0.066  0.301-   7 1.86  15 1.86  11 1.86
  36  0.633  0.316  0.551-   8 1.86  12 1.86  16 1.86
  37  0.134  0.567  0.800-   9 1.88  17 1.88  13 1.88   5 1.93
  38  0.594  0.297  0.056-  14 1.87  10 1.87   1 1.92  18 1.93
  39  0.090  0.545  0.309-  11 1.88  15 1.88  19 1.91   2 1.93
  40  0.589  0.794  0.559-  16 1.87  12 1.87  20 1.90   3 1.92
  41  0.088  0.044  0.807-  17 1.86  13 1.86  21 1.87
  42  0.147  0.297  0.056-   6 1.87  14 1.87   1 1.92  18 1.93
  43  0.646  0.545  0.309-   7 1.88  15 1.88  19 1.91   2 1.93
  44  0.147  0.794  0.559-   8 1.87  16 1.87  20 1.90   3 1.92
  45  0.649  0.044  0.807-   9 1.86  17 1.86  21 1.87
  46  0.147  0.850  0.056-   6 1.87  10 1.87   1 1.92  18 1.93
  47  0.646  0.101  0.309-  11 1.88   7 1.88  19 1.91   2 1.93
  48  0.147  0.353  0.559-   8 1.87  12 1.87  20 1.90   3 1.92
  49  0.649  0.605  0.807-   9 1.86  13 1.86  21 1.87
  50  0.367  0.184  0.949-   6 1.86  14 1.86  10 1.86
  51  0.866  0.433  0.201-   7 1.88  15 1.88  11 1.88   1 1.99
  52  0.366  0.683  0.451-   8 1.88  16 1.88  12 1.88   2 1.95
  53  0.868  0.934  0.699-  13 1.88   9 1.88  17 1.88   3 1.97

  LATTYP: Found a trigonal (rhomboedric) cell.
 ALAT       =    18.3522699800
 COS(alpha) =     0.9521114530

  Lattice vectors:

 A1 = ( -11.7638820947, -11.7638820947,   7.7477719083)
 A2 = (  -7.7477719083, -11.7638820947,  11.7638820947)
 A3 = ( -11.7638820947,  -7.7477719083,  11.7638820947)

Analysis of symmetry for initial positions (statically):
 Subroutine PRICEL returns:
 Original cell was already a primitive cell.

 Routine SETGRP: Setting up the symmetry group for a
 trigonal (rhombohedral) supercell.

 Subroutine GETGRP returns: Found  6 space group operations
 (whereof  2 operations were pure point group operations)
 out of a pool of 12 trial point group operations.

The static configuration has the point symmetry C_1h.
 The point group associated with its full space group is C_3v.

Analysis of symmetry for dynamics (positions and initial velocities):
 Subroutine PRICEL returns:
 Original cell was already a primitive cell.

[...]

The dynamic configuration has the point symmetry C_1h.
 The point group associated with its full space group is C_3v.

Analysis of structural, dynamic, and magnetic symmetry:
 Subroutine PRICEL returns:
 Original cell was already a primitive cell.

 Routine SETGRP: Setting up the symmetry group for a
 trigonal (rhombohedral) supercell.

 Subroutine GETGRP returns: Found  6 space group operations
 (whereof  2 operations were pure point group operations)
 out of a pool of 12 trial point group operations.

The magnetic configuration has the point symmetry C_1h.
 The point group associated with its full space group is C_3v.

 Subroutine INISYM returns: Found  6 space group operations
 (whereof  2 operations are pure point group operations),
 and found     1 'primitive' translations

 KPOINTS: Automatic mesh

Automatic generation of k-mesh.
Space group operators:
 irot       det(A)        alpha          n_x          n_y          n_z        tau_x        tau_y        tau_z
    1     1.000000     0.000001     1.000000     0.000000     0.000000     0.000000     0.000000     0.000000
    2    -1.000000   179.999999    -0.707107     0.707107     0.000000     0.000000     0.000000     0.000000
    3     1.000000   120.000000     0.577350     0.577350    -0.577350     0.500000     0.500000    -1.000000
    4    -1.000000   179.999999     0.707107     0.000000     0.707107     0.500000     0.500000    -1.000000
    5     1.000000   120.000000    -0.577350    -0.577350     0.577350     0.500000     0.000000    -1.000000
    6    -1.000000   180.000000     0.000000     0.707107     0.707107     0.500000     0.000000    -1.000000

 Subroutine IBZKPT returns following result:

 Found      1 irreducible k-points:

 Following reciprocal coordinates:
            Coordinates               Weight
  0.000000  0.000000  0.000000      1.000000

 Following cartesian coordinates:
            Coordinates               Weight
  0.000000  0.000000  0.000000      1.000000

 SYSTEM =  unknown system
 POSCAR =  ce52_1

 Startparameter for this run:
   NWRITE =      1    write-flag & timer
   PREC   = accura    normal or accurate (medium, high low for compatibility)
   ISTART =      0    job   : 0-new  1-cont  2-samecut
   ICHARG =      2    charge: 1-file 2-atom 10-const
   ISPIN  =      2    spin polarized calculation?
   LNONCOLLINEAR =      F non collinear calculations
   LSORBIT =      F    spin-orbit coupling
   INIWAV =      1    electr: 0-lowe 1-rand  2-diag
   LASPH  =      F    aspherical Exc in radial PAW
   METAGGA=      F    non-selfconsistent MetaGGA calc.

 Electronic Relaxation 1
   ENCUT  =  500.0 eV  36.75 Ry    6.06 a.u.  10.36 10.36 33.46*2*pi/ulx,y,z
   ENINI  =  500.0     initial cutoff
   ENAUG  =  628.9 eV  augmentation charge cutoff
   NELM   =     80;   NELMIN=  2; NELMDL= -5     # of ELM steps
   EDIFF  = 0.1E-04   stopping-criterion for ELM
[...]
   0.396E+01 0.396E+01 -.396E+01   -.384E+01 -.384E+01 0.384E+01   -.123E+00 -.123E+00 0.123E+00   0.593E-02 0.593E-02 -.593E-02
   0.993E+01 0.993E+01 -.993E+01   -.101E+02 -.101E+02 0.101E+02   0.174E+00 0.174E+00 -.174E+00   0.958E-03 0.957E-03 -.958E-03
   0.257E+02 0.257E+02 -.298E+02   -.259E+02 -.259E+02 0.301E+02   0.998E-01 0.998E-01 -.215E+00   0.324E-01 0.324E-01 -.136E-01
   -.231E+02 -.231E+02 0.257E+02   0.234E+02 0.234E+02 -.260E+02   -.257E+00 -.257E+00 0.219E+00   -.970E-02 -.970E-02 0.875E-03
   -.166E+02 -.166E+02 0.558E+01   0.170E+02 0.170E+02 -.524E+01   -.361E+00 -.361E+00 -.366E+00   -.496E-01 -.496E-01 0.208E-01
   0.689E+01 0.689E+01 -.812E+01   -.687E+01 -.687E+01 0.814E+01   -.372E-01 -.372E-01 -.129E-01   0.223E-01 0.223E-01 -.799E-02
   0.257E+02 0.298E+02 -.257E+02   -.259E+02 -.301E+02 0.259E+02   0.998E-01 0.215E+00 -.998E-01   0.324E-01 0.136E-01 -.324E-01
   -.231E+02 -.257E+02 0.231E+02   0.234E+02 0.260E+02 -.234E+02   -.257E+00 -.219E+00 0.257E+00   -.970E-02 -.875E-03 0.970E-02
   -.166E+02 -.558E+01 0.166E+02   0.170E+02 0.524E+01 -.170E+02   -.361E+00 0.366E+00 0.361E+00   -.496E-01 -.208E-01 0.496E-01
   0.689E+01 0.812E+01 -.689E+01   -.687E+01 -.814E+01 0.687E+01   -.372E-01 0.129E-01 0.372E-01   0.223E-01 0.799E-02 -.223E-01
   0.298E+02 0.257E+02 -.257E+02   -.301E+02 -.259E+02 0.259E+02   0.215E+00 0.998E-01 -.998E-01   0.136E-01 0.324E-01 -.324E-01
   -.257E+02 -.231E+02 0.231E+02   0.260E+02 0.234E+02 -.234E+02   -.219E+00 -.257E+00 0.257E+00   -.875E-03 -.970E-02 0.970E-02
   -.558E+01 -.166E+02 0.166E+02   0.524E+01 0.170E+02 -.170E+02   0.366E+00 -.361E+00 0.361E+00   -.208E-01 -.496E-01 0.496E-01
   0.812E+01 0.689E+01 -.689E+01   -.814E+01 -.687E+01 0.687E+01   0.129E-01 -.372E-01 0.372E-01   0.799E-02 0.223E-01 -.223E-01
   0.466E+01 0.466E+01 -.466E+01   -.483E+01 -.483E+01 0.483E+01   0.135E+00 0.135E+00 -.135E+00   0.265E-01 0.265E-01 -.265E-01
   -.123E+02 -.123E+02 0.123E+02   0.119E+02 0.119E+02 -.119E+02   0.421E+00 0.421E+00 -.421E+00   -.263E-01 -.263E-01 0.263E-01
   0.129E+01 0.129E+01 -.129E+01   -.156E+01 -.156E+01 0.156E+01   0.259E+00 0.259E+00 -.259E+00   0.111E-01 0.111E-01 -.111E-01
   0.169E+02 0.169E+02 -.169E+02   -.168E+02 -.168E+02 0.168E+02   -.104E+00 -.104E+00 0.104E+00   -.862E-02 -.861E-02 0.862E-02
   0.177E+03 0.177E+03 0.173E+03   -.186E+03 -.186E+03 -.182E+03   0.958E+01 0.958E+01 0.890E+01   0.123E-01 0.123E-01 0.713E-02
   0.204E+03 0.204E+03 0.216E+03   -.219E+03 -.219E+03 -.231E+03   0.152E+02 0.152E+02 0.152E+02   -.207E-01 -.207E-01 0.216E-01
   0.207E+03 0.207E+03 0.226E+03   -.222E+03 -.222E+03 -.242E+03   0.146E+02 0.146E+02 0.161E+02   0.175E-01 0.175E-01 -.447E-01
   0.200E+03 0.200E+03 0.155E+03   -.209E+03 -.209E+03 -.164E+03   0.985E+01 0.985E+01 0.958E+01   0.421E-02 0.421E-02 -.177E-01
   0.177E+03 -.173E+03 -.177E+03   -.186E+03 0.182E+03 0.186E+03   0.958E+01 -.890E+01 -.958E+01   0.123E-01 -.713E-02 -.123E-01
   0.204E+03 -.216E+03 -.204E+03   -.219E+03 0.231E+03 0.219E+03   0.152E+02 -.152E+02 -.152E+02   -.207E-01 -.216E-01 0.207E-01
   0.207E+03 -.226E+03 -.207E+03   -.222E+03 0.242E+03 0.222E+03   0.146E+02 -.161E+02 -.146E+02   0.175E-01 0.447E-01 -.175E-01
   0.200E+03 -.155E+03 -.200E+03   -.209E+03 0.164E+03 0.209E+03   0.985E+01 -.958E+01 -.985E+01   0.421E-02 0.177E-01 -.421E-02
   -.173E+03 0.177E+03 -.177E+03   0.182E+03 -.186E+03 0.186E+03   -.890E+01 0.958E+01 -.958E+01   -.713E-02 0.123E-01 -.123E-01
   -.216E+03 0.204E+03 -.204E+03   0.231E+03 -.219E+03 0.219E+03   -.152E+02 0.152E+02 -.152E+02   -.216E-01 -.207E-01 0.207E-01
   -.226E+03 0.207E+03 -.207E+03   0.242E+03 -.222E+03 0.222E+03   -.161E+02 0.146E+02 -.146E+02   0.447E-01 0.175E-01 -.175E-01
   -.155E+03 0.200E+03 -.200E+03   0.164E+03 -.209E+03 0.209E+03   -.958E+01 0.985E+01 -.985E+01   0.177E-01 0.421E-02 -.421E-02
   -.176E+03 -.176E+03 0.176E+03   0.184E+03 0.184E+03 -.184E+03   -.817E+01 -.817E+01 0.817E+01   0.216E-01 0.216E-01 -.216E-01
   -.225E+03 -.225E+03 0.225E+03   0.238E+03 0.238E+03 -.238E+03   -.132E+02 -.132E+02 0.132E+02   -.153E-01 -.153E-01 0.153E-01
   -.220E+03 -.220E+03 0.220E+03   0.233E+03 0.233E+03 -.233E+03   -.133E+02 -.133E+02 0.133E+02   -.125E-01 -.125E-01 0.125E-01
   -.175E+03 -.175E+03 0.175E+03   0.183E+03 0.183E+03 -.183E+03   -.852E+01 -.852E+01 0.852E+01   -.273E-02 -.273E-02 0.273E-02
   -.174E+03 -.174E+03 -.174E+03   0.184E+03 0.184E+03 0.182E+03   -.940E+01 -.940E+01 -.810E+01   0.172E-01 0.172E-01 -.297E-01
   -.198E+03 -.198E+03 -.155E+03   0.207E+03 0.207E+03 0.164E+03   -.955E+01 -.955E+01 -.895E+01   -.169E-01 -.169E-01 0.975E-02
   -.187E+03 -.187E+03 -.176E+03   0.197E+03 0.197E+03 0.186E+03   -.985E+01 -.985E+01 -.991E+01   -.762E-02 -.762E-02 0.466E-01
   -.198E+03 -.198E+03 -.232E+03   0.213E+03 0.213E+03 0.248E+03   -.145E+02 -.145E+02 -.158E+02   -.719E-02 -.719E-02 0.461E-02
   -.174E+03 0.174E+03 0.174E+03   0.184E+03 -.182E+03 -.184E+03   -.940E+01 0.810E+01 0.940E+01   0.172E-01 0.297E-01 -.172E-01
   -.198E+03 0.155E+03 0.198E+03   0.207E+03 -.164E+03 -.207E+03   -.955E+01 0.895E+01 0.955E+01   -.169E-01 -.975E-02 0.169E-01
   -.187E+03 0.176E+03 0.187E+03   0.197E+03 -.186E+03 -.197E+03   -.985E+01 0.991E+01 0.985E+01   -.762E-02 -.466E-01 0.762E-02
   -.198E+03 0.232E+03 0.198E+03   0.213E+03 -.248E+03 -.213E+03   -.145E+02 0.158E+02 0.145E+02   -.719E-02 -.461E-02 0.719E-02
   0.174E+03 -.174E+03 0.174E+03   -.182E+03 0.184E+03 -.184E+03   0.810E+01 -.940E+01 0.940E+01   0.297E-01 0.172E-01 -.172E-01
   0.155E+03 -.198E+03 0.198E+03   -.164E+03 0.207E+03 -.207E+03   0.895E+01 -.955E+01 0.955E+01   -.975E-02 -.169E-01 0.169E-01
   0.176E+03 -.187E+03 0.187E+03   -.186E+03 0.197E+03 -.197E+03   0.991E+01 -.985E+01 0.985E+01   -.466E-01 -.762E-02 0.762E-02
   0.232E+03 -.198E+03 0.198E+03   -.248E+03 0.213E+03 -.213E+03   0.158E+02 -.145E+02 0.145E+02   -.461E-02 -.719E-02 0.719E-02
   0.228E+03 0.228E+03 -.228E+03   -.241E+03 -.241E+03 0.241E+03   0.132E+02 0.132E+02 -.132E+02   0.858E-02 0.858E-02 -.858E-02
   0.178E+03 0.178E+03 -.178E+03   -.187E+03 -.187E+03 0.187E+03   0.826E+01 0.826E+01 -.826E+01   0.768E-02 0.768E-02 -.768E-02
   0.176E+03 0.176E+03 -.176E+03   -.184E+03 -.184E+03 0.184E+03   0.830E+01 0.830E+01 -.830E+01   -.259E-01 -.259E-01 0.259E-01
   0.186E+03 0.186E+03 -.186E+03   -.194E+03 -.194E+03 0.194E+03   0.877E+01 0.877E+01 -.877E+01   0.185E-01 0.185E-01 -.185E-01
   0.222E+00 0.222E+00 -.223E+00   -.171E-12 0.426E-12 -.171E-12   -.216E+00 -.216E+00 0.216E+00   -.313E-03 -.313E-03 0.311E-03

 POSITION                                       TOTAL-FORCE (eV/Angst)
      2.95251      2.95251      3.07296         0.003926      0.003926     -0.003926
      6.92416      2.90718     -0.89869         0.010416      0.010416     -0.010416
     10.83321      6.81623     -0.79076         0.007668      0.007668     -0.007668
      5.00039      0.98341      1.02509         0.000008      0.000008     -0.000008
     12.79307      8.77609     -6.76760         0.000300      0.000300     -0.000300
     11.74754     11.74754     -7.72376        -0.000786     -0.000786      0.003775
      3.95384      3.95384      0.05686         0.001337      0.001337     -0.002074
      7.89298      7.89298      0.12789         0.000003      0.000003      0.000111
     11.82592      7.80894     -3.79050        -0.001043     -0.001043      0.002990
     11.74754     13.74924     -5.72207        -0.000786     -0.003775      0.000786
      3.95384      5.96861      2.07163         0.001337      0.002074     -0.001337
      7.89298      5.89758     -1.86751         0.000003     -0.000111     -0.000003
     11.82592      5.79899     -5.80045        -0.001043     -0.002990      0.001043
     13.74923     11.74754     -5.72207        -0.003775     -0.000786      0.000786
      5.96861      3.95384      2.07163         0.002074      0.001337     -0.001337
      5.89758      7.89298     -1.86751        -0.000111      0.000003     -0.000003
      9.81597      7.80894     -5.80045        -0.002990     -0.001043      0.001043
      1.97672      1.97672      0.03177        -0.001506     -0.001506      0.001506
      5.94141      5.94141      0.08406         0.004572      0.004572     -0.004572
      9.87428      5.85730     -3.84881        -0.001108     -0.001108      0.001108
     13.78433      9.76735     -3.74188        -0.003572     -0.003572      0.003572
      6.10410      2.08712      2.13541        -0.003107     -0.003107      0.010643
      6.04410      6.04410     -1.80016        -0.000970     -0.000970      0.012713
      9.97013      9.97013     -1.69299         0.002083      0.002083      0.001480
     13.89487      9.87789     -5.63898        -0.006699     -0.006699      0.007122
      6.10410     -0.12692     -0.07863        -0.003107     -0.010643      0.003107
      6.04410      7.82563     -0.01863        -0.000970     -0.012713      0.000970
      9.97013      7.71846     -3.94466         0.002083     -0.001480     -0.002083
     13.89487     11.66445     -3.85242        -0.006699     -0.007122      0.006699
      3.89006      2.08712     -0.07863        -0.010643     -0.003107      0.003107
      7.82563      6.04410     -0.01863        -0.012713     -0.000970      0.000970
     11.73544      5.95315     -3.94466        -0.001480      0.002083     -0.002083
     11.66445     13.89487     -3.85242        -0.007122     -0.006699      0.006699
      3.85632     -0.16066      2.16915        -0.008913     -0.008913      0.008913
      3.80163      3.80163     -1.79314        -0.003933     -0.003933      0.003933
      7.74800      7.74800     -1.72253        -0.002385     -0.002385      0.002385
     11.68029      7.66331     -5.65482        -0.000982     -0.000982      0.000982
      1.85428      1.85428      1.94887        -0.002916     -0.002916     -0.010734
      5.82336      1.80638     -2.03291         0.007456      0.007456     -0.013903
      9.75941      5.74243     -1.95996        -0.001382     -0.001382     -0.001537
      9.66349      9.66349     -5.89162        -0.000986     -0.000986     -0.004764
      1.85428      0.05962      0.15421        -0.002916      0.010734      0.002916
      5.82336      4.04140      0.20211         0.007456      0.013903     -0.007456
      9.75941      3.96845     -3.73394        -0.001382      0.001537      0.001382
      9.66349     11.91709     -3.63802        -0.000986      0.004764      0.000986
      4.07660     -2.16270      0.15421         0.010734     -0.002916      0.002916
      4.04140      5.82336      0.20211         0.013903      0.007456     -0.007456
      7.98543      5.74243     -3.73394         0.001537     -0.001382      0.001382
     11.91709      9.66349     -3.63802         0.004764     -0.000986      0.000986
     11.90066     11.90066     -5.87519        -0.002097     -0.002097      0.002097
      4.10166      4.10166      1.92381         0.008380      0.008380     -0.008380
      8.04592      4.02894     -2.02045         0.004138      0.004138     -0.004138
     11.96753      7.95054     -1.92507         0.004931      0.004931     -0.004931
    total drift:                                0.005307      0.006160     -0.006499

  FREE ENERGIE OF THE ION-ELECTRON SYSTEM (eV)
  free  energy   TOTEN  =      -330.8215126577 eV

  energy  without entropy=     -330.7623825187  energy(sigma->0) =     -330.79194759

 d Force = 0.1656834E-03[ 0.133E-03, 0.198E-03]  d Energy = 0.1772806E-03-0.116E-04
 d Force = 0.1405820E+01[ 0.140E+01, 0.141E+01]  d Ewald  =-0.1197701E+01 0.260E+01

 Quasi-Newton relaxation of ions (Broydens 2nd method)
  g(Force)  = 0.201E-03   g(Stress)= 0.130E-03

 retain information from N=  1 steps
 eigenvalues of (default step * inverse Hessian matrix)
  average eigenvalue of G=   0.1649
 eigenvalue spectrum of G is  0.1649

 reached required accuracy - stopping structural energy minimisation

volume of typ            1:     7.7 %

[...]

volume of typ            3:    10.3 %

total charge

# of ion       s       p       d       tot
    1        2.104   0.323   0.120   2.547
    2        2.103   0.322   0.121   2.545
    3        2.103   0.320   0.121   2.544
    4        2.105   0.325   0.122   2.552
    5        2.105   0.326   0.123   2.554
    6        0.286   0.402   7.845   8.532
    7        0.286   0.401   7.845   8.532
    8        0.291   0.410   7.840   8.542
    9        0.291   0.410   7.839   8.541
   10        0.286   0.402   7.845   8.532
   11        0.286   0.401   7.845   8.532
   12        0.291   0.410   7.840   8.542
   13        0.291   0.410   7.839   8.541
   14        0.286   0.402   7.845   8.532
   15        0.286   0.401   7.845   8.532
   16        0.291   0.410   7.840   8.542
   17        0.291   0.410   7.839   8.541
   18        0.261   0.344   7.866   8.471
   19        0.276   0.374   7.850   8.501
   20        0.288   0.398   7.844   8.530
   21        0.283   0.388   7.845   8.516
   22        1.260   2.789   0.007   4.056
   23        1.279   2.734   0.008   4.021
   24        1.280   2.733   0.008   4.021
   25        1.262   2.784   0.007   4.053
   26        1.260   2.789   0.007   4.056
   27        1.279   2.734   0.008   4.021
   28        1.280   2.733   0.008   4.021
   29        1.262   2.784   0.007   4.053
   30        1.260   2.789   0.007   4.056
   31        1.279   2.734   0.008   4.021
   32        1.280   2.733   0.008   4.021
   33        1.262   2.784   0.007   4.053
   34        1.267   2.776   0.007   4.049
   35        1.282   2.729   0.008   4.019
   36        1.283   2.728   0.008   4.019
   37        1.269   2.773   0.007   4.049
   38        1.261   2.788   0.007   4.056
   39        1.263   2.782   0.007   4.052
   40        1.263   2.785   0.007   4.054
   41        1.280   2.733   0.008   4.020
   42        1.261   2.788   0.007   4.056
   43        1.263   2.782   0.007   4.052
   44        1.263   2.785   0.007   4.054
   45        1.280   2.733   0.008   4.020
   46        1.261   2.788   0.007   4.056
   47        1.263   2.782   0.007   4.052
   48        1.263   2.785   0.007   4.054
   49        1.280   2.733   0.008   4.020
   50        1.282   2.729   0.008   4.019
   51        1.267   2.775   0.007   4.048
   52        1.269   2.771   0.007   4.047
   53        1.269   2.769   0.007   4.045
tot          55.72   96.42  126.35  278.49

magnetization (x)

# of ion       s       p       d       tot
    1        0.002   0.006   0.002   0.010
    2        0.001   0.006   0.002   0.009
    3        0.002   0.004   0.001   0.006
    4        0.002   0.005   0.002   0.009
    5        0.002   0.005   0.002   0.009
    6       -0.001  -0.001   0.207   0.205
    7       -0.001  -0.001   0.210   0.208
    8       -0.001  -0.001   0.120   0.119
    9       -0.001  -0.001   0.127   0.126
   10       -0.001  -0.001   0.207   0.205
   11       -0.001  -0.001   0.210   0.208
   12       -0.001  -0.001   0.120   0.119
   13       -0.001  -0.001   0.127   0.126
   14       -0.001  -0.001   0.207   0.205
   15       -0.001  -0.001   0.210   0.208
   16       -0.001  -0.001   0.120   0.119
   17       -0.001  -0.001   0.127   0.126
   18       -0.000  -0.001   0.652   0.651
   19       -0.000  -0.000   0.320   0.319
   20       -0.000  -0.000   0.160   0.160
   21       -0.000  -0.000   0.200   0.199
   22        0.006   0.055   0.000   0.061
   23        0.002   0.027   0.000   0.029
   24        0.001   0.015   0.000   0.017
   25        0.004   0.028   0.000   0.031
   26        0.006   0.055   0.000   0.061
   27        0.002   0.027   0.000   0.029
   28        0.001   0.015   0.000   0.017
   29        0.004   0.028   0.000   0.031
   30        0.006   0.055   0.000   0.061
   31        0.002   0.027   0.000   0.029
   32        0.001   0.015   0.000   0.017
   33        0.004   0.028   0.000   0.031
   34        0.005   0.034   0.000   0.039
   35        0.005   0.054   0.000   0.059
   36        0.005   0.065   0.000   0.070
   37        0.007   0.051   0.000   0.058
   38        0.007   0.060   0.000   0.067
   39        0.006   0.038   0.000   0.044
   40        0.002   0.015   0.000   0.018
   41        0.002   0.021   0.000   0.023
   42        0.007   0.060   0.000   0.067
   43        0.006   0.038   0.000   0.044
   44        0.002   0.015   0.000   0.018
   45        0.002   0.021   0.000   0.023
   46        0.007   0.060   0.000   0.067
   47        0.006   0.038   0.000   0.044
   48        0.002   0.015   0.000   0.018
   49        0.002   0.021   0.000   0.023
   50        0.005   0.058   0.000   0.063
   51        0.005   0.031   0.000   0.036
   52        0.005   0.036   0.000   0.041
   53        0.007   0.053   0.000   0.060
tot           0.13    1.18    3.33    4.64