 vasp.5.4.4.18Apr17-6-g9f103f2a35 (build May 12 2020 05:39:39) gamma-only

 MD_VERSION_INFO: Compiled 2020-05-12T12:39:39-UTC in devlin.sd.materialsdesign.
 com:/home/medea2/data/build/wwolf/vasp-gpu5.4.4/13047/x86_64/src/src/build/gam
 from svn 13047

 executed on                        Lin64 date 2023.02.09  14:59:36

 INCAR:
 POTCAR:    PAW_PBE Li_sv 10Sep2004
 POTCAR:    PAW_PBE Ni 02Aug2007
 POTCAR:    PAW_PBE O 08Apr2002

 POTCAR:    PAW_PBE Li_sv 10Sep2004

 POTCAR:    PAW_PBE Ni 02Aug2007

 POTCAR:    PAW_PBE O 08Apr2002

 Optimization of the real space projectors (new method)

 maximal supplied QI-value         = 22.11
 optimisation between [QCUT,QGAM] = [ 11.28, 22.77] = [ 35.61,145.23] Ry
 Optimized for a Real-space Cutoff    1.10 Angstroem

   l    n(q)    QCUT    max X(q) W(low)/X(q) W(high)/X(q)  e(spline)
   0      7    11.276    10.506    0.54E-04    0.58E-04    0.16E-07
   0      7    11.276     8.367    0.11E-03    0.14E-03    0.35E-07
   1      7    11.276     8.983    0.23E-03    0.43E-03    0.86E-07
 Optimization of the real space projectors (new method)

[...]

   l    n(q)    QCUT    max X(q) W(low)/X(q) W(high)/X(q)  e(spline)
   2      9    11.376    60.317    0.17E-03    0.16E-04    0.16E-06
   2      9    11.376    55.921    0.17E-03    0.16E-04    0.17E-06
   0     10    11.376    51.690    0.45E-04    0.60E-04    0.21E-06
   0     10    11.376    30.015    0.37E-04    0.55E-04    0.19E-06
   1     10    11.376    18.849    0.83E-04    0.11E-03    0.92E-07
   1     10    11.376    14.624    0.69E-04    0.92E-04    0.82E-07
 Optimization of the real space projectors (new method)

 maximal supplied QI-value         = 24.76
 optimisation between [QCUT,QGAM] = [ 11.39, 22.77] = [ 36.31,145.25] Ry
 Optimized for a Real-space Cutoff    1.10 Angstroem

   l    n(q)    QCUT    max X(q) W(low)/X(q) W(high)/X(q)  e(spline)
   0      7    11.387    20.381    0.22E-03    0.48E-03    0.18E-06
   0      7    11.387    15.268    0.22E-03    0.52E-03    0.19E-06
   1      7    11.387     5.964    0.22E-03    0.73E-03    0.24E-06
   1      7    11.387     5.382    0.19E-03    0.60E-03    0.21E-06

  PAW_PBE Li_sv 10Sep2004               :
  PAW_PBE Ni 02Aug2007                  :
  PAW_PBE O 08Apr2002                   :

 POSCAR: ce14_1
  positions in direct lattice
 exchange correlation table for  LEXCH =       14
   RHO(1)=    0.500       N(1)  =     2000
   RHO(2)=  100.500       N(2)  =     4000

 ion  position               nearest neighbor table
   1  0.000  0.500  0.125-  33 1.93  30 1.93  36 1.93  40 1.97
   2  0.667  0.833  0.459-  38 1.92  37 1.93  31 1.93  34 1.93
   3  0.667  0.833  0.209-  18 1.93  24 1.93  21 1.93  27 1.97
   4  0.000  0.500  0.875-  26 1.92  23 1.93  17 1.93  20 1.93
   5  0.333  0.667  0.667-  32 1.87  25 1.87  35 1.87  22 1.87  26 1.88  38 1.88  14 2.77  16 2.77
                             8 2.84  11 2.84   8 2.84  11 2.84
   6  0.001  0.000  0.999-  39 1.85  27 1.87  20 1.89  23 1.89  36 1.90  33 1.90  15 2.81  14 2.82
                             9 2.84  12 2.84   9 2.85  12 2.85
   7  0.666  0.333  0.335-  28 1.85  40 1.87  37 1.89  34 1.89  21 1.90  24 1.90  15 2.81  16 2.82
                            10 2.84  13 2.84  13 2.85  10 2.85
   8  0.833  0.667  0.667-  29 1.87  35 1.87  19 1.87  25 1.87  38 1.88  26 1.88  14 2.77  16 2.77
                             5 2.84  11 2.84  11 2.84   5 2.84
   9  0.500  0.000  0.999-  39 1.85  27 1.87  17 1.89  23 1.89  36 1.90  30 1.90  15 2.81  14 2.82
                             6 2.84  12 2.84   6 2.85  12 2.85
  10  0.167  0.333  0.335-  28 1.85  40 1.87  37 1.89  31 1.89  18 1.90  24 1.90  15 2.81  16 2.82
                             7 2.84  13 2.84  13 2.85   7 2.85
  11  0.833  0.167  0.667-  32 1.87  19 1.87  29 1.87  22 1.87  26 1.88  38 1.88  14 2.77  16 2.77
                             5 2.84   8 2.84   8 2.84   5 2.84
  12  0.500  0.499  0.999-  39 1.85  27 1.87  17 1.89  20 1.89  30 1.90  33 1.90  15 2.81  14 2.82
                             6 2.84   9 2.84   6 2.85   9 2.85
  13  0.167  0.834  0.335-  28 1.85  40 1.87  34 1.89  31 1.89  21 1.90  18 1.90  15 2.81  16 2.82
                             7 2.84  10 2.84  10 2.85   7 2.85
  14  0.667  0.833  0.831-  29 1.86  32 1.86  35 1.86  20 1.89  17 1.89  23 1.89   8 2.77   5 2.77
                            11 2.77   6 2.82  12 2.82   9 2.82
  15  0.333  0.167  0.167-  30 1.88  36 1.88  18 1.88  24 1.88  33 1.88  21 1.88  10 2.81   7 2.81
                            13 2.81  12 2.81   6 2.81   9 2.81
  16  0.000  0.500  0.503-  19 1.86  22 1.86  25 1.86  34 1.89  31 1.89  37 1.89   5 2.77  11 2.77
                             8 2.77   7 2.82  13 2.82  10 2.82
  17  0.372  0.686  0.919-  14 1.89  12 1.89   9 1.89   4 1.93
  18  0.038  0.019  0.255-  15 1.88  10 1.90  13 1.90   3 1.93
  19  0.709  0.354  0.590-  16 1.86  11 1.87   8 1.87
  20  0.814  0.686  0.919-  14 1.89  12 1.89   6 1.89   4 1.93
  21  0.481  0.019  0.255-  15 1.88  13 1.90   7 1.90   3 1.93
  22  0.146  0.354  0.590-  16 1.86  11 1.87   5 1.87
  23  0.814  0.128  0.919-  14 1.89   9 1.89   6 1.89   4 1.93
  24  0.481  0.462  0.255-  15 1.88  10 1.90   7 1.90   3 1.93
  25  0.146  0.791  0.590-  16 1.86   5 1.87   8 1.87
  26  0.000  0.500  0.733-   5 1.88  11 1.88   8 1.88   4 1.92
  27  0.667  0.833  0.064-   6 1.87  12 1.87   9 1.87   3 1.97
  28  0.333  0.167  0.399-  10 1.85   7 1.85  13 1.85
  29  0.958  0.979  0.743-  14 1.86   8 1.87  11 1.87
  30  0.629  0.314  0.079-  15 1.88  12 1.90   9 1.90   1 1.93
  31  0.295  0.647  0.414-  16 1.89  13 1.89  10 1.89   2 1.93
  32  0.521  0.979  0.743-  14 1.86  11 1.87   5 1.87
  33  0.186  0.314  0.079-  15 1.88  12 1.90   6 1.90   1 1.93
  34  0.853  0.647  0.414-  16 1.89  13 1.89   7 1.89   2 1.93
  35  0.521  0.542  0.743-  14 1.86   8 1.87   5 1.87
  36  0.186  0.871  0.079-  15 1.88   6 1.90   9 1.90   1 1.93
  37  0.853  0.205  0.414-  16 1.89  10 1.89   7 1.89   2 1.93
  38  0.667  0.833  0.600-   8 1.88   5 1.88  11 1.88   2 1.92
  39  0.333  0.167  0.935-   6 1.85  12 1.85   9 1.85
  40  0.000  0.500  0.270-   7 1.87  13 1.87  10 1.87   1 1.97

  LATTYP: Found a hexagonal cell.
 ALAT       =     5.6897506191
 C/A-ratio  =     2.3874690521

  Lattice vectors:

 A1 = (   0.0000000000,   4.0232612460,   4.0232612460)
 A2 = (   4.0232612460,  -4.0232612460,   0.0000000000)
 A3 = (   7.8427858223,   7.8427858223,  -7.8427858223)

Analysis of symmetry for initial positions (statically):
 Subroutine PRICEL returns:
 Original cell was already a primitive cell.

 Routine SETGRP: Setting up the symmetry group for a
 hexagonal supercell.

 Subroutine GETGRP returns: Found 12 space group operations
 (whereof  2 operations were pure point group operations)
 out of a pool of 24 trial point group operations.

The static configuration has the point symmetry C_1h.
 The point group associated with its full space group is D_3d.

Analysis of symmetry for dynamics (positions and initial velocities):
 Subroutine PRICEL returns:
 Original cell was already a primitive cell.

[...]

The dynamic configuration has the point symmetry C_1h.
 The point group associated with its full space group is D_3d.

Analysis of structural, dynamic, and magnetic symmetry:
 Subroutine PRICEL returns:
 Original cell was already a primitive cell.

 Routine SETGRP: Setting up the symmetry group for a
 hexagonal supercell.

 Subroutine GETGRP returns: Found 12 space group operations
 (whereof  2 operations were pure point group operations)
 out of a pool of 24 trial point group operations.

The magnetic configuration has the point symmetry C_1h.
 The point group associated with its full space group is D_3d.

 Subroutine INISYM returns: Found 12 space group operations
 (whereof  2 operations are pure point group operations),
 and found     1 'primitive' translations

 KPOINTS: Automatic mesh

Automatic generation of k-mesh.
Space group operators:
 irot       det(A)        alpha          n_x          n_y          n_z        tau_x        tau_y        tau_z
    1     1.000000     0.000000     1.000000     0.000000     0.000000     0.000000     0.000000     0.000000
    2    -1.000000   180.000000     0.707107    -0.707107     0.000000     0.000000     0.000000     0.000000
    3    -1.000000     0.000000     1.000000     0.000000     0.000000     0.666667     0.333333     0.333333
    4     1.000000   120.000000    -0.577350    -0.577350     0.577350     0.500000     0.000000     0.000000
    5    -1.000000   120.000000    -0.577350    -0.577350     0.577350     0.166667     0.333333     0.333333
    6     1.000000   120.000000     0.577350     0.577350    -0.577350     0.500000     0.500000     0.000000
    7    -1.000000   120.000000     0.577350     0.577350    -0.577350     0.166667     0.833333     0.333333
    8     1.000000   180.000000     0.000000     0.707107     0.707107     0.166667     0.333333     0.333333
    9    -1.000000   180.000000     0.000000     0.707107     0.707107     0.500000     0.000000     0.000000
   10     1.000000   180.000000     0.707107    -0.707107     0.000000     0.666667     0.333333     0.333333
   11     1.000000   180.000000     0.707107     0.000000     0.707107     0.166667     0.833333     0.333333
   12    -1.000000   180.000000     0.707107     0.000000     0.707107     0.500000     0.500000     0.000000

 Subroutine IBZKPT returns following result:

 Found      1 irreducible k-points:

 Following reciprocal coordinates:
            Coordinates               Weight
  0.000000  0.000000  0.000000      1.000000

 Following cartesian coordinates:
            Coordinates               Weight
  0.000000  0.000000  0.000000      1.000000

 SYSTEM =  unknown system
 POSCAR =  ce14_1

 Startparameter for this run:
   NWRITE =      1    write-flag & timer
   PREC   = accura    normal or accurate (medium, high low for compatibility)
   ISTART =      0    job   : 0-new  1-cont  2-samecut
   ICHARG =      2    charge: 1-file 2-atom 10-const
   ISPIN  =      2    spin polarized calculation?
   LNONCOLLINEAR =      F non collinear calculations
   LSORBIT =      F    spin-orbit coupling
   INIWAV =      1    electr: 0-lowe 1-rand  2-diag
   LASPH  =      F    aspherical Exc in radial PAW
   METAGGA=      F    non-selfconsistent MetaGGA calc.

 Electronic Relaxation 1
   ENCUT  =  500.0 eV  36.75 Ry    6.06 a.u.  10.37 10.37 24.77*2*pi/ulx,y,z
   ENINI  =  500.0     initial cutoff
   ENAUG  =  628.9 eV  augmentation charge cutoff
   NELM   =     80;   NELMIN=  2; NELMDL= -5     # of ELM steps
   EDIFF  = 0.1E-04   stopping-criterion for ELM
   LREAL  =      T    real-space projection
   NLSPLINE    = F    spline interpolate recip. space projectors
   LCOMPAT=      F    compatible to vasp.4.4
   GGA_COMPAT  = T    GGA compatible to vasp.4.4-vasp.4.6
   LMAXPAW     = -100 max onsite density
   LMAXMIX     =    2 max onsite mixed and CHGCAR
   VOSKOWN=      1    Vosko Wilk Nusair interpolation
   ROPT   =   -0.00025  -0.00025  -0.00025
 Ionic relaxation
   EDIFFG = -.2E-01   stopping-criterion for IOM
   NSW    =     20    number of steps for IOM
   NBLOCK =      1;   KBLOCK =     20    inner block; outer block
[...]
     33      -2.7260      1.00000
     34      -2.6412      1.00000
     35      -2.5717      1.00000
     36      -2.5717      1.00000
     37      -2.5342      1.00000
     38      -2.5342      1.00000
     39      -2.0171      1.00000
     40      -1.9513      1.00000
     41      -1.8996      1.00000
     42      -1.8996      1.00000
     43      -1.7668      1.00000
     44      -1.7668      1.00000
     45      -1.7364      1.00000
     46      -1.7364      1.00000
     47      -1.6899      1.00000
     48      -1.6899      1.00000
     49      -1.6735      1.00000
     50      -1.6735      1.00000
     51      -1.5555      1.00000
     52      -1.5555      1.00000
     53      -1.4027      1.00000
     54      -1.2662      1.00000
     55      -1.1946      1.00000
     56      -1.0306      1.00000
     57      -0.9883      1.00000
     58      -0.9883      1.00000
     59      -0.9240      1.00000
     60      -0.9240      1.00000
[...]
    178      15.4279      0.00000
    179      15.8330      0.00000
    180      15.8330      0.00000
    181      15.9447      0.00000
    182      16.6704      0.00000
    183      16.7791      0.00000
    184      17.1470      0.00000
    185      17.3650      0.00000
    186      17.3650      0.00000
    187      17.4494      0.00000
    188      17.5820      0.00000
    189      17.5820      0.00000
    190      17.8213      0.00000
    191      17.8424      0.00000
    192      17.8426      0.00000

[...]

 soft charge-density along one line, spin component           2
         0         1         2         3         4         5         6         7         8         9
 total charge-density along one line

------------------------ aborting loop because EDIFF is reached ----------------------------------------

  FORCE on cell =-STRESS in cart. coord.  units (eV):
  Direction    XX          YY          ZZ          XY          YZ          ZX
  Alpha Z   867.77447   867.77447   867.77447
  Ewald   -5454.20409 -5454.20408 -5454.20409   -59.95989    59.95989    59.95988
  Hartree  2712.89447  2712.89448  2712.89447   -19.76739    19.76739    19.76739
  E(xc)   -1406.57341 -1406.57337 -1406.57341    -0.08177     0.08177     0.08173
  Local   -2597.52564 -2597.52472 -2597.52564    69.40154   -69.40154   -69.40247
  n-local  -671.81725  -671.81705  -671.81714    -2.03594     2.03592     2.03628
  augment  2324.86351  2324.86301  2324.86351     5.42759    -5.42759    -5.42708
  Kinetic  4224.35115  4224.35122  4224.35110     6.99680    -6.99675    -6.99716
  Fock        0.00000     0.00000     0.00000     0.00000     0.00000     0.00000
  Total       -0.2365154     -0.2365154     -0.2365154     -0.0188989      0.0188989      0.0188989
  in kB       -0.9940961     -0.9940961     -0.9940961     -0.0794337      0.0794337      0.0794337

 VOLUME and BASIS-vectors are now :
  energy-cutoff  :      500.00
  volume of cell :      381.19
      direct lattice vectors                 reciprocal lattice vectors
     0.000000000  4.024735891  4.024735891     0.082821169  0.082821169  0.165642339
     4.024735891 -4.024735891 -0.000000000     0.165642339 -0.082821169  0.082821169
     7.844144817  7.844144817 -7.844144817     0.042494541  0.042494541 -0.042494541

  length of vectors
     5.691836082  5.691836082 13.586457365     0.202869605  0.202869605  0.073602704

 FORCES acting on ions
    electron-ion (+dipol)            ewald-force                    non-local-force                 convergence-correction
   0.184E+01 0.184E+01 -.184E+01   -.180E+01 -.180E+01 0.180E+01   -.354E-01 -.354E-01 0.354E-01   0.218E-03 0.218E-03 -.218E-03
   -.435E+01 -.435E+01 0.435E+01   0.468E+01 0.468E+01 -.468E+01   -.308E+00 -.308E+00 0.308E+00   -.146E-01 -.147E-01 0.146E-01
   -.184E+01 -.184E+01 0.184E+01   0.180E+01 0.180E+01 -.180E+01   0.354E-01 0.354E-01 -.354E-01   -.219E-03 -.218E-03 0.219E-03
   0.435E+01 0.435E+01 -.435E+01   -.468E+01 -.468E+01 0.468E+01   0.308E+00 0.308E+00 -.308E+00   0.146E-01 0.147E-01 -.146E-01
   -.339E-04 -.275E-04 0.785E-04   -.124E-04 -.110E-04 0.469E-05   -.339E-20 0.339E-20 -.339E-20   0.765E-06 0.765E-06 -.661E-06
   0.253E+02 0.253E+02 -.308E+02   -.256E+02 -.256E+02 0.311E+02   0.329E+00 0.329E+00 -.236E+00   -.222E-01 -.222E-01 -.365E-02
   -.253E+02 -.253E+02 0.308E+02   0.256E+02 0.256E+02 -.311E+02   -.329E+00 -.329E+00 0.236E+00   0.222E-01 0.222E-01 0.365E-02
   -.107E-04 -.902E-04 0.105E-04   -.395E-04 0.155E-04 0.395E-04   0.000E+00 -.678E-20 0.000E+00   0.766E-06 0.662E-06 -.766E-06
   0.253E+02 0.308E+02 -.253E+02   -.256E+02 -.311E+02 0.256E+02   0.329E+00 0.236E+00 -.329E+00   -.222E-01 0.365E-02 0.222E-01
   -.253E+02 -.308E+02 0.253E+02   0.256E+02 0.311E+02 -.256E+02   -.329E+00 -.236E+00 0.329E+00   0.222E-01 -.365E-02 -.222E-01
   -.787E-04 -.275E-04 0.337E-04   -.469E-05 -.110E-04 0.124E-04   0.000E+00 0.136E-19 0.678E-20   0.661E-06 0.765E-06 -.765E-06
   0.308E+02 0.253E+02 -.253E+02   -.311E+02 -.256E+02 0.256E+02   0.236E+00 0.329E+00 -.329E+00   0.365E-02 -.222E-01 0.222E-01
   -.308E+02 -.253E+02 0.253E+02   0.311E+02 0.256E+02 -.256E+02   -.236E+00 -.329E+00 0.329E+00   -.365E-02 0.222E-01 -.222E-01
   0.635E+01 0.635E+01 -.635E+01   -.597E+01 -.597E+01 0.597E+01   -.451E+00 -.451E+00 0.451E+00   0.694E-01 0.694E-01 -.694E-01
   -.263E-04 -.250E-04 0.262E-04   -.282E-04 -.211E-04 0.282E-04   -.339E-20 0.339E-20 0.339E-20   -.296E-06 -.300E-06 0.296E-06
   -.635E+01 -.635E+01 0.635E+01   0.597E+01 0.597E+01 -.597E+01   0.451E+00 0.451E+00 -.451E+00   -.694E-01 -.694E-01 0.694E-01
   0.194E+03 0.194E+03 0.168E+03   -.202E+03 -.202E+03 -.177E+03   0.884E+01 0.884E+01 0.934E+01   0.336E-01 0.336E-01 -.539E-02
   0.170E+03 0.170E+03 0.193E+03   -.179E+03 -.179E+03 -.202E+03   0.831E+01 0.831E+01 0.938E+01   0.198E-01 0.198E-01 -.495E-01
   0.204E+03 0.204E+03 0.233E+03   -.218E+03 -.218E+03 -.249E+03   0.145E+02 0.145E+02 0.162E+02   -.419E-01 -.419E-01 0.267E-01
   0.194E+03 -.168E+03 -.194E+03   -.202E+03 0.177E+03 0.202E+03   0.884E+01 -.934E+01 -.884E+01   0.336E-01 0.539E-02 -.336E-01
   0.170E+03 -.193E+03 -.170E+03   -.179E+03 0.202E+03 0.179E+03   0.831E+01 -.938E+01 -.831E+01   0.198E-01 0.495E-01 -.198E-01
   0.204E+03 -.233E+03 -.204E+03   -.218E+03 0.249E+03 0.218E+03   0.145E+02 -.162E+02 -.145E+02   -.419E-01 -.267E-01 0.419E-01
   -.168E+03 0.194E+03 -.194E+03   0.177E+03 -.202E+03 0.202E+03   -.934E+01 0.884E+01 -.884E+01   0.539E-02 0.336E-01 -.336E-01
   -.193E+03 0.170E+03 -.170E+03   0.202E+03 -.179E+03 0.179E+03   -.938E+01 0.831E+01 -.831E+01   0.495E-01 0.198E-01 -.198E-01
   -.233E+03 0.204E+03 -.204E+03   0.249E+03 -.218E+03 0.218E+03   -.162E+02 0.145E+02 -.145E+02   -.267E-01 -.419E-01 0.419E-01
   -.180E+03 -.180E+03 0.180E+03   0.188E+03 0.188E+03 -.188E+03   -.792E+01 -.792E+01 0.792E+01   0.392E-01 0.392E-01 -.392E-01
   -.173E+03 -.173E+03 0.173E+03   0.181E+03 0.181E+03 -.181E+03   -.832E+01 -.832E+01 0.832E+01   -.233E-01 -.233E-01 0.233E-01
   -.223E+03 -.223E+03 0.223E+03   0.237E+03 0.237E+03 -.237E+03   -.134E+02 -.134E+02 0.134E+02   -.238E-01 -.238E-01 0.238E-01
   -.204E+03 -.204E+03 -.233E+03   0.218E+03 0.218E+03 0.249E+03   -.145E+02 -.145E+02 -.162E+02   0.419E-01 0.419E-01 -.267E-01
   -.170E+03 -.170E+03 -.193E+03   0.179E+03 0.179E+03 0.202E+03   -.831E+01 -.831E+01 -.938E+01   -.198E-01 -.198E-01 0.495E-01
   -.194E+03 -.194E+03 -.168E+03   0.202E+03 0.202E+03 0.177E+03   -.884E+01 -.884E+01 -.934E+01   -.336E-01 -.336E-01 0.539E-02
   -.204E+03 0.233E+03 0.204E+03   0.218E+03 -.249E+03 -.218E+03   -.145E+02 0.162E+02 0.145E+02   0.419E-01 0.267E-01 -.419E-01
   -.170E+03 0.193E+03 0.170E+03   0.179E+03 -.202E+03 -.179E+03   -.831E+01 0.938E+01 0.831E+01   -.198E-01 -.495E-01 0.198E-01
   -.194E+03 0.168E+03 0.194E+03   0.202E+03 -.177E+03 -.202E+03   -.884E+01 0.934E+01 0.884E+01   -.336E-01 -.539E-02 0.336E-01
   0.233E+03 -.204E+03 0.204E+03   -.249E+03 0.218E+03 -.218E+03   0.162E+02 -.145E+02 0.145E+02   0.267E-01 0.419E-01 -.419E-01
   0.193E+03 -.170E+03 0.170E+03   -.202E+03 0.179E+03 -.179E+03   0.938E+01 -.831E+01 0.831E+01   -.495E-01 -.198E-01 0.198E-01
   0.168E+03 -.194E+03 0.194E+03   -.177E+03 0.202E+03 -.202E+03   0.934E+01 -.884E+01 0.884E+01   -.539E-02 -.336E-01 0.336E-01
   0.180E+03 0.180E+03 -.180E+03   -.188E+03 -.188E+03 0.188E+03   0.792E+01 0.792E+01 -.792E+01   -.392E-01 -.392E-01 0.392E-01
   0.223E+03 0.223E+03 -.223E+03   -.237E+03 -.237E+03 0.237E+03   0.134E+02 0.134E+02 -.134E+02   0.238E-01 0.238E-01 -.238E-01
   0.173E+03 0.173E+03 -.173E+03   -.181E+03 -.181E+03 0.181E+03   0.832E+01 0.832E+01 -.832E+01   0.233E-01 0.233E-01 -.233E-01
   0.902E-04 0.548E-04 -.871E-04   -.114E-12 -.284E-13 0.398E-12   -.142E-13 0.124E-13 0.888E-14   0.891E-06 0.877E-06 -.891E-06

 POSITION                                       TOTAL-FORCE (eV/Angst)
      2.99034     -1.03440     -0.97797         0.007277      0.007277     -0.007277
      6.95121      2.92648     -0.91411         0.009090      0.009090     -0.009090
      4.99069      0.96596      1.04641        -0.007277     -0.007277      0.007277
      8.87396      4.84922     -6.86159        -0.009090     -0.009090      0.009090
      7.91259      3.88785     -3.88785        -0.000000     -0.000000     -0.000000
      7.83545      7.83545     -7.82938        -0.000336     -0.000336     -0.002227
      3.96499      3.96499      0.05367         0.000336      0.000336      0.002227
      7.91259      5.90022     -1.87548        -0.000000     -0.000000     -0.000000
      7.83545      9.84174     -5.82308        -0.000336      0.002227      0.000336
      3.96499      1.95869     -1.95262         0.000336     -0.002227     -0.000336
      5.90022      7.91259     -1.87548        -0.000000      0.000000     -0.000000
      9.84174      7.83545     -5.82308         0.002227     -0.000336      0.000336
      5.98343     -0.05975     -1.95262        -0.002227      0.000336     -0.000336
      9.86868      5.84395     -3.83158         0.003278      0.003278     -0.003278
      1.97815      1.97815      0.03422        -0.000000      0.000000     -0.000000
      5.95649      1.93176     -3.94412        -0.003278     -0.003278      0.003278
      9.97362      5.94888     -5.71439         0.001741      0.001741     -0.001830
      2.07424      2.07424     -1.84459        -0.000441     -0.000441     -0.002501
      6.05581      6.05581     -1.77731         0.002261      0.002261      0.006107
      9.97362      7.72675     -3.93651         0.001741      0.001830     -0.001741
      2.07424      3.85696     -0.06187        -0.000441      0.002501      0.000441
      6.05581      3.78967     -4.04344         0.002261     -0.006107     -0.002261
      7.72675      9.97362     -3.93651         0.001830      0.001741     -0.001741
      3.85696      2.07424     -0.06187         0.002501     -0.000441      0.000441
      7.81441      2.03107     -4.04344        -0.006107      0.002261     -0.002261
      7.76634      3.74160     -5.75397        -0.000680     -0.000680      0.000680
      3.85237     -0.17237      2.18473        -0.000085     -0.000085      0.000085
      3.79733      3.79733     -1.78496        -0.001219     -0.001219      0.001219
      9.76937      5.74463     -1.97366        -0.002261     -0.002261     -0.006107
      1.88206      1.88206      1.91303         0.000441      0.000441      0.002501
      5.85156      1.82682     -2.06132        -0.001741     -0.001741      0.001830
      9.76937      3.98603     -3.73226        -0.002261      0.006107      0.002261
      1.88206      0.09934      0.13031         0.000441     -0.002501     -0.000441
      5.85156      4.07368      0.18555        -0.001741     -0.001830      0.001741
      8.01077      5.74463     -3.73226         0.006107     -0.002261      0.002261
      4.12407     -2.14268      0.13031        -0.002501      0.000441     -0.000441
      4.07368      5.85156      0.18555        -0.001830     -0.001741      0.001741
      8.05883      4.03410     -2.02173         0.000680      0.000680     -0.000680
      8.00311      8.00311     -5.99074         0.001219      0.001219     -0.001219
      4.12866      0.10392     -2.11629         0.000085      0.000085     -0.000085
    total drift:                                0.000091      0.000056     -0.000088

  FREE ENERGIE OF THE ION-ELECTRON SYSTEM (eV)
  free  energy   TOTEN  =      -249.2926653586 eV

  energy  without entropy=     -249.2376593316  energy(sigma->0) =     -249.26516235

 d Force = 0.3282486E-03[ 0.536E-04, 0.603E-03]  d Energy = 0.8966584E-03-0.568E-03
 d Force =-0.3687674E+01[-0.369E+01,-0.368E+01]  d Ewald  = 0.2053717E+01-0.574E+01

 Quasi-Newton relaxation of ions (Broydens 2nd method)
  g(Force)  = 0.628E-04   g(Stress)= 0.205E-03

 retain information from N=  1 steps
 eigenvalues of (default step * inverse Hessian matrix)
  average eigenvalue of G=   0.5667
 eigenvalue spectrum of G is  0.5667

 reached required accuracy - stopping structural energy minimisation

volume of typ            1:     8.2 %

[...]

volume of typ            3:    10.3 %

total charge

# of ion       s       p       d       tot
    1        2.100   0.315   0.116   2.531
    2        2.104   0.326   0.122   2.552
    3        2.100   0.315   0.116   2.531
    4        2.104   0.326   0.122   2.552
    5        0.290   0.407   7.842   8.539
    6        0.280   0.387   7.850   8.517
    7        0.280   0.387   7.850   8.517
    8        0.290   0.407   7.842   8.539
    9        0.280   0.387   7.850   8.517
   10        0.280   0.387   7.850   8.517
   11        0.290   0.407   7.842   8.539
   12        0.280   0.387   7.850   8.517
   13        0.280   0.387   7.850   8.517
   14        0.291   0.404   7.832   8.527
   15        0.282   0.392   7.842   8.516
   16        0.291   0.404   7.832   8.527
   17        1.263   2.781   0.006   4.050
   18        1.262   2.784   0.006   4.053
   19        1.279   2.733   0.008   4.020
   20        1.263   2.781   0.006   4.050
   21        1.262   2.784   0.006   4.053
   22        1.279   2.733   0.008   4.020
   23        1.263   2.781   0.006   4.050
   24        1.262   2.784   0.006   4.053
   25        1.279   2.733   0.008   4.020
   26        1.270   2.775   0.007   4.051
   27        1.265   2.781   0.007   4.053
   28        1.280   2.734   0.008   4.022
   29        1.279   2.733   0.008   4.020
   30        1.262   2.784   0.006   4.053
   31        1.263   2.781   0.006   4.050
   32        1.279   2.733   0.008   4.020
   33        1.262   2.784   0.006   4.053
   34        1.263   2.781   0.006   4.050
   35        1.279   2.733   0.008   4.020
   36        1.262   2.784   0.006   4.053
   37        1.263   2.781   0.006   4.050
   38        1.270   2.775   0.007   4.051
   39        1.280   2.734   0.008   4.022
   40        1.265   2.781   0.007   4.053
tot          42.27   72.39   94.78  209.45

magnetization (x)

# of ion       s       p       d       tot
    1        0.001   0.008   0.003   0.012
    2        0.002   0.010   0.003   0.015
    3        0.001   0.008   0.003   0.012
    4        0.002   0.010   0.003   0.015
    5       -0.001  -0.001   0.156   0.155
    6       -0.001  -0.001   0.311   0.309
    7       -0.001  -0.001   0.311   0.309
    8       -0.001  -0.001   0.156   0.155
    9       -0.001  -0.001   0.311   0.309
   10       -0.001  -0.001   0.311   0.309
   11       -0.001  -0.001   0.156   0.155
   12       -0.001  -0.001   0.311   0.309
   13       -0.001  -0.001   0.311   0.309
   14       -0.001  -0.001   0.043   0.042
   15       -0.001  -0.000   0.214   0.213
   16       -0.001  -0.001   0.043   0.042
   17        0.006   0.054   0.000   0.060
   18        0.007   0.054   0.000   0.061
   19        0.001   0.011   0.000   0.012
   20        0.006   0.054   0.000   0.060
   21        0.007   0.054   0.000   0.061
   22        0.001   0.011   0.000   0.012
   23        0.006   0.054   0.000   0.060
   24        0.007   0.054   0.000   0.061
   25        0.001   0.011   0.000   0.012
   26        0.009   0.070   0.000   0.079
   27        0.004   0.025  -0.000   0.029
   28        0.004   0.034   0.000   0.038
   29        0.001   0.011   0.000   0.012
   30        0.007   0.054   0.000   0.061
   31        0.006   0.054   0.000   0.060
   32        0.001   0.011   0.000   0.012
   33        0.007   0.054   0.000   0.061
   34        0.006   0.054   0.000   0.060
   35        0.001   0.011   0.000   0.012
   36        0.007   0.054   0.000   0.061
   37        0.006   0.054   0.000   0.060
   38        0.009   0.070   0.000   0.079
   39        0.004   0.034   0.000   0.038
   40        0.004   0.025  -0.000   0.029
tot           0.12    0.99    2.65    3.76