 vasp.5.4.4.18Apr17-6-g9f103f2a35 (build May 12 2020 05:39:39) gamma-only

 MD_VERSION_INFO: Compiled 2020-05-12T12:39:39-UTC in devlin.sd.materialsdesign.
 com:/home/medea2/data/build/wwolf/vasp-gpu5.4.4/13047/x86_64/src/src/build/gam
 from svn 13047

 executed on                        Lin64 date 2023.02.09  15:04:35

 INCAR:
 POTCAR:    PAW_PBE Li_sv 10Sep2004
 POTCAR:    PAW_PBE Ni 02Aug2007
 POTCAR:    PAW_PBE O 08Apr2002

 POTCAR:    PAW_PBE Li_sv 10Sep2004

 POTCAR:    PAW_PBE Ni 02Aug2007

 POTCAR:    PAW_PBE O 08Apr2002

 Optimization of the real space projectors (new method)

 maximal supplied QI-value         = 22.11
 optimisation between [QCUT,QGAM] = [ 11.28, 22.77] = [ 35.61,145.23] Ry
 Optimized for a Real-space Cutoff    1.10 Angstroem

   l    n(q)    QCUT    max X(q) W(low)/X(q) W(high)/X(q)  e(spline)
   0      7    11.276    10.506    0.54E-04    0.58E-04    0.16E-07
   0      7    11.276     8.367    0.11E-03    0.14E-03    0.35E-07
   1      7    11.276     8.983    0.23E-03    0.43E-03    0.86E-07
 Optimization of the real space projectors (new method)

[...]

   l    n(q)    QCUT    max X(q) W(low)/X(q) W(high)/X(q)  e(spline)
   2      9    11.376    60.317    0.17E-03    0.16E-04    0.16E-06
   2      9    11.376    55.921    0.17E-03    0.16E-04    0.17E-06
   0     10    11.376    51.690    0.45E-04    0.60E-04    0.21E-06
   0     10    11.376    30.015    0.37E-04    0.55E-04    0.19E-06
   1     10    11.376    18.849    0.83E-04    0.11E-03    0.92E-07
   1     10    11.376    14.624    0.69E-04    0.92E-04    0.82E-07
 Optimization of the real space projectors (new method)

 maximal supplied QI-value         = 24.76
 optimisation between [QCUT,QGAM] = [ 11.39, 22.77] = [ 36.31,145.25] Ry
 Optimized for a Real-space Cutoff    1.10 Angstroem

   l    n(q)    QCUT    max X(q) W(low)/X(q) W(high)/X(q)  e(spline)
   0      7    11.387    20.381    0.22E-03    0.48E-03    0.18E-06
   0      7    11.387    15.268    0.22E-03    0.52E-03    0.19E-06
   1      7    11.387     5.964    0.22E-03    0.73E-03    0.24E-06
   1      7    11.387     5.382    0.19E-03    0.60E-03    0.21E-06

  PAW_PBE Li_sv 10Sep2004               :
  PAW_PBE Ni 02Aug2007                  :
  PAW_PBE O 08Apr2002                   :

 POSCAR: ce48_1
  positions in direct lattice
 exchange correlation table for  LEXCH =       14
   RHO(1)=    0.500       N(1)  =     2000
   RHO(2)=  100.500       N(2)  =     4000

 ion  position               nearest neighbor table
   1  0.940  0.470  0.090-  43 1.93  47 1.93  39 1.93  52 1.96
   2  0.439  0.720  0.341-  48 1.93  44 1.93  40 1.93  53 1.99
   3  0.938  0.969  0.593-  54 1.92  45 1.93  49 1.93  41 1.93
   4  0.561  0.780  0.159-  31 1.93  27 1.93  23 1.93  35 1.99
   5  0.060  0.030  0.410-  28 1.93  32 1.93  24 1.93  36 1.96
   6  0.062  0.531  0.907-  38 1.92  30 1.93  34 1.93  26 1.93
   7  0.002  0.001  0.999-  51 1.86  47 1.88  43 1.88  35 1.88  30 1.88  34 1.88  22 2.80  19 2.81
                            11 2.84  15 2.84  15 2.86  11 2.86
   8  0.500  0.250  0.250-  27 1.87  31 1.87  44 1.87  48 1.87  36 1.89  52 1.89  19 2.79  20 2.79
                            12 2.85  16 2.85  12 2.85  16 2.85
   9  0.998  0.499  0.501-  37 1.86  32 1.88  28 1.88  53 1.88  45 1.88  49 1.88  21 2.80  20 2.81
                            13 2.84  17 2.84  17 2.86  13 2.86
  10  0.500  0.750  0.750-  29 1.87  33 1.87  46 1.87  50 1.87  38 1.88  54 1.88  21 2.77  22 2.77
                            14 2.85  18 2.85  14 2.85  18 2.85
  11  0.500  0.001  0.999-  51 1.86  47 1.88  39 1.88  35 1.88  26 1.88  34 1.88  22 2.80  19 2.81
                             7 2.84  15 2.84  15 2.86   7 2.86
  12  0.000  0.250  0.250-  23 1.87  40 1.87  31 1.87  48 1.87  36 1.89  52 1.89  19 2.79  20 2.79
                             8 2.85  16 2.85  16 2.85   8 2.85
  13  0.500  0.499  0.501-  37 1.86  32 1.88  24 1.88  53 1.88  41 1.88  49 1.88  21 2.80  20 2.81
                             9 2.84  17 2.84  17 2.86   9 2.86
  14  0.000  0.750  0.750-  25 1.87  42 1.87  33 1.87  50 1.87  38 1.88  54 1.88  21 2.77  22 2.77
                            10 2.85  18 2.85  18 2.85  10 2.85
  15  0.500  0.499  0.999-  51 1.86  43 1.88  39 1.88  35 1.88  26 1.88  30 1.88  22 2.80  19 2.81
                             7 2.84  11 2.84  11 2.86   7 2.86
  16  0.000  0.750  0.250-  23 1.87  40 1.87  27 1.87  44 1.87  36 1.89  52 1.89  19 2.79  20 2.79
                             8 2.85  12 2.85  12 2.85   8 2.85
  17  0.500  0.001  0.501-  37 1.86  28 1.88  24 1.88  53 1.88  41 1.88  45 1.88  21 2.80  20 2.81
                             9 2.84  13 2.84  13 2.86   9 2.86
  18  0.000  0.250  0.750-  25 1.87  42 1.87  29 1.87  46 1.87  38 1.88  54 1.88  21 2.77  22 2.77
                            10 2.85  14 2.85  14 2.85  10 2.85
  19  0.250  0.125  0.125-  23 1.92  31 1.92  27 1.92  39 1.92  43 1.92  47 1.92  12 2.79   8 2.79
                            16 2.79   7 2.81  15 2.81  11 2.81
  20  0.750  0.375  0.375-  40 1.92  48 1.92  44 1.92  24 1.92  28 1.92  32 1.92  12 2.79   8 2.79
                            16 2.79   9 2.81  17 2.81  13 2.81
  21  0.249  0.624  0.627-  29 1.87  25 1.87  33 1.87  41 1.90  49 1.90  45 1.90  10 2.77  18 2.77
                            14 2.77  13 2.80  17 2.80   9 2.80
  22  0.751  0.876  0.873-  46 1.87  42 1.87  50 1.87  26 1.90  34 1.90  30 1.90  10 2.77  18 2.77
                            14 2.77  11 2.80  15 2.80   7 2.80
  23  0.907  0.953  0.193-  12 1.87  16 1.87  19 1.92   4 1.93
  24  0.408  0.204  0.443-  13 1.88  17 1.88  20 1.92   5 1.93
  25  0.914  0.457  0.692-  21 1.87  18 1.87  14 1.87
  26  0.410  0.705  0.941-  15 1.88  11 1.88  22 1.90   6 1.93
  27  0.353  0.953  0.193-   8 1.87  16 1.87  19 1.92   4 1.93
  28  0.853  0.204  0.443-   9 1.88  17 1.88  20 1.92   5 1.93
  29  0.351  0.457  0.692-  21 1.87  10 1.87  18 1.87
  30  0.854  0.705  0.941-   7 1.88  15 1.88  22 1.90   6 1.93
  31  0.353  0.400  0.193-   8 1.87  12 1.87  19 1.92   4 1.93
  32  0.853  0.649  0.443-   9 1.88  13 1.88  20 1.92   5 1.93
  33  0.351  0.894  0.692-  21 1.87  10 1.87  14 1.87
  34  0.854  0.149  0.941-   7 1.88  11 1.88  22 1.90   6 1.93
  35  0.634  0.817  0.049-   7 1.88  15 1.88  11 1.88   4 1.99
  36  0.133  0.066  0.301-   8 1.89  16 1.89  12 1.89   5 1.96
  37  0.633  0.317  0.550-   9 1.86  17 1.86  13 1.86
  38  0.133  0.567  0.800-  10 1.88  18 1.88  14 1.88   6 1.92
  39  0.592  0.296  0.057-  11 1.88  15 1.88  19 1.92   1 1.93
  40  0.093  0.547  0.307-  12 1.87  16 1.87  20 1.92   2 1.93
  41  0.590  0.795  0.559-  17 1.88  13 1.88  21 1.90   3 1.93
  42  0.086  0.043  0.808-  22 1.87  18 1.87  14 1.87
  43  0.147  0.296  0.057-   7 1.88  15 1.88  19 1.92   1 1.93
  44  0.647  0.547  0.307-   8 1.87  16 1.87  20 1.92   2 1.93
  45  0.146  0.795  0.559-   9 1.88  17 1.88  21 1.90   3 1.93
  46  0.649  0.043  0.808-  22 1.87  10 1.87  18 1.87
  47  0.147  0.851  0.057-   7 1.88  11 1.88  19 1.92   1 1.93
  48  0.647  0.100  0.307-   8 1.87  12 1.87  20 1.92   2 1.93
  49  0.146  0.351  0.559-   9 1.88  13 1.88  21 1.90   3 1.93
  50  0.649  0.606  0.808-  22 1.87  10 1.87  14 1.87
  51  0.367  0.183  0.950-   7 1.86  15 1.86  11 1.86
  52  0.867  0.434  0.199-   8 1.89  16 1.89  12 1.89   1 1.96
  53  0.366  0.683  0.451-   9 1.88  17 1.88  13 1.88   2 1.99
  54  0.867  0.933  0.700-  10 1.88  18 1.88  14 1.88   3 1.92

  LATTYP: Found a trigonal (rhomboedric) cell.
 ALAT       =    18.3456993448
 COS(alpha) =     0.9517000506

  Lattice vectors:

 A1 = ( -11.7639298543, -11.7639298543,   7.7320497422)
 A2 = (  -7.7320497422, -11.7639298543,  11.7639298543)
 A3 = ( -11.7639298543,  -7.7320497422,  11.7639298543)

Analysis of symmetry for initial positions (statically):
 Subroutine PRICEL returns:
 Original cell was already a primitive cell.

 Routine SETGRP: Setting up the symmetry group for a
 trigonal (rhombohedral) supercell.

 Subroutine GETGRP returns: Found 12 space group operations
 (whereof  2 operations were pure point group operations)
 out of a pool of 12 trial point group operations.

The static configuration has the point symmetry C_1h.
 The point group associated with its full space group is D_3d.

Analysis of symmetry for dynamics (positions and initial velocities):
 Subroutine PRICEL returns:
 Original cell was already a primitive cell.

[...]

The dynamic configuration has the point symmetry C_1h.
 The point group associated with its full space group is D_3d.

Analysis of structural, dynamic, and magnetic symmetry:
 Subroutine PRICEL returns:
 Original cell was already a primitive cell.

 Routine SETGRP: Setting up the symmetry group for a
 trigonal (rhombohedral) supercell.

 Subroutine GETGRP returns: Found 12 space group operations
 (whereof  2 operations were pure point group operations)
 out of a pool of 12 trial point group operations.

The magnetic configuration has the point symmetry C_1h.
 The point group associated with its full space group is D_3d.

 Subroutine INISYM returns: Found 12 space group operations
 (whereof  2 operations are pure point group operations),
 and found     1 'primitive' translations

 KPOINTS: Automatic mesh

Automatic generation of k-mesh.
Space group operators:
 irot       det(A)        alpha          n_x          n_y          n_z        tau_x        tau_y        tau_z
    1     1.000000     0.000001     1.000000     0.000000     0.000000     0.000000     0.000000     0.000000
    2    -1.000000   180.000000    -0.707107     0.707107    -0.000000     0.000000     0.000000     0.000000
    3    -1.000000     0.000001     1.000000     0.000000     0.000000     1.000000     0.500000    -1.500000
    4     1.000000   180.000000    -0.707107     0.707107    -0.000000     1.000000     0.500000    -1.500000
    5     1.000000   120.000000     0.577350     0.577350    -0.577350     0.500000     0.500000    -1.000000
    6    -1.000000   120.000000     0.577350     0.577350    -0.577350     0.500000     0.000000    -0.500000
    7     1.000000   179.999999    -0.707107     0.000000    -0.707107     0.500000     0.000000    -0.500000
    8    -1.000000   179.999999    -0.707107     0.000000    -0.707107     0.500000     0.500000    -1.000000
    9     1.000000   120.000000    -0.577350    -0.577350     0.577350     0.500000     0.000000    -1.000000
   10    -1.000000   120.000000    -0.577350    -0.577350     0.577350     0.500000     0.500000    -0.500000
   11     1.000000   180.000000    -0.000000     0.707107     0.707107     0.500000     0.500000    -0.500000
   12    -1.000000   180.000000    -0.000000     0.707107     0.707107     0.500000     0.000000    -1.000000

 Subroutine IBZKPT returns following result:

 Found      1 irreducible k-points:

 Following reciprocal coordinates:
            Coordinates               Weight
  0.000000  0.000000  0.000000      1.000000

 Following cartesian coordinates:
            Coordinates               Weight
  0.000000  0.000000  0.000000      1.000000

 SYSTEM =  unknown system
 POSCAR =  ce48_1

 Startparameter for this run:
   NWRITE =      1    write-flag & timer
[...]
   0.100E+02 0.100E+02 -.100E+02   -.994E+01 -.994E+01 0.994E+01   -.743E-01 -.743E-01 0.743E-01   -.155E-01 -.155E-01 0.155E-01
   -.585E+01 -.585E+01 0.585E+01   0.574E+01 0.574E+01 -.574E+01   0.977E-01 0.977E-01 -.977E-01   0.182E-01 0.182E-01 -.182E-01
   0.100E+02 0.100E+02 -.100E+02   -.103E+02 -.103E+02 0.103E+02   0.258E+00 0.258E+00 -.258E+00   -.549E-02 -.549E-02 0.550E-02
   0.389E+02 0.389E+02 -.420E+02   -.390E+02 -.390E+02 0.421E+02   0.851E-01 0.851E-01 -.206E+00   -.259E-01 -.259E-01 0.313E-01
   0.170E-05 -.528E-05 -.582E-06   0.355E-14 0.480E-13 -.249E-13   -.331E-23 0.232E-22 -.430E-22   0.648E-08 0.642E-08 -.580E-08
   -.389E+02 -.389E+02 0.420E+02   0.390E+02 0.390E+02 -.421E+02   -.851E-01 -.851E-01 0.206E+00   0.259E-01 0.259E-01 -.313E-01
   0.330E-05 -.507E-05 -.934E-06   0.146E-12 0.693E-13 -.171E-12   0.000E+00 0.265E-22 -.331E-22   -.950E-08 -.970E-08 0.109E-07
   0.389E+02 0.420E+02 -.389E+02   -.390E+02 -.421E+02 0.390E+02   0.851E-01 0.206E+00 -.851E-01   -.259E-01 -.313E-01 0.259E-01
   0.263E-05 -.541E-05 -.691E-06   -.924E-13 -.128E-12 0.586E-13   -.265E-22 -.265E-22 0.132E-22   0.625E-08 0.599E-08 -.644E-08
   -.389E+02 -.420E+02 0.389E+02   0.390E+02 0.421E+02 -.390E+02   -.851E-01 -.206E+00 0.851E-01   0.259E-01 0.313E-01 -.259E-01
   0.374E-05 -.523E-05 -.158E-05   0.675E-13 -.568E-13 -.203E-12   -.145E-23 -.279E-22 0.123E-22   -.946E-08 -.113E-07 0.937E-08
   0.420E+02 0.389E+02 -.389E+02   -.421E+02 -.390E+02 0.390E+02   0.206E+00 0.851E-01 -.851E-01   -.313E-01 -.259E-01 0.259E-01
   -.434E-05 0.560E-06 0.531E-06   0.320E-13 -.888E-13 0.128E-12   -.265E-22 -.265E-22 0.000E+00   0.560E-08 0.656E-08 -.650E-08
   -.420E+02 -.389E+02 0.389E+02   0.421E+02 0.390E+02 -.390E+02   -.206E+00 -.851E-01 0.851E-01   0.313E-01 0.259E-01 -.259E-01
   -.464E-05 0.198E-05 0.144E-07   0.853E-13 0.764E-13 -.320E-13   0.000E+00 -.265E-22 -.132E-22   -.107E-07 -.968E-08 0.969E-08
   0.261E+02 0.261E+02 -.261E+02   -.263E+02 -.263E+02 0.263E+02   0.212E+00 0.212E+00 -.212E+00   -.754E-01 -.754E-01 0.754E-01
   -.261E+02 -.261E+02 0.261E+02   0.263E+02 0.263E+02 -.263E+02   -.212E+00 -.212E+00 0.212E+00   0.754E-01 0.754E-01 -.754E-01
   -.184E+02 -.184E+02 0.184E+02   0.182E+02 0.182E+02 -.182E+02   0.145E+00 0.145E+00 -.145E+00   0.179E-01 0.180E-01 -.180E-01
   0.184E+02 0.184E+02 -.184E+02   -.182E+02 -.182E+02 0.182E+02   -.145E+00 -.145E+00 0.145E+00   -.179E-01 -.180E-01 0.180E-01
   0.190E+03 0.190E+03 0.163E+03   -.199E+03 -.199E+03 -.172E+03   0.947E+01 0.947E+01 0.935E+01   -.567E-01 -.567E-01 0.348E-01
   0.162E+03 0.162E+03 0.189E+03   -.171E+03 -.171E+03 -.197E+03   0.923E+01 0.923E+01 0.817E+01   0.349E-01 0.349E-01 -.201E-02
   0.198E+03 0.198E+03 0.236E+03   -.212E+03 -.212E+03 -.252E+03   0.143E+02 0.143E+02 0.160E+02   0.141E-02 0.141E-02 0.226E-01
   0.203E+03 0.203E+03 0.155E+03   -.212E+03 -.212E+03 -.164E+03   0.972E+01 0.972E+01 0.976E+01   -.107E-01 -.107E-01 0.357E-01
   0.190E+03 -.163E+03 -.190E+03   -.199E+03 0.172E+03 0.199E+03   0.947E+01 -.935E+01 -.947E+01   -.567E-01 -.348E-01 0.567E-01
   0.162E+03 -.189E+03 -.162E+03   -.171E+03 0.197E+03 0.171E+03   0.923E+01 -.817E+01 -.923E+01   0.349E-01 0.201E-02 -.349E-01
   0.198E+03 -.236E+03 -.198E+03   -.212E+03 0.252E+03 0.212E+03   0.143E+02 -.160E+02 -.143E+02   0.141E-02 -.226E-01 -.141E-02
   0.203E+03 -.155E+03 -.203E+03   -.212E+03 0.164E+03 0.212E+03   0.972E+01 -.976E+01 -.972E+01   -.107E-01 -.357E-01 0.107E-01
   -.163E+03 0.190E+03 -.190E+03   0.172E+03 -.199E+03 0.199E+03   -.935E+01 0.947E+01 -.947E+01   -.348E-01 -.567E-01 0.567E-01
   -.189E+03 0.162E+03 -.162E+03   0.197E+03 -.171E+03 0.171E+03   -.817E+01 0.923E+01 -.923E+01   0.201E-02 0.349E-01 -.349E-01
   -.236E+03 0.198E+03 -.198E+03   0.252E+03 -.212E+03 0.212E+03   -.160E+02 0.143E+02 -.143E+02   -.226E-01 0.141E-02 -.141E-02
   -.155E+03 0.203E+03 -.203E+03   0.164E+03 -.212E+03 0.212E+03   -.976E+01 0.972E+01 -.972E+01   -.357E-01 -.107E-01 0.107E-01
   -.165E+03 -.165E+03 0.165E+03   0.173E+03 0.173E+03 -.173E+03   -.805E+01 -.805E+01 0.805E+01   -.318E-01 -.318E-01 0.318E-01
   -.190E+03 -.190E+03 0.190E+03   0.197E+03 0.197E+03 -.197E+03   -.721E+01 -.721E+01 0.721E+01   0.464E-01 0.464E-01 -.464E-01
   -.232E+03 -.232E+03 0.232E+03   0.245E+03 0.245E+03 -.245E+03   -.131E+02 -.131E+02 0.131E+02   0.668E-02 0.668E-02 -.668E-02
   -.175E+03 -.175E+03 0.175E+03   0.184E+03 0.184E+03 -.184E+03   -.822E+01 -.822E+01 0.822E+01   0.409E-03 0.409E-03 -.409E-03
   -.162E+03 -.162E+03 -.189E+03   0.171E+03 0.171E+03 0.197E+03   -.923E+01 -.923E+01 -.817E+01   -.349E-01 -.349E-01 0.201E-02
   -.190E+03 -.190E+03 -.163E+03   0.199E+03 0.199E+03 0.172E+03   -.947E+01 -.947E+01 -.935E+01   0.567E-01 0.567E-01 -.348E-01
   -.203E+03 -.203E+03 -.155E+03   0.212E+03 0.212E+03 0.164E+03   -.972E+01 -.972E+01 -.976E+01   0.107E-01 0.107E-01 -.357E-01
   -.198E+03 -.198E+03 -.236E+03   0.212E+03 0.212E+03 0.252E+03   -.143E+02 -.143E+02 -.160E+02   -.141E-02 -.141E-02 -.226E-01
   -.162E+03 0.189E+03 0.162E+03   0.171E+03 -.197E+03 -.171E+03   -.923E+01 0.817E+01 0.923E+01   -.349E-01 -.201E-02 0.349E-01
   -.190E+03 0.163E+03 0.190E+03   0.199E+03 -.172E+03 -.199E+03   -.947E+01 0.935E+01 0.947E+01   0.567E-01 0.348E-01 -.567E-01
   -.203E+03 0.155E+03 0.203E+03   0.212E+03 -.164E+03 -.212E+03   -.972E+01 0.976E+01 0.972E+01   0.107E-01 0.357E-01 -.107E-01
   -.198E+03 0.236E+03 0.198E+03   0.212E+03 -.252E+03 -.212E+03   -.143E+02 0.160E+02 0.143E+02   -.141E-02 0.226E-01 0.141E-02
   0.189E+03 -.162E+03 0.162E+03   -.197E+03 0.171E+03 -.171E+03   0.817E+01 -.923E+01 0.923E+01   -.201E-02 -.349E-01 0.349E-01
   0.163E+03 -.190E+03 0.190E+03   -.172E+03 0.199E+03 -.199E+03   0.935E+01 -.947E+01 0.947E+01   0.348E-01 0.567E-01 -.567E-01
   0.155E+03 -.203E+03 0.203E+03   -.164E+03 0.212E+03 -.212E+03   0.976E+01 -.972E+01 0.972E+01   0.357E-01 0.107E-01 -.107E-01
   0.236E+03 -.198E+03 0.198E+03   -.252E+03 0.212E+03 -.212E+03   0.160E+02 -.143E+02 0.143E+02   0.226E-01 -.141E-02 0.141E-02
   0.232E+03 0.232E+03 -.232E+03   -.245E+03 -.245E+03 0.245E+03   0.131E+02 0.131E+02 -.131E+02   -.668E-02 -.668E-02 0.668E-02
   0.190E+03 0.190E+03 -.190E+03   -.197E+03 -.197E+03 0.197E+03   0.721E+01 0.721E+01 -.721E+01   -.464E-01 -.464E-01 0.464E-01
   0.165E+03 0.165E+03 -.165E+03   -.173E+03 -.173E+03 0.173E+03   0.805E+01 0.805E+01 -.805E+01   0.318E-01 0.318E-01 -.318E-01
   0.175E+03 0.175E+03 -.175E+03   -.184E+03 -.184E+03 0.184E+03   0.822E+01 0.822E+01 -.822E+01   -.409E-03 -.409E-03 0.409E-03
   -.595E-03 -.503E-03 0.523E-03   -.597E-12 0.625E-12 0.398E-12   0.178E-14 0.000E+00 0.000E+00   -.184E-07 -.184E-07 0.180E-07

 POSITION                                       TOTAL-FORCE (eV/Angst)
      2.95405      2.95405      3.09377        -0.002797     -0.002797      0.002797
      6.91572      2.88384     -0.86790         0.008024      0.008024     -0.008024
     10.88502      6.85314     -0.80532         0.011110      0.011110     -0.011110
      5.01407      0.98219      1.03375        -0.008024     -0.008024      0.008024
      4.94385      4.94385     -2.92791         0.002797      0.002797     -0.002797
     12.80869      8.77681     -6.76087        -0.011110     -0.011110      0.011110
     11.75278     11.75278     -7.71356        -0.009448     -0.009448     -0.008984
      3.94895      3.94895      0.08293        -0.000000     -0.000000      0.000000
      7.90905      7.90905      0.14737         0.009448      0.009448      0.008984
     11.84686      7.81498     -3.78310        -0.000000     -0.000000      0.000000
     11.75278     13.76138     -5.70496        -0.009448      0.008984      0.009448
      3.94895      1.93301     -1.93301        -0.000000     -0.000000      0.000000
      7.90905      5.90045     -1.86123         0.009448     -0.008984     -0.009448
     11.84686      5.79904     -5.79904        -0.000000     -0.000000      0.000000
     13.76138     11.75278     -5.70496         0.008984     -0.009448      0.009448
      5.96489     -0.08293     -1.93301        -0.000000     -0.000000      0.000000
      5.90045      7.90905     -1.86123        -0.008984      0.009448     -0.009448
      9.83092      7.81498     -5.79904        -0.000000     -0.000000      0.000000
      1.97832      1.97832      0.03762        -0.006617     -0.006617      0.006617
      5.91959      5.91959      0.12823         0.006617      0.006617     -0.006617
      9.88906      5.85718     -3.84124        -0.009964     -0.009964      0.009964
     13.80466      9.77278     -3.72496         0.009964      0.009964     -0.009964
      6.11792      2.08604      2.16035        -0.007250     -0.007250      0.011054
      6.03805      6.03805     -1.78278         0.002840      0.002840     -0.007173
      9.98703      9.98703     -1.67000         0.006397      0.006397      0.004906
     13.91017      9.87829     -5.61902        -0.004550     -0.004550      0.012773
      6.11792     -0.14441     -0.07010        -0.007250     -0.011054      0.007250
      6.03805      7.83060      0.00977         0.002840      0.007173     -0.002840
      9.98703      7.71782     -3.93921         0.006397     -0.004906     -0.006397
     13.91017     11.66684     -3.83047        -0.004550     -0.012773      0.004550
      3.88747      2.08604     -0.07010        -0.011054     -0.007250      0.007250
      7.83060      6.03805      0.00977         0.007173      0.002840     -0.002840
     11.74970      5.95515     -3.93921        -0.004906      0.006397     -0.006397
     11.66684     13.91017     -3.83047        -0.012773     -0.004550      0.004550
      3.86685     -0.16503      2.18097        -0.000084     -0.000084      0.000084
      3.81069      3.81069     -1.79475         0.004960      0.004960     -0.004960
      7.75046      7.75046     -1.70264         0.009719      0.009719     -0.009719
     11.69755      7.66567     -5.64973        -0.002575     -0.002575      0.002575
      1.85985      1.85985      1.94863        -0.002840     -0.002840      0.007173
      5.81187      1.77999     -1.99450         0.007250      0.007250     -0.011054
      9.78354      5.75166     -1.94718         0.004550      0.004550     -0.012773
      9.67480      9.67480     -5.89620        -0.006397     -0.006397     -0.004906
      1.85985      0.06731      0.15609        -0.002840     -0.007173      0.002840
      5.81187      4.01044      0.23595         0.007250      0.011054     -0.007250
      9.78354      3.96312     -3.73572         0.004550      0.012773     -0.004550
      9.67480     11.94402     -3.62698        -0.006397      0.004906      0.006397
      4.09919     -2.17203      0.15609        -0.007173     -0.002840      0.002840
      4.01044      5.81187      0.23595         0.011054      0.007250     -0.007250
      7.99500      5.75166     -3.73572         0.012773      0.004550     -0.004550
     11.94402      9.67480     -3.62698         0.004906     -0.006397      0.006397
     11.91138     11.91138     -5.86356        -0.009719     -0.009719      0.009719
      4.08722      4.08722      1.96060        -0.004960     -0.004960      0.004960
      8.06293      4.03105     -2.01511         0.000084      0.000084     -0.000084
     11.99617      7.96429     -1.91647         0.002575      0.002575     -0.002575
    total drift:                               -0.000595     -0.000503      0.000523

  FREE ENERGIE OF THE ION-ELECTRON SYSTEM (eV)
  free  energy   TOTEN  =      -336.0781464474 eV

  energy  without entropy=     -336.0357227771  energy(sigma->0) =     -336.05693461

 Quasi-Newton relaxation of ions (Broydens 2nd method)
  g(Force)  = 0.385E-03   g(Stress)= 0.111E-03

 Reset! Starting new Quasi-Newton update for ions

 reached required accuracy - stopping structural energy minimisation

volume of typ            1:     9.2 %

[...]

volume of typ            3:    10.3 %

total charge

# of ion       s       p       d       tot
    1        2.104   0.325   0.120   2.549
    2        2.102   0.315   0.117   2.535
    3        2.104   0.321   0.121   2.545
    4        2.102   0.315   0.117   2.535
    5        2.104   0.325   0.120   2.549
    6        2.104   0.321   0.121   2.545
    7        0.284   0.396   7.844   8.524
    8        0.283   0.398   7.850   8.531
    9        0.284   0.396   7.844   8.524
   10        0.289   0.404   7.840   8.532
   11        0.284   0.396   7.844   8.523
   12        0.283   0.398   7.850   8.531
   13        0.284   0.396   7.844   8.523
   14        0.289   0.404   7.840   8.532
   15        0.284   0.396   7.844   8.523
   16        0.283   0.398   7.850   8.531
   17        0.284   0.396   7.844   8.523
   18        0.289   0.404   7.840   8.532
   19        0.264   0.351   7.862   8.477
   20        0.264   0.351   7.862   8.477
   21        0.287   0.395   7.838   8.520
   22        0.287   0.395   7.838   8.520
   23        1.261   2.788   0.007   4.056
   24        1.262   2.786   0.007   4.054
   25        1.280   2.731   0.008   4.019
   26        1.262   2.782   0.007   4.051
   27        1.261   2.788   0.007   4.056
   28        1.262   2.786   0.007   4.054
   29        1.280   2.731   0.008   4.019
   30        1.262   2.782   0.007   4.051
   31        1.261   2.788   0.007   4.056
   32        1.262   2.786   0.007   4.054
   33        1.280   2.731   0.008   4.019
   34        1.262   2.782   0.007   4.051
   35        1.267   2.773   0.007   4.047
   36        1.268   2.774   0.007   4.048
   37        1.282   2.728   0.008   4.018
   38        1.269   2.772   0.007   4.048
   39        1.262   2.786   0.007   4.054
   40        1.261   2.788   0.007   4.056
   41        1.262   2.782   0.007   4.051
   42        1.280   2.731   0.008   4.019
   43        1.262   2.786   0.007   4.054
   44        1.261   2.788   0.007   4.056
   45        1.262   2.782   0.007   4.051
   46        1.280   2.731   0.008   4.019
   47        1.262   2.786   0.007   4.054
   48        1.261   2.788   0.007   4.056
   49        1.262   2.782   0.007   4.051
   50        1.280   2.731   0.008   4.019
   51        1.282   2.728   0.008   4.018
   52        1.268   2.774   0.007   4.048
   53        1.267   2.773   0.007   4.047
   54        1.269   2.772   0.007   4.048
tot          57.70   96.81  126.47  280.98

magnetization (x)

# of ion       s       p       d       tot
    1        0.002   0.009   0.003   0.014
    2        0.002   0.004   0.002   0.007
    3        0.002   0.006   0.002   0.009
    4        0.002   0.004   0.002   0.007
    5        0.002   0.009   0.003   0.014
    6        0.002   0.006   0.002   0.009
    7       -0.001  -0.001   0.224   0.222
    8       -0.001  -0.001   0.271   0.269
    9       -0.001  -0.001   0.224   0.222
   10       -0.001  -0.001   0.154   0.153
   11       -0.001  -0.001   0.224   0.222
   12       -0.001  -0.001   0.271   0.269
   13       -0.001  -0.001   0.224   0.222
   14       -0.001  -0.001   0.154   0.153
   15       -0.001  -0.001   0.224   0.222
   16       -0.001  -0.001   0.271   0.269
   17       -0.001  -0.001   0.224   0.222
   18       -0.001  -0.001   0.154   0.153
   19       -0.000  -0.000   0.581   0.581
   20       -0.000  -0.000   0.581   0.581
   21       -0.000  -0.000   0.126   0.126
   22       -0.000  -0.000   0.126   0.126
   23        0.006   0.044   0.000   0.050
   24        0.007   0.062   0.000   0.069
   25        0.002   0.017   0.000   0.018
   26        0.004   0.027   0.000   0.030
   27        0.006   0.044   0.000   0.050
   28        0.007   0.062   0.000   0.069
   29        0.002   0.017   0.000   0.018
   30        0.004   0.027   0.000   0.030
   31        0.006   0.044   0.000   0.050
   32        0.007   0.062   0.000   0.069
   33        0.002   0.017   0.000   0.018
   34        0.004   0.027   0.000   0.030
   35        0.005   0.035   0.000   0.040
   36        0.011   0.078   0.000   0.089
   37        0.005   0.057   0.000   0.062
   38        0.008   0.057   0.000   0.065
   39        0.007   0.062   0.000   0.069
   40        0.006   0.044   0.000   0.050
   41        0.004   0.027   0.000   0.030
   42        0.002   0.017   0.000   0.018
   43        0.007   0.062   0.000   0.069
   44        0.006   0.044   0.000   0.050
   45        0.004   0.027   0.000   0.030
   46        0.002   0.017   0.000   0.018
   47        0.007   0.062   0.000   0.069
   48        0.006   0.044   0.000   0.050
   49        0.004   0.027   0.000   0.030
   50        0.002   0.017   0.000   0.018
   51        0.005   0.057   0.000   0.062
   52        0.011   0.078   0.000   0.089
   53        0.005   0.035   0.000   0.040
   54        0.008   0.057   0.000   0.065
tot           0.17    1.38    4.05    5.59