 vasp.5.4.4.18Apr17-6-g9f103f2a35 (build May 12 2020 05:39:39) gamma-only

 MD_VERSION_INFO: Compiled 2020-05-12T12:39:39-UTC in devlin.sd.materialsdesign.
 com:/home/medea2/data/build/wwolf/vasp-gpu5.4.4/13047/x86_64/src/src/build/gam
 from svn 13047

 executed on                        Lin64 date 2023.02.09  15:25:44

 INCAR:
 POTCAR:    PAW_PBE Li_sv 10Sep2004
 POTCAR:    PAW_PBE Ni 02Aug2007
 POTCAR:    PAW_PBE O 08Apr2002

 POTCAR:    PAW_PBE Li_sv 10Sep2004

 POTCAR:    PAW_PBE Ni 02Aug2007

 POTCAR:    PAW_PBE O 08Apr2002

 Optimization of the real space projectors (new method)

 maximal supplied QI-value         = 22.11
 optimisation between [QCUT,QGAM] = [ 11.28, 22.77] = [ 35.61,145.23] Ry
 Optimized for a Real-space Cutoff    1.10 Angstroem

   l    n(q)    QCUT    max X(q) W(low)/X(q) W(high)/X(q)  e(spline)
   0      7    11.276    10.506    0.54E-04    0.58E-04    0.16E-07
   0      7    11.276     8.367    0.11E-03    0.14E-03    0.35E-07
   1      7    11.276     8.983    0.23E-03    0.43E-03    0.86E-07
 Optimization of the real space projectors (new method)

[...]

   l    n(q)    QCUT    max X(q) W(low)/X(q) W(high)/X(q)  e(spline)
   2      9    11.376    60.317    0.17E-03    0.16E-04    0.16E-06
   2      9    11.376    55.921    0.17E-03    0.16E-04    0.17E-06
   0     10    11.376    51.690    0.45E-04    0.60E-04    0.21E-06
   0     10    11.376    30.015    0.37E-04    0.55E-04    0.19E-06
   1     10    11.376    18.849    0.83E-04    0.11E-03    0.92E-07
   1     10    11.376    14.624    0.69E-04    0.92E-04    0.82E-07
 Optimization of the real space projectors (new method)

 maximal supplied QI-value         = 24.76
 optimisation between [QCUT,QGAM] = [ 11.39, 22.77] = [ 36.31,145.25] Ry
 Optimized for a Real-space Cutoff    1.10 Angstroem

   l    n(q)    QCUT    max X(q) W(low)/X(q) W(high)/X(q)  e(spline)
   0      7    11.387    20.381    0.22E-03    0.48E-03    0.18E-06
   0      7    11.387    15.268    0.22E-03    0.52E-03    0.19E-06
   1      7    11.387     5.964    0.22E-03    0.73E-03    0.24E-06
   1      7    11.387     5.382    0.19E-03    0.60E-03    0.21E-06

  PAW_PBE Li_sv 10Sep2004               :
  PAW_PBE Ni 02Aug2007                  :
  PAW_PBE O 08Apr2002                   :

 POSCAR: ce34_1
  positions in direct lattice
 exchange correlation table for  LEXCH =       14
   RHO(1)=    0.500       N(1)  =     2000
   RHO(2)=  100.500       N(2)  =     4000

 ion  position               nearest neighbor table
   1  0.628  0.243  0.878-  35 1.90  32 1.90  36 1.95  39 1.95
   2  0.958  0.583  0.208-  30 1.95  33 1.95  37 1.95  40 1.95
   3  0.288  0.923  0.538-  38 1.90  41 1.90  34 1.95  31 1.95
   4  0.042  0.417  0.792-  20 1.92  23 1.92  29 1.94  26 1.94
   5  0.375  0.750  0.125-  24 1.92  27 1.92  18 1.94  21 1.94
   6  0.335  0.331  0.334-  39 1.85  36 1.85  26 1.86  29 1.86  22 1.92  33 1.94   9 2.80   9 2.81
                            17 2.82  14 2.82  15 2.84  12 2.84
   7  0.666  0.668  0.666-  27 1.85  24 1.85  37 1.86  40 1.86  23 1.99  34 1.99  10 2.80  10 2.81
                            16 2.84  13 2.84  12 2.86  15 2.86
   8  0.998  0.000  1.000-  25 1.84  28 1.84  41 1.86  38 1.86  35 1.94  21 1.95  11 2.78  13 2.82
                            16 2.82  11 2.82  14 2.84  17 2.84
   9  0.834  0.331  0.334-  39 1.85  36 1.85  26 1.86  29 1.86  19 1.92  30 1.94   6 2.80   6 2.81
                            17 2.82  14 2.82  15 2.84  12 2.84
  10  0.166  0.668  0.666-  27 1.85  24 1.85  37 1.86  40 1.86  20 1.99  31 1.99   7 2.80   7 2.81
                            16 2.84  13 2.84  12 2.86  15 2.86
  11  0.502  0.000  1.000-  25 1.84  28 1.84  41 1.86  38 1.86  32 1.94  18 1.95   8 2.78  13 2.82
                            16 2.82   8 2.82  14 2.84  17 2.84
  12  0.501  0.499  0.000-  23 1.85  20 1.85  33 1.86  30 1.86  27 1.99  39 1.99  15 2.80  15 2.81
                             9 2.84   6 2.84  10 2.86   7 2.86
  13  0.832  0.836  0.333-  34 1.85  31 1.85  18 1.86  21 1.86  28 1.92  40 1.94  16 2.80  16 2.81
                            11 2.82   8 2.82   7 2.84  10 2.84
  14  0.167  0.166  0.665-  22 1.84  19 1.84  32 1.86  35 1.86  41 1.94  29 1.95  17 2.78   6 2.82
                             9 2.82  17 2.82  11 2.84   8 2.84
  15  0.501  0.499  0.501-  23 1.85  20 1.85  33 1.86  30 1.86  24 1.99  36 1.99  12 2.80  12 2.81
                             9 2.84   6 2.84  10 2.86   7 2.86
  16  0.832  0.836  0.832-  34 1.85  31 1.85  18 1.86  21 1.86  25 1.92  37 1.94  13 2.80  13 2.81
                            11 2.82   8 2.82   7 2.84  10 2.84
  17  0.167  0.166  0.169-  22 1.84  19 1.84  32 1.86  35 1.86  38 1.94  26 1.95  14 2.78   6 2.82
                             9 2.82  14 2.82  11 2.84   8 2.84
  18  0.613  0.841  0.080-  13 1.86  16 1.86   5 1.94  11 1.95
  19  0.948  0.174  0.413-  17 1.84  14 1.84   9 1.92
  20  0.281  0.505  0.747-  15 1.85  12 1.85   4 1.92  10 1.99
  21  0.046  0.841  0.080-  13 1.86  16 1.86   5 1.94   8 1.95
  22  0.378  0.174  0.413-  17 1.84  14 1.84   6 1.92
  23  0.714  0.505  0.747-  15 1.85  12 1.85   4 1.92   7 1.99
  24  0.419  0.661  0.453-  10 1.85   7 1.85   5 1.92  15 1.99
  25  0.754  0.993  0.789-   8 1.84  11 1.84  16 1.92
  26  0.087  0.326  0.121-   9 1.86   6 1.86   4 1.94  17 1.95
  27  0.419  0.661  0.886-  10 1.85   7 1.85   5 1.92  12 1.99
  28  0.754  0.993  0.218-   8 1.84  11 1.84  13 1.92
  29  0.087  0.326  0.553-   9 1.86   6 1.86   4 1.94  14 1.95
  30  0.722  0.490  0.255-  15 1.86  12 1.86   9 1.94   2 1.95
  31  0.050  0.831  0.584-  13 1.85  16 1.85   3 1.95  10 1.99
  32  0.386  0.159  0.920-  14 1.86  17 1.86   1 1.90  11 1.94
  33  0.287  0.490  0.255-  15 1.86  12 1.86   6 1.94   2 1.95
  34  0.619  0.831  0.584-  13 1.85  16 1.85   3 1.95   7 1.99
  35  0.955  0.159  0.920-  14 1.86  17 1.86   1 1.90   8 1.94
  36  0.582  0.336  0.548-   9 1.85   6 1.85   1 1.95  15 1.99
  37  0.912  0.676  0.879-   7 1.86  10 1.86  16 1.94   2 1.95
  38  0.246  0.008  0.211-  11 1.86   8 1.86   3 1.90  17 1.94
  39  0.582  0.336  0.116-   9 1.85   6 1.85   1 1.95  12 1.99
  40  0.912  0.676  0.444-   7 1.86  10 1.86  13 1.94   2 1.95
  41  0.246  0.008  0.781-  11 1.86   8 1.86   3 1.90  14 1.94

  LATTYP: Found a body centered tetragonal cell.
 ALAT       =     5.6060691671
 C/A-ratio  =     4.3414809688

  Lattice vectors:

 A1 = (  12.1693212996,   0.0000000000,  -3.9640895239)
 A2 = (  12.1693212996,   0.0000000000,   3.9640895239)
 A3 = ( -12.1693212996,  -3.9640895239,   0.0000000000)

Analysis of symmetry for initial positions (statically):
 Subroutine PRICEL returns:
 Original cell was already a primitive cell.

 Routine SETGRP: Setting up the symmetry group for a
 body centered tetragonal supercell.

 Subroutine GETGRP returns: Found  8 space group operations
 (whereof  2 operations were pure point group operations)
 out of a pool of 16 trial point group operations.

The static configuration has the point symmetry C_1h.
 The point group associated with its full space group is D_2d.

Analysis of symmetry for dynamics (positions and initial velocities):
 Subroutine PRICEL returns:
 Original cell was already a primitive cell.

[...]

The dynamic configuration has the point symmetry C_1h.
 The point group associated with its full space group is D_2d.

Analysis of structural, dynamic, and magnetic symmetry:
 Subroutine PRICEL returns:
 Original cell was already a primitive cell.

 Routine SETGRP: Setting up the symmetry group for a
 body centered tetragonal supercell.

 Subroutine GETGRP returns: Found  8 space group operations
 (whereof  2 operations were pure point group operations)
 out of a pool of 16 trial point group operations.

The magnetic configuration has the point symmetry C_1h.
 The point group associated with its full space group is D_2d.

 Subroutine INISYM returns: Found  8 space group operations
 (whereof  2 operations are pure point group operations),
 and found     1 'primitive' translations

 KPOINTS: Automatic mesh

Automatic generation of k-mesh.
Space group operators:
 irot       det(A)        alpha          n_x          n_y          n_z        tau_x        tau_y        tau_z
    1     1.000000     0.000000     1.000000     0.000000     0.000000     0.000000     0.000000     0.000000
    2    -1.000000   180.000000     0.000000    -0.707107     0.707107     0.000000     0.000000     0.000000
    3    -1.000000    90.000000    -1.000000     0.000000     0.000000    -0.833333     1.166667    -0.333333
    4     1.000000   179.999999     1.000000     0.000000     0.000000    -0.500000     0.000000    -0.000000
    5    -1.000000    90.000000     1.000000     0.000000     0.000000    -0.833333     1.166667    -0.833333
    6    -1.000000   180.000000     0.000000     0.707107     0.707107    -0.500000     0.000000     0.000000
    7     1.000000   180.000000     0.000000     1.000000     0.000000    -0.833333     1.166667    -0.333333
    8     1.000000   180.000000     0.000000     0.000000     1.000000    -0.833333     1.166667    -0.833333

 Subroutine IBZKPT returns following result:

 Found      1 irreducible k-points:

 Following reciprocal coordinates:
            Coordinates               Weight
  0.000000  0.000000  0.000000      1.000000

 Following cartesian coordinates:
            Coordinates               Weight
  0.000000  0.000000  0.000000      1.000000

 SYSTEM =  unknown system
 POSCAR =  ce34_1

 Startparameter for this run:
   NWRITE =      1    write-flag & timer
   PREC   = accura    normal or accurate (medium, high low for compatibility)
   ISTART =      0    job   : 0-new  1-cont  2-samecut
   ICHARG =      2    charge: 1-file 2-atom 10-const
   ISPIN  =      2    spin polarized calculation?
   LNONCOLLINEAR =      F non collinear calculations
   LSORBIT =      F    spin-orbit coupling
   INIWAV =      1    electr: 0-lowe 1-rand  2-diag
   LASPH  =      F    aspherical Exc in radial PAW
   METAGGA=      F    non-selfconsistent MetaGGA calc.

 Electronic Relaxation 1
   ENCUT  =  500.0 eV  36.75 Ry    6.06 a.u.  10.22 23.33 10.22*2*pi/ulx,y,z
   ENINI  =  500.0     initial cutoff
   ENAUG  =  628.9 eV  augmentation charge cutoff
   NELM   =     80;   NELMIN=  2; NELMDL= -5     # of ELM steps
   EDIFF  = 0.1E-04   stopping-criterion for ELM
   LREAL  =      T    real-space projection
   NLSPLINE    = F    spline interpolate recip. space projectors
   LCOMPAT=      F    compatible to vasp.4.4
   GGA_COMPAT  = T    GGA compatible to vasp.4.4-vasp.4.6
   LMAXPAW     = -100 max onsite density
   LMAXMIX     =    2 max onsite mixed and CHGCAR
   VOSKOWN=      1    Vosko Wilk Nusair interpolation
   ROPT   =   -0.00025  -0.00025  -0.00025
 Ionic relaxation
   EDIFFG = -.2E-01   stopping-criterion for IOM
   NSW    =     20    number of steps for IOM
   NBLOCK =      1;   KBLOCK =     20    inner block; outer block
   IBRION =      1    ionic relax: 0-MD 1-quasi-New 2-CG
   NFREE  =      0    steps in history (QN), initial steepest desc. (CG)
   ISIF   =      3    stress and relaxation
   IWAVPR =     11    prediction:  0-non 1-charg 2-wave 3-comb
   ISYM   =      2    0-nonsym 1-usesym 2-fastsym
[...]
     39      -2.1190      1.00000
     40      -2.0262      1.00000
     41      -2.0262      1.00000
     42      -1.6367      1.00000
     43      -1.5598      1.00000
     44      -1.5566      1.00000
     45      -1.5186      1.00000
     46      -1.4773      1.00000
     47      -1.4009      1.00000
     48      -1.3664      1.00000
     49      -1.3581      1.00000
     50      -1.3357      1.00000
     51      -1.2888      1.00000
     52      -1.2459      1.00000
     53      -1.2017      1.00000
     54      -1.1404      1.00000
     55      -1.0953      1.00000
     56      -1.0250      1.00000
     57      -0.9142      1.00000
     58      -0.7841      1.00000
     59      -0.7437      1.00000
     60      -0.6591      1.00000
[...]
    178      15.2499      0.00000
    179      15.9175      0.00000
    180      15.9175      0.00000
    181      16.0855      0.00000
    182      16.0855      0.00000
    183      16.4734      0.00000
    184      16.6213      0.00000
    185      16.8239      0.00000
    186      17.6977      0.00000
    187      17.7019      0.00000
    188      17.7543      0.00000
    189      17.8059      0.00000
    190      17.8068      0.00000
    191      17.9764      0.00000
    192      17.9772      0.00000

 soft charge-density along one line, spin component           1
         0         1         2         3         4         5         6         7         8         9
 total charge-density along one line

 soft charge-density along one line, spin component           2
         0         1         2         3         4         5         6         7         8         9
 total charge-density along one line

------------------------ aborting loop because EDIFF is reached ----------------------------------------

  FORCE on cell =-STRESS in cart. coord.  units (eV):
  Direction    XX          YY          ZZ          XY          YZ          ZX
  Alpha Z   879.89737   879.89737   879.89737
  Ewald   -6171.55140 -5311.54145 -5311.54145    -0.00004     0.00001     0.00001
  Hartree  2424.61603  2742.39023  2742.39024     0.00005     0.00000     0.00000
  E(xc)   -1420.40341 -1420.76686 -1420.76686     0.00006     0.00000    -0.00000
  Local   -1705.69125 -2771.50299 -2771.50321     0.00050    -0.00002    -0.00002
  n-local  -705.24518  -685.63583  -685.61600     0.00587    -0.00004     0.00003
  augment  2381.93605  2324.18649  2324.18592     0.00143     0.00000    -0.00000
  Kinetic  4316.44349  4242.73327  4242.73303    -0.00002     0.00003    -0.00003
  Fock        0.00000     0.00000     0.00000     0.00000     0.00000     0.00000
  Total        0.0017077     -0.2303781     -0.2303781      0.0000000      0.0000000      0.0000000
  in kB        0.0071539     -0.9650918     -0.9650918      0.0000000      0.0000000      0.0000000

 VOLUME and BASIS-vectors are now :
  energy-cutoff  :      500.00
  volume of cell :      382.46
      direct lattice vectors                 reciprocal lattice vectors
     0.000000000  3.964089524  3.964089524    -0.041086926  0.126132368  0.126132368
    12.169321300  3.964089524  0.000000000     0.082173851  0.000000000  0.000000000
     0.000000000  3.964089524 -3.964089524    -0.041086926  0.126132368 -0.126132368

  length of vectors
     5.606069167 12.798686911  5.606069167     0.183048857  0.082173851  0.183048857

 FORCES acting on ions
    electron-ion (+dipol)            ewald-force                    non-local-force                 convergence-correction
   -.438E+00 -.658E-05 0.937E-06   0.171E+00 -.775E-05 -.105E-04   0.269E+00 0.000E+00 0.000E+00   0.944E-02 0.491E-06 -.259E-06
   0.775E-05 0.605E-05 -.138E-05   0.457E-05 0.570E-05 0.690E-05   0.000E+00 0.271E-19 0.000E+00   -.329E-07 0.633E-08 -.232E-06
   0.438E+00 -.157E-04 0.185E-05   -.171E+00 0.160E-05 -.315E-05   -.269E+00 0.000E+00 0.000E+00   -.944E-02 -.499E-06 -.271E-06
   -.314E+00 -.639E-05 0.747E-06   0.496E+00 0.387E-05 -.168E-05   -.187E+00 -.260E-17 -.867E-18   0.914E-02 0.206E-06 0.269E-06
   0.314E+00 -.157E-04 0.231E-05   -.496E+00 -.982E-05 0.433E-05   0.187E+00 0.260E-17 -.867E-18   -.914E-02 -.214E-06 0.258E-06
   0.904E+01 -.773E+01 -.773E+01   -.925E+01 0.802E+01 0.802E+01   0.166E+00 -.297E+00 -.297E+00   0.347E-01 -.251E-02 -.251E-02
   0.603E+01 -.834E+00 -.834E+00   -.617E+01 0.668E+00 0.668E+00   0.163E+00 0.162E+00 0.162E+00   -.215E-01 -.140E-02 -.140E-02
   -.214E+02 0.250E+01 0.250E+01   0.220E+02 -.227E+01 -.227E+01   -.585E+00 -.230E+00 -.230E+00   -.168E-01 0.626E-03 0.626E-03
   0.904E+01 0.773E+01 0.773E+01   -.925E+01 -.802E+01 -.802E+01   0.166E+00 0.297E+00 0.297E+00   0.347E-01 0.251E-02 0.251E-02
   0.603E+01 0.834E+00 0.834E+00   -.617E+01 -.668E+00 -.668E+00   0.163E+00 -.162E+00 -.162E+00   -.215E-01 0.140E-02 0.140E-02
   -.214E+02 -.250E+01 -.250E+01   0.220E+02 0.227E+01 0.227E+01   -.585E+00 0.230E+00 0.230E+00   -.168E-01 -.626E-03 -.626E-03
   -.603E+01 -.834E+00 0.834E+00   0.617E+01 0.668E+00 -.668E+00   -.163E+00 0.162E+00 -.162E+00   0.215E-01 -.140E-02 0.140E-02
   -.904E+01 -.773E+01 0.773E+01   0.925E+01 0.802E+01 -.802E+01   -.166E+00 -.297E+00 0.297E+00   -.347E-01 -.251E-02 0.251E-02
   0.214E+02 0.250E+01 -.250E+01   -.220E+02 -.227E+01 0.227E+01   0.585E+00 -.230E+00 0.230E+00   0.168E-01 0.626E-03 -.626E-03
   -.603E+01 0.834E+00 -.834E+00   0.617E+01 -.668E+00 0.668E+00   -.163E+00 -.162E+00 0.162E+00   0.215E-01 0.140E-02 -.140E-02
   -.904E+01 0.772E+01 -.773E+01   0.925E+01 -.802E+01 0.802E+01   -.166E+00 0.297E+00 -.297E+00   -.347E-01 0.251E-02 -.251E-02
   0.214E+02 -.250E+01 0.250E+01   -.220E+02 0.227E+01 -.227E+01   0.585E+00 0.230E+00 -.230E+00   0.168E-01 -.626E-03 0.626E-03
   0.165E+03 0.186E+03 0.186E+03   -.173E+03 -.196E+03 -.196E+03   0.832E+01 0.103E+02 0.103E+02   -.164E-01 -.119E-02 -.119E-02
   0.206E+03 0.215E+03 0.215E+03   -.219E+03 -.230E+03 -.230E+03   0.132E+02 0.150E+02 0.150E+02   0.107E-01 0.449E-02 0.449E-02
   0.154E+03 0.184E+03 0.184E+03   -.160E+03 -.194E+03 -.194E+03   0.626E+01 0.102E+02 0.102E+02   0.104E-01 0.268E-02 0.268E-02
   0.165E+03 -.186E+03 -.186E+03   -.173E+03 0.196E+03 0.196E+03   0.832E+01 -.103E+02 -.103E+02   -.164E-01 0.119E-02 0.119E-02
   0.206E+03 -.215E+03 -.215E+03   -.219E+03 0.230E+03 0.230E+03   0.132E+02 -.150E+02 -.150E+02   0.107E-01 -.449E-02 -.449E-02
   0.154E+03 -.184E+03 -.184E+03   -.160E+03 0.194E+03 0.194E+03   0.626E+01 -.102E+02 -.102E+02   0.104E-01 -.268E-02 -.268E-02
   -.154E+03 0.184E+03 -.184E+03   0.160E+03 -.194E+03 0.194E+03   -.626E+01 0.102E+02 -.102E+02   -.104E-01 0.268E-02 -.268E-02
   -.206E+03 0.215E+03 -.215E+03   0.219E+03 -.230E+03 0.230E+03   -.132E+02 0.150E+02 -.150E+02   -.107E-01 0.449E-02 -.449E-02
   -.165E+03 0.186E+03 -.186E+03   0.173E+03 -.196E+03 0.196E+03   -.832E+01 0.103E+02 -.103E+02   0.164E-01 -.119E-02 0.119E-02
   -.154E+03 -.184E+03 0.184E+03   0.160E+03 0.194E+03 -.194E+03   -.626E+01 -.102E+02 0.102E+02   -.104E-01 -.268E-02 0.268E-02
   -.206E+03 -.215E+03 0.215E+03   0.219E+03 0.230E+03 -.230E+03   -.132E+02 -.150E+02 0.150E+02   -.107E-01 -.449E-02 0.449E-02
   -.165E+03 -.186E+03 0.186E+03   0.173E+03 0.196E+03 -.196E+03   -.832E+01 -.103E+02 0.103E+02   0.164E-01 0.119E-02 -.119E-02
   -.169E+03 -.182E+03 -.182E+03   0.177E+03 0.192E+03 0.192E+03   -.786E+01 -.101E+02 -.101E+02   0.160E-01 -.255E-02 -.255E-02
   -.168E+03 -.186E+03 -.186E+03   0.175E+03 0.197E+03 0.197E+03   -.692E+01 -.108E+02 -.108E+02   -.211E-01 0.318E-02 0.318E-02
   -.159E+03 -.187E+03 -.187E+03   0.167E+03 0.197E+03 0.197E+03   -.805E+01 -.956E+01 -.956E+01   0.533E-02 -.306E-02 -.306E-02
   -.169E+03 0.182E+03 0.182E+03   0.177E+03 -.192E+03 -.192E+03   -.786E+01 0.101E+02 0.101E+02   0.160E-01 0.255E-02 0.255E-02
   -.168E+03 0.186E+03 0.186E+03   0.175E+03 -.197E+03 -.197E+03   -.692E+01 0.108E+02 0.108E+02   -.211E-01 -.318E-02 -.318E-02
   -.159E+03 0.187E+03 0.187E+03   0.167E+03 -.197E+03 -.197E+03   -.805E+01 0.956E+01 0.956E+01   0.533E-02 0.306E-02 0.306E-02
   0.168E+03 -.186E+03 0.186E+03   -.175E+03 0.197E+03 -.197E+03   0.692E+01 -.108E+02 0.108E+02   0.211E-01 0.318E-02 -.318E-02
   0.169E+03 -.182E+03 0.182E+03   -.177E+03 0.192E+03 -.192E+03   0.786E+01 -.101E+02 0.101E+02   -.160E-01 -.255E-02 0.255E-02
   0.159E+03 -.187E+03 0.187E+03   -.167E+03 0.197E+03 -.197E+03   0.805E+01 -.956E+01 0.956E+01   -.533E-02 -.306E-02 0.306E-02
   0.168E+03 0.186E+03 -.186E+03   -.175E+03 -.197E+03 0.197E+03   0.692E+01 0.108E+02 -.108E+02   0.211E-01 -.318E-02 0.318E-02
   0.169E+03 0.182E+03 -.182E+03   -.177E+03 -.192E+03 0.192E+03   0.786E+01 0.101E+02 -.101E+02   -.160E-01 0.255E-02 -.255E-02
   0.159E+03 0.187E+03 -.187E+03   -.167E+03 -.197E+03 0.197E+03   0.805E+01 0.956E+01 -.956E+01   -.533E-02 0.306E-02 -.306E-02
   -.437E-03 -.347E-03 -.171E-03   0.426E-12 -.853E-13 -.853E-13   -.888E-14 -.231E-13 -.888E-14   0.888E-08 -.130E-07 0.356E-07

 POSITION                                       TOTAL-FORCE (eV/Angst)
      2.96135      6.93716     -0.99102         0.011290      0.000000     -0.000000
      7.09877      6.93716      2.97307         0.000000     -0.000000     -0.000000
     11.23619      6.93716     -0.99102        -0.011290     -0.000000     -0.000000
      5.06945      4.95511     -2.97307         0.004282      0.000000     -0.000000
      9.12809      4.95511      0.99102        -0.004282     -0.000000     -0.000000
      4.02892      3.96665      0.00257        -0.007708     -0.003110     -0.003110
      8.12867      7.92678     -0.00140         0.002941     -0.005305     -0.005305
      0.00486      7.92085     -0.00733         0.001185     -0.005341     -0.005341
      4.02892      5.94357      1.97948        -0.007708      0.003110      0.003110
      8.12867      5.94754     -1.98064         0.002941      0.005305      0.005305
      0.00486      5.95346     -1.97472         0.001185      0.005341      0.005341
      6.06887      3.96269      1.98345        -0.002941     -0.005305      0.005305
     10.16862      7.93074      1.97948         0.007708     -0.003110      0.003110
      2.02336      3.95676     -1.97472        -0.001185     -0.005341      0.005341
      6.06887      5.94754     -0.00140        -0.002941      0.005305     -0.005305
     10.16862      9.90766      0.00257         0.007708      0.003110     -0.003110
      2.02336      1.98937     -0.00733        -0.001185      0.005341     -0.005341
     10.23194      6.08013      2.11604         0.018738     -0.001326     -0.001326
      2.11641      6.08557      2.12148         0.007683      0.001310      0.001310
      6.14938      6.07857     -1.84961         0.009161      0.002370      0.002370
     10.23194      3.83009     -0.13400         0.018738      0.001326      0.001326
      2.11641      3.82466     -0.13943         0.007683     -0.001310     -0.001310
      6.14938      7.79574     -0.13244         0.009161     -0.002370     -0.002370
      8.04816      6.07857     -0.13244        -0.009161      0.002370     -0.002370
     12.08113     10.04966     -0.13943        -0.007683      0.001310     -0.001310
      3.96560      2.11604     -0.13400        -0.018738     -0.001326      0.001326
      8.04816      7.79574     -1.84961        -0.009161     -0.002370      0.002370
     12.08113      7.78875      2.12148        -0.007683     -0.001310      0.001310
      3.96560      3.83009     -1.84805        -0.018738      0.001326     -0.001326
      5.96521      5.81731      1.85322        -0.017181      0.001092      0.001092
     10.11275      5.81018     -2.11799        -0.006849     -0.004073     -0.004073
      1.93644      5.80837     -2.11981        -0.009315      0.001136      0.001136
      5.96521      4.09291      0.12882        -0.017181     -0.001092     -0.001092
     10.11275      8.06413      0.13595        -0.006849      0.004073      0.004073
      1.93644      8.06594      0.13776        -0.009315     -0.001136     -0.001136
      4.08479      5.81018      0.13595         0.006849     -0.004073      0.004073
      8.23233      9.78140      0.12882         0.017181      0.001092     -0.001092
      0.09178      1.84428      0.13776         0.009315      0.001136     -0.001136
      4.08479      4.10004      1.84610         0.006849      0.004073     -0.004073
      8.23233      8.05700      1.85322         0.017181     -0.001092      0.001092
      0.09178      4.10185     -2.11981         0.009315     -0.001136      0.001136
    total drift:                               -0.000437     -0.000347     -0.000171

  FREE ENERGIE OF THE ION-ELECTRON SYSTEM (eV)
  free  energy   TOTEN  =      -254.5266979822 eV

  energy  without entropy=     -254.4886907969  energy(sigma->0) =     -254.50769439

 Quasi-Newton relaxation of ions (Broydens 2nd method)
  g(Force)  = 0.242E-03   g(Stress)= 0.125E-03

 Reset! Starting new Quasi-Newton update for ions

 reached required accuracy - stopping structural energy minimisation

volume of typ            1:    10.2 %

[...]

volume of typ            3:    10.2 %

total charge

# of ion       s       p       d       tot
    1        2.108   0.332   0.124   2.563
    2        2.100   0.307   0.112   2.520
    3        2.108   0.332   0.124   2.563
    4        2.107   0.328   0.121   2.556
    5        2.107   0.328   0.121   2.556
    6        0.286   0.400   7.838   8.524
    7        0.275   0.376   7.850   8.501
    8        0.286   0.397   7.841   8.524
    9        0.286   0.400   7.838   8.524
   10        0.275   0.376   7.850   8.501
   11        0.286   0.397   7.841   8.524
   12        0.275   0.376   7.850   8.501
   13        0.286   0.400   7.838   8.524
   14        0.286   0.397   7.841   8.524
   15        0.275   0.376   7.850   8.501
   16        0.286   0.400   7.838   8.524
   17        0.286   0.397   7.841   8.524
   18        1.264   2.780   0.007   4.050
   19        1.281   2.731   0.008   4.020
   20        1.262   2.782   0.007   4.050
   21        1.264   2.780   0.007   4.050
   22        1.281   2.731   0.008   4.020
   23        1.262   2.782   0.007   4.050
   24        1.262   2.782   0.007   4.050
   25        1.281   2.731   0.008   4.020
   26        1.264   2.780   0.007   4.050
   27        1.262   2.782   0.007   4.050
   28        1.281   2.731   0.008   4.020
   29        1.264   2.780   0.007   4.050
   30        1.262   2.781   0.007   4.050
   31        1.265   2.775   0.007   4.047
   32        1.263   2.784   0.007   4.054
   33        1.262   2.781   0.007   4.050
   34        1.265   2.775   0.007   4.047
   35        1.263   2.784   0.007   4.054
   36        1.265   2.775   0.007   4.047
   37        1.262   2.781   0.007   4.050
   38        1.263   2.784   0.007   4.054
   39        1.265   2.775   0.007   4.047
   40        1.262   2.781   0.007   4.050
   41        1.263   2.784   0.007   4.054
tot          44.30   72.85   94.89  212.04

magnetization (x)

# of ion       s       p       d       tot
    1        0.004   0.005   0.001   0.010
    2        0.004   0.002   0.001   0.008
    3        0.004   0.005   0.001   0.010
    4        0.004   0.005   0.001   0.010
    5        0.004   0.005   0.001   0.010
    6       -0.001   0.001   0.187   0.187
    7       -0.000   0.000   0.426   0.426
    8       -0.000   0.001   0.256   0.256
    9       -0.001   0.001   0.187   0.187
   10       -0.000   0.000   0.426   0.426
   11       -0.000   0.001   0.256   0.256
   12       -0.000   0.000   0.426   0.426
   13       -0.001   0.001   0.187   0.187
   14       -0.000   0.001   0.256   0.256
   15       -0.000   0.000   0.426   0.426
   16       -0.001   0.001   0.187   0.187
   17       -0.000   0.001   0.256   0.256
   18        0.005   0.027   0.000   0.032
   19        0.004   0.029   0.000   0.033
   20        0.007   0.059   0.000   0.067
   21        0.005   0.027   0.000   0.032
   22        0.004   0.029   0.000   0.033
   23        0.007   0.059   0.000   0.067
   24        0.007   0.059   0.000   0.067
   25        0.004   0.029   0.000   0.033
   26        0.005   0.027   0.000   0.032
   27        0.007   0.059   0.000   0.067
   28        0.004   0.029   0.000   0.033
   29        0.005   0.027   0.000   0.032
   30        0.005   0.023   0.000   0.028
   31        0.007   0.050   0.000   0.057
   32        0.005   0.036   0.000   0.041
   33        0.005   0.023   0.000   0.028
   34        0.007   0.050   0.000   0.057
   35        0.005   0.036   0.000   0.041
   36        0.007   0.050   0.000   0.057
   37        0.005   0.023   0.000   0.028
   38        0.005   0.036   0.000   0.041
   39        0.007   0.050   0.000   0.057
   40        0.005   0.023   0.000   0.028
   41        0.005   0.036   0.000   0.041
tot           0.15    0.92    3.48    4.56