 vasp.5.4.4.18Apr17-6-g9f103f2a35 (build May 12 2020 05:39:39) gamma-only

 MD_VERSION_INFO: Compiled 2020-05-12T12:39:39-UTC in devlin.sd.materialsdesign.
 com:/home/medea2/data/build/wwolf/vasp-gpu5.4.4/13047/x86_64/src/src/build/gam
 from svn 13047

 executed on                        Lin64 date 2023.02.09  15:41:38

 INCAR:
 POTCAR:    PAW_PBE Li_sv 10Sep2004
 POTCAR:    PAW_PBE Ni 02Aug2007
 POTCAR:    PAW_PBE O 08Apr2002

 POTCAR:    PAW_PBE Li_sv 10Sep2004

 POTCAR:    PAW_PBE Ni 02Aug2007

 POTCAR:    PAW_PBE O 08Apr2002

 Optimization of the real space projectors (new method)

 maximal supplied QI-value         = 22.11
 optimisation between [QCUT,QGAM] = [ 11.28, 22.77] = [ 35.61,145.23] Ry
 Optimized for a Real-space Cutoff    1.10 Angstroem

   l    n(q)    QCUT    max X(q) W(low)/X(q) W(high)/X(q)  e(spline)
   0      7    11.276    10.506    0.54E-04    0.58E-04    0.16E-07
   0      7    11.276     8.367    0.11E-03    0.14E-03    0.35E-07
   1      7    11.276     8.983    0.23E-03    0.43E-03    0.86E-07
 Optimization of the real space projectors (new method)

[...]

   l    n(q)    QCUT    max X(q) W(low)/X(q) W(high)/X(q)  e(spline)
   2      9    11.376    60.317    0.17E-03    0.16E-04    0.16E-06
   2      9    11.376    55.921    0.17E-03    0.16E-04    0.17E-06
   0     10    11.376    51.690    0.45E-04    0.60E-04    0.21E-06
   0     10    11.376    30.015    0.37E-04    0.55E-04    0.19E-06
   1     10    11.376    18.849    0.83E-04    0.11E-03    0.92E-07
   1     10    11.376    14.624    0.69E-04    0.92E-04    0.82E-07
 Optimization of the real space projectors (new method)

 maximal supplied QI-value         = 24.76
 optimisation between [QCUT,QGAM] = [ 11.39, 22.77] = [ 36.31,145.25] Ry
 Optimized for a Real-space Cutoff    1.10 Angstroem

   l    n(q)    QCUT    max X(q) W(low)/X(q) W(high)/X(q)  e(spline)
   0      7    11.387    20.381    0.22E-03    0.48E-03    0.18E-06
   0      7    11.387    15.268    0.22E-03    0.52E-03    0.19E-06
   1      7    11.387     5.964    0.22E-03    0.73E-03    0.24E-06
   1      7    11.387     5.382    0.19E-03    0.60E-03    0.21E-06

  PAW_PBE Li_sv 10Sep2004               :
  PAW_PBE Ni 02Aug2007                  :
  PAW_PBE O 08Apr2002                   :

 POSCAR: ce143_1
  positions in direct lattice
 exchange correlation table for  LEXCH =       14
   RHO(1)=    0.500       N(1)  =     2000
   RHO(2)=  100.500       N(2)  =     4000

 ion  position               nearest neighbor table
   1  0.750  0.183  0.000-  40 1.90  44 1.90  49 1.95  53 1.95
   2  0.250  0.437  0.500-  50 1.93  54 1.93  41 1.93  45 1.93
   3  0.750  0.688  0.000-  42 1.93  46 1.93  55 1.93  51 1.93
   4  0.250  0.942  0.500-  48 1.90  52 1.90  43 1.95  47 1.95
   5  0.250  0.312  0.000-  24 1.93  28 1.93  32 1.94  36 1.94
   6  0.750  0.562  0.500-  33 1.93  37 1.93  25 1.93  29 1.93
   7  0.250  0.813  0.000-  34 1.93  38 1.93  26 1.94  30 1.94
   8  0.998  0.001  0.000-  35 1.84  39 1.84  48 1.86  52 1.86  44 1.94  30 1.94  12 2.78  19 2.82
                            23 2.82  12 2.83  20 2.83  16 2.83
   9  0.501  0.248  0.500-  49 1.85  53 1.85  32 1.86  36 1.86  31 1.94  45 1.96  13 2.80  13 2.81
                            20 2.82  16 2.82  21 2.84  17 2.84
  10  1.000  0.500  0.000-  33 1.85  37 1.85  50 1.85  54 1.85  28 1.96  46 1.97  14 2.80  14 2.80
                            18 2.84  22 2.84  21 2.84  17 2.84
  11  0.500  0.751  0.500-  34 1.85  38 1.85  55 1.86  51 1.86  47 1.97  29 1.98  15 2.80  15 2.81
                            18 2.84  22 2.84  19 2.84  23 2.84
  12  0.502  0.001  0.000-  35 1.84  39 1.84  48 1.86  52 1.86  40 1.94  26 1.94   8 2.78  19 2.82
                            23 2.82   8 2.83  16 2.83  20 2.83
  13  0.999  0.248  0.500-  49 1.85  53 1.85  32 1.86  36 1.86  27 1.94  41 1.96   9 2.80   9 2.81
                            16 2.82  20 2.82  17 2.84  21 2.84
  14  0.500  0.500  0.000-  33 1.85  37 1.85  50 1.85  54 1.85  24 1.96  42 1.97  10 2.80  10 2.80
                            22 2.84  18 2.84  17 2.84  21 2.84
  15  0.000  0.751  0.500-  34 1.85  38 1.85  55 1.86  51 1.86  43 1.97  25 1.98  11 2.80  11 2.81
                            22 2.84  18 2.84  23 2.84  19 2.84
  16  0.250  0.124  0.748-  27 1.84  31 1.84  40 1.86  44 1.86  52 1.94  36 1.94  20 2.78  13 2.82
                             9 2.82  20 2.83   8 2.83  12 2.83
  17  0.750  0.374  0.250-  24 1.85  28 1.85  41 1.86  45 1.86  53 1.97  37 1.98  21 2.80  21 2.81
                            14 2.84  10 2.84   9 2.84  13 2.84
  18  0.250  0.625  0.750-  25 1.85  29 1.85  46 1.85  42 1.85  38 1.96  54 1.97  22 2.80  22 2.80
                            14 2.84  10 2.84  15 2.84  11 2.84
  19  0.750  0.877  0.251-  43 1.85  47 1.85  26 1.86  30 1.86  39 1.94  55 1.96  23 2.80  23 2.81
                             8 2.82  12 2.82  11 2.84  15 2.84
  20  0.250  0.124  0.252-  27 1.84  31 1.84  40 1.86  44 1.86  48 1.94  32 1.94  16 2.78  13 2.82
                             9 2.82  16 2.83  12 2.83   8 2.83
  21  0.750  0.374  0.750-  24 1.85  28 1.85  41 1.86  45 1.86  49 1.97  33 1.98  17 2.80  17 2.81
                            10 2.84  14 2.84  13 2.84   9 2.84
  22  0.250  0.625  0.250-  25 1.85  29 1.85  42 1.85  46 1.85  34 1.96  50 1.97  18 2.80  18 2.80
                            10 2.84  14 2.84  11 2.84  15 2.84
  23  0.750  0.877  0.749-  43 1.85  47 1.85  26 1.86  30 1.86  35 1.94  51 1.96  19 2.80  19 2.81
                            12 2.82   8 2.82  15 2.84  11 2.84
  24  0.534  0.379  0.000-  17 1.85  21 1.85   5 1.93  14 1.96
  25  0.034  0.629  0.500-  18 1.85  22 1.85   6 1.93  15 1.98
  26  0.534  0.881  0.000-  19 1.86  23 1.86   7 1.94  12 1.94
  27  0.036  0.129  0.500-  16 1.84  20 1.84  13 1.94
  28  0.966  0.379  0.000-  17 1.85  21 1.85   5 1.93  10 1.96
  29  0.466  0.629  0.500-  18 1.85  22 1.85   6 1.93  11 1.98
  30  0.966  0.881  0.000-  19 1.86  23 1.86   7 1.94   8 1.94
  31  0.464  0.129  0.500-  16 1.84  20 1.84   9 1.94
  32  0.250  0.244  0.284-   9 1.86  13 1.86   5 1.94  20 1.94
  33  0.750  0.496  0.784-  10 1.85  14 1.85   6 1.93  21 1.98
  34  0.250  0.746  0.284-  11 1.85  15 1.85   7 1.93  22 1.96
  35  0.750  0.996  0.786-   8 1.84  12 1.84  23 1.94
  36  0.250  0.244  0.716-   9 1.86  13 1.86   5 1.94  16 1.94
  37  0.750  0.496  0.216-  10 1.85  14 1.85   6 1.93  17 1.98
  38  0.250  0.746  0.716-  11 1.85  15 1.85   7 1.93  18 1.96
  39  0.750  0.996  0.214-   8 1.84  12 1.84  19 1.94
  40  0.465  0.120  0.000-  16 1.86  20 1.86   1 1.90  12 1.94
  41  0.966  0.369  0.500-  17 1.86  21 1.86   2 1.93  13 1.96
  42  0.466  0.621  0.000-  22 1.85  18 1.85   3 1.93  14 1.97
  43  0.966  0.872  0.500-  19 1.85  23 1.85   4 1.95  15 1.97
  44  0.035  0.120  0.000-  16 1.86  20 1.86   1 1.90   8 1.94
  45  0.534  0.369  0.500-  17 1.86  21 1.86   2 1.93   9 1.96
  46  0.034  0.621  0.000-  18 1.85  22 1.85   3 1.93  10 1.97
  47  0.534  0.872  0.500-  19 1.85  23 1.85   4 1.95  11 1.97
  48  0.250  0.005  0.215-   8 1.86  12 1.86   4 1.90  20 1.94
  49  0.750  0.253  0.716-   9 1.85  13 1.85   1 1.95  21 1.97
  50  0.250  0.504  0.216-  10 1.85  14 1.85   2 1.93  22 1.97
  51  0.750  0.756  0.716-  11 1.86  15 1.86   3 1.93  23 1.96
  52  0.250  0.005  0.785-   8 1.86  12 1.86   4 1.90  16 1.94
  53  0.750  0.253  0.284-   9 1.85  13 1.85   1 1.95  17 1.97
  54  0.250  0.504  0.784-  10 1.85  14 1.85   2 1.93  18 1.97
  55  0.750  0.756  0.284-  11 1.86  15 1.86   3 1.93  19 1.96

  LATTYP: Found a simple tetragonal cell.
 ALAT       =     5.6076356977
 C/A-ratio  =     2.8868716182

  Lattice vectors:

 A1 = (   0.0000000000,  -3.9651972283,  -3.9651972283)
 A2 = (   0.0000000000,  -3.9651972283,   3.9651972283)
 A3 = ( -16.1885243409,   0.0000000000,   0.0000000000)

Analysis of symmetry for initial positions (statically):
 Subroutine PRICEL returns:
 Original cell was already a primitive cell.

 Routine SETGRP: Setting up the symmetry group for a
 simple tetragonal supercell.

 Subroutine GETGRP returns: Found  8 space group operations
 (whereof  2 operations were pure point group operations)
 out of a pool of 16 trial point group operations.

The static configuration has the point symmetry C_1h.
 The point group associated with its full space group is D_2d.

Analysis of symmetry for dynamics (positions and initial velocities):
 Subroutine PRICEL returns:
 Original cell was already a primitive cell.

[...]

The dynamic configuration has the point symmetry C_1h.
 The point group associated with its full space group is D_2d.

Analysis of structural, dynamic, and magnetic symmetry:
 Subroutine PRICEL returns:
 Original cell was already a primitive cell.

 Routine SETGRP: Setting up the symmetry group for a
 simple tetragonal supercell.

 Subroutine GETGRP returns: Found  8 space group operations
 (whereof  2 operations were pure point group operations)
 out of a pool of 16 trial point group operations.

The magnetic configuration has the point symmetry C_1h.
 The point group associated with its full space group is D_2d.

 Subroutine INISYM returns: Found  8 space group operations
 (whereof  2 operations are pure point group operations),
 and found     1 'primitive' translations

 KPOINTS: Automatic mesh

Automatic generation of k-mesh.
Space group operators:
 irot       det(A)        alpha          n_x          n_y          n_z        tau_x        tau_y        tau_z
    1     1.000000     0.000000     1.000000     0.000000     0.000000     0.000000     0.000000     0.000000
    2    -1.000000   180.000000     0.000000    -0.707107     0.707107     0.000000     0.000000     0.000000
    3    -1.000000    90.000000     1.000000     0.000000     0.000000    -0.750000    -0.875000    -0.750000
    4     1.000000   180.000000     1.000000     0.000000     0.000000    -0.500000     0.000000     0.000000
    5    -1.000000    90.000000    -1.000000     0.000000     0.000000    -0.750000    -0.875000    -0.250000
    6     1.000000   180.000000     0.000000     1.000000     0.000000    -0.750000    -0.875000    -0.250000
    7    -1.000000   180.000000     0.000000     0.707107     0.707107    -0.500000     0.000000     0.000000
    8     1.000000   179.999999     0.000000     0.000000     1.000000    -0.750000    -0.875000    -0.750000

 Subroutine IBZKPT returns following result:

 Found      1 irreducible k-points:

 Following reciprocal coordinates:
            Coordinates               Weight
  0.000000  0.000000  0.000000      1.000000

 Following cartesian coordinates:
            Coordinates               Weight
  0.000000  0.000000  0.000000      1.000000

 SYSTEM =  unknown system
 POSCAR =  ce143_1

 Startparameter for this run:
   NWRITE =      1    write-flag & timer
   PREC   = accura    normal or accurate (medium, high low for compatibility)
   ISTART =      0    job   : 0-new  1-cont  2-samecut
   ICHARG =      2    charge: 1-file 2-atom 10-const
   ISPIN  =      2    spin polarized calculation?
   LNONCOLLINEAR =      F non collinear calculations
   LSORBIT =      F    spin-orbit coupling
   INIWAV =      1    electr: 0-lowe 1-rand  2-diag
[...]
   -.380E+01 -.117E-05 0.117E-05   0.372E+01 0.432E-06 -.432E-06   0.499E-01 0.331E-23 -.662E-23   0.304E-01 -.356E-10 0.355E-10
   -.200E+02 0.304E+01 0.304E+01   0.204E+02 -.287E+01 -.287E+01   -.485E+00 -.147E+00 -.147E+00   0.344E-02 -.937E-02 -.937E-02
   0.201E+02 -.851E+01 -.851E+01   -.203E+02 0.877E+01 0.877E+01   0.292E+00 -.272E+00 -.272E+00   -.529E-01 0.675E-02 0.675E-02
   0.510E+01 0.488E+00 0.488E+00   -.507E+01 -.516E+00 -.516E+00   0.299E-01 0.412E-01 0.412E-01   -.699E-01 -.204E-01 -.204E-01
   -.109E+02 -.760E+00 -.760E+00   0.109E+02 0.758E+00 0.758E+00   -.858E-01 -.181E-01 -.181E-01   0.121E+00 0.243E-01 0.243E-01
   -.200E+02 -.304E+01 -.304E+01   0.204E+02 0.287E+01 0.287E+01   -.485E+00 0.147E+00 0.147E+00   0.344E-02 0.937E-02 0.937E-02
   0.201E+02 0.851E+01 0.851E+01   -.203E+02 -.877E+01 -.877E+01   0.292E+00 0.272E+00 0.272E+00   -.529E-01 -.675E-02 -.675E-02
   0.510E+01 -.488E+00 -.488E+00   -.507E+01 0.516E+00 0.516E+00   0.299E-01 -.412E-01 -.412E-01   -.699E-01 0.204E-01 0.204E-01
   -.109E+02 0.760E+00 0.760E+00   0.109E+02 -.758E+00 -.758E+00   -.858E-01 0.181E-01 0.181E-01   0.121E+00 -.243E-01 -.243E-01
   0.200E+02 0.304E+01 -.304E+01   -.204E+02 -.287E+01 0.287E+01   0.485E+00 -.147E+00 0.147E+00   -.344E-02 -.937E-02 0.937E-02
   0.109E+02 -.760E+00 0.760E+00   -.109E+02 0.758E+00 -.758E+00   0.858E-01 -.181E-01 0.181E-01   -.121E+00 0.243E-01 -.243E-01
   -.510E+01 0.488E+00 -.488E+00   0.507E+01 -.516E+00 0.516E+00   -.299E-01 0.412E-01 -.412E-01   0.699E-01 -.204E-01 0.204E-01
   -.201E+02 -.851E+01 0.851E+01   0.203E+02 0.877E+01 -.877E+01   -.292E+00 -.272E+00 0.272E+00   0.529E-01 0.675E-02 -.675E-02
   0.200E+02 -.304E+01 0.304E+01   -.204E+02 0.287E+01 -.287E+01   0.485E+00 0.147E+00 -.147E+00   -.344E-02 0.937E-02 -.937E-02
   0.109E+02 0.760E+00 -.760E+00   -.109E+02 -.758E+00 0.758E+00   0.858E-01 0.181E-01 -.181E-01   -.121E+00 -.243E-01 0.243E-01
   -.510E+01 -.488E+00 0.488E+00   0.507E+01 0.516E+00 -.516E+00   -.299E-01 -.412E-01 0.412E-01   0.699E-01 0.204E-01 -.204E-01
   -.201E+02 0.851E+01 -.851E+01   0.203E+02 -.877E+01 0.877E+01   -.292E+00 0.272E+00 -.272E+00   0.529E-01 -.675E-02 0.675E-02
   0.170E+03 0.183E+03 0.183E+03   -.177E+03 -.193E+03 -.193E+03   0.701E+01 0.103E+02 0.103E+02   -.824E-01 0.948E-02 0.948E-02
   0.158E+03 0.185E+03 0.185E+03   -.165E+03 -.195E+03 -.195E+03   0.686E+01 0.104E+02 0.104E+02   0.429E-01 -.197E-01 -.197E-01
   0.161E+03 0.184E+03 0.184E+03   -.169E+03 -.194E+03 -.194E+03   0.801E+01 0.102E+02 0.102E+02   0.372E-01 0.139E-01 0.139E-01
   0.203E+03 0.216E+03 0.216E+03   -.215E+03 -.232E+03 -.232E+03   0.126E+02 0.152E+02 0.152E+02   0.446E-02 -.554E-03 -.554E-03
   0.170E+03 -.183E+03 -.183E+03   -.177E+03 0.193E+03 0.193E+03   0.701E+01 -.103E+02 -.103E+02   -.824E-01 -.948E-02 -.948E-02
   0.158E+03 -.185E+03 -.185E+03   -.165E+03 0.195E+03 0.195E+03   0.686E+01 -.104E+02 -.104E+02   0.429E-01 0.197E-01 0.197E-01
   0.161E+03 -.184E+03 -.184E+03   -.169E+03 0.194E+03 0.194E+03   0.801E+01 -.102E+02 -.102E+02   0.372E-01 -.139E-01 -.139E-01
   0.203E+03 -.216E+03 -.216E+03   -.215E+03 0.232E+03 0.232E+03   0.126E+02 -.152E+02 -.152E+02   0.446E-02 0.554E-03 0.554E-03
   -.161E+03 0.184E+03 -.184E+03   0.169E+03 -.194E+03 0.194E+03   -.801E+01 0.102E+02 -.102E+02   -.372E-01 0.139E-01 -.139E-01
   -.158E+03 0.185E+03 -.185E+03   0.165E+03 -.195E+03 0.195E+03   -.686E+01 0.104E+02 -.104E+02   -.429E-01 -.197E-01 0.197E-01
   -.170E+03 0.183E+03 -.183E+03   0.177E+03 -.193E+03 0.193E+03   -.701E+01 0.103E+02 -.103E+02   0.824E-01 0.948E-02 -.948E-02
   -.203E+03 0.216E+03 -.216E+03   0.215E+03 -.232E+03 0.232E+03   -.126E+02 0.152E+02 -.152E+02   -.446E-02 -.554E-03 0.554E-03
   -.161E+03 -.184E+03 0.184E+03   0.169E+03 0.194E+03 -.194E+03   -.801E+01 -.102E+02 0.102E+02   -.372E-01 -.139E-01 0.139E-01
   -.158E+03 -.185E+03 0.185E+03   0.165E+03 0.195E+03 -.195E+03   -.686E+01 -.104E+02 0.104E+02   -.429E-01 0.197E-01 -.197E-01
   -.170E+03 -.183E+03 0.183E+03   0.177E+03 0.193E+03 -.193E+03   -.701E+01 -.103E+02 0.103E+02   0.824E-01 -.948E-02 0.948E-02
   -.203E+03 -.216E+03 0.216E+03   0.215E+03 0.232E+03 -.232E+03   -.126E+02 -.152E+02 0.152E+02   -.446E-02 0.554E-03 -.554E-03
   -.162E+03 -.187E+03 -.187E+03   0.170E+03 0.196E+03 0.196E+03   -.833E+01 -.967E+01 -.967E+01   -.551E-02 0.219E-02 0.219E-02
   -.157E+03 -.183E+03 -.183E+03   0.164E+03 0.193E+03 0.193E+03   -.704E+01 -.102E+02 -.102E+02   -.757E-01 -.113E-01 -.113E-01
   -.167E+03 -.184E+03 -.184E+03   0.174E+03 0.195E+03 0.195E+03   -.708E+01 -.104E+02 -.104E+02   0.514E-01 0.205E-01 0.205E-01
   -.178E+03 -.184E+03 -.184E+03   0.185E+03 0.195E+03 0.195E+03   -.711E+01 -.105E+02 -.105E+02   0.266E-01 -.148E-01 -.148E-01
   -.162E+03 0.187E+03 0.187E+03   0.170E+03 -.196E+03 -.196E+03   -.833E+01 0.967E+01 0.967E+01   -.551E-02 -.219E-02 -.219E-02
   -.157E+03 0.183E+03 0.183E+03   0.164E+03 -.193E+03 -.193E+03   -.704E+01 0.102E+02 0.102E+02   -.757E-01 0.113E-01 0.113E-01
   -.167E+03 0.184E+03 0.184E+03   0.174E+03 -.195E+03 -.195E+03   -.708E+01 0.104E+02 0.104E+02   0.514E-01 -.205E-01 -.205E-01
   -.178E+03 0.184E+03 0.184E+03   0.185E+03 -.195E+03 -.195E+03   -.711E+01 0.105E+02 0.105E+02   0.266E-01 0.148E-01 0.148E-01
   0.162E+03 -.187E+03 0.187E+03   -.170E+03 0.196E+03 -.196E+03   0.833E+01 -.967E+01 0.967E+01   0.551E-02 0.219E-02 -.219E-02
   0.178E+03 -.184E+03 0.184E+03   -.185E+03 0.195E+03 -.195E+03   0.711E+01 -.105E+02 0.105E+02   -.266E-01 -.148E-01 0.148E-01
   0.167E+03 -.184E+03 0.184E+03   -.174E+03 0.195E+03 -.195E+03   0.708E+01 -.104E+02 0.104E+02   -.514E-01 0.205E-01 -.205E-01
   0.157E+03 -.183E+03 0.183E+03   -.164E+03 0.193E+03 -.193E+03   0.704E+01 -.102E+02 0.102E+02   0.757E-01 -.113E-01 0.113E-01
   0.162E+03 0.187E+03 -.187E+03   -.170E+03 -.196E+03 0.196E+03   0.833E+01 0.967E+01 -.967E+01   0.551E-02 -.219E-02 0.219E-02
   0.178E+03 0.184E+03 -.184E+03   -.185E+03 -.195E+03 0.195E+03   0.711E+01 0.105E+02 -.105E+02   -.266E-01 0.148E-01 -.148E-01
   0.167E+03 0.184E+03 -.184E+03   -.174E+03 -.195E+03 0.195E+03   0.708E+01 0.104E+02 -.104E+02   -.514E-01 -.205E-01 0.205E-01
   0.157E+03 0.183E+03 -.183E+03   -.164E+03 -.193E+03 0.193E+03   0.704E+01 0.102E+02 -.102E+02   0.757E-01 0.113E-01 -.113E-01
   0.190E-03 -.154E-05 0.154E-05   0.000E+00 -.853E-13 0.000E+00   0.622E-14 0.178E-14 -.178E-14   0.168E-09 -.743E-10 0.737E-10

 POSITION                                       TOTAL-FORCE (eV/Angst)
      2.96240      2.97390      2.97390         0.003349      0.000000      0.000000
      7.06765      2.97390     -0.99130         0.000878      0.000000      0.000000
     11.14444      2.97390      2.97390        -0.000878      0.000000      0.000000
     15.24969      2.97390     -0.99130        -0.003349      0.000000      0.000000
      5.04550      0.99130      0.99130         0.001070      0.000000      0.000000
      9.10604      4.95650      0.99130         0.000000      0.000000      0.000000
     13.16659      0.99130      0.99130        -0.001070      0.000000      0.000000
      0.01125      3.95719      3.95719        -0.007762      0.012459      0.012459
      4.01632      3.96775      0.00256         0.001515     -0.013545     -0.013545
      8.09114      3.96506      3.96506        -0.011654     -0.007005     -0.007005
     12.15663      3.96446     -0.00074         0.015306      0.004600      0.004600
      0.01125      1.99061      1.99061        -0.007762     -0.012459     -0.012459
      4.01632      5.94524      1.98004         0.001515      0.013545      0.013545
      8.09114      1.98273      1.98273        -0.011654      0.007005      0.007005
     12.15663      1.98334     -1.98186         0.015306     -0.004600     -0.004600
      2.01231      3.95719     -1.97459         0.007762      0.012459     -0.012459
      6.05546      3.96446      1.98334        -0.015306      0.004600     -0.004600
     10.12095      3.96506     -1.98247         0.011654     -0.007005      0.007005
     14.19577      3.96775      1.98004        -0.001515     -0.013545      0.013545
      2.01231      1.99061     -0.00801         0.007762     -0.012459      0.012459
      6.05546      5.94854     -0.00074        -0.015306     -0.004600      0.004600
     10.12095      1.98273     -0.00013         0.011654      0.007005     -0.007005
     14.19577      5.94524      0.00256        -0.001515      0.013545     -0.013545
      6.13647      2.11625      2.11625        -0.010369      0.003179      0.003179
     10.18922      2.11720     -1.84800        -0.007427      0.002548      0.002548
     14.26617      2.11743      2.11743         0.009681      0.004152      0.004152
      2.08893      2.12379     -1.84141        -0.011174     -0.000591     -0.000591
      6.13647      3.83155      3.83155        -0.010369     -0.003179     -0.003179
     10.18922      3.83059     -0.13460        -0.007427     -0.002548     -0.002548
     14.26617      3.83036      3.83036         0.009681     -0.004152     -0.004152
      2.08893      3.82401     -0.14119        -0.011174      0.000591      0.000591
      3.94592      2.11743     -0.13484        -0.009681      0.004152     -0.004152
      8.02287      6.08240     -0.13460         0.007427      0.002548     -0.002548
     12.07562      2.11625     -0.13365         0.010369      0.003179     -0.003179
     16.12316      6.08898     -0.14119         0.011174     -0.000591      0.000591
      3.94592      3.83036     -1.84776        -0.009681     -0.004152      0.004152
      8.02287      3.83059      2.11720         0.007427     -0.002548      0.002548
     12.07562      3.83155     -1.84895         0.010369     -0.003179      0.003179
     16.12316      3.82401      2.12379         0.011174      0.000591     -0.000591
      1.93643      1.84399      1.84399        -0.007099     -0.001235     -0.001235
      5.96946      5.81367      1.84847        -0.001529      0.001570      0.001570
     10.04909      1.84814      1.84814         0.013241     -0.001248     -0.001248
     14.12099      5.81304      1.84784         0.004071      0.002620      0.002620
      1.93643      0.13860      0.13860        -0.007099      0.001235      0.001235
      5.96946      4.09933      0.13413        -0.001529     -0.001570     -0.001570
     10.04909      0.13446      0.13446         0.013241      0.001248      0.001248
     14.12099      4.09995      0.13475         0.004071     -0.002620     -0.002620
      0.08713      1.84399      0.13860         0.007099     -0.001235      0.001235
      4.09110      5.81304      0.13475        -0.004071      0.002620     -0.002620
      8.16300      1.84814      0.13446        -0.013241     -0.001248      0.001248
     12.24263      5.81367      0.13413         0.001529      0.001570     -0.001570
      0.08713      4.10380     -2.12120         0.007099      0.001235     -0.001235
      4.09110      4.09995      1.84784        -0.004071     -0.002620      0.002620
      8.16300      4.09965     -2.11706        -0.013241      0.001248     -0.001248
     12.24263      4.09933      1.84847         0.001529     -0.001570      0.001570
    total drift:                                0.000190     -0.000002      0.000002

  FREE ENERGIE OF THE ION-ELECTRON SYSTEM (eV)
  free  energy   TOTEN  =      -341.8459930630 eV

  energy  without entropy=     -341.8168345588  energy(sigma->0) =     -341.83141381

 Quasi-Newton relaxation of ions (Broydens 2nd method)
  g(Force)  = 0.381E-03   g(Stress)= 0.585E-03

 Reset! Starting new Quasi-Newton update for ions

 reached required accuracy - stopping structural energy minimisation

volume of typ            1:    10.7 %

[...]

volume of typ            3:    10.2 %

total charge

# of ion       s       p       d       tot
    1        2.108   0.330   0.122   2.560
    2        2.107   0.323   0.118   2.548
    3        2.107   0.323   0.118   2.548
    4        2.108   0.330   0.122   2.560
    5        2.106   0.324   0.119   2.549
    6        2.109   0.332   0.122   2.563
    7        2.106   0.324   0.119   2.549
    8        0.287   0.400   7.844   8.532
    9        0.282   0.392   7.848   8.522
   10        0.279   0.387   7.852   8.518
   11        0.278   0.382   7.853   8.513
   12        0.287   0.400   7.844   8.532
   13        0.282   0.392   7.848   8.522
   14        0.279   0.387   7.852   8.518
   15        0.278   0.382   7.853   8.513
   16        0.287   0.400   7.844   8.532
   17        0.278   0.382   7.853   8.513
   18        0.279   0.387   7.852   8.518
   19        0.282   0.392   7.848   8.522
   20        0.287   0.400   7.844   8.532
   21        0.278   0.382   7.853   8.513
   22        0.279   0.387   7.852   8.518
   23        0.282   0.392   7.848   8.522
   24        1.264   2.779   0.007   4.050
   25        1.264   2.777   0.007   4.048
   26        1.264   2.779   0.007   4.050
   27        1.282   2.727   0.008   4.017
   28        1.264   2.779   0.007   4.050
   29        1.264   2.777   0.007   4.048
   30        1.264   2.779   0.007   4.050
   31        1.282   2.727   0.008   4.017
   32        1.264   2.779   0.007   4.050
   33        1.264   2.777   0.007   4.048
   34        1.264   2.779   0.007   4.050
   35        1.282   2.727   0.008   4.017
   36        1.264   2.779   0.007   4.050
   37        1.264   2.777   0.007   4.048
   38        1.264   2.779   0.007   4.050
   39        1.282   2.727   0.008   4.017
   40        1.265   2.781   0.007   4.053
   41        1.264   2.779   0.007   4.049
   42        1.265   2.778   0.007   4.049
   43        1.266   2.773   0.007   4.046
   44        1.265   2.781   0.007   4.053
   45        1.264   2.779   0.007   4.049
   46        1.265   2.778   0.007   4.049
   47        1.266   2.773   0.007   4.046
   48        1.265   2.781   0.007   4.053
   49        1.266   2.773   0.007   4.046
   50        1.265   2.778   0.007   4.049
   51        1.264   2.779   0.007   4.049
   52        1.265   2.781   0.007   4.053
   53        1.266   2.773   0.007   4.046
   54        1.265   2.778   0.007   4.049
   55        1.264   2.779   0.007   4.049
tot          59.79   97.22  126.65  283.66

magnetization (x)

# of ion       s       p       d       tot
    1        0.000   0.003   0.000   0.004
    2        0.001   0.004   0.000   0.005
    3        0.001   0.004   0.000   0.005
    4        0.000   0.003   0.000   0.004
    5        0.001   0.004   0.000   0.005
    6        0.002   0.004   0.000   0.006
    7        0.001   0.004   0.000   0.005
    8       -0.000  -0.000   0.045   0.044
    9       -0.000  -0.000   0.065   0.065
   10       -0.000  -0.000   0.162   0.162
   11       -0.000  -0.000   0.243   0.243
   12       -0.000  -0.000   0.045   0.044
   13       -0.000  -0.000   0.065   0.065
   14       -0.000  -0.000   0.162   0.162
   15       -0.000  -0.000   0.243   0.243
   16       -0.000  -0.000   0.045   0.044
   17       -0.000  -0.000   0.243   0.243
   18       -0.000  -0.000   0.162   0.162
   19       -0.000  -0.000   0.065   0.065
   20       -0.000  -0.000   0.045   0.044
   21       -0.000  -0.000   0.243   0.243
   22       -0.000  -0.000   0.162   0.162
   23       -0.000  -0.000   0.065   0.065
   24        0.003   0.026   0.000   0.030
   25        0.003   0.025   0.000   0.028
   26        0.001   0.004   0.000   0.005
   27        0.001   0.010   0.000   0.011
   28        0.003   0.026   0.000   0.030
   29        0.003   0.025   0.000   0.028
   30        0.001   0.004   0.000   0.005
   31        0.001   0.010   0.000   0.011
   32        0.001   0.004   0.000   0.005
   33        0.003   0.025   0.000   0.028
   34        0.003   0.026   0.000   0.030
   35        0.001   0.010   0.000   0.011
   36        0.001   0.004   0.000   0.005
   37        0.003   0.025   0.000   0.028
   38        0.003   0.026   0.000   0.030
   39        0.001   0.010   0.000   0.011
   40        0.000   0.005   0.000   0.006
   41        0.002   0.009   0.000   0.011
   42        0.002   0.014   0.000   0.017
   43        0.003   0.033   0.000   0.036
   44        0.000   0.005   0.000   0.006
   45        0.002   0.009   0.000   0.011
   46        0.002   0.014   0.000   0.017
   47        0.003   0.033   0.000   0.036
   48        0.000   0.005   0.000   0.006
   49        0.003   0.033   0.000   0.036
   50        0.002   0.014   0.000   0.017
   51        0.002   0.009   0.000   0.011
   52        0.000   0.005   0.000   0.006
   53        0.003   0.033   0.000   0.036
   54        0.002   0.014   0.000   0.017
   55        0.002   0.009   0.000   0.011
tot           0.07    0.53    2.07    2.67