 vasp.5.4.4.18Apr17-6-g9f103f2a35 (build May 12 2020 05:39:39) gamma-only

 MD_VERSION_INFO: Compiled 2020-05-12T12:39:39-UTC in devlin.sd.materialsdesign.
 com:/home/medea2/data/build/wwolf/vasp-gpu5.4.4/13047/x86_64/src/src/build/gam
 from svn 13047

 executed on                        Lin64 date 2023.02.09  16:33:24

 INCAR:
 POTCAR:    PAW_PBE Li_sv 10Sep2004
 POTCAR:    PAW_PBE Ni 02Aug2007
 POTCAR:    PAW_PBE O 08Apr2002

 POTCAR:    PAW_PBE Li_sv 10Sep2004

 POTCAR:    PAW_PBE Ni 02Aug2007

 POTCAR:    PAW_PBE O 08Apr2002

 Optimization of the real space projectors (new method)

 maximal supplied QI-value         = 22.11
 optimisation between [QCUT,QGAM] = [ 11.28, 22.77] = [ 35.61,145.23] Ry
 Optimized for a Real-space Cutoff    1.10 Angstroem

   l    n(q)    QCUT    max X(q) W(low)/X(q) W(high)/X(q)  e(spline)
   0      7    11.276    10.506    0.54E-04    0.58E-04    0.16E-07
   0      7    11.276     8.367    0.11E-03    0.14E-03    0.35E-07
   1      7    11.276     8.983    0.23E-03    0.43E-03    0.86E-07
 Optimization of the real space projectors (new method)

[...]

   l    n(q)    QCUT    max X(q) W(low)/X(q) W(high)/X(q)  e(spline)
   2      9    11.376    60.317    0.17E-03    0.16E-04    0.16E-06
   2      9    11.376    55.921    0.17E-03    0.16E-04    0.17E-06
   0     10    11.376    51.690    0.45E-04    0.60E-04    0.21E-06
   0     10    11.376    30.015    0.37E-04    0.55E-04    0.19E-06
   1     10    11.376    18.849    0.83E-04    0.11E-03    0.92E-07
   1     10    11.376    14.624    0.69E-04    0.92E-04    0.82E-07
 Optimization of the real space projectors (new method)

 maximal supplied QI-value         = 24.76
 optimisation between [QCUT,QGAM] = [ 11.39, 22.77] = [ 36.31,145.25] Ry
 Optimized for a Real-space Cutoff    1.10 Angstroem

   l    n(q)    QCUT    max X(q) W(low)/X(q) W(high)/X(q)  e(spline)
   0      7    11.387    20.381    0.22E-03    0.48E-03    0.18E-06
   0      7    11.387    15.268    0.22E-03    0.52E-03    0.19E-06
   1      7    11.387     5.964    0.22E-03    0.73E-03    0.24E-06
   1      7    11.387     5.382    0.19E-03    0.60E-03    0.21E-06

  PAW_PBE Li_sv 10Sep2004               :
  PAW_PBE Ni 02Aug2007                  :
  PAW_PBE O 08Apr2002                   :

 POSCAR: ce45_1
  positions in direct lattice
 exchange correlation table for  LEXCH =       14
   RHO(1)=    0.500       N(1)  =     2000
   RHO(2)=  100.500       N(2)  =     4000

 ion  position               nearest neighbor table
   1  0.943  0.471  0.086-  47 1.92  39 1.92  43 1.92  52 2.02
   2  0.439  0.719  0.342-  44 1.93  48 1.93  40 1.93  53 1.98
   3  0.937  0.969  0.594-  54 1.93  49 1.94  41 1.94  45 1.94
   4  0.441  0.220  0.839-  42 1.93  46 1.93  50 1.93  51 1.96
   5  0.560  0.780  0.159-  27 1.92  31 1.92  23 1.92  35 1.97
   6  0.060  0.030  0.410-  28 1.92  32 1.92  24 1.92  36 1.95
   7  1.000  1.000  0.999-  34 1.86  30 1.86  43 1.87  47 1.87  35 1.89  51 1.89  22 2.75  19 2.80
                            11 2.85  15 2.85  15 2.86  11 2.86
   8  0.500  0.250  0.250-  31 1.87  27 1.87  44 1.87  48 1.87  36 1.89  52 1.89  20 2.79  19 2.79
                            12 2.85  16 2.85  16 2.85  12 2.85
   9  0.998  0.499  0.501-  37 1.86  53 1.88  28 1.88  32 1.88  49 1.89  45 1.89  21 2.81  20 2.81
                            13 2.84  17 2.84  17 2.86  13 2.86
  10  0.498  0.749  0.750-  33 1.86  29 1.86  38 1.87  46 1.88  50 1.88  54 1.88  21 2.76  22 2.81
                            14 2.84  18 2.84  18 2.87  14 2.87
  11  0.501  1.000  0.999-  26 1.86  34 1.86  39 1.87  47 1.87  35 1.89  51 1.89  22 2.75  19 2.80
                             7 2.85  15 2.85  15 2.86   7 2.86
  12  0.000  0.250  0.250-  23 1.87  31 1.87  48 1.87  40 1.87  36 1.89  52 1.89  20 2.79  19 2.79
                             8 2.85  16 2.85  16 2.85   8 2.85
  13  0.500  0.499  0.501-  37 1.86  53 1.88  24 1.88  32 1.88  41 1.89  49 1.89  21 2.81  20 2.81
                             9 2.84  17 2.84  17 2.86   9 2.86
  14  0.001  0.749  0.750-  25 1.86  33 1.86  38 1.87  42 1.88  50 1.88  54 1.88  21 2.76  22 2.81
                            10 2.84  18 2.84  18 2.87  10 2.87
  15  0.501  0.501  0.999-  26 1.86  30 1.86  39 1.87  43 1.87  35 1.89  51 1.89  22 2.75  19 2.80
                             7 2.85  11 2.85  11 2.86   7 2.86
  16  0.000  0.750  0.250-  23 1.87  27 1.87  40 1.87  44 1.87  36 1.89  52 1.89  20 2.79  19 2.79
                             8 2.85  12 2.85  12 2.85   8 2.85
  17  0.500  0.001  0.501-  37 1.86  53 1.88  24 1.88  28 1.88  41 1.89  45 1.89  21 2.81  20 2.81
                             9 2.84  13 2.84  13 2.86   9 2.86
  18  0.001  0.252  0.750-  25 1.86  29 1.86  38 1.87  42 1.88  46 1.88  54 1.88  21 2.76  22 2.81
                            10 2.84  14 2.84  14 2.87  10 2.87
  19  0.250  0.125  0.124-  39 1.91  43 1.91  47 1.91  23 1.92  31 1.92  27 1.92   8 2.79  16 2.79
                            12 2.79   7 2.80  15 2.80  11 2.80
  20  0.750  0.375  0.375-  24 1.91  32 1.91  28 1.91  44 1.91  40 1.91  48 1.91   8 2.79  12 2.79
                            16 2.79  13 2.81   9 2.81  17 2.81
  21  0.249  0.624  0.627-  29 1.88  25 1.88  33 1.88  41 1.90  49 1.90  45 1.90  10 2.76  18 2.76
                            14 2.76  13 2.81   9 2.81  17 2.81
  22  0.749  0.875  0.876-  26 1.88  34 1.88  30 1.88  46 1.90  42 1.90  50 1.90  11 2.75   7 2.75
                            15 2.75  10 2.81  18 2.81  14 2.81
  23  0.908  0.954  0.193-  16 1.87  12 1.87  19 1.92   5 1.92
  24  0.408  0.204  0.443-  13 1.88  17 1.88  20 1.91   6 1.92
  25  0.911  0.455  0.693-  14 1.86  18 1.86  21 1.88
  26  0.411  0.706  0.942-  15 1.86  11 1.86  22 1.88
  27  0.353  0.954  0.193-   8 1.87  16 1.87  19 1.92   5 1.92
  28  0.853  0.204  0.443-   9 1.88  17 1.88  20 1.91   6 1.92
  29  0.351  0.455  0.693-  10 1.86  18 1.86  21 1.88
  30  0.852  0.706  0.942-   7 1.86  15 1.86  22 1.88
  31  0.353  0.399  0.193-   8 1.87  12 1.87  19 1.92   5 1.92
  32  0.853  0.649  0.443-   9 1.88  13 1.88  20 1.91   6 1.92
  33  0.351  0.896  0.693-  10 1.86  14 1.86  21 1.88
  34  0.852  0.147  0.942-   7 1.86  11 1.86  22 1.88
  35  0.633  0.817  0.050-   7 1.89  15 1.89  11 1.89   5 1.97
  36  0.133  0.066  0.301-   8 1.89  16 1.89  12 1.89   6 1.95
  37  0.633  0.317  0.550-  13 1.86   9 1.86  17 1.86
  38  0.133  0.567  0.800-  10 1.87  18 1.87  14 1.87
  39  0.591  0.296  0.056-  11 1.87  15 1.87  19 1.91   1 1.92
  40  0.093  0.547  0.307-  16 1.87  12 1.87  20 1.91   2 1.93
  41  0.589  0.794  0.560-  17 1.89  13 1.89  21 1.90   3 1.94
  42  0.088  0.044  0.808-  14 1.88  18 1.88  22 1.90   4 1.93
  43  0.149  0.296  0.056-   7 1.87  15 1.87  19 1.91   1 1.92
  44  0.647  0.547  0.307-   8 1.87  16 1.87  20 1.91   2 1.93
  45  0.146  0.794  0.560-   9 1.89  17 1.89  21 1.90   3 1.94
  46  0.648  0.044  0.808-  10 1.88  18 1.88  22 1.90   4 1.93
  47  0.149  0.853  0.056-   7 1.87  11 1.87  19 1.91   1 1.92
  48  0.647  0.100  0.307-  12 1.87   8 1.87  20 1.91   2 1.93
  49  0.146  0.352  0.560-   9 1.89  13 1.89  21 1.90   3 1.94
  50  0.648  0.604  0.808-  10 1.88  14 1.88  22 1.90   4 1.93
  51  0.368  0.184  0.948-  11 1.89   7 1.89  15 1.89   4 1.96
  52  0.868  0.434  0.198-   8 1.89  12 1.89  16 1.89   1 2.02
  53  0.366  0.683  0.451-   9 1.88  17 1.88  13 1.88   2 1.98
  54  0.866  0.933  0.701-  10 1.88  18 1.88  14 1.88   3 1.93

  LATTYP: Found a trigonal (rhomboedric) cell.
 ALAT       =    18.3098087549
 COS(alpha) =     0.9514475739

  Lattice vectors:

 A1 = ( -11.7435122838, -11.7435122838,   7.7090164821)
 A2 = (  -7.7090164021, -11.7435122838,  11.7435123638)
 A3 = ( -11.7435122838,  -7.7090164021,  11.7435123638)

Analysis of symmetry for initial positions (statically):
 Subroutine PRICEL returns:
 Original cell was already a primitive cell.

 Routine SETGRP: Setting up the symmetry group for a
 trigonal (rhombohedral) supercell.

 Subroutine GETGRP returns: Found  6 space group operations
 (whereof  2 operations were pure point group operations)
 out of a pool of 12 trial point group operations.

The static configuration has the point symmetry C_1h.
 The point group associated with its full space group is C_3v.

Analysis of symmetry for dynamics (positions and initial velocities):
 Subroutine PRICEL returns:
 Original cell was already a primitive cell.

[...]

The dynamic configuration has the point symmetry C_1h.
 The point group associated with its full space group is C_3v.

Analysis of structural, dynamic, and magnetic symmetry:
 Subroutine PRICEL returns:
 Original cell was already a primitive cell.

 Routine SETGRP: Setting up the symmetry group for a
 trigonal (rhombohedral) supercell.

 Subroutine GETGRP returns: Found  6 space group operations
 (whereof  2 operations were pure point group operations)
 out of a pool of 12 trial point group operations.

The magnetic configuration has the point symmetry C_1h.
 The point group associated with its full space group is C_3v.

 Subroutine INISYM returns: Found  6 space group operations
 (whereof  2 operations are pure point group operations),
 and found     1 'primitive' translations

 KPOINTS: Automatic mesh

Automatic generation of k-mesh.
Space group operators:
 irot       det(A)        alpha          n_x          n_y          n_z        tau_x        tau_y        tau_z
    1     1.000000     0.000000     1.000000     0.000000     0.000000     0.000000     0.000000     0.000000
    2    -1.000000   180.000000    -0.707107     0.707107    -0.000000     0.000000     0.000000     0.000000
    3     1.000000   120.000000     0.577350     0.577350    -0.577350     0.500000     0.500000    -1.000000
    4    -1.000000   180.000000     0.707107     0.000000     0.707107     0.500000     0.500000    -1.000000
    5     1.000000   120.000000    -0.577350    -0.577350     0.577350     0.500000     0.000000    -1.000000
    6    -1.000000   180.000000     0.000000     0.707107     0.707107     0.500000     0.000000    -1.000000

 Subroutine IBZKPT returns following result:

 Found      1 irreducible k-points:

 Following reciprocal coordinates:
            Coordinates               Weight
  0.000000  0.000000  0.000000      1.000000

 Following cartesian coordinates:
            Coordinates               Weight
  0.000000  0.000000  0.000000      1.000000

 SYSTEM =  unknown system
 POSCAR =  ce45_1

 Startparameter for this run:
   NWRITE =      1    write-flag & timer
   PREC   = accura    normal or accurate (medium, high low for compatibility)
   ISTART =      0    job   : 0-new  1-cont  2-samecut
   ICHARG =      2    charge: 1-file 2-atom 10-const
   ISPIN  =      2    spin polarized calculation?
   LNONCOLLINEAR =      F non collinear calculations
   LSORBIT =      F    spin-orbit coupling
   INIWAV =      1    electr: 0-lowe 1-rand  2-diag
   LASPH  =      F    aspherical Exc in radial PAW
   METAGGA=      F    non-selfconsistent MetaGGA calc.

 Electronic Relaxation 1
   ENCUT  =  500.0 eV  36.75 Ry    6.06 a.u.  10.40 10.40 33.38*2*pi/ulx,y,z
   ENINI  =  500.0     initial cutoff
   ENAUG  =  628.9 eV  augmentation charge cutoff
[...]
   0.247E+02 0.247E+02 -.408E+02   -.245E+02 -.245E+02 0.414E+02   -.236E+00 -.236E+00 -.576E+00   0.362E-01 0.362E-01 0.151E-01
   0.182E+01 0.182E+01 -.406E+01   -.184E+01 -.184E+01 0.406E+01   0.736E-01 0.736E-01 -.253E-01   -.538E-01 -.538E-01 0.230E-01
   -.338E+02 -.338E+02 0.367E+02   0.339E+02 0.339E+02 -.368E+02   -.189E+00 -.189E+00 0.213E+00   0.545E-01 0.545E-01 -.321E-01
   -.657E+01 -.657E+01 -.461E+01   0.704E+01 0.704E+01 0.493E+01   -.434E+00 -.434E+00 -.328E+00   -.218E-01 -.218E-01 0.196E-01
   0.248E+02 0.408E+02 -.247E+02   -.245E+02 -.414E+02 0.245E+02   -.236E+00 0.576E+00 0.236E+00   0.362E-01 -.151E-01 -.362E-01
   0.182E+01 0.406E+01 -.182E+01   -.184E+01 -.406E+01 0.184E+01   0.736E-01 0.253E-01 -.736E-01   -.538E-01 -.230E-01 0.538E-01
   -.338E+02 -.367E+02 0.338E+02   0.339E+02 0.368E+02 -.339E+02   -.189E+00 -.213E+00 0.189E+00   0.545E-01 0.321E-01 -.545E-01
   -.657E+01 0.461E+01 0.657E+01   0.704E+01 -.493E+01 -.704E+01   -.434E+00 0.328E+00 0.434E+00   -.218E-01 -.196E-01 0.218E-01
   0.408E+02 0.247E+02 -.247E+02   -.414E+02 -.245E+02 0.245E+02   0.576E+00 -.236E+00 0.236E+00   -.151E-01 0.362E-01 -.362E-01
   0.406E+01 0.182E+01 -.182E+01   -.406E+01 -.184E+01 0.184E+01   0.253E-01 0.736E-01 -.736E-01   -.230E-01 -.538E-01 0.538E-01
   -.367E+02 -.338E+02 0.338E+02   0.368E+02 0.339E+02 -.339E+02   -.213E+00 -.189E+00 0.189E+00   0.321E-01 0.545E-01 -.545E-01
   0.461E+01 -.657E+01 0.657E+01   -.493E+01 0.704E+01 -.704E+01   0.328E+00 -.434E+00 0.434E+00   -.196E-01 -.218E-01 0.218E-01
   0.201E+02 0.201E+02 -.201E+02   -.202E+02 -.202E+02 0.202E+02   0.166E+00 0.166E+00 -.166E+00   -.368E-01 -.368E-01 0.368E-01
   -.210E+02 -.210E+02 0.210E+02   0.213E+02 0.213E+02 -.213E+02   -.278E+00 -.278E+00 0.278E+00   0.330E-01 0.330E-01 -.330E-01
   -.931E+01 -.931E+01 0.931E+01   0.876E+01 0.876E+01 -.876E+01   0.502E+00 0.502E+00 -.502E+00   0.461E-01 0.461E-01 -.461E-01
   0.261E+02 0.261E+02 -.261E+02   -.265E+02 -.265E+02 0.265E+02   0.495E+00 0.495E+00 -.495E+00   -.588E-01 -.588E-01 0.588E-01
   0.189E+03 0.189E+03 0.163E+03   -.199E+03 -.199E+03 -.172E+03   0.949E+01 0.949E+01 0.899E+01   -.350E-01 -.350E-01 0.560E-01
   0.163E+03 0.163E+03 0.190E+03   -.172E+03 -.172E+03 -.199E+03   0.903E+01 0.903E+01 0.853E+01   0.245E-01 0.245E-01 -.508E-01
   0.205E+03 0.205E+03 0.220E+03   -.220E+03 -.220E+03 -.236E+03   0.150E+02 0.150E+02 0.156E+02   0.312E-01 0.312E-01 -.144E-01
   0.225E+03 0.225E+03 0.199E+03   -.240E+03 -.240E+03 -.214E+03   0.150E+02 0.150E+02 0.157E+02   -.142E-01 -.142E-01 -.413E-01
   0.189E+03 -.163E+03 -.189E+03   -.199E+03 0.172E+03 0.199E+03   0.949E+01 -.899E+01 -.949E+01   -.350E-01 -.560E-01 0.350E-01
   0.163E+03 -.190E+03 -.163E+03   -.172E+03 0.199E+03 0.172E+03   0.903E+01 -.853E+01 -.903E+01   0.245E-01 0.508E-01 -.245E-01
   0.205E+03 -.220E+03 -.205E+03   -.220E+03 0.236E+03 0.220E+03   0.150E+02 -.156E+02 -.150E+02   0.312E-01 0.144E-01 -.312E-01
   0.225E+03 -.199E+03 -.225E+03   -.240E+03 0.214E+03 0.240E+03   0.150E+02 -.157E+02 -.150E+02   -.142E-01 0.413E-01 0.142E-01
   -.163E+03 0.189E+03 -.189E+03   0.172E+03 -.199E+03 0.199E+03   -.899E+01 0.949E+01 -.949E+01   -.560E-01 -.350E-01 0.350E-01
   -.190E+03 0.163E+03 -.163E+03   0.199E+03 -.172E+03 0.172E+03   -.853E+01 0.903E+01 -.903E+01   0.508E-01 0.245E-01 -.245E-01
   -.220E+03 0.205E+03 -.205E+03   0.236E+03 -.220E+03 0.220E+03   -.156E+02 0.150E+02 -.150E+02   0.144E-01 0.312E-01 -.312E-01
   -.199E+03 0.225E+03 -.225E+03   0.214E+03 -.240E+03 0.240E+03   -.157E+02 0.150E+02 -.150E+02   0.413E-01 -.142E-01 0.142E-01
   -.170E+03 -.170E+03 0.170E+03   0.178E+03 0.178E+03 -.178E+03   -.748E+01 -.748E+01 0.748E+01   0.996E-02 0.996E-02 -.996E-02
   -.188E+03 -.188E+03 0.188E+03   0.195E+03 0.195E+03 -.195E+03   -.706E+01 -.706E+01 0.706E+01   0.104E-02 0.104E-02 -.104E-02
   -.226E+03 -.226E+03 0.226E+03   0.239E+03 0.239E+03 -.239E+03   -.132E+02 -.132E+02 0.132E+02   0.268E-01 0.268E-01 -.268E-01
   -.208E+03 -.208E+03 0.208E+03   0.221E+03 0.221E+03 -.221E+03   -.131E+02 -.131E+02 0.131E+02   -.441E-01 -.441E-01 0.441E-01
   -.164E+03 -.164E+03 -.195E+03   0.174E+03 0.174E+03 0.204E+03   -.943E+01 -.943E+01 -.915E+01   -.322E-02 -.322E-02 -.328E-01
   -.187E+03 -.187E+03 -.167E+03   0.196E+03 0.196E+03 0.176E+03   -.958E+01 -.958E+01 -.953E+01   0.106E-01 0.106E-01 0.283E-01
   -.197E+03 -.197E+03 -.161E+03   0.206E+03 0.206E+03 0.171E+03   -.923E+01 -.923E+01 -.931E+01   0.259E-01 0.259E-01 -.238E-01
   -.175E+03 -.175E+03 -.189E+03   0.185E+03 0.185E+03 0.199E+03   -.964E+01 -.964E+01 -.963E+01   -.494E-01 -.494E-01 0.687E-01
   -.164E+03 0.195E+03 0.164E+03   0.174E+03 -.204E+03 -.174E+03   -.943E+01 0.915E+01 0.943E+01   -.322E-02 0.328E-01 0.322E-02
   -.187E+03 0.167E+03 0.187E+03   0.196E+03 -.176E+03 -.196E+03   -.958E+01 0.953E+01 0.958E+01   0.106E-01 -.283E-01 -.106E-01
   -.197E+03 0.161E+03 0.197E+03   0.206E+03 -.171E+03 -.206E+03   -.923E+01 0.931E+01 0.923E+01   0.259E-01 0.238E-01 -.259E-01
   -.175E+03 0.189E+03 0.175E+03   0.185E+03 -.199E+03 -.185E+03   -.964E+01 0.963E+01 0.964E+01   -.494E-01 -.687E-01 0.494E-01
   0.195E+03 -.164E+03 0.164E+03   -.204E+03 0.174E+03 -.174E+03   0.915E+01 -.943E+01 0.943E+01   0.328E-01 -.322E-02 0.322E-02
   0.167E+03 -.187E+03 0.187E+03   -.176E+03 0.196E+03 -.196E+03   0.953E+01 -.958E+01 0.958E+01   -.283E-01 0.106E-01 -.106E-01
   0.161E+03 -.197E+03 0.197E+03   -.171E+03 0.206E+03 -.206E+03   0.931E+01 -.923E+01 0.923E+01   0.238E-01 0.259E-01 -.259E-01
   0.189E+03 -.175E+03 0.175E+03   -.199E+03 0.185E+03 -.185E+03   0.963E+01 -.964E+01 0.964E+01   -.687E-01 -.494E-01 0.494E-01
   0.199E+03 0.199E+03 -.199E+03   -.207E+03 -.207E+03 0.207E+03   0.768E+01 0.768E+01 -.768E+01   -.419E-02 -.419E-02 0.419E-02
   0.193E+03 0.193E+03 -.193E+03   -.200E+03 -.200E+03 0.200E+03   0.743E+01 0.743E+01 -.743E+01   -.365E-01 -.365E-01 0.365E-01
   0.166E+03 0.166E+03 -.166E+03   -.174E+03 -.174E+03 0.174E+03   0.812E+01 0.812E+01 -.812E+01   0.275E-01 0.275E-01 -.275E-01
   0.177E+03 0.177E+03 -.177E+03   -.185E+03 -.185E+03 0.185E+03   0.802E+01 0.802E+01 -.802E+01   0.274E-01 0.274E-01 -.274E-01
   -.259E+00 -.259E+00 0.261E+00   -.284E-12 -.341E-12 -.853E-13   0.261E+00 0.261E+00 -.261E+00   -.119E-01 -.119E-01 0.119E-01

 POSITION                                       TOTAL-FORCE (eV/Angst)
      2.91170      2.91170      3.14023         0.002734      0.002734     -0.002734
      6.91529      2.88067     -0.86336        -0.002100     -0.002100      0.002100
     10.87974      6.84512     -0.79319        -0.002931     -0.002931      0.002931
     10.74000     10.74000     -4.68807        -0.000234     -0.000234      0.000234
      5.02001      0.98539      1.03192        -0.001237     -0.001237      0.001237
      4.93195      4.93195     -2.91463        -0.000788     -0.000788      0.000788
     15.75925     11.72463     -3.66116         0.005530      0.005530      0.012332
      3.94098      3.94098      0.09418         0.004829      0.004829      0.000478
      7.89746      7.89746      0.16457         0.005280      0.005280     -0.009376
     11.83149      7.79687     -3.77509         0.006064      0.006064      0.016528
     15.75925      9.71310     -5.67270         0.005530     -0.012332     -0.005530
      3.94098      1.92313     -1.92367         0.004829     -0.000478     -0.004829
      7.89746      5.88736     -1.84553         0.005280      0.009376     -0.005280
     11.83149      5.79240     -5.77956         0.006064     -0.016528     -0.006064
     13.74772     11.72463     -5.67270        -0.012332      0.005530     -0.005530
      5.95775     -0.09364     -1.92367        -0.000478      0.004829     -0.004829
      5.88736      7.89746     -1.84553         0.009376      0.005280     -0.005280
      9.82702      7.79687     -5.77956        -0.016528      0.006064     -0.006064
      1.96545      1.96545      0.05186        -0.000058     -0.000058      0.000058
      5.91121      5.91121      0.14072        -0.001140     -0.001140      0.001140
      9.88266      5.84804     -3.83073        -0.004236     -0.004236      0.004236
     13.81573      9.78111     -3.72918        -0.004117     -0.004117      0.004117
      6.11476      2.08014      2.17629        -0.006757     -0.006757      0.002519
      6.02133      6.02133     -1.76340        -0.002584     -0.002584     -0.001211
      9.97723      9.97723     -1.66849        -0.000038     -0.000038     -0.008144
     13.91062      9.87600     -5.60291        -0.005698     -0.005698     -0.001137
      6.11476     -0.15898     -0.06282        -0.006757     -0.002519      0.006757
      6.02133      7.81534      0.03060        -0.002584      0.001211      0.002584
      9.97723      7.72043     -3.92529        -0.000038      0.008144      0.000038
     13.91062     11.65484     -3.82407        -0.005698      0.001137      0.005698
      3.87564      2.08014     -0.06282        -0.002519     -0.006757      0.006757
      7.81534      6.02133      0.03060         0.001211     -0.002584      0.002584
     11.75505      5.94261     -3.92529         0.008144     -0.000038      0.000038
     11.65484     13.91062     -3.82407         0.001137     -0.005698      0.005698
      3.88451     -0.15011      2.16742         0.002666      0.002666     -0.002666
      3.80287      3.80287     -1.78556         0.002050      0.002050     -0.002050
      7.73567      7.73567     -1.68374         0.002043      0.002043     -0.002043
     11.68104      7.64642     -5.62911         0.007738      0.007738     -0.007738
      1.84567      1.84567      1.95643         0.002572      0.002572     -0.000799
      5.80459      1.76997     -1.98651         0.001218      0.001218      0.003736
      9.77658      5.74196     -1.93955         0.001439      0.001439     -0.003570
      9.66622      9.66622     -5.87303         0.001397      0.001397     -0.000866
      1.84567      0.06088      0.17164         0.002572      0.000799     -0.002572
      5.80459      4.00382      0.24734         0.001218     -0.003736     -0.001218
      9.77658      3.95686     -3.72465         0.001439      0.003570     -0.001439
      9.66622     11.92497     -3.61428         0.001397      0.000866     -0.001397
      4.09550     -2.18895      0.17164         0.000799      0.002572     -0.002572
      4.00382      5.80459      0.24734        -0.003736      0.001218     -0.001218
      7.99148      5.74196     -3.72465         0.003570      0.001439     -0.001439
     11.92497      9.66622     -3.61428         0.000866      0.001397     -0.001397
     11.86932     11.86932     -5.81739        -0.003975     -0.003975      0.003975
      4.07703      4.07703      1.97490        -0.004980     -0.004980      0.004980
      8.05630      4.02167     -2.00436        -0.004242     -0.004242      0.004242
     11.99125      7.95662     -1.90469        -0.003201     -0.003201      0.003201
    total drift:                               -0.009727     -0.009940      0.011647

  FREE ENERGIE OF THE ION-ELECTRON SYSTEM (eV)
  free  energy   TOTEN  =      -336.2141219733 eV

  energy  without entropy=     -336.1719200927  energy(sigma->0) =     -336.19302103

 d Force = 0.1967565E-03[-0.137E-03, 0.530E-03]  d Energy = 0.2786818E-03-0.819E-04
 d Force =-0.6754753E+01[-0.676E+01,-0.675E+01]  d Ewald  =-0.4664418E+01-0.209E+01

 Quasi-Newton relaxation of ions (Broydens 2nd method)
  g(Force)  = 0.181E-03   g(Stress)= 0.304E-03

 retain information from N=  1 steps
 eigenvalues of (default step * inverse Hessian matrix)
  average eigenvalue of G=   0.6347
 eigenvalue spectrum of G is  0.6347

 reached required accuracy - stopping structural energy minimisation

volume of typ            1:     9.2 %

[...]

volume of typ            3:    10.3 %

total charge

# of ion       s       p       d       tot
    1        2.101   0.316   0.117   2.534
    2        2.102   0.312   0.115   2.529
    3        2.102   0.319   0.119   2.541
    4        2.101   0.316   0.119   2.536
    5        2.104   0.321   0.119   2.544
    6        2.105   0.329   0.122   2.556
    7        0.288   0.405   7.842   8.535
    8        0.283   0.397   7.848   8.529
    9        0.282   0.392   7.846   8.520
   10        0.289   0.404   7.838   8.531
   11        0.288   0.405   7.842   8.535
   12        0.283   0.397   7.848   8.529
   13        0.282   0.392   7.846   8.520
   14        0.289   0.404   7.838   8.531
   15        0.288   0.405   7.842   8.535
   16        0.283   0.397   7.848   8.529
   17        0.282   0.392   7.846   8.520
   18        0.289   0.404   7.838   8.531
   19        0.266   0.354   7.860   8.480
   20        0.266   0.357   7.861   8.484
   21        0.283   0.389   7.843   8.515
   22        0.283   0.388   7.847   8.519
   23        1.261   2.789   0.007   4.056
   24        1.261   2.786   0.007   4.054
   25        1.279   2.733   0.008   4.020
   26        1.279   2.735   0.008   4.022
   27        1.261   2.789   0.007   4.056
   28        1.261   2.786   0.007   4.054
   29        1.279   2.733   0.008   4.020
   30        1.279   2.735   0.008   4.022
   31        1.261   2.789   0.007   4.056
   32        1.261   2.786   0.007   4.054
   33        1.279   2.733   0.008   4.020
   34        1.279   2.735   0.008   4.022
   35        1.269   2.773   0.007   4.048
   36        1.269   2.773   0.007   4.048
   37        1.281   2.729   0.008   4.018
   38        1.283   2.726   0.008   4.017
   39        1.261   2.789   0.007   4.056
   40        1.261   2.788   0.007   4.055
   41        1.263   2.780   0.007   4.050
   42        1.263   2.782   0.007   4.052
   43        1.261   2.789   0.007   4.056
   44        1.261   2.788   0.007   4.055
   45        1.263   2.780   0.007   4.050
   46        1.263   2.782   0.007   4.052
   47        1.261   2.789   0.007   4.056
   48        1.261   2.788   0.007   4.055
   49        1.263   2.780   0.007   4.050
   50        1.263   2.782   0.007   4.052
   51        1.271   2.765   0.007   4.042
   52        1.269   2.768   0.007   4.044
   53        1.266   2.775   0.007   4.048
   54        1.269   2.771   0.007   4.047
tot          57.70   96.82  126.47  280.99

magnetization (x)

# of ion       s       p       d       tot
    1        0.002   0.005   0.002   0.009
    2        0.002   0.003   0.001   0.006
    3        0.001   0.007   0.002   0.010
    4        0.002   0.006   0.002   0.009
    5        0.002   0.006   0.002   0.011
    6        0.002   0.010   0.003   0.015
    7       -0.001  -0.001   0.181   0.180
    8       -0.001  -0.001   0.266   0.263
    9       -0.001  -0.001   0.252   0.250
   10       -0.001  -0.001   0.143   0.142
   11       -0.001  -0.001   0.181   0.180
   12       -0.001  -0.001   0.266   0.263
   13       -0.001  -0.001   0.252   0.250
   14       -0.001  -0.001   0.143   0.142
   15       -0.001  -0.001   0.181   0.180
   16       -0.001  -0.001   0.266   0.263
   17       -0.001  -0.001   0.252   0.250
   18       -0.001  -0.001   0.143   0.142
   19       -0.000  -0.001   0.560   0.559
   20       -0.000  -0.000   0.516   0.515
   21       -0.000  -0.000   0.197   0.197
   22       -0.000  -0.000   0.224   0.223
   23        0.006   0.046   0.000   0.052
   24        0.007   0.063   0.000   0.070
   25        0.002   0.019   0.000   0.020
   26        0.002   0.013   0.000   0.015
   27        0.006   0.046   0.000   0.052
   28        0.007   0.063   0.000   0.070
   29        0.002   0.019   0.000   0.020
   30        0.002   0.013   0.000   0.015
   31        0.006   0.046   0.000   0.052
   32        0.007   0.063   0.000   0.070
   33        0.002   0.019   0.000   0.020
   34        0.002   0.013   0.000   0.015
   35        0.010   0.077   0.000   0.087
   36        0.011   0.080   0.000   0.091
   37        0.004   0.046   0.000   0.050
   38        0.005   0.069   0.000   0.074
   39        0.005   0.043   0.000   0.048
   40        0.005   0.038   0.000   0.044
   41        0.006   0.040   0.000   0.046
   42        0.003   0.025   0.000   0.029
   43        0.005   0.043   0.000   0.048
   44        0.005   0.038   0.000   0.044
   45        0.006   0.040   0.000   0.046
   46        0.003   0.025   0.000   0.029
   47        0.005   0.043   0.000   0.048
   48        0.005   0.038   0.000   0.044
   49        0.006   0.040   0.000   0.046
   50        0.003   0.025   0.000   0.029
   51        0.010   0.075   0.000   0.085
   52        0.011   0.086   0.000   0.097
   53        0.005   0.028   0.000   0.032
   54        0.005   0.037   0.000   0.042
tot           0.17    1.39    4.04    5.59