 vasp.5.4.4.18Apr17-6-g9f103f2a35 (build May 12 2020 05:39:39) gamma-only

 MD_VERSION_INFO: Compiled 2020-05-12T12:39:39-UTC in devlin.sd.materialsdesign.
 com:/home/medea2/data/build/wwolf/vasp-gpu5.4.4/13047/x86_64/src/src/build/gam
 from svn 13047

 executed on                        Lin64 date 2023.02.09  16:57:40

 INCAR:
 POTCAR:    PAW_PBE Li_sv 10Sep2004
 POTCAR:    PAW_PBE Ni 02Aug2007
 POTCAR:    PAW_PBE O 08Apr2002

 POTCAR:    PAW_PBE Li_sv 10Sep2004

 POTCAR:    PAW_PBE Ni 02Aug2007

 POTCAR:    PAW_PBE O 08Apr2002

 Optimization of the real space projectors (new method)

 maximal supplied QI-value         = 22.11
 optimisation between [QCUT,QGAM] = [ 11.28, 22.77] = [ 35.61,145.23] Ry
 Optimized for a Real-space Cutoff    1.10 Angstroem

   l    n(q)    QCUT    max X(q) W(low)/X(q) W(high)/X(q)  e(spline)
   0      7    11.276    10.506    0.54E-04    0.58E-04    0.16E-07
   0      7    11.276     8.367    0.11E-03    0.14E-03    0.35E-07
   1      7    11.276     8.983    0.23E-03    0.43E-03    0.86E-07
 Optimization of the real space projectors (new method)

[...]

   l    n(q)    QCUT    max X(q) W(low)/X(q) W(high)/X(q)  e(spline)
   2      9    11.376    60.317    0.17E-03    0.16E-04    0.16E-06
   2      9    11.376    55.921    0.17E-03    0.16E-04    0.17E-06
   0     10    11.376    51.690    0.45E-04    0.60E-04    0.21E-06
   0     10    11.376    30.015    0.37E-04    0.55E-04    0.19E-06
   1     10    11.376    18.849    0.83E-04    0.11E-03    0.92E-07
   1     10    11.376    14.624    0.69E-04    0.92E-04    0.82E-07
 Optimization of the real space projectors (new method)

 maximal supplied QI-value         = 24.76
 optimisation between [QCUT,QGAM] = [ 11.39, 22.77] = [ 36.31,145.25] Ry
 Optimized for a Real-space Cutoff    1.10 Angstroem

   l    n(q)    QCUT    max X(q) W(low)/X(q) W(high)/X(q)  e(spline)
   0      7    11.387    20.381    0.22E-03    0.48E-03    0.18E-06
   0      7    11.387    15.268    0.22E-03    0.52E-03    0.19E-06
   1      7    11.387     5.964    0.22E-03    0.73E-03    0.24E-06
   1      7    11.387     5.382    0.19E-03    0.60E-03    0.21E-06

  PAW_PBE Li_sv 10Sep2004               :
  PAW_PBE Ni 02Aug2007                  :
  PAW_PBE O 08Apr2002                   :

 POSCAR: ce72_1
  positions in direct lattice
 exchange correlation table for  LEXCH =       14
   RHO(1)=    0.500       N(1)  =     2000
   RHO(2)=  100.500       N(2)  =     4000

 ion  position               nearest neighbor table
   1  0.940  0.470  0.090-  39 1.90  35 1.90  43 1.90  48 1.97
   2  0.439  0.720  0.341-  40 1.90  44 1.90  36 1.90  49 1.97
   3  0.000  0.000  0.998-  31 1.85  47 1.85  26 1.85  30 1.85  43 1.87  39 1.87  18 2.75  11 2.80
                             7 2.80   7 2.82  11 2.82  15 2.82
   4  0.498  0.249  0.250-  27 1.85  23 1.85  32 1.85  40 1.87  44 1.87  48 1.87  15 2.74  12 2.79
                             8 2.79  16 2.81  12 2.83   8 2.83
   5  0.998  0.499  0.501-  33 1.85  41 1.86  45 1.86  28 1.86  24 1.86  49 1.86  16 2.76  17 2.77
                             9 2.80  13 2.80  13 2.82   9 2.82
   6  0.500  0.750  0.750-  50 1.85  34 1.85  25 1.86  29 1.86  42 1.86  46 1.86  17 2.76  18 2.77
                            10 2.81  14 2.81  14 2.81  10 2.81
   7  0.502  0.000  0.998-  31 1.85  47 1.85  22 1.85  30 1.85  35 1.87  43 1.87  18 2.75  11 2.80
                             3 2.80   3 2.82  11 2.82  15 2.82
   8  0.001  0.249  0.250-  19 1.85  27 1.85  32 1.85  36 1.87  44 1.87  48 1.87  15 2.74  12 2.79
                             4 2.79  16 2.81  12 2.83   4 2.83
   9  0.500  0.499  0.501-  33 1.85  45 1.86  37 1.86  20 1.86  28 1.86  49 1.86  16 2.76  17 2.77
                             5 2.80  13 2.80  13 2.82   5 2.82
  10  0.000  0.750  0.750-  50 1.85  34 1.85  29 1.86  21 1.86  38 1.86  46 1.86  17 2.76  18 2.77
                             6 2.81  14 2.81  14 2.81   6 2.81
  11  0.502  0.501  0.998-  31 1.85  47 1.85  22 1.85  26 1.85  39 1.87  35 1.87  18 2.75   7 2.80
                             3 2.80   3 2.82   7 2.82  15 2.82
  12  0.001  0.752  0.250-  19 1.85  23 1.85  32 1.85  36 1.87  40 1.87  48 1.87  15 2.74   8 2.79
                             4 2.79  16 2.81   8 2.83   4 2.83
  13  0.500  0.001  0.501-  33 1.85  41 1.86  37 1.86  20 1.86  24 1.86  49 1.86  16 2.76  17 2.77
                             5 2.80   9 2.80   9 2.82   5 2.82
  14  0.000  0.250  0.750-  50 1.85  34 1.85  25 1.86  21 1.86  38 1.86  42 1.86  17 2.76  18 2.77
                             6 2.81  10 2.81  10 2.81   6 2.81
  15  0.249  0.124  0.127-  23 1.89  19 1.89  27 1.89  35 1.91  43 1.91  39 1.91   4 2.74  12 2.74
                             8 2.74   7 2.82   3 2.82  11 2.82
  16  0.749  0.374  0.377-  20 1.87  24 1.87  28 1.87  36 1.90  44 1.90  40 1.90  13 2.76   5 2.76
                             9 2.76   8 2.81   4 2.81  12 2.81
  17  0.250  0.625  0.626-  21 1.87  25 1.87  29 1.87  37 1.87  41 1.87  45 1.87  10 2.76   6 2.76
                            14 2.76   9 2.77  13 2.77   5 2.77
  18  0.750  0.875  0.874-  38 1.87  42 1.87  46 1.87  22 1.88  30 1.88  26 1.88   3 2.75   7 2.75
                            11 2.75  10 2.77  14 2.77   6 2.77
  19  0.905  0.952  0.193-  12 1.85   8 1.85  15 1.89
  20  0.408  0.204  0.443-  13 1.86   9 1.86  16 1.87
  21  0.910  0.455  0.692-  10 1.86  14 1.86  17 1.87
  22  0.408  0.704  0.941-  11 1.85   7 1.85  18 1.88
  23  0.354  0.952  0.193-   4 1.85  12 1.85  15 1.89
  24  0.853  0.204  0.443-   5 1.86  13 1.86  16 1.87
  25  0.353  0.455  0.692-   6 1.86  14 1.86  17 1.87
  26  0.855  0.704  0.941-   3 1.85  11 1.85  18 1.88
  27  0.354  0.402  0.193-   4 1.85   8 1.85  15 1.89
  28  0.853  0.649  0.443-   5 1.86   9 1.86  16 1.87
  29  0.353  0.898  0.692-  10 1.86   6 1.86  17 1.87
  30  0.855  0.151  0.941-   3 1.85   7 1.85  18 1.88
  31  0.635  0.817  0.048-   3 1.85   7 1.85  11 1.85
  32  0.133  0.066  0.301-   4 1.85  12 1.85   8 1.85
  33  0.633  0.316  0.551-   5 1.85  13 1.85   9 1.85
  34  0.134  0.567  0.799-   6 1.85  10 1.85  14 1.85
  35  0.591  0.295  0.057-   7 1.87  11 1.87   1 1.90  15 1.91
  36  0.090  0.545  0.308-   8 1.87  12 1.87  16 1.90   2 1.90
  37  0.589  0.795  0.559-   9 1.86  13 1.86  17 1.87
  38  0.090  0.045  0.808-  10 1.86  14 1.86  18 1.87
  39  0.147  0.295  0.057-   3 1.87  11 1.87   1 1.90  15 1.91
  40  0.647  0.545  0.308-   4 1.87  12 1.87  16 1.90   2 1.90
  41  0.146  0.795  0.559-   5 1.86  13 1.86  17 1.87
  42  0.647  0.045  0.808-   6 1.86  14 1.86  18 1.87
  43  0.147  0.852  0.057-   3 1.87   7 1.87   1 1.90  15 1.91
  44  0.647  0.102  0.308-   4 1.87   8 1.87  16 1.90   2 1.90
  45  0.146  0.352  0.559-   9 1.86   5 1.86  17 1.87
  46  0.647  0.602  0.808-   6 1.86  10 1.86  18 1.87
  47  0.367  0.184  0.949-   3 1.85   7 1.85  11 1.85
  48  0.867  0.434  0.199-   4 1.87   8 1.87  12 1.87   1 1.97
  49  0.366  0.683  0.451-   5 1.86   9 1.86  13 1.86   2 1.97
  50  0.866  0.933  0.700-   6 1.85  10 1.85  14 1.85

  LATTYP: Found a trigonal (rhomboedric) cell.
 ALAT       =    18.2906612273
 COS(alpha) =     0.9528237564

  Lattice vectors:

 A1 = ( -11.7169788408, -11.7169788408,   7.7442302278)
 A2 = (  -7.7442302278, -11.7169788408,  11.7169788408)
 A3 = ( -11.7169788408,  -7.7442302278,  11.7169788408)

Analysis of symmetry for initial positions (statically):
 Subroutine PRICEL returns:
 Original cell was already a primitive cell.

 Routine SETGRP: Setting up the symmetry group for a
 trigonal (rhombohedral) supercell.

 Subroutine GETGRP returns: Found  6 space group operations
 (whereof  2 operations were pure point group operations)
 out of a pool of 12 trial point group operations.

The static configuration has the point symmetry C_1h.
 The point group associated with its full space group is C_3v.

Analysis of symmetry for dynamics (positions and initial velocities):
 Subroutine PRICEL returns:
 Original cell was already a primitive cell.

[...]

The dynamic configuration has the point symmetry C_1h.
 The point group associated with its full space group is C_3v.

Analysis of structural, dynamic, and magnetic symmetry:
 Subroutine PRICEL returns:
 Original cell was already a primitive cell.

 Routine SETGRP: Setting up the symmetry group for a
 trigonal (rhombohedral) supercell.

 Subroutine GETGRP returns: Found  6 space group operations
 (whereof  2 operations were pure point group operations)
 out of a pool of 12 trial point group operations.

The magnetic configuration has the point symmetry C_1h.
 The point group associated with its full space group is C_3v.

 Subroutine INISYM returns: Found  6 space group operations
 (whereof  2 operations are pure point group operations),
 and found     1 'primitive' translations

 KPOINTS: Automatic mesh

Automatic generation of k-mesh.
Space group operators:
 irot       det(A)        alpha          n_x          n_y          n_z        tau_x        tau_y        tau_z
    1     1.000000     0.000001     1.000000     0.000000     0.000000     0.000000     0.000000     0.000000
    2    -1.000000   180.000000    -0.707107     0.707107     0.000000     0.000000     0.000000     0.000000
    3     1.000000   120.000000     0.577350     0.577350    -0.577350     0.500000     0.500000    -1.000000
    4    -1.000000   180.000000     0.707107     0.000000     0.707107     0.500000     0.500000    -1.000000
    5     1.000000   120.000000    -0.577350    -0.577350     0.577350     0.500000     0.000000    -1.000000
    6    -1.000000   180.000000     0.000000    -0.707107    -0.707107     0.500000    -0.000000    -1.000000

 Subroutine IBZKPT returns following result:

 Found      1 irreducible k-points:

 Following reciprocal coordinates:
            Coordinates               Weight
  0.000000  0.000000  0.000000      1.000000

 Following cartesian coordinates:
            Coordinates               Weight
  0.000000  0.000000  0.000000      1.000000

 SYSTEM =  unknown system
 POSCAR =  ce72_1

 Startparameter for this run:
   NWRITE =      1    write-flag & timer
   PREC   = accura    normal or accurate (medium, high low for compatibility)
   ISTART =      0    job   : 0-new  1-cont  2-samecut
   ICHARG =      2    charge: 1-file 2-atom 10-const
   ISPIN  =      2    spin polarized calculation?
   LNONCOLLINEAR =      F non collinear calculations
   LSORBIT =      F    spin-orbit coupling
   INIWAV =      1    electr: 0-lowe 1-rand  2-diag
   LASPH  =      F    aspherical Exc in radial PAW
   METAGGA=      F    non-selfconsistent MetaGGA calc.

 Electronic Relaxation 1
   ENCUT  =  500.0 eV  36.75 Ry    6.06 a.u.  10.24 10.24 33.35*2*pi/ulx,y,z
   ENINI  =  500.0     initial cutoff
   ENAUG  =  628.9 eV  augmentation charge cutoff
   NELM   =     80;   NELMIN=  2; NELMDL= -5     # of ELM steps
   EDIFF  = 0.1E-04   stopping-criterion for ELM
   LREAL  =      T    real-space projection
   NLSPLINE    = F    spline interpolate recip. space projectors
   LCOMPAT=      F    compatible to vasp.4.4
   GGA_COMPAT  = T    GGA compatible to vasp.4.4-vasp.4.6
   LMAXPAW     = -100 max onsite density
   LMAXMIX     =    2 max onsite mixed and CHGCAR
[...]
     0.000000000  3.972970803  3.972970803     0.062515814  0.062515814  0.189185004
     3.972970803 -3.972970803  0.000000000     0.157108316 -0.094592502  0.094592502
    11.716086349 11.716086349 -7.743115546     0.032076688  0.032076688 -0.032076688

  length of vectors
     5.618629192  5.618629192 18.289045820     0.208823896  0.206345598  0.055558454

 FORCES acting on ions
    electron-ion (+dipol)            ewald-force                    non-local-force                 convergence-correction
   0.207E+01 0.207E+01 -.207E+01   -.211E+01 -.211E+01 0.211E+01   0.435E-01 0.435E-01 -.435E-01   -.225E-02 -.225E-02 0.225E-02
   -.100E+02 -.100E+02 0.100E+02   0.995E+01 0.995E+01 -.995E+01   0.962E-01 0.962E-01 -.962E-01   0.428E-02 0.428E-02 -.428E-02
   0.256E+02 0.256E+02 -.415E+02   -.253E+02 -.253E+02 0.421E+02   -.226E+00 -.226E+00 -.596E+00   -.215E-01 -.215E-01 0.124E-01
   -.835E+01 -.835E+01 -.302E+01   0.885E+01 0.885E+01 0.337E+01   -.475E+00 -.475E+00 -.347E+00   -.151E-01 -.151E-01 0.973E-02
   -.341E+02 -.341E+02 0.389E+02   0.344E+02 0.344E+02 -.392E+02   -.334E+00 -.334E+00 0.255E+00   0.180E-01 0.180E-01 -.303E-02
   0.496E+01 0.496E+01 -.623E+01   -.495E+01 -.495E+01 0.623E+01   -.483E-02 -.483E-02 -.219E-01   -.321E-02 -.322E-02 0.119E-01
   0.256E+02 0.415E+02 -.256E+02   -.253E+02 -.421E+02 0.253E+02   -.226E+00 0.596E+00 0.226E+00   -.215E-01 -.124E-01 0.215E-01
   -.835E+01 0.302E+01 0.835E+01   0.885E+01 -.337E+01 -.885E+01   -.475E+00 0.347E+00 0.475E+00   -.151E-01 -.973E-02 0.151E-01
   -.341E+02 -.389E+02 0.341E+02   0.344E+02 0.392E+02 -.344E+02   -.334E+00 -.255E+00 0.334E+00   0.180E-01 0.303E-02 -.180E-01
   0.496E+01 0.623E+01 -.496E+01   -.495E+01 -.623E+01 0.495E+01   -.483E-02 0.219E-01 0.483E-02   -.321E-02 -.119E-01 0.321E-02
   0.415E+02 0.256E+02 -.256E+02   -.421E+02 -.253E+02 0.253E+02   0.596E+00 -.226E+00 0.226E+00   -.124E-01 -.215E-01 0.215E-01
   0.302E+01 -.835E+01 0.835E+01   -.337E+01 0.885E+01 -.885E+01   0.347E+00 -.475E+00 0.475E+00   -.973E-02 -.151E-01 0.151E-01
   -.389E+02 -.341E+02 0.341E+02   0.392E+02 0.344E+02 -.344E+02   -.255E+00 -.334E+00 0.334E+00   0.303E-02 0.180E-01 -.180E-01
   0.623E+01 0.496E+01 -.496E+01   -.623E+01 -.495E+01 0.495E+01   0.219E-01 -.483E-02 0.483E-02   -.119E-01 -.321E-02 0.321E-02
   0.247E+02 0.247E+02 -.247E+02   -.254E+02 -.254E+02 0.254E+02   0.676E+00 0.676E+00 -.676E+00   -.396E-02 -.395E-02 0.396E-02
   -.154E+02 -.154E+02 0.154E+02   0.150E+02 0.150E+02 -.150E+02   0.337E+00 0.337E+00 -.337E+00   0.196E-01 0.196E-01 -.196E-01
   -.131E+02 -.131E+02 0.131E+02   0.131E+02 0.131E+02 -.131E+02   0.162E-01 0.162E-01 -.162E-01   0.284E-02 0.284E-02 -.284E-02
   0.211E+02 0.211E+02 -.211E+02   -.213E+02 -.213E+02 0.213E+02   0.231E+00 0.231E+00 -.231E+00   0.416E-04 0.421E-04 -.419E-04
   0.219E+03 0.219E+03 0.197E+03   -.235E+03 -.235E+03 -.213E+03   0.156E+02 0.156E+02 0.157E+02   -.105E-01 -.105E-01 0.251E-02
   0.192E+03 0.192E+03 0.234E+03   -.208E+03 -.208E+03 -.250E+03   0.151E+02 0.151E+02 0.162E+02   0.132E-01 0.132E-01 -.267E-01
   0.210E+03 0.210E+03 0.218E+03   -.225E+03 -.225E+03 -.234E+03   0.155E+02 0.155E+02 0.161E+02   -.342E-02 -.342E-02 -.704E-03
   0.232E+03 0.232E+03 0.187E+03   -.248E+03 -.248E+03 -.203E+03   0.160E+02 0.160E+02 0.156E+02   -.660E-02 -.660E-02 0.167E-01
   0.219E+03 -.197E+03 -.219E+03   -.235E+03 0.213E+03 0.235E+03   0.156E+02 -.157E+02 -.156E+02   -.105E-01 -.251E-02 0.105E-01
   0.192E+03 -.234E+03 -.192E+03   -.208E+03 0.250E+03 0.208E+03   0.151E+02 -.162E+02 -.151E+02   0.132E-01 0.267E-01 -.132E-01
   0.210E+03 -.218E+03 -.210E+03   -.225E+03 0.234E+03 0.225E+03   0.155E+02 -.161E+02 -.155E+02   -.342E-02 0.704E-03 0.342E-02
   0.232E+03 -.187E+03 -.232E+03   -.248E+03 0.203E+03 0.248E+03   0.160E+02 -.156E+02 -.160E+02   -.660E-02 -.167E-01 0.660E-02
   -.197E+03 0.219E+03 -.219E+03   0.213E+03 -.235E+03 0.235E+03   -.157E+02 0.156E+02 -.156E+02   -.251E-02 -.105E-01 0.105E-01
   -.234E+03 0.192E+03 -.192E+03   0.250E+03 -.208E+03 0.208E+03   -.162E+02 0.151E+02 -.151E+02   0.267E-01 0.132E-01 -.132E-01
   -.218E+03 0.210E+03 -.210E+03   0.234E+03 -.225E+03 0.225E+03   -.161E+02 0.155E+02 -.155E+02   0.704E-03 -.342E-02 0.342E-02
   -.187E+03 0.232E+03 -.232E+03   0.203E+03 -.248E+03 0.248E+03   -.156E+02 0.160E+02 -.160E+02   -.167E-01 -.660E-02 0.660E-02
   -.200E+03 -.200E+03 0.200E+03   0.215E+03 0.215E+03 -.215E+03   -.141E+02 -.141E+02 0.141E+02   -.750E-02 -.750E-02 0.750E-02
   -.223E+03 -.223E+03 0.223E+03   0.237E+03 0.237E+03 -.237E+03   -.135E+02 -.135E+02 0.135E+02   0.628E-02 0.628E-02 -.628E-02
   -.230E+03 -.230E+03 0.230E+03   0.245E+03 0.245E+03 -.245E+03   -.149E+02 -.149E+02 0.149E+02   0.377E-02 0.377E-02 -.377E-02
   -.206E+03 -.206E+03 0.206E+03   0.220E+03 0.220E+03 -.220E+03   -.148E+02 -.148E+02 0.148E+02   -.203E-03 -.203E-03 0.203E-03
   -.170E+03 -.170E+03 -.185E+03   0.180E+03 0.180E+03 0.194E+03   -.987E+01 -.987E+01 -.873E+01   -.631E-02 -.631E-02 0.641E-02
   -.193E+03 -.193E+03 -.165E+03   0.203E+03 0.203E+03 0.174E+03   -.985E+01 -.985E+01 -.945E+01   0.415E-02 0.415E-02 0.922E-02
   -.227E+03 -.227E+03 -.199E+03   0.243E+03 0.243E+03 0.215E+03   -.154E+02 -.154E+02 -.158E+02   -.238E-02 -.238E-02 -.574E-02
   -.203E+03 -.203E+03 -.225E+03   0.219E+03 0.219E+03 0.241E+03   -.153E+02 -.153E+02 -.160E+02   -.132E-03 -.132E-03 -.101E-01
   -.170E+03 0.185E+03 0.170E+03   0.180E+03 -.194E+03 -.180E+03   -.987E+01 0.873E+01 0.987E+01   -.631E-02 -.641E-02 0.631E-02
   -.193E+03 0.165E+03 0.193E+03   0.203E+03 -.174E+03 -.203E+03   -.985E+01 0.945E+01 0.985E+01   0.415E-02 -.922E-02 -.415E-02
   -.227E+03 0.199E+03 0.227E+03   0.243E+03 -.215E+03 -.243E+03   -.154E+02 0.158E+02 0.154E+02   -.238E-02 0.574E-02 0.238E-02
   -.203E+03 0.225E+03 0.203E+03   0.219E+03 -.241E+03 -.219E+03   -.153E+02 0.160E+02 0.153E+02   -.132E-03 0.101E-01 0.132E-03
   0.185E+03 -.170E+03 0.170E+03   -.194E+03 0.180E+03 -.180E+03   0.873E+01 -.987E+01 0.987E+01   -.641E-02 -.631E-02 0.631E-02
   0.165E+03 -.193E+03 0.193E+03   -.174E+03 0.203E+03 -.203E+03   0.945E+01 -.985E+01 0.985E+01   -.922E-02 0.415E-02 -.415E-02
   0.199E+03 -.227E+03 0.227E+03   -.215E+03 0.243E+03 -.243E+03   0.158E+02 -.154E+02 0.154E+02   0.574E-02 -.239E-02 0.238E-02
   0.225E+03 -.203E+03 0.203E+03   -.241E+03 0.219E+03 -.219E+03   0.160E+02 -.153E+02 0.153E+02   0.101E-01 -.132E-03 0.132E-03
   0.230E+03 0.230E+03 -.230E+03   -.245E+03 -.245E+03 0.245E+03   0.145E+02 0.145E+02 -.145E+02   -.862E-02 -.862E-02 0.862E-02
   0.191E+03 0.191E+03 -.191E+03   -.200E+03 -.200E+03 0.200E+03   0.870E+01 0.870E+01 -.870E+01   -.848E-02 -.848E-02 0.848E-02
   0.170E+03 0.170E+03 -.170E+03   -.180E+03 -.180E+03 0.180E+03   0.974E+01 0.974E+01 -.974E+01   0.180E-01 0.180E-01 -.180E-01
   0.212E+03 0.212E+03 -.212E+03   -.227E+03 -.227E+03 0.227E+03   0.148E+02 0.148E+02 -.148E+02   -.206E-02 -.206E-02 0.206E-02
   -.139E+00 -.139E+00 0.139E+00   0.568E-13 -.369E-12 0.139E-11   0.211E+00 0.211E+00 -.211E+00   -.684E-01 -.684E-01 0.684E-01

 POSITION                                       TOTAL-FORCE (eV/Angst)
      2.92322      2.92322      3.03624         0.004016      0.004016     -0.004016
      6.85863      2.88566     -0.89918         0.009349      0.009349     -0.009349
     11.69668     11.69668     -7.72875        -0.001281     -0.001281      0.001604
      3.91821      3.91821      0.04310         0.003522      0.003522      0.007428
      7.85625      7.85625      0.08451         0.007304      0.007304      0.006045
     11.76539      7.79242     -3.81987         0.002569      0.002569     -0.003005
     11.69668     13.68821     -5.73723        -0.001281     -0.001604      0.001281
      3.91821      1.94339     -1.93172         0.003522     -0.007428     -0.003522
      7.85625      5.87494     -1.89679         0.007304     -0.006045     -0.007304
     11.76539      5.80635     -5.80594         0.002569      0.003005     -0.002569
     13.68821     11.69668     -5.73723        -0.001604     -0.001281      0.001281
      5.91636     -0.05476     -1.93172        -0.007428      0.003522     -0.003522
      5.87494      7.85625     -1.89679        -0.006045      0.007304     -0.007304
      9.77932      7.79242     -5.80594         0.003005      0.002569     -0.002569
      1.97675      1.97675      0.00974        -0.001909     -0.001909      0.001909
      5.90592      5.90592      0.05354        -0.006355     -0.006355      0.006355
      9.81271      5.83974     -3.85326        -0.001840     -0.001840      0.001840
     13.72122      9.74824     -3.78879        -0.000436     -0.000436      0.000436
      6.04718      2.07420      2.10021        -0.001244     -0.001244      0.005216
      6.00399      6.00399     -1.81040         0.002894      0.002894     -0.003479
      9.91340      9.91340     -1.74285        -0.000531     -0.000531      0.000581
     13.82113      9.84815     -5.66364        -0.005340     -0.005340      0.005963
      6.04718     -0.11372     -0.08772        -0.001244     -0.005216      0.001244
      6.00399      7.76985     -0.04453         0.002894      0.003479     -0.002894
      9.91340      7.70230     -3.95394        -0.000531     -0.000581      0.000531
     13.82113     11.62310     -3.88870        -0.005340     -0.005963      0.005340
      3.85925      2.07420     -0.08772        -0.005216     -0.001244      0.001244
      7.76985      6.00399     -0.04453         0.003479      0.002894     -0.002894
     11.67527      5.94043     -3.95394        -0.000581     -0.000531      0.000531
     11.62310     13.82113     -3.88870        -0.005963     -0.005340      0.005340
      3.80953     -0.16344      2.14993        -0.003748     -0.003748      0.003748
      3.78484      3.78484     -1.79835         0.001703      0.001703     -0.001703
      7.71400      7.71400     -1.75454         0.005688      0.005688     -0.005688
     11.61759      7.64462     -5.65813        -0.001919     -0.001919      0.001919
      1.84262      1.84262      1.90522        -0.001135     -0.001135      0.000966
      5.77789      1.80492     -2.02943         0.001629      0.001629     -0.000664
      9.70690      5.73393     -1.98653         0.000517      0.000517     -0.002481
      9.64587      9.64587     -5.90202        -0.002034     -0.002034      0.002240
      1.84262      0.08127      0.14386        -0.001135     -0.000966      0.001135
      5.77789      4.01591      0.18156         0.001629      0.000664     -0.001629
      9.70690      3.97302     -3.74744         0.000517      0.002481     -0.000517
      9.64587     11.86147     -3.68642        -0.002034     -0.002240      0.002034
      4.05424     -2.13035      0.14386        -0.000966     -0.001135      0.001135
      4.01591      5.77789      0.18156         0.000664      0.001629     -0.001629
      7.94599      5.73393     -3.74744         0.002481      0.000517     -0.000517
     11.86147      9.64587     -3.68642        -0.002240     -0.002034      0.002034
     11.84809     11.84809     -5.88864        -0.002470     -0.002470      0.002470
      4.05779      4.05779      1.90166         0.002200      0.002200     -0.002200
      7.99670      4.02373     -2.03725         0.003439      0.003439     -0.003439
     11.91381      7.94084     -1.98138        -0.001043     -0.001043      0.001043
    total drift:                                0.002878      0.003085     -0.002750

  FREE ENERGIE OF THE ION-ELECTRON SYSTEM (eV)
  free  energy   TOTEN  =      -314.8444552993 eV

  energy  without entropy=     -314.8076639311  energy(sigma->0) =     -314.82605962

 d Force = 0.3632940E-03[-0.657E-04, 0.792E-03]  d Energy = 0.3939947E-03-0.307E-04
 d Force = 0.6208550E+00[ 0.611E+00, 0.631E+00]  d Ewald  =-0.8594500E+00 0.148E+01

 Quasi-Newton relaxation of ions (Broydens 2nd method)
  g(Force)  = 0.957E-04   g(Stress)= 0.219E-05

 retain information from N=  1 steps
 eigenvalues of (default step * inverse Hessian matrix)
  average eigenvalue of G=   0.4186
 eigenvalue spectrum of G is  0.4186

 reached required accuracy - stopping structural energy minimisation

volume of typ            1:     3.2 %

[...]

volume of typ            3:    10.6 %

total charge

# of ion       s       p       d       tot
    1        2.107   0.336   0.128   2.572
    2        2.107   0.332   0.127   2.567
    3        0.297   0.424   7.840   8.561
    4        0.295   0.422   7.846   8.564
    5        0.298   0.425   7.839   8.562
    6        0.299   0.427   7.836   8.562
    7        0.297   0.424   7.840   8.561
    8        0.295   0.422   7.846   8.564
    9        0.298   0.425   7.839   8.562
   10        0.299   0.427   7.836   8.562
   11        0.297   0.424   7.840   8.561
   12        0.295   0.422   7.846   8.564
   13        0.298   0.425   7.839   8.562
   14        0.299   0.427   7.836   8.562
   15        0.278   0.377   7.854   8.508
   16        0.286   0.393   7.849   8.528
   17        0.296   0.413   7.838   8.546
   18        0.294   0.409   7.839   8.542
   19        1.278   2.737   0.008   4.024
   20        1.279   2.736   0.008   4.023
   21        1.281   2.729   0.008   4.019
   22        1.280   2.731   0.008   4.020
   23        1.278   2.737   0.008   4.024
   24        1.279   2.736   0.008   4.023
   25        1.281   2.729   0.008   4.019
   26        1.280   2.731   0.008   4.020
   27        1.278   2.737   0.008   4.024
   28        1.279   2.736   0.008   4.023
   29        1.281   2.729   0.008   4.019
   30        1.280   2.731   0.008   4.020
   31        1.281   2.737   0.009   4.026
   32        1.282   2.737   0.009   4.027
   33        1.284   2.724   0.009   4.017
   34        1.283   2.727   0.009   4.019
   35        1.263   2.787   0.007   4.057
   36        1.263   2.789   0.007   4.059
   37        1.282   2.729   0.008   4.019
   38        1.282   2.729   0.008   4.019
   39        1.263   2.787   0.007   4.057
   40        1.263   2.789   0.007   4.059
   41        1.282   2.729   0.008   4.019
   42        1.282   2.729   0.008   4.019
   43        1.263   2.787   0.007   4.057
   44        1.263   2.789   0.007   4.059
   45        1.282   2.729   0.008   4.019
   46        1.282   2.729   0.008   4.019
   47        1.284   2.726   0.009   4.018
   48        1.269   2.777   0.007   4.053
   49        1.268   2.776   0.008   4.052
   50        1.284   2.726   0.009   4.019
tot          49.79   95.19  125.98  270.96

magnetization (x)

# of ion       s       p       d       tot
    1        0.001   0.005   0.002   0.008
    2        0.001   0.002   0.001   0.004
    3       -0.000  -0.000   0.058   0.058
    4       -0.001  -0.001   0.117   0.116
    5       -0.000  -0.000   0.042   0.041
    6       -0.000  -0.000   0.009   0.009
    7       -0.000  -0.000   0.058   0.058
    8       -0.001  -0.001   0.117   0.116
    9       -0.000  -0.000   0.042   0.041
   10       -0.000  -0.000   0.009   0.009
   11       -0.000  -0.000   0.058   0.058
   12       -0.001  -0.001   0.117   0.116
   13       -0.000  -0.000   0.042   0.041
   14       -0.000  -0.000   0.009   0.009
   15       -0.000  -0.000   0.325   0.324
   16       -0.000   0.000   0.204   0.203
   17       -0.000  -0.000   0.040   0.040
   18       -0.000  -0.000   0.047   0.047
   19        0.001   0.019   0.000   0.020
   20        0.001   0.017   0.000   0.018
   21        0.000   0.001   0.000   0.001
   22        0.000   0.005   0.000   0.005
   23        0.001   0.019   0.000   0.020
   24        0.001   0.017   0.000   0.018
   25        0.000   0.001   0.000   0.001
   26        0.000   0.005   0.000   0.005
   27        0.001   0.019   0.000   0.020
   28        0.001   0.017   0.000   0.018
   29        0.000   0.001   0.000   0.001
   30        0.000   0.005   0.000   0.005
   31        0.002   0.013  -0.000   0.015
   32        0.005   0.068   0.000   0.073
   33        0.002   0.030   0.000   0.032
   34        0.000   0.003   0.000   0.004
   35        0.004   0.032   0.000   0.036
   36        0.003   0.018   0.000   0.021
   37        0.001   0.003   0.000   0.004
   38        0.001   0.008   0.000   0.008
   39        0.004   0.032   0.000   0.036
   40        0.003   0.018   0.000   0.021
   41        0.001   0.003   0.000   0.004
   42        0.001   0.008   0.000   0.008
   43        0.004   0.032   0.000   0.036
   44        0.003   0.018   0.000   0.021
   45        0.001   0.003   0.000   0.004
   46        0.001   0.008   0.000   0.008
   47        0.001   0.014   0.000   0.015
   48        0.006   0.039   0.000   0.045
   49        0.003   0.016   0.000   0.018
   50        0.000   0.004   0.000   0.004
tot           0.05    0.50    1.30    1.85