 vasp.5.4.4.18Apr17-6-g9f103f2a35 (build May 12 2020 05:39:39) gamma-only

 MD_VERSION_INFO: Compiled 2020-05-12T12:39:39-UTC in devlin.sd.materialsdesign.
 com:/home/medea2/data/build/wwolf/vasp-gpu5.4.4/13047/x86_64/src/src/build/gam
 from svn 13047

 executed on                        Lin64 date 2023.03.06  23:44:23

 INCAR:
 POTCAR:    PAW_PBE Li_sv 10Sep2004
 POTCAR:    PAW_PBE Ni 02Aug2007
 POTCAR:    PAW_PBE O 08Apr2002

 POTCAR:    PAW_PBE Li_sv 10Sep2004

 POTCAR:    PAW_PBE Ni 02Aug2007

 POTCAR:    PAW_PBE O 08Apr2002

 Optimization of the real space projectors (new method)

 maximal supplied QI-value         = 22.11
 optimisation between [QCUT,QGAM] = [ 11.28, 22.77] = [ 35.61,145.23] Ry
 Optimized for a Real-space Cutoff    1.10 Angstroem

   l    n(q)    QCUT    max X(q) W(low)/X(q) W(high)/X(q)  e(spline)
   0      7    11.276    10.506    0.54E-04    0.58E-04    0.16E-07
   0      7    11.276     8.367    0.11E-03    0.14E-03    0.35E-07
   1      7    11.276     8.983    0.23E-03    0.43E-03    0.86E-07
 Optimization of the real space projectors (new method)

[...]

   l    n(q)    QCUT    max X(q) W(low)/X(q) W(high)/X(q)  e(spline)
   2      9    11.376    60.317    0.17E-03    0.16E-04    0.16E-06
   2      9    11.376    55.921    0.17E-03    0.16E-04    0.17E-06
   0     10    11.376    51.690    0.45E-04    0.60E-04    0.21E-06
   0     10    11.376    30.015    0.37E-04    0.55E-04    0.19E-06
   1     10    11.376    18.849    0.83E-04    0.11E-03    0.92E-07
   1     10    11.376    14.624    0.69E-04    0.92E-04    0.82E-07
 Optimization of the real space projectors (new method)

 maximal supplied QI-value         = 24.76
 optimisation between [QCUT,QGAM] = [ 11.39, 22.77] = [ 36.31,145.25] Ry
 Optimized for a Real-space Cutoff    1.10 Angstroem

   l    n(q)    QCUT    max X(q) W(low)/X(q) W(high)/X(q)  e(spline)
   0      7    11.387    20.381    0.22E-03    0.48E-03    0.18E-06
   0      7    11.387    15.268    0.22E-03    0.52E-03    0.19E-06
   1      7    11.387     5.964    0.22E-03    0.73E-03    0.24E-06
   1      7    11.387     5.382    0.19E-03    0.60E-03    0.21E-06

  PAW_PBE Li_sv 10Sep2004               :
  PAW_PBE Ni 02Aug2007                  :
  PAW_PBE O 08Apr2002                   :

 POSCAR: ce8515_1
  positions in direct lattice
 exchange correlation table for  LEXCH =       14
   RHO(1)=    0.500       N(1)  =     2000
   RHO(2)=  100.500       N(2)  =     4000

 ion  position               nearest neighbor table
   1  0.996  0.248  0.263-  50 2.05  47 2.07  29 2.11  38 2.11  35 2.14  19 2.77
   2  0.250  0.249  0.533-  51 1.95  27 2.05  39 2.05  20 2.73
   3  0.750  0.749  0.531-  49 1.94  42 2.05  30 2.05  14 2.73
   4  0.503  0.248  0.264-  50 2.05  47 2.07  41 2.11  38 2.12  35 2.14  24 2.77
   5  0.005  0.747  0.261-  52 2.06  53 2.08  32 2.11  28 2.11  33 2.12  17 2.79  25 2.85
   6  0.250  0.255  0.969-  31 1.97  45 2.04  57 2.04  55 2.22  43 2.22  13 2.75  25 2.84  26 2.84

   7  0.250  0.751  0.972-  36 1.99  44 2.05  56 2.05  46 2.24  58 2.24  32 2.26  20 2.70
   8  0.750  0.754  0.968-  37 1.97  56 2.03  44 2.03  46 2.23  58 2.23  23 2.73
   9  0.750  0.251  0.974-  34 1.97  45 2.05  57 2.06  43 2.23  55 2.23  14 2.71
  10  0.495  0.747  0.261-  52 2.06  53 2.08  32 2.11  40 2.11  33 2.12  18 2.79  26 2.85
  11  0.000  0.007  0.003-  36 1.84  37 1.84  35 1.87  38 1.87  45 1.98  46 2.04  16 2.76  16 2.77
                            12 2.85  15 2.86  13 2.86  14 2.87
  12  0.250  0.996  0.248-  29 1.84  41 1.85  58 1.86  46 1.87  52 2.01  35 2.04  15 2.77  15 2.77
                            16 2.84  11 2.85  18 2.87  17 2.87
  13  0.250  0.998  0.749-  30 1.85  42 1.85  57 1.86  45 1.86  36 2.01  51 2.03   6 2.75  14 2.77
                            14 2.77  17 2.85  18 2.86  11 2.86  16 2.86
  14  0.750  0.004  0.751-  42 1.84  30 1.84  57 1.86  45 1.87  54 1.95  37 2.00   9 2.71   3 2.73
                            13 2.77  13 2.77  18 2.84  17 2.84  11 2.87  16 2.87
  15  0.750  0.998  0.250-  29 1.85  46 1.86  58 1.86  41 1.86  53 2.09  38 2.09  12 2.77  12 2.77
                            17 2.86  16 2.86  18 2.86  11 2.86
  16  0.500  0.007  0.003-  36 1.84  37 1.85  35 1.86  38 1.87  57 1.99  58 2.04  11 2.76  11 2.77
                            12 2.84  15 2.86  13 2.86  14 2.87
  17  0.999  0.996  0.499-  54 1.84  51 1.84  53 1.87  52 1.87  30 1.96  29 2.01  18 2.76  18 2.77
                             5 2.79  14 2.84  13 2.85  15 2.86  12 2.87
  18  0.501  0.996  0.499-  54 1.84  51 1.84  53 1.87  52 1.87  42 1.96  41 2.00  17 2.76  17 2.77
                            10 2.79  14 2.84  13 2.86  15 2.86  12 2.87
  19  0.001  0.495  0.499-  49 1.83  48 1.84  47 1.86  50 1.87  27 1.95  28 2.01  24 2.76   1 2.77
                            24 2.78  20 2.84  23 2.85  21 2.86  22 2.87
  20  0.250  0.503  0.750-  39 1.84  27 1.84  44 1.87  56 1.87  48 1.94  31 1.99   7 2.70   2 2.73
                            23 2.77  23 2.77  24 2.84  19 2.84  26 2.87  25 2.87
  21  0.250  0.497  0.250-  40 1.85  28 1.85  43 1.85  55 1.85  47 2.15  32 2.17  22 2.77  22 2.77
                            25 2.85  26 2.86  24 2.86  19 2.86
  22  0.750  0.496  0.248-  40 1.84  28 1.85  43 1.87  55 1.87  50 1.99  33 2.04  21 2.77  21 2.77
                            26 2.84  25 2.84  19 2.87  24 2.88
  23  0.750  0.499  0.750-  39 1.85  27 1.85  44 1.86  56 1.86  49 2.05  34 2.05   8 2.73  20 2.77
                            20 2.77  24 2.85  19 2.85  25 2.87  26 2.87
  24  0.499  0.495  0.499-  49 1.83  48 1.84  47 1.86  50 1.87  39 1.95  40 2.01  19 2.76   4 2.77
                            19 2.78  20 2.84  23 2.85  21 2.86  22 2.88
  25  1.000  0.507  0.004-  34 1.83  31 1.85  32 1.86  33 1.87  44 1.98  43 2.03  26 2.77  26 2.77
                             6 2.84  22 2.84   5 2.85  21 2.85  23 2.87  20 2.87
  26  0.500  0.507  0.004-  34 1.83  31 1.85  32 1.86  33 1.87  56 1.98  55 2.03  25 2.77  25 2.77
                             6 2.84  22 2.84  10 2.85  21 2.86  23 2.87  20 2.87
  27  0.003  0.401  0.637-  20 1.84  23 1.85  19 1.95   2 2.05
  28  0.998  0.598  0.362-  22 1.85  21 1.85  19 2.01   5 2.11
  29  0.003  0.098  0.362-  12 1.84  15 1.85  17 2.01   1 2.11
  30  0.996  0.901  0.637-  14 1.84  13 1.85  17 1.96   3 2.05
  31  0.250  0.406  0.890-  25 1.85  26 1.85   6 1.97  20 1.99
  32  0.250  0.618  0.110-  26 1.86  25 1.86  10 2.11   5 2.11  21 2.17   7 2.26
  33  0.750  0.612  0.119-  25 1.87  26 1.87  22 2.04   5 2.12  10 2.12
  34  0.750  0.403  0.898-  26 1.83  25 1.83   9 1.97  23 2.05
  35  0.250  0.111  0.118-  16 1.86  11 1.87  12 2.04   4 2.14   1 2.14
  36  0.250  0.903  0.894-  11 1.84  16 1.84   7 1.99  13 2.01
  37  0.750  0.906  0.891-  11 1.84  16 1.85   8 1.97  14 2.00
  38  0.750  0.114  0.115-  16 1.87  11 1.87  15 2.09   1 2.11   4 2.12
  39  0.497  0.401  0.637-  20 1.84  23 1.85  24 1.95   2 2.05
  40  0.502  0.598  0.362-  22 1.84  21 1.85  24 2.01  10 2.11
  41  0.497  0.098  0.363-  12 1.85  15 1.86  18 2.00   4 2.11
  42  0.504  0.901  0.637-  14 1.84  13 1.85  18 1.96   3 2.05
  43  0.003  0.394  0.134-  21 1.85  22 1.87  25 2.03   6 2.22   9 2.23
  44  0.997  0.604  0.865-  23 1.86  20 1.87  25 1.98   8 2.03   7 2.05
  45  0.003  0.105  0.865-  13 1.86  14 1.87  11 1.98   6 2.04   9 2.05
  46  0.997  0.894  0.134-  15 1.86  12 1.87  11 2.04   8 2.23   7 2.24
  47  0.250  0.384  0.393-  19 1.86  24 1.86   4 2.07   1 2.07  21 2.15
  48  0.250  0.596  0.612-  24 1.84  19 1.84  20 1.94
  49  0.750  0.599  0.605-  19 1.83  24 1.83   3 1.94  23 2.05
  50  0.750  0.393  0.382-  24 1.87  19 1.87  22 1.99   4 2.05   1 2.05
  51  0.250  0.098  0.608-  17 1.84  18 1.84   2 1.95  13 2.03
  52  0.250  0.893  0.384-  18 1.87  17 1.87  12 2.01   5 2.06  10 2.06
  53  0.750  0.887  0.388-  18 1.87  17 1.87   5 2.08  10 2.08  15 2.09
  54  0.750  0.096  0.611-  17 1.84  18 1.84  14 1.95
  55  0.496  0.394  0.133-  21 1.85  22 1.87  26 2.03   6 2.22   9 2.23
  56  0.504  0.604  0.865-  23 1.86  20 1.87  26 1.98   8 2.03   7 2.05
  57  0.497  0.105  0.864-  13 1.86  14 1.86  16 1.99   6 2.04   9 2.06
  58  0.502  0.894  0.134-  15 1.86  12 1.86  16 2.04   8 2.23   7 2.24

  LATTYP: Found a triclinic cell.
 ALAT       =    11.4268276764
 B/A-ratio  =     0.4842412747
 C/A-ratio  =     1.0012503176
 COS(alpha) =     0.0000473384
 COS(beta)  =     0.4803985623
 COS(gamma) =     0.4843839149

  Lattice vectors:

 A1 = (  -9.9972745260,   5.5341464822,   0.0107476047)
 A2 = (  -0.0004564909,   5.5333415785,   0.0001573217)
 A3 = (  -6.2923436403,   0.0002941723,  -9.5553922061)

Analysis of symmetry for initial positions (statically):
 Subroutine PRICEL returns:
 Original cell was already a primitive cell.

 Routine SETGRP: Setting up the symmetry group for a
 triclinic supercell.

 Subroutine GETGRP returns: Found  1 space group operations
 (whereof  1 operations were pure point group operations)
 out of a pool of  2 trial point group operations.

The static configuration has the point symmetry C_1 .

Analysis of symmetry for dynamics (positions and initial velocities):
 Subroutine PRICEL returns:
 Original cell was already a primitive cell.

[...]

The dynamic configuration has the point symmetry C_1 .

Analysis of structural, dynamic, and magnetic symmetry:
 Subroutine PRICEL returns:
 Original cell was already a primitive cell.

 Routine SETGRP: Setting up the symmetry group for a
 triclinic supercell.

 Subroutine GETGRP returns: Found  1 space group operations
 (whereof  1 operations were pure point group operations)
 out of a pool of  2 trial point group operations.

The magnetic configuration has the point symmetry C_1 .

 Subroutine INISYM returns: Found  1 space group operations
 (whereof  1 operations are pure point group operations),
 and found     1 'primitive' translations

 KPOINTS: Automatic mesh

Automatic generation of k-mesh.
Space group operators:
 irot       det(A)        alpha          n_x          n_y          n_z        tau_x        tau_y        tau_z
    1     1.000000     0.000000     1.000000     0.000000     0.000000     0.000000     0.000000     0.000000

 Subroutine IBZKPT returns following result:

 Found      1 irreducible k-points:

 Following reciprocal coordinates:
            Coordinates               Weight
  0.000000  0.000000  0.000000      1.000000

 Following cartesian coordinates:
            Coordinates               Weight
  0.000000  0.000000  0.000000      1.000000

 SYSTEM =  unknown system
 POSCAR =  ce8515_1

 Startparameter for this run:
   NWRITE =      1    write-flag & timer
   PREC   = accura    normal or accurate (medium, high low for compatibility)
   ISTART =      0    job   : 0-new  1-cont  2-samecut
   ICHARG =      2    charge: 1-file 2-atom 10-const
   ISPIN  =      2    spin polarized calculation?
   LNONCOLLINEAR =      F non collinear calculations
   LSORBIT =      F    spin-orbit coupling
   INIWAV =      1    electr: 0-lowe 1-rand  2-diag
   LASPH  =      F    aspherical Exc in radial PAW
   METAGGA=      F    non-selfconsistent MetaGGA calc.

 Electronic Relaxation 1
   ENCUT  =  500.0 eV  36.75 Ry    6.06 a.u.  10.09 18.70 18.23*2*pi/ulx,y,z
[...]
   -.335E+02 0.259E+00 -.239E+02   0.338E+02 -.233E+00 0.239E+02   -.306E+00 -.950E-02 -.643E-01   -.943E-02 -.117E-01 -.260E-02
   0.400E+02 -.118E+01 0.200E+02   -.408E+02 0.116E+01 -.201E+02   0.754E+00 0.263E-01 0.183E+00   0.635E-02 -.226E-02 0.156E-01
   -.378E+02 0.351E+00 -.383E+02   0.383E+02 -.238E+00 0.388E+02   -.530E+00 -.112E+00 -.551E+00   -.540E-02 0.757E-03 -.125E-01
   -.378E+02 -.372E+00 -.384E+02   0.383E+02 0.276E+00 0.390E+02   -.537E+00 0.956E-01 -.569E+00   -.404E-02 -.835E-03 -.133E-01
   -.359E+02 -.253E+00 -.390E+02   0.365E+02 0.153E+00 0.396E+02   -.504E+00 0.981E-01 -.562E+00   -.439E-01 -.687E-02 -.122E-01
   0.116E+02 0.555E+00 -.477E+01   -.118E+02 -.548E+00 0.476E+01   0.113E+00 -.112E-01 -.171E-01   -.701E-02 0.428E-02 0.921E-02
   -.392E+02 0.418E+00 -.207E+02   0.396E+02 -.377E+00 0.208E+02   -.419E+00 -.468E-01 -.114E+00   0.696E-02 0.442E-02 -.452E-02
   -.178E+02 -.530E+00 0.767E+01   0.184E+02 0.465E+00 -.767E+01   -.682E+00 0.704E-01 -.122E-02   0.736E-02 -.385E-02 -.439E-02
   0.329E+02 -.420E+00 0.575E+02   -.332E+02 0.399E+00 -.585E+02   0.263E+00 0.248E-01 0.962E+00   -.578E-02 -.442E-02 0.491E-02
   -.346E+02 0.327E+00 -.389E+02   0.352E+02 -.173E+00 0.394E+02   -.504E+00 -.151E+00 -.540E+00   -.434E-01 0.636E-02 -.126E-01
   0.409E+02 -.157E+01 0.203E+02   -.417E+02 0.155E+01 -.205E+02   0.808E+00 0.317E-01 0.145E+00   0.399E-01 -.752E-02 0.123E-01
   0.409E+02 0.159E+01 0.207E+02   -.417E+02 -.160E+01 -.208E+02   0.717E+00 -.474E-02 0.179E+00   0.404E-01 0.876E-02 0.122E-01
   -.222E+02 0.367E+02 0.350E+03   0.214E+02 -.393E+02 -.371E+03   0.852E+00 0.257E+01 0.207E+02   -.270E-01 0.179E-02 -.173E-01
   -.727E+02 -.285E+02 -.335E+03   0.776E+02 0.299E+02 0.353E+03   -.495E+01 -.131E+01 -.179E+02   -.674E-02 -.192E-01 -.132E-01
   -.709E+02 0.288E+02 -.336E+03   0.759E+02 -.301E+02 0.353E+03   -.502E+01 0.130E+01 -.176E+02   -.543E-02 0.170E-01 0.768E-02
   -.247E+02 -.377E+02 0.352E+03   0.240E+02 0.404E+02 -.372E+03   0.733E+00 -.273E+01 0.206E+02   -.651E-02 -.905E-02 -.957E-02
   0.795E+02 -.189E+01 0.360E+03   -.851E+02 0.189E+01 -.378E+03   0.559E+01 -.150E-02 0.184E+02   0.307E-01 -.704E-03 -.420E-02
   -.362E+02 -.518E+00 -.292E+03   0.395E+02 0.442E+00 0.306E+03   -.337E+01 0.778E-01 -.143E+02   0.694E-02 -.699E-03 -.393E-02
   -.174E+02 0.167E+01 -.301E+03   0.199E+02 -.181E+01 0.316E+03   -.255E+01 0.150E+00 -.145E+02   0.194E-01 0.274E-03 -.147E-01
   0.102E+03 0.811E+00 0.363E+03   -.110E+03 -.610E+00 -.382E+03   0.749E+01 -.200E+00 0.189E+02   0.328E-01 0.760E-03 -.251E-02
   -.153E+02 0.750E+00 -.301E+03   0.179E+02 -.795E+00 0.315E+03   -.264E+01 0.369E-01 -.145E+02   -.677E-02 0.908E-02 -.114E-01
   0.102E+03 0.109E+00 0.361E+03   -.110E+03 -.599E-01 -.380E+03   0.761E+01 -.587E-01 0.191E+02   0.232E-01 0.978E-02 0.150E-01
   0.784E+02 -.795E+00 0.359E+03   -.841E+02 0.857E+00 -.378E+03   0.565E+01 -.521E-01 0.188E+02   0.161E-01 -.974E-02 0.166E-01
   -.355E+02 -.177E+00 -.292E+03   0.390E+02 0.112E+00 0.306E+03   -.344E+01 0.730E-01 -.143E+02   -.165E-01 -.899E-02 -.371E-02
   -.254E+02 -.379E+02 0.351E+03   0.248E+02 0.408E+02 -.371E+03   0.648E+00 -.286E+01 0.206E+02   -.354E-01 -.142E-02 -.135E-01
   -.715E+02 0.284E+02 -.335E+03   0.765E+02 -.297E+02 0.353E+03   -.494E+01 0.122E+01 -.178E+02   0.581E-03 0.191E-01 -.161E-01
   -.710E+02 -.285E+02 -.336E+03   0.760E+02 0.298E+02 0.354E+03   -.493E+01 -.130E+01 -.177E+02   0.457E-02 -.170E-01 0.877E-03
   -.239E+02 0.371E+02 0.352E+03   0.232E+02 -.397E+02 -.372E+03   0.717E+00 0.265E+01 0.206E+02   -.176E-01 0.900E-02 -.172E-02
   0.300E+02 -.760E+01 0.306E+03   -.329E+02 0.773E+01 -.322E+03   0.289E+01 -.112E+00 0.159E+02   0.120E-01 -.185E-01 0.975E-02
   0.544E+02 0.631E+01 -.304E+03   -.540E+02 -.665E+01 0.319E+03   -.415E+00 0.329E+00 -.150E+02   0.236E-01 0.164E-02 0.196E-01
   0.489E+02 -.581E+01 -.303E+03   -.483E+02 0.602E+01 0.319E+03   -.585E+00 -.201E+00 -.150E+02   0.200E-01 -.861E-02 0.380E-02
   0.386E+02 0.776E+01 0.302E+03   -.422E+02 -.787E+01 -.317E+03   0.358E+01 0.921E-01 0.152E+02   -.793E-02 0.165E-01 0.837E-03
   0.507E+01 0.147E+00 0.286E+03   -.848E+01 -.340E-01 -.300E+03   0.341E+01 -.121E+00 0.139E+02   -.436E-02 0.897E-02 0.951E-02
   -.103E+02 0.151E+01 -.398E+03   0.110E+02 -.163E+01 0.423E+03   -.697E+00 0.115E+00 -.250E+02   -.348E-01 0.966E-02 -.189E-02
   -.663E+02 -.382E+00 -.356E+03   0.738E+02 0.204E+00 0.374E+03   -.740E+01 0.187E+00 -.187E+02   -.364E-01 -.964E-02 -.465E-02
   -.350E+02 -.114E+01 0.305E+03   0.345E+02 0.113E+01 -.319E+03   0.512E+00 0.120E-01 0.144E+02   -.177E-01 -.878E-02 0.208E-01
   -.674E+02 0.141E+00 -.354E+03   0.749E+02 -.224E+00 0.373E+03   -.752E+01 0.685E-01 -.189E+02   -.155E-01 0.151E-01 -.643E-02
   -.386E+02 -.503E+00 0.305E+03   0.382E+02 0.486E+00 -.319E+03   0.361E+00 0.359E-02 0.147E+02   -.263E-02 0.139E-01 0.437E-02
   0.208E+01 -.708E-01 0.287E+03   -.542E+01 0.175E+00 -.301E+03   0.333E+01 -.893E-01 0.140E+02   0.105E-01 -.140E-01 -.406E-02
   -.109E+02 0.590E+00 -.397E+03   0.118E+02 -.628E+00 0.422E+03   -.890E+00 0.530E-01 -.251E+02   -.693E-02 -.151E-01 -.867E-02
   0.341E+02 0.794E+01 0.305E+03   -.375E+02 -.806E+01 -.321E+03   0.337E+01 0.103E+00 0.156E+02   0.140E-01 0.185E-01 0.905E-02
   0.509E+02 -.553E+01 -.305E+03   -.504E+02 0.570E+01 0.320E+03   -.509E+00 -.171E+00 -.154E+02   0.204E-01 -.182E-02 0.207E-01
   0.503E+02 0.602E+01 -.303E+03   -.498E+02 -.627E+01 0.318E+03   -.560E+00 0.244E+00 -.150E+02   0.262E-01 0.944E-02 -.230E-02
   0.366E+02 -.769E+01 0.303E+03   -.401E+02 0.779E+01 -.318E+03   0.349E+01 -.747E-01 0.152E+02   -.134E-01 -.171E-01 0.677E-02
   0.320E+00 -.867E-02 0.115E+00   -.206E-12 -.311E-13 0.114E-12   -.341E+00 0.166E-01 -.127E+00   0.433E-02 -.147E-03 0.258E-01

 POSITION                                       TOTAL-FORCE (eV/Angst)
      1.71716      5.51089      2.34550         0.023966     -0.002946     -0.024885
      4.38004      1.38377      2.36762         0.012387      0.000147     -0.009333
      2.51009      4.15263      7.19478         0.021078      0.001026     -0.008057
      1.70425      2.78467      2.35093         0.012160     -0.001019     -0.019859
     -0.17972      0.02092      7.18759         0.015335     -0.002429     -0.012489
      8.67104      1.38528      2.42075        -0.052076     -0.000679      0.021767
      6.92210      1.38670      7.22086         0.021561      0.000325      0.019087
      6.80823      4.15245      7.25439        -0.047526      0.000075      0.023074
      8.79373      4.15043      2.39001         0.011765     -0.000626      0.020229
     -0.16815      2.74772      7.18455         0.018302      0.002560     -0.013767
      0.00040      0.00148      0.07784        -0.000824      0.000385      0.016506
     -1.24615      1.38559      9.58616         0.000664      0.001543     -0.008863
      3.74115      1.38647      9.60303        -0.007927     -0.007972     -0.002752
      7.47427      4.15058      0.00198        -0.013629      0.002461     -0.001468
     -1.23321      4.15146      9.60182         0.000667      0.005304     -0.009375
      0.00114      2.76496      0.07813         0.000630     -0.001395      0.016462
      1.26213      5.53121      9.56822         0.014119      0.001791     -0.002140
      1.26129      2.77198      9.56752         0.013999     -0.001391     -0.001278
      3.12925      0.00369      4.74285         0.004662     -0.008756     -0.007819
      5.60468      1.38632      4.82346        -0.017126     -0.000009     -0.011349
      0.63184      1.38584      4.78046        -0.007045     -0.001047     -0.011075
      0.61931      4.15197      4.76589        -0.002659      0.001478     -0.011014
      5.61180      4.15256      4.77870        -0.016856     -0.000950     -0.010192
      3.13137      2.76269      4.74286         0.006583      0.008531     -0.007773
     -1.86286      5.53268      4.90202        -0.000653      0.007343      0.012749
     -1.86843      2.76962      4.90288        -0.001685     -0.005794      0.013336
      4.85680      0.01859      3.84428         0.003806      0.001220      0.008178
      1.39870      5.52306      5.72534         0.012959      0.000881     -0.013396
      3.26963      0.01002      0.90360         0.014014     -0.002895     -0.018805
      2.98440      5.51890      8.66547         0.007025     -0.000275      0.007461
      7.33677      1.38370      3.88840        -0.013476      0.001242      0.020354
     -1.20149      1.38813      5.94465         0.001546      0.000988      0.008341
     -1.08499      4.15214      5.89097         0.015119      0.001272      0.002030
      7.44578      4.15258      3.84721        -0.009963      0.001156      0.012525
      0.78846      1.38357      1.06416         0.014618      0.001104      0.000318
      5.57602      1.38625      8.66768        -0.009357      0.000018      0.012924
      5.46546      4.15261      8.70936        -0.019655     -0.000649      0.018474
      0.66749      4.15025      1.12071         0.001278     -0.000950      0.007868
      4.84615      2.75119      3.83998         0.003177     -0.000753      0.009700
      1.40495      2.77816      5.72393         0.012815     -0.000956     -0.013441
      3.26761      2.75606      0.90215         0.015996     -0.000012     -0.018739
      2.98624      2.78583      8.66817         0.003420      0.002620      0.005297
     -0.17966      0.02448      3.82186        -0.019084      0.000853      0.009164
      6.38422      5.51482      5.78788         0.004465     -0.002139      0.018694
      8.22957      0.02312      0.96894         0.002285      0.000581      0.017343
     -2.02074      5.51581      8.63250        -0.018951     -0.001777      0.003462
      2.48076      1.38095      3.68385        -0.004925      0.000127     -0.015777
      3.89393      1.38543      5.70324        -0.001595     -0.000452     -0.007440
      3.79397      4.15040      5.73886         0.002027     -0.001278     -0.013492
      2.34819      4.14753      3.75488        -0.006508     -0.000651     -0.011656
      5.65784      1.38433      0.91800         0.002448      0.000494     -0.014843
      0.47945      1.38479      8.57612        -0.000590      0.000438     -0.017653
      0.61629      4.15071      8.50704         0.002175      0.000300     -0.020290
      5.76120      4.15052      0.88354         0.003781     -0.000578     -0.012431
     -0.16298      2.75025      3.81745        -0.018453      0.000662      0.007502
      6.36187      2.79217      5.78734         0.005620      0.002046      0.019631
      8.23713      2.74541      0.97045         0.001022     -0.000042      0.017962
     -2.03048      2.78938      8.63384        -0.016910     -0.000549      0.001009
    total drift:                               -0.017285      0.007738      0.014113

  FREE ENERGIE OF THE ION-ELECTRON SYSTEM (eV)
  free  energy   TOTEN  =      -354.5121826298 eV

  energy  without entropy=     -354.5111114432  energy(sigma->0) =     -354.51164704

 d Force = 0.6323825E-03[ 0.607E-03, 0.657E-03]  d Energy = 0.6967686E-03-0.644E-04
 d Force = 0.3622720E+00[ 0.362E+00, 0.362E+00]  d Ewald  =-0.1629482E+01 0.199E+01

 Quasi-Newton relaxation of ions (Broydens 2nd method)
  g(Force)  = 0.113E-02   g(Stress)= 0.118E-03

 retain information from N=  1 steps
 eigenvalues of (default step * inverse Hessian matrix)
  average eigenvalue of G=   0.2848
 eigenvalue spectrum of G is  0.2848

volume of typ            1:    14.7 %

[...]

volume of typ            3:     9.8 %

total charge

# of ion       s       p       d       tot
    1        2.078   0.232   0.088   2.398
    2        2.076   0.235   0.088   2.398
    3        2.075   0.233   0.087   2.394
    4        2.076   0.234   0.088   2.398
    5        2.076   0.234   0.088   2.398
    6        2.077   0.239   0.089   2.405
    7        2.079   0.243   0.090   2.412
    8        2.076   0.238   0.089   2.402
    9        2.078   0.242   0.090   2.411
   10        2.078   0.232   0.088   2.397
   11        0.279   0.382   7.864   8.526
   12        0.277   0.376   7.872   8.526
   13        0.271   0.361   7.854   8.486
   14        0.286   0.396   7.846   8.528
   15        0.268   0.351   7.895   8.514
   16        0.279   0.384   7.865   8.528
   17        0.284   0.393   7.848   8.526
   18        0.284   0.393   7.847   8.524
   19        0.284   0.392   7.848   8.525
   20        0.286   0.396   7.847   8.529
   21        0.268   0.351   7.892   8.512
   22        0.277   0.376   7.871   8.524
   23        0.270   0.361   7.856   8.488
   24        0.285   0.395   7.847   8.526
   25        0.282   0.390   7.862   8.534
   26        0.281   0.385   7.863   8.529
   27        1.271   2.760   0.008   4.039
   28        1.263   2.775   0.007   4.046
   29        1.263   2.777   0.007   4.047
   30        1.271   2.759   0.007   4.038
   31        1.269   2.768   0.007   4.044
   32        1.256   2.794   0.006   4.056
   33        1.258   2.792   0.006   4.055
   34        1.270   2.765   0.007   4.043
   35        1.257   2.792   0.006   4.055
   36        1.269   2.766   0.007   4.043
   37        1.268   2.769   0.007   4.043
   38        1.256   2.795   0.006   4.056
   39        1.271   2.759   0.007   4.037
   40        1.264   2.775   0.007   4.045
   41        1.263   2.777   0.007   4.047
   42        1.271   2.760   0.008   4.039
   43        1.258   2.787   0.007   4.052
   44        1.260   2.790   0.006   4.056
   45        1.259   2.793   0.006   4.058
   46        1.257   2.789   0.006   4.053
   47        1.256   2.797   0.006   4.059
   48        1.282   2.726   0.008   4.016
   49        1.271   2.767   0.007   4.045
   50        1.259   2.790   0.006   4.055
   51        1.270   2.768   0.007   4.045
   52        1.259   2.791   0.006   4.056
   53        1.256   2.797   0.006   4.059
   54        1.282   2.725   0.008   4.015
   55        1.258   2.788   0.007   4.053
   56        1.259   2.792   0.007   4.057
   57        1.259   2.792   0.006   4.057
   58        1.258   2.788   0.006   4.053
tot          65.67   97.31  126.88  289.86

magnetization (x)

# of ion       s       p       d       tot
    1        0.000   0.000  -0.000   0.000
    2       -0.002  -0.002  -0.000  -0.005
    3       -0.002  -0.002  -0.000  -0.005
    4        0.004   0.004  -0.000   0.008
    5        0.004   0.005  -0.000   0.008
    6        0.003   0.005   0.000   0.008
    7       -0.002  -0.001  -0.000  -0.004
    8        0.004   0.005  -0.000   0.008
    9       -0.002  -0.001  -0.000  -0.003
   10       -0.001  -0.000  -0.000  -0.001
   11        0.002  -0.000   0.444   0.446
   12        0.002  -0.000   0.477   0.478
   13       -0.003   0.000  -0.557  -0.559
   14       -0.000   0.001   0.188   0.189
   15        0.005  -0.000   0.522   0.527
   16        0.001  -0.000   0.396   0.397
   17        0.001  -0.000   0.264   0.264
   18        0.001  -0.000   0.279   0.280
   19        0.001  -0.000   0.265   0.266
   20        0.000   0.000   0.202   0.202
   21        0.006  -0.000   0.555   0.561
   22        0.002  -0.000   0.504   0.506
   23       -0.002   0.000  -0.520  -0.522
   24       -0.001  -0.000  -0.264  -0.266
   25       -0.001  -0.000  -0.327  -0.329
   26        0.002  -0.000   0.399   0.401
   27        0.002   0.026   0.000   0.029
   28        0.004   0.031   0.000   0.035
   29        0.004   0.030   0.000   0.034
   30        0.002   0.018   0.000   0.020
   31        0.003   0.020   0.000   0.022
   32        0.005   0.082   0.000   0.087
   33        0.005   0.053   0.000   0.057
   34       -0.005  -0.073  -0.000  -0.079
   35        0.007   0.060   0.000   0.067
   36       -0.004  -0.075  -0.000  -0.080
   37        0.005   0.036   0.000   0.042
   38        0.006   0.082   0.000   0.088
   39       -0.004  -0.039  -0.000  -0.043
   40       -0.001  -0.001  -0.000  -0.001
   41        0.004   0.030   0.000   0.034
   42        0.002   0.021   0.000   0.023
   43       -0.001  -0.019  -0.000  -0.020
   44       -0.004  -0.045  -0.000  -0.049
   45        0.004   0.044   0.000   0.048
   46        0.006   0.048   0.000   0.053
   47        0.005   0.083   0.000   0.088
   48        0.002   0.031   0.000   0.033
   49       -0.006  -0.077  -0.000  -0.083
   50        0.005   0.064   0.000   0.069
   51       -0.005  -0.077  -0.000  -0.082
   52        0.007   0.069   0.000   0.076
   53        0.006   0.084   0.000   0.090
   54        0.004   0.045   0.000   0.049
   55        0.005   0.045   0.000   0.051
   56        0.004   0.041   0.000   0.044
   57        0.003   0.036   0.000   0.039
   58        0.005   0.043   0.000   0.049
tot           0.09    0.73    2.83    3.65