 vasp.5.4.4.18Apr17-6-g9f103f2a35 (build May 12 2020 05:39:39) gamma-only

 MD_VERSION_INFO: Compiled 2020-05-12T12:39:39-UTC in devlin.sd.materialsdesign.
 com:/home/medea2/data/build/wwolf/vasp-gpu5.4.4/13047/x86_64/src/src/build/gam
 from svn 13047

 executed on                        Lin64 date 2023.03.06  23:44:48

 INCAR:
 POTCAR:    PAW_PBE Li_sv 10Sep2004
 POTCAR:    PAW_PBE Ni 02Aug2007
 POTCAR:    PAW_PBE O 08Apr2002

 POTCAR:    PAW_PBE Li_sv 10Sep2004

 POTCAR:    PAW_PBE Ni 02Aug2007

 POTCAR:    PAW_PBE O 08Apr2002

 Optimization of the real space projectors (new method)

 maximal supplied QI-value         = 22.11
 optimisation between [QCUT,QGAM] = [ 11.28, 22.77] = [ 35.61,145.23] Ry
 Optimized for a Real-space Cutoff    1.10 Angstroem

   l    n(q)    QCUT    max X(q) W(low)/X(q) W(high)/X(q)  e(spline)
   0      7    11.276    10.506    0.54E-04    0.58E-04    0.16E-07
   0      7    11.276     8.367    0.11E-03    0.14E-03    0.35E-07
   1      7    11.276     8.983    0.23E-03    0.43E-03    0.86E-07
 Optimization of the real space projectors (new method)

[...]

   l    n(q)    QCUT    max X(q) W(low)/X(q) W(high)/X(q)  e(spline)
   2      9    11.376    60.317    0.17E-03    0.16E-04    0.16E-06
   2      9    11.376    55.921    0.17E-03    0.16E-04    0.17E-06
   0     10    11.376    51.690    0.45E-04    0.60E-04    0.21E-06
   0     10    11.376    30.015    0.37E-04    0.55E-04    0.19E-06
   1     10    11.376    18.849    0.83E-04    0.11E-03    0.92E-07
   1     10    11.376    14.624    0.69E-04    0.92E-04    0.82E-07
 Optimization of the real space projectors (new method)

 maximal supplied QI-value         = 24.76
 optimisation between [QCUT,QGAM] = [ 11.39, 22.77] = [ 36.31,145.25] Ry
 Optimized for a Real-space Cutoff    1.10 Angstroem

   l    n(q)    QCUT    max X(q) W(low)/X(q) W(high)/X(q)  e(spline)
   0      7    11.387    20.381    0.22E-03    0.48E-03    0.18E-06
   0      7    11.387    15.268    0.22E-03    0.52E-03    0.19E-06
   1      7    11.387     5.964    0.22E-03    0.73E-03    0.24E-06
   1      7    11.387     5.382    0.19E-03    0.60E-03    0.21E-06

  PAW_PBE Li_sv 10Sep2004               :
  PAW_PBE Ni 02Aug2007                  :
  PAW_PBE O 08Apr2002                   :

 POSCAR: ce16114_1
  positions in direct lattice
 exchange correlation table for  LEXCH =       14
   RHO(1)=    0.500       N(1)  =     2000
   RHO(2)=  100.500       N(2)  =     4000

 ion  position               nearest neighbor table
   1  0.248  0.254  0.480-  43 2.00  25 2.05  37 2.08  35 2.20  23 2.20   8 2.77
   2  0.753  0.251  0.482-  46 1.99  25 2.04  37 2.11  35 2.21  23 2.22  50 2.27  11 2.74
   3  0.011  0.747  0.270-  24 2.02  48 2.04  49 2.12  28 2.17  29 2.26  13 2.81  17 2.82
   4  0.231  0.249  0.020-  31 1.98  39 2.00  51 2.14  41 2.18  27 2.27  17 2.76   7 2.81
   5  0.734  0.749  0.983-  33 2.00  52 2.04  40 2.14  54 2.16  29 2.24  19 2.79  12 2.83
   6  0.519  0.246  0.766-  30 2.04  53 2.05  50 2.12  27 2.16  47 2.26  10 2.81  22 2.83
   7  0.001  0.998  0.999-  33 1.84  31 1.84  32 1.84  34 1.85  41 1.90  42 1.94  12 2.78  12 2.78
                            10 2.81   4 2.81   9 2.81   8 2.81  11 2.83
   8  0.250  0.002  0.250-  42 1.85  37 1.86  54 1.89  25 1.90  48 1.97  31 1.99   1 2.77  11 2.78
                            11 2.78   7 2.81  14 2.82  12 2.82  13 2.85
   9  0.250  0.995  0.749-  26 1.84  38 1.85  41 1.85  53 1.85  32 1.92  47 1.98  10 2.77  10 2.78
                            12 2.81   7 2.81  13 2.81  14 2.83
  10  0.751  0.997  0.750-  26 1.83  38 1.84  41 1.86  53 1.87  33 1.99  50 2.02   9 2.77   9 2.78
                             7 2.81   6 2.81  12 2.81  13 2.81  14 2.84
  11  0.750  0.005  0.252-  54 1.85  42 1.85  37 1.86  25 1.88  34 1.93  49 1.93   2 2.74   8 2.78
                             8 2.78  14 2.81  13 2.82  12 2.83   7 2.83
  12  0.501  0.001  0.999-  31 1.84  33 1.84  34 1.85  32 1.85  54 1.90  53 1.92   7 2.78   7 2.78
                            10 2.81   9 2.81   8 2.82   5 2.83  11 2.83
  13  0.999  0.002  0.502-  48 1.84  49 1.84  50 1.86  47 1.86  26 1.91  25 1.93  14 2.78  14 2.78
                             3 2.81  10 2.81   9 2.81  11 2.82   8 2.85
  14  0.499  0.994  0.497-  50 1.84  47 1.85  48 1.85  49 1.86  38 1.90  37 1.95  13 2.78  13 2.78
                            11 2.81   8 2.82   9 2.83  10 2.84
  15  0.000  0.507  0.504-  44 1.83  45 1.84  46 1.84  43 1.85  23 1.91  24 1.93  20 2.78  20 2.78
                            19 2.79  16 2.80  18 2.84  17 2.84
  16  0.250  0.503  0.750-  52 1.85  23 1.86  40 1.86  35 1.89  44 1.94  27 2.03  19 2.77  19 2.78
                            15 2.80  20 2.81  21 2.83  22 2.84
  17  0.251  0.498  0.249-  51 1.84  36 1.84  24 1.85  39 1.86  28 1.93  43 1.95   4 2.76  18 2.77
                            18 2.79  22 2.80   3 2.82  21 2.82  20 2.83  15 2.84
  18  0.749  0.494  0.248-  36 1.84  24 1.85  51 1.85  39 1.86  46 1.99  29 2.03  17 2.77  17 2.79
                            22 2.80  21 2.83  20 2.83  15 2.84
  19  0.751  0.500  0.748-  40 1.84  52 1.85  23 1.86  35 1.88  45 1.92  30 1.95  16 2.77  16 2.78
                            20 2.79   5 2.79  15 2.79  21 2.83  22 2.86
  20  0.501  0.505  0.503-  44 1.83  46 1.84  45 1.84  43 1.85  36 1.90  35 1.95  15 2.78  15 2.78
                            19 2.79  16 2.81  18 2.83  17 2.83
  21  1.000  0.496  0.998-  29 1.84  28 1.85  30 1.86  27 1.86  39 1.91  40 1.92  22 2.78  22 2.78
                            17 2.82  16 2.83  18 2.83  19 2.83
  22  0.500  0.502  0.002-  27 1.84  30 1.85  29 1.85  28 1.87  51 1.92  52 1.93  21 2.78  21 2.78
                            18 2.80  17 2.80   6 2.83  16 2.84  19 2.86
  23  0.004  0.403  0.633-  16 1.86  19 1.86  15 1.91   1 2.20   2 2.22
  24  0.997  0.597  0.359-  18 1.85  17 1.85  15 1.93   3 2.02
  25  0.000  0.106  0.371-  11 1.88   8 1.90  13 1.93   2 2.04   1 2.05
  26  0.998  0.902  0.634-  10 1.83   9 1.84  13 1.91
  27  0.257  0.396  0.890-  22 1.84  21 1.86  16 2.03   6 2.16   4 2.27
  28  0.243  0.599  0.115-  21 1.85  22 1.87  17 1.93   3 2.17
  29  0.756  0.603  0.109-  21 1.84  22 1.85  18 2.03   5 2.24   3 2.26
  30  0.744  0.400  0.886-  22 1.85  21 1.86  19 1.95   6 2.04
  31  0.250  0.102  0.107-  12 1.84   7 1.84   4 1.98   8 1.99
  32  0.251  0.899  0.887-   7 1.84  12 1.85   9 1.92
  33  0.750  0.897  0.892-   7 1.84  12 1.84  10 1.99   5 2.00
  34  0.752  0.099  0.112-  12 1.85   7 1.85  11 1.93
  35  0.499  0.396  0.633-  19 1.88  16 1.89  20 1.95   1 2.20   2 2.21
  36  0.503  0.594  0.361-  18 1.84  17 1.84  20 1.90
  37  0.497  0.102  0.368-   8 1.86  11 1.86  14 1.95   1 2.08   2 2.11
  38  0.502  0.901  0.635-  10 1.84   9 1.85  14 1.90
  39  0.002  0.399  0.133-  17 1.86  18 1.86  21 1.91   4 2.00
  40  0.995  0.598  0.866-  19 1.84  16 1.86  21 1.92   5 2.14
  41  0.003  0.095  0.864-   9 1.85  10 1.86   7 1.90   4 2.18
  42  0.998  0.903  0.140-  11 1.85   8 1.85   7 1.94
  43  0.250  0.404  0.392-  20 1.85  15 1.85  17 1.95   1 2.00
  44  0.252  0.604  0.614-  20 1.83  15 1.83  16 1.94
  45  0.749  0.603  0.617-  20 1.84  15 1.84  19 1.92
  46  0.752  0.402  0.397-  20 1.84  15 1.84   2 1.99  18 1.99
  47  0.257  0.099  0.612-  14 1.85  13 1.86   9 1.98   6 2.26
  48  0.242  0.900  0.387-  13 1.84  14 1.85   8 1.97   3 2.04
  49  0.757  0.901  0.384-  13 1.84  14 1.86  11 1.93   3 2.12
  50  0.741  0.102  0.609-  14 1.84  13 1.86  10 2.02   6 2.12   2 2.27
  51  0.497  0.399  0.133-  17 1.84  18 1.85  22 1.92   4 2.14
  52  0.503  0.598  0.863-  19 1.85  16 1.85  22 1.93   5 2.04
  53  0.497  0.098  0.863-   9 1.85  10 1.87  12 1.92   6 2.05
  54  0.507  0.904  0.134-  11 1.85   8 1.89  12 1.90   5 2.16

  LATTYP: Found a triclinic cell.
 ALAT       =     9.8152442347
 B/A-ratio  =     1.1501367598
 C/A-ratio  =     1.6287985353
 COS(alpha) =     0.0004615151
 COS(beta)  =     0.3944746759
 COS(gamma) =     0.8704251838

  Lattice vectors:

 A1 = (  -9.8149352362,   0.0095203385,  -0.0772985009)
 A2 = (  -9.8204668852,   5.5670454698,  -0.0713654689)
 A3 = (  -6.2415232542, -11.1189317989,  -9.6435825574)

Analysis of symmetry for initial positions (statically):
 Subroutine PRICEL returns:
 Original cell was already a primitive cell.

 Routine SETGRP: Setting up the symmetry group for a
 triclinic supercell.

 Subroutine GETGRP returns: Found  1 space group operations
 (whereof  1 operations were pure point group operations)
 out of a pool of  2 trial point group operations.

The static configuration has the point symmetry C_1 .

Analysis of symmetry for dynamics (positions and initial velocities):
 Subroutine PRICEL returns:
 Original cell was already a primitive cell.

[...]

The dynamic configuration has the point symmetry C_1 .

Analysis of structural, dynamic, and magnetic symmetry:
 Subroutine PRICEL returns:
 Original cell was already a primitive cell.

 Routine SETGRP: Setting up the symmetry group for a
 triclinic supercell.

 Subroutine GETGRP returns: Found  1 space group operations
 (whereof  1 operations were pure point group operations)
 out of a pool of  2 trial point group operations.

The magnetic configuration has the point symmetry C_1 .

 Subroutine INISYM returns: Found  1 space group operations
 (whereof  1 operations are pure point group operations),
 and found     1 'primitive' translations

 KPOINTS: Automatic mesh

Automatic generation of k-mesh.
Space group operators:
 irot       det(A)        alpha          n_x          n_y          n_z        tau_x        tau_y        tau_z
    1     1.000000     0.000000     1.000000     0.000000     0.000000     0.000000     0.000000     0.000000

 Subroutine IBZKPT returns following result:

 Found      1 irreducible k-points:

 Following reciprocal coordinates:
            Coordinates               Weight
  0.000000  0.000000  0.000000      1.000000

 Following cartesian coordinates:
            Coordinates               Weight
  0.000000  0.000000  0.000000      1.000000

 SYSTEM =  unknown system
 POSCAR =  ce16114_1

 Startparameter for this run:
   NWRITE =      1    write-flag & timer
   PREC   = accura    normal or accurate (medium, high low for compatibility)
   ISTART =      0    job   : 0-new  1-cont  2-samecut
   ICHARG =      2    charge: 1-file 2-atom 10-const
   ISPIN  =      2    spin polarized calculation?
   LNONCOLLINEAR =      F non collinear calculations
   LSORBIT =      F    spin-orbit coupling
   INIWAV =      1    electr: 0-lowe 1-rand  2-diag
   LASPH  =      F    aspherical Exc in radial PAW
   METAGGA=      F    non-selfconsistent MetaGGA calc.

 Electronic Relaxation 1
   ENCUT  =  500.0 eV  36.75 Ry    6.06 a.u.  10.13 18.59 17.90*2*pi/ulx,y,z
   ENINI  =  500.0     initial cutoff
   ENAUG  =  628.9 eV  augmentation charge cutoff
   NELM   =     80;   NELMIN=  2; NELMDL= -5     # of ELM steps
   EDIFF  = 0.1E-04   stopping-criterion for ELM
   LREAL  =      T    real-space projection
   NLSPLINE    = F    spline interpolate recip. space projectors
   LCOMPAT=      F    compatible to vasp.4.4
   GGA_COMPAT  = T    GGA compatible to vasp.4.4-vasp.4.6
   LMAXPAW     = -100 max onsite density
[...]
   0.762E+00 0.462E-01 -.407E+01   0.694E-02 0.435E+00 0.405E+01   -.751E+00 -.468E+00 0.259E-01   0.226E-03 -.297E-02 -.721E-02
   -.953E+00 -.424E+00 0.475E+02   0.782E+00 0.356E+00 -.476E+02   0.161E+00 0.447E-01 0.344E-01   0.104E-01 0.195E-01 0.363E-02
   0.334E+02 -.125E+02 0.419E+02   -.338E+02 0.126E+02 -.423E+02   0.434E+00 -.108E+00 0.436E+00   -.320E-02 -.118E-02 0.690E-02
   0.933E+01 0.125E+02 0.100E+03   -.906E+01 -.126E+02 -.102E+03   -.287E+00 0.133E+00 0.175E+01   0.130E-01 0.131E-01 -.231E-02
   -.145E+02 -.133E+02 0.660E+02   0.148E+02 0.136E+02 -.675E+02   -.333E+00 -.232E+00 0.149E+01   0.904E-02 -.658E-02 -.135E-02
   0.116E+02 0.121E+02 0.126E+01   -.122E+02 -.122E+02 -.131E+01   0.628E+00 0.814E-01 0.319E-01   0.330E-03 0.721E-02 0.741E-02
   0.714E+01 0.349E+00 0.187E+02   -.717E+01 -.344E+00 -.186E+02   0.265E-01 0.127E-01 -.147E+00   0.551E-02 -.994E-02 0.541E-02
   -.441E+02 0.571E+00 0.336E+02   0.448E+02 -.544E+00 -.344E+02   -.678E+00 -.235E-01 0.797E+00   -.201E-01 0.435E-02 -.862E-02
   0.109E+01 -.630E+00 0.139E+03   -.654E+00 0.615E+00 -.141E+03   -.422E+00 0.202E-01 0.183E+01   -.135E-01 -.810E-02 -.118E-01
   0.342E+02 -.496E+00 -.125E+03   -.350E+02 0.459E+00 0.127E+03   0.824E+00 0.428E-01 -.187E+01   -.864E-02 -.372E-02 -.411E-02
   -.202E+02 0.105E+02 -.847E+02   0.201E+02 -.106E+02 0.863E+02   0.115E+00 0.383E-01 -.168E+01   -.436E-02 -.685E-02 -.277E-02
   -.354E+02 -.127E+02 -.305E+02   0.361E+02 0.129E+02 0.307E+02   -.719E+00 -.135E+00 -.129E+00   -.242E-02 -.144E-02 -.824E-02
   -.872E+01 0.113E+02 0.168E+02   0.942E+01 -.113E+02 -.175E+02   -.696E+00 0.463E-01 0.669E+00   -.912E-03 -.281E-02 -.816E-02
   0.621E+01 -.114E+02 -.397E+02   -.628E+01 0.115E+02 0.406E+02   0.811E-01 -.702E-01 -.962E+00   -.672E-02 0.440E-02 -.569E-02
   0.254E+02 0.120E+01 -.111E+03   -.263E+02 -.117E+01 0.113E+03   0.985E+00 -.383E-01 -.204E+01   -.119E-01 0.357E-02 -.132E-02
   0.195E+02 -.106E+01 0.992E+01   -.196E+02 0.933E+00 -.102E+02   0.147E+00 0.128E+00 0.280E+00   0.129E-01 0.334E-02 0.102E-02
   -.235E+02 0.251E+01 -.811E+02   0.237E+02 -.254E+01 0.815E+02   -.172E+00 0.304E-01 -.382E+00   0.180E-01 -.226E-02 0.123E-02
   -.264E+02 -.290E+01 0.315E+03   0.275E+02 0.313E+01 -.334E+03   -.110E+01 -.238E+00 0.186E+02   0.587E-02 0.882E-02 -.117E-01
   -.329E+02 0.521E+01 -.371E+03   0.365E+02 -.586E+01 0.392E+03   -.352E+01 0.653E+00 -.206E+02   -.193E-01 0.356E-03 0.478E-02
   0.273E+02 -.245E+01 -.316E+03   -.279E+02 0.273E+01 0.332E+03   0.635E+00 -.295E+00 -.157E+02   -.599E-02 0.926E-02 -.106E-01
   -.687E+00 0.148E+01 0.408E+03   -.709E+00 -.163E+01 -.434E+03   0.139E+01 0.133E+00 0.265E+02   -.251E-02 0.214E-01 -.972E-03
   0.368E+02 0.279E+02 0.330E+03   -.408E+02 -.297E+02 -.348E+03   0.410E+01 0.180E+01 0.179E+02   -.131E-01 0.572E-02 -.208E-01
   -.930E+01 -.239E+02 -.392E+03   0.967E+01 0.253E+02 0.414E+03   -.392E+00 -.140E+01 -.219E+02   0.239E-01 0.545E-02 0.207E-01
   -.435E+02 0.226E+02 -.371E+03   0.472E+02 -.237E+02 0.390E+03   -.375E+01 0.111E+01 -.193E+02   0.238E-01 -.246E-02 0.221E-01
   0.375E+01 -.313E+02 0.347E+03   -.481E+01 0.335E+02 -.367E+03   0.106E+01 -.219E+01 0.194E+02   -.550E-02 -.379E-02 -.239E-01
   -.467E+02 -.654E+00 -.346E+03   0.519E+02 0.553E+00 0.366E+03   -.521E+01 0.114E+00 -.200E+02   -.668E-03 -.105E-01 -.198E-01
   0.195E+02 -.587E+00 0.415E+03   -.206E+02 0.986E+00 -.441E+03   0.105E+01 -.386E+00 0.257E+02   0.318E-02 -.102E-01 0.205E-01
   0.584E+02 -.127E+01 0.380E+03   -.638E+02 0.106E+01 -.401E+03   0.538E+01 0.206E+00 0.208E+02   0.198E-01 0.698E-02 0.106E-01
   -.624E+01 0.302E+00 -.382E+03   0.703E+01 -.429E-01 0.407E+03   -.779E+00 -.265E+00 -.248E+02   -.623E-02 0.777E-02 -.128E-01
   -.174E+01 0.405E+01 0.302E+03   0.660E+00 -.452E+01 -.318E+03   0.105E+01 0.479E+00 0.163E+02   0.176E-01 -.825E-02 -.153E-01
   -.439E+01 -.226E+01 -.401E+03   0.510E+01 0.261E+01 0.427E+03   -.669E+00 -.361E+00 -.260E+02   -.310E-01 0.111E-02 0.965E-02
   0.244E+02 0.278E+01 -.309E+03   -.237E+02 -.304E+01 0.325E+03   -.713E+00 0.270E+00 -.163E+02   0.296E-02 -.938E-02 -.130E-01
   0.110E+01 -.217E+01 0.419E+03   -.178E+01 0.233E+01 -.445E+03   0.682E+00 -.139E+00 0.264E+02   -.972E-02 -.218E-01 0.170E-02
   -.208E+02 0.327E+02 0.348E+03   0.215E+02 -.355E+02 -.369E+03   -.805E+00 0.272E+01 0.208E+02   0.298E-01 0.174E-02 -.739E-02
   0.804E+01 -.307E+02 -.377E+03   -.680E+01 0.330E+02 0.399E+03   -.122E+01 -.227E+01 -.222E+02   -.176E-01 0.105E-01 0.184E-01
   0.970E+01 0.275E+02 -.340E+03   -.105E+02 -.296E+02 0.361E+03   0.809E+00 0.203E+01 -.216E+02   0.224E-01 0.209E-01 -.126E-01
   0.157E+02 -.269E+02 0.369E+03   -.175E+02 0.285E+02 -.389E+03   0.183E+01 -.161E+01 0.204E+02   -.118E-01 0.778E-02 0.154E-01
   0.621E+02 -.458E+00 0.330E+03   -.670E+02 0.188E+00 -.349E+03   0.501E+01 0.276E+00 0.187E+02   -.273E-01 -.824E-02 -.216E-01
   -.172E+02 -.109E+01 -.428E+03   0.190E+02 0.130E+01 0.454E+03   -.186E+01 -.198E+00 -.264E+02   0.165E-01 -.900E-02 0.231E-01
   -.122E+02 0.221E+01 -.426E+03   0.143E+02 -.248E+01 0.452E+03   -.207E+01 0.267E+00 -.261E+02   0.732E-02 0.955E-02 0.260E-01
   0.683E+02 -.726E+00 0.333E+03   -.733E+02 0.107E+01 -.352E+03   0.504E+01 -.357E+00 0.188E+02   -.262E-01 0.846E-02 -.214E-01
   -.409E+02 0.243E+02 -.326E+03   0.442E+02 -.255E+02 0.345E+03   -.335E+01 0.116E+01 -.189E+02   0.853E-03 0.399E-02 -.158E-01
   0.877E+01 -.316E+02 0.393E+03   -.103E+02 0.338E+02 -.413E+03   0.154E+01 -.214E+01 0.205E+02   -.642E-02 0.487E-02 0.802E-02
   0.270E+01 0.295E+02 0.393E+03   -.408E+01 -.314E+02 -.415E+03   0.137E+01 0.196E+01 0.211E+02   -.654E-03 -.259E-02 0.206E-02
   -.441E+02 -.258E+02 -.322E+03   0.469E+02 0.272E+02 0.340E+03   -.282E+01 -.144E+01 -.179E+02   -.140E-01 -.217E-02 -.576E-02
   -.194E+02 -.306E+02 0.347E+03   0.189E+02 0.330E+02 -.370E+03   0.523E+00 -.241E+01 0.225E+02   0.214E-01 -.111E-03 -.467E-02
   0.111E+02 0.329E+02 -.381E+03   -.110E+02 -.353E+02 0.402E+03   -.942E-01 0.239E+01 -.209E+02   -.822E-02 -.968E-02 0.160E-01
   -.236E+02 -.236E+02 -.320E+03   0.261E+02 0.252E+02 0.338E+03   -.250E+01 -.152E+01 -.179E+02   0.996E-02 -.217E-01 -.724E-02
   -.103E+02 0.284E+02 0.377E+03   0.108E+02 -.303E+02 -.398E+03   -.500E+00 0.189E+01 0.217E+02   0.351E-03 -.109E-01 0.115E-01
   -.254E+00 -.374E+00 0.705E+00   -.234E-12 0.302E-12 0.000E+00   0.254E+00 0.361E+00 -.645E+00   -.121E-03 0.155E-01 -.632E-01

 POSITION                                       TOTAL-FORCE (eV/Angst)
      3.79368      1.38000      2.46069        -0.001616      0.004029      0.003737
      3.79590      4.17772      2.45579        -0.025782     -0.000736      0.001472
      0.01555      0.06249      7.21761         0.045137     -0.003475      0.002381
     -0.69742      1.25842      2.39717         0.009838     -0.020229     -0.001971
      6.92690      4.07587      7.26782        -0.025082      0.000280     -0.000479
      6.66526      2.89412      2.40961         0.017457      0.010598     -0.004414
      6.20984      0.01432      9.66585        -0.000292     -0.003494      0.003354
      2.44323      1.39089      0.03593        -0.007907      0.003280     -0.003906
      3.76130      1.39980      9.63139        -0.001189     -0.005212      0.005227
      3.76260      4.17916      9.65474         0.001701      0.008751      0.005066
      2.44808      4.16247      0.06459        -0.010683      0.001936     -0.005322
      9.80540      2.77452      0.05612         0.002987      0.008237      0.003970
      4.92244      5.54958      0.05487         0.005812      0.007924      0.010446
      1.30755      2.78969      9.61984         0.002351     -0.003357      0.007480
      3.11106      0.00433      4.89922        -0.000377      0.002244     -0.004685
      5.54886      1.38807      4.86671         0.002270     -0.000439     -0.003410
      0.65370      1.39567      4.81406        -0.000867     -0.002919     -0.002554
      0.64814      4.15606      4.78338        -0.001347     -0.002760     -0.002051
      5.54192      4.16666      4.83738         0.002806     -0.003431     -0.004438
      3.11214      2.77836      4.88706        -0.000490     -0.006665     -0.005598
      8.00969      5.54805      4.82201         0.001725     -0.000047     -0.000131
     -1.78743      2.77562      4.83839         0.001520     -0.008534     -0.000209
      4.73296      0.02164      3.89690        -0.004903     -0.001314     -0.010987
      1.39615      5.53540      5.76943         0.003708     -0.002421     -0.005842
      3.24829      0.01330      1.02029         0.005313      0.003272      0.009197
      2.96877      5.55450      8.73763        -0.006101      0.005470      0.007936
      7.30640      1.42822      3.84928        -0.003839     -0.001715     -0.005879
     -1.05428      1.34932      5.78025         0.004005     -0.002173     -0.001073
     -1.09155      4.19960      5.80736         0.007649     -0.002905     -0.002466
      7.27982      4.12786      3.87680        -0.004127     -0.000344     -0.008050
      0.69437      1.38162      0.98376         0.005957      0.003000      0.007832
      5.46323      1.40840      8.72143        -0.005213      0.002989      0.003837
      5.50379      4.16885      8.70520        -0.002502      0.003189      0.005022
      0.73399      4.16934      0.96679         0.004408      0.002360      0.006436
      4.77573      2.76750      3.86153        -0.009459     -0.003106     -0.009119
      1.41689      2.79106      5.74440         0.002515     -0.002719     -0.004894
      3.24863      2.76395      0.99878         0.002595      0.001813      0.008491
      2.98130      2.80146      8.72090        -0.003815      0.002223      0.002784
     -0.13617      0.02124      3.85533        -0.004513     -0.003995     -0.003348
      6.34594      5.52554      5.77748         0.000168     -0.002357     -0.008919
      8.14928      0.01960      0.94594         0.004651      0.004102      0.006869
     -1.89993      5.54110      8.71990        -0.004822      0.005347      0.007558
      2.40785      1.39000      3.90000        -0.005012     -0.001605     -0.008571
      3.85112      1.39555      5.83791         0.004356     -0.002106     -0.005107
      3.85677      4.15920      5.83665         0.005986     -0.002379     -0.003844
      2.42169      4.16784      3.89574        -0.010178     -0.001943     -0.007881
      5.64905      1.43095      0.99734         0.003993      0.003450      0.004662
      0.56269      1.36403      8.70216        -0.005128      0.002055      0.005003
      0.53766      4.21792      8.71611        -0.004439      0.003288      0.001248
      5.62658      4.11870      1.01726         0.003645      0.002105      0.006659
     -0.14634      2.75439      3.86545        -0.003313     -0.002075     -0.005586
      6.34227      2.79468      5.78768        -0.002127     -0.002487     -0.009299
      8.11750      2.75355      0.98328         0.008020      0.002999      0.007832
     -1.94131      2.81433      8.74021        -0.005449      0.002001      0.005534
    total drift:                               -0.000688      0.002603     -0.003369

  FREE ENERGIE OF THE ION-ELECTRON SYSTEM (eV)
  free  energy   TOTEN  =      -334.7184572055 eV

  energy  without entropy=     -334.7172318422  energy(sigma->0) =     -334.71784452

 d Force = 0.5815009E-04[ 0.423E-04, 0.740E-04]  d Energy = 0.7573003E-04-0.176E-04
 d Force = 0.2469373E+00[ 0.247E+00, 0.247E+00]  d Ewald  = 0.2407939E+00 0.614E-02

 Quasi-Newton relaxation of ions (Broydens 2nd method)
  g(Force)  = 0.382E-03   g(Stress)= 0.740E-03

 retain information from N=  1 steps
 eigenvalues of (default step * inverse Hessian matrix)
  average eigenvalue of G=   0.1174
 eigenvalue spectrum of G is  0.1174

volume of typ            1:     8.9 %

[...]

volume of typ            3:     9.9 %

total charge

# of ion       s       p       d       tot
    1        2.077   0.230   0.086   2.393
    2        2.075   0.229   0.085   2.389
    3        2.066   0.203   0.077   2.346
    4        2.073   0.226   0.086   2.384
    5        2.065   0.204   0.076   2.345
    6        2.072   0.215   0.082   2.369
    7        0.298   0.424   7.842   8.564
    8        0.274   0.371   7.853   8.498
    9        0.291   0.404   7.847   8.541
   10        0.280   0.383   7.850   8.512
   11        0.287   0.395   7.854   8.536
   12        0.297   0.424   7.841   8.562
   13        0.293   0.412   7.847   8.553
   14        0.292   0.410   7.842   8.544
   15        0.297   0.425   7.839   8.561
   16        0.275   0.371   7.848   8.494
   17        0.288   0.399   7.855   8.541
   18        0.278   0.380   7.845   8.503
   19        0.284   0.388   7.861   8.533
   20        0.297   0.422   7.841   8.561
   21        0.295   0.416   7.841   8.552
   22        0.295   0.417   7.843   8.554
   23        1.263   2.779   0.007   4.049
   24        1.270   2.767   0.007   4.044
   25        1.260   2.792   0.007   4.058
   26        1.284   2.727   0.008   4.019
   27        1.268   2.768   0.007   4.042
   28        1.275   2.749   0.007   4.031
   29        1.270   2.760   0.007   4.037
   30        1.270   2.766   0.007   4.043
   31        1.271   2.768   0.007   4.046
   32        1.284   2.725   0.008   4.017
   33        1.273   2.759   0.007   4.040
   34        1.283   2.731   0.008   4.022
   35        1.259   2.788   0.006   4.054
   36        1.283   2.728   0.008   4.019
   37        1.260   2.791   0.007   4.058
   38        1.284   2.724   0.008   4.017
   39        1.268   2.772   0.008   4.048
   40        1.273   2.756   0.008   4.036
   41        1.271   2.762   0.008   4.041
   42        1.271   2.760   0.007   4.038
   43        1.270   2.770   0.007   4.048
   44        1.286   2.720   0.008   4.013
   45        1.285   2.724   0.008   4.017
   46        1.271   2.768   0.007   4.046
   47        1.270   2.763   0.007   4.040
   48        1.272   2.758   0.007   4.038
   49        1.272   2.757   0.007   4.037
   50        1.268   2.769   0.007   4.043
   51        1.271   2.761   0.008   4.040
   52        1.271   2.762   0.007   4.040
   53        1.264   2.784   0.007   4.055
   54        1.274   2.751   0.008   4.032
tot          57.76   96.01  126.28  280.04

magnetization (x)

# of ion       s       p       d       tot
    1        0.001   0.001   0.000   0.002
    2        0.004   0.005   0.000   0.010
    3       -0.000  -0.000  -0.000  -0.000
    4        0.003   0.004   0.000   0.008
    5        0.004   0.006   0.000   0.009
    6        0.000  -0.000  -0.000  -0.000
    7        0.000  -0.000   0.020   0.020
    8        0.000   0.000   0.336   0.337
    9       -0.001  -0.000  -0.224  -0.225
   10        0.001   0.000   0.283   0.285
   11       -0.000   0.000  -0.249  -0.249
   12        0.000  -0.000   0.028   0.028
   13       -0.000  -0.000   0.046   0.045
   14       -0.000  -0.000   0.038   0.038
   15       -0.001   0.000  -0.054  -0.055
   16        0.000   0.000   0.323   0.323
   17        0.001  -0.000   0.331   0.332
   18        0.002  -0.000   0.391   0.393
   19        0.000  -0.000   0.328   0.327
   20       -0.001   0.000  -0.052  -0.052
   21       -0.001   0.000  -0.056  -0.056
   22       -0.001   0.000  -0.059  -0.059
   23        0.002  -0.001   0.000   0.001
   24        0.001   0.012   0.000   0.013
   25        0.000   0.006   0.000   0.007
   26        0.000   0.004   0.000   0.004
   27        0.002   0.018   0.000   0.020
   28        0.003   0.036   0.000   0.038
   29        0.003   0.036   0.000   0.040
   30        0.002   0.030   0.000   0.032
   31        0.003   0.031   0.000   0.034
   32       -0.002  -0.023  -0.000  -0.025
   33        0.003   0.029   0.000   0.032
   34       -0.002  -0.030  -0.000  -0.032
   35        0.002   0.002   0.000   0.003
   36        0.001   0.008   0.000   0.009
   37        0.000   0.004   0.000   0.004
   38        0.000   0.003   0.000   0.003
   39        0.001   0.001   0.000   0.002
   40        0.001  -0.000   0.000   0.001
   41        0.000   0.002   0.000   0.002
   42       -0.000  -0.001   0.000  -0.001
   43        0.003   0.022   0.000   0.025
   44        0.003   0.046   0.000   0.049
   45        0.002   0.043   0.000   0.046
   46        0.004   0.029   0.000   0.033
   47       -0.002  -0.014  -0.000  -0.016
   48        0.004   0.052   0.000   0.056
   49       -0.002  -0.026  -0.000  -0.028
   50        0.003   0.023   0.000   0.026
   51        0.001  -0.001   0.000  -0.001
   52        0.002   0.006   0.000   0.007
   53       -0.000   0.001   0.000   0.001
   54       -0.000   0.001   0.000   0.001
tot           0.05    0.36    1.43    1.85