 vasp.5.4.4.18Apr17-6-g9f103f2a35 (build May 12 2020 05:39:39) gamma-only

 MD_VERSION_INFO: Compiled 2020-05-12T12:39:39-UTC in devlin.sd.materialsdesign.
 com:/home/medea2/data/build/wwolf/vasp-gpu5.4.4/13047/x86_64/src/src/build/gam
 from svn 13047

 executed on                        Lin64 date 2023.03.06  23:45:58

 INCAR:
 POTCAR:    PAW_PBE Li_sv 10Sep2004
 POTCAR:    PAW_PBE Ni 02Aug2007
 POTCAR:    PAW_PBE O 08Apr2002

 POTCAR:    PAW_PBE Li_sv 10Sep2004

 POTCAR:    PAW_PBE Ni 02Aug2007

 POTCAR:    PAW_PBE O 08Apr2002

 Optimization of the real space projectors (new method)

 maximal supplied QI-value         = 22.11
 optimisation between [QCUT,QGAM] = [ 11.28, 22.77] = [ 35.61,145.23] Ry
 Optimized for a Real-space Cutoff    1.10 Angstroem

   l    n(q)    QCUT    max X(q) W(low)/X(q) W(high)/X(q)  e(spline)
   0      7    11.276    10.506    0.54E-04    0.58E-04    0.16E-07
   0      7    11.276     8.367    0.11E-03    0.14E-03    0.35E-07
   1      7    11.276     8.983    0.23E-03    0.43E-03    0.86E-07
 Optimization of the real space projectors (new method)

[...]

   l    n(q)    QCUT    max X(q) W(low)/X(q) W(high)/X(q)  e(spline)
   2      9    11.376    60.317    0.17E-03    0.16E-04    0.16E-06
   2      9    11.376    55.921    0.17E-03    0.16E-04    0.17E-06
   0     10    11.376    51.690    0.45E-04    0.60E-04    0.21E-06
   0     10    11.376    30.015    0.37E-04    0.55E-04    0.19E-06
   1     10    11.376    18.849    0.83E-04    0.11E-03    0.92E-07
   1     10    11.376    14.624    0.69E-04    0.92E-04    0.82E-07
 Optimization of the real space projectors (new method)

 maximal supplied QI-value         = 24.76
 optimisation between [QCUT,QGAM] = [ 11.39, 22.77] = [ 36.31,145.25] Ry
 Optimized for a Real-space Cutoff    1.10 Angstroem

   l    n(q)    QCUT    max X(q) W(low)/X(q) W(high)/X(q)  e(spline)
   0      7    11.387    20.381    0.22E-03    0.48E-03    0.18E-06
   0      7    11.387    15.268    0.22E-03    0.52E-03    0.19E-06
   1      7    11.387     5.964    0.22E-03    0.73E-03    0.24E-06
   1      7    11.387     5.382    0.19E-03    0.60E-03    0.21E-06

  PAW_PBE Li_sv 10Sep2004               :
  PAW_PBE Ni 02Aug2007                  :
  PAW_PBE O 08Apr2002                   :

 POSCAR: ce13595_1
  positions in direct lattice
 exchange correlation table for  LEXCH =       14
   RHO(1)=    0.500       N(1)  =     2000
   RHO(2)=  100.500       N(2)  =     4000

 ion  position               nearest neighbor table
   1  0.234  0.247  0.520-  51 2.01  27 2.04  39 2.17  29 2.17  41 2.26  20 2.78  17 2.83
   2  0.246  0.750  0.511-  48 2.02  30 2.06  42 2.08  28 2.15  52 2.15  40 2.18  13 2.79
   3  0.754  0.749  0.510-  49 2.03  30 2.07  42 2.08  28 2.14  53 2.17  40 2.17  14 2.80  19 2.84

   4  0.520  0.249  0.261-  50 2.06  41 2.06  38 2.12  47 2.18  55 2.19  35 2.27  15 2.79  24 2.82

   5  0.531  0.749  0.765-  56 2.00  37 2.01  49 2.09  36 2.19  42 2.19  23 2.78  16 2.79
   6  0.994  0.755  0.239-  46 2.05  33 2.07  32 2.08  53 2.10  52 2.16  28 2.27  25 2.79  15 2.81

   7  0.249  0.250  0.986-  31 2.03  45 2.08  57 2.10  43 2.19  55 2.20  35 2.21  13 2.80
   8  0.222  0.750  0.983-  36 2.01  44 2.02  46 2.11  56 2.17  32 2.23  11 2.77  20 2.78
   9  0.753  0.251  0.984-  34 2.02  45 2.08  57 2.10  43 2.20  55 2.21  38 2.24  14 2.80
  10  0.503  0.753  0.241-  58 2.05  33 2.07  32 2.09  53 2.11  52 2.14  40 2.18  26 2.78
  11  0.001  1.000  0.999-  37 1.85  35 1.86  38 1.87  36 1.87  45 1.96  46 1.98   8 2.77  16 2.77
                            16 2.79  12 2.84  13 2.85  14 2.85  15 2.85
  12  0.249  0.001  0.250-  29 1.84  41 1.84  58 1.85  46 1.85  35 2.05  52 2.09  15 2.77  15 2.79
                            11 2.84  18 2.86  17 2.86  16 2.86
  13  0.251  0.999  0.749-  45 1.87  57 1.88  30 1.88  42 1.88  51 1.98  36 2.02  14 2.78  14 2.79
                             2 2.79   7 2.80  18 2.84  17 2.85  16 2.85  11 2.85
  14  0.751  0.999  0.749-  57 1.87  30 1.87  45 1.88  42 1.89  54 1.91  37 1.94  13 2.78  13 2.79
                             9 2.80   3 2.80  17 2.83  18 2.84  11 2.85  16 2.85
  15  0.750  0.001  0.250-  29 1.86  58 1.86  41 1.87  46 1.87  38 2.03  53 2.06  12 2.77  12 2.79
                             4 2.79   6 2.81  16 2.84  17 2.85  11 2.85  18 2.85
  16  0.502  1.000  0.999-  38 1.84  37 1.84  35 1.85  36 1.85  57 1.99  58 2.01  11 2.77   5 2.79
                            11 2.79  15 2.84  13 2.85  14 2.85  12 2.86
  17  0.998  0.994  0.498-  54 1.84  51 1.85  52 1.87  53 1.87  29 1.94  30 1.95  18 2.77  18 2.80
                            14 2.83   1 2.83  15 2.85  13 2.85  12 2.86
  18  0.501  0.995  0.498-  54 1.84  51 1.84  53 1.87  52 1.88  41 2.02  42 2.05  17 2.77  17 2.80
                            14 2.84  13 2.84  15 2.85  12 2.86
  19  0.001  0.501  0.500-  48 1.86  50 1.86  47 1.86  49 1.86  27 1.93  28 1.99  24 2.78  24 2.78
                            20 2.84   3 2.84  21 2.84  22 2.84  23 2.86
  20  0.248  0.500  0.749-  39 1.84  27 1.84  44 1.85  56 1.85  31 2.03  48 2.05   1 2.78  23 2.78
                             8 2.78  23 2.79  19 2.84  24 2.85  25 2.86  26 2.87
  21  0.250  0.500  0.251-  55 1.87  43 1.87  28 1.87  40 1.89  47 2.01  32 2.05  22 2.78  22 2.79
                            26 2.84  19 2.84  24 2.84  25 2.85
  22  0.751  0.501  0.251-  43 1.87  40 1.88  55 1.88  28 1.89  50 1.93  33 1.94  21 2.78  21 2.79
                            25 2.84  19 2.84  26 2.84  24 2.85
  23  0.749  0.498  0.750-  39 1.85  44 1.86  27 1.87  56 1.88  34 2.02  49 2.05   5 2.78  20 2.78
                            20 2.79  24 2.85  25 2.85  26 2.86  19 2.86
  24  0.501  0.501  0.500-  47 1.84  48 1.84  50 1.84  49 1.85  39 1.97  40 2.05  19 2.78  19 2.78
                             4 2.82  21 2.84  22 2.85  23 2.85  20 2.85
  25  0.998  0.505  0.003-  31 1.84  34 1.85  33 1.87  32 1.88  44 1.93  43 1.96  26 2.77  26 2.79
                             6 2.79  22 2.84  23 2.85  21 2.85  20 2.86
  26  0.499  0.507  0.004-  34 1.84  31 1.85  33 1.86  32 1.87  56 2.02  55 2.08  25 2.77  10 2.78
                            25 2.79  21 2.84  22 2.84  23 2.86  20 2.87
  27  0.002  0.402  0.633-  20 1.84  23 1.87  19 1.93   1 2.04
  28  0.002  0.607  0.366-  21 1.87  22 1.89  19 1.99   3 2.14   2 2.15   6 2.27
  29  0.001  0.097  0.366-  12 1.84  15 1.86  17 1.94   1 2.17
  30  1.000  0.894  0.634-  14 1.87  13 1.88  17 1.95   2 2.06   3 2.07
  31  0.250  0.402  0.896-  25 1.84  26 1.85   7 2.03  20 2.03
  32  0.248  0.613  0.115-  26 1.87  25 1.88  21 2.05   6 2.08  10 2.09   8 2.23
  33  0.749  0.605  0.120-  26 1.86  25 1.87  22 1.94  10 2.07   6 2.07
  34  0.748  0.401  0.895-  26 1.84  25 1.85  23 2.02   9 2.02
  35  0.252  0.105  0.107-  16 1.85  11 1.86  12 2.05   7 2.21   4 2.27
  36  0.255  0.895  0.889-  16 1.85  11 1.87   8 2.01  13 2.02   5 2.19
  37  0.751  0.902  0.885-  16 1.84  11 1.85  14 1.94   5 2.01
  38  0.748  0.105  0.109-  16 1.84  11 1.87  15 2.03   4 2.12   9 2.24
  39  0.497  0.401  0.637-  20 1.84  23 1.85  24 1.97   1 2.17
  40  0.501  0.610  0.362-  22 1.88  21 1.89  24 2.05   3 2.17  10 2.18   2 2.18
  41  0.496  0.103  0.362-  12 1.84  15 1.87  18 2.02   4 2.06   1 2.26
  42  0.501  0.887  0.639-  13 1.88  14 1.89  18 2.05   3 2.08   2 2.08   5 2.19
  43  0.000  0.399  0.134-  22 1.87  21 1.87  25 1.96   7 2.19   9 2.20
  44  0.999  0.598  0.864-  20 1.85  23 1.86  25 1.93   8 2.02
  45  0.003  0.102  0.865-  13 1.87  14 1.88  11 1.96   7 2.08   9 2.08
  46  0.003  0.898  0.137-  12 1.85  15 1.87  11 1.98   6 2.05   8 2.11
  47  0.254  0.398  0.391-  24 1.84  19 1.86  21 2.01   4 2.18
  48  0.252  0.606  0.608-  24 1.84  19 1.86   2 2.02  20 2.05
  49  0.749  0.606  0.610-  24 1.85  19 1.86   3 2.03  23 2.05   5 2.09
  50  0.749  0.403  0.386-  24 1.84  19 1.86  22 1.93   4 2.06
  51  0.250  0.096  0.608-  18 1.84  17 1.85  13 1.98   1 2.01
  52  0.249  0.887  0.388-  17 1.87  18 1.88  12 2.09  10 2.14   2 2.15   6 2.16
  53  0.749  0.887  0.386-  18 1.87  17 1.87  15 2.06   6 2.10  10 2.11   3 2.17
  54  0.749  0.092  0.612-  18 1.84  17 1.84  14 1.91
  55  0.499  0.392  0.140-  21 1.87  22 1.88  26 2.08   4 2.19   7 2.20   9 2.21
  56  0.496  0.606  0.859-  20 1.85  23 1.88   5 2.00  26 2.02   8 2.17
  57  0.501  0.104  0.862-  14 1.87  13 1.88  16 1.99   7 2.10   9 2.10
  58  0.498  0.898  0.140-  12 1.85  15 1.86  16 2.01  10 2.05

  LATTYP: Found a triclinic cell.
 ALAT       =    11.6038979781
 B/A-ratio  =     0.4794341202
 C/A-ratio  =     0.8565894733
 COS(alpha) =     0.0012429755
 COS(beta)  =     0.3073622346
 COS(gamma) =     0.4826482036

  Lattice vectors:

 A1 = (  -3.6213010085,   5.5819443210,   9.5067620612)
 A2 = (  -0.0034166701,   5.5632952486,   0.0096215293)
 A3 = (  -9.9395885491,   0.0063558139,  -0.0608526408)

Analysis of symmetry for initial positions (statically):
 Subroutine PRICEL returns:
 Original cell was already a primitive cell.

 Routine SETGRP: Setting up the symmetry group for a
 triclinic supercell.

 Subroutine GETGRP returns: Found  1 space group operations
 (whereof  1 operations were pure point group operations)
 out of a pool of  2 trial point group operations.

The static configuration has the point symmetry C_1 .

Analysis of symmetry for dynamics (positions and initial velocities):
 Subroutine PRICEL returns:
 Original cell was already a primitive cell.

[...]

The dynamic configuration has the point symmetry C_1 .

Analysis of structural, dynamic, and magnetic symmetry:
 Subroutine PRICEL returns:
 Original cell was already a primitive cell.

 Routine SETGRP: Setting up the symmetry group for a
 triclinic supercell.

 Subroutine GETGRP returns: Found  1 space group operations
 (whereof  1 operations were pure point group operations)
 out of a pool of  2 trial point group operations.

The magnetic configuration has the point symmetry C_1 .

 Subroutine INISYM returns: Found  1 space group operations
 (whereof  1 operations are pure point group operations),
 and found     1 'primitive' translations

 KPOINTS: Automatic mesh

Automatic generation of k-mesh.
Space group operators:
 irot       det(A)        alpha          n_x          n_y          n_z        tau_x        tau_y        tau_z
    1     1.000000     0.000000     1.000000     0.000000     0.000000     0.000000     0.000000     0.000000

 Subroutine IBZKPT returns following result:

 Found      1 irreducible k-points:

 Following reciprocal coordinates:
            Coordinates               Weight
  0.000000  0.000000  0.000000      1.000000

 Following cartesian coordinates:
            Coordinates               Weight
  0.000000  0.000000  0.000000      1.000000

 SYSTEM =  unknown system
 POSCAR =  ce13595_1

 Startparameter for this run:
   NWRITE =      1    write-flag & timer
   PREC   = accura    normal or accurate (medium, high low for compatibility)
   ISTART =      0    job   : 0-new  1-cont  2-samecut
   ICHARG =      2    charge: 1-file 2-atom 10-const
   ISPIN  =      2    spin polarized calculation?
   LNONCOLLINEAR =      F non collinear calculations
   LSORBIT =      F    spin-orbit coupling
[...]
   0.546E+01 -.142E+02 -.883E+02   -.583E+01 0.144E+02 0.891E+02   0.370E+00 -.247E+00 -.882E+00   0.252E-02 0.454E-02 0.746E-02
   -.215E+02 -.136E+02 0.330E+01   0.218E+02 0.136E+02 -.338E+01   -.234E+00 -.330E-01 0.930E-01   -.214E-01 0.109E-01 0.124E-02
   0.132E+01 0.150E+02 -.122E+03   -.126E+01 -.151E+02 0.123E+03   -.873E-01 0.872E-01 -.133E+01   0.204E-01 -.862E-02 -.386E-02
   -.178E+01 -.132E+02 -.124E+03   0.181E+01 0.133E+02 0.125E+03   -.572E-01 -.802E-01 -.150E+01   0.201E-01 0.105E-01 -.330E-02
   -.410E+02 0.156E+02 0.890E+02   0.416E+02 -.159E+02 -.901E+02   -.625E+00 0.280E+00 0.108E+01   0.199E-01 -.286E-03 0.188E-02
   -.203E+02 0.103E+02 0.846E+02   0.208E+02 -.104E+02 -.851E+02   -.480E+00 0.824E-01 0.558E+00   -.248E-01 -.170E-02 -.146E-02
   0.182E+01 0.115E+02 0.836E+02   -.142E+01 -.116E+02 -.845E+02   -.426E+00 0.152E+00 0.931E+00   0.241E-01 -.134E-02 0.241E-02
   -.193E+01 -.133E+02 0.844E+02   0.204E+01 0.135E+02 -.851E+02   -.130E+00 -.155E+00 0.727E+00   0.254E-01 -.984E-03 0.153E-02
   -.186E+02 -.104E+02 0.104E+03   0.192E+02 0.106E+02 -.105E+03   -.579E+00 -.231E+00 0.106E+01   -.229E-01 0.676E-03 -.415E-02
   -.435E+02 -.155E+02 0.813E+02   0.442E+02 0.157E+02 -.822E+02   -.688E+00 -.236E+00 0.829E+00   0.200E-01 -.551E-02 0.148E-02
   0.612E+02 0.133E+02 0.343E+02   -.620E+02 -.135E+02 -.346E+02   0.851E+00 0.131E+00 0.307E+00   -.175E-01 0.323E-02 -.151E-03
   0.599E+02 -.118E+02 0.295E+02   -.610E+02 0.119E+02 -.297E+02   0.109E+01 -.369E-01 0.250E+00   -.170E-01 -.226E-02 -.909E-03
   -.217E+02 0.352E+02 0.369E+03   0.208E+02 -.378E+02 -.390E+03   0.857E+00 0.259E+01 0.205E+02   -.471E-02 0.102E-01 0.161E-01
   -.171E+02 -.430E+01 -.257E+03   0.189E+02 0.417E+01 0.270E+03   -.177E+01 0.136E+00 -.134E+02   0.176E-01 -.375E-02 -.829E-03
   -.918E+01 0.310E+02 -.378E+03   0.101E+02 -.331E+02 0.400E+03   -.935E+00 0.209E+01 -.214E+02   0.641E-02 0.736E-02 0.890E-02
   -.498E+02 -.543E+01 0.269E+03   0.529E+02 0.595E+01 -.284E+03   -.306E+01 -.491E+00 0.148E+02   0.101E-01 -.283E-01 0.546E-02
   0.788E+02 -.921E+01 0.370E+03   -.846E+02 0.981E+01 -.389E+03   0.579E+01 -.605E+00 0.190E+02   -.228E-01 0.191E-03 -.475E-02
   -.857E+01 -.497E+01 -.271E+03   0.122E+02 0.489E+01 0.284E+03   -.361E+01 0.805E-01 -.130E+02   0.435E-03 0.433E-03 0.547E-02
   0.366E+02 0.614E+01 -.291E+03   -.368E+02 -.620E+01 0.306E+03   0.230E+00 0.665E-01 -.152E+02   0.606E-02 -.246E-03 0.384E-02
   0.979E+02 0.498E+01 0.362E+03   -.105E+03 -.507E+01 -.381E+03   0.730E+01 0.936E-01 0.190E+02   -.148E-01 -.630E-03 -.113E-01
   -.478E+02 0.327E+02 -.343E+03   0.524E+02 -.346E+02 0.361E+03   -.458E+01 0.191E+01 -.178E+02   -.924E-03 -.387E-02 -.108E-03
   0.352E+02 0.289E+02 0.316E+03   -.409E+02 -.308E+02 -.331E+03   0.578E+01 0.189E+01 0.156E+02   -.386E-02 -.306E-02 -.924E-02
   -.110E+02 -.366E+02 0.332E+03   0.108E+02 0.394E+02 -.351E+03   0.188E+00 -.284E+01 0.194E+02   -.279E-01 0.278E-02 0.517E-02
   -.528E+02 -.336E+02 -.331E+03   0.572E+02 0.359E+02 0.348E+03   -.439E+01 -.230E+01 -.165E+02   -.106E-01 0.306E-02 0.116E-03
   -.397E+02 -.341E+02 0.381E+03   0.396E+02 0.364E+02 -.402E+03   0.888E-01 -.227E+01 0.213E+02   -.539E-02 -.986E-02 0.157E-01
   0.293E+01 0.453E+01 -.267E+03   -.263E+01 -.436E+01 0.281E+03   -.316E+00 -.184E+00 -.141E+02   0.172E-01 0.562E-02 -.144E-02
   -.564E+02 -.262E+02 -.353E+03   0.622E+02 0.279E+02 0.370E+03   -.585E+01 -.170E+01 -.174E+02   0.647E-02 -.853E-02 0.968E-02
   -.477E+01 0.332E+01 0.254E+03   0.281E+01 -.340E+01 -.266E+03   0.196E+01 0.576E-01 0.122E+02   0.781E-02 0.274E-01 0.330E-02
   -.154E+02 -.307E+01 0.346E+03   0.167E+02 0.254E+01 -.363E+03   -.126E+01 0.538E+00 0.167E+02   0.951E-02 -.493E-02 -.524E-02
   0.334E+02 0.380E+02 -.299E+03   -.345E+02 -.411E+02 0.318E+03   0.112E+01 0.306E+01 -.190E+02   -.236E-01 0.103E-01 -.721E-02
   0.377E+02 0.699E+00 -.338E+03   -.383E+02 -.865E+00 0.353E+03   0.593E+00 0.195E+00 -.146E+02   -.965E-02 -.287E-01 -.107E-01
   0.464E+02 0.317E+02 0.281E+03   -.502E+02 -.341E+02 -.297E+03   0.380E+01 0.234E+01 0.160E+02   -.567E-02 0.751E-02 -.429E-02
   0.241E+02 0.329E+02 0.366E+03   -.288E+02 -.350E+02 -.384E+03   0.464E+01 0.213E+01 0.181E+02   0.162E-01 0.118E-02 0.158E-01
   -.717E+02 0.321E+02 -.297E+03   0.770E+02 -.340E+02 0.314E+03   -.530E+01 0.190E+01 -.169E+02   0.425E-02 0.122E-02 -.143E-01
   -.855E+02 -.336E+02 -.278E+03   0.915E+02 0.358E+02 0.293E+03   -.595E+01 -.217E+01 -.152E+02   -.262E-02 0.352E-03 -.799E-02
   -.215E+02 -.390E+02 0.379E+03   0.216E+02 0.419E+02 -.399E+03   -.109E+00 -.289E+01 0.199E+02   0.133E-01 0.308E-03 0.161E-01
   -.467E+02 -.427E+01 -.396E+03   0.523E+02 0.438E+01 0.415E+03   -.555E+01 -.107E+00 -.195E+02   -.193E-02 -.130E-02 0.671E-02
   0.336E+02 -.615E+01 0.253E+03   -.370E+02 0.634E+01 -.266E+03   0.333E+01 -.182E+00 0.131E+02   0.712E-02 -.129E-02 -.305E-03
   0.424E+02 0.512E+01 0.245E+03   -.459E+02 -.535E+01 -.257E+03   0.356E+01 0.231E+00 0.128E+02   0.161E-01 0.530E-03 -.589E-03
   -.608E+01 0.618E+01 -.424E+03   0.669E+01 -.634E+01 0.449E+03   -.630E+00 0.159E+00 -.253E+02   0.235E-01 0.148E-02 -.715E-02
   0.277E+02 0.278E+01 0.327E+03   -.310E+02 -.236E+01 -.341E+03   0.333E+01 -.424E+00 0.141E+02   0.863E-02 0.434E-02 -.421E-02
   -.210E+02 -.307E+02 -.282E+03   0.257E+02 0.327E+02 0.298E+03   -.468E+01 -.203E+01 -.161E+02   -.214E-01 -.104E-01 -.807E-02
   0.560E+02 0.375E+01 -.344E+03   -.582E+02 -.423E+01 0.359E+03   0.219E+01 0.448E+00 -.147E+02   -.138E-01 0.286E-01 -.979E-02
   0.332E+02 -.288E+02 0.298E+03   -.367E+02 0.305E+02 -.315E+03   0.351E+01 -.169E+01 0.176E+02   -.301E-02 -.899E-02 -.693E-02
   -.369E+00 0.174E-01 0.508E-01   -.568E-13 0.149E-12 0.625E-12   0.330E+00 -.153E-01 -.326E-01   0.889E-02 0.147E-02 -.109E-01

 POSITION                                       TOTAL-FORCE (eV/Angst)
      4.25631      1.29278      2.39890        -0.012459     -0.018637     -0.006461
      2.36979      1.39627      7.16587         0.005816      0.004819     -0.006967
      2.32723      4.22751      7.17773        -0.024172      0.001150     -0.004175
      1.72241      2.90233      2.40269         0.016091      0.001595     -0.001212
      4.90035      3.01329      7.17846         0.008405      0.028479     -0.000978
     -0.33969      5.56103      7.19240         0.012660      0.002886     -0.002394
      8.91042      1.38825      2.45467        -0.005370     -0.003711      0.007269
      7.08187      1.22472      7.20429        -0.003363     -0.032745      0.007765
      8.91226      4.20409      2.45184         0.023354     -0.002531      0.001723
     -0.36641      2.81106      7.19026        -0.042844      0.003992      0.015475
      6.32719      0.03787      9.58393         0.000050      0.002926      0.010387
      2.48344      1.38952      0.03845        -0.000727      0.003701      0.004313
      3.83392      1.42326      9.55398         0.000053      0.000923     -0.001697
      3.83503      4.21140      9.56441         0.000416      0.001645     -0.002310
      2.48786      4.18116      0.04875        -0.000745      0.003566      0.005661
      6.32574      2.82527      9.59380        -0.001291      0.002694      0.009473
      1.35642      5.58990      9.49981         0.000326      0.001604     -0.007996
      1.35134      2.81687      9.49961         0.000011      0.001925     -0.007993
      3.17296      0.01441      4.79149         0.002892     -0.004173     -0.007427
      5.65319      1.39775      4.80864         0.000747     -0.000948      0.000973
      0.68983      1.40277      4.77003         0.001000     -0.001538     -0.002062
      0.68856      4.19185      4.78752         0.001120     -0.001805     -0.002240
      5.66071      4.18552      4.79236         0.001739     -0.000970     -0.001901
      3.16705      2.79700      4.81061         0.004113     -0.004461     -0.009121
     -1.80642      5.57226      4.82754        -0.001525      0.000079      0.005681
     -1.80558      2.79525      4.83172        -0.001010      0.001131      0.005118
      4.88111      0.01989      3.86903         0.005448      0.000910     -0.002333
      1.42608      0.02603      5.78256         0.006114     -0.004041     -0.008940
      3.33134      0.00911      0.92745         0.007698     -0.001177     -0.003365
      3.03370      5.59751      8.56461        -0.000344      0.003096     -0.004516
      7.44371      1.40857      3.89011        -0.007794      0.002920      0.008846
     -1.16439      1.40254      5.88377        -0.005801     -0.002320      0.007456
     -0.99165      4.18103      5.78965        -0.000337     -0.001505      0.004026
      7.51379      4.17761      3.87361         0.003632      0.003884      0.002861
      0.67972      1.40638      1.02189        -0.001086     -0.000484      0.009853
      5.62987      1.44673      8.57756         0.011365      0.004427      0.003728
      5.54469      4.21232      8.65313        -0.001199      0.005770      0.008228
      0.67465      4.16871      1.04328        -0.012960     -0.000025      0.016945
      4.82592      2.79062      3.88737         0.006097      0.000572     -0.003804
      1.47590      2.77589      5.78995         0.009721     -0.008485     -0.011430
      3.22621      2.76877      1.00268         0.004548      0.000718     -0.002094
      3.15821      2.81304      8.50400         0.004720      0.003481     -0.002490
     -0.16353      0.03654      3.83229        -0.004465      0.004782      0.004221
      6.46741      5.56480      5.75581        -0.004898     -0.004869      0.002857
      8.22638      0.01748      1.01277        -0.003457      0.000286     -0.002258
     -1.88254      0.04684      8.56721        -0.003992      0.004510      0.010949
      2.52899      1.41970      3.77090         0.008047     -0.001571     -0.008962
      3.88489      1.41232      5.80095         0.008524     -0.007429     -0.011463
      3.82042      4.17766      5.83807        -0.001595     -0.007482     -0.006533
      2.38780      4.17929      3.85711         0.004833     -0.002083     -0.005257
      5.68508      1.39253      0.95237        -0.007419     -0.001531     -0.005097
      0.64112      1.42995      8.46312        -0.003985      0.004745     -0.005817
      0.64610      4.19826      8.46175         0.007295      0.004323     -0.012699
      5.75890      4.16530      0.91678         0.004428     -0.000078     -0.010954
     -0.03937      2.78898      3.77967        -0.004194      0.000570      0.004530
      6.35897      2.78691      5.79915        -0.004467     -0.001813      0.000447
      8.28101      2.78319      1.02082        -0.001537     -0.001052      0.000002
     -1.92547      2.81295      8.60312        -0.008225      0.009357      0.014164
    total drift:                               -0.030231      0.003566      0.007267

  FREE ENERGIE OF THE ION-ELECTRON SYSTEM (eV)
  free  energy   TOTEN  =      -354.5356942684 eV

  energy  without entropy=     -354.5275311368  energy(sigma->0) =     -354.53161270

 d Force = 0.3709503E-03[ 0.363E-03, 0.379E-03]  d Energy = 0.3639178E-03 0.703E-05
 d Force = 0.2999614E+00[ 0.300E+00, 0.300E+00]  d Ewald  =-0.5996786E+00 0.900E+00

 Quasi-Newton relaxation of ions (Broydens 2nd method)
  g(Force)  = 0.521E-03   g(Stress)= 0.376E-04

 retain information from N=  1 steps
 eigenvalues of (default step * inverse Hessian matrix)
  average eigenvalue of G=   0.2721
 eigenvalue spectrum of G is  0.2721

volume of typ            1:    14.7 %

[...]

volume of typ            3:     9.9 %

total charge

# of ion       s       p       d       tot
    1        2.068   0.215   0.080   2.363
    2        2.082   0.260   0.096   2.438
    3        2.086   0.270   0.101   2.456
    4        2.069   0.219   0.081   2.369
    5        2.077   0.240   0.090   2.407
    6        2.080   0.247   0.093   2.420
    7        2.071   0.232   0.083   2.387
    8        2.080   0.248   0.094   2.421
    9        2.075   0.241   0.087   2.404
   10        2.077   0.235   0.090   2.402
   11        0.277   0.378   7.849   8.504
   12        0.278   0.374   7.871   8.524
   13        0.265   0.352   7.858   8.475
   14        0.277   0.377   7.850   8.504
   15        0.267   0.352   7.863   8.482
   16        0.293   0.414   7.852   8.559
   17        0.290   0.403   7.847   8.539
   18        0.275   0.370   7.863   8.508
   19        0.279   0.382   7.846   8.507
   20        0.279   0.378   7.857   8.515
   21        0.263   0.342   7.887   8.492
   22        0.272   0.368   7.863   8.503
   23        0.267   0.350   7.859   8.476
   24        0.296   0.419   7.850   8.565
   25        0.292   0.409   7.845   8.547
   26        0.276   0.374   7.861   8.511
   27        1.269   2.765   0.008   4.042
   28        1.259   2.793   0.006   4.058
   29        1.268   2.763   0.008   4.039
   30        1.262   2.788   0.006   4.056
   31        1.272   2.753   0.007   4.032
   32        1.254   2.802   0.006   4.062
   33        1.258   2.794   0.006   4.058
   34        1.272   2.757   0.007   4.037
   35        1.268   2.764   0.007   4.038
   36        1.264   2.780   0.006   4.050
   37        1.268   2.771   0.007   4.046
   38        1.265   2.772   0.006   4.044
   39        1.271   2.755   0.008   4.034
   40        1.258   2.790   0.006   4.054
   41        1.263   2.777   0.007   4.047
   42        1.260   2.793   0.006   4.058
   43        1.264   2.776   0.007   4.047
   44        1.266   2.774   0.007   4.048
   45        1.265   2.780   0.006   4.052
   46        1.259   2.791   0.007   4.057
   47        1.267   2.768   0.007   4.041
   48        1.267   2.771   0.007   4.044
   49        1.263   2.785   0.006   4.055
   50        1.269   2.763   0.007   4.040
   51        1.271   2.759   0.007   4.037
   52        1.257   2.794   0.006   4.057
   53        1.255   2.800   0.006   4.061
   54        1.281   2.730   0.008   4.019
   55        1.261   2.782   0.006   4.049
   56        1.262   2.784   0.007   4.052
   57        1.265   2.778   0.006   4.049
   58        1.262   2.780   0.007   4.049
tot          65.68   97.28  126.83  289.79

magnetization (x)

# of ion       s       p       d       tot
    1        0.002   0.006   0.001   0.009
    2        0.006   0.015   0.000   0.021
    3        0.001   0.009  -0.000   0.010
    4        0.004   0.008  -0.000   0.011
    5        0.004   0.008   0.000   0.012
    6        0.003   0.006  -0.000   0.009
    7        0.005   0.014   0.000   0.020
    8        0.002   0.006   0.001   0.010
    9        0.001   0.008  -0.000   0.009
   10       -0.004  -0.000  -0.000  -0.005
   11       -0.000  -0.000   0.316   0.315
   12        0.006  -0.000   0.611   0.617
   13        0.001  -0.001   0.715   0.715
   14       -0.000  -0.001   0.377   0.376
   15        0.004  -0.000   0.636   0.640
   16       -0.001  -0.000  -0.141  -0.142
   17       -0.001  -0.000  -0.164  -0.165
   18        0.002  -0.000   0.469   0.471
   19        0.000   0.000   0.252   0.252
   20        0.003  -0.000   0.448   0.451
   21        0.004  -0.000   0.676   0.680
   22        0.000  -0.001   0.468   0.467
   23       -0.004  -0.000  -0.534  -0.538
   24       -0.000  -0.000  -0.148  -0.148
   25       -0.000   0.000  -0.095  -0.095
   26        0.003   0.000   0.461   0.463
   27        0.002   0.027   0.000   0.029
   28        0.007   0.030   0.000   0.038
   29        0.000  -0.003  -0.000  -0.003
   30        0.005   0.022   0.000   0.027
   31        0.006   0.064   0.000   0.070
   32        0.005   0.074   0.000   0.080
   33        0.003   0.027   0.000   0.030
   34       -0.006  -0.082  -0.000  -0.088
   35        0.006   0.073   0.000   0.079
   36        0.006   0.054   0.000   0.060
   37        0.002   0.003   0.000   0.005
   38        0.007   0.083   0.000   0.090
   39       -0.002  -0.020  -0.000  -0.022
   40        0.003   0.016   0.000   0.019
   41        0.007   0.065   0.000   0.071
   42        0.011   0.066   0.000   0.077
   43        0.004   0.013   0.000   0.017
   44       -0.001  -0.011  -0.000  -0.012
   45        0.010   0.062   0.000   0.072
   46        0.005   0.033   0.000   0.038
   47        0.006   0.096   0.000   0.102
   48        0.005   0.047   0.000   0.052
   49       -0.005  -0.072  -0.000  -0.077
   50        0.003   0.026   0.000   0.029
   51        0.006   0.062   0.000   0.068
   52        0.005   0.062   0.000   0.067
   53        0.006   0.067   0.000   0.072
   54        0.002   0.011   0.000   0.013
   55        0.009   0.063   0.000   0.072
   56        0.005   0.045   0.000   0.049
   57        0.006   0.016   0.000   0.022
   58        0.001   0.003  -0.000   0.004
tot           0.17    1.10    4.35    5.62