 vasp.5.4.4.18Apr17-6-g9f103f2a35 (build May 12 2020 05:39:39) gamma-only

 MD_VERSION_INFO: Compiled 2020-05-12T12:39:39-UTC in devlin.sd.materialsdesign.
 com:/home/medea2/data/build/wwolf/vasp-gpu5.4.4/13047/x86_64/src/src/build/gam
 from svn 13047

 executed on                        Lin64 date 2023.03.07  00:27:26

 INCAR:
 POTCAR:    PAW_PBE Li_sv 10Sep2004
 POTCAR:    PAW_PBE Ni 02Aug2007
 POTCAR:    PAW_PBE O 08Apr2002

 POTCAR:    PAW_PBE Li_sv 10Sep2004

 POTCAR:    PAW_PBE Ni 02Aug2007

 POTCAR:    PAW_PBE O 08Apr2002

 Optimization of the real space projectors (new method)

 maximal supplied QI-value         = 22.11
 optimisation between [QCUT,QGAM] = [ 11.28, 22.77] = [ 35.61,145.23] Ry
 Optimized for a Real-space Cutoff    1.10 Angstroem

   l    n(q)    QCUT    max X(q) W(low)/X(q) W(high)/X(q)  e(spline)
   0      7    11.276    10.506    0.54E-04    0.58E-04    0.16E-07
   0      7    11.276     8.367    0.11E-03    0.14E-03    0.35E-07
   1      7    11.276     8.983    0.23E-03    0.43E-03    0.86E-07
 Optimization of the real space projectors (new method)

[...]

   l    n(q)    QCUT    max X(q) W(low)/X(q) W(high)/X(q)  e(spline)
   2      9    11.376    60.317    0.17E-03    0.16E-04    0.16E-06
   2      9    11.376    55.921    0.17E-03    0.16E-04    0.17E-06
   0     10    11.376    51.690    0.45E-04    0.60E-04    0.21E-06
   0     10    11.376    30.015    0.37E-04    0.55E-04    0.19E-06
   1     10    11.376    18.849    0.83E-04    0.11E-03    0.92E-07
   1     10    11.376    14.624    0.69E-04    0.92E-04    0.82E-07
 Optimization of the real space projectors (new method)

 maximal supplied QI-value         = 24.76
 optimisation between [QCUT,QGAM] = [ 11.39, 22.77] = [ 36.31,145.25] Ry
 Optimized for a Real-space Cutoff    1.10 Angstroem

   l    n(q)    QCUT    max X(q) W(low)/X(q) W(high)/X(q)  e(spline)
   0      7    11.387    20.381    0.22E-03    0.48E-03    0.18E-06
   0      7    11.387    15.268    0.22E-03    0.52E-03    0.19E-06
   1      7    11.387     5.964    0.22E-03    0.73E-03    0.24E-06
   1      7    11.387     5.382    0.19E-03    0.60E-03    0.21E-06

  PAW_PBE Li_sv 10Sep2004               :
  PAW_PBE Ni 02Aug2007                  :
  PAW_PBE O 08Apr2002                   :

 POSCAR: ce17451_1
  positions in direct lattice
 exchange correlation table for  LEXCH =       14
   RHO(1)=    0.500       N(1)  =     2000
   RHO(2)=  100.500       N(2)  =     4000

 ion  position               nearest neighbor table
   1  0.000  0.251  0.714-  23 1.96  47 2.05  50 2.05  13 2.69
   2  0.000  0.749  0.286-  24 1.96  48 2.05  49 2.05  13 2.69
   3  0.253  0.249  0.014-  31 2.02  51 2.07  39 2.08  53 2.17  41 2.21  27 2.26  17 2.77
   4  0.253  0.751  0.986-  32 2.02  52 2.07  40 2.08  54 2.17  42 2.21  28 2.26  16 2.77
   5  0.747  0.751  0.986-  33 2.02  52 2.07  40 2.08  54 2.17  42 2.21  29 2.26  19 2.77
   6  0.747  0.249  0.014-  34 2.02  51 2.07  39 2.08  53 2.17  41 2.21  30 2.26  18 2.77
   7  0.000  0.000  0.000-  31 1.84  32 1.84  33 1.84  34 1.84  41 1.98  42 1.98  12 2.77  12 2.77
                             8 2.83   9 2.83  10 2.83  11 2.83
   8  0.251  0.003  0.252-  37 1.82  25 1.85  42 1.87  54 1.89  48 1.95  31 2.00  11 2.76  11 2.78
                            14 2.81  13 2.81  12 2.83   7 2.83
   9  0.251  0.997  0.748-  38 1.82  26 1.85  41 1.87  53 1.89  47 1.95  32 2.00  10 2.76  10 2.78
                            14 2.81  13 2.81  12 2.83   7 2.83
  10  0.749  0.997  0.748-  38 1.82  26 1.85  41 1.87  53 1.89  50 1.95  33 2.00   9 2.76   9 2.78
                            14 2.81  13 2.81  12 2.83   7 2.83
  11  0.749  0.003  0.252-  37 1.82  25 1.85  42 1.87  54 1.89  49 1.95  34 2.00   8 2.76   8 2.78
                            14 2.81  13 2.81  12 2.83   7 2.83
  12  0.500  0.000  0.000-  31 1.84  32 1.84  33 1.84  34 1.84  53 1.88  54 1.88   7 2.77   7 2.77
                            11 2.83   8 2.83   9 2.83  10 2.83
  13  0.000  0.000  0.500-  47 1.84  48 1.84  49 1.84  50 1.84  25 1.89  26 1.89   1 2.69   2 2.69
                            14 2.77  14 2.77   8 2.81   9 2.81  10 2.81  11 2.81
  14  0.500  0.000  0.500-  47 1.85  48 1.85  49 1.85  50 1.85  37 1.93  38 1.93  13 2.77  13 2.77
                             8 2.81   9 2.81  10 2.81  11 2.81
  15  0.000  0.500  0.500-  43 1.84  44 1.84  45 1.84  46 1.84  23 1.94  24 1.94  20 2.77  20 2.77
                            16 2.81  17 2.81  18 2.81  19 2.81
  16  0.252  0.504  0.750-  35 1.84  23 1.84  52 1.85  40 1.89  44 1.94  27 2.03  19 2.76   4 2.77
                            19 2.79  20 2.81  15 2.81  22 2.83  21 2.83
  17  0.252  0.496  0.250-  36 1.84  24 1.84  51 1.85  39 1.89  43 1.94  28 2.03  18 2.76   3 2.77
                            18 2.79  20 2.81  15 2.81  22 2.83  21 2.83
  18  0.748  0.496  0.250-  36 1.84  24 1.84  51 1.85  39 1.89  46 1.94  29 2.03  17 2.76   6 2.77
                            17 2.79  20 2.81  15 2.81  22 2.83  21 2.83
  19  0.748  0.504  0.750-  35 1.84  23 1.84  52 1.85  40 1.89  45 1.94  30 2.03  16 2.76   5 2.77
                            16 2.79  20 2.81  15 2.81  22 2.83  21 2.83
  20  0.500  0.500  0.500-  43 1.84  44 1.84  45 1.84  46 1.84  35 1.88  36 1.88  15 2.77  15 2.77
                            19 2.81  16 2.81  17 2.81  18 2.81
  21  0.000  0.500  0.000-  27 1.84  28 1.84  29 1.84  30 1.84  39 1.89  40 1.89  22 2.77  22 2.77
                            16 2.83  17 2.83  18 2.83  19 2.83
  22  0.500  0.500  0.000-  27 1.86  28 1.86  29 1.86  30 1.86  51 1.95  52 1.95  21 2.77  21 2.77
                            16 2.83  17 2.83  18 2.83  19 2.83
  23  0.000  0.405  0.639-  16 1.84  19 1.84  15 1.94   1 1.96
  24  0.000  0.595  0.361-  17 1.84  18 1.84  15 1.94   2 1.96
  25  0.000  0.099  0.369-   8 1.85  11 1.85  13 1.89
  26  0.000  0.901  0.631-   9 1.85  10 1.85  13 1.89
  27  0.248  0.396  0.889-  21 1.84  22 1.86  16 2.03   3 2.26
  28  0.248  0.604  0.111-  21 1.84  22 1.86  17 2.03   4 2.26
  29  0.752  0.604  0.111-  21 1.84  22 1.86  18 2.03   5 2.26
  30  0.752  0.396  0.889-  21 1.84  22 1.86  19 2.03   6 2.26
  31  0.249  0.103  0.109-   7 1.84  12 1.84   8 2.00   3 2.02
  32  0.249  0.897  0.891-   7 1.84  12 1.84   9 2.00   4 2.02
  33  0.751  0.897  0.891-   7 1.84  12 1.84  10 2.00   5 2.02
  34  0.751  0.103  0.109-   7 1.84  12 1.84  11 2.00   6 2.02
  35  0.500  0.407  0.634-  16 1.84  19 1.84  20 1.88
  36  0.500  0.593  0.366-  17 1.84  18 1.84  20 1.88
  37  0.500  0.098  0.364-   8 1.82  11 1.82  14 1.93
  38  0.500  0.902  0.636-   9 1.82  10 1.82  14 1.93
  39  0.000  0.398  0.127-  17 1.89  18 1.89  21 1.89   6 2.08   3 2.08
  40  0.000  0.602  0.873-  16 1.89  19 1.89  21 1.89   5 2.08   4 2.08
  41  0.000  0.102  0.861-   9 1.87  10 1.87   7 1.98   6 2.21   3 2.21
  42  0.000  0.898  0.139-   8 1.87  11 1.87   7 1.98   5 2.21   4 2.21
  43  0.250  0.400  0.388-  15 1.84  20 1.84  17 1.94
  44  0.250  0.600  0.612-  15 1.84  20 1.84  16 1.94
  45  0.750  0.600  0.612-  15 1.84  20 1.84  19 1.94
  46  0.750  0.400  0.388-  15 1.84  20 1.84  18 1.94
  47  0.248  0.100  0.613-  13 1.84  14 1.85   9 1.95   1 2.05
  48  0.248  0.900  0.387-  13 1.84  14 1.85   8 1.95   2 2.05
  49  0.752  0.900  0.387-  13 1.84  14 1.85  11 1.95   2 2.05
  50  0.752  0.100  0.613-  13 1.84  14 1.85  10 1.95   1 2.05
  51  0.500  0.397  0.133-  17 1.85  18 1.85  22 1.95   6 2.07   3 2.07
  52  0.500  0.603  0.867-  16 1.85  19 1.85  22 1.95   5 2.07   4 2.07
  53  0.500  0.099  0.870-  12 1.88  10 1.89   9 1.89   6 2.17   3 2.17
  54  0.500  0.901  0.130-  12 1.88  11 1.89   8 1.89   5 2.17   4 2.17

  LATTYP: Found a simple monoclinic cell.
 ALAT       =    11.4327304969
 B/A-ratio  =     0.4852107270
 C/A-ratio  =     1.6931612641
 COS(beta)  =    -0.9049533277

  Lattice vectors:

 A1 = (  -6.2059526130,   0.0000000000,  -9.6017435281)
 A2 = (   0.0000000000,  -5.5472834760,   0.0000000000)
 A3 = (   2.5913012264,   0.0000000000,  19.1832290565)

Analysis of symmetry for initial positions (statically):
 Subroutine PRICEL returns:
 Original cell was already a primitive cell.

 Routine SETGRP: Setting up the symmetry group for a
 simple monoclinic supercell.

 Subroutine GETGRP returns: Found  4 space group operations
 (whereof  4 operations were pure point group operations)
 out of a pool of  4 trial point group operations.

The static configuration has the point symmetry C_2h.

Analysis of symmetry for dynamics (positions and initial velocities):
 Subroutine PRICEL returns:
 Original cell was already a primitive cell.

[...]

The dynamic configuration has the point symmetry C_2h.

Analysis of structural, dynamic, and magnetic symmetry:
 Subroutine PRICEL returns:
 Original cell was already a primitive cell.

 Routine SETGRP: Setting up the symmetry group for a
 simple monoclinic supercell.

 Subroutine GETGRP returns: Found  4 space group operations
 (whereof  4 operations were pure point group operations)
 out of a pool of  4 trial point group operations.

The magnetic configuration has the point symmetry C_2h.

 Subroutine INISYM returns: Found  4 space group operations
 (whereof  4 operations are pure point group operations),
 and found     1 'primitive' translations

 KPOINTS: Automatic mesh

Automatic generation of k-mesh.
Space group operators:
 irot       det(A)        alpha          n_x          n_y          n_z        tau_x        tau_y        tau_z
    1     1.000000     0.000001     1.000000     0.000000     0.000000     0.000000     0.000000     0.000000
    2    -1.000000     0.000001     1.000000     0.000000     0.000000     0.000000     0.000000     0.000000
    3     1.000000   179.999999     0.000000     1.000000     0.000000     0.000000     0.000000     0.000000
    4    -1.000000   179.999999     0.000000     1.000000     0.000000     0.000000     0.000000     0.000000

 Subroutine IBZKPT returns following result:

 Found      1 irreducible k-points:

 Following reciprocal coordinates:
            Coordinates               Weight
  0.000000  0.000000  0.000000      1.000000

 Following cartesian coordinates:
            Coordinates               Weight
  0.000000  0.000000  0.000000      1.000000

 SYSTEM =  unknown system
 POSCAR =  ce17451_1

 Startparameter for this run:
   NWRITE =      1    write-flag & timer
   PREC   = accura    normal or accurate (medium, high low for compatibility)
   ISTART =      0    job   : 0-new  1-cont  2-samecut
   ICHARG =      2    charge: 1-file 2-atom 10-const
   ISPIN  =      2    spin polarized calculation?
   LNONCOLLINEAR =      F non collinear calculations
   LSORBIT =      F    spin-orbit coupling
   INIWAV =      1    electr: 0-lowe 1-rand  2-diag
   LASPH  =      F    aspherical Exc in radial PAW
   METAGGA=      F    non-selfconsistent MetaGGA calc.

 Electronic Relaxation 1
   ENCUT  =  500.0 eV  36.75 Ry    6.06 a.u.  10.11 18.67 17.91*2*pi/ulx,y,z
   ENINI  =  500.0     initial cutoff
   ENAUG  =  628.9 eV  augmentation charge cutoff
   NELM   =     80;   NELMIN=  2; NELMDL= -5     # of ELM steps
   EDIFF  = 0.1E-04   stopping-criterion for ELM
   LREAL  =      T    real-space projection
[...]
   -.307E+00 0.103E+01 -.272E+01   0.931E+00 -.109E+01 0.261E+01   -.622E+00 0.636E-01 0.987E-01   -.148E-02 -.219E-02 0.461E-02
   0.546E-12 -.161E-12 0.306E-13   0.121E-12 0.703E-13 0.639E-13   0.258E-25 0.000E+00 0.230E-25   -.328E-11 0.979E-12 -.310E-11
   -.331E+02 -.101E+02 -.747E+02   0.334E+02 0.101E+02 0.762E+02   -.410E+00 -.170E-01 -.141E+01   0.310E-01 0.209E-01 -.118E-01
   0.331E+02 -.101E+02 0.747E+02   -.334E+02 0.101E+02 -.762E+02   0.410E+00 -.170E-01 0.141E+01   -.310E-01 0.209E-01 0.118E-01
   0.331E+02 0.101E+02 0.747E+02   -.334E+02 -.101E+02 -.762E+02   0.410E+00 0.170E-01 0.141E+01   -.310E-01 -.209E-01 0.118E-01
   -.331E+02 0.101E+02 -.747E+02   0.334E+02 -.101E+02 0.762E+02   -.410E+00 0.170E-01 -.141E+01   0.310E-01 -.209E-01 -.118E-01
   -.428E-11 -.241E-12 -.100E-11   0.142E-12 -.225E-14 0.995E-13   0.000E+00 0.000E+00 -.122E-27   -.322E-11 -.104E-11 -.265E-11
   0.247E-11 -.428E-13 0.283E-12   0.213E-13 0.577E-13 -.497E-13   0.000E+00 0.000E+00 0.225E-25   0.148E-11 -.798E-12 -.254E-11
   0.345E-11 -.281E-12 0.272E-11   -.711E-13 0.312E-12 0.711E-14   -.207E-24 0.000E+00 0.421E-25   -.884E-12 0.731E-12 -.289E-11
   0.159E-11 0.613E-13 0.262E-12   -.577E-14 0.304E-14 0.155E-12   0.000E+00 0.000E+00 -.651E-26   -.487E-11 -.425E-11 0.467E-11
   0.548E+02 -.832E+01 0.104E+02   -.562E+02 0.862E+01 -.103E+02   0.133E+01 -.295E+00 -.103E+00   -.825E-02 -.120E-01 0.146E-01
   -.548E+02 -.832E+01 -.104E+02   0.562E+02 0.862E+01 0.103E+02   -.133E+01 -.295E+00 0.103E+00   0.825E-02 -.120E-01 -.146E-01
   -.548E+02 0.832E+01 -.104E+02   0.562E+02 -.862E+01 0.103E+02   -.133E+01 0.295E+00 0.103E+00   0.825E-02 0.120E-01 -.146E-01
   0.548E+02 0.832E+01 0.104E+02   -.562E+02 -.862E+01 -.103E+02   0.133E+01 0.295E+00 -.103E+00   -.825E-02 0.120E-01 0.146E-01
   0.133E-11 -.209E-12 0.851E-11   -.183E-12 0.836E-13 -.471E-13   -.103E-24 0.000E+00 0.793E-26   -.710E-11 0.420E-11 0.545E-11
   -.239E-12 0.170E-12 0.209E-12   -.186E-12 0.110E-12 0.711E-14   0.000E+00 0.000E+00 0.109E-27   -.123E-11 0.251E-11 -.602E-12
   -.356E-11 -.110E-12 0.530E-11   -.153E-13 0.106E-12 -.107E-12   0.000E+00 0.000E+00 -.601E-26   -.192E-11 -.235E-11 0.146E-12
   0.575E+02 0.258E-12 0.361E+03   -.622E+02 0.267E-13 -.382E+03   0.468E+01 0.000E+00 0.205E+02   -.997E-02 0.974E-13 0.911E-02
   -.575E+02 0.192E-12 -.361E+03   0.622E+02 0.275E-13 0.382E+03   -.468E+01 0.000E+00 -.205E+02   0.997E-02 -.194E-11 -.911E-02
   -.307E+01 -.218E-12 -.408E+03   0.345E+01 -.788E-13 0.434E+03   -.411E+00 0.565E-26 -.262E+02   0.220E-01 -.185E-11 -.620E-02
   0.307E+01 -.274E-12 0.408E+03   -.345E+01 0.432E-14 -.434E+03   0.411E+00 0.000E+00 0.262E+02   -.220E-01 -.113E-11 0.620E-02
   0.715E+02 -.283E+02 0.361E+03   -.759E+02 0.302E+02 -.379E+03   0.438E+01 -.191E+01 0.186E+02   0.152E-02 -.238E-01 0.361E-02
   -.715E+02 -.283E+02 -.361E+03   0.759E+02 0.302E+02 0.379E+03   -.438E+01 -.191E+01 -.186E+02   -.152E-02 -.238E-01 -.361E-02
   -.715E+02 0.283E+02 -.361E+03   0.759E+02 -.302E+02 0.379E+03   -.438E+01 0.191E+01 -.186E+02   -.152E-02 0.238E-01 -.361E-02
   0.715E+02 0.283E+02 0.361E+03   -.759E+02 -.302E+02 -.379E+03   0.438E+01 0.191E+01 0.186E+02   0.152E-02 0.238E-01 0.361E-02
   -.875E+02 0.424E+01 -.373E+03   0.935E+02 -.444E+01 0.393E+03   -.598E+01 0.157E+00 -.201E+02   0.903E-02 0.457E-01 0.103E-01
   0.875E+02 0.424E+01 0.373E+03   -.935E+02 -.444E+01 -.393E+03   0.598E+01 0.157E+00 0.201E+02   -.903E-02 0.457E-01 -.103E-01
   0.875E+02 -.424E+01 0.373E+03   -.935E+02 0.444E+01 -.393E+03   0.598E+01 -.157E+00 0.201E+02   -.903E-02 -.457E-01 -.103E-01
   -.875E+02 -.424E+01 -.373E+03   0.935E+02 0.444E+01 0.393E+03   -.598E+01 -.157E+00 -.201E+02   0.903E-02 -.457E-01 0.103E-01
   0.232E+02 0.291E-12 0.397E+03   -.240E+02 -.137E-13 -.424E+03   0.822E+00 0.000E+00 0.264E+02   -.123E-01 -.169E-12 0.321E-02
   -.232E+02 0.299E-12 -.397E+03   0.240E+02 -.293E-13 0.424E+03   -.822E+00 -.323E-26 -.264E+02   0.123E-01 0.200E-11 -.321E-02
   -.259E+02 -.199E-12 -.404E+03   0.282E+02 -.291E-13 0.431E+03   -.225E+01 0.129E-25 -.270E+02   0.195E-01 0.176E-11 -.138E-01
   0.259E+02 -.907E-13 0.404E+03   -.282E+02 -.239E-13 -.431E+03   0.225E+01 0.000E+00 0.270E+02   -.195E-01 0.106E-11 0.138E-01
   -.532E+02 0.194E-12 0.324E+03   0.546E+02 -.140E-13 -.341E+03   -.141E+01 0.000E+00 0.167E+02   -.416E-02 0.622E-12 0.240E-01
   0.532E+02 0.212E-12 -.324E+03   -.546E+02 -.310E-13 0.341E+03   0.141E+01 0.000E+00 -.167E+02   0.416E-02 0.759E-12 -.240E-01
   0.202E+02 -.308E-12 -.309E+03   -.196E+02 -.551E-13 0.325E+03   -.592E+00 0.000E+00 -.163E+02   -.458E-01 -.745E-12 0.137E-01
   -.202E+02 -.221E-12 0.309E+03   0.196E+02 -.569E-13 -.325E+03   0.592E+00 0.000E+00 0.163E+02   0.458E-01 0.128E-11 -.137E-01
   -.112E+02 0.141E+01 0.392E+03   0.106E+02 -.149E+01 -.417E+03   0.544E+00 0.856E-01 0.256E+02   0.838E-02 -.627E-02 0.216E-01
   0.112E+02 0.141E+01 -.392E+03   -.106E+02 -.149E+01 0.417E+03   -.544E+00 0.856E-01 -.256E+02   -.838E-02 -.627E-02 -.216E-01
   0.112E+02 -.141E+01 -.392E+03   -.106E+02 0.149E+01 0.417E+03   -.544E+00 -.856E-01 -.256E+02   -.838E-02 0.627E-02 -.216E-01
   -.112E+02 -.141E+01 0.392E+03   0.106E+02 0.149E+01 -.417E+03   0.544E+00 -.856E-01 0.256E+02   0.838E-02 0.627E-02 0.216E-01
   0.120E+02 -.386E+02 -.360E+03   -.109E+02 0.417E+02 0.381E+03   -.116E+01 -.310E+01 -.208E+02   -.125E-01 0.732E-02 -.226E-01
   -.120E+02 -.386E+02 0.360E+03   0.109E+02 0.417E+02 -.381E+03   0.116E+01 -.310E+01 0.208E+02   0.125E-01 0.732E-02 0.226E-01
   -.120E+02 0.386E+02 0.360E+03   0.109E+02 -.417E+02 -.381E+03   0.116E+01 0.310E+01 0.208E+02   0.125E-01 -.732E-02 0.226E-01
   0.120E+02 0.386E+02 -.360E+03   -.109E+02 -.417E+02 0.381E+03   -.116E+01 0.310E+01 -.208E+02   -.125E-01 -.732E-02 -.226E-01
   -.369E+02 0.318E-12 0.318E+03   0.366E+02 -.640E-13 -.335E+03   0.265E+00 0.000E+00 0.169E+02   0.171E-01 -.574E-12 0.716E-02
   0.369E+02 0.277E-12 -.318E+03   -.366E+02 -.413E-13 0.335E+03   -.265E+00 0.000E+00 -.169E+02   -.171E-01 -.720E-12 -.716E-02
   0.531E+02 -.702E-13 -.321E+03   -.558E+02 -.563E-14 0.339E+03   0.272E+01 0.000E+00 -.178E+02   -.106E-02 0.608E-12 -.157E-01
   -.531E+02 -.151E-12 0.321E+03   0.558E+02 0.739E-15 -.339E+03   -.272E+01 0.162E-26 0.178E+02   0.106E-02 -.134E-11 0.157E-01
   0.568E-10 0.492E-11 0.270E-10   -.497E-13 0.320E-13 -.682E-12   -.266E-14 0.162E-26 0.000E+00   0.606E-11 0.163E-11 -.897E-11

 POSITION                                       TOTAL-FORCE (eV/Angst)
      6.04179     -0.00000      2.43951        -0.035826     -0.000000      0.001457
      0.13676     -0.00000      7.23187         0.035826     -0.000000     -0.001457
     -0.77030      1.40197      2.39692         0.000364     -0.001432     -0.002994
      6.94885      1.40197      7.27446        -0.000364     -0.001432      0.002994
      6.94885      4.14838      7.27446        -0.000364      0.001432      0.002994
     -0.77030      4.14838      2.39692         0.000364      0.001432     -0.002994
     -0.00000     -0.00000      0.00000         0.000000     -0.000000      0.000000
      2.45683      1.39101      0.01323        -0.000919      0.000027     -0.004378
      3.72173      1.39101      9.65815         0.000919      0.000027      0.004378
      3.72173      4.15934      9.65815         0.000919     -0.000027      0.004378
      2.45683      4.15934      0.01323        -0.000919     -0.000027     -0.004378
     -0.00000      2.77518      0.00000         0.000000     -0.000000      0.000000
      4.90374     -0.00000      0.00045         0.000000     -0.000000      0.000000
      4.90374      2.77518      0.00045         0.000000     -0.000000      0.000000
      3.08928     -0.00000      4.83569         0.000000     -0.000000      0.000000
      5.52746      1.39454      4.88648         0.000015      0.000416      0.006504
      0.65110      1.39454      4.78490        -0.000015      0.000416     -0.006504
      0.65110      4.15581      4.78490        -0.000015     -0.000416     -0.006504
      5.52746      4.15581      4.88648         0.000015     -0.000416      0.006504
      3.08928      2.77518      4.83569         0.000000     -0.000000      0.000000
     -1.81446     -0.00000      4.83524         0.000000     -0.000000      0.000000
     -1.81446      2.77518      4.83524         0.000000     -0.000000      0.000000
      4.78615     -0.00000      3.93257        -0.004209     -0.000000      0.008277
      1.39240     -0.00000      5.73881         0.004209     -0.000000     -0.008277
      3.26358     -0.00000      0.93603         0.000896     -0.000000     -0.002859
      2.91498     -0.00000      8.73535        -0.000896     -0.000000      0.002859
      7.27581      1.37405      3.84535        -0.005824     -0.000326      0.002867
     -1.09725      1.37405      5.82603         0.005824     -0.000326     -0.002867
     -1.09725      4.17631      5.82603         0.005824      0.000326     -0.002867
      7.27581      4.17631      3.84535        -0.005824      0.000326      0.002867
      0.70777      1.38506      0.98064         0.003739      0.000543     -0.000644
      5.47078      1.38506      8.69074        -0.003739      0.000543      0.000644
      5.47078      4.16529      8.69074        -0.003739     -0.000543      0.000644
      0.70777      4.16529      0.98064         0.003739     -0.000543     -0.000644
      4.74830      2.77518      3.94896         0.002858     -0.000000      0.005124
      1.43025      2.77518      5.72242        -0.002858     -0.000000     -0.005124
      3.21996      2.77518      0.93351         0.001218     -0.000000     -0.003391
      2.95859      2.77518      8.73787        -0.001218     -0.000000      0.003391
     -0.19226     -0.00000      3.84523        -0.002758     -0.000000     -0.005471
      6.37082     -0.00000      5.82615         0.002758     -0.000000      0.005471
      8.09895     -0.00000      0.98408         0.004478     -0.000000      0.003383
     -1.92040     -0.00000      8.68730        -0.004478     -0.000000     -0.003383
      2.36362      1.38687      3.87376         0.001727     -0.002020     -0.003678
      3.81493      1.38687      5.79762        -0.001727     -0.002020      0.003678
      3.81493      4.16348      5.79762        -0.001727      0.002020      0.003678
      2.36362      4.16348      3.87376         0.001727      0.002020     -0.003678
      5.65355      1.37812      0.96106        -0.001534     -0.000131      0.001245
      0.52500      1.37812      8.71031         0.001534     -0.000131     -0.001245
      0.52500      4.17223      8.71031         0.001534      0.000131     -0.001245
      5.65355      4.17223      0.96106        -0.001534      0.000131      0.001245
     -0.14439      2.77518      3.83388        -0.001827     -0.000000     -0.007498
      6.32295      2.77518      5.83749         0.001827     -0.000000      0.007498
      8.18477      2.77518      0.95532         0.002461     -0.000000      0.004126
     -2.00621      2.77518      8.71606        -0.002461     -0.000000     -0.004126
    total drift:                                0.000000      0.000000      0.000000

  FREE ENERGIE OF THE ION-ELECTRON SYSTEM (eV)
  free  energy   TOTEN  =      -334.2862591680 eV

  energy  without entropy=     -334.2852896094  energy(sigma->0) =     -334.28577439

 d Force = 0.1822052E-03[ 0.177E-03, 0.187E-03]  d Energy = 0.1900899E-03-0.788E-05
 d Force = 0.3985243E+00[ 0.398E+00, 0.399E+00]  d Ewald  = 0.8033981E+00-0.405E+00

 Quasi-Newton relaxation of ions (Broydens 2nd method)
  g(Force)  = 0.182E-03   g(Stress)= 0.316E-03

 retain information from N=  2 steps
 eigenvalues of (default step * inverse Hessian matrix)
  average eigenvalue of G=   2.7260
 eigenvalue spectrum of G is  0.0003  5.4516

volume of typ            1:     8.9 %

[...]

volume of typ            3:     9.9 %

total charge

# of ion       s       p       d       tot
    1        2.070   0.212   0.080   2.362
    2        2.070   0.212   0.080   2.362
    3        2.072   0.225   0.083   2.380
    4        2.072   0.225   0.083   2.380
    5        2.072   0.225   0.083   2.380
    6        2.072   0.225   0.083   2.380
    7        0.291   0.410   7.863   8.564
    8        0.280   0.382   7.847   8.509
    9        0.280   0.382   7.847   8.509
   10        0.280   0.382   7.847   8.509
   11        0.280   0.382   7.847   8.509
   12        0.305   0.439   7.846   8.590
   13        0.307   0.440   7.841   8.588
   14        0.287   0.400   7.825   8.512
   15        0.294   0.420   7.827   8.542
   16        0.282   0.383   7.855   8.520
   17        0.282   0.383   7.855   8.520
   18        0.282   0.383   7.855   8.520
   19        0.282   0.383   7.855   8.520
   20        0.305   0.438   7.821   8.565
   21        0.303   0.436   7.848   8.587
   22        0.283   0.393   7.853   8.528
   23        1.268   2.771   0.008   4.047
   24        1.268   2.771   0.008   4.047
   25        1.282   2.727   0.008   4.018
   26        1.282   2.727   0.008   4.018
   27        1.269   2.763   0.007   4.039
   28        1.269   2.763   0.007   4.039
   29        1.269   2.763   0.007   4.039
   30        1.269   2.763   0.007   4.039
   31        1.272   2.762   0.007   4.041
   32        1.272   2.762   0.007   4.041
   33        1.272   2.762   0.007   4.041
   34        1.272   2.762   0.007   4.041
   35        1.282   2.732   0.009   4.022
   36        1.282   2.732   0.009   4.022
   37        1.284   2.725   0.009   4.017
   38        1.284   2.725   0.009   4.017
   39        1.259   2.791   0.007   4.057
   40        1.259   2.791   0.007   4.057
   41        1.260   2.786   0.006   4.053
   42        1.260   2.786   0.006   4.053
   43        1.285   2.725   0.008   4.018
   44        1.285   2.725   0.008   4.018
   45        1.285   2.725   0.008   4.018
   46        1.285   2.725   0.008   4.018
   47        1.271   2.760   0.007   4.039
   48        1.271   2.760   0.007   4.039
   49        1.271   2.760   0.007   4.039
   50        1.271   2.760   0.007   4.039
   51        1.259   2.793   0.007   4.059
   52        1.259   2.793   0.007   4.059
   53        1.261   2.785   0.007   4.054
   54        1.261   2.785   0.007   4.054
tot          57.75   96.02  126.26  280.04

magnetization (x)

# of ion       s       p       d       tot
    1       -0.001   0.000   0.000  -0.000
    2       -0.001   0.000   0.000  -0.000
    3        0.005   0.005   0.000   0.010
    4        0.005   0.005   0.000   0.010
    5        0.005   0.005   0.000   0.010
    6        0.005   0.005   0.000   0.010
    7        0.001   0.000   0.249   0.251
    8        0.001   0.000   0.377   0.378
    9        0.001   0.000   0.377   0.378
   10        0.001   0.000   0.377   0.378
   11        0.001   0.000   0.377   0.378
   12       -0.000   0.000  -0.001  -0.002
   13       -0.001   0.000  -0.010  -0.010
   14       -0.001   0.000   0.100   0.099
   15       -0.002   0.000  -0.183  -0.184
   16        0.001  -0.000   0.385   0.386
   17        0.001  -0.000   0.385   0.386
   18        0.001  -0.000   0.385   0.386
   19        0.001  -0.000   0.385   0.386
   20       -0.001   0.000  -0.057  -0.058
   21       -0.001   0.000  -0.056  -0.056
   22       -0.001   0.000  -0.264  -0.264
   23        0.000   0.000  -0.000   0.001
   24        0.000   0.000  -0.000   0.001
   25        0.003   0.019   0.000   0.022
   26        0.003   0.019   0.000   0.022
   27        0.002   0.024   0.000   0.026
   28        0.002   0.024   0.000   0.026
   29        0.002   0.024   0.000   0.026
   30        0.002   0.024   0.000   0.026
   31        0.004   0.033   0.000   0.038
   32        0.004   0.033   0.000   0.038
   33        0.004   0.033   0.000   0.038
   34        0.004   0.033   0.000   0.038
   35        0.002   0.015   0.000   0.017
   36        0.002   0.015   0.000   0.017
   37        0.002   0.011   0.000   0.013
   38        0.002   0.011   0.000   0.013
   39        0.002   0.001   0.000   0.003
   40        0.002   0.001   0.000   0.003
   41        0.004   0.023   0.000   0.027
   42        0.004   0.023   0.000   0.027
   43        0.003   0.048   0.000   0.051
   44        0.003   0.048   0.000   0.051
   45        0.003   0.048   0.000   0.051
   46        0.003   0.048   0.000   0.051
   47        0.004   0.042   0.000   0.047
   48        0.004   0.042   0.000   0.047
   49        0.004   0.042   0.000   0.047
   50        0.004   0.042   0.000   0.047
   51       -0.000  -0.023  -0.000  -0.023
   52       -0.000  -0.023  -0.000  -0.023
   53        0.002   0.005   0.000   0.008
   54        0.002   0.005   0.000   0.008
tot           0.10    0.72    2.83    3.65