 vasp.5.4.4.18Apr17-6-g9f103f2a35 (build May 12 2020 05:39:39) gamma-only

 MD_VERSION_INFO: Compiled 2020-05-12T12:39:39-UTC in devlin.sd.materialsdesign.
 com:/home/medea2/data/build/wwolf/vasp-gpu5.4.4/13047/x86_64/src/src/build/gam
 from svn 13047

 executed on                        Lin64 date 2023.03.07  00:21:30

 INCAR:
 POTCAR:    PAW_PBE Li_sv 10Sep2004
 POTCAR:    PAW_PBE Ni 02Aug2007
 POTCAR:    PAW_PBE O 08Apr2002

 POTCAR:    PAW_PBE Li_sv 10Sep2004

 POTCAR:    PAW_PBE Ni 02Aug2007

 POTCAR:    PAW_PBE O 08Apr2002

 Optimization of the real space projectors (new method)

 maximal supplied QI-value         = 22.11
 optimisation between [QCUT,QGAM] = [ 11.28, 22.77] = [ 35.61,145.23] Ry
 Optimized for a Real-space Cutoff    1.10 Angstroem

   l    n(q)    QCUT    max X(q) W(low)/X(q) W(high)/X(q)  e(spline)
   0      7    11.276    10.506    0.54E-04    0.58E-04    0.16E-07
   0      7    11.276     8.367    0.11E-03    0.14E-03    0.35E-07
   1      7    11.276     8.983    0.23E-03    0.43E-03    0.86E-07
 Optimization of the real space projectors (new method)

[...]

   l    n(q)    QCUT    max X(q) W(low)/X(q) W(high)/X(q)  e(spline)
   2      9    11.376    60.317    0.17E-03    0.16E-04    0.16E-06
   2      9    11.376    55.921    0.17E-03    0.16E-04    0.17E-06
   0     10    11.376    51.690    0.45E-04    0.60E-04    0.21E-06
   0     10    11.376    30.015    0.37E-04    0.55E-04    0.19E-06
   1     10    11.376    18.849    0.83E-04    0.11E-03    0.92E-07
   1     10    11.376    14.624    0.69E-04    0.92E-04    0.82E-07
 Optimization of the real space projectors (new method)

 maximal supplied QI-value         = 24.76
 optimisation between [QCUT,QGAM] = [ 11.39, 22.77] = [ 36.31,145.25] Ry
 Optimized for a Real-space Cutoff    1.10 Angstroem

   l    n(q)    QCUT    max X(q) W(low)/X(q) W(high)/X(q)  e(spline)
   0      7    11.387    20.381    0.22E-03    0.48E-03    0.18E-06
   0      7    11.387    15.268    0.22E-03    0.52E-03    0.19E-06
   1      7    11.387     5.964    0.22E-03    0.73E-03    0.24E-06
   1      7    11.387     5.382    0.19E-03    0.60E-03    0.21E-06

  PAW_PBE Li_sv 10Sep2004               :
  PAW_PBE Ni 02Aug2007                  :
  PAW_PBE O 08Apr2002                   :

 POSCAR: ce17469_1
  positions in direct lattice
 exchange correlation table for  LEXCH =       14
   RHO(1)=    0.500       N(1)  =     2000
   RHO(2)=  100.500       N(2)  =     4000

 ion  position               nearest neighbor table
   1  0.984  0.251  0.733-  20 2.02  47 2.06  44 2.17  27 2.19  38 2.28  10 2.79
   2  0.997  0.752  0.248-  39 2.09  26 2.14  25 2.15  21 2.15  46 2.16  45 2.18
   3  0.269  0.248  0.018-  28 2.01  48 2.03  36 2.15  50 2.18  14 2.80   9 2.83
   4  0.999  0.995  0.997-  30 1.84  31 1.84  29 1.85  28 1.85  39 1.95  38 1.96   9 2.77   7 2.79
                             9 2.79   6 2.80   8 2.81   5 2.83
   5  0.251  0.005  0.253-  34 1.83  39 1.84  51 1.85  22 1.85  45 1.89  28 1.92   8 2.77   8 2.79
                            11 2.79  10 2.80   9 2.81   4 2.83
   6  0.251  0.993  0.748-  35 1.83  38 1.84  23 1.85  50 1.85  29 1.89  44 1.91   7 2.77   7 2.78
                             4 2.80   9 2.80  11 2.81  10 2.81
   7  0.749  0.996  0.750-  35 1.83  23 1.85  50 1.86  38 1.86  30 1.90  47 1.91   6 2.77   6 2.78
                             4 2.79   9 2.79  10 2.81  11 2.81
   8  0.749  0.005  0.252-  34 1.83  39 1.84  51 1.84  22 1.85  31 1.89  46 1.89   5 2.77   5 2.79
                            11 2.79  10 2.80   9 2.81   4 2.81
   9  0.501  0.994  0.998-  30 1.84  31 1.85  28 1.85  29 1.85  51 1.89  50 1.89   4 2.77   4 2.79
                             7 2.79   6 2.80   8 2.81   5 2.81   3 2.83
  10  1.000  0.000  0.500-  46 1.84  47 1.84  45 1.84  44 1.84  22 1.90  23 1.91  11 2.78  11 2.78
                             1 2.79   5 2.80   8 2.80   6 2.81   7 2.81
  11  0.500  0.001  0.500-  47 1.86  45 1.86  46 1.86  44 1.86  34 1.94  35 1.94  10 2.78  10 2.78
                             5 2.79   8 2.79   6 2.81   7 2.81
  12  0.000  0.501  0.500-  43 1.84  41 1.84  42 1.84  40 1.84  20 1.96  21 1.96  17 2.78  17 2.78
                            14 2.80  16 2.80  13 2.81  15 2.81
  13  0.251  0.505  0.752-  49 1.83  32 1.84  20 1.84  37 1.85  41 1.88  24 1.94  16 2.77  16 2.79
                            19 2.80  18 2.80  17 2.80  12 2.81
  14  0.251  0.500  0.250-  48 1.83  21 1.84  33 1.84  36 1.85  40 1.88  25 1.90  15 2.77  15 2.79
                            17 2.80   3 2.80  12 2.80  19 2.81  18 2.81
  15  0.750  0.496  0.248-  21 1.84  33 1.84  48 1.85  36 1.87  43 1.88  26 1.92  14 2.77  14 2.79
                            17 2.80  19 2.80  18 2.81  12 2.81
  16  0.749  0.506  0.752-  49 1.83  32 1.84  20 1.85  37 1.85  42 1.87  27 1.90  13 2.77  13 2.79
                            19 2.79  17 2.80  12 2.80  18 2.80
  17  0.500  0.501  0.500-  42 1.85  43 1.85  41 1.85  40 1.85  32 1.89  33 1.89  12 2.78  12 2.78
                            14 2.80  16 2.80  13 2.80  15 2.80
  18  0.000  0.503  0.000-  26 1.84  27 1.84  24 1.85  25 1.85  37 1.89  36 1.91  19 2.77  19 2.78
                            13 2.80  16 2.80  15 2.81  14 2.81
  19  0.501  0.504  0.001-  26 1.85  27 1.86  25 1.86  24 1.86  49 1.93  48 1.95  18 2.77  18 2.78
                            16 2.79  13 2.80  15 2.80  14 2.81
  20  0.000  0.404  0.643-  13 1.84  16 1.85  12 1.96   1 2.02
  21  0.997  0.599  0.357-  15 1.84  14 1.84  12 1.96   2 2.15
  22  0.000  0.102  0.367-   5 1.85   8 1.85  10 1.90
  23  0.998  0.899  0.634-   7 1.85   6 1.85  10 1.91
  24  0.249  0.403  0.888-  18 1.85  19 1.86  13 1.94
  25  0.248  0.600  0.117-  18 1.85  19 1.86  14 1.90   2 2.15
  26  0.753  0.599  0.116-  18 1.84  19 1.85  15 1.92   2 2.14
  27  0.752  0.406  0.885-  18 1.84  19 1.86  16 1.90   1 2.19
  28  0.250  0.096  0.108-   4 1.85   9 1.85   5 1.92   3 2.01
  29  0.249  0.897  0.884-   4 1.85   9 1.85   6 1.89
  30  0.750  0.897  0.885-   4 1.84   9 1.84   7 1.90
  31  0.750  0.094  0.110-   4 1.84   9 1.85   8 1.89
  32  0.500  0.407  0.638-  13 1.84  16 1.84  17 1.89
  33  0.503  0.595  0.362-  14 1.84  15 1.84  17 1.89
  34  0.500  0.102  0.363-   5 1.83   8 1.83  11 1.94
  35  0.502  0.899  0.637-   6 1.83   7 1.83  11 1.94
  36  0.005  0.400  0.133-  14 1.85  15 1.87  18 1.91   3 2.15
  37  0.001  0.602  0.866-  13 1.85  16 1.85  18 1.89
  38  0.004  0.097  0.859-   6 1.84   7 1.86   4 1.96   1 2.28
  39  0.000  0.903  0.145-   8 1.84   5 1.84   4 1.95   2 2.09
  40  0.250  0.404  0.386-  12 1.84  17 1.85  14 1.88
  41  0.250  0.598  0.614-  12 1.84  17 1.85  13 1.88
  42  0.751  0.598  0.614-  12 1.84  17 1.85  16 1.87
  43  0.751  0.403  0.387-  12 1.84  17 1.85  15 1.88
  44  0.248  0.096  0.616-  10 1.84  11 1.86   6 1.91   1 2.17
  45  0.249  0.904  0.385-  10 1.84  11 1.86   5 1.89   2 2.18
  46  0.752  0.904  0.385-  10 1.84  11 1.86   8 1.89   2 2.16
  47  0.752  0.097  0.615-  10 1.84  11 1.86   7 1.91   1 2.06
  48  0.496  0.400  0.137-  14 1.83  15 1.85  19 1.95   3 2.03
  49  0.500  0.603  0.862-  16 1.83  13 1.83  19 1.93
  50  0.496  0.093  0.864-   6 1.85   7 1.86   9 1.89   3 2.18
  51  0.500  0.905  0.140-   8 1.84   5 1.85   9 1.89

  LATTYP: Found a triclinic cell.
 ALAT       =    14.7737154565
 B/A-ratio  =     0.3761578482
 C/A-ratio  =     0.6872165047
 COS(alpha) =     0.0000958316
 COS(beta)  =     0.2187306895
 COS(gamma) =     0.7520062267

  Lattice vectors:

 A1 = (   9.7348973212, -11.1121153811,   0.1238317073)
 A2 = (  -0.0012398891,  -5.5572488254,  -0.0007634832)
 A3 = (   3.4909346333,  -0.0004420335,  -9.5337047886)

Analysis of symmetry for initial positions (statically):
 Subroutine PRICEL returns:
 Original cell was already a primitive cell.

 Routine SETGRP: Setting up the symmetry group for a
 triclinic supercell.

 Subroutine GETGRP returns: Found  1 space group operations
 (whereof  1 operations were pure point group operations)
 out of a pool of  2 trial point group operations.

The static configuration has the point symmetry C_1 .

Analysis of symmetry for dynamics (positions and initial velocities):
 Subroutine PRICEL returns:
 Original cell was already a primitive cell.

[...]

The dynamic configuration has the point symmetry C_1 .

Analysis of structural, dynamic, and magnetic symmetry:
 Subroutine PRICEL returns:
 Original cell was already a primitive cell.

 Routine SETGRP: Setting up the symmetry group for a
 triclinic supercell.

 Subroutine GETGRP returns: Found  1 space group operations
 (whereof  1 operations were pure point group operations)
 out of a pool of  2 trial point group operations.

The magnetic configuration has the point symmetry C_1 .

 Subroutine INISYM returns: Found  1 space group operations
 (whereof  1 operations are pure point group operations),
 and found     1 'primitive' translations

 KPOINTS: Automatic mesh

Automatic generation of k-mesh.
Space group operators:
 irot       det(A)        alpha          n_x          n_y          n_z        tau_x        tau_y        tau_z
    1     1.000000     0.000000     1.000000     0.000000     0.000000     0.000000     0.000000     0.000000

 Subroutine IBZKPT returns following result:

 Found      1 irreducible k-points:

 Following reciprocal coordinates:
            Coordinates               Weight
  0.000000  0.000000  0.000000      1.000000

 Following cartesian coordinates:
            Coordinates               Weight
  0.000000  0.000000  0.000000      1.000000

 SYSTEM =  unknown system
 POSCAR =  ce17469_1

 Startparameter for this run:
   NWRITE =      1    write-flag & timer
   PREC   = accura    normal or accurate (medium, high low for compatibility)
   ISTART =      0    job   : 0-new  1-cont  2-samecut
   ICHARG =      2    charge: 1-file 2-atom 10-const
   ISPIN  =      2    spin polarized calculation?
   LNONCOLLINEAR =      F non collinear calculations
   LSORBIT =      F    spin-orbit coupling
   INIWAV =      1    electr: 0-lowe 1-rand  2-diag
   LASPH  =      F    aspherical Exc in radial PAW
   METAGGA=      F    non-selfconsistent MetaGGA calc.

 Electronic Relaxation 1
   ENCUT  =  500.0 eV  36.75 Ry    6.06 a.u.  10.13 18.51 17.75*2*pi/ulx,y,z
   ENINI  =  500.0     initial cutoff
   ENAUG  =  628.9 eV  augmentation charge cutoff
   NELM   =     80;   NELMIN=  2; NELMDL= -5     # of ELM steps
   EDIFF  = 0.1E-04   stopping-criterion for ELM
   LREAL  =      T    real-space projection
   NLSPLINE    = F    spline interpolate recip. space projectors
   LCOMPAT=      F    compatible to vasp.4.4
   GGA_COMPAT  = T    GGA compatible to vasp.4.4-vasp.4.6
   LMAXPAW     = -100 max onsite density
   LMAXMIX     =    2 max onsite mixed and CHGCAR
   VOSKOWN=      1    Vosko Wilk Nusair interpolation
   ROPT   =   -0.00025  -0.00025  -0.00025
 Ionic relaxation
   EDIFFG = -.2E-01   stopping-criterion for IOM
   NSW    =     20    number of steps for IOM
   NBLOCK =      1;   KBLOCK =     20    inner block; outer block
   IBRION =      1    ionic relax: 0-MD 1-quasi-New 2-CG
   NFREE  =      0    steps in history (QN), initial steepest desc. (CG)
   ISIF   =      3    stress and relaxation
[...]

  length of vectors
     5.559486276 10.227595925  9.725278241     0.179873313  0.103530600  0.108877777

 FORCES acting on ions
    electron-ion (+dipol)            ewald-force                    non-local-force                 convergence-correction
   0.636E+00 -.674E+00 0.481E+00   -.147E+01 0.332E+00 -.364E+00   0.809E+00 0.329E+00 -.117E+00   -.142E-02 -.861E-04 0.222E-03
   -.562E+01 -.745E-01 -.233E+00   0.534E+01 -.110E-01 0.285E+00   0.275E+00 0.774E-01 -.569E-01   0.159E-02 0.668E-04 -.320E-03
   0.306E+01 0.351E+00 -.253E+01   -.204E+01 0.385E-02 0.243E+01   -.984E+00 -.349E+00 0.975E-01   0.549E-04 0.772E-03 0.127E-02
   -.161E+02 0.104E+02 0.384E+02   0.167E+02 -.105E+02 -.394E+02   -.518E+00 0.120E+00 0.944E+00   -.885E-03 -.116E-02 0.310E-02
   0.162E+02 -.101E+02 -.596E+02   -.168E+02 0.102E+02 0.605E+02   0.557E+00 -.119E+00 -.886E+00   0.745E-02 0.464E-02 0.528E-02
   0.137E+02 -.108E+02 0.656E+02   -.136E+02 0.110E+02 -.670E+02   -.639E-01 -.147E+00 0.142E+01   -.787E-02 -.107E-02 -.822E-03
   -.649E+01 0.113E+02 0.235E+02   0.667E+01 -.115E+02 -.246E+02   -.174E+00 0.197E+00 0.117E+01   -.794E-02 0.171E-02 -.285E-03
   0.127E+02 0.104E+02 -.570E+02   -.132E+02 -.105E+02 0.580E+02   0.567E+00 0.133E+00 -.104E+01   0.692E-02 -.443E-02 0.451E-02
   -.155E+02 -.112E+02 0.480E+02   0.159E+02 0.114E+02 -.492E+02   -.444E+00 -.179E+00 0.119E+01   0.280E-02 0.224E-02 0.325E-02
   -.960E+00 -.198E+01 0.110E+01   0.969E+00 0.192E+01 -.121E+01   -.109E-01 0.511E-01 0.106E+00   0.349E-03 -.646E-03 0.120E-02
   -.216E+01 0.160E+01 -.738E+01   0.228E+01 -.152E+01 0.747E+01   -.111E+00 -.822E-01 -.914E-01   -.164E-02 0.805E-03 0.132E-02
   0.105E-01 -.243E+01 0.243E+01   0.788E-01 0.242E+01 -.248E+01   -.942E-01 0.187E-01 0.611E-01   0.173E-02 0.926E-03 -.211E-02
   0.195E+02 -.901E+01 -.239E+02   -.201E+02 0.915E+01 0.251E+02   0.543E+00 -.132E+00 -.112E+01   -.312E-02 -.260E-02 0.240E-03
   -.437E+02 -.106E+02 -.689E+01   0.444E+02 0.108E+02 0.689E+01   -.698E+00 -.202E+00 0.140E-02   0.336E-02 0.249E-02 -.388E-02
   -.209E+02 0.940E+01 0.573E+02   0.213E+02 -.959E+01 -.581E+02   -.491E+00 0.204E+00 0.799E+00   0.308E-02 -.142E-02 -.208E-02
   0.233E+02 0.940E+01 -.393E+02   -.237E+02 -.958E+01 0.405E+02   0.457E+00 0.171E+00 -.122E+01   -.160E-02 0.314E-02 -.147E-02
   -.741E+00 0.261E+01 0.438E+01   0.836E+00 -.260E+01 -.444E+01   -.941E-01 -.539E-02 0.651E-01   -.539E-04 -.115E-02 -.127E-02
   0.118E+02 0.118E+02 -.148E+02   -.122E+02 -.120E+02 0.153E+02   0.320E+00 0.162E+00 -.474E+00   -.177E-02 -.228E-02 -.449E-03
   0.969E+01 -.115E+02 -.308E+02   -.100E+02 0.117E+02 0.317E+02   0.329E+00 -.178E+00 -.863E+00   0.464E-03 0.800E-03 -.115E-02
   0.528E+02 -.352E+01 0.369E+03   -.571E+02 0.367E+01 -.389E+03   0.429E+01 -.150E+00 0.207E+02   -.397E-02 0.401E-02 0.280E-02
   -.537E+02 0.324E+01 -.372E+03   0.580E+02 -.381E+01 0.394E+03   -.429E+01 0.576E+00 -.223E+02   0.332E-02 -.184E-02 -.308E-02
   0.673E+01 0.763E+00 -.417E+03   -.696E+01 -.912E+00 0.444E+03   0.223E+00 0.142E+00 -.266E+02   0.577E-02 0.315E-02 -.639E-03
   0.327E+01 0.136E+01 0.409E+03   -.370E+01 -.169E+01 -.436E+03   0.443E+00 0.334E+00 0.268E+02   -.544E-02 -.360E-02 0.181E-02
   0.253E+02 -.288E+02 0.364E+03   -.273E+02 0.309E+02 -.385E+03   0.199E+01 -.205E+01 0.204E+02   -.418E-02 0.410E-04 0.133E-02
   0.878E+01 -.327E+02 -.381E+03   -.950E+01 0.352E+02 0.403E+03   0.718E+00 -.242E+01 -.225E+02   -.893E-03 -.102E-02 -.965E-03
   0.174E+01 0.339E+02 -.371E+03   -.135E+01 -.364E+02 0.393E+03   -.393E+00 0.247E+01 -.225E+02   0.226E-02 0.154E-02 -.231E-02
   -.315E+01 0.300E+02 0.374E+03   0.392E+01 -.324E+02 -.396E+03   -.768E+00 0.233E+01 0.220E+02   -.725E-03 0.196E-02 -.123E-02
   -.373E+02 0.674E+01 -.365E+03   0.401E+02 -.742E+01 0.386E+03   -.284E+01 0.671E+00 -.202E+02   0.681E-02 0.963E-02 0.395E-02
   -.201E+01 0.181E+01 0.407E+03   0.252E+01 -.185E+01 -.433E+03   -.503E+00 0.271E-01 0.269E+02   -.241E-02 0.966E-02 -.403E-02
   0.494E+01 -.305E+01 0.400E+03   -.544E+01 0.318E+01 -.427E+03   0.508E+00 -.123E+00 0.273E+02   -.657E-02 -.979E-02 -.200E-02
   -.525E+01 -.399E+01 -.396E+03   0.452E+01 0.423E+01 0.421E+03   0.728E+00 -.235E+00 -.258E+02   0.225E-02 -.105E-01 0.533E-02
   0.154E+02 0.115E+01 0.400E+03   -.154E+02 -.103E+01 -.426E+03   -.566E-01 -.111E+00 0.263E+02   -.169E-02 -.235E-02 0.162E-02
   -.175E+02 -.209E+01 -.395E+03   0.177E+02 0.267E+01 0.422E+03   -.136E+00 -.591E+00 -.267E+02   0.134E-02 0.276E-02 -.132E-02
   -.125E+02 0.140E+00 -.413E+03   0.138E+02 -.153E-01 0.440E+03   -.135E+01 -.124E+00 -.270E+02   0.301E-02 -.457E-02 -.136E-02
   0.213E+02 -.254E+01 0.403E+03   -.233E+02 0.301E+01 -.430E+03   0.207E+01 -.472E+00 0.268E+02   -.301E-02 0.351E-02 0.269E-02
   -.208E+02 0.300E+02 0.385E+03   0.214E+02 -.323E+02 -.408E+03   -.597E+00 0.224E+01 0.221E+02   0.164E-02 -.151E-02 0.229E-02
   0.120E+02 -.598E+00 -.403E+03   -.123E+02 0.757E+00 0.430E+03   0.340E+00 -.163E+00 -.267E+02   -.128E-02 0.357E-02 -.385E-02
   -.259E+02 0.238E+02 -.359E+03   0.283E+02 -.252E+02 0.379E+03   -.242E+01 0.142E+01 -.201E+02   -.829E-02 -.503E-02 0.594E-02
   0.423E+02 -.248E+01 0.361E+03   -.464E+02 0.286E+01 -.382E+03   0.405E+01 -.390E+00 0.211E+02   0.930E-02 0.351E-02 -.501E-02
   -.186E+02 0.190E+01 0.397E+03   0.196E+02 -.203E+01 -.423E+03   -.919E+00 0.135E+00 0.263E+02   0.389E-02 -.192E-02 0.338E-02
   0.937E+01 0.319E+01 -.392E+03   -.990E+01 -.334E+01 0.419E+03   0.533E+00 0.153E+00 -.268E+02   -.286E-03 -.246E-02 -.527E-02
   0.110E+02 -.226E+01 -.394E+03   -.119E+02 0.237E+01 0.421E+03   0.947E+00 -.116E+00 -.269E+02   -.384E-02 0.292E-02 -.336E-02
   -.110E+02 -.282E+01 0.402E+03   0.119E+02 0.301E+01 -.428E+03   -.901E+00 -.189E+00 0.265E+02   0.910E-03 0.327E-02 0.459E-02
   0.150E+02 -.335E+02 -.373E+03   -.149E+02 0.361E+02 0.395E+03   -.108E+00 -.258E+01 -.222E+02   -.717E-02 -.181E-02 -.125E-02
   -.163E+02 -.328E+02 0.371E+03   0.170E+02 0.352E+02 -.394E+03   -.734E+00 -.243E+01 0.233E+02   0.313E-02 -.434E-03 0.393E-02
   -.175E+02 0.329E+02 0.370E+03   0.184E+02 -.354E+02 -.393E+03   -.971E+00 0.255E+01 0.229E+02   0.697E-02 0.469E-03 0.178E-02
   0.113E+02 0.369E+02 -.370E+03   -.115E+02 -.398E+02 0.391E+03   0.156E+00 0.295E+01 -.211E+02   -.287E-02 0.621E-03 -.311E-02
   -.483E+01 -.332E+02 0.373E+03   0.395E+01 0.356E+02 -.395E+03   0.878E+00 -.249E+01 0.212E+02   0.235E-02 0.361E-02 -.125E-03
   -.636E+01 0.194E+01 -.400E+03   0.762E+01 -.223E+01 0.427E+03   -.126E+01 0.285E+00 -.270E+02   -.207E-02 -.298E-02 -.202E-02
   0.105E+02 -.256E+02 -.371E+03   -.119E+02 0.274E+02 0.393E+03   0.139E+01 -.178E+01 -.223E+02   0.129E-02 0.377E-02 0.719E-03
   0.202E+01 0.124E+01 0.388E+03   -.116E+01 -.148E+01 -.414E+03   -.858E+00 0.251E+00 0.262E+02   -.400E-03 -.370E-02 0.357E-03
   -.352E+00 -.190E+00 -.268E+00   0.295E-12 0.171E-13 -.568E-12   0.337E+00 0.185E+00 0.255E+00   0.668E-03 0.720E-02 0.813E-02

 POSITION                                       TOTAL-FORCE (eV/Angst)
      6.21804      5.45675      2.50916        -0.022402     -0.012876      0.000881
     -0.21342      5.54364      7.25833        -0.002304     -0.008088     -0.005083
     -0.64172      1.50695      2.38023         0.034277      0.006487      0.000585
      6.23271      5.56577      9.69473         0.000780     -0.000866     -0.002929
      2.44035      1.39565      0.06809         0.003396     -0.004289     -0.009092
      3.81052      1.40409      9.65782        -0.000360      0.004285      0.006334
      3.81832      4.17857      9.68856        -0.001962     -0.005876      0.005333
      2.43844      4.16536      0.06477         0.002754     -0.000261     -0.008055
      6.23936      2.79639      9.68690        -0.001376     -0.002350     -0.002432
      4.86297      5.55884      0.06757        -0.000968     -0.001993     -0.002114
      4.85995      2.77916      0.07121         0.001884     -0.002073     -0.001434
      3.11824      0.00839      4.88455        -0.002922      0.001856      0.004863
      5.54608      1.40563      4.94642        -0.003252      0.004461     -0.000086
      0.69152      1.40361      4.84465        -0.000452     -0.003977      0.004381
      0.68757      4.17638      4.80231         0.001170      0.007593      0.003917
      5.54419      4.17396      4.96306        -0.003582      0.001095      0.000575
      3.11760      2.79083      4.88770         0.000993      0.003013      0.004436
     -1.75037      0.00919      4.83010         0.001233      0.003875     -0.001283
     -1.75128      2.79168      4.84873        -0.001375      0.002092     -0.001207
      4.84154      0.00846      3.96948        -0.004671      0.004444      0.003595
      1.38586      5.55009      5.80821        -0.000872     -0.000862      0.001026
      3.21461     -0.00150      1.00237        -0.000573     -0.003591     -0.008175
      3.03235      5.56015      8.74935         0.001799      0.000260      0.004639
      7.23108      1.39736      3.99234        -0.003074      0.005023     -0.001349
     -0.96187      1.38443      5.78091        -0.002085      0.000267     -0.001184
     -0.96460      4.19269      5.77029        -0.001238     -0.001139     -0.001780
      7.19182      4.19001      4.02112        -0.002332      0.003884     -0.002810
      0.72651      1.38549      0.92096         0.006154     -0.003637     -0.005521
      5.46179      1.39799      8.75236        -0.002363      0.000661      0.002608
      5.47012      4.18539      8.75945        -0.003073      0.001091      0.001568
      0.75485      4.16954      0.90529         0.003783     -0.003660     -0.003815
      4.78366      2.79287      4.00507        -0.001801      0.005160      0.003233
      1.44764      2.80535      5.77180        -0.001510      0.000398      0.003723
      3.17126      2.78022      1.01679        -0.000189     -0.003958     -0.007967
      3.06768      2.80374      8.73973         0.002164      0.000378      0.007871
     -0.10237      0.04115      3.87130        -0.000133      0.005087      0.000258
      6.32690      0.01333      5.88227         0.000760     -0.000411      0.001512
      8.01103      0.02363      1.04963         0.001488     -0.004949      0.007224
     -1.73487      0.01473      8.68666         0.001148      0.001092     -0.008421
      2.34380      1.39767      3.95057         0.000078      0.003738      0.004610
      3.88073      1.39634      5.82637         0.000722     -0.001905      0.003523
      3.88359      4.17940      5.83173        -0.000676      0.000013      0.003915
      2.36277      4.18383      3.94104        -0.001093      0.005513      0.003983
      5.65310      1.37646      0.99908        -0.002254     -0.004238      0.003237
      0.59309      1.39505      8.74181         0.001836      0.000453     -0.005306
      0.59156      4.19022      8.74548         0.003157      0.001439     -0.005488
      5.63975      4.17767      1.01082        -0.002190     -0.003690      0.001884
     -0.05865      2.76510      3.86954        -0.000953      0.005255     -0.000946
      6.27863      2.78504      5.90172         0.000695     -0.001127      0.000815
      8.08592      2.75552      1.01086         0.003987     -0.004568      0.005291
     -1.80066      2.79224      8.71887        -0.002222      0.001472     -0.009341
    total drift:                               -0.013651      0.002928     -0.005133

  FREE ENERGIE OF THE ION-ELECTRON SYSTEM (eV)
  free  energy   TOTEN  =      -319.2761638768 eV

  energy  without entropy=     -319.2745223431  energy(sigma->0) =     -319.27534311

 d Force =-0.2949768E-04[-0.309E-04,-0.281E-04]  d Energy =-0.2961413E-04 0.116E-06
 d Force = 0.1220967E+00[ 0.122E+00, 0.122E+00]  d Ewald  = 0.1302014E+00-0.810E-02

 Quasi-Newton relaxation of ions (Broydens 2nd method)
  g(Force)  = 0.183E-03   g(Stress)= 0.228E-03

 retain information from N=  2 steps
 eigenvalues of (default step * inverse Hessian matrix)
  average eigenvalue of G=   0.0969
 eigenvalue spectrum of G is  0.0179  0.1760

volume of typ            1:     4.5 %

[...]

volume of typ            3:    10.0 %

total charge

# of ion       s       p       d       tot
    1        2.063   0.195   0.073   2.331
    2        2.063   0.193   0.073   2.328
    3        2.063   0.201   0.076   2.340
    4        0.288   0.401   7.843   8.533
    5        0.299   0.424   7.832   8.555
    6        0.303   0.431   7.834   8.568
    7        0.296   0.415   7.832   8.543
    8        0.304   0.433   7.830   8.567
    9        0.302   0.428   7.835   8.564
   10        0.303   0.428   7.842   8.573
   11        0.285   0.391   7.833   8.509
   12        0.288   0.403   7.836   8.527
   13        0.299   0.423   7.833   8.556
   14        0.304   0.434   7.838   8.576
   15        0.296   0.417   7.830   8.543
   16        0.304   0.433   7.832   8.569
   17        0.301   0.426   7.828   8.555
   18        0.303   0.429   7.843   8.574
   19        0.283   0.389   7.840   8.513
   20        1.271   2.766   0.007   4.044
   21        1.275   2.751   0.008   4.033
   22        1.284   2.727   0.008   4.019
   23        1.285   2.724   0.008   4.017
   24        1.269   2.765   0.007   4.042
   25        1.273   2.757   0.008   4.038
   26        1.273   2.759   0.008   4.040
   27        1.272   2.759   0.008   4.039
   28        1.270   2.771   0.007   4.048
   29        1.284   2.727   0.008   4.019
   30        1.284   2.727   0.009   4.020
   31        1.282   2.736   0.008   4.026
   32        1.282   2.734   0.008   4.024
   33        1.283   2.729   0.008   4.021
   34        1.284   2.726   0.008   4.018
   35        1.286   2.722   0.008   4.016
   36        1.272   2.758   0.007   4.037
   37        1.284   2.726   0.008   4.019
   38        1.269   2.765   0.007   4.041
   39        1.274   2.758   0.007   4.039
   40        1.283   2.732   0.008   4.023
   41        1.285   2.726   0.008   4.019
   42        1.284   2.729   0.009   4.022
   43        1.284   2.729   0.008   4.022
   44        1.273   2.758   0.008   4.039
   45        1.274   2.754   0.008   4.036
   46        1.273   2.759   0.008   4.040
   47        1.271   2.766   0.008   4.044
   48        1.270   2.767   0.007   4.044
   49        1.285   2.725   0.008   4.018
   50        1.271   2.762   0.008   4.041
   51        1.283   2.732   0.008   4.023
tot          51.84   95.12  125.83  272.79

magnetization (x)

# of ion       s       p       d       tot
    1        0.000   0.001   0.000   0.001
    2       -0.000   0.000  -0.000   0.000
    3        0.003  -0.000   0.000   0.003
    4       -0.002   0.001  -0.316  -0.318
    5        0.000  -0.001   0.130   0.130
    6        0.000  -0.001   0.085   0.085
    7        0.000  -0.000   0.132   0.131
    8        0.000  -0.000   0.076   0.076
    9       -0.000   0.001  -0.037  -0.037
   10       -0.000   0.001  -0.048  -0.047
   11       -0.000   0.001  -0.218  -0.218
   12        0.001   0.001   0.268   0.270
   13       -0.000   0.001   0.110   0.111
   14       -0.000   0.000   0.066   0.067
   15       -0.000   0.000   0.108   0.108
   16       -0.000   0.000   0.057   0.058
   17        0.000   0.001   0.023   0.024
   18       -0.000   0.001   0.039   0.040
   19       -0.000   0.000   0.246   0.246
   20        0.004   0.018   0.000   0.022
   21        0.004   0.020   0.000   0.024
   22        0.001   0.001  -0.000   0.001
   23        0.001   0.004  -0.000   0.005
   24        0.003   0.008   0.000   0.011
   25        0.002   0.008   0.000   0.010
   26        0.002   0.007   0.000   0.010
   27        0.002   0.006   0.000   0.008
   28        0.000   0.003   0.000   0.003
   29       -0.000  -0.002   0.000  -0.002
   30        0.000   0.003   0.000   0.003
   31       -0.000  -0.001   0.000  -0.001
   32        0.001   0.000   0.000   0.002
   33        0.002   0.001   0.000   0.002
   34       -0.001  -0.018  -0.000  -0.018
   35       -0.001  -0.020  -0.000  -0.021
   36        0.002   0.002   0.000   0.004
   37        0.002   0.003   0.000   0.004
   38       -0.002  -0.023  -0.000  -0.024
   39       -0.002  -0.025  -0.000  -0.028
   40        0.002   0.010   0.000   0.012
   41        0.002   0.015   0.000   0.016
   42        0.001   0.011   0.000   0.013
   43        0.002   0.014   0.000   0.016
   44       -0.001   0.002   0.000   0.001
   45        0.000   0.007   0.000   0.007
   46       -0.001   0.000  -0.000  -0.000
   47       -0.001   0.005   0.000   0.005
   48        0.003   0.021   0.000   0.024
   49        0.003   0.029   0.000   0.032
   50        0.001   0.002   0.000   0.003
   51        0.001   0.004  -0.000   0.005
tot           0.04    0.12    0.72    0.88