 vasp.5.4.4.18Apr17-6-g9f103f2a35 (build May 12 2020 05:39:39) gamma-only

 MD_VERSION_INFO: Compiled 2020-05-12T12:39:39-UTC in devlin.sd.materialsdesign.
 com:/home/medea2/data/build/wwolf/vasp-gpu5.4.4/13047/x86_64/src/src/build/gam
 from svn 13047

 executed on                        Lin64 date 2023.03.07  00:23:34

 INCAR:
 POTCAR:    PAW_PBE Li_sv 10Sep2004
 POTCAR:    PAW_PBE Ni 02Aug2007
 POTCAR:    PAW_PBE O 08Apr2002

 POTCAR:    PAW_PBE Li_sv 10Sep2004

 POTCAR:    PAW_PBE Ni 02Aug2007

 POTCAR:    PAW_PBE O 08Apr2002

 Optimization of the real space projectors (new method)

 maximal supplied QI-value         = 22.11
 optimisation between [QCUT,QGAM] = [ 11.28, 22.77] = [ 35.61,145.23] Ry
 Optimized for a Real-space Cutoff    1.10 Angstroem

   l    n(q)    QCUT    max X(q) W(low)/X(q) W(high)/X(q)  e(spline)
   0      7    11.276    10.506    0.54E-04    0.58E-04    0.16E-07
   0      7    11.276     8.367    0.11E-03    0.14E-03    0.35E-07
   1      7    11.276     8.983    0.23E-03    0.43E-03    0.86E-07
 Optimization of the real space projectors (new method)

[...]

   l    n(q)    QCUT    max X(q) W(low)/X(q) W(high)/X(q)  e(spline)
   2      9    11.376    60.317    0.17E-03    0.16E-04    0.16E-06
   2      9    11.376    55.921    0.17E-03    0.16E-04    0.17E-06
   0     10    11.376    51.690    0.45E-04    0.60E-04    0.21E-06
   0     10    11.376    30.015    0.37E-04    0.55E-04    0.19E-06
   1     10    11.376    18.849    0.83E-04    0.11E-03    0.92E-07
   1     10    11.376    14.624    0.69E-04    0.92E-04    0.82E-07
 Optimization of the real space projectors (new method)

 maximal supplied QI-value         = 24.76
 optimisation between [QCUT,QGAM] = [ 11.39, 22.77] = [ 36.31,145.25] Ry
 Optimized for a Real-space Cutoff    1.10 Angstroem

   l    n(q)    QCUT    max X(q) W(low)/X(q) W(high)/X(q)  e(spline)
   0      7    11.387    20.381    0.22E-03    0.48E-03    0.18E-06
   0      7    11.387    15.268    0.22E-03    0.52E-03    0.19E-06
   1      7    11.387     5.964    0.22E-03    0.73E-03    0.24E-06
   1      7    11.387     5.382    0.19E-03    0.60E-03    0.21E-06

  PAW_PBE Li_sv 10Sep2004               :
  PAW_PBE Ni 02Aug2007                  :
  PAW_PBE O 08Apr2002                   :

 POSCAR: ce15860_1
  positions in direct lattice
 exchange correlation table for  LEXCH =       14
   RHO(1)=    0.500       N(1)  =     2000
   RHO(2)=  100.500       N(2)  =     4000

 ion  position               nearest neighbor table
   1  0.254  0.251  0.483-  46 2.01  40 2.08  28 2.09  38 2.14  26 2.22  50 2.23  11 2.78  23 2.83

   2  0.746  0.251  0.483-  49 2.01  40 2.08  28 2.09  38 2.14  26 2.22  53 2.23  14 2.78  23 2.83

   3  0.500  0.751  0.715-  41 1.96  47 2.04  48 2.04  36 2.28  35 2.28  23 2.70
   4  0.000  0.249  0.748-  26 2.03  50 2.13  53 2.13  44 2.14  33 2.15  30 2.15  16 2.84
   5  0.000  0.751  0.284-  27 1.91  51 2.05  52 2.05  16 2.71
   6  0.254  0.249  0.019-  34 2.04  54 2.06  42 2.08  56 2.16  44 2.19  20 2.75
   7  0.250  0.749  0.999-  43 2.11  35 2.12  57 2.13  31 2.13  45 2.14  55 2.15
   8  0.750  0.749  0.999-  43 2.11  36 2.12  57 2.13  32 2.13  45 2.14  55 2.15
   9  0.746  0.249  0.019-  37 2.04  54 2.06  42 2.08  56 2.16  44 2.19  21 2.75
  10  0.000  0.995  0.998-  34 1.85  37 1.85  36 1.86  35 1.86  45 2.02  44 2.03  15 2.78  15 2.78
                            12 2.83  13 2.83  11 2.84  14 2.84
  11  0.250  0.001  0.249-  40 1.86  45 1.88  28 1.89  57 1.89  51 1.94  34 1.96   1 2.78  14 2.78
                            14 2.79  16 2.83  15 2.83  10 2.84  17 2.84
  12  0.250  0.006  0.753-  41 1.84  29 1.85  44 1.86  56 1.88  50 2.04  35 2.05  13 2.78  13 2.79
                            10 2.83  15 2.84  17 2.85  16 2.86
  13  0.750  0.006  0.753-  41 1.84  29 1.85  44 1.86  56 1.88  53 2.04  36 2.05  12 2.78  12 2.79
                            10 2.83  15 2.84  17 2.85  16 2.86
  14  0.750  0.001  0.249-  40 1.86  45 1.88  28 1.89  57 1.89  52 1.94  37 1.96   2 2.78  11 2.78
                            11 2.79  16 2.83  15 2.83  10 2.84  17 2.84
  15  0.500  0.998  0.999-  35 1.84  36 1.84  34 1.85  37 1.85  56 1.91  57 1.93  10 2.78  10 2.78
                            14 2.83  11 2.83  12 2.84  13 2.84
  16  0.000  0.003  0.499-  51 1.85  52 1.85  50 1.85  53 1.85  29 1.91  28 1.93   5 2.71  17 2.78
                            17 2.78  11 2.83  14 2.83   4 2.84  13 2.86  12 2.86
  17  0.500  0.000  0.499-  51 1.86  52 1.86  50 1.86  53 1.86  41 1.96  40 1.97  16 2.78  16 2.78
                            11 2.84  14 2.84  13 2.85  12 2.85
  18  0.000  0.506  0.504-  46 1.84  49 1.84  48 1.85  47 1.85  27 2.02  26 2.12  23 2.78  23 2.78
                            19 2.82  22 2.82  21 2.85  20 2.85
  19  0.250  0.497  0.749-  26 1.86  55 1.86  38 1.90  43 1.91  47 1.94  30 2.00  22 2.78  22 2.79
                            18 2.82  23 2.83  25 2.84  24 2.84
  20  0.251  0.496  0.250-  27 1.83  54 1.85  39 1.86  42 1.89  46 1.99  31 2.05   6 2.75  21 2.77
                            21 2.79  23 2.83  25 2.84  24 2.85  18 2.85
  21  0.749  0.496  0.250-  27 1.83  54 1.85  39 1.86  42 1.89  49 1.99  32 2.05   9 2.75  20 2.77
                            20 2.79  23 2.83  25 2.84  24 2.85  18 2.85
  22  0.750  0.497  0.749-  26 1.86  55 1.86  38 1.90  43 1.91  48 1.94  33 2.00  19 2.78  19 2.79
                            18 2.82  23 2.83  25 2.84  24 2.84
  23  0.500  0.500  0.500-  46 1.85  49 1.85  48 1.85  47 1.85  39 1.89  38 1.91   3 2.70  18 2.78
                            18 2.78  21 2.83  20 2.83   2 2.83   1 2.83  22 2.83  19 2.83
  24  0.000  0.500  1.000-  31 1.85  32 1.85  30 1.85  33 1.85  43 1.90  42 1.90  25 2.78  25 2.78
                            19 2.84  22 2.84  21 2.85  20 2.85
  25  0.500  0.499  1.000-  31 1.85  32 1.85  30 1.86  33 1.86  54 1.98  55 2.03  24 2.78  24 2.78
                            19 2.84  22 2.84  21 2.84  20 2.84
  26  0.000  0.388  0.643-  19 1.86  22 1.86   4 2.03  18 2.12   1 2.22   2 2.22
  27  0.000  0.599  0.354-  20 1.83  21 1.83   5 1.91  18 2.02
  28  0.000  0.105  0.367-  11 1.89  14 1.89  16 1.93   2 2.09   1 2.09
  29  0.000  0.910  0.636-  12 1.85  13 1.85  16 1.91
  30  0.249  0.396  0.889-  24 1.85  25 1.86  19 2.00   4 2.15
  31  0.249  0.603  0.109-  24 1.85  25 1.85  20 2.05   7 2.13
  32  0.751  0.603  0.109-  24 1.85  25 1.85  21 2.05   8 2.13
  33  0.751  0.396  0.889-  24 1.85  25 1.86  22 2.00   4 2.15
  34  0.248  0.098  0.109-  10 1.85  15 1.85  11 1.96   6 2.04
  35  0.253  0.894  0.888-  15 1.84  10 1.86  12 2.05   7 2.12   3 2.28
  36  0.747  0.894  0.888-  15 1.84  10 1.86  13 2.05   8 2.12   3 2.28
  37  0.752  0.098  0.109-  10 1.85  15 1.85  14 1.96   9 2.04
  38  0.500  0.395  0.626-  19 1.90  22 1.90  23 1.91   2 2.14   1 2.14
  39  0.500  0.594  0.366-  20 1.86  21 1.86  23 1.89
  40  0.500  0.103  0.363-  11 1.86  14 1.86  17 1.97   2 2.08   1 2.08
  41  0.500  0.907  0.642-  12 1.84  13 1.84   3 1.96  17 1.96
  42  0.000  0.397  0.128-  20 1.89  21 1.89  24 1.90   9 2.08   6 2.08
  43  0.000  0.601  0.871-  24 1.90  22 1.91  19 1.91   8 2.11   7 2.11
  44  0.000  0.109  0.866-  12 1.86  13 1.86  10 2.03   4 2.14   9 2.19   6 2.19
  45  0.000  0.892  0.139-  11 1.88  14 1.88  10 2.02   8 2.14   7 2.14
  46  0.245  0.400  0.393-  18 1.84  23 1.85  20 1.99   1 2.01
  47  0.254  0.600  0.617-  18 1.85  23 1.85  19 1.94   3 2.04
  48  0.746  0.600  0.617-  18 1.85  23 1.85  22 1.94   3 2.04
  49  0.755  0.400  0.393-  18 1.84  23 1.85  21 1.99   2 2.01
  50  0.249  0.108  0.608-  16 1.85  17 1.86  12 2.04   4 2.13   1 2.23
  51  0.248  0.902  0.385-  16 1.85  17 1.86  11 1.94   5 2.05
  52  0.752  0.902  0.385-  16 1.85  17 1.86  14 1.94   5 2.05
  53  0.751  0.108  0.608-  16 1.85  17 1.86  13 2.04   4 2.13   2 2.23
  54  0.500  0.396  0.136-  20 1.85  21 1.85  25 1.98   9 2.06   6 2.06
  55  0.500  0.603  0.859-  19 1.86  22 1.86  25 2.03   8 2.15   7 2.15
  56  0.500  0.104  0.873-  12 1.88  13 1.88  15 1.91   9 2.16   6 2.16
  57  0.500  0.896  0.130-  11 1.89  14 1.89  15 1.93   8 2.13   7 2.13

  LATTYP: Found a simple monoclinic cell.
 ALAT       =    11.4581262595
 B/A-ratio  =     0.4859469181
 C/A-ratio  =     1.6864935031
 COS(beta)  =    -0.9041422094

  Lattice vectors:

 A1 = (  -6.2687271916,   0.0000000000,  -9.5912312440)
 A2 = (   0.0000000000,  -5.5680411425,   0.0000000000)
 A3 = (   2.6480368122,   0.0000000000,  19.1417611991)

Analysis of symmetry for initial positions (statically):
 Subroutine PRICEL returns:
 Original cell was already a primitive cell.

 Routine SETGRP: Setting up the symmetry group for a
 simple monoclinic supercell.

 Subroutine GETGRP returns: Found  2 space group operations
 (whereof  2 operations were pure point group operations)
 out of a pool of  4 trial point group operations.

The static configuration has the point symmetry C_1h.

Analysis of symmetry for dynamics (positions and initial velocities):
 Subroutine PRICEL returns:
 Original cell was already a primitive cell.

[...]

The dynamic configuration has the point symmetry C_1h.

Analysis of structural, dynamic, and magnetic symmetry:
 Subroutine PRICEL returns:
 Original cell was already a primitive cell.

 Routine SETGRP: Setting up the symmetry group for a
 simple monoclinic supercell.

 Subroutine GETGRP returns: Found  2 space group operations
 (whereof  2 operations were pure point group operations)
 out of a pool of  4 trial point group operations.

The magnetic configuration has the point symmetry C_1h.

 Subroutine INISYM returns: Found  2 space group operations
 (whereof  2 operations are pure point group operations),
 and found     1 'primitive' translations

 KPOINTS: Automatic mesh

Automatic generation of k-mesh.
Space group operators:
 irot       det(A)        alpha          n_x          n_y          n_z        tau_x        tau_y        tau_z
    1     1.000000     0.000000     1.000000     0.000000     0.000000     0.000000     0.000000     0.000000
    2    -1.000000   180.000000     0.000000     1.000000     0.000000     0.000000     0.000000     0.000000

 Subroutine IBZKPT returns following result:

 Found      1 irreducible k-points:

 Following reciprocal coordinates:
            Coordinates               Weight
  0.000000  0.000000  0.000000      1.000000

 Following cartesian coordinates:
            Coordinates               Weight
  0.000000  0.000000  0.000000      1.000000

 SYSTEM =  unknown system
 POSCAR =  ce15860_1

 Startparameter for this run:
   NWRITE =      1    write-flag & timer
   PREC   = accura    normal or accurate (medium, high low for compatibility)
   ISTART =      0    job   : 0-new  1-cont  2-samecut
   ICHARG =      2    charge: 1-file 2-atom 10-const
   ISPIN  =      2    spin polarized calculation?
   LNONCOLLINEAR =      F non collinear calculations
   LSORBIT =      F    spin-orbit coupling
   INIWAV =      1    electr: 0-lowe 1-rand  2-diag
   LASPH  =      F    aspherical Exc in radial PAW
   METAGGA=      F    non-selfconsistent MetaGGA calc.

 Electronic Relaxation 1
   ENCUT  =  500.0 eV  36.75 Ry    6.06 a.u.  10.15 18.62 18.03*2*pi/ulx,y,z
[...]
   0.278E+02 0.176E+01 0.578E+02   -.285E+02 -.172E+01 -.586E+02   0.567E+00 -.491E-01 0.830E+00   0.495E-01 0.905E-02 0.139E-01
   -.852E+00 0.131E+02 -.215E+01   0.824E+00 -.132E+02 0.234E+01   0.736E-01 0.151E+00 -.185E+00   -.456E-01 0.817E-02 -.664E-02
   0.185E+01 0.971E-12 -.183E+01   -.175E+01 -.885E-13 0.185E+01   -.972E-01 0.000E+00 -.968E-02   -.375E-02 -.155E-11 -.983E-02
   -.385E+02 -.459E-15 0.100E+03   0.392E+02 0.654E-14 -.101E+03   -.684E+00 0.000E+00 0.745E+00   -.247E-02 -.550E-12 0.132E-01
   -.411E+02 0.101E-11 0.116E+03   0.415E+02 -.586E-13 -.118E+03   -.443E+00 0.000E+00 0.106E+01   -.239E-02 0.522E-12 0.118E-01
   0.397E+02 -.310E-13 -.129E+03   -.408E+02 -.502E-13 0.131E+03   0.100E+01 0.000E+00 -.133E+01   0.558E-01 0.118E-11 0.648E-02
   0.219E+02 -.217E+01 -.222E+02   -.224E+02 0.219E+01 0.224E+02   0.507E+00 -.108E-01 -.251E+00   -.938E-03 -.853E-02 0.914E-02
   -.454E+02 -.125E+02 -.351E+02   0.465E+02 0.127E+02 0.355E+02   -.113E+01 -.174E+00 -.393E+00   -.207E-02 -.708E-02 -.123E-01
   -.454E+02 0.125E+02 -.351E+02   0.465E+02 -.127E+02 0.355E+02   -.113E+01 0.174E+00 -.393E+00   -.207E-02 0.708E-02 -.123E-01
   0.219E+02 0.217E+01 -.222E+02   -.224E+02 -.219E+01 0.224E+02   0.507E+00 0.108E-01 -.251E+00   -.938E-03 0.853E-02 0.914E-02
   0.705E+02 0.959E-12 -.715E+02   -.715E+02 -.840E-13 0.720E+02   0.914E+00 0.000E+00 -.457E+00   0.561E-01 -.122E-11 0.660E-02
   -.370E+02 -.448E-13 -.230E+02   0.372E+02 -.326E-13 0.232E+02   -.189E+00 0.000E+00 -.168E+00   -.539E-01 -.103E-11 -.837E-02
   -.268E+02 0.968E-12 -.186E+02   0.272E+02 -.297E-13 0.184E+02   -.370E+00 0.000E+00 0.157E+00   -.530E-01 0.103E-11 -.876E-02
   0.407E+02 0.675E-13 0.281E+03   -.442E+02 0.272E-13 -.294E+03   0.355E+01 0.000E+00 0.133E+02   0.175E-01 -.960E-12 0.325E-01
   -.571E+02 -.932E-13 -.365E+03   0.626E+02 -.617E-14 0.384E+03   -.556E+01 0.000E+00 -.189E+02   0.208E-01 0.626E-13 0.845E-02
   0.446E+02 0.126E-13 -.314E+03   -.472E+02 0.823E-13 0.329E+03   0.270E+01 0.000E+00 -.154E+02   -.110E-01 0.681E-12 0.162E-01
   0.524E+01 0.189E-12 0.408E+03   -.586E+01 0.115E-12 -.433E+03   0.596E+00 0.000E+00 0.250E+02   0.195E-01 0.765E-12 -.150E-01
   0.248E+02 -.375E+02 0.326E+03   -.278E+02 0.399E+02 -.343E+03   0.299E+01 -.242E+01 0.178E+02   -.242E-01 -.161E-01 0.121E-01
   -.818E+02 -.310E+02 -.348E+03   0.870E+02 0.328E+02 0.365E+03   -.519E+01 -.186E+01 -.174E+02   -.327E-01 -.161E-01 0.215E-02
   -.818E+02 0.310E+02 -.348E+03   0.870E+02 -.328E+02 0.365E+03   -.519E+01 0.186E+01 -.174E+02   -.327E-01 0.161E-01 0.215E-02
   0.248E+02 0.375E+02 0.326E+03   -.278E+02 -.399E+02 -.343E+03   0.299E+01 0.242E+01 0.178E+02   -.242E-01 0.161E-01 0.121E-01
   -.509E+02 0.711E+01 -.349E+03   0.555E+02 -.758E+01 0.368E+03   -.455E+01 0.467E+00 -.196E+02   -.222E-01 0.257E-02 -.157E-01
   0.814E+02 0.303E+02 0.343E+03   -.869E+02 -.320E+02 -.361E+03   0.550E+01 0.167E+01 0.174E+02   0.206E-01 0.225E-02 0.241E-02
   0.814E+02 -.303E+02 0.343E+03   -.869E+02 0.320E+02 -.361E+03   0.550E+01 -.167E+01 0.174E+02   0.206E-01 -.225E-02 0.241E-02
   -.509E+02 -.711E+01 -.349E+03   0.555E+02 0.758E+01 0.368E+03   -.455E+01 -.467E+00 -.196E+02   -.222E-01 -.257E-02 -.157E-01
   -.149E+02 0.257E-12 0.311E+03   0.176E+02 0.165E-12 -.327E+03   -.276E+01 0.000E+00 0.164E+02   0.185E-01 0.845E-12 0.305E-01
   -.467E+01 0.120E-12 -.396E+03   0.507E+01 0.375E-13 0.421E+03   -.431E+00 0.000E+00 -.252E+02   0.241E-01 -.220E-12 0.887E-02
   0.240E+02 0.195E-12 -.305E+03   -.246E+02 -.778E-13 0.319E+03   0.614E+00 0.000E+00 -.145E+02   -.250E-01 -.658E-12 0.228E-01
   0.576E+02 0.419E-12 0.369E+03   -.629E+02 -.445E-13 -.388E+03   0.521E+01 0.000E+00 0.194E+02   0.347E-01 -.920E-12 -.227E-01
   -.546E+02 -.790E-13 0.303E+03   0.557E+02 -.782E-13 -.319E+03   -.107E+01 0.000E+00 0.160E+02   -.287E-01 -.373E-12 -.161E-01
   0.498E+02 0.448E-13 -.335E+03   -.527E+02 0.213E-13 0.350E+03   0.295E+01 0.000E+00 -.155E+02   -.138E-01 0.755E-12 -.226E-01
   -.252E+02 0.168E-12 -.273E+03   0.290E+02 0.184E-13 0.287E+03   -.376E+01 0.000E+00 -.142E+02   0.221E-01 0.343E-13 0.706E-02
   -.741E+01 0.230E-13 0.309E+03   0.652E+01 0.127E-14 -.322E+03   0.929E+00 0.000E+00 0.133E+02   -.292E-01 -.887E-12 -.640E-02
   0.648E+02 0.877E+01 0.315E+03   -.702E+02 -.978E+01 -.334E+03   0.530E+01 0.101E+01 0.189E+02   0.283E-01 -.295E-02 0.138E-02
   0.286E+02 0.353E+02 -.382E+03   -.277E+02 -.378E+02 0.403E+03   -.101E+01 0.251E+01 -.202E+02   0.287E-01 -.308E-02 -.147E-01
   0.286E+02 -.353E+02 -.382E+03   -.277E+02 0.378E+02 0.403E+03   -.101E+01 -.251E+01 -.202E+02   0.287E-01 0.308E-02 -.147E-01
   0.648E+02 -.877E+01 0.315E+03   -.702E+02 0.978E+01 -.334E+03   0.530E+01 -.101E+01 0.189E+02   0.283E-01 0.295E-02 0.138E-02
   -.418E+02 -.391E+02 -.289E+03   0.457E+02 0.420E+02 0.306E+03   -.396E+01 -.286E+01 -.170E+02   0.134E-01 -.154E-01 0.361E-01
   -.295E+02 -.371E+02 0.387E+03   0.290E+02 0.399E+02 -.407E+03   0.504E+00 -.278E+01 0.203E+02   -.148E-01 -.162E-01 -.202E-01
   -.295E+02 0.371E+02 0.387E+03   0.290E+02 -.399E+02 -.407E+03   0.504E+00 0.278E+01 0.203E+02   -.148E-01 0.162E-01 -.202E-01
   -.418E+02 0.391E+02 -.289E+03   0.457E+02 -.420E+02 0.306E+03   -.396E+01 0.286E+01 -.170E+02   0.134E-01 0.154E-01 0.361E-01
   -.355E+02 0.146E-12 0.296E+03   0.353E+02 -.595E-13 -.312E+03   0.166E+00 0.000E+00 0.156E+02   -.137E-01 0.304E-12 -.262E-01
   0.680E+01 0.267E-12 -.316E+03   -.606E+01 0.321E-13 0.330E+03   -.712E+00 0.000E+00 -.143E+02   -.258E-01 -.790E-12 -.148E-01
   0.277E+02 0.363E-12 -.304E+03   -.291E+02 -.610E-13 0.321E+03   0.143E+01 0.000E+00 -.172E+02   0.287E-01 -.198E-12 0.198E-02
   -.509E+02 0.213E-12 0.323E+03   0.541E+02 -.547E-13 -.339E+03   -.322E+01 0.000E+00 0.156E+02   -.363E-01 0.687E-12 -.238E-02
   0.280E+00 0.130E-10 -.216E+00   -.185E-12 -.811E-14 -.171E-12   -.274E+00 0.000E+00 0.195E+00   -.210E-01 -.329E-11 0.308E-01

 POSITION                                       TOTAL-FORCE (eV/Angst)
      3.86518      1.41822      2.41624         0.004723     -0.000515     -0.002384
      3.86518      4.15471      2.41624         0.004723      0.000515     -0.002384
      4.32803      2.78646      7.23013        -0.022453     -0.000000      0.008926
      6.50393     -0.00000      2.42817         0.007094     -0.000000      0.011016
      0.08534     -0.00000      7.19635         0.010633     -0.000000     -0.002557
     -0.70143      1.41222      2.36940         0.012912     -0.002072     -0.007596
      7.16067      1.39088      7.20205         0.002781      0.001965     -0.003355
      7.16067      4.18205      7.20205         0.002781     -0.001965     -0.003355
     -0.70143      4.16071      2.36940         0.012912      0.002072     -0.007596
      6.25250     -0.00000      9.55538         0.000286     -0.000000     -0.005105
      2.45895      1.39353      0.01095        -0.000297     -0.000445     -0.004018
      7.40938      1.39174      0.09287        -0.010339      0.001970      0.001790
      7.40938      4.18118      0.09287        -0.010339     -0.001970      0.001790
      2.45895      4.17939      0.01095        -0.000297      0.000445     -0.004018
      6.26464      2.78646      9.57907        -0.000558     -0.000000     -0.005444
      4.92531     -0.00000      0.06304        -0.004529     -0.000000      0.005408
      4.93459      2.78646      0.03437        -0.004081     -0.000000      0.006833
      3.14361     -0.00000      4.85233         0.001386     -0.000000     -0.000088
      5.60586      1.39606      4.79207        -0.000070      0.002370      0.003372
      0.67287      1.39848      4.75422         0.008921     -0.004270      0.000756
      0.67287      4.17444      4.75422         0.008921      0.004270      0.000756
      5.60586      4.17686      4.79207        -0.000070     -0.002370      0.003372
      3.13687      2.78646      4.79447         0.002921     -0.000000      0.000337
      8.07666     -0.00000      4.81805         0.002164     -0.000000      0.000452
      8.07456      2.78646      4.81319         0.001742     -0.000000     -0.000429
      4.90180     -0.00000      3.77279        -0.003261     -0.000000      0.008784
      1.36997     -0.00000      5.73333         0.000949     -0.000000     -0.013492
      3.25723     -0.00000      1.00699        -0.007573     -0.000000     -0.000478
      2.97498     -0.00000      8.75047        -0.002385     -0.000000      0.018704
      7.35336      1.38097      3.82405        -0.004687     -0.001254      0.002752
     -1.10231      1.38609      5.77371         0.005817     -0.000342     -0.007458
     -1.10231      4.18684      5.77371         0.005817      0.000342     -0.007458
      7.35336      4.19195      3.82405        -0.004687      0.001254      0.002752
      0.73099      1.37625      0.92601         0.000411     -0.001046     -0.012228
      5.53428      1.41192      8.58745        -0.007512     -0.000295     -0.000868
      5.53428      4.16101      8.58745        -0.007512      0.000295     -0.000868
      0.73099      4.19667      0.92601         0.000411      0.001046     -0.012228
      4.77444      2.78646      3.81265         0.003557     -0.000000      0.005105
      1.46639      2.78646      5.68769        -0.002095     -0.000000     -0.011494
      3.21231      2.78646      0.99645        -0.007903     -0.000000     -0.002187
      3.05077      2.78646      8.71361        -0.004175     -0.000000      0.020284
     -0.16045     -0.00000      3.80749        -0.000954     -0.000000     -0.009155
      6.43078     -0.00000      5.77826         0.003288     -0.000000      0.001707
      8.14194     -0.00000      1.09355         0.004262     -0.000000      0.011518
     -1.84525     -0.00000      8.52656         0.004180     -0.000000     -0.008915
      2.43923      1.36902      3.83575         0.002532      0.000276     -0.005759
      3.91779      1.41521      5.75931        -0.003837      0.000699     -0.002415
      3.91779      4.15772      5.75931        -0.003837     -0.000699     -0.002415
      2.43923      4.20390      3.83575         0.002532     -0.000276     -0.005759
      5.61110      1.38747      1.06791        -0.008402     -0.000126      0.015734
      0.54933      1.38069      8.66403         0.001824     -0.000232      0.008456
      0.54933      4.19223      8.66403         0.001824      0.000232      0.008456
      5.61110      4.18546      1.06791        -0.008402      0.000126      0.015734
     -0.10602      2.78646      3.79222         0.001128     -0.000000     -0.012992
      6.33444      2.78646      5.80434         0.002604     -0.000000      0.001821
      8.27164      2.78646      1.01607         0.007391     -0.000000      0.005379
     -1.96999      2.78646      8.58250        -0.003170     -0.000000     -0.007493
    total drift:                               -0.015731      0.000000      0.010055

  FREE ENERGIE OF THE ION-ELECTRON SYSTEM (eV)
  free  energy   TOTEN  =      -349.7913571189 eV

  energy  without entropy=     -349.7872831861  energy(sigma->0) =     -349.78932015

 d Force = 0.1602481E-04[ 0.940E-05, 0.227E-04]  d Energy = 0.3179310E-04-0.158E-04
 d Force = 0.1003711E+00[ 0.100E+00, 0.100E+00]  d Ewald  =-0.5328276E+00 0.633E+00

 Quasi-Newton relaxation of ions (Broydens 2nd method)
  g(Force)  = 0.275E-03   g(Stress)= 0.200E-03

 retain information from N=  3 steps
 eigenvalues of (default step * inverse Hessian matrix)
  average eigenvalue of G=   2.7137
 eigenvalue spectrum of G is  6.7945  0.0431  1.3035

volume of typ            1:    13.3 %

[...]

volume of typ            3:     9.9 %

total charge

# of ion       s       p       d       tot
    1        2.076   0.246   0.089   2.412
    2        2.076   0.246   0.089   2.412
    3        2.072   0.227   0.084   2.383
    4        2.075   0.234   0.087   2.397
    5        2.072   0.224   0.083   2.378
    6        2.074   0.234   0.087   2.395
    7        2.073   0.236   0.084   2.393
    8        2.073   0.236   0.084   2.393
    9        2.074   0.234   0.087   2.395
   10        0.276   0.375   7.869   8.519
   11        0.273   0.369   7.852   8.494
   12        0.272   0.363   7.860   8.495
   13        0.272   0.363   7.860   8.495
   14        0.273   0.369   7.852   8.494
   15        0.298   0.424   7.853   8.575
   16        0.300   0.426   7.848   8.575
   17        0.278   0.380   7.842   8.500
   18        0.278   0.379   7.850   8.506
   19        0.271   0.364   7.858   8.493
   20        0.275   0.369   7.853   8.497
   21        0.275   0.369   7.853   8.497
   22        0.271   0.364   7.858   8.493
   23        0.299   0.424   7.846   8.569
   24        0.299   0.425   7.854   8.578
   25        0.277   0.378   7.858   8.513
   26        1.261   2.787   0.006   4.054
   27        1.269   2.768   0.007   4.044
   28        1.264   2.783   0.006   4.053
   29        1.279   2.734   0.008   4.022
   30        1.266   2.771   0.007   4.044
   31        1.268   2.766   0.007   4.040
   32        1.268   2.766   0.007   4.040
   33        1.266   2.771   0.007   4.044
   34        1.269   2.769   0.007   4.044
   35        1.266   2.770   0.007   4.042
   36        1.266   2.770   0.007   4.042
   37        1.269   2.769   0.007   4.044
   38        1.265   2.775   0.007   4.047
   39        1.280   2.732   0.008   4.020
   40        1.264   2.783   0.006   4.054
   41        1.268   2.772   0.008   4.047
   42        1.258   2.793   0.007   4.058
   43        1.264   2.779   0.006   4.050
   44        1.256   2.796   0.006   4.058
   45        1.262   2.783   0.006   4.051
   46        1.270   2.764   0.007   4.042
   47        1.269   2.764   0.007   4.041
   48        1.269   2.764   0.007   4.041
   49        1.270   2.764   0.007   4.042
   50        1.267   2.770   0.006   4.043
   51        1.271   2.760   0.007   4.038
   52        1.271   2.760   0.007   4.038
   53        1.267   2.770   0.006   4.043
   54        1.258   2.794   0.007   4.059
   55        1.261   2.786   0.006   4.053
   56        1.260   2.786   0.007   4.052
   57        1.264   2.778   0.006   4.049
tot          63.68   96.96  126.66  287.29

magnetization (x)

# of ion       s       p       d       tot
    1        0.006   0.016   0.000   0.021
    2        0.006   0.016   0.000   0.021
    3        0.003   0.006  -0.000   0.009
    4        0.004   0.009  -0.000   0.013
    5        0.003   0.009   0.000   0.013
    6        0.004   0.005  -0.000   0.009
    7        0.006   0.015   0.000   0.021
    8        0.006   0.015   0.000   0.021
    9        0.004   0.005  -0.000   0.009
   10        0.003  -0.000   0.449   0.452
   11        0.000  -0.001   0.505   0.505
   12        0.003  -0.000   0.556   0.559
   13        0.003  -0.000   0.556   0.559
   14        0.000  -0.001   0.505   0.505
   15       -0.001   0.000  -0.146  -0.147
   16       -0.001   0.000  -0.116  -0.116
   17       -0.000  -0.000   0.272   0.272
   18        0.002   0.000   0.418   0.420
   19        0.000  -0.000   0.533   0.533
   20        0.002  -0.000   0.507   0.509
   21        0.002  -0.000   0.507   0.509
   22        0.000  -0.000   0.533   0.533
   23       -0.001   0.000  -0.114  -0.115
   24       -0.001   0.000  -0.162  -0.162
   25        0.000  -0.000   0.302   0.302
   26        0.010   0.052   0.000   0.062
   27        0.007   0.063   0.000   0.071
   28        0.006   0.020   0.000   0.026
   29        0.001   0.009   0.000   0.010
   30        0.003   0.021   0.000   0.024
   31        0.005   0.045   0.000   0.050
   32        0.005   0.045   0.000   0.050
   33        0.003   0.021   0.000   0.024
   34        0.003   0.020   0.000   0.023
   35        0.005   0.057   0.000   0.062
   36        0.005   0.057   0.000   0.062
   37        0.003   0.020   0.000   0.023
   38        0.006   0.022   0.000   0.028
   39        0.001   0.008   0.000   0.009
   40        0.010   0.055   0.000   0.066
   41        0.005   0.034   0.000   0.039
   42        0.000  -0.007   0.000  -0.007
   43        0.006   0.011   0.000   0.017
   44        0.006   0.050   0.000   0.057
   45        0.011   0.075   0.000   0.086
   46        0.006   0.057   0.000   0.063
   47        0.004   0.037   0.000   0.041
   48        0.004   0.037   0.000   0.041
   49        0.006   0.057   0.000   0.063
   50        0.005   0.056   0.000   0.062
   51        0.004   0.028   0.000   0.032
   52        0.004   0.028   0.000   0.032
   53        0.005   0.056   0.000   0.062
   54        0.005   0.041   0.000   0.047
   55        0.009   0.039   0.000   0.048
   56        0.001  -0.006   0.000  -0.005
   57        0.006   0.014   0.000   0.020
tot           0.21    1.22    5.11    6.54