 vasp.5.4.4.18Apr17-6-g9f103f2a35 (build May 12 2020 05:39:39) gamma-only

 MD_VERSION_INFO: Compiled 2020-05-12T12:39:39-UTC in devlin.sd.materialsdesign.
 com:/home/medea2/data/build/wwolf/vasp-gpu5.4.4/13047/x86_64/src/src/build/gam
 from svn 13047

 executed on                        Lin64 date 2023.03.07  00:21:39

 INCAR:
 POTCAR:    PAW_PBE Li_sv 10Sep2004
 POTCAR:    PAW_PBE Ni 02Aug2007
 POTCAR:    PAW_PBE O 08Apr2002

 POTCAR:    PAW_PBE Li_sv 10Sep2004

 POTCAR:    PAW_PBE Ni 02Aug2007

 POTCAR:    PAW_PBE O 08Apr2002

 Optimization of the real space projectors (new method)

 maximal supplied QI-value         = 22.11
 optimisation between [QCUT,QGAM] = [ 11.28, 22.77] = [ 35.61,145.23] Ry
 Optimized for a Real-space Cutoff    1.10 Angstroem

   l    n(q)    QCUT    max X(q) W(low)/X(q) W(high)/X(q)  e(spline)
   0      7    11.276    10.506    0.54E-04    0.58E-04    0.16E-07
   0      7    11.276     8.367    0.11E-03    0.14E-03    0.35E-07
   1      7    11.276     8.983    0.23E-03    0.43E-03    0.86E-07
 Optimization of the real space projectors (new method)

[...]

   l    n(q)    QCUT    max X(q) W(low)/X(q) W(high)/X(q)  e(spline)
   2      9    11.376    60.317    0.17E-03    0.16E-04    0.16E-06
   2      9    11.376    55.921    0.17E-03    0.16E-04    0.17E-06
   0     10    11.376    51.690    0.45E-04    0.60E-04    0.21E-06
   0     10    11.376    30.015    0.37E-04    0.55E-04    0.19E-06
   1     10    11.376    18.849    0.83E-04    0.11E-03    0.92E-07
   1     10    11.376    14.624    0.69E-04    0.92E-04    0.82E-07
 Optimization of the real space projectors (new method)

 maximal supplied QI-value         = 24.76
 optimisation between [QCUT,QGAM] = [ 11.39, 22.77] = [ 36.31,145.25] Ry
 Optimized for a Real-space Cutoff    1.10 Angstroem

   l    n(q)    QCUT    max X(q) W(low)/X(q) W(high)/X(q)  e(spline)
   0      7    11.387    20.381    0.22E-03    0.48E-03    0.18E-06
   0      7    11.387    15.268    0.22E-03    0.52E-03    0.19E-06
   1      7    11.387     5.964    0.22E-03    0.73E-03    0.24E-06
   1      7    11.387     5.382    0.19E-03    0.60E-03    0.21E-06

  PAW_PBE Li_sv 10Sep2004               :
  PAW_PBE Ni 02Aug2007                  :
  PAW_PBE O 08Apr2002                   :

 POSCAR: ce13122_1
  positions in direct lattice
 exchange correlation table for  LEXCH =       14
   RHO(1)=    0.500       N(1)  =     2000
   RHO(2)=  100.500       N(2)  =     4000

 ion  position               nearest neighbor table
   1  0.243  0.252  0.491-  32 2.06  50 2.07  44 2.10  30 2.12  42 2.15  54 2.21  15 2.79  22 2.82

   2  0.250  0.750  0.499-  43 2.10  45 2.11  31 2.11  33 2.12  55 2.13  51 2.17  24 2.82  16 2.84

[...]

   8  0.000  0.751  0.249-  31 2.05  49 2.10  55 2.13  56 2.13  36 2.14  35 2.14
   9  0.245  0.249  0.010-  38 2.04  46 2.06  58 2.10  48 2.12  60 2.16  34 2.21  24 2.79  14 2.82
                            19 2.84
  10  0.251  0.750  0.999-  59 2.11  61 2.11  49 2.12  47 2.12  39 2.12  35 2.15  23 2.83  15 2.84

  11  0.749  0.750  0.999-  59 2.11  61 2.11  49 2.12  47 2.12  40 2.12  36 2.15  26 2.83  18 2.84

  12  0.755  0.249  0.010-  41 2.04  46 2.06  58 2.10  48 2.12  60 2.16  37 2.21  25 2.79  14 2.82
                            19 2.84
  13  0.500  0.249  0.749-  54 2.09  57 2.09  34 2.10  37 2.10  42 2.11  60 2.12  21 2.82  29 2.84

  14  0.000  1.000  0.000-  39 1.87  40 1.87  38 1.87  41 1.87  49 2.04  48 2.04  19 2.80  19 2.80
                             9 2.82  12 2.82  16 2.87  17 2.87  15 2.87  18 2.87
  15  0.250  0.000  0.250-  49 1.88  61 1.88  44 1.89  32 1.89  38 2.03  55 2.03   1 2.79  18 2.80
                            18 2.80  10 2.84  14 2.87  19 2.87  21 2.87  20 2.89
  16  0.249  0.999  0.751-  33 1.88  48 1.89  45 1.89  60 1.89  39 2.02  54 2.06  17 2.79  17 2.81
                             2 2.84  14 2.87  19 2.87  20 2.87  21 2.89
  17  0.751  0.999  0.751-  33 1.88  48 1.89  45 1.89  60 1.89  40 2.02  57 2.06  16 2.79  16 2.81
                             3 2.84  14 2.87  19 2.87  20 2.87  21 2.89
  18  0.750  0.000  0.250-  49 1.88  61 1.88  44 1.89  32 1.89  41 2.03  56 2.03   4 2.79  15 2.80
                            15 2.80  11 2.84  14 2.87  19 2.87  21 2.87  20 2.89
  19  0.500  0.001  0.000-  39 1.85  40 1.85  38 1.85  41 1.85  61 1.98  60 2.03  14 2.80  14 2.80
                             5 2.83   9 2.84  12 2.84  17 2.87  16 2.87  18 2.87  15 2.87
  20  0.000  0.003  0.502-  55 1.85  56 1.85  54 1.88  57 1.88  32 1.96  33 1.96   7 2.80  21 2.80
                            21 2.80  16 2.87  17 2.87  15 2.89  18 2.89
  21  0.500  0.000  0.500-  55 1.87  56 1.87  54 1.87  57 1.87  45 2.05  44 2.05  20 2.80  20 2.80
                            13 2.82  15 2.87  18 2.87  17 2.89  16 2.89
  22  0.000  0.500  0.500-  51 1.86  52 1.86  50 1.86  53 1.86  31 2.12  30 2.13  27 2.80  27 2.80
                             1 2.82   4 2.82  23 2.87  26 2.87  25 2.87  24 2.87
  23  0.249  0.500  0.749-  59 1.88  30 1.88  47 1.89  42 1.89  51 2.01  34 2.05  26 2.79  26 2.80
                            10 2.83  28 2.87  22 2.87  27 2.87  29 2.88
  24  0.250  0.501  0.250-  31 1.87  58 1.87  43 1.89  46 1.90  50 2.02  35 2.03   9 2.79  25 2.80
                            25 2.80   2 2.82  29 2.87  27 2.87  22 2.87  28 2.88
  25  0.750  0.501  0.250-  31 1.87  58 1.87  43 1.89  46 1.90  53 2.02  36 2.03  12 2.79  24 2.80
                            24 2.80   3 2.82  29 2.87  27 2.87  22 2.87  28 2.88
  26  0.751  0.500  0.749-  59 1.88  30 1.88  47 1.89  42 1.89  52 2.01  37 2.05  23 2.79  23 2.80
                            11 2.83  28 2.87  22 2.87  27 2.87  29 2.88
  27  0.500  0.499  0.500-  51 1.86  52 1.86  50 1.86  53 1.86  43 1.99  42 2.05  22 2.80  22 2.80
                             5 2.82   6 2.84  26 2.87  23 2.87  24 2.87  25 2.87
  28  0.000  0.497  0.998-  35 1.86  36 1.86  34 1.88  37 1.88  46 1.93  47 1.94  29 2.80  29 2.80
                             7 2.80  23 2.87  26 2.87  25 2.88  24 2.88
  29  0.500  0.500  0.000-  35 1.86  36 1.86  34 1.87  37 1.87  58 2.12  59 2.12  28 2.80  28 2.80
                            13 2.84  24 2.87  25 2.87  23 2.88  26 2.88
  30  0.000  0.387  0.642-  23 1.88  26 1.88   7 2.06   4 2.12   1 2.12  22 2.13
  31  0.000  0.613  0.358-  24 1.87  25 1.87   8 2.05   3 2.11   2 2.11  22 2.12
  32  0.000  0.104  0.369-  15 1.89  18 1.89  20 1.96   4 2.06   1 2.06
  33  0.000  0.897  0.632-  16 1.88  17 1.88  20 1.96   3 2.12   2 2.12
  34  0.254  0.391  0.886-  29 1.87  28 1.88  23 2.05  13 2.10   7 2.12   9 2.21
  35  0.247  0.603  0.109-  28 1.86  29 1.86  24 2.03   8 2.14  10 2.15
  36  0.753  0.603  0.109-  28 1.86  29 1.86  25 2.03   8 2.14  11 2.15
  37  0.746  0.391  0.886-  29 1.87  28 1.88  26 2.05  13 2.10   7 2.12  12 2.21
  38  0.251  0.106  0.112-  19 1.85  14 1.87  15 2.03   9 2.04   5 2.13
  39  0.252  0.895  0.889-  19 1.85  14 1.87  16 2.02  10 2.12   6 2.13
  40  0.748  0.895  0.889-  19 1.85  14 1.87  17 2.02  11 2.12   6 2.13
  41  0.749  0.106  0.112-  19 1.85  14 1.87  18 2.03  12 2.04   5 2.13
  42  0.500  0.389  0.636-  23 1.89  26 1.89  27 2.05  13 2.11   1 2.15   4 2.15
  43  0.500  0.606  0.368-  24 1.89  25 1.89  27 1.99   3 2.10   2 2.10
  44  0.500  0.110  0.363-  15 1.89  18 1.89  21 2.05   4 2.10   1 2.10   5 2.11
  45  0.500  0.890  0.636-  16 1.89  17 1.89  21 2.05   3 2.11   2 2.11   6 2.12
  46  0.000  0.397  0.130-  24 1.90  25 1.90  28 1.93  12 2.06   9 2.06
  47  0.000  0.602  0.870-  23 1.89  26 1.89  28 1.94  11 2.12  10 2.12
  48  0.000  0.109  0.864-  16 1.89  17 1.89  14 2.04   7 2.11  12 2.12   9 2.12
  49  0.000  0.891  0.137-  15 1.88  18 1.88  14 2.04   8 2.10  11 2.12  10 2.12
  50  0.250  0.396  0.388-  27 1.86  22 1.86  24 2.02   1 2.07   5 2.13
  51  0.251  0.603  0.612-  27 1.86  22 1.86  23 2.01   6 2.13   2 2.17
  52  0.749  0.603  0.612-  27 1.86  22 1.86  26 2.01   6 2.13   3 2.17
  53  0.750  0.396  0.388-  27 1.86  22 1.86  25 2.02   4 2.07   5 2.13
  54  0.253  0.109  0.614-  21 1.87  20 1.88  16 2.06  13 2.09   7 2.11   1 2.21
  55  0.246  0.897  0.390-  20 1.85  21 1.87  15 2.03   2 2.13   8 2.13
  56  0.754  0.897  0.390-  20 1.85  21 1.87  18 2.03   3 2.13   8 2.13
  57  0.747  0.109  0.614-  21 1.87  20 1.88  17 2.06  13 2.09   7 2.11   4 2.21
  58  0.500  0.388  0.143-  24 1.87  25 1.87   5 2.04   9 2.10  12 2.10  29 2.12
  59  0.500  0.612  0.858-  23 1.88  26 1.88   6 2.05  10 2.11  11 2.11  29 2.12
  60  0.500  0.109  0.864-  16 1.89  17 1.89  19 2.03  13 2.12   9 2.16  12 2.16
  61  0.500  0.896  0.133-  15 1.88  18 1.88  19 1.98  11 2.11  10 2.11

  LATTYP: Found a simple monoclinic cell.
 ALAT       =    11.3335744449
 B/A-ratio  =     0.4938584010
 C/A-ratio  =     1.6703497711
 COS(beta)  =    -0.8987322340

  Lattice vectors:

 A1 = (  -6.3560734770,   0.0000000000,  -9.3835089200)
 A2 = (   0.0000000000,  -5.5971809535,   0.0000000000)
 A3 = (   2.6688173027,   0.0000000000,  18.7419700888)

Analysis of symmetry for initial positions (statically):
 Subroutine PRICEL returns:
 Original cell was already a primitive cell.

 Routine SETGRP: Setting up the symmetry group for a
 simple monoclinic supercell.

 Subroutine GETGRP returns: Found  2 space group operations
 (whereof  2 operations were pure point group operations)
 out of a pool of  4 trial point group operations.

The static configuration has the point symmetry C_1h.

Analysis of symmetry for dynamics (positions and initial velocities):
 Subroutine PRICEL returns:
 Original cell was already a primitive cell.

[...]

The dynamic configuration has the point symmetry C_1h.

Analysis of structural, dynamic, and magnetic symmetry:
 Subroutine PRICEL returns:
 Original cell was already a primitive cell.

 Routine SETGRP: Setting up the symmetry group for a
 simple monoclinic supercell.

 Subroutine GETGRP returns: Found  2 space group operations
 (whereof  2 operations were pure point group operations)
 out of a pool of  4 trial point group operations.

The magnetic configuration has the point symmetry C_1h.

 Subroutine INISYM returns: Found  2 space group operations
 (whereof  2 operations are pure point group operations),
 and found     1 'primitive' translations

 KPOINTS: Automatic mesh

Automatic generation of k-mesh.
Space group operators:
 irot       det(A)        alpha          n_x          n_y          n_z        tau_x        tau_y        tau_z
    1     1.000000     0.000000     1.000000     0.000000     0.000000     0.000000     0.000000     0.000000
    2    -1.000000   180.000000     0.000000     1.000000     0.000000     0.000000     0.000000     0.000000

 Subroutine IBZKPT returns following result:

 Found      1 irreducible k-points:

 Following reciprocal coordinates:
            Coordinates               Weight
  0.000000  0.000000  0.000000      1.000000

 Following cartesian coordinates:
            Coordinates               Weight
  0.000000  0.000000  0.000000      1.000000

 SYSTEM =  unknown system
 POSCAR =  ce13122_1

 Startparameter for this run:
   NWRITE =      1    write-flag & timer
   PREC   = accura    normal or accurate (medium, high low for compatibility)
[...]
   0.140E+02 0.118E+02 -.555E+02   -.145E+02 -.121E+02 0.562E+02   0.469E+00 0.230E+00 -.703E+00   0.251E-01 0.793E-02 0.288E-01
   -.281E+01 -.361E+00 -.218E+02   0.295E+01 0.383E+00 0.218E+02   -.111E+00 -.283E-01 -.518E-01   -.277E-01 0.847E-02 -.239E-01
   -.281E+01 0.361E+00 -.218E+02   0.295E+01 -.383E+00 0.218E+02   -.111E+00 0.283E-01 -.518E-01   -.277E-01 -.847E-02 -.239E-01
   0.140E+02 -.118E+02 -.555E+02   -.145E+02 0.121E+02 0.562E+02   0.469E+00 -.230E+00 -.703E+00   0.251E-01 -.793E-02 0.288E-01
   0.263E+01 0.993E-12 -.109E+02   -.308E+01 0.143E-12 0.113E+02   0.493E+00 0.000E+00 -.394E+00   -.391E-01 -.117E-12 0.167E-03
   -.736E+01 0.126E-13 -.159E+02   0.760E+01 -.279E-14 0.163E+02   -.296E+00 0.000E+00 -.398E+00   0.417E-01 -.490E-12 0.109E-01
   -.307E+02 0.102E-11 -.575E+02   0.310E+02 -.600E-13 0.581E+02   -.393E+00 0.000E+00 -.594E+00   0.437E-01 0.589E-12 0.102E-01
   0.445E+02 0.115E-13 0.247E+03   -.475E+02 0.209E-13 -.259E+03   0.299E+01 0.000E+00 0.120E+02   0.151E-01 0.161E-13 0.288E-01
   -.294E+02 0.169E-13 -.271E+03   0.326E+02 -.878E-14 0.283E+03   -.317E+01 0.000E+00 -.121E+02   -.390E-01 0.106E-11 -.583E-01
   0.427E+02 -.735E-13 -.281E+03   -.446E+02 0.283E-14 0.295E+03   0.198E+01 0.000E+00 -.138E+02   -.548E-01 0.213E-12 0.394E-01
   -.253E+02 0.380E-14 0.315E+03   0.262E+02 0.244E-13 -.330E+03   -.997E+00 0.000E+00 0.153E+02   0.452E-01 0.262E-12 -.427E-01
   0.121E+02 -.749E+01 0.258E+03   -.155E+02 0.760E+01 -.270E+03   0.333E+01 -.138E+00 0.126E+02   0.232E-01 0.234E-01 0.232E-01
   -.420E+02 -.370E+02 -.315E+03   0.469E+02 0.390E+02 0.331E+03   -.485E+01 -.195E+01 -.160E+02   0.188E-01 0.234E-01 -.263E-01
   -.420E+02 0.370E+02 -.315E+03   0.469E+02 -.390E+02 0.331E+03   -.485E+01 0.195E+01 -.160E+02   0.188E-01 -.234E-01 -.263E-01
   0.121E+02 0.749E+01 0.258E+03   -.155E+02 -.760E+01 -.270E+03   0.333E+01 0.138E+00 0.126E+02   0.232E-01 -.234E-01 0.232E-01
   -.494E+02 0.354E+02 -.291E+03   0.547E+02 -.380E+02 0.306E+03   -.523E+01 0.259E+01 -.153E+02   -.562E-01 -.197E-02 -.277E-01
   0.364E+02 0.348E+02 0.311E+03   -.409E+02 -.373E+02 -.327E+03   0.444E+01 0.243E+01 0.160E+02   0.571E-01 -.139E-02 0.414E-01
   0.364E+02 -.348E+02 0.311E+03   -.409E+02 0.373E+02 -.327E+03   0.444E+01 -.243E+01 0.160E+02   0.571E-01 0.139E-02 0.414E-01
   -.494E+02 -.354E+02 -.291E+03   0.547E+02 0.380E+02 0.306E+03   -.523E+01 -.259E+01 -.153E+02   -.562E-01 0.197E-02 -.277E-01
   0.203E+02 0.232E-12 0.258E+03   -.223E+02 -.602E-13 -.270E+03   0.194E+01 0.000E+00 0.119E+02   0.359E-01 -.435E-14 0.263E-01
   0.293E+02 0.222E-12 -.302E+03   -.301E+02 -.606E-13 0.317E+03   0.912E+00 0.000E+00 -.144E+02   -.650E-01 -.932E-12 -.508E-01
   -.401E+01 0.109E-12 -.253E+03   0.709E+01 0.885E-13 0.264E+03   -.304E+01 0.000E+00 -.108E+02   -.431E-01 -.242E-12 0.266E-01
   0.166E+02 0.219E-12 0.289E+03   -.194E+02 0.106E-13 -.300E+03   0.273E+01 0.000E+00 0.110E+02   0.365E-01 -.327E-12 -.247E-01
   -.427E+02 0.690E-13 0.281E+03   0.446E+02 0.133E-13 -.294E+03   -.183E+01 0.000E+00 0.133E+02   0.285E-01 -.298E-12 0.270E-01
   0.246E+02 -.210E-15 -.314E+03   -.255E+02 0.147E-13 0.329E+03   0.931E+00 0.000E+00 -.147E+02   0.113E-02 -.651E-12 0.503E-03
   -.260E+02 -.238E-13 -.251E+03   0.281E+02 0.765E-13 0.262E+03   -.215E+01 0.000E+00 -.109E+02   0.719E-01 -.103E-11 0.117E-01
   0.110E+02 -.520E-13 0.276E+03   -.134E+02 -.105E-12 -.287E+03   0.243E+01 0.000E+00 0.111E+02   -.646E-01 0.254E-12 -.125E-01
   0.441E+02 0.385E+02 0.289E+03   -.491E+02 -.409E+02 -.304E+03   0.504E+01 0.236E+01 0.157E+02   -.619E-01 -.696E-02 0.107E-01
   -.298E+02 0.380E+02 -.310E+03   0.339E+02 -.402E+02 0.326E+03   -.416E+01 0.226E+01 -.165E+02   0.223E-01 -.706E-02 -.262E-02
   -.298E+02 -.380E+02 -.310E+03   0.339E+02 0.402E+02 0.326E+03   -.416E+01 -.226E+01 -.165E+02   0.223E-01 0.706E-02 -.262E-02
   0.441E+02 -.385E+02 0.289E+03   -.491E+02 0.409E+02 -.304E+03   0.504E+01 -.236E+01 0.157E+02   -.619E-01 0.696E-02 0.107E-01
   -.175E+02 -.546E+01 -.258E+03   0.207E+02 0.592E+01 0.270E+03   -.323E+01 -.462E+00 -.124E+02   0.307E-01 0.736E-02 0.487E-01
   0.487E+02 -.351E+02 0.314E+03   -.537E+02 0.374E+02 -.330E+03   0.497E+01 -.227E+01 0.156E+02   -.348E-01 0.728E-02 -.639E-01
   0.487E+02 0.351E+02 0.314E+03   -.537E+02 -.374E+02 -.330E+03   0.497E+01 0.227E+01 0.156E+02   -.348E-01 -.728E-02 -.639E-01
   -.175E+02 0.546E+01 -.258E+03   0.207E+02 -.592E+01 0.270E+03   -.323E+01 0.462E+00 -.124E+02   0.307E-01 -.736E-02 0.487E-01
   0.166E+02 0.274E-12 0.252E+03   -.201E+02 0.641E-13 -.263E+03   0.348E+01 0.000E+00 0.116E+02   0.188E-02 0.366E-12 0.376E-01
   -.296E+02 0.204E-12 -.285E+03   0.330E+02 0.967E-14 0.297E+03   -.346E+01 0.000E+00 -.114E+02   0.245E-01 0.723E-12 -.509E-02
   -.200E+02 0.176E-12 -.262E+03   0.218E+02 -.208E-13 0.274E+03   -.191E+01 0.000E+00 -.123E+02   0.796E-01 0.109E-11 0.151E-01
   -.312E+02 0.168E-12 0.306E+03   0.324E+02 0.682E-13 -.321E+03   -.111E+01 0.000E+00 0.148E+02   -.736E-01 -.290E-12 -.707E-02
   -.542E+00 0.184E-10 0.363E+00   -.711E-14 0.236E-13 0.171E-12   0.509E+00 -.222E-15 -.435E+00   0.178E-01 -.351E-13 0.526E-01

 POSITION                                       TOTAL-FORCE (eV/Angst)
      4.00882      1.36374      2.37179        -0.000152      0.004224     -0.004382
      2.24988      1.40113      7.03274         0.003545      0.006621      0.000821
      2.24988      4.19586      7.03274         0.003545     -0.006621      0.000821
      4.00882      4.23325      2.37179        -0.000152     -0.004224     -0.004382
      1.60036      2.79850      2.35287         0.015540      0.000000     -0.001552
      4.76522      2.79850      7.03545        -0.015870      0.000000      0.003200
      6.61973     -0.00000      2.35958        -0.009546      0.000000      0.013994
     -0.25577     -0.00000      7.02870         0.008204      0.000000     -0.007138
     -0.81024      1.36698      2.33024         0.004588     -0.005217      0.005159
      7.27083      1.40460      7.04891        -0.009525     -0.005269     -0.009405
      7.27083      4.19239      7.04891        -0.009525      0.005269     -0.009405
     -0.81024      4.23001      2.33024         0.004588      0.005217      0.005159
      6.61076      2.79850      2.36327         0.000200      0.000000      0.010330
     -3.67664     -0.00000      9.35574        -0.002190      0.000000     -0.002469
      2.51113      1.39991      0.00905        -0.001122      0.000553     -0.004232
      3.86221      1.39567      9.36884         0.002688      0.001167      0.001909
      3.86221      4.20132      9.36884         0.002688     -0.001167      0.001909
      2.51113      4.19708      0.00905        -0.001122     -0.000553     -0.004232
      0.00321      2.79850      0.00713         0.000663      0.000000     -0.008169
      5.03363     -0.00000      0.04795         0.009280      0.000000      0.008871
      5.02276      2.79850      0.01961         0.002448      0.000000      0.001682
      3.17831     -0.00000      4.69712        -0.001140      0.000000      0.002535
      5.68265      1.39436      4.70543        -0.006069      0.000546      0.004925
      0.67178      1.39927      4.69324         0.003979      0.002111     -0.004405
      0.67178      4.19772      4.69324         0.003979     -0.002111     -0.004405
      5.68265      4.20263      4.70543        -0.006069     -0.000546      0.004925
      3.18251      2.79850      4.68741        -0.004348      0.000000      0.000483
      8.19652     -0.00000      4.68009        -0.008600      0.000000     -0.006786
     -1.83805      2.79850      4.67424        -0.001172      0.000000     -0.002407
      5.02741     -0.00000      3.64082        -0.005650      0.000000      0.007117
      1.32792     -0.00000      5.74553         0.000219      0.000000     -0.003662
      3.32538     -0.00000      0.98260        -0.008572      0.000000     -0.003837
      3.04017     -0.00000      8.42095         0.012678      0.000000      0.005100
      7.46728      1.42173      3.68819        -0.000785     -0.000071      0.003849
     -1.12167      1.38352      5.64676         0.005660      0.001392     -0.006075
     -1.12167      4.21347      5.64676         0.005660     -0.001392     -0.006075
      7.46728      4.17526      3.68819        -0.000785      0.000071      0.003849
      0.73281      1.40765      0.98991        -0.004010      0.001696     -0.001312
      5.64066      1.41155      8.40630         0.008332      0.000924      0.002661
      5.64066      4.18544      8.40630         0.008332     -0.000924      0.002661
      0.73281      4.18934      0.98991        -0.004010     -0.001696     -0.001312
      4.93747      2.79850      3.66340        -0.013737      0.000000      0.011496
      1.47578      2.79850      5.67880         0.004476      0.000000     -0.007908
      3.24108      2.79850      1.04118        -0.004146      0.000000     -0.000799
      3.11671      2.79850      8.34719         0.003129      0.000000     -0.006314
     -0.14892     -0.00000      3.71046         0.005664      0.000000     -0.000343
      6.51551     -0.00000      5.66323         0.000039      0.000000      0.000148
      8.29146     -0.00000      1.04581         0.013541      0.000000     -0.007698
     -1.91573     -0.00000      8.34623        -0.009811      0.000000      0.006393
      2.43684      1.40097      3.71853         0.006857     -0.000701     -0.000951
      3.92338      1.40493      5.66410        -0.013171     -0.001038      0.007958
      3.92338      4.19206      5.66410        -0.013171      0.001038      0.007958
      2.43684      4.19602      3.71853         0.006857      0.000701     -0.000951
      5.76427      1.41538      1.04137        -0.002122     -0.001652      0.002311
      0.62425      1.37593      8.40279         0.004005      0.000241     -0.001151
      0.62425      4.22106      8.40279         0.004005     -0.000241     -0.001151
      5.76427      4.18161      1.04137        -0.002122      0.001652      0.002311
      0.00789      2.79850      3.63922         0.012432      0.000000      0.000012
      6.36229      2.79850      5.74728        -0.011092      0.000000      0.001313
      8.28081      2.79850      1.03889        -0.003621      0.000000     -0.002561
     -1.96479      2.79850      8.38982         0.005583      0.000000     -0.006395
    total drift:                               -0.015785      0.000000     -0.019796

  FREE ENERGIE OF THE ION-ELECTRON SYSTEM (eV)
  free  energy   TOTEN  =      -368.8893481061 eV

  energy  without entropy=     -368.8889540567  energy(sigma->0) =     -368.88915108

 d Force = 0.4889686E-03[ 0.363E-03, 0.615E-03]  d Energy = 0.4612171E-03 0.278E-04
 d Force =-0.1718288E+00[-0.178E+00,-0.166E+00]  d Ewald  =-0.2148084E+01 0.198E+01

 Quasi-Newton relaxation of ions (Broydens 2nd method)
  g(Force)  = 0.244E-03   g(Stress)= 0.208E-03

 retain information from N=  3 steps
 eigenvalues of (default step * inverse Hessian matrix)
  average eigenvalue of G=   4.0734
 eigenvalue spectrum of G is  0.6323  7.4756  4.1122

 reached required accuracy - stopping structural energy minimisation

volume of typ            1:    19.2 %

[...]

volume of typ            3:     9.9 %

total charge

# of ion       s       p       d       tot
    1        2.080   0.260   0.095   2.435
    2        2.077   0.250   0.091   2.417
    3        2.077   0.250   0.091   2.417
    4        2.080   0.260   0.095   2.435
    5        2.083   0.255   0.097   2.434
    6        2.080   0.249   0.094   2.423
    7        2.085   0.262   0.100   2.446
    8        2.080   0.247   0.093   2.420
    9        2.081   0.262   0.096   2.439
   10        2.077   0.250   0.090   2.416
   11        2.077   0.250   0.090   2.416
   12        2.081   0.262   0.096   2.439
   13        2.087   0.257   0.099   2.443
   14        0.268   0.359   7.858   8.484
   15        0.261   0.342   7.863   8.466
   16        0.260   0.342   7.869   8.472
   17        0.260   0.342   7.869   8.472
   18        0.261   0.342   7.863   8.466
   19        0.284   0.390   7.870   8.544
   20        0.284   0.391   7.867   8.542
   21        0.266   0.352   7.865   8.484
   22        0.265   0.344   7.877   8.486
   23        0.263   0.347   7.864   8.474
   24        0.263   0.348   7.856   8.467
   25        0.263   0.348   7.856   8.467
   26        0.263   0.347   7.864   8.474
   27        0.282   0.385   7.876   8.543
   28        0.283   0.389   7.866   8.539
   29        0.264   0.345   7.880   8.489
   30        1.255   2.799   0.006   4.060
   31        1.256   2.799   0.006   4.060
   32        1.261   2.786   0.006   4.053
   33        1.262   2.781   0.006   4.050
   34        1.256   2.796   0.006   4.058
   35        1.264   2.772   0.007   4.043
   36        1.264   2.772   0.007   4.043
   37        1.256   2.796   0.006   4.058
   38        1.262   2.782   0.006   4.051
   39        1.263   2.778   0.006   4.047
   40        1.263   2.778   0.006   4.047
   41        1.262   2.782   0.006   4.051
   42        1.257   2.792   0.005   4.055
   43        1.263   2.777   0.006   4.046
   44        1.256   2.798   0.006   4.060
   45        1.256   2.796   0.005   4.058
   46        1.261   2.787   0.006   4.054
   47        1.262   2.781   0.006   4.050
   48        1.258   2.794   0.006   4.057
   49        1.258   2.794   0.006   4.057
   50        1.261   2.783   0.007   4.050
   51        1.262   2.779   0.007   4.047
   52        1.262   2.779   0.007   4.047
   53        1.261   2.783   0.007   4.050
   54        1.257   2.797   0.006   4.059
   55        1.265   2.774   0.006   4.045
   56        1.265   2.774   0.006   4.045
   57        1.257   2.797   0.006   4.059
   58        1.256   2.799   0.006   4.060
   59        1.257   2.797   0.005   4.059
   60        1.258   2.791   0.006   4.055
   61        1.263   2.777   0.006   4.046
tot          71.65   98.19  127.28  297.13

magnetization (x)

# of ion       s       p       d       tot
    1        0.005   0.016  -0.001   0.021
    2        0.005   0.016  -0.001   0.020
    3        0.005   0.016  -0.001   0.020
    4        0.005   0.016  -0.001   0.021
    5        0.001   0.004  -0.001   0.004
    6        0.001   0.003  -0.001   0.004
    7        0.003   0.008   0.001   0.012
    8        0.003   0.008   0.001   0.012
    9        0.006   0.017  -0.000   0.022
   10        0.005   0.016  -0.000   0.022
   11        0.005   0.016  -0.000   0.022
   12        0.006   0.017  -0.000   0.022
   13        0.000   0.003  -0.000   0.002
   14        0.001  -0.000   0.434   0.435
   15        0.002  -0.001   0.734   0.736
   16        0.002  -0.001   0.742   0.744
   17        0.002  -0.001   0.742   0.744
   18        0.002  -0.001   0.734   0.736
   19       -0.003  -0.000  -0.358  -0.361
   20       -0.001  -0.000  -0.134  -0.135
   21        0.002  -0.000   0.550   0.551
   22        0.005  -0.000   0.593   0.598
   23        0.002   0.000   0.653   0.655
   24        0.002  -0.000   0.637   0.638
   25        0.002  -0.000   0.637   0.638
   26        0.002   0.000   0.653   0.655
   27        0.001  -0.000   0.399   0.399
   28       -0.001  -0.000   0.241   0.240
   29       -0.005  -0.000  -0.556  -0.561
   30        0.010   0.096   0.000   0.107
   31        0.010   0.094   0.000   0.105
   32        0.006   0.013   0.000   0.019
   33        0.005   0.003   0.000   0.007
   34        0.005   0.032   0.000   0.038
   35        0.005   0.038   0.000   0.044
   36        0.005   0.038   0.000   0.044
   37        0.005   0.032   0.000   0.038
   38        0.006   0.046   0.000   0.052
   39        0.006   0.052   0.000   0.057
   40        0.006   0.052   0.000   0.057
   41        0.006   0.046   0.000   0.052
   42        0.010   0.059   0.000   0.070
   43        0.011   0.084   0.000   0.095
   44        0.012   0.080   0.000   0.093
   45        0.012   0.085   0.000   0.098
   46        0.010   0.053   0.000   0.063
   47        0.009   0.053   0.000   0.062
   48        0.012   0.071   0.000   0.083
   49        0.012   0.065   0.000   0.077
   50        0.006   0.050   0.000   0.057
   51        0.006   0.055   0.000   0.062
   52        0.006   0.055   0.000   0.062
   53        0.006   0.050   0.000   0.057
   54        0.007   0.049   0.000   0.056
   55        0.007   0.052   0.000   0.059
   56        0.007   0.052   0.000   0.059
   57        0.007   0.049   0.000   0.056
   58       -0.000  -0.072  -0.000  -0.073
   59        0.000  -0.071  -0.000  -0.071
   60        0.003  -0.012  -0.000  -0.009
   61        0.003  -0.024   0.000  -0.021
tot           0.28    1.48    6.70    8.47