 vasp.5.4.4.18Apr17-6-g9f103f2a35 (build May 12 2020 05:39:39) gamma-only

 MD_VERSION_INFO: Compiled 2020-05-12T12:39:39-UTC in devlin.sd.materialsdesign.
 com:/home/medea2/data/build/wwolf/vasp-gpu5.4.4/13047/x86_64/src/src/build/gam
 from svn 13047

 executed on                        Lin64 date 2023.03.07  01:01:42

 INCAR:
 POTCAR:    PAW_PBE Li_sv 10Sep2004
 POTCAR:    PAW_PBE Ni 02Aug2007
 POTCAR:    PAW_PBE O 08Apr2002

 POTCAR:    PAW_PBE Li_sv 10Sep2004

 POTCAR:    PAW_PBE Ni 02Aug2007

 POTCAR:    PAW_PBE O 08Apr2002

 Optimization of the real space projectors (new method)

 maximal supplied QI-value         = 22.11
 optimisation between [QCUT,QGAM] = [ 11.28, 22.77] = [ 35.61,145.23] Ry
 Optimized for a Real-space Cutoff    1.10 Angstroem

   l    n(q)    QCUT    max X(q) W(low)/X(q) W(high)/X(q)  e(spline)
   0      7    11.276    10.506    0.54E-04    0.58E-04    0.16E-07
   0      7    11.276     8.367    0.11E-03    0.14E-03    0.35E-07
   1      7    11.276     8.983    0.23E-03    0.43E-03    0.86E-07
 Optimization of the real space projectors (new method)

[...]

   l    n(q)    QCUT    max X(q) W(low)/X(q) W(high)/X(q)  e(spline)
   2      9    11.376    60.317    0.17E-03    0.16E-04    0.16E-06
   2      9    11.376    55.921    0.17E-03    0.16E-04    0.17E-06
   0     10    11.376    51.690    0.45E-04    0.60E-04    0.21E-06
   0     10    11.376    30.015    0.37E-04    0.55E-04    0.19E-06
   1     10    11.376    18.849    0.83E-04    0.11E-03    0.92E-07
   1     10    11.376    14.624    0.69E-04    0.92E-04    0.82E-07
 Optimization of the real space projectors (new method)

 maximal supplied QI-value         = 24.76
 optimisation between [QCUT,QGAM] = [ 11.39, 22.77] = [ 36.31,145.25] Ry
 Optimized for a Real-space Cutoff    1.10 Angstroem

   l    n(q)    QCUT    max X(q) W(low)/X(q) W(high)/X(q)  e(spline)
   0      7    11.387    20.381    0.22E-03    0.48E-03    0.18E-06
   0      7    11.387    15.268    0.22E-03    0.52E-03    0.19E-06
   1      7    11.387     5.964    0.22E-03    0.73E-03    0.24E-06
   1      7    11.387     5.382    0.19E-03    0.60E-03    0.21E-06

  PAW_PBE Li_sv 10Sep2004               :
  PAW_PBE Ni 02Aug2007                  :
  PAW_PBE O 08Apr2002                   :

 POSCAR: ce13977_1
  positions in direct lattice
 exchange correlation table for  LEXCH =       14
   RHO(1)=    0.500       N(1)  =     2000
   RHO(2)=  100.500       N(2)  =     4000

 ion  position               nearest neighbor table
   1  0.250  0.252  0.464-  48 1.95  42 2.05  30 2.05  13 2.68  25 2.81  20 2.82
   2  0.246  0.750  0.510-  49 2.04  31 2.08  43 2.11  29 2.12  53 2.13  41 2.16  14 2.79  20 2.83

   3  0.756  0.750  0.511-  50 2.06  31 2.07  43 2.11  29 2.12  41 2.16  54 2.18  15 2.81  20 2.81

   4  0.525  0.748  0.764-  38 2.01  57 2.04  50 2.07  37 2.15  49 2.26  43 2.27  24 2.76  17 2.78

   5  0.997  0.250  0.740-  28 2.08  55 2.09  52 2.11  35 2.15  32 2.17  46 2.19  18 2.80
   6  0.994  0.752  0.240-  47 2.02  34 2.07  33 2.11  54 2.13  53 2.16  29 2.19  26 2.82
   7  0.251  0.250  0.025-  36 1.98  44 2.06  56 2.06  58 2.22  46 2.23  32 2.28  22 2.74
   8  0.222  0.751  0.986-  45 2.02  37 2.04  47 2.09  57 2.19  33 2.23  12 2.73  21 2.78
   9  0.748  0.250  0.030-  39 1.96  56 2.05  44 2.06  58 2.24  46 2.27  23 2.72  17 2.83
  10  0.504  0.250  0.740-  40 2.07  55 2.08  52 2.11  35 2.14  32 2.17  58 2.17  19 2.81
  11  0.505  0.752  0.240-  59 2.04  34 2.08  33 2.12  54 2.13  41 2.16  53 2.16  27 2.80
  12  0.000  0.994  0.997-  36 1.85  39 1.85  38 1.86  37 1.87  47 2.03  46 2.06   8 2.73  17 2.79
                            17 2.81  15 2.83  14 2.83  16 2.86  13 2.87
  13  0.250  1.000  0.251-  42 1.84  30 1.85  59 1.85  47 1.85  36 2.01  53 2.08   1 2.68  16 2.80
                            16 2.80  18 2.84  19 2.85  17 2.86  12 2.87
  14  0.250  0.999  0.751-  46 1.87  31 1.88  43 1.88  58 1.89  37 1.99  52 2.03   2 2.79  15 2.79
                            15 2.80  12 2.83  17 2.84  19 2.86  18 2.86
  15  0.751  0.001  0.751-  46 1.87  58 1.88  31 1.88  43 1.89  38 1.92  55 1.94  14 2.79  14 2.80
                             3 2.81  12 2.83  17 2.84  19 2.86  18 2.86
  16  0.750  0.002  0.251-  30 1.86  42 1.87  59 1.87  47 1.88  39 1.98  54 2.06  13 2.80  13 2.80
                            17 2.84  18 2.85  19 2.86  12 2.86
  17  0.502  0.998  0.999-  39 1.85  38 1.85  36 1.85  37 1.85  59 2.03  58 2.06   4 2.78  12 2.79
                            12 2.81   9 2.83  15 2.84  14 2.84  16 2.84  13 2.86
  18  1.000  0.999  0.499-  54 1.88  52 1.88  53 1.88  55 1.89  30 1.93  31 1.94  19 2.80  19 2.80
                             5 2.80  13 2.84  16 2.85  15 2.86  14 2.86
  19  0.500  0.998  0.500-  52 1.87  54 1.88  55 1.89  53 1.89  42 1.93  43 2.00  18 2.80  18 2.80
                            10 2.81  13 2.85  14 2.86  15 2.86  16 2.86
  20  1.000  0.504  0.502-  51 1.85  48 1.86  49 1.87  50 1.87  28 2.01  29 2.03  25 2.79  25 2.81
                             3 2.81   1 2.82   2 2.83  23 2.84  21 2.84  24 2.85  22 2.85
  21  0.249  0.500  0.750-  28 1.85  40 1.85  45 1.85  57 1.85  49 2.04  32 2.07   8 2.78  24 2.79
                            24 2.80  20 2.84  27 2.85  26 2.85  25 2.88
  22  0.251  0.502  0.251-  56 1.87  44 1.88  29 1.89  41 1.89  48 1.95  33 2.04   7 2.74  23 2.80
                            23 2.80  25 2.83  20 2.85  27 2.86  26 2.86
  23  0.751  0.503  0.252-  41 1.88  29 1.88  56 1.88  44 1.89  51 1.90  34 1.95   9 2.72  22 2.80
                            22 2.80  25 2.82  20 2.84  26 2.86  27 2.87
  24  0.750  0.501  0.750-  45 1.86  40 1.86  28 1.87  57 1.88  50 2.01  35 2.04   4 2.76  21 2.79
                            21 2.80  26 2.84  27 2.84  20 2.85  25 2.86
  25  0.502  0.501  0.498-  51 1.84  48 1.85  49 1.85  50 1.85  40 2.04  41 2.06  20 2.79   1 2.81
                            20 2.81  23 2.82  22 2.83  24 2.86  21 2.88
  26  0.999  0.499  0.999-  35 1.87  32 1.88  34 1.88  33 1.88  45 1.91  44 1.93  27 2.79  27 2.80
                             6 2.82  24 2.84  21 2.85  23 2.86  22 2.86
  27  0.500  0.501  0.999-  35 1.88  33 1.88  32 1.89  34 1.89  56 1.96  57 1.98  26 2.79  11 2.80
                            26 2.80  24 2.84  21 2.85  22 2.86  23 2.87
  28  0.002  0.397  0.638-  21 1.85  24 1.87  20 2.01   5 2.08
  29  0.001  0.612  0.364-  23 1.88  22 1.89  20 2.03   3 2.12   2 2.12   6 2.19
  30  0.003  0.098  0.366-  13 1.85  16 1.86  18 1.93   1 2.05
  31  0.000  0.898  0.633-  14 1.88  15 1.88  18 1.94   3 2.07   2 2.08
  32  0.249  0.389  0.889-  26 1.88  27 1.89  21 2.07   5 2.17  10 2.17   7 2.28
  33  0.248  0.608  0.111-  26 1.88  27 1.88  22 2.04   6 2.11  11 2.12   8 2.23
  34  0.751  0.603  0.118-  26 1.88  27 1.89  23 1.95   6 2.07  11 2.08
  35  0.749  0.392  0.887-  26 1.87  27 1.88  24 2.04  10 2.14   5 2.15
  36  0.248  0.098  0.107-  12 1.85  17 1.85   7 1.98  13 2.01
  37  0.256  0.894  0.885-  17 1.85  12 1.87  14 1.99   8 2.04   4 2.15
  38  0.748  0.900  0.881-  17 1.85  12 1.86  15 1.92   4 2.01
  39  0.753  0.098  0.109-  17 1.85  12 1.85   9 1.96  16 1.98
  40  0.498  0.397  0.640-  21 1.85  24 1.86  25 2.04  10 2.07
  41  0.501  0.613  0.362-  23 1.88  22 1.89  25 2.06  11 2.16   2 2.16   3 2.16
  42  0.496  0.098  0.367-  13 1.84  16 1.87  19 1.93   1 2.05
  43  0.501  0.894  0.637-  14 1.88  15 1.89  19 2.00   3 2.11   2 2.11   4 2.27
  44  0.001  0.400  0.133-  22 1.88  23 1.89  26 1.93   9 2.06   7 2.06
  45  0.001  0.597  0.866-  21 1.85  24 1.86  26 1.91   8 2.02
  46  0.002  0.108  0.861-  14 1.87  15 1.87  12 2.06   5 2.19   7 2.23   9 2.27
  47  0.002  0.894  0.140-  13 1.85  16 1.88   6 2.02  12 2.03   8 2.09
  48  0.249  0.403  0.387-  25 1.85  20 1.86   1 1.95  22 1.95
  49  0.256  0.606  0.610-  25 1.85  20 1.87  21 2.04   2 2.04   4 2.26
  50  0.746  0.606  0.613-  25 1.85  20 1.87  24 2.01   3 2.06   4 2.07
  51  0.752  0.406  0.385-  25 1.84  20 1.85  23 1.90
  52  0.250  0.105  0.612-  19 1.87  18 1.88  14 2.03   5 2.11  10 2.11
  53  0.249  0.887  0.389-  18 1.88  19 1.89  13 2.08   2 2.13   6 2.16  11 2.16
  54  0.750  0.890  0.388-  18 1.88  19 1.88  16 2.06   6 2.13  11 2.13   3 2.18
  55  0.750  0.102  0.618-  19 1.89  18 1.89  15 1.94  10 2.08   5 2.09
  56  0.500  0.400  0.135-  22 1.87  23 1.88  27 1.96   9 2.05   7 2.06
  57  0.495  0.603  0.863-  21 1.85  24 1.88  27 1.98   4 2.04   8 2.19
  58  0.500  0.110  0.863-  15 1.88  14 1.89  17 2.06  10 2.17   7 2.22   9 2.24
  59  0.499  0.896  0.141-  13 1.85  16 1.87  17 2.03  11 2.04

  LATTYP: Found a triclinic cell.
 ALAT       =    15.1250632391
 B/A-ratio  =     0.3700587181
 C/A-ratio  =     0.7527734148
 COS(alpha) =     0.0003716877
 COS(beta)  =     0.3894466321
 COS(gamma) =     0.7412325809

  Lattice vectors:

 A1 = (   3.6588327047, -11.2027828023,  -9.4804081509)
 A2 = (   0.0035563391,  -5.5971592294,  -0.0035935246)
 A3 = (  -6.2817150200,  -0.0021265115,  -9.4960651094)

Analysis of symmetry for initial positions (statically):
 Subroutine PRICEL returns:
 Original cell was already a primitive cell.

 Routine SETGRP: Setting up the symmetry group for a
 triclinic supercell.

 Subroutine GETGRP returns: Found  1 space group operations
 (whereof  1 operations were pure point group operations)
 out of a pool of  2 trial point group operations.

The static configuration has the point symmetry C_1 .

Analysis of symmetry for dynamics (positions and initial velocities):
 Subroutine PRICEL returns:
 Original cell was already a primitive cell.

[...]

The dynamic configuration has the point symmetry C_1 .

Analysis of structural, dynamic, and magnetic symmetry:
 Subroutine PRICEL returns:
 Original cell was already a primitive cell.

 Routine SETGRP: Setting up the symmetry group for a
 triclinic supercell.

 Subroutine GETGRP returns: Found  1 space group operations
 (whereof  1 operations were pure point group operations)
 out of a pool of  2 trial point group operations.

The magnetic configuration has the point symmetry C_1 .

 Subroutine INISYM returns: Found  1 space group operations
 (whereof  1 operations are pure point group operations),
 and found     1 'primitive' translations

 KPOINTS: Automatic mesh

Automatic generation of k-mesh.
Space group operators:
 irot       det(A)        alpha          n_x          n_y          n_z        tau_x        tau_y        tau_z
    1     1.000000     0.000000     1.000000     0.000000     0.000000     0.000000     0.000000     0.000000

 Subroutine IBZKPT returns following result:

 Found      1 irreducible k-points:

 Following reciprocal coordinates:
            Coordinates               Weight
  0.000000  0.000000  0.000000      1.000000

 Following cartesian coordinates:
            Coordinates               Weight
  0.000000  0.000000  0.000000      1.000000

 SYSTEM =  unknown system
 POSCAR =  ce13977_1

 Startparameter for this run:
   NWRITE =      1    write-flag & timer
   PREC   = accura    normal or accurate (medium, high low for compatibility)
   ISTART =      0    job   : 0-new  1-cont  2-samecut
   ICHARG =      2    charge: 1-file 2-atom 10-const
   ISPIN  =      2    spin polarized calculation?
[...]
   0.428E+02 0.153E+02 -.778E+02   -.431E+02 -.153E+02 0.784E+02   0.335E+00 0.537E-01 -.529E+00   0.405E-02 -.199E-02 0.299E-05
   0.336E+02 -.144E+02 -.670E+02   -.343E+02 0.145E+02 0.678E+02   0.755E+00 -.597E-01 -.705E+00   0.139E-02 0.113E-02 0.104E-02
   -.302E+02 0.140E+02 0.742E+02   0.305E+02 -.140E+02 -.752E+02   -.368E+00 0.589E-01 0.967E+00   0.159E-02 -.860E-03 0.118E-03
   0.398E+02 0.125E+02 -.720E+01   -.406E+02 -.125E+02 0.745E+01   0.817E+00 0.661E-01 -.264E+00   0.275E-01 0.769E-02 0.386E-02
   -.385E+02 0.879E+00 0.939E+02   0.394E+02 -.813E+00 -.949E+02   -.869E+00 -.792E-01 0.946E+00   -.296E-01 0.827E-02 -.327E-02
   -.442E+02 -.134E+01 0.103E+03   0.447E+02 0.127E+01 -.104E+03   -.543E+00 0.864E-01 0.827E+00   -.307E-01 -.919E-02 -.208E-02
   0.370E+02 -.128E+02 -.117E+02   -.375E+02 0.130E+02 0.121E+02   0.548E+00 -.215E+00 -.418E+00   0.281E-01 -.728E-02 0.214E-02
   -.694E+01 -.143E+02 0.117E+03   0.724E+01 0.144E+02 -.118E+03   -.304E+00 -.698E-01 0.111E+01   0.107E-02 0.847E-03 0.385E-03
   0.191E+02 0.148E+02 -.666E+00   -.192E+02 -.149E+02 0.815E+00   0.150E+00 0.949E-01 -.149E+00   -.729E-02 -.419E-02 -.286E-02
   0.262E+02 -.140E+02 -.157E+02   -.262E+02 0.140E+02 0.158E+02   0.680E-02 -.675E-01 -.124E+00   -.732E-02 0.224E-02 -.228E-02
   0.727E+02 0.270E+02 0.322E+03   -.779E+02 -.290E+02 -.338E+03   0.511E+01 0.202E+01 0.169E+02   0.167E-01 -.579E-03 0.520E-02
   -.318E+02 -.290E+01 -.250E+03   0.337E+02 0.342E+01 0.262E+03   -.187E+01 -.520E+00 -.120E+02   -.771E-02 -.468E-02 0.268E-03
   0.323E+02 0.361E+02 -.376E+03   -.320E+02 -.390E+02 0.396E+03   -.316E+00 0.289E+01 -.205E+02   -.161E-01 -.370E-03 0.389E-02
   -.417E+02 -.173E+01 0.302E+03   0.431E+02 0.178E+01 -.316E+03   -.147E+01 -.504E-01 0.143E+02   0.179E-01 -.216E-02 -.339E-03
   0.215E+02 -.273E+01 0.297E+03   -.232E+02 0.310E+01 -.311E+03   0.168E+01 -.370E+00 0.132E+02   0.112E-01 0.659E-03 0.170E-01
   0.444E+01 -.210E+01 -.286E+03   -.235E+01 0.226E+01 0.298E+03   -.208E+01 -.156E+00 -.120E+02   -.204E-01 0.885E-03 -.132E-01
   0.394E+02 0.165E+01 -.300E+03   -.411E+02 -.169E+01 0.314E+03   0.165E+01 0.348E-01 -.142E+02   -.174E-01 -.754E-03 -.154E-01
   0.228E+02 0.151E+01 0.293E+03   -.242E+02 -.183E+01 -.306E+03   0.136E+01 0.316E+00 0.134E+02   0.118E-01 -.476E-03 0.170E-01
   -.733E+02 0.181E+01 -.348E+03   0.796E+02 -.207E+01 0.366E+03   -.635E+01 0.264E+00 -.182E+02   -.994E-02 -.294E-03 -.453E-02
   0.166E+02 0.274E+02 0.310E+03   -.211E+02 -.294E+02 -.326E+03   0.455E+01 0.194E+01 0.161E+02   0.641E-02 -.884E-04 0.519E-02
   -.241E+02 -.316E+02 0.329E+03   0.239E+02 0.341E+02 -.349E+03   0.194E+00 -.248E+01 0.198E+02   0.496E-02 -.136E-03 0.649E-02
   -.782E+02 -.235E+01 -.344E+03   0.839E+02 0.289E+01 0.362E+03   -.569E+01 -.538E+00 -.186E+02   -.108E-01 -.484E-03 -.401E-02
   0.719E+02 -.257E+02 0.328E+03   -.772E+02 0.274E+02 -.345E+03   0.527E+01 -.164E+01 0.167E+02   0.136E-01 0.872E-03 0.723E-02
   -.317E+02 0.355E+01 -.251E+03   0.341E+02 -.410E+01 0.264E+03   -.240E+01 0.544E+00 -.127E+02   -.509E-02 0.525E-02 -.172E-02
   0.295E+02 -.358E+02 -.376E+03   -.285E+02 0.388E+02 0.396E+03   -.988E+00 -.300E+01 -.200E+02   -.163E-01 -.783E-03 0.403E-02
   -.102E+02 0.206E+01 0.288E+03   0.866E+01 -.221E+01 -.300E+03   0.148E+01 0.152E+00 0.126E+02   0.172E-01 0.133E-02 -.276E-03
   -.510E+02 -.814E+00 0.340E+03   0.524E+02 0.102E+01 -.354E+03   -.140E+01 -.204E+00 0.141E+02   -.221E-01 -.499E-02 -.335E-03
   0.208E+02 0.338E+02 -.333E+03   -.207E+02 -.365E+02 0.353E+03   -.110E+00 0.273E+01 -.197E+02   0.164E-01 -.513E-03 -.690E-02
   -.490E+02 -.162E+01 -.297E+03   0.517E+02 0.189E+01 0.311E+03   -.273E+01 -.267E+00 -.139E+02   0.673E-02 -.231E-02 0.114E-02
   0.525E+02 0.337E+02 0.274E+03   -.562E+02 -.364E+02 -.289E+03   0.371E+01 0.270E+01 0.150E+02   -.113E-01 -.119E-03 -.296E-02
   0.339E+02 0.165E+01 0.372E+03   -.391E+02 -.202E+01 -.391E+03   0.524E+01 0.365E+00 0.187E+02   0.422E-03 0.570E-02 -.759E-02
   -.545E+02 0.269E+02 -.287E+03   0.598E+02 -.286E+02 0.303E+03   -.529E+01 0.165E+01 -.160E+02   0.104E-01 0.543E-02 0.168E-02
   -.526E+02 -.302E+02 -.277E+03   0.566E+02 0.324E+02 0.293E+03   -.403E+01 -.218E+01 -.155E+02   0.106E-01 -.516E-02 0.710E-03
   -.347E+01 -.256E+01 0.406E+03   0.260E+01 0.303E+01 -.431E+03   0.871E+00 -.460E+00 0.252E+02   -.429E-02 -.521E-02 -.506E-02
   0.151E+02 -.684E+00 -.321E+03   -.136E+02 0.736E+00 0.335E+03   -.146E+01 -.516E-01 -.131E+02   0.147E-01 -.161E-03 0.150E-01
   0.359E+02 -.191E+01 0.263E+03   -.383E+02 0.208E+01 -.275E+03   0.240E+01 -.162E+00 0.124E+02   -.130E-01 -.482E-04 -.140E-01
   0.411E+02 0.144E+01 0.255E+03   -.436E+02 -.161E+01 -.267E+03   0.255E+01 0.176E+00 0.123E+02   -.132E-01 -.112E-02 -.143E-01
   0.466E+02 0.128E+01 -.332E+03   -.486E+02 -.138E+01 0.347E+03   0.191E+01 0.110E+00 -.144E+02   0.176E-01 -.815E-03 0.136E-01
   -.465E+02 -.124E+00 0.339E+03   0.469E+02 0.258E-01 -.353E+03   -.363E+00 0.931E-01 0.137E+02   -.206E-01 0.556E-02 -.509E-03
   -.179E+02 -.293E+02 -.317E+03   0.219E+02 0.316E+02 0.334E+03   -.405E+01 -.223E+01 -.166E+02   0.147E-01 0.984E-03 -.677E-02
   -.464E+02 0.271E+01 -.301E+03   0.489E+02 -.307E+01 0.315E+03   -.241E+01 0.358E+00 -.133E+02   0.624E-02 0.178E-02 0.166E-02
   0.569E+02 -.291E+02 0.280E+03   -.621E+02 0.311E+02 -.297E+03   0.521E+01 -.202E+01 0.166E+02   -.109E-01 -.966E-03 -.372E-02
   -.364E+00 -.117E+00 -.223E+00   0.128E-12 -.782E-13 -.568E-13   0.343E+00 0.121E+00 0.200E+00   -.149E-02 -.390E-02 -.200E-02

 POSITION                                       TOTAL-FORCE (eV/Angst)
      3.67637      1.39415      2.40201        -0.018958     -0.005381      0.000396
      2.32903      1.38558      7.14289         0.005565      0.002344      0.003305
      2.32088      4.23798      7.14675        -0.003998     -0.000194      0.004625
      4.85899      2.95149      7.12604         0.009857      0.012700      0.000801
      6.43070      5.58020      2.40412        -0.002797     -0.000770      0.000273
     -0.34725      5.57398      7.14855         0.011284      0.001026     -0.002893
     -0.66521      1.40537      2.37402         0.001137      0.000381     -0.001397
      7.03987      1.22115      7.15824        -0.010130     -0.026882     -0.003912
     -0.61252      4.19515      2.37625         0.009000      0.002194     -0.001156
      6.44294      2.81248      2.39961         0.002763     -0.003299     -0.000093
     -0.35885      2.82875      7.14379        -0.003030     -0.003671     -0.002828
      6.27366      0.00892      9.47856         0.004333      0.000898     -0.001257
     -1.15842      1.41316      9.49854         0.005846      0.003625     -0.003865
      3.80658      1.41030      9.52177         0.004313      0.004753      0.001242
      7.45488      4.19906      0.03567         0.004760     -0.000409      0.002594
      2.48248      4.19645      0.02323         0.005703      0.002596     -0.002901
      6.28241      2.81553      9.51119         0.004095      0.003076     -0.002304
      1.31087      5.60712      9.51080         0.004282      0.003046      0.001122
      1.31898      2.80975      9.50107         0.005854      0.003287      0.001198
      3.13102      5.59736      4.80907        -0.003511     -0.001154      0.005971
      5.61615      1.39389      4.76767        -0.005225     -0.001807     -0.003751
      0.65458      1.40546      4.78687        -0.005133     -0.004702      0.003802
      0.65910      4.20310      4.79322        -0.005490      0.000904      0.003947
      5.61204      4.19805      4.77566        -0.005206      0.000349     -0.004592
      3.11952      2.81081      4.77866        -0.003440     -0.001267      0.005288
      8.09151      5.59030      4.76838        -0.004173     -0.002324     -0.003092
      8.08856      2.79671      4.78411        -0.004813     -0.000545     -0.003261
      4.88187      0.01610      3.78648        -0.006202      0.001048     -0.002507
      1.36493      0.00534      5.83142        -0.007211     -0.002648      0.007928
      3.28454      0.01815      0.92603         0.002299      0.001750     -0.004398
      3.00211      0.01060      8.55360         0.003654      0.001390      0.002176
      7.40489      1.39827      3.71787        -0.002465     -0.000462     -0.002660
     -1.12181      1.39557      5.78541        -0.005287     -0.001981     -0.002424
     -1.03913      4.20439      5.73689        -0.005689     -0.001844     -0.001630
      7.36936      4.18971      3.75209        -0.002888     -0.000796     -0.001743
      0.71575      1.38913      0.93569         0.008278      0.000805     -0.000236
      5.53243      1.44285      8.52174         0.003700      0.001893      0.000334
      5.46578      4.19156      8.58502         0.003743      0.002577      0.002042
      0.73283      4.21331      0.93655         0.008040      0.000828     -0.000706
      4.89792      2.78626      3.78372        -0.007408      0.000938     -0.001642
      1.34420      2.80652      5.84355        -0.004701     -0.001515      0.006411
      3.27922      2.77720      0.93398         0.003997      0.000625     -0.003574
      3.06701      2.81618      8.51357         0.002148      0.002564      0.003951
     -0.13477      0.00634      3.80850        -0.004797     -0.001174      0.003110
      6.41343      0.00680      5.69108        -0.002601     -0.002450     -0.006638
      8.17110      0.00508      1.04384         0.006410     -0.000039      0.001665
     -1.87812      0.02520      8.50093         0.002974      0.001888     -0.006547
      2.37142      1.39498      3.85150        -0.006879     -0.000295      0.005333
      3.84873      1.43293      5.77431        -0.000770     -0.001631      0.002657
      3.87598      4.17651      5.77446        -0.001252     -0.000361      0.003038
      2.33111      4.21448      3.88609        -0.007720     -0.000008      0.006144
      5.69504      1.39927      1.01521         0.004750      0.000933     -0.000119
      0.63196      1.40944      8.44103         0.002354      0.002517     -0.000969
      0.59680      4.20890      8.48253         0.003405      0.001909     -0.000211
      5.76664      4.19318      0.98547         0.004612      0.000582      0.001173
     -0.12400      2.80292      3.81235        -0.007297      0.000202      0.003018
      6.36292      2.77542      5.74592         0.000201     -0.000997     -0.005960
      8.15972      2.79406      1.06890         0.008035      0.001194     -0.000525
     -1.86686      2.80549      8.51438         0.001682      0.003784     -0.003755
    total drift:                               -0.022204      0.000474     -0.024984

  FREE ENERGIE OF THE ION-ELECTRON SYSTEM (eV)
  free  energy   TOTEN  =      -359.2328820876 eV

  energy  without entropy=     -359.2327911820  energy(sigma->0) =     -359.23283663

 d Force = 0.8755888E-04[ 0.704E-04, 0.105E-03]  d Energy = 0.1028497E-03-0.153E-04
 d Force =-0.1011960E+01[-0.101E+01,-0.101E+01]  d Ewald  = 0.9512790E-02-0.102E+01

 Quasi-Newton relaxation of ions (Broydens 2nd method)
  g(Force)  = 0.186E-03   g(Stress)= 0.222E-04

 retain information from N=  2 steps
 eigenvalues of (default step * inverse Hessian matrix)
  average eigenvalue of G=   1.0048
 eigenvalue spectrum of G is  0.2239  1.7857

volume of typ            1:    16.2 %

[...]

volume of typ            3:     9.9 %

total charge

# of ion       s       p       d       tot
    1        2.071   0.227   0.084   2.382
    2        2.081   0.258   0.095   2.433
    3        2.078   0.253   0.091   2.423
    4        2.077   0.241   0.090   2.407
    5        2.074   0.240   0.086   2.400
    6        2.080   0.258   0.093   2.431
    7        2.075   0.242   0.087   2.404
    8        2.075   0.237   0.088   2.400
    9        2.075   0.242   0.087   2.403
   10        2.076   0.245   0.089   2.410
   11        2.080   0.256   0.094   2.430
   12        0.274   0.368   7.858   8.500
   13        0.281   0.381   7.864   8.526
   14        0.266   0.355   7.862   8.482
   15        0.279   0.382   7.856   8.517
   16        0.268   0.359   7.843   8.470
   17        0.279   0.377   7.865   8.521
   18        0.277   0.379   7.857   8.514
   19        0.271   0.366   7.860   8.497
   20        0.273   0.367   7.858   8.497
   21        0.280   0.379   7.867   8.527
   22        0.267   0.356   7.860   8.482
   23        0.279   0.382   7.854   8.515
   24        0.269   0.361   7.853   8.483
   25        0.279   0.377   7.863   8.519
   26        0.278   0.380   7.855   8.513
   27        0.270   0.364   7.858   8.491
   28        1.263   2.773   0.007   4.043
   29        1.259   2.790   0.006   4.055
   30        1.266   2.769   0.007   4.043
   31        1.262   2.786   0.006   4.055
   32        1.261   2.781   0.006   4.048
   33        1.260   2.790   0.006   4.055
   34        1.263   2.784   0.006   4.053
   35        1.262   2.782   0.006   4.049
   36        1.267   2.768   0.007   4.042
   37        1.260   2.786   0.007   4.053
   38        1.264   2.778   0.008   4.050
   39        1.267   2.769   0.007   4.044
   40        1.263   2.773   0.007   4.043
   41        1.260   2.787   0.006   4.053
   42        1.268   2.765   0.007   4.040
   43        1.259   2.792   0.006   4.057
   44        1.262   2.786   0.006   4.055
   45        1.265   2.776   0.007   4.048
   46        1.262   2.779   0.006   4.047
   47        1.260   2.785   0.006   4.052
   48        1.266   2.774   0.007   4.047
   49        1.262   2.781   0.006   4.049
   50        1.259   2.789   0.007   4.054
   51        1.277   2.739   0.008   4.024
   52        1.261   2.785   0.006   4.052
   53        1.261   2.786   0.006   4.052
   54        1.260   2.789   0.006   4.055
   55        1.263   2.782   0.006   4.052
   56        1.263   2.785   0.006   4.053
   57        1.260   2.784   0.007   4.051
   58        1.261   2.779   0.006   4.046
   59        1.263   2.777   0.007   4.047
tot          67.64   97.58  126.92  292.15

magnetization (x)

# of ion       s       p       d       tot
    1        0.005   0.007   0.000   0.012
    2        0.006   0.016   0.000   0.022
    3        0.005   0.016  -0.000   0.021
    4        0.004   0.006  -0.000   0.010
    5        0.006   0.016  -0.000   0.021
    6        0.006   0.017  -0.000   0.023
    7        0.005   0.015   0.000   0.021
    8        0.005   0.008  -0.000   0.013
    9        0.005   0.015   0.000   0.020
   10        0.006   0.016   0.000   0.022
   11        0.006   0.016   0.000   0.022
   12        0.003   0.000   0.509   0.512
   13        0.004   0.000   0.556   0.560
   14        0.001  -0.000   0.623   0.624
   15       -0.000  -0.000   0.378   0.378
   16        0.001   0.000   0.448   0.450
   17        0.004   0.000   0.559   0.564
   18       -0.000  -0.000   0.414   0.413
   19       -0.000   0.000   0.520   0.520
   20        0.003   0.000   0.498   0.500
   21        0.004   0.000   0.575   0.579
   22        0.000   0.000   0.621   0.622
   23       -0.001   0.000   0.359   0.358
   24        0.001  -0.000   0.461   0.462
   25        0.004   0.000   0.559   0.564
   26       -0.000  -0.000   0.410   0.409
   27       -0.000  -0.000   0.553   0.552
   28        0.007   0.060   0.000   0.067
   29        0.011   0.064   0.000   0.076
   30        0.004   0.021   0.000   0.024
   31        0.009   0.036   0.000   0.045
   32        0.012   0.086   0.000   0.098
   33        0.011   0.048   0.000   0.060
   34        0.009   0.032   0.000   0.042
   35        0.011   0.058   0.000   0.070
   36        0.008   0.083   0.000   0.091
   37        0.006   0.048   0.000   0.054
   38        0.003   0.017   0.000   0.020
   39        0.007   0.060   0.000   0.067
   40        0.008   0.073   0.000   0.081
   41        0.012   0.077   0.000   0.089
   42        0.006   0.048   0.000   0.054
   43        0.010   0.032   0.000   0.042
   44        0.010   0.034   0.000   0.044
   45        0.004   0.020   0.000   0.024
   46        0.011   0.063   0.000   0.074
   47        0.008   0.063   0.000   0.071
   48        0.007   0.059   0.000   0.066
   49        0.008   0.073   0.000   0.081
   50        0.007   0.052   0.000   0.059
   51        0.003   0.015   0.000   0.018
   52        0.011   0.056   0.000   0.067
   53        0.012   0.080   0.000   0.092
   54        0.011   0.050   0.000   0.061
   55        0.010   0.038   0.000   0.048
   56        0.011   0.056   0.000   0.067
   57        0.006   0.033   0.000   0.039
   58        0.011   0.080   0.000   0.091
   59        0.008   0.069   0.000   0.077
tot           0.35    1.83    8.05   10.23