 vasp.5.4.4.18Apr17-6-g9f103f2a35 (build May 12 2020 05:39:39) gamma-only

 MD_VERSION_INFO: Compiled 2020-05-12T12:39:39-UTC in devlin.sd.materialsdesign.
 com:/home/medea2/data/build/wwolf/vasp-gpu5.4.4/13047/x86_64/src/src/build/gam
 from svn 13047

 executed on                        Lin64 date 2023.03.07  01:03:42

 INCAR:
 POTCAR:    PAW_PBE Li_sv 10Sep2004
 POTCAR:    PAW_PBE Ni 02Aug2007
 POTCAR:    PAW_PBE O 08Apr2002

 POTCAR:    PAW_PBE Li_sv 10Sep2004

 POTCAR:    PAW_PBE Ni 02Aug2007

 POTCAR:    PAW_PBE O 08Apr2002

 Optimization of the real space projectors (new method)

 maximal supplied QI-value         = 22.11
 optimisation between [QCUT,QGAM] = [ 11.28, 22.77] = [ 35.61,145.23] Ry
 Optimized for a Real-space Cutoff    1.10 Angstroem

   l    n(q)    QCUT    max X(q) W(low)/X(q) W(high)/X(q)  e(spline)
   0      7    11.276    10.506    0.54E-04    0.58E-04    0.16E-07
   0      7    11.276     8.367    0.11E-03    0.14E-03    0.35E-07
   1      7    11.276     8.983    0.23E-03    0.43E-03    0.86E-07
 Optimization of the real space projectors (new method)

[...]

   l    n(q)    QCUT    max X(q) W(low)/X(q) W(high)/X(q)  e(spline)
   2      9    11.376    60.317    0.17E-03    0.16E-04    0.16E-06
   2      9    11.376    55.921    0.17E-03    0.16E-04    0.17E-06
   0     10    11.376    51.690    0.45E-04    0.60E-04    0.21E-06
   0     10    11.376    30.015    0.37E-04    0.55E-04    0.19E-06
   1     10    11.376    18.849    0.83E-04    0.11E-03    0.92E-07
   1     10    11.376    14.624    0.69E-04    0.92E-04    0.82E-07
 Optimization of the real space projectors (new method)

 maximal supplied QI-value         = 24.76
 optimisation between [QCUT,QGAM] = [ 11.39, 22.77] = [ 36.31,145.25] Ry
 Optimized for a Real-space Cutoff    1.10 Angstroem

   l    n(q)    QCUT    max X(q) W(low)/X(q) W(high)/X(q)  e(spline)
   0      7    11.387    20.381    0.22E-03    0.48E-03    0.18E-06
   0      7    11.387    15.268    0.22E-03    0.52E-03    0.19E-06
   1      7    11.387     5.964    0.22E-03    0.73E-03    0.24E-06
   1      7    11.387     5.382    0.19E-03    0.60E-03    0.21E-06

  PAW_PBE Li_sv 10Sep2004               :
  PAW_PBE Ni 02Aug2007                  :
  PAW_PBE O 08Apr2002                   :

 POSCAR: ce17456_1
  positions in direct lattice
 exchange correlation table for  LEXCH =       14
   RHO(1)=    0.500       N(1)  =     2000
   RHO(2)=  100.500       N(2)  =     4000

 ion  position               nearest neighbor table
   1  0.996  0.251  0.733-  23 2.04  50 2.06  47 2.09  30 2.17  27 2.19  13 2.77
   2  0.996  0.749  0.267-  24 2.04  49 2.06  48 2.09  29 2.17  28 2.19  13 2.77
   3  0.255  0.248  0.036-  31 1.93  51 2.01  39 2.03  17 2.68  12 2.81   7 2.83
   4  0.255  0.752  0.964-  32 1.93  52 2.01  40 2.03  16 2.68  12 2.81   7 2.83
   5  0.504  0.250  0.735-  35 2.05  50 2.06  47 2.10  30 2.19  27 2.20  53 2.24  14 2.77
   6  0.504  0.750  0.265-  36 2.05  49 2.06  48 2.10  29 2.19  28 2.20  54 2.24  14 2.77
   7  0.999  0.000  0.000-  33 1.84  34 1.84  31 1.86  32 1.86  41 1.92  42 1.92  12 2.77  11 2.81
                            10 2.81  12 2.82   9 2.83   8 2.83   4 2.83   3 2.83
   8  0.249  0.004  0.253-  25 1.84  54 1.84  37 1.85  42 1.86  31 1.92  48 1.92  11 2.79  11 2.80
                            13 2.80  14 2.81   7 2.83  12 2.83
   9  0.249  0.996  0.747-  26 1.84  53 1.84  38 1.85  41 1.86  32 1.92  47 1.92  10 2.79  10 2.80
                            13 2.80  14 2.81   7 2.83  12 2.83
  10  0.750  0.999  0.750-  26 1.84  38 1.85  53 1.86  41 1.88  33 1.91  50 1.93   9 2.79   9 2.80
                            12 2.80   7 2.81  14 2.81  13 2.81
  11  0.750  0.001  0.250-  25 1.84  37 1.85  54 1.86  42 1.88  34 1.91  49 1.93   8 2.79   8 2.80
                            12 2.80   7 2.81  14 2.81  13 2.81
  12  0.503  0.000  0.000-  33 1.83  34 1.83  31 1.85  32 1.85  53 2.01  54 2.01   7 2.77  10 2.80
                            11 2.80   4 2.81   3 2.81   7 2.82   9 2.83   8 2.83
  13  1.000  0.000  0.500-  49 1.88  50 1.88  47 1.88  48 1.88  25 1.93  26 1.93   1 2.77   2 2.77
                            14 2.79  14 2.80   9 2.80   8 2.80  11 2.81  10 2.81
  14  0.500  0.000  0.500-  49 1.88  50 1.88  47 1.89  48 1.89  37 1.89  38 1.89   5 2.77   6 2.77
                            13 2.79  13 2.80   8 2.81   9 2.81  10 2.81  11 2.81
  15  1.000  0.500  0.500-  45 1.85  46 1.85  43 1.85  44 1.85  23 1.96  24 1.96  20 2.79  20 2.80
                            19 2.81  18 2.81  17 2.81  16 2.81
  16  0.250  0.501  0.750-  52 1.84  35 1.85  23 1.85  40 1.85  44 1.89  27 1.95   4 2.68  19 2.79
                            19 2.80  20 2.81  15 2.81  21 2.82  22 2.82
  17  0.250  0.499  0.250-  51 1.84  36 1.85  24 1.85  39 1.85  43 1.89  28 1.95   3 2.68  18 2.79
                            18 2.80  20 2.81  15 2.81  21 2.82  22 2.82
  18  0.750  0.493  0.248-  24 1.85  36 1.85  51 1.86  39 1.86  46 1.88  29 1.93  17 2.79  17 2.80
                            15 2.81  20 2.81  22 2.81  21 2.81
  19  0.750  0.507  0.752-  23 1.85  35 1.85  52 1.86  40 1.86  45 1.88  30 1.93  16 2.79  16 2.80
                            15 2.81  20 2.81  22 2.81  21 2.81
  20  0.501  0.500  0.500-  45 1.85  46 1.85  43 1.85  44 1.85  35 1.98  36 1.98  15 2.79  15 2.80
                            19 2.81  18 2.81  17 2.81  16 2.81
  21  0.999  0.500  0.000-  29 1.86  30 1.86  27 1.88  28 1.88  39 1.95  40 1.95  22 2.78  22 2.81
                            19 2.81  18 2.81  17 2.82  16 2.82
  22  0.502  0.500  0.000-  29 1.87  30 1.87  27 1.90  28 1.90  51 1.95  52 1.95  21 2.78  21 2.81
                            18 2.81  19 2.81  16 2.82  17 2.82
  23  0.997  0.402  0.641-  16 1.85  19 1.85  15 1.96   1 2.04
  24  0.997  0.598  0.359-  17 1.85  18 1.85  15 1.96   2 2.04
  25  0.997  0.100  0.365-   8 1.84  11 1.84  13 1.93
  26  0.997  0.900  0.635-   9 1.84  10 1.84  13 1.93
  27  0.249  0.396  0.882-  21 1.88  22 1.90  16 1.95   1 2.19   5 2.20
  28  0.249  0.604  0.118-  21 1.88  22 1.90  17 1.95   2 2.19   6 2.20
  29  0.752  0.600  0.119-  21 1.86  22 1.87  18 1.93   2 2.17   6 2.19
  30  0.752  0.400  0.881-  21 1.86  22 1.87  19 1.93   1 2.17   5 2.19
  31  0.252  0.099  0.114-  12 1.85   7 1.86   8 1.92   3 1.93
  32  0.252  0.901  0.886-  12 1.85   7 1.86   9 1.92   4 1.93
  33  0.750  0.903  0.886-  12 1.83   7 1.84  10 1.91
  34  0.750  0.097  0.114-  12 1.83   7 1.84  11 1.91
  35  0.504  0.401  0.641-  16 1.85  19 1.85  20 1.98   5 2.05
  36  0.504  0.599  0.359-  17 1.85  18 1.85  20 1.98   6 2.05
  37  0.502  0.098  0.369-   8 1.85  11 1.85  14 1.89
  38  0.502  0.902  0.631-   9 1.85  10 1.85  14 1.89
  39  0.006  0.397  0.134-  17 1.85  18 1.86  21 1.95   3 2.03
  40  0.006  0.603  0.866-  16 1.85  19 1.86  21 1.95   4 2.03
  41  0.004  0.099  0.865-   9 1.86  10 1.88   7 1.92
  42  0.004  0.901  0.135-   8 1.86  11 1.88   7 1.92
  43  0.251  0.404  0.385-  20 1.85  15 1.85  17 1.89
  44  0.251  0.596  0.615-  20 1.85  15 1.85  16 1.89
  45  0.750  0.598  0.615-  20 1.85  15 1.85  19 1.88
  46  0.750  0.402  0.385-  20 1.85  15 1.85  18 1.88
  47  0.249  0.102  0.619-  13 1.88  14 1.89   9 1.92   1 2.09   5 2.10
  48  0.249  0.898  0.381-  13 1.88  14 1.89   8 1.92   2 2.09   6 2.10
  49  0.751  0.897  0.382-  13 1.88  14 1.88  11 1.93   2 2.06   6 2.06
  50  0.751  0.103  0.618-  13 1.88  14 1.88  10 1.93   1 2.06   5 2.06
  51  0.495  0.397  0.135-  17 1.84  18 1.86  22 1.95   3 2.01
  52  0.495  0.603  0.865-  16 1.84  19 1.86  22 1.95   4 2.01
  53  0.495  0.102  0.858-   9 1.84  10 1.86  12 2.01   5 2.24
  54  0.495  0.898  0.142-   8 1.84  11 1.86  12 2.01   6 2.24

  LATTYP: Found a simple monoclinic cell.
 ALAT       =    11.3928238034
 B/A-ratio  =     0.4905452551
 C/A-ratio  =     1.6954611662
 COS(beta)  =    -0.9053000599

  Lattice vectors:

 A1 = (  -6.1638759829,   0.0000000000,  -9.5813917091)
 A2 = (   0.0000000000,  -5.5886956592,   0.0000000000)
 A3 = (   2.5605603560,   0.0000000000,  19.1456229041)

Analysis of symmetry for initial positions (statically):
 Subroutine PRICEL returns:
 Original cell was already a primitive cell.

 Routine SETGRP: Setting up the symmetry group for a
 simple monoclinic supercell.

 Subroutine GETGRP returns: Found  2 space group operations
 (whereof  2 operations were pure point group operations)
 out of a pool of  4 trial point group operations.

The static configuration has the point symmetry C_2 .

Analysis of symmetry for dynamics (positions and initial velocities):
 Subroutine PRICEL returns:
 Original cell was already a primitive cell.

[...]

The dynamic configuration has the point symmetry C_2 .

Analysis of structural, dynamic, and magnetic symmetry:
 Subroutine PRICEL returns:
 Original cell was already a primitive cell.

 Routine SETGRP: Setting up the symmetry group for a
 simple monoclinic supercell.

 Subroutine GETGRP returns: Found  2 space group operations
 (whereof  2 operations were pure point group operations)
 out of a pool of  4 trial point group operations.

The magnetic configuration has the point symmetry C_2 .

 Subroutine INISYM returns: Found  2 space group operations
 (whereof  2 operations are pure point group operations),
 and found     1 'primitive' translations

 KPOINTS: Automatic mesh

Automatic generation of k-mesh.
Space group operators:
 irot       det(A)        alpha          n_x          n_y          n_z        tau_x        tau_y        tau_z
    1     1.000000     0.000000     1.000000     0.000000     0.000000     0.000000     0.000000     0.000000
    2     1.000000   180.000000     0.000000     1.000000     0.000000     0.000000     0.000000     0.000000

 Subroutine IBZKPT returns following result:

 Found      1 irreducible k-points:

 Following reciprocal coordinates:
            Coordinates               Weight
  0.000000  0.000000  0.000000      1.000000

 Following cartesian coordinates:
            Coordinates               Weight
  0.000000  0.000000  0.000000      1.000000

 SYSTEM =  unknown system
 POSCAR =  ce17456_1

 Startparameter for this run:
   NWRITE =      1    write-flag & timer
   PREC   = accura    normal or accurate (medium, high low for compatibility)
   ISTART =      0    job   : 0-new  1-cont  2-samecut
   ICHARG =      2    charge: 1-file 2-atom 10-const
   ISPIN  =      2    spin polarized calculation?
   LNONCOLLINEAR =      F non collinear calculations
   LSORBIT =      F    spin-orbit coupling
   INIWAV =      1    electr: 0-lowe 1-rand  2-diag
   LASPH  =      F    aspherical Exc in radial PAW
   METAGGA=      F    non-selfconsistent MetaGGA calc.

 Electronic Relaxation 1
   ENCUT  =  500.0 eV  36.75 Ry    6.06 a.u.  10.19 18.63 17.81*2*pi/ulx,y,z
   ENINI  =  500.0     initial cutoff
   ENAUG  =  628.9 eV  augmentation charge cutoff
   NELM   =     80;   NELMIN=  2; NELMDL= -5     # of ELM steps
   EDIFF  = 0.1E-04   stopping-criterion for ELM
   LREAL  =      T    real-space projection
   NLSPLINE    = F    spline interpolate recip. space projectors
   LCOMPAT=      F    compatible to vasp.4.4
   GGA_COMPAT  = T    GGA compatible to vasp.4.4-vasp.4.6
   LMAXPAW     = -100 max onsite density
[...]
   -.712E+01 -.183E+01 0.843E+00   0.750E+01 0.192E+01 -.799E+00   -.392E+00 -.926E-01 -.479E-01   0.513E-02 0.148E-02 -.117E-02
   -.740E-05 0.239E+02 0.153E-05   0.352E-11 -.243E+02 0.944E-11   0.000E+00 0.360E+00 0.734E-23   -.407E-11 -.207E-02 -.150E-12
   0.139E+02 0.168E+01 -.115E+03   -.142E+02 -.153E+01 0.116E+03   0.348E+00 -.108E+00 -.171E+01   0.831E-02 -.392E-01 -.298E-02
   -.139E+02 0.168E+01 0.115E+03   0.142E+02 -.153E+01 -.116E+03   -.348E+00 -.108E+00 0.171E+01   -.831E-02 -.392E-01 0.298E-02
   -.319E+02 -.156E+01 0.706E+02   0.323E+02 0.141E+01 -.722E+02   -.431E+00 0.107E+00 0.162E+01   -.123E-01 0.379E-01 0.514E-02
   0.319E+02 -.156E+01 -.706E+02   -.323E+02 0.141E+01 0.722E+02   0.431E+00 0.107E+00 -.162E+01   0.123E-01 0.379E-01 -.514E-02
   0.144E-04 -.227E+02 -.299E-05   0.384E-11 0.231E+02 0.907E-11   0.000E+00 -.353E+00 0.219E-22   0.548E-11 0.387E-02 -.870E-14
   -.406E-05 -.198E+01 0.768E-06   0.536E-11 0.184E+01 0.483E-11   0.000E+00 0.148E+00 0.631E-23   -.722E-12 -.858E-02 -.612E-12
   0.130E-05 0.224E+01 -.247E-06   0.571E-11 -.212E+01 0.733E-11   0.116E-22 -.126E+00 0.815E-23   -.833E-12 0.767E-02 -.387E-11
   -.127E-05 -.317E+01 0.259E-06   -.152E-11 0.316E+01 -.268E-11   0.000E+00 0.224E-01 0.569E-23   0.158E-10 -.745E-02 -.782E-12
   0.657E+02 0.321E+00 -.186E+02   -.668E+02 -.249E+00 0.194E+02   0.105E+01 -.745E-01 -.751E+00   -.234E-01 -.823E-04 -.358E-02
   -.657E+02 0.321E+00 0.186E+02   0.668E+02 -.249E+00 -.194E+02   -.105E+01 -.745E-01 0.751E+00   0.234E-01 -.823E-04 0.358E-02
   -.439E+02 -.419E+00 0.940E+02   0.445E+02 0.338E+00 -.957E+02   -.614E+00 0.818E-01 0.165E+01   0.244E-01 0.209E-02 0.279E-02
   0.439E+02 -.419E+00 -.940E+02   -.445E+02 0.338E+00 0.957E+02   0.614E+00 0.818E-01 -.165E+01   -.244E-01 0.209E-02 -.279E-02
   0.485E-05 0.308E+01 -.987E-06   -.106E-11 -.306E+01 -.321E-11   0.000E+00 -.282E-01 -.121E-22   0.382E-11 0.823E-02 -.133E-11
   -.666E-06 0.219E+02 0.138E-06   -.683E-12 -.222E+02 -.711E-11   0.000E+00 0.326E+00 0.817E-23   -.111E-10 -.520E-02 0.187E-11
   0.775E-05 -.215E+02 -.161E-05   -.577E-13 0.218E+02 -.497E-11   0.000E+00 -.348E+00 0.161E-22   -.485E-11 0.598E-02 0.256E-11
   0.812E+02 0.204E+01 0.348E+03   -.861E+02 -.264E+01 -.368E+03   0.488E+01 0.610E+00 0.207E+02   0.116E-01 -.748E-02 0.131E-01
   -.812E+02 0.204E+01 -.348E+03   0.861E+02 -.264E+01 0.368E+03   -.488E+01 0.610E+00 -.207E+02   -.116E-01 -.748E-02 -.131E-01
   0.152E+01 0.278E+01 -.410E+03   -.542E+00 -.327E+01 0.436E+03   -.992E+00 0.503E+00 -.262E+02   0.154E-01 -.773E-02 -.977E-02
   -.152E+01 0.278E+01 0.410E+03   0.542E+00 -.327E+01 -.436E+03   0.992E+00 0.503E+00 0.262E+02   -.154E-01 -.773E-02 0.977E-02
   -.220E-01 -.170E+01 0.323E+03   0.518E+00 0.207E+01 -.338E+03   -.478E+00 -.356E+00 0.151E+02   -.248E-01 -.848E-02 -.148E-01
   0.220E-01 -.170E+01 -.323E+03   -.518E+00 0.207E+01 0.338E+03   0.478E+00 -.356E+00 -.151E+02   0.248E-01 -.848E-02 0.148E-01
   0.151E+02 0.195E+01 -.326E+03   -.165E+02 -.232E+01 0.343E+03   0.139E+01 0.365E+00 -.168E+02   0.319E-01 0.793E-02 0.949E-02
   -.151E+02 0.195E+01 0.326E+03   0.165E+02 -.232E+01 -.343E+03   -.139E+01 0.365E+00 0.168E+02   -.319E-01 0.793E-02 -.949E-02
   -.508E+02 -.338E+01 -.360E+03   0.548E+02 0.354E+01 0.380E+03   -.403E+01 -.101E+00 -.197E+02   -.866E-02 -.575E-01 -.426E-02
   0.508E+02 -.338E+01 0.360E+03   -.548E+02 0.354E+01 -.380E+03   0.403E+01 -.101E+00 0.197E+02   0.866E-02 -.575E-01 0.426E-02
   0.246E+02 0.277E+01 0.389E+03   -.260E+02 -.270E+01 -.415E+03   0.141E+01 -.126E+00 0.262E+02   0.141E-02 0.592E-01 0.584E-02
   -.246E+02 0.277E+01 -.389E+03   0.260E+02 -.270E+01 0.415E+03   -.141E+01 -.126E+00 -.262E+02   -.141E-02 0.592E-01 -.584E-02
   0.818E+02 -.224E+01 0.349E+03   -.869E+02 0.289E+01 -.370E+03   0.507E+01 -.652E+00 0.207E+02   0.142E-02 0.722E-02 0.191E-01
   -.818E+02 -.224E+01 -.349E+03   0.869E+02 0.289E+01 0.370E+03   -.507E+01 -.652E+00 -.207E+02   -.142E-02 0.722E-02 -.191E-01
   0.105E+02 -.271E+01 -.412E+03   -.106E+02 0.313E+01 0.438E+03   0.153E+00 -.429E+00 -.261E+02   -.574E-02 0.848E-02 0.122E-01
   -.105E+02 -.271E+01 0.412E+03   0.106E+02 0.313E+01 -.438E+03   -.153E+00 -.429E+00 0.261E+02   0.574E-02 0.848E-02 -.122E-01
   -.174E+02 0.338E+02 0.370E+03   0.167E+02 -.364E+02 -.391E+03   0.672E+00 0.261E+01 0.207E+02   0.311E-01 -.725E-02 0.570E-02
   0.174E+02 0.338E+02 -.370E+03   -.167E+02 -.364E+02 0.391E+03   -.672E+00 0.261E+01 -.207E+02   -.311E-01 -.725E-02 -.570E-02
   -.324E+02 0.245E+02 -.329E+03   0.332E+02 -.259E+02 0.348E+03   -.815E+00 0.136E+01 -.193E+02   0.228E-01 -.711E-02 -.236E-01
   0.324E+02 0.245E+02 0.329E+03   -.332E+02 -.259E+02 -.348E+03   0.815E+00 0.136E+01 0.193E+02   -.228E-01 -.711E-02 0.236E-01
   -.184E+02 0.118E+00 0.385E+03   0.187E+02 -.989E-01 -.410E+03   -.303E+00 -.227E-01 0.258E+02   -.549E-02 0.584E-02 0.768E-02
   0.184E+02 0.118E+00 -.385E+03   -.187E+02 -.989E-01 0.410E+03   0.303E+00 -.227E-01 -.258E+02   0.549E-02 0.584E-02 -.768E-02
   0.114E+02 -.241E-01 -.391E+03   -.120E+02 -.662E-02 0.417E+03   0.608E+00 0.363E-01 -.262E+02   0.114E-01 -.617E-02 -.113E-01
   -.114E+02 -.241E-01 0.391E+03   0.120E+02 -.662E-02 -.417E+03   -.608E+00 0.363E-01 0.262E+02   -.114E-01 -.617E-02 0.113E-01
   0.351E+02 0.142E+01 -.321E+03   -.374E+02 -.101E+01 0.337E+03   0.232E+01 -.381E+00 -.155E+02   -.984E-02 -.364E-01 -.491E-02
   -.351E+02 0.142E+01 0.321E+03   0.374E+02 -.101E+01 -.337E+03   -.232E+01 -.381E+00 0.155E+02   0.984E-02 -.364E-01 0.491E-02
   -.301E+02 -.163E+01 0.322E+03   0.325E+02 0.132E+01 -.337E+03   -.245E+01 0.275E+00 0.150E+02   0.462E-02 0.365E-01 0.987E-02
   0.301E+02 -.163E+01 -.322E+03   -.325E+02 0.132E+01 0.337E+03   0.245E+01 0.275E+00 -.150E+02   -.462E-02 0.365E-01 -.987E-02
   -.156E+02 -.341E+02 0.369E+03   0.145E+02 0.367E+02 -.389E+03   0.107E+01 -.260E+01 0.203E+02   0.372E-01 0.651E-02 0.696E-02
   0.156E+02 -.341E+02 -.369E+03   -.145E+02 0.367E+02 0.389E+03   -.107E+01 -.260E+01 -.203E+02   -.372E-01 0.651E-02 -.696E-02
   -.506E+02 -.239E+02 -.325E+03   0.540E+02 0.251E+02 0.343E+03   -.340E+01 -.122E+01 -.182E+02   -.215E-01 0.539E-02 0.492E-02
   0.506E+02 -.239E+02 0.325E+03   -.540E+02 0.251E+02 -.343E+03   0.340E+01 -.122E+01 0.182E+02   0.215E-01 0.539E-02 -.492E-02
   0.953E-05 0.362E+00 -.211E-05   0.711E-14 -.135E-12 0.171E-12   0.000E+00 -.340E+00 0.107E-13   -.648E-11 -.111E-01 -.119E-10

 POSITION                                       TOTAL-FORCE (eV/Angst)
      6.22800      5.57240      2.40807        -0.024724      0.000997      0.008618
     -0.10249      5.57240      7.17525         0.024724      0.000997     -0.008618
     -0.53516      1.42130      2.37855         0.029114     -0.002227     -0.004523
      6.66066      1.42130      7.20477        -0.029114     -0.002227      0.004523
      6.27085      2.81537      2.39239         0.006965     -0.000736      0.004977
     -0.14534      2.81537      7.19093        -0.006965     -0.000736     -0.004977
     -0.00000      5.58330      0.00000         0.000000      0.005054     -0.000000
      2.45078      1.39508      0.02259        -0.005941      0.001817     -0.014159
      3.67473      1.39508      9.56073         0.005941      0.001817      0.014159
      3.68702      4.19047      9.59196         0.002742     -0.002391      0.013413
      2.43849      4.19047     -0.00864        -0.002742     -0.002391     -0.013413
     -0.00000      2.81355      0.00000         0.000000     -0.004394     -0.000000
      4.87994      5.58816     -0.00860        -0.000000     -0.003076     -0.000000
      4.87994      2.79688     -0.00860         0.000000      0.002460     -0.000000
      3.06275      5.59046      4.79166         0.000000      0.003837     -0.000000
      5.49032      1.40018      4.79217        -0.007789     -0.002841     -0.008131
      0.63519      1.40018      4.79115         0.007789     -0.002841      0.008131
      0.63113      4.19595      4.73532         0.008120      0.002552      0.006849
      5.49437      4.19595      4.84800        -0.008120      0.002552     -0.006849
      3.06275      2.80008      4.79166         0.000000     -0.001609     -0.000000
     -1.81719      5.59100      4.80026         0.000000      0.004678     -0.000000
     -1.81719      2.80265      4.80026         0.000000     -0.002623     -0.000000
      4.77464      5.57364      3.84974        -0.003655      0.001195      0.002741
      1.35086      5.57364      5.73358         0.003655      0.001195     -0.002741
      3.20070      5.57596      0.93221         0.004248     -0.001695     -0.007621
      2.92480      5.57596      8.65111        -0.004248     -0.001695      0.007621
      7.16347      1.39304      3.78496        -0.007197     -0.000398      0.003016
     -1.03797      1.39304      5.79836         0.007197     -0.000398     -0.003016
     -1.00370      4.20373      5.75620         0.004930      0.000970     -0.000822
      7.12921      4.20373      3.82712        -0.004930      0.000970      0.000822
      0.76271      1.40608      0.93943         0.008442     -0.002816     -0.007806
      5.36279      1.40608      8.64389        -0.008442     -0.002816      0.007806
      5.34723      4.19292      8.66122        -0.006924      0.001597      0.005070
      0.77827      4.19292      0.92210         0.006924      0.001597     -0.005070
      4.78512      2.81754      3.84260        -0.002617      0.001699      0.001953
      1.34039      2.81754      5.74072         0.002617      0.001699     -0.001953
      3.24270      2.80544      0.92258         0.001955      0.000076     -0.006862
      2.88280      2.80544      8.66074        -0.001955      0.000076      0.006862
     -0.13780      0.03390      3.82051        -0.003492      0.000311      0.000492
      6.26330      0.03390      5.76281         0.003492      0.000311     -0.000492
      8.09492      0.02407      0.94232         0.012831     -0.001763      0.006716
     -1.96942      0.02407      8.64100        -0.012831     -0.001763     -0.006716
      2.28197      1.40130      3.86918        -0.006175      0.002442      0.002762
      3.84353      1.40130      5.71414         0.006175      0.002442     -0.002762
      3.83248      4.19353      5.72618         0.006979     -0.000854     -0.001800
      2.29303      4.19353      3.85714        -0.006979     -0.000854      0.001800
      5.67596      1.38908      0.97035        -0.003155     -0.004414      0.010976
      0.44954      1.38908      8.61297         0.003155     -0.004414     -0.010976
      0.45776      4.19924      8.60437         0.001850      0.002838     -0.009068
      5.66775      4.19924      0.97895        -0.001850      0.002838      0.009068
     -0.12842      2.76798      3.82184        -0.003433      0.001916     -0.001345
      6.25392      2.76798      5.76148         0.003433      0.001916      0.001345
      8.00881      2.76702      0.97372         0.004691     -0.000439      0.010806
     -1.88330      2.76702      8.60960        -0.004691     -0.000439     -0.010806
    total drift:                                0.000010      0.011444     -0.000002

  FREE ENERGIE OF THE ION-ELECTRON SYSTEM (eV)
  free  energy   TOTEN  =      -334.2526360126 eV

  energy  without entropy=     -334.2509911122  energy(sigma->0) =     -334.25181356

 d Force = 0.2830386E-03[ 0.231E-03, 0.335E-03]  d Energy = 0.2285804E-03 0.545E-04
 d Force = 0.3676242E+01[ 0.367E+01, 0.368E+01]  d Ewald  = 0.8019324E+01-0.434E+01

 Quasi-Newton relaxation of ions (Broydens 2nd method)
  g(Force)  = 0.345E-03   g(Stress)= 0.421E-03

 retain information from N=  2 steps
 eigenvalues of (default step * inverse Hessian matrix)
  average eigenvalue of G=   0.5269
 eigenvalue spectrum of G is  0.3004  0.7534

volume of typ            1:     8.9 %

[...]

volume of typ            3:    10.0 %

total charge

# of ion       s       p       d       tot
    1        2.072   0.228   0.083   2.383
    2        2.072   0.228   0.083   2.383
    3        2.076   0.232   0.090   2.399
    4        2.076   0.232   0.090   2.399
    5        2.072   0.227   0.083   2.382
    6        2.072   0.227   0.083   2.382
    7        0.292   0.411   7.839   8.541
    8        0.293   0.413   7.843   8.549
    9        0.293   0.413   7.843   8.549
   10        0.291   0.405   7.839   8.534
   11        0.291   0.405   7.839   8.534
   12        0.284   0.390   7.854   8.528
   13        0.280   0.382   7.850   8.512
   14        0.282   0.389   7.848   8.520
   15        0.285   0.396   7.834   8.515
   16        0.298   0.421   7.849   8.568
   17        0.298   0.421   7.849   8.568
   18        0.294   0.413   7.835   8.542
   19        0.294   0.413   7.835   8.542
   20        0.285   0.395   7.835   8.514
   21        0.277   0.377   7.857   8.511
   22        0.271   0.365   7.862   8.498
   23        1.273   2.758   0.007   4.038
   24        1.273   2.758   0.007   4.038
   25        1.284   2.727   0.008   4.018
   26        1.284   2.727   0.008   4.018
   27        1.263   2.779   0.006   4.049
   28        1.263   2.779   0.006   4.049
   29        1.265   2.776   0.007   4.048
   30        1.265   2.776   0.007   4.048
   31        1.268   2.773   0.007   4.049
   32        1.268   2.773   0.007   4.049
   33        1.282   2.732   0.008   4.023
   34        1.282   2.732   0.008   4.023
   35        1.274   2.754   0.007   4.036
   36        1.274   2.754   0.007   4.036
   37        1.284   2.727   0.008   4.019
   38        1.284   2.727   0.008   4.019
   39        1.271   2.762   0.007   4.040
   40        1.271   2.762   0.007   4.040
   41        1.270   2.762   0.007   4.038
   42        1.270   2.762   0.007   4.038
   43        1.283   2.729   0.008   4.020
   44        1.283   2.729   0.008   4.020
   45        1.284   2.728   0.008   4.020
   46        1.284   2.728   0.008   4.020
   47        1.265   2.781   0.006   4.052
   48        1.265   2.781   0.006   4.052
   49        1.264   2.786   0.006   4.056
   50        1.264   2.786   0.006   4.056
   51        1.270   2.767   0.007   4.044
   52        1.270   2.767   0.007   4.044
   53        1.269   2.766   0.007   4.042
   54        1.269   2.766   0.007   4.042
tot          57.78   95.99  126.26  280.03

magnetization (x)

# of ion       s       p       d       tot
    1        0.004   0.010  -0.000   0.013
    2        0.004   0.010  -0.000   0.013
    3        0.000   0.000   0.000   0.000
    4        0.000   0.000   0.000   0.000
    5       -0.001   0.007   0.000   0.006
    6       -0.001   0.007   0.000   0.006
    7        0.000  -0.000   0.059   0.059
    8       -0.000   0.000  -0.017  -0.017
    9       -0.000   0.000  -0.017  -0.017
   10       -0.000   0.000  -0.014  -0.014
   11       -0.000   0.000  -0.014  -0.014
   12        0.003  -0.000   0.460   0.463
   13       -0.000  -0.000   0.395   0.395
   14       -0.000  -0.000   0.316   0.315
   15        0.001   0.000   0.244   0.245
   16       -0.000  -0.000   0.008   0.008
   17       -0.000  -0.000   0.008   0.008
   18       -0.000  -0.000   0.004   0.004
   19       -0.000  -0.000   0.004   0.004
   20       -0.002  -0.000  -0.307  -0.308
   21       -0.000  -0.000  -0.174  -0.175
   22        0.000  -0.000   0.517   0.517
   23        0.003   0.019   0.000   0.022
   24        0.003   0.019   0.000   0.022
   25        0.001   0.008   0.000   0.010
   26        0.001   0.008   0.000   0.010
   27        0.003   0.012   0.000   0.015
   28        0.003   0.012   0.000   0.015
   29        0.003   0.014   0.000   0.018
   30        0.003   0.014   0.000   0.018
   31        0.001   0.009   0.000   0.010
   32        0.001   0.009   0.000   0.010
   33        0.001   0.009   0.000   0.010
   34        0.001   0.009   0.000   0.010
   35       -0.003  -0.026  -0.000  -0.029
   36       -0.003  -0.026  -0.000  -0.029
   37        0.000  -0.006   0.000  -0.006
   38        0.000  -0.006   0.000  -0.006
   39       -0.002  -0.031  -0.000  -0.033
   40       -0.002  -0.031  -0.000  -0.033
   41        0.000  -0.001   0.000  -0.001
   42        0.000  -0.001   0.000  -0.001
   43       -0.000   0.000   0.000   0.000
   44       -0.000   0.000   0.000   0.000
   45       -0.000  -0.001   0.000  -0.001
   46       -0.000  -0.001   0.000  -0.001
   47        0.007   0.029   0.000   0.036
   48        0.007   0.029   0.000   0.036
   49        0.007   0.032   0.000   0.040
   50        0.007   0.032   0.000   0.040
   51        0.003   0.037   0.000   0.040
   52        0.003   0.037   0.000   0.040
   53        0.005   0.045   0.000   0.049
   54        0.005   0.045   0.000   0.049
tot           0.07    0.33    1.47    1.87