 vasp.5.4.4.18Apr17-6-g9f103f2a35 (build May 12 2020 05:39:39) gamma-only

 MD_VERSION_INFO: Compiled 2020-05-12T12:39:39-UTC in devlin.sd.materialsdesign.
 com:/home/medea2/data/build/wwolf/vasp-gpu5.4.4/13047/x86_64/src/src/build/gam
 from svn 13047

 executed on                        Lin64 date 2023.03.07  01:01:19

 INCAR:
 POTCAR:    PAW_PBE Li_sv 10Sep2004
 POTCAR:    PAW_PBE Ni 02Aug2007
 POTCAR:    PAW_PBE O 08Apr2002

 POTCAR:    PAW_PBE Li_sv 10Sep2004

 POTCAR:    PAW_PBE Ni 02Aug2007

 POTCAR:    PAW_PBE O 08Apr2002

 Optimization of the real space projectors (new method)

 maximal supplied QI-value         = 22.11
 optimisation between [QCUT,QGAM] = [ 11.28, 22.77] = [ 35.61,145.23] Ry
 Optimized for a Real-space Cutoff    1.10 Angstroem

   l    n(q)    QCUT    max X(q) W(low)/X(q) W(high)/X(q)  e(spline)
   0      7    11.276    10.506    0.54E-04    0.58E-04    0.16E-07
   0      7    11.276     8.367    0.11E-03    0.14E-03    0.35E-07
   1      7    11.276     8.983    0.23E-03    0.43E-03    0.86E-07
 Optimization of the real space projectors (new method)

[...]

   l    n(q)    QCUT    max X(q) W(low)/X(q) W(high)/X(q)  e(spline)
   2      9    11.376    60.317    0.17E-03    0.16E-04    0.16E-06
   2      9    11.376    55.921    0.17E-03    0.16E-04    0.17E-06
   0     10    11.376    51.690    0.45E-04    0.60E-04    0.21E-06
   0     10    11.376    30.015    0.37E-04    0.55E-04    0.19E-06
   1     10    11.376    18.849    0.83E-04    0.11E-03    0.92E-07
   1     10    11.376    14.624    0.69E-04    0.92E-04    0.82E-07
 Optimization of the real space projectors (new method)

 maximal supplied QI-value         = 24.76
 optimisation between [QCUT,QGAM] = [ 11.39, 22.77] = [ 36.31,145.25] Ry
 Optimized for a Real-space Cutoff    1.10 Angstroem

   l    n(q)    QCUT    max X(q) W(low)/X(q) W(high)/X(q)  e(spline)
   0      7    11.387    20.381    0.22E-03    0.48E-03    0.18E-06
   0      7    11.387    15.268    0.22E-03    0.52E-03    0.19E-06
   1      7    11.387     5.964    0.22E-03    0.73E-03    0.24E-06
   1      7    11.387     5.382    0.19E-03    0.60E-03    0.21E-06

  PAW_PBE Li_sv 10Sep2004               :
  PAW_PBE Ni 02Aug2007                  :
  PAW_PBE O 08Apr2002                   :

 POSCAR: ce16697_1
  positions in direct lattice
 exchange correlation table for  LEXCH =       14
   RHO(1)=    0.500       N(1)  =     2000
   RHO(2)=  100.500       N(2)  =     4000

 ion  position               nearest neighbor table
   1  0.250  0.251  0.465-  46 1.92  28 2.05  40 2.06  11 2.69  23 2.84
   2  0.514  0.754  0.727-  48 2.02  41 2.04  47 2.12  36 2.15  35 2.25  23 2.77  13 2.83
   3  0.998  0.251  0.737-  50 2.06  26 2.06  53 2.08  33 2.16  30 2.19  44 2.22  16 2.78
   4  0.996  0.750  0.269-  27 2.02  52 2.06  51 2.10  32 2.21  31 2.23  45 2.24  16 2.79
   5  0.250  0.246  0.029-  34 1.98  42 2.05  54 2.05  56 2.21  44 2.22  20 2.70  15 2.84
   6  0.229  0.750  0.986-  43 2.04  35 2.04  45 2.13  55 2.18  31 2.21  10 2.77  19 2.80
   7  0.750  0.246  0.032-  37 1.96  54 2.05  42 2.05  44 2.23  56 2.23  21 2.70  15 2.83  10 2.84

   8  0.502  0.250  0.739-  38 2.05  50 2.06  53 2.07  33 2.16  30 2.18  56 2.19  17 2.79
   9  0.503  0.750  0.266-  39 2.03  52 2.08  51 2.11  32 2.21  57 2.21  31 2.22  17 2.80
  10  0.999  0.993  0.997-  37 1.85  34 1.85  36 1.85  35 1.86  45 2.03  44 2.06   6 2.77  15 2.77
                            15 2.79  13 2.82  12 2.83   7 2.84  14 2.84  11 2.86
  11  0.251  1.000  0.252-  28 1.84  40 1.84  45 1.85  57 1.85  51 1.97  34 1.97   1 2.69  14 2.78
                            14 2.78  17 2.82  16 2.82  15 2.85  10 2.86
  12  0.249  0.006  0.753-  29 1.84  41 1.85  44 1.86  56 1.87  35 2.03  50 2.06  13 2.77  13 2.79
                            10 2.83  16 2.83  17 2.84  15 2.85
  13  0.751  0.006  0.753-  29 1.85  41 1.86  44 1.86  56 1.87  36 1.92  53 1.96  12 2.77  12 2.79
                            10 2.82   2 2.83  16 2.84  17 2.84  15 2.84
  14  0.751  0.000  0.251-  28 1.86  57 1.86  40 1.86  45 1.87  52 1.94  37 1.95  11 2.78  11 2.78
                            15 2.83  16 2.83  17 2.84  10 2.84
  15  0.501  0.996  1.000-  35 1.84  36 1.84  37 1.84  34 1.85  57 2.04  56 2.07  10 2.77  10 2.79
                             7 2.83  14 2.83   5 2.84  13 2.84  12 2.85  11 2.85
  16  0.000  0.002  0.501-  51 1.87  53 1.87  52 1.88  50 1.89  29 1.91  28 1.94  17 2.78  17 2.78
                             3 2.78   4 2.79  11 2.82  14 2.83  12 2.83  13 2.84
  17  0.500  0.001  0.501-  51 1.87  53 1.87  52 1.89  50 1.90  40 1.93  41 1.94  16 2.78  16 2.78
                             8 2.79   9 2.80  11 2.82  14 2.84  13 2.84  12 2.84
  18  0.000  0.506  0.503-  49 1.84  46 1.85  48 1.86  47 1.86  27 2.00  26 2.02  23 2.77  23 2.79
                            19 2.82  22 2.83  21 2.85  20 2.85
  19  0.250  0.500  0.749-  55 1.84  26 1.84  38 1.85  43 1.85  47 1.96  30 2.05  22 2.78  22 2.78
                             6 2.80  18 2.82  25 2.84  24 2.84  23 2.84
  20  0.250  0.495  0.248-  39 1.84  27 1.85  54 1.86  42 1.86  46 1.98  31 2.07   5 2.70  21 2.78
                            21 2.78  24 2.84  25 2.84  23 2.84  18 2.85
  21  0.751  0.496  0.248-  39 1.84  27 1.84  54 1.87  42 1.87  49 1.93  32 1.97   7 2.70  20 2.78
                            20 2.78  24 2.83  25 2.84  23 2.84  18 2.85
  22  0.750  0.500  0.750-  43 1.86  38 1.86  26 1.86  55 1.86  48 1.94  33 2.00  19 2.78  19 2.78
                            23 2.83  18 2.83  24 2.83  25 2.83
  23  0.502  0.501  0.500-  49 1.84  47 1.84  48 1.84  46 1.85  39 2.02  38 2.03   2 2.77  18 2.77
                            18 2.79  22 2.83   1 2.84  21 2.84  19 2.84  20 2.84
  24  0.999  0.499  0.999-  32 1.86  30 1.87  31 1.87  33 1.88  43 1.93  42 1.95  25 2.78  25 2.79
                            22 2.83  21 2.83  20 2.84  19 2.84
  25  0.500  0.500  0.999-  32 1.86  30 1.87  31 1.87  33 1.88  54 1.97  55 1.98  24 2.78  24 2.79
                            22 2.83  19 2.84  21 2.84  20 2.84
  26  0.002  0.398  0.639-  19 1.84  22 1.86  18 2.02   3 2.06
  27  0.001  0.599  0.356-  21 1.84  20 1.85  18 2.00   4 2.02
  28  0.003  0.099  0.365-  11 1.84  14 1.86  16 1.94   1 2.05
  29  0.001  0.909  0.638-  12 1.84  13 1.85  16 1.91
  30  0.250  0.392  0.889-  24 1.87  25 1.87  19 2.05   8 2.18   3 2.19
  31  0.249  0.607  0.110-  25 1.87  24 1.87  20 2.07   6 2.21   9 2.22   4 2.23
  32  0.750  0.600  0.115-  25 1.86  24 1.86  21 1.97   9 2.21   4 2.21
  33  0.749  0.394  0.884-  24 1.88  25 1.88  22 2.00   8 2.16   3 2.16
  34  0.248  0.095  0.110-  15 1.85  10 1.85  11 1.97   5 1.98
  35  0.255  0.894  0.887-  15 1.84  10 1.86  12 2.03   6 2.04   2 2.25
  36  0.746  0.901  0.880-  15 1.84  10 1.85  13 1.92   2 2.15
  37  0.752  0.095  0.110-  15 1.84  10 1.85  14 1.95   7 1.96
  38  0.499  0.396  0.640-  19 1.85  22 1.86  23 2.03   8 2.05
  39  0.500  0.599  0.355-  21 1.84  20 1.84  23 2.02   9 2.03
  40  0.499  0.099  0.365-  11 1.84  14 1.86  17 1.93   1 2.06
  41  0.500  0.907  0.640-  12 1.85  13 1.86  17 1.94   2 2.04
  42  0.001  0.395  0.131-  20 1.86  21 1.87  24 1.95   5 2.05   7 2.05
  43  0.002  0.598  0.865-  19 1.85  22 1.86  24 1.93   6 2.04
  44  0.000  0.110  0.865-  13 1.86  12 1.86  10 2.06   5 2.22   3 2.22   7 2.23
  45  0.003  0.894  0.143-  11 1.85  14 1.87  10 2.03   6 2.13   4 2.24
  46  0.248  0.402  0.392-  23 1.85  18 1.85   1 1.92  20 1.98
  47  0.257  0.602  0.614-  23 1.84  18 1.86  19 1.96   2 2.12
  48  0.746  0.601  0.617-  23 1.84  18 1.86  22 1.94   2 2.02
  49  0.754  0.405  0.389-  23 1.84  18 1.84  21 1.93
  50  0.249  0.114  0.612-  16 1.89  17 1.90   3 2.06   8 2.06  12 2.06
  51  0.250  0.898  0.388-  17 1.87  16 1.87  11 1.97   4 2.10   9 2.11
  52  0.751  0.898  0.383-  16 1.88  17 1.89  14 1.94   4 2.06   9 2.08
  53  0.750  0.105  0.616-  16 1.87  17 1.87  13 1.96   8 2.07   3 2.08
  54  0.500  0.395  0.132-  20 1.86  21 1.87  25 1.97   7 2.05   5 2.05
  55  0.497  0.601  0.862-  19 1.84  22 1.86  25 1.98   6 2.18
  56  0.499  0.111  0.865-  12 1.87  13 1.87  15 2.07   8 2.19   5 2.21   7 2.23
  57  0.499  0.894  0.144-  11 1.85  14 1.86  15 2.04   9 2.21

  LATTYP: Found a triclinic cell.
 ALAT       =    11.3506236351
 B/A-ratio  =     0.4900111035
 C/A-ratio  =     1.0108677911
 COS(alpha) =     0.0001538451
 COS(beta)  =     0.4781716049
 COS(gamma) =     0.4910870947

  Lattice vectors:

 A1 = (  -9.8909471117,   5.5681865753,  -0.0334724099)
 A2 = (  -0.0033572747,   5.5619303082,   0.0017989858)
 A3 = (  -6.2630665870,   0.0010942891,  -9.6138550609)

Analysis of symmetry for initial positions (statically):
 Subroutine PRICEL returns:
 Original cell was already a primitive cell.

 Routine SETGRP: Setting up the symmetry group for a
 triclinic supercell.

 Subroutine GETGRP returns: Found  1 space group operations
 (whereof  1 operations were pure point group operations)
 out of a pool of  2 trial point group operations.

The static configuration has the point symmetry C_1 .

Analysis of symmetry for dynamics (positions and initial velocities):
 Subroutine PRICEL returns:
 Original cell was already a primitive cell.

[...]

The dynamic configuration has the point symmetry C_1 .

Analysis of structural, dynamic, and magnetic symmetry:
 Subroutine PRICEL returns:
 Original cell was already a primitive cell.

 Routine SETGRP: Setting up the symmetry group for a
 triclinic supercell.

 Subroutine GETGRP returns: Found  1 space group operations
 (whereof  1 operations were pure point group operations)
 out of a pool of  2 trial point group operations.

The magnetic configuration has the point symmetry C_1 .

 Subroutine INISYM returns: Found  1 space group operations
 (whereof  1 operations are pure point group operations),
 and found     1 'primitive' translations

 KPOINTS: Automatic mesh

Automatic generation of k-mesh.
Space group operators:
 irot       det(A)        alpha          n_x          n_y          n_z        tau_x        tau_y        tau_z
    1     1.000000     0.000000     1.000000     0.000000     0.000000     0.000000     0.000000     0.000000

 Subroutine IBZKPT returns following result:

 Found      1 irreducible k-points:

 Following reciprocal coordinates:
            Coordinates               Weight
  0.000000  0.000000  0.000000      1.000000

 Following cartesian coordinates:
            Coordinates               Weight
  0.000000  0.000000  0.000000      1.000000

 SYSTEM =  unknown system
 POSCAR =  ce16697_1

 Startparameter for this run:
   NWRITE =      1    write-flag & timer
   PREC   = accura    normal or accurate (medium, high low for compatibility)
   ISTART =      0    job   : 0-new  1-cont  2-samecut
   ICHARG =      2    charge: 1-file 2-atom 10-const
   ISPIN  =      2    spin polarized calculation?
   LNONCOLLINEAR =      F non collinear calculations
   LSORBIT =      F    spin-orbit coupling
   INIWAV =      1    electr: 0-lowe 1-rand  2-diag
   LASPH  =      F    aspherical Exc in radial PAW
   METAGGA=      F    non-selfconsistent MetaGGA calc.

 Electronic Relaxation 1
   ENCUT  =  500.0 eV  36.75 Ry    6.06 a.u.  10.14 18.67 18.03*2*pi/ulx,y,z
[...]
   -.242E+01 -.126E+02 0.807E+02   0.237E+01 0.126E+02 -.819E+02   -.424E-01 -.755E-01 0.120E+01   0.843E-01 0.105E-01 0.444E-02
   0.351E+02 -.996E+00 -.662E+02   -.356E+02 0.922E+00 0.672E+02   0.528E+00 0.580E-01 -.104E+01   -.767E-01 0.121E-01 -.129E-02
   -.306E+02 -.133E+02 0.346E+02   0.311E+02 0.133E+02 -.352E+02   -.581E+00 -.483E-01 0.618E+00   0.349E-01 0.692E-02 -.103E-01
   -.709E+01 0.145E+02 0.493E+02   0.744E+01 -.146E+02 -.497E+02   -.305E+00 0.839E-01 0.376E+00   -.394E-01 -.252E-02 0.752E-02
   -.115E+02 -.139E+02 0.533E+02   0.118E+02 0.140E+02 -.536E+02   -.189E+00 -.128E+00 0.265E+00   -.356E-01 0.518E-02 0.489E-02
   0.159E+02 0.128E+02 -.751E+02   -.165E+02 -.128E+02 0.757E+02   0.488E+00 0.579E-02 -.635E+00   0.574E-01 0.417E-02 -.142E-02
   0.473E+02 0.125E+02 -.527E+02   -.481E+02 -.126E+02 0.535E+02   0.865E+00 0.110E+00 -.789E+00   -.136E-02 -.478E-02 0.138E-01
   -.682E+02 -.624E+00 0.202E+02   0.696E+02 0.680E+00 -.204E+02   -.142E+01 -.509E-01 0.208E+00   -.647E-02 -.436E-02 -.105E-01
   -.728E+02 0.528E+00 0.264E+02   0.739E+02 -.599E+00 -.266E+02   -.112E+01 0.685E-01 0.248E+00   -.163E-02 0.298E-02 -.115E-01
   0.457E+02 -.122E+02 -.632E+02   -.463E+02 0.124E+02 0.643E+02   0.554E+00 -.160E+00 -.109E+01   0.650E-02 0.277E-02 0.121E-01
   0.396E+02 -.139E+02 -.138E+02   -.403E+02 0.139E+02 0.137E+02   0.664E+00 -.230E-01 0.132E+00   0.587E-01 -.308E-02 0.155E-02
   -.719E+01 0.145E+02 -.436E+02   0.707E+01 -.145E+02 0.441E+02   0.169E+00 0.286E-01 -.522E+00   -.622E-01 -.646E-03 -.108E-02
   -.210E+01 -.137E+02 -.532E+02   0.215E+01 0.137E+02 0.537E+02   0.589E-02 -.866E-02 -.497E+00   -.606E-01 -.137E-02 -.193E-02
   0.820E+02 0.278E+02 0.309E+03   -.874E+02 -.296E+02 -.326E+03   0.545E+01 0.175E+01 0.171E+02   0.397E-01 0.171E-01 0.709E-01
   -.774E+02 -.333E+01 -.352E+03   0.826E+02 0.391E+01 0.371E+03   -.529E+01 -.558E+00 -.195E+02   -.114E-02 -.194E-01 -.217E-01
   0.279E+02 0.368E+02 -.365E+03   -.279E+02 -.396E+02 0.386E+03   0.492E-01 0.275E+01 -.209E+02   -.617E-01 0.561E-02 0.180E-01
   0.414E+01 -.237E+01 0.413E+03   -.488E+01 0.242E+01 -.438E+03   0.711E+00 -.325E-01 0.256E+02   0.376E-01 -.197E-01 -.494E-01
   0.446E+01 -.171E+01 0.294E+03   -.524E+01 0.192E+01 -.309E+03   0.716E+00 -.195E+00 0.142E+02   -.539E-01 -.836E-02 0.464E-01
   -.293E+02 -.176E+01 -.323E+03   0.318E+02 0.187E+01 0.336E+03   -.243E+01 -.993E-01 -.134E+02   -.304E-01 -.810E-02 -.120E-01
   0.507E+01 0.107E+01 -.342E+03   -.609E+01 -.103E+01 0.359E+03   0.109E+01 -.401E-01 -.171E+02   -.804E-02 0.820E-02 -.162E-01
   0.791E+01 0.149E+01 0.288E+03   -.816E+01 -.174E+01 -.302E+03   0.300E+00 0.243E+00 0.138E+02   -.362E-01 0.788E-02 0.422E-01
   -.544E+02 0.195E+01 -.340E+03   0.591E+02 -.223E+01 0.359E+03   -.467E+01 0.282E+00 -.185E+02   0.169E-01 0.187E-03 -.672E-03
   0.570E+02 0.242E+02 0.346E+03   -.630E+02 -.257E+02 -.363E+03   0.591E+01 0.157E+01 0.172E+02   0.366E-01 0.122E-02 -.373E-01
   0.114E+02 -.272E+02 0.372E+03   -.125E+02 0.291E+02 -.393E+03   0.101E+01 -.183E+01 0.213E+02   0.225E-01 -.218E-03 -.244E-01
   -.670E+02 -.211E+01 -.335E+03   0.720E+02 0.242E+01 0.354E+03   -.497E+01 -.308E+00 -.192E+02   0.840E-02 -.518E-03 0.267E-02
   0.782E+02 -.264E+02 0.318E+03   -.832E+02 0.279E+02 -.335E+03   0.497E+01 -.151E+01 0.174E+02   0.359E-01 -.172E-01 0.756E-01
   -.739E+02 0.333E+01 -.349E+03   0.796E+02 -.379E+01 0.369E+03   -.569E+01 0.450E+00 -.197E+02   0.199E-02 0.192E-01 -.248E-01
   0.241E+02 -.370E+02 -.366E+03   -.234E+02 0.401E+02 0.387E+03   -.600E+00 -.306E+01 -.206E+02   -.848E-01 -.597E-02 0.343E-01
   0.376E+02 0.383E+01 0.384E+03   -.421E+02 -.412E+01 -.404E+03   0.439E+01 0.268E+00 0.200E+02   0.618E-01 0.189E-01 -.622E-01
   -.454E+02 -.221E+00 0.319E+03   0.451E+02 0.293E+00 -.335E+03   0.274E+00 -.514E-01 0.155E+02   -.630E-02 -.186E-01 0.655E-02
   0.205E+02 0.349E+02 -.370E+03   -.200E+02 -.375E+02 0.390E+03   -.454E+00 0.262E+01 -.203E+02   -.361E-01 0.161E-01 -.519E-01
   -.448E+02 -.285E+01 -.280E+03   0.480E+02 0.303E+01 0.295E+03   -.321E+01 -.151E+00 -.149E+02   0.343E-01 -.196E-01 0.350E-01
   0.410E+02 0.341E+02 0.321E+03   -.441E+02 -.363E+02 -.338E+03   0.308E+01 0.225E+01 0.170E+02   -.129E-01 0.692E-02 -.385E-03
   0.381E+02 0.261E+01 0.332E+03   -.433E+02 -.316E+01 -.351E+03   0.519E+01 0.549E+00 0.183E+02   0.181E-01 0.305E-03 0.311E-02
   0.257E+02 0.306E+02 -.371E+03   -.250E+02 -.329E+02 0.392E+03   -.726E+00 0.233E+01 -.207E+02   0.725E-01 0.595E-04 -.416E-01
   0.188E+02 -.323E+02 -.362E+03   -.183E+02 0.349E+02 0.383E+03   -.626E+00 -.260E+01 -.207E+02   0.526E-01 -.828E-03 -.304E-01
   -.461E+01 -.265E+01 0.367E+03   0.453E+01 0.322E+01 -.392E+03   0.454E-01 -.562E+00 0.251E+02   -.592E-02 -.437E-03 0.942E-02
   0.689E+01 -.431E+01 -.283E+03   -.565E+01 0.509E+01 0.295E+03   -.125E+01 -.754E+00 -.126E+02   0.125E-01 -.245E-01 0.927E-01
   -.434E+02 -.107E+01 0.343E+03   0.452E+02 0.114E+01 -.359E+03   -.171E+01 -.429E-01 0.160E+02   -.730E-01 -.276E-01 -.585E-01
   -.341E+02 0.232E+01 0.334E+03   0.354E+02 -.293E+01 -.349E+03   -.123E+01 0.581E+00 0.147E+02   -.655E-01 0.270E-01 -.551E-01
   0.407E+02 0.263E+01 -.295E+03   -.428E+02 -.317E+01 0.310E+03   0.206E+01 0.515E+00 -.151E+02   0.352E-01 0.260E-01 0.824E-01
   -.425E+02 0.157E+00 0.318E+03   0.416E+02 -.264E+00 -.333E+03   0.884E+00 0.889E-01 0.150E+02   0.919E-03 0.180E-01 0.257E-02
   -.805E+01 -.331E+02 -.362E+03   0.112E+02 0.355E+02 0.381E+03   -.310E+01 -.247E+01 -.188E+02   -.414E-01 -.164E-01 -.489E-01
   -.433E+02 0.267E+01 -.283E+03   0.465E+02 -.265E+01 0.298E+03   -.319E+01 -.428E-01 -.143E+02   0.384E-01 0.196E-01 0.346E-01
   0.440E+02 -.308E+02 0.325E+03   -.483E+02 0.326E+02 -.343E+03   0.432E+01 -.185E+01 0.179E+02   -.208E-01 -.580E-02 -.110E-02
   -.161E+01 -.247E+00 0.228E-01   -.568E-13 0.568E-13 -.568E-13   0.166E+01 0.250E+00 -.932E-01   -.323E-01 -.412E-02 0.633E-01

 POSITION                                       TOTAL-FORCE (eV/Angst)
      3.67645      1.38301      2.41872        -0.006774     -0.009451     -0.013338
      4.42728      2.86306      7.25976        -0.007871      0.006474      0.008173
      6.37600      5.54490      2.45125         0.011058     -0.009770      0.008392
     -0.07994      5.55902      7.20278        -0.011761      0.001737      0.000019
     -0.59810      1.39789      2.36141         0.036729      0.005274     -0.016817
      7.01420      1.27020      7.22072        -0.003750      0.002315      0.000061
     -0.57082      4.17654      2.36132         0.017314      0.001589     -0.003583
      6.39817      2.79083      2.44035         0.016473      0.002831      0.004095
     -0.11296      2.80546      7.20097        -0.021873      0.008258     -0.002144
      6.23756      5.56102      9.56400         0.008670     -0.000547     -0.005375
     -1.14232      1.40145      9.59522         0.001410     -0.004627     -0.014846
      7.40737      1.38061      0.08061        -0.000203      0.002036      0.001389
      7.40419      4.17410      0.08375        -0.002521     -0.001603      0.007504
      2.47271      4.17701      0.00806         0.003701     -0.003531     -0.000108
      6.25191      2.78858      9.58678         0.007035      0.002641     -0.005006
      4.94065     -0.00458      0.03820         0.001218     -0.001477      0.005200
      4.93770      2.77923      0.03018         0.003809      0.002100      0.002888
      3.11748      0.00009      4.87274        -0.007617     -0.004555     -0.001087
      5.58049      1.39050      4.82222        -0.000751      0.000640      0.001673
      0.64803      1.39668      4.76783        -0.007422      0.000404     -0.001743
      0.65160      4.18074      4.77388        -0.005703      0.000283      0.008547
      5.57601      4.17449      4.82951         0.000572      0.000312      0.011952
      3.11069      2.79409      4.82756        -0.003185      0.003654     -0.004754
      8.04594      5.55875      4.82494        -0.006200     -0.002030      0.010972
      8.04365      2.78237      4.83475        -0.005604      0.002982      0.010683
      4.85367      0.01394      3.84358         0.012198     -0.002036     -0.010375
      1.34661      0.00690      5.76479        -0.014635      0.002757      0.011321
      3.24887      0.01180      0.95051        -0.005782     -0.005070     -0.003817
      2.99838      0.00956      8.75609         0.002952     -0.000831      0.005619
      7.30960      1.38819      3.80181        -0.117865      0.003158      0.029079
     -1.10704      1.39225      5.83790         0.007773      0.003803     -0.001260
     -1.02045      4.17982      5.76545         0.055851      0.003395      0.017158
      7.28109      4.16933      3.81185         0.013317      0.001354      0.004571
      0.76159      1.37955      0.90196         0.032022      0.001307     -0.019231
      5.51138      1.41922      8.61038        -0.006312      0.001313     -0.006344
      5.40894      4.15147      8.67530        -0.011615     -0.001203     -0.006490
      0.74660      4.18366      0.90515        -0.006730     -0.001058     -0.010029
      4.86597      2.77503      3.83010         0.000278     -0.000999      0.005411
      1.34293      2.78559      5.76303         0.001504      0.001627      0.000027
      3.23569      2.77211      0.95621        -0.012042     -0.006866      0.002155
      3.03453      2.78167      8.73124         0.015476      0.002940      0.001566
     -0.13490      0.00934      3.80219         0.005787      0.002313     -0.001660
      6.35804      0.00776      5.76594        -0.029645      0.006441      0.005139
      8.15845     -0.00335      1.07460         0.007431      0.005026      0.017182
     -1.84279      0.02314      8.58578         0.005498     -0.004053     -0.029100
      2.40769      1.37981      3.87105        -0.011138      0.002043     -0.002075
      3.89685      1.42521      5.78670         0.082697     -0.004056     -0.024189
      3.89900      4.15479      5.78458        -0.021172     -0.004117      0.003981
      2.34428      4.19551      3.90469        -0.036864      0.000502     -0.000606
      5.61753      1.37860      1.10399        -0.000739      0.002745     -0.003978
      0.55431      1.39329      8.63335        -0.037859     -0.007788     -0.007560
      0.53936      4.18894      8.64601         0.031254     -0.005251     -0.009119
      5.71068      4.16935      1.03735         0.024282      0.008085      0.025573
     -0.12457      2.78617      3.79841         0.007553     -0.000156     -0.007775
      6.31122      2.76548      5.80297        -0.026472     -0.006919      0.011062
      8.14049      2.77276      1.09035         0.007235     -0.005037      0.013005
     -1.83016      2.78511      8.58890         0.009008      0.000692     -0.021989
    total drift:                                0.012032     -0.000619     -0.007199

  FREE ENERGIE OF THE ION-ELECTRON SYSTEM (eV)
  free  energy   TOTEN  =      -349.5890740262 eV

  energy  without entropy=     -349.5634095826  energy(sigma->0) =     -349.57624180

 d Force = 0.3759922E-03[ 0.208E-03, 0.544E-03]  d Energy = 0.1953940E-03 0.181E-03
 d Force = 0.1011849E+01[ 0.101E+01, 0.101E+01]  d Ewald  = 0.1837750E+01-0.826E+00

 Quasi-Newton relaxation of ions (Broydens 2nd method)
  g(Force)  = 0.212E-02   g(Stress)= 0.162E-02

 retain information from N=  3 steps
 eigenvalues of (default step * inverse Hessian matrix)
  average eigenvalue of G=   4.4141
 eigenvalue spectrum of G is  0.2328  6.5047  6.5047

volume of typ            1:    13.3 %

[...]

volume of typ            3:     9.9 %

total charge

# of ion       s       p       d       tot
    1        2.075   0.233   0.088   2.395
    2        2.068   0.216   0.080   2.364
    3        2.076   0.245   0.089   2.410
    4        2.072   0.234   0.083   2.390
    5        2.078   0.234   0.089   2.401
    6        2.071   0.222   0.083   2.376
    7        2.078   0.241   0.090   2.408
    8        2.079   0.243   0.090   2.412
    9        2.072   0.225   0.082   2.379
   10        0.275   0.372   7.860   8.507
   11        0.292   0.410   7.854   8.556
   12        0.275   0.370   7.866   8.512
   13        0.288   0.399   7.854   8.541
   14        0.280   0.386   7.838   8.504
   15        0.281   0.382   7.867   8.530
   16        0.282   0.390   7.850   8.522
   17        0.273   0.371   7.855   8.500
   18        0.277   0.378   7.842   8.497
   19        0.291   0.405   7.860   8.556
   20        0.278   0.377   7.860   8.515
   21        0.290   0.403   7.848   8.542
   22        0.281   0.386   7.845   8.513
   23        0.283   0.389   7.853   8.524
   24        0.275   0.376   7.861   8.512
   25        0.269   0.363   7.863   8.495
   26        1.266   2.773   0.007   4.046
   27        1.271   2.759   0.007   4.037
   28        1.270   2.765   0.008   4.042
   29        1.281   2.732   0.008   4.021
   30        1.261   2.783   0.006   4.050
   31        1.262   2.781   0.006   4.048
   32        1.265   2.774   0.007   4.046
   33        1.262   2.785   0.006   4.052
   34        1.266   2.774   0.007   4.047
   35        1.263   2.779   0.007   4.048
   36        1.269   2.762   0.008   4.039
   37        1.266   2.777   0.008   4.051
   38        1.266   2.772   0.007   4.045
   39        1.271   2.757   0.007   4.036
   40        1.270   2.763   0.007   4.041
   41        1.270   2.765   0.007   4.043
   42        1.258   2.796   0.007   4.060
   43        1.269   2.766   0.007   4.043
   44        1.259   2.787   0.006   4.052
   45        1.267   2.769   0.007   4.042
   46        1.267   2.776   0.007   4.050
   47        1.271   2.758   0.007   4.036
   48        1.268   2.767   0.008   4.043
   49        1.280   2.735   0.008   4.023
   50        1.261   2.786   0.006   4.053
   51        1.265   2.778   0.006   4.049
   52        1.265   2.780   0.006   4.051
   53        1.263   2.783   0.006   4.053
   54        1.258   2.795   0.006   4.059
   55        1.267   2.768   0.007   4.042
   56        1.259   2.786   0.006   4.051
   57        1.268   2.764   0.007   4.039
tot          63.68   96.95  126.67  287.30

magnetization (x)

# of ion       s       p       d       tot
    1        0.004   0.008   0.001   0.012
    2        0.004   0.005  -0.000   0.009
    3        0.005   0.016  -0.000   0.021
    4        0.005   0.014  -0.000   0.019
    5       -0.002   0.000   0.000  -0.002
    6        0.004   0.008   0.000   0.012
    7        0.003   0.005  -0.000   0.008
    8        0.001   0.007  -0.000   0.008
    9        0.001   0.006  -0.000   0.007
   10        0.003  -0.000   0.463   0.466
   11       -0.001   0.000  -0.265  -0.266
   12        0.003   0.000   0.495   0.498
   13       -0.000  -0.000  -0.125  -0.125
   14        0.000   0.000   0.213   0.213
   15       -0.005  -0.001  -0.514  -0.520
   16       -0.000  -0.001   0.034   0.032
   17        0.000  -0.001   0.517   0.516
   18        0.002   0.000   0.412   0.414
   19        0.000   0.000   0.216   0.216
   20        0.002   0.000   0.476   0.478
   21       -0.001   0.000   0.058   0.058
   22       -0.000   0.000   0.211   0.211
   23        0.003   0.000   0.438   0.441
   24       -0.000  -0.000   0.426   0.425
   25        0.000  -0.000   0.572   0.572
   26        0.006   0.037   0.000   0.043
   27        0.006   0.048   0.000   0.054
   28       -0.001  -0.014  -0.000  -0.016
   29       -0.001  -0.006  -0.000  -0.007
   30        0.008   0.036   0.000   0.044
   31        0.011   0.069   0.000   0.080
   32        0.006   0.021   0.000   0.027
   33        0.009   0.033   0.000   0.042
   34       -0.003  -0.024  -0.000  -0.027
   35        0.005   0.056   0.000   0.061
   36       -0.001  -0.019  -0.000  -0.021
   37        0.002   0.015   0.000   0.017
   38        0.006   0.042   0.000   0.048
   39        0.006   0.051   0.000   0.057
   40        0.003   0.030   0.000   0.033
   41        0.004   0.027   0.000   0.031
   42        0.003   0.022   0.000   0.026
   43        0.004   0.028   0.000   0.032
   44        0.005   0.050   0.000   0.055
   45        0.004   0.049   0.000   0.054
   46        0.007   0.072   0.000   0.080
   47        0.004   0.040   0.000   0.044
   48        0.004   0.031   0.000   0.035
   49        0.002   0.014   0.000   0.015
   50        0.010   0.077   0.000   0.087
   51        0.001  -0.008  -0.000  -0.007
   52        0.009   0.054   0.000   0.063
   53        0.004   0.008  -0.000   0.012
   54        0.005   0.044   0.000   0.050
   55        0.005   0.040   0.000   0.045
   56       -0.005  -0.051  -0.000  -0.057
   57       -0.006  -0.067  -0.000  -0.073
tot           0.15    0.87    3.63    4.65