 vasp.5.4.4.18Apr17-6-g9f103f2a35 (build May 12 2020 05:39:39) gamma-only

 MD_VERSION_INFO: Compiled 2020-05-12T12:39:39-UTC in devlin.sd.materialsdesign.
 com:/home/medea2/data/build/wwolf/vasp-gpu5.4.4/13047/x86_64/src/src/build/gam
 from svn 13047

 executed on                        Lin64 date 2023.03.07  01:01:19

 INCAR:
 POTCAR:    PAW_PBE Li_sv 10Sep2004
 POTCAR:    PAW_PBE Ni 02Aug2007
 POTCAR:    PAW_PBE O 08Apr2002

 POTCAR:    PAW_PBE Li_sv 10Sep2004

 POTCAR:    PAW_PBE Ni 02Aug2007

 POTCAR:    PAW_PBE O 08Apr2002

 Optimization of the real space projectors (new method)

 maximal supplied QI-value         = 22.11
 optimisation between [QCUT,QGAM] = [ 11.28, 22.77] = [ 35.61,145.23] Ry
 Optimized for a Real-space Cutoff    1.10 Angstroem

   l    n(q)    QCUT    max X(q) W(low)/X(q) W(high)/X(q)  e(spline)
   0      7    11.276    10.506    0.54E-04    0.58E-04    0.16E-07
   0      7    11.276     8.367    0.11E-03    0.14E-03    0.35E-07
   1      7    11.276     8.983    0.23E-03    0.43E-03    0.86E-07
 Optimization of the real space projectors (new method)

[...]

   l    n(q)    QCUT    max X(q) W(low)/X(q) W(high)/X(q)  e(spline)
   2      9    11.376    60.317    0.17E-03    0.16E-04    0.16E-06
   2      9    11.376    55.921    0.17E-03    0.16E-04    0.17E-06
   0     10    11.376    51.690    0.45E-04    0.60E-04    0.21E-06
   0     10    11.376    30.015    0.37E-04    0.55E-04    0.19E-06
   1     10    11.376    18.849    0.83E-04    0.11E-03    0.92E-07
   1     10    11.376    14.624    0.69E-04    0.92E-04    0.82E-07
 Optimization of the real space projectors (new method)

 maximal supplied QI-value         = 24.76
 optimisation between [QCUT,QGAM] = [ 11.39, 22.77] = [ 36.31,145.25] Ry
 Optimized for a Real-space Cutoff    1.10 Angstroem

   l    n(q)    QCUT    max X(q) W(low)/X(q) W(high)/X(q)  e(spline)
   0      7    11.387    20.381    0.22E-03    0.48E-03    0.18E-06
   0      7    11.387    15.268    0.22E-03    0.52E-03    0.19E-06
   1      7    11.387     5.964    0.22E-03    0.73E-03    0.24E-06
   1      7    11.387     5.382    0.19E-03    0.60E-03    0.21E-06

  PAW_PBE Li_sv 10Sep2004               :
  PAW_PBE Ni 02Aug2007                  :
  PAW_PBE O 08Apr2002                   :

 POSCAR: ce15401_1
  positions in direct lattice
 exchange correlation table for  LEXCH =       14
   RHO(1)=    0.500       N(1)  =     2000
   RHO(2)=  100.500       N(2)  =     4000

 ion  position               nearest neighbor table
   1  0.250  0.250  0.460-  47 1.95  29 2.05  41 2.06  12 2.71  19 2.81  24 2.82
   2  0.750  0.750  0.540-  49 1.95  30 2.05  42 2.06  14 2.71  19 2.81  24 2.82
   3  0.998  0.249  0.739-  27 2.05  54 2.06  51 2.08  34 2.17  31 2.17  45 2.20  17 2.78
   4  0.002  0.751  0.261-  28 2.05  52 2.06  53 2.08  32 2.17  33 2.17  46 2.20  17 2.78
   5  0.250  0.248  0.030-  35 1.98  55 2.06  43 2.06  57 2.22  45 2.22  21 2.74  16 2.82  11 2.82

   6  0.250  0.750  0.970-  36 1.97  56 2.07  44 2.07  58 2.24  46 2.25  20 2.70  11 2.84  16 2.84

[...]

   8  0.750  0.250  0.030-  38 1.97  55 2.07  43 2.07  57 2.24  45 2.25  22 2.70  11 2.84  16 2.84

   9  0.502  0.249  0.739-  39 2.04  54 2.06  51 2.09  34 2.17  31 2.17  57 2.21  18 2.78
  10  0.498  0.751  0.261-  40 2.04  52 2.06  53 2.09  32 2.17  33 2.17  58 2.21  18 2.78
  11  0.000  0.000  0.000-  36 1.84  38 1.84  37 1.85  35 1.85  45 2.05  46 2.05  16 2.78  16 2.78
                             5 2.82   7 2.82   8 2.84   6 2.84  12 2.84  14 2.84  13 2.84  15 2.84
  12  0.250  0.995  0.247-  29 1.85  41 1.85  46 1.87  58 1.87  52 1.98  35 1.98   1 2.71  15 2.78
                            15 2.79  11 2.84  16 2.84  17 2.86  18 2.86
  13  0.250  0.000  0.751-  42 1.86  30 1.86  45 1.87  57 1.87  36 1.99  51 2.06  14 2.78  14 2.79
                            16 2.84  11 2.84  18 2.86  17 2.86
  14  0.750  0.005  0.753-  30 1.85  42 1.85  45 1.87  57 1.87  54 1.98  37 1.98   2 2.71  13 2.78
                            13 2.79  11 2.84  16 2.84  17 2.86  18 2.86
  15  0.750  1.000  0.249-  41 1.86  29 1.86  46 1.87  58 1.87  38 1.99  53 2.06  12 2.78  12 2.79
                            16 2.84  11 2.84  18 2.86  17 2.86
  16  0.500  0.000  0.000-  36 1.84  38 1.84  37 1.85  35 1.85  57 2.05  58 2.05  11 2.78  11 2.78
                             5 2.82   7 2.82   8 2.84   6 2.84  15 2.84  13 2.84  12 2.84  14 2.84
  17  0.000  0.000  0.500-  51 1.87  53 1.87  52 1.89  54 1.89  29 1.94  30 1.94   3 2.78   4 2.78
                            18 2.78  18 2.78  13 2.86  15 2.86  14 2.86  12 2.86
  18  0.500  0.000  0.500-  51 1.87  53 1.87  52 1.89  54 1.89  41 1.93  42 1.93   9 2.78  10 2.78
                            17 2.78  17 2.78  13 2.86  15 2.86  14 2.86  12 2.86
  19  0.000  0.500  0.500-  47 1.84  49 1.84  48 1.85  50 1.85  27 2.06  28 2.06  24 2.78  24 2.78
                             1 2.81   2 2.81  21 2.84  23 2.84  22 2.85  20 2.85
  20  0.250  0.500  0.750-  39 1.84  27 1.84  44 1.87  56 1.87  48 1.92  31 2.03   6 2.70  23 2.78
                            23 2.79  26 2.84  25 2.84  19 2.85  24 2.85
  21  0.250  0.502  0.252-  40 1.86  28 1.86  43 1.87  55 1.87  47 1.96  32 2.06   5 2.74  22 2.78
                            22 2.79  24 2.84  19 2.84  25 2.86  26 2.86
  22  0.750  0.500  0.250-  40 1.84  28 1.84  43 1.87  55 1.87  50 1.92  33 2.03   8 2.70  21 2.78
                            21 2.79  26 2.84  25 2.84  19 2.85  24 2.85
  23  0.750  0.498  0.748-  39 1.86  27 1.86  44 1.87  56 1.87  49 1.96  34 2.06   7 2.74  20 2.78
                            20 2.79  24 2.84  19 2.84  25 2.86  26 2.86
  24  0.500  0.500  0.500-  47 1.84  49 1.84  48 1.84  50 1.84  39 2.07  40 2.07  19 2.78  19 2.78
                             1 2.82   2 2.82  23 2.84  21 2.84  20 2.85  22 2.85
  25  0.000  0.500  0.000-  32 1.87  34 1.87  33 1.88  31 1.88  43 1.94  44 1.94  26 2.78  26 2.78
                            20 2.84  22 2.84  21 2.86  23 2.86
  26  0.500  0.500  0.000-  32 1.87  34 1.87  33 1.88  31 1.88  55 1.94  56 1.94  25 2.78  25 2.78
                            20 2.84  22 2.84  21 2.86  23 2.86
  27  0.005  0.393  0.640-  20 1.84  23 1.86   3 2.05  19 2.06
  28  0.995  0.607  0.360-  22 1.84  21 1.86   4 2.05  19 2.06
  29  0.004  0.095  0.364-  12 1.85  15 1.86  17 1.94   1 2.05
  30  0.996  0.905  0.636-  14 1.85  13 1.86  17 1.94   2 2.05
  31  0.250  0.392  0.887-  26 1.88  25 1.88  20 2.03   9 2.17   3 2.17
  32  0.250  0.609  0.111-  25 1.87  26 1.87  21 2.06   4 2.17  10 2.17
  33  0.750  0.608  0.113-  26 1.88  25 1.88  22 2.03  10 2.17   4 2.17
  34  0.750  0.391  0.889-  25 1.87  26 1.87  23 2.06   3 2.17   9 2.17
  35  0.250  0.099  0.113-  11 1.85  16 1.85   5 1.98  12 1.98
  36  0.250  0.899  0.889-  16 1.84  11 1.84   6 1.97  13 1.99
  37  0.750  0.901  0.887-  11 1.85  16 1.85   7 1.98  14 1.98
  38  0.750  0.101  0.111-  16 1.84  11 1.84   8 1.97  15 1.99
  39  0.495  0.393  0.641-  20 1.84  23 1.86   9 2.04  24 2.07
  40  0.505  0.607  0.359-  22 1.84  21 1.86  10 2.04  24 2.07
  41  0.496  0.095  0.364-  12 1.85  15 1.86  18 1.93   1 2.06
  42  0.504  0.905  0.636-  14 1.85  13 1.86  18 1.93   2 2.06
  43  0.002  0.401  0.133-  21 1.87  22 1.87  25 1.94   5 2.06   8 2.07
  44  0.998  0.599  0.867-  23 1.87  20 1.87  25 1.94   7 2.06   6 2.07
  45  0.003  0.110  0.864-  14 1.87  13 1.87  11 2.05   3 2.20   5 2.22   8 2.25
  46  0.997  0.890  0.136-  12 1.87  15 1.87  11 2.05   4 2.20   7 2.22   6 2.25
  47  0.250  0.402  0.387-  24 1.84  19 1.84   1 1.95  21 1.96
  48  0.250  0.595  0.616-  24 1.84  19 1.85  20 1.92
  49  0.750  0.598  0.613-  24 1.84  19 1.84   2 1.95  23 1.96
  50  0.750  0.405  0.384-  24 1.84  19 1.85  22 1.92
  51  0.250  0.108  0.611-  17 1.87  18 1.87  13 2.06   3 2.08   9 2.09
  52  0.250  0.894  0.383-  18 1.89  17 1.89  12 1.98   4 2.06  10 2.06
  53  0.750  0.892  0.389-  17 1.87  18 1.87  15 2.06   4 2.08  10 2.09
  54  0.750  0.106  0.617-  18 1.89  17 1.89  14 1.98   3 2.06   9 2.06
  55  0.498  0.401  0.133-  22 1.87  21 1.87  26 1.94   5 2.06   8 2.07
  56  0.502  0.599  0.867-  20 1.87  23 1.87  26 1.94   7 2.06   6 2.07
  57  0.497  0.110  0.865-  14 1.87  13 1.87  16 2.05   9 2.21   5 2.22   8 2.24
  58  0.503  0.890  0.135-  12 1.87  15 1.87  16 2.05  10 2.21   7 2.22   6 2.24

  LATTYP: Found a triclinic cell.
 ALAT       =    11.3921962456
 B/A-ratio  =     0.4889212118
 C/A-ratio  =     1.0008856588
 COS(alpha) =     0.0000165076
 COS(beta)  =     0.4756832865
 COS(gamma) =     0.4891654918

  Lattice vectors:

 A1 = (  -9.9369127096,   5.5713002811,   0.0226777014)
 A2 = (  -0.0007662987,   5.5698863198,   0.0004818784)
 A3 = (  -6.2399083567,   0.0001553874,  -9.5433571745)

Analysis of symmetry for initial positions (statically):
 Subroutine PRICEL returns:
 Original cell was already a primitive cell.

 Routine SETGRP: Setting up the symmetry group for a
 triclinic supercell.

 Subroutine GETGRP returns: Found  2 space group operations
 (whereof  2 operations were pure point group operations)
 out of a pool of  2 trial point group operations.

The static configuration has the point symmetry S_2 .

Analysis of symmetry for dynamics (positions and initial velocities):
 Subroutine PRICEL returns:
 Original cell was already a primitive cell.

[...]

The dynamic configuration has the point symmetry S_2 .

Analysis of structural, dynamic, and magnetic symmetry:
 Subroutine PRICEL returns:
 Original cell was already a primitive cell.

 Routine SETGRP: Setting up the symmetry group for a
 triclinic supercell.

 Subroutine GETGRP returns: Found  2 space group operations
 (whereof  2 operations were pure point group operations)
 out of a pool of  2 trial point group operations.

The magnetic configuration has the point symmetry S_2 .

 Subroutine INISYM returns: Found  2 space group operations
 (whereof  2 operations are pure point group operations),
 and found     1 'primitive' translations

 KPOINTS: Automatic mesh

Automatic generation of k-mesh.
Space group operators:
 irot       det(A)        alpha          n_x          n_y          n_z        tau_x        tau_y        tau_z
    1     1.000000     0.000001     1.000000     0.000000     0.000000     0.000000     0.000000     0.000000
    2    -1.000000     0.000001     1.000000     0.000000     0.000000     0.000000     0.000000     0.000000

 Subroutine IBZKPT returns following result:

 Found      1 irreducible k-points:

 Following reciprocal coordinates:
            Coordinates               Weight
  0.000000  0.000000  0.000000      1.000000

 Following cartesian coordinates:
            Coordinates               Weight
  0.000000  0.000000  0.000000      1.000000

 SYSTEM =  unknown system
 POSCAR =  ce15401_1

 Startparameter for this run:
   NWRITE =      1    write-flag & timer
   PREC   = accura    normal or accurate (medium, high low for compatibility)
   ISTART =      0    job   : 0-new  1-cont  2-samecut
   ICHARG =      2    charge: 1-file 2-atom 10-const
   ISPIN  =      2    spin polarized calculation?
   LNONCOLLINEAR =      F non collinear calculations
   LSORBIT =      F    spin-orbit coupling
[...]
   0.818E+01 0.302E-01 -.114E+03   -.868E+01 -.294E-01 0.116E+03   0.517E+00 -.639E-03 -.170E+01   -.153E-01 -.887E-03 -.171E-01
   -.160E-10 0.105E-11 -.893E-12   -.284E-12 -.399E-12 -.391E-11   0.207E-24 0.169E-25 0.380E-25   -.341E-11 -.713E-12 0.680E-12
   0.102E-11 -.296E-12 0.294E-12   -.227E-12 -.454E-12 -.396E-11   0.000E+00 -.104E-26 -.149E-24   0.108E-10 -.230E-11 -.313E-11
   0.142E-11 0.137E-11 -.171E-11   -.298E-12 0.858E-13 -.371E-11   -.162E-25 -.138E-25 -.686E-25   0.966E-11 0.225E-11 0.600E-12
   0.807E-12 0.278E-12 -.282E-12   0.488E-11 0.350E-11 0.844E-11   0.000E+00 -.134E-24 -.808E-25   0.120E-11 0.909E-12 0.255E-11
   0.582E+02 0.401E-01 -.584E+02   -.596E+02 -.397E-01 0.590E+02   0.141E+01 0.137E-02 -.630E+00   -.213E-01 -.353E-02 0.143E-01
   -.793E+02 0.343E-01 0.231E+02   0.805E+02 -.323E-01 -.235E+02   -.118E+01 0.576E-03 0.438E+00   0.169E-01 -.378E-02 -.127E-01
   -.582E+02 -.401E-01 0.584E+02   0.596E+02 0.397E-01 -.590E+02   -.141E+01 -.137E-02 0.630E+00   0.213E-01 0.353E-02 -.143E-01
   0.793E+02 -.343E-01 -.231E+02   -.805E+02 0.323E-01 0.235E+02   0.118E+01 -.576E-03 -.438E+00   -.169E-01 0.378E-02 0.127E-01
   -.179E-11 0.483E-12 0.293E-12   0.491E-11 -.358E-11 0.846E-11   0.000E+00 -.200E-25 0.404E-25   0.362E-12 -.102E-11 0.440E-12
   -.834E-12 0.106E-12 -.800E-13   0.480E-11 -.339E-11 0.810E-11   0.207E-24 0.394E-26 0.565E-26   -.414E-12 0.631E-12 -.292E-11
   -.205E-11 0.768E-12 -.558E-11   0.498E-11 0.350E-11 0.823E-11   0.000E+00 -.461E-26 -.113E-25   -.153E-11 -.691E-12 -.173E-11
   0.797E+02 0.243E+02 0.317E+03   -.847E+02 -.260E+02 -.335E+03   0.503E+01 0.162E+01 0.175E+02   0.595E-02 0.869E-02 -.553E-02
   -.797E+02 -.243E+02 -.317E+03   0.847E+02 0.260E+02 0.335E+03   -.503E+01 -.162E+01 -.175E+02   -.595E-02 -.869E-02 0.553E-02
   0.186E+02 0.341E+02 -.373E+03   -.179E+02 -.366E+02 0.393E+03   -.708E+00 0.253E+01 -.202E+02   -.124E-01 0.493E-02 0.788E-02
   -.186E+02 -.341E+02 0.373E+03   0.179E+02 0.366E+02 -.393E+03   0.708E+00 -.253E+01 0.202E+02   0.124E-01 -.493E-02 -.788E-02
   0.203E+02 0.649E-02 0.304E+03   -.218E+02 -.222E-02 -.318E+03   0.155E+01 0.348E-03 0.139E+02   -.978E-02 -.485E-02 -.134E-01
   -.204E+02 0.340E-01 -.302E+03   0.217E+02 -.294E-01 0.315E+03   -.128E+01 0.153E-04 -.130E+02   -.255E-02 -.472E-02 0.181E-01
   -.203E+02 -.649E-02 -.304E+03   0.218E+02 0.222E-02 0.318E+03   -.155E+01 -.348E-03 -.139E+02   0.978E-02 0.485E-02 0.134E-01
   0.204E+02 -.340E-01 0.302E+03   -.217E+02 0.294E-01 -.315E+03   0.128E+01 -.153E-04 0.130E+02   0.255E-02 0.472E-02 -.181E-01
   -.694E+02 0.278E-01 -.349E+03   0.757E+02 -.304E-01 0.368E+03   -.631E+01 0.195E-02 -.188E+02   0.938E-03 0.725E-03 -.792E-03
   0.772E+02 -.258E-01 0.353E+03   -.836E+02 0.265E-01 -.372E+03   0.630E+01 -.140E-02 0.189E+02   0.599E-02 0.640E-03 -.287E-02
   0.694E+02 -.278E-01 0.349E+03   -.757E+02 0.304E-01 -.368E+03   0.631E+01 -.195E-02 0.188E+02   -.938E-03 -.725E-03 0.792E-03
   -.772E+02 0.258E-01 -.353E+03   0.836E+02 -.265E-01 0.372E+03   -.630E+01 0.140E-02 -.189E+02   -.599E-02 -.640E-03 0.287E-02
   0.798E+02 -.244E+02 0.317E+03   -.848E+02 0.260E+02 -.335E+03   0.505E+01 -.162E+01 0.175E+02   0.776E-02 -.884E-02 -.773E-02
   -.798E+02 0.244E+02 -.317E+03   0.848E+02 -.260E+02 0.335E+03   -.505E+01 0.162E+01 -.175E+02   -.776E-02 0.884E-02 0.773E-02
   0.186E+02 -.340E+02 -.373E+03   -.179E+02 0.365E+02 0.393E+03   -.711E+00 -.252E+01 -.202E+02   -.103E-01 -.481E-02 0.626E-02
   -.186E+02 0.340E+02 0.373E+03   0.179E+02 -.365E+02 -.393E+03   0.711E+00 0.252E+01 0.202E+02   0.103E-01 0.481E-02 -.626E-02
   -.455E+02 -.875E+00 0.328E+03   0.450E+02 0.117E+01 -.343E+03   0.500E+00 -.286E+00 0.151E+02   0.869E-02 -.767E-02 -.109E-02
   0.455E+02 0.875E+00 -.328E+03   -.450E+02 -.117E+01 0.343E+03   -.500E+00 0.286E+00 -.151E+02   -.869E-02 0.767E-02 0.109E-02
   -.395E+02 -.409E+01 -.281E+03   0.423E+02 0.462E+01 0.296E+03   -.286E+01 -.522E+00 -.146E+02   0.253E-02 -.532E-02 -.410E-02
   0.395E+02 0.409E+01 0.281E+03   -.423E+02 -.462E+01 -.296E+03   0.286E+01 0.522E+00 0.146E+02   -.253E-02 0.532E-02 0.410E-02
   0.355E+02 -.783E-01 0.342E+03   -.409E+02 0.887E-01 -.360E+03   0.543E+01 -.713E-02 0.185E+02   -.523E-02 -.347E-02 -.649E-02
   -.168E+01 0.555E-02 -.382E+03   0.335E+01 -.293E-02 0.406E+03   -.171E+01 0.983E-03 -.242E+02   0.178E-01 -.355E-02 0.182E-02
   -.355E+02 0.783E-01 -.342E+03   0.409E+02 -.887E-01 0.360E+03   -.543E+01 0.713E-02 -.185E+02   0.523E-02 0.347E-02 0.649E-02
   0.168E+01 -.555E-02 0.382E+03   -.335E+01 0.293E-02 -.406E+03   0.171E+01 -.983E-03 0.242E+02   -.178E-01 0.355E-02 -.182E-02
   0.520E+01 -.246E-02 -.296E+03   -.348E+01 -.957E-04 0.309E+03   -.173E+01 0.309E-03 -.132E+02   0.682E-02 0.226E-02 0.103E-01
   -.387E+02 -.465E-01 0.313E+03   0.400E+02 0.462E-01 -.327E+03   -.135E+01 -.840E-03 0.139E+02   -.155E-01 0.219E-02 -.712E-02
   -.520E+01 0.246E-02 0.296E+03   0.348E+01 0.957E-04 -.309E+03   0.173E+01 -.309E-03 0.132E+02   -.682E-02 -.226E-02 -.103E-01
   0.387E+02 0.465E-01 -.313E+03   -.400E+02 -.462E-01 0.327E+03   0.135E+01 0.840E-03 -.139E+02   0.155E-01 -.219E-02 0.712E-02
   -.456E+02 0.842E+00 0.328E+03   0.451E+02 -.113E+01 -.343E+03   0.499E+00 0.286E+00 0.151E+02   0.122E-01 0.761E-02 -.393E-02
   0.456E+02 -.842E+00 -.328E+03   -.451E+02 0.113E+01 0.343E+03   -.499E+00 -.286E+00 -.151E+02   -.122E-01 -.761E-02 0.393E-02
   -.395E+02 0.414E+01 -.281E+03   0.423E+02 -.466E+01 0.296E+03   -.286E+01 0.523E+00 -.146E+02   0.277E-02 0.527E-02 -.511E-02
   0.395E+02 -.414E+01 0.281E+03   -.423E+02 0.466E+01 -.296E+03   0.286E+01 -.523E+00 0.146E+02   -.277E-02 -.527E-02 0.511E-02
   0.535E-11 0.943E-11 -.510E-10   0.497E-13 0.131E-12 0.000E+00   -.444E-15 0.444E-15 0.124E-13   -.342E-11 -.210E-12 0.681E-11

 POSITION                                       TOTAL-FORCE (eV/Angst)
      3.60943      1.39104      2.37751        -0.015639      0.001227     -0.010317
      2.59690      4.17937      7.20134         0.015639     -0.001227      0.010317
      6.41686      5.55553      2.38373         0.002115     -0.000415      0.010860
     -0.21053      0.01488      7.19512        -0.002115      0.000415     -0.010860
     -0.60390      1.39271      2.37998         0.014768      0.000207     -0.006197
      6.80727      1.39278      7.18762        -0.032440     -0.000049      0.008977
      6.81023      4.17771      7.19888        -0.014768     -0.000207      0.006197
     -0.60094      4.17763      2.39124         0.032440      0.000049     -0.008977
      6.41684      2.79919      2.38353         0.001872      0.000313      0.011020
     -0.21051      2.77122      7.19533        -0.001872     -0.000313     -0.011020
      0.00000     -0.00000      0.00000        -0.000000      0.000000     -0.000000
     -1.23382      1.39311      9.54685         0.004183     -0.002003     -0.006245
      7.43649      1.39247     -0.01817        -0.004560      0.000716      0.007232
      7.44016      4.17730      0.03200        -0.004183      0.002003      0.006245
     -1.23016      4.17794      9.59702         0.004560     -0.000716     -0.007232
     -0.00000      2.78488      0.00023         0.000000      0.000000     -0.000000
      4.95542     -0.00003     -0.02028         0.000000      0.000000     -0.000000
      4.95542      2.78485     -0.02005         0.000000      0.000000     -0.000000
      3.10317      0.00033      4.78920         0.000000      0.000000     -0.000000
      5.57470      1.39283      4.78544        -0.001447     -0.001783      0.016962
      0.63850      1.39278      4.81176         0.001704     -0.001245     -0.014345
      0.63163      4.17758      4.79341         0.001447      0.001783     -0.016962
      5.56783      4.17763      4.76709        -0.001704      0.001245      0.014345
      3.10317      2.78521      4.78943         0.000000      0.000000     -0.000000
     -1.85225      0.00036      4.80947         0.000000      0.000000     -0.000000
     -1.85226      2.78524      4.80970         0.000000      0.000000     -0.000000
      4.86086      0.02470      3.77754        -0.016240      0.000156      0.013478
      1.34548      5.54571      5.80131         0.016240     -0.000156     -0.013478
      3.25790      0.02509      0.88826         0.001215      0.000295     -0.012138
      2.94843      5.54532      8.69060        -0.001215     -0.000295      0.012138
      7.32888      1.39282      3.74843        -0.012139     -0.000234      0.008930
     -1.11294      1.39273      5.84258         0.022706     -0.000052     -0.010341
     -1.12255      4.17759      5.83042         0.012139      0.000234     -0.008930
      7.31927      4.17768      3.73627        -0.022706      0.000052      0.010341
      0.76937      1.39235      0.93609         0.006756      0.000094     -0.004571
      5.45540      1.39321      8.63159        -0.011402     -0.000062      0.006352
      5.43696      4.17806      8.64277        -0.006756     -0.000094      0.004571
      0.75094      4.17720      0.94726         0.011402      0.000062     -0.006352
      4.86087      2.76107      3.77807        -0.016195      0.000543      0.012565
      1.34546      2.80934      5.80078         0.016195     -0.000543     -0.012565
      3.25789      2.75935      0.88855         0.001786      0.000787     -0.012239
      2.94844      2.81106      8.69031        -0.001786     -0.000787      0.012239
     -0.15492      0.00886      3.84008         0.003373     -0.001656     -0.010249
      6.36125      5.56155      5.73877        -0.003373      0.001656      0.010249
      8.15221      0.01830      1.03251         0.003681     -0.000699      0.012822
     -1.94587      5.55212      8.54634        -0.003681      0.000699     -0.012822
      2.34221      1.39283      3.84593         0.004597     -0.000150     -0.008195
      3.87446      1.39268      5.70778        -0.012285      0.000053      0.011209
      3.86412      4.17758      5.73292        -0.004597      0.000150      0.008195
      2.33187      4.17773      3.87107         0.012285     -0.000053     -0.011209
      5.66530      1.39235      1.00806         0.000610      0.000018      0.004824
      0.49163      1.39316      8.58203         0.005537      0.000996     -0.005038
      0.54103      4.17806      8.57079        -0.000610     -0.000018     -0.004824
      5.71471      4.17725      0.99682        -0.005537     -0.000996      0.005038
     -0.15515      2.77681      3.84026         0.003978      0.000919     -0.010883
      6.36148      2.79361      5.73859        -0.003978     -0.000919      0.010883
      8.15213      2.76650      1.03273         0.004135     -0.000631      0.012779
     -1.94580      2.80391      8.54612        -0.004135      0.000631     -0.012779
    total drift:                                0.000000      0.000000     -0.000000

  FREE ENERGIE OF THE ION-ELECTRON SYSTEM (eV)
  free  energy   TOTEN  =      -354.2108410115 eV

  energy  without entropy=     -354.1961163624  energy(sigma->0) =     -354.20347869

 d Force = 0.2967108E-03[ 0.296E-03, 0.297E-03]  d Energy = 0.2916227E-03 0.509E-05
 d Force = 0.1362405E+00[ 0.136E+00, 0.136E+00]  d Ewald  =-0.2195788E+00 0.356E+00

 Quasi-Newton relaxation of ions (Broydens 2nd method)
  g(Force)  = 0.573E-03   g(Stress)= 0.361E-03

 retain information from N=  1 steps
 eigenvalues of (default step * inverse Hessian matrix)
  average eigenvalue of G=   0.3538
 eigenvalue spectrum of G is  0.3538

volume of typ            1:    14.7 %

[...]

volume of typ            3:     9.8 %

total charge

# of ion       s       p       d       tot
    1        2.071   0.227   0.084   2.382
    2        2.071   0.227   0.084   2.382
    3        2.075   0.243   0.088   2.407
    4        2.075   0.243   0.088   2.407
    5        2.075   0.236   0.087   2.398
    6        2.074   0.234   0.086   2.394
    7        2.075   0.236   0.087   2.398
    8        2.074   0.234   0.086   2.394
    9        2.075   0.243   0.088   2.406
   10        2.075   0.243   0.088   2.406
   11        0.280   0.381   7.871   8.532
   12        0.281   0.386   7.858   8.525
   13        0.271   0.364   7.847   8.482
   14        0.281   0.386   7.858   8.525
   15        0.271   0.364   7.847   8.482
   16        0.280   0.381   7.871   8.532
   17        0.279   0.383   7.851   8.513
   18        0.279   0.383   7.851   8.513
   19        0.281   0.387   7.852   8.520
   20        0.283   0.386   7.859   8.529
   21        0.273   0.369   7.853   8.495
   22        0.283   0.386   7.859   8.529
   23        0.273   0.369   7.853   8.495
   24        0.281   0.387   7.852   8.520
   25        0.273   0.373   7.863   8.509
   26        0.273   0.373   7.863   8.509
   27        1.266   2.767   0.007   4.040
   28        1.266   2.767   0.007   4.040
   29        1.268   2.766   0.007   4.042
   30        1.268   2.766   0.007   4.042
   31        1.261   2.784   0.006   4.051
   32        1.261   2.782   0.006   4.049
   33        1.261   2.784   0.006   4.051
   34        1.261   2.782   0.006   4.049
   35        1.265   2.777   0.007   4.049
   36        1.266   2.775   0.007   4.048
   37        1.265   2.777   0.007   4.049
   38        1.266   2.775   0.007   4.048
   39        1.266   2.767   0.007   4.040
   40        1.266   2.767   0.007   4.040
   41        1.268   2.766   0.007   4.041
   42        1.268   2.766   0.007   4.041
   43        1.258   2.794   0.007   4.059
   44        1.258   2.794   0.007   4.059
   45        1.259   2.784   0.006   4.049
   46        1.259   2.784   0.006   4.049
   47        1.266   2.778   0.007   4.052
   48        1.279   2.738   0.008   4.025
   49        1.266   2.778   0.007   4.052
   50        1.279   2.738   0.008   4.025
   51        1.262   2.785   0.006   4.052
   52        1.264   2.780   0.006   4.050
   53        1.262   2.785   0.006   4.052
   54        1.264   2.780   0.006   4.050
   55        1.258   2.794   0.007   4.059
   56        1.258   2.794   0.007   4.059
   57        1.259   2.784   0.006   4.049
   58        1.259   2.784   0.006   4.049
tot          65.64   97.27  126.79  289.69

magnetization (x)

# of ion       s       p       d       tot
    1        0.005   0.008   0.000   0.013
    2        0.005   0.008   0.000   0.013
    3        0.006   0.016  -0.000   0.021
    4        0.006   0.016  -0.000   0.021
    5        0.005   0.006   0.000   0.011
    6        0.005   0.008   0.000   0.013
    7        0.005   0.006   0.000   0.011
    8        0.005   0.008   0.000   0.013
    9        0.006   0.016  -0.000   0.021
   10        0.006   0.016  -0.000   0.021
   11        0.006   0.000   0.563   0.569
   12        0.000  -0.000   0.396   0.396
   13        0.001   0.000   0.456   0.457
   14        0.000  -0.000   0.396   0.396
   15        0.001   0.000   0.456   0.457
   16        0.006   0.000   0.563   0.569
   17       -0.000  -0.000   0.406   0.406
   18       -0.000  -0.000   0.406   0.406
   19        0.004   0.000   0.449   0.453
   20        0.000   0.001   0.368   0.369
   21        0.000   0.000   0.448   0.449
   22        0.000   0.001   0.368   0.369
   23        0.000   0.000   0.448   0.449
   24        0.004   0.000   0.449   0.453
   25       -0.000  -0.000   0.520   0.520
   26       -0.000  -0.000   0.520   0.520
   27        0.007   0.050   0.000   0.058
   28        0.007   0.050   0.000   0.058
   29        0.005   0.022   0.000   0.027
   30        0.005   0.022   0.000   0.027
   31        0.010   0.043   0.000   0.053
   32        0.011   0.060   0.000   0.071
   33        0.010   0.043   0.000   0.053
   34        0.011   0.060   0.000   0.071
   35        0.005   0.046   0.000   0.052
   36        0.006   0.058   0.000   0.065
   37        0.005   0.046   0.000   0.052
   38        0.006   0.058   0.000   0.065
   39        0.007   0.050   0.000   0.057
   40        0.007   0.050   0.000   0.057
   41        0.005   0.022   0.000   0.027
   42        0.005   0.022   0.000   0.027
   43        0.006   0.035   0.000   0.041
   44        0.006   0.035   0.000   0.041
   45        0.008   0.065   0.000   0.073
   46        0.008   0.065   0.000   0.073
   47        0.007   0.064   0.000   0.071
   48        0.005   0.059   0.000   0.064
   49        0.007   0.064   0.000   0.071
   50        0.005   0.059   0.000   0.064
   51        0.011   0.055   0.000   0.065
   52        0.012   0.074   0.000   0.086
   53        0.011   0.055   0.000   0.065
   54        0.012   0.074   0.000   0.086
   55        0.006   0.035   0.000   0.041
   56        0.006   0.035   0.000   0.041
   57        0.008   0.065   0.000   0.073
   58        0.008   0.065   0.000   0.073
tot           0.31    1.71    7.22    9.24