 vasp.5.4.4.18Apr17-6-g9f103f2a35 (build May 12 2020 05:39:39) gamma-only

 MD_VERSION_INFO: Compiled 2020-05-12T12:39:39-UTC in devlin.sd.materialsdesign.
 com:/home/medea2/data/build/wwolf/vasp-gpu5.4.4/13047/x86_64/src/src/build/gam
 from svn 13047

 executed on                        Lin64 date 2023.03.07  01:01:21

 INCAR:
 POTCAR:    PAW_PBE Li_sv 10Sep2004
 POTCAR:    PAW_PBE Ni 02Aug2007
 POTCAR:    PAW_PBE O 08Apr2002

 POTCAR:    PAW_PBE Li_sv 10Sep2004

 POTCAR:    PAW_PBE Ni 02Aug2007

 POTCAR:    PAW_PBE O 08Apr2002

 Optimization of the real space projectors (new method)

 maximal supplied QI-value         = 22.11
 optimisation between [QCUT,QGAM] = [ 11.28, 22.77] = [ 35.61,145.23] Ry
 Optimized for a Real-space Cutoff    1.10 Angstroem

   l    n(q)    QCUT    max X(q) W(low)/X(q) W(high)/X(q)  e(spline)
   0      7    11.276    10.506    0.54E-04    0.58E-04    0.16E-07
   0      7    11.276     8.367    0.11E-03    0.14E-03    0.35E-07
   1      7    11.276     8.983    0.23E-03    0.43E-03    0.86E-07
 Optimization of the real space projectors (new method)

[...]

   l    n(q)    QCUT    max X(q) W(low)/X(q) W(high)/X(q)  e(spline)
   2      9    11.376    60.317    0.17E-03    0.16E-04    0.16E-06
   2      9    11.376    55.921    0.17E-03    0.16E-04    0.17E-06
   0     10    11.376    51.690    0.45E-04    0.60E-04    0.21E-06
   0     10    11.376    30.015    0.37E-04    0.55E-04    0.19E-06
   1     10    11.376    18.849    0.83E-04    0.11E-03    0.92E-07
   1     10    11.376    14.624    0.69E-04    0.92E-04    0.82E-07
 Optimization of the real space projectors (new method)

 maximal supplied QI-value         = 24.76
 optimisation between [QCUT,QGAM] = [ 11.39, 22.77] = [ 36.31,145.25] Ry
 Optimized for a Real-space Cutoff    1.10 Angstroem

   l    n(q)    QCUT    max X(q) W(low)/X(q) W(high)/X(q)  e(spline)
   0      7    11.387    20.381    0.22E-03    0.48E-03    0.18E-06
   0      7    11.387    15.268    0.22E-03    0.52E-03    0.19E-06
   1      7    11.387     5.964    0.22E-03    0.73E-03    0.24E-06
   1      7    11.387     5.382    0.19E-03    0.60E-03    0.21E-06

  PAW_PBE Li_sv 10Sep2004               :
  PAW_PBE Ni 02Aug2007                  :
  PAW_PBE O 08Apr2002                   :

 POSCAR: ce17486_1
  positions in direct lattice
 exchange correlation table for  LEXCH =       14
   RHO(1)=    0.500       N(1)  =     2000
   RHO(2)=  100.500       N(2)  =     4000

 ion  position               nearest neighbor table
   1  0.997  0.249  0.734-  21 2.06  48 2.07  45 2.10  28 2.17  25 2.18  39 2.28  11 2.77
   2  0.251  0.253  0.035-  29 1.93  49 2.03  37 2.03  15 2.71  10 2.83   5 2.83
   3  0.251  0.752  0.001-  50 2.11  38 2.11  30 2.12  52 2.12  40 2.12  26 2.14  14 2.84
   4  0.503  0.249  0.733-  33 2.05  48 2.07  45 2.10  28 2.18  25 2.18  51 2.28  12 2.77
   5  0.998  0.001  0.002-  32 1.83  31 1.83  30 1.85  29 1.86  40 1.89  39 1.95  10 2.76   9 2.79
                            10 2.80   6 2.80   8 2.82   2 2.83   7 2.83
   6  0.250  0.004  0.251-  23 1.84  35 1.84  40 1.85  52 1.85  46 1.91  29 1.93   9 2.78   9 2.78
                            10 2.80   5 2.80  11 2.82  12 2.82
   7  0.250  0.991  0.746-  24 1.84  36 1.84  39 1.85  51 1.85  45 1.92  30 1.94   8 2.78   8 2.78
                            11 2.80  12 2.80   5 2.83  10 2.83
   8  0.750  0.994  0.748-  36 1.84  24 1.84  51 1.87  39 1.87  31 1.91  48 1.91   7 2.78   7 2.78
                            11 2.80  12 2.80   5 2.82  10 2.82
   9  0.750  0.999  0.249-  35 1.84  23 1.84  52 1.86  40 1.86  47 1.92  32 1.92   6 2.78   6 2.78
                             5 2.79  10 2.79  12 2.82  11 2.82
  10  0.502  0.001  0.002-  32 1.84  31 1.84  30 1.85  29 1.86  52 1.89  51 1.95   5 2.76   9 2.79
                             6 2.80   5 2.80   8 2.82   2 2.83   7 2.83
  11  1.000  0.998  0.500-  47 1.83  46 1.84  48 1.87  45 1.87  23 1.92  24 1.92   1 2.77  12 2.78
                            12 2.79   7 2.80   8 2.80   6 2.82   9 2.82
  12  0.501  0.998  0.500-  47 1.84  46 1.84  48 1.87  45 1.87  35 1.92  36 1.92   4 2.77  11 2.78
                            11 2.79   7 2.80   8 2.80   6 2.82   9 2.82
  13  1.000  0.500  0.498-  44 1.84  43 1.84  41 1.84  42 1.84  22 1.89  21 1.96  18 2.78  15 2.78
                            16 2.78  18 2.79  14 2.82  17 2.83
  14  0.250  0.503  0.751-  50 1.84  38 1.84  21 1.84  33 1.84  42 1.90  25 1.96  17 2.78  17 2.78
                            19 2.80  20 2.80  13 2.82  18 2.82   3 2.84
  15  0.250  0.505  0.254-  22 1.84  34 1.84  49 1.85  37 1.85  41 1.90  26 1.96   2 2.71  18 2.78
                            13 2.78  16 2.78  16 2.78  19 2.84  20 2.84
  16  0.750  0.500  0.251-  22 1.84  34 1.84  49 1.86  37 1.86  44 1.88  27 1.93  13 2.78  18 2.78
                            15 2.78  15 2.78  19 2.83  20 2.83
  17  0.750  0.508  0.753-  21 1.85  33 1.85  38 1.86  50 1.86  43 1.89  28 1.94  14 2.78  14 2.78
                            19 2.79  20 2.79  13 2.83  18 2.83
  18  0.501  0.500  0.498-  44 1.84  43 1.84  41 1.84  42 1.84  34 1.89  33 1.96  13 2.78  15 2.78
                            16 2.78  13 2.79  14 2.82  17 2.83
  19  0.999  0.499  0.998-  27 1.83  26 1.85  28 1.86  25 1.88  37 1.92  38 1.92  20 2.76  17 2.79
                            20 2.80  14 2.80  16 2.83  15 2.84
  20  0.502  0.499  0.998-  27 1.83  26 1.85  28 1.86  25 1.88  49 1.92  50 1.92  19 2.76  17 2.79
                            19 2.80  14 2.80  16 2.83  15 2.84
  21  0.998  0.403  0.641-  14 1.84  17 1.85  13 1.96   1 2.06
  22  0.997  0.600  0.366-  15 1.84  16 1.84  13 1.89
  23  0.997  0.098  0.365-   9 1.84   6 1.84  11 1.92
  24  0.998  0.895  0.633-   7 1.84   8 1.84  11 1.92
  25  0.250  0.393  0.882-  19 1.88  20 1.88  14 1.96   1 2.18   4 2.18
  26  0.250  0.600  0.109-  19 1.85  20 1.85  15 1.96   3 2.14
  27  0.750  0.596  0.112-  20 1.83  19 1.83  16 1.93
  28  0.750  0.398  0.881-  20 1.86  19 1.86  17 1.94   1 2.17   4 2.18
  29  0.250  0.102  0.114-  10 1.86   5 1.86   6 1.93   2 1.93
  30  0.250  0.899  0.891-  10 1.85   5 1.85   7 1.94   3 2.12
  31  0.750  0.902  0.888-   5 1.83  10 1.84   8 1.91
  32  0.750  0.100  0.115-   5 1.83  10 1.84   9 1.92
  33  0.503  0.403  0.641-  14 1.84  17 1.85  18 1.96   4 2.05
  34  0.504  0.600  0.366-  15 1.84  16 1.84  18 1.89
  35  0.503  0.097  0.365-   9 1.84   6 1.84  12 1.92
  36  0.502  0.895  0.633-   7 1.84   8 1.84  12 1.92
  37  0.006  0.403  0.137-  15 1.85  16 1.86  19 1.92   2 2.03
  38  0.005  0.604  0.868-  14 1.84  17 1.86  19 1.92   3 2.11
  39  0.005  0.097  0.859-   7 1.85   8 1.87   5 1.95   1 2.28
  40  0.005  0.902  0.134-   6 1.85   9 1.86   5 1.89   3 2.12
  41  0.250  0.403  0.384-  18 1.84  13 1.84  15 1.90
  42  0.250  0.597  0.613-  18 1.84  13 1.84  14 1.90
  43  0.750  0.598  0.612-  13 1.84  18 1.84  17 1.89
  44  0.750  0.402  0.384-  18 1.84  13 1.84  16 1.88
  45  0.250  0.099  0.618-  11 1.87  12 1.87   7 1.92   4 2.10   1 2.10
  46  0.250  0.903  0.385-  11 1.84  12 1.84   6 1.91
  47  0.750  0.901  0.386-  11 1.83  12 1.84   9 1.92
  48  0.750  0.099  0.618-  11 1.87  12 1.87   8 1.91   4 2.07   1 2.07
  49  0.495  0.403  0.137-  15 1.85  16 1.86  20 1.92   2 2.03
  50  0.496  0.604  0.868-  14 1.84  17 1.86  20 1.92   3 2.11
  51  0.496  0.097  0.859-   7 1.85   8 1.87  10 1.95   4 2.28
  52  0.496  0.902  0.135-   6 1.85   9 1.86  10 1.89   3 2.12

  LATTYP: Found a triclinic cell.
 ALAT       =    15.0498535987
 B/A-ratio  =     0.3696119531
 C/A-ratio  =     0.7566439728
 COS(alpha) =     0.0002163392
 COS(beta)  =     0.4001445576
 COS(gamma) =     0.7393869223

  Lattice vectors:

 A1 = (   3.5564627371, -11.1264124674,  -9.4896054579)
 A2 = (   0.0000028066,  -5.5626057335,  -0.0007331740)
 A3 = (  -6.2028646331,  -0.0012079770,  -9.5497076039)

Analysis of symmetry for initial positions (statically):
 Subroutine PRICEL returns:
 Original cell was already a primitive cell.

 Routine SETGRP: Setting up the symmetry group for a
 triclinic supercell.

 Subroutine GETGRP returns: Found  1 space group operations
 (whereof  1 operations were pure point group operations)
 out of a pool of  2 trial point group operations.

The static configuration has the point symmetry C_1 .

Analysis of symmetry for dynamics (positions and initial velocities):
 Subroutine PRICEL returns:
 Original cell was already a primitive cell.

[...]

The dynamic configuration has the point symmetry C_1 .

Analysis of structural, dynamic, and magnetic symmetry:
 Subroutine PRICEL returns:
 Original cell was already a primitive cell.

 Routine SETGRP: Setting up the symmetry group for a
 triclinic supercell.

 Subroutine GETGRP returns: Found  1 space group operations
 (whereof  1 operations were pure point group operations)
 out of a pool of  2 trial point group operations.

The magnetic configuration has the point symmetry C_1 .

 Subroutine INISYM returns: Found  1 space group operations
 (whereof  1 operations are pure point group operations),
 and found     1 'primitive' translations

 KPOINTS: Automatic mesh

Automatic generation of k-mesh.
Space group operators:
 irot       det(A)        alpha          n_x          n_y          n_z        tau_x        tau_y        tau_z
    1     1.000000     0.000001     1.000000     0.000000     0.000000     0.000000     0.000000     0.000000

 Subroutine IBZKPT returns following result:

 Found      1 irreducible k-points:

 Following reciprocal coordinates:
            Coordinates               Weight
  0.000000  0.000000  0.000000      1.000000

 Following cartesian coordinates:
            Coordinates               Weight
  0.000000  0.000000  0.000000      1.000000

 SYSTEM =  unknown system
 POSCAR =  ce17486_1

 Startparameter for this run:
   NWRITE =      1    write-flag & timer
   PREC   = accura    normal or accurate (medium, high low for compatibility)
   ISTART =      0    job   : 0-new  1-cont  2-samecut
   ICHARG =      2    charge: 1-file 2-atom 10-const
   ISPIN  =      2    spin polarized calculation?
   LNONCOLLINEAR =      F non collinear calculations
   LSORBIT =      F    spin-orbit coupling
   INIWAV =      1    electr: 0-lowe 1-rand  2-diag
   LASPH  =      F    aspherical Exc in radial PAW
   METAGGA=      F    non-selfconsistent MetaGGA calc.

 Electronic Relaxation 1
   ENCUT  =  500.0 eV  36.75 Ry    6.06 a.u.  10.14 18.47 17.79*2*pi/ulx,y,z
   ENINI  =  500.0     initial cutoff
   ENAUG  =  628.9 eV  augmentation charge cutoff
   NELM   =     80;   NELMIN=  2; NELMDL= -5     # of ELM steps
   EDIFF  = 0.1E-04   stopping-criterion for ELM
   LREAL  =      T    real-space projection
   NLSPLINE    = F    spline interpolate recip. space projectors
   LCOMPAT=      F    compatible to vasp.4.4
   GGA_COMPAT  = T    GGA compatible to vasp.4.4-vasp.4.6
   LMAXPAW     = -100 max onsite density
   LMAXMIX     =    2 max onsite mixed and CHGCAR
   VOSKOWN=      1    Vosko Wilk Nusair interpolation
   ROPT   =   -0.00025  -0.00025  -0.00025
 Ionic relaxation
   EDIFFG = -.2E-01   stopping-criterion for IOM
   NSW    =     20    number of steps for IOM
   NBLOCK =      1;   KBLOCK =     20    inner block; outer block
[...]
   -.557E+01 0.859E-01 0.414E+01   0.704E+01 -.756E-01 -.412E+01   -.143E+01 -.904E-02 -.290E-01   -.852E-02 -.235E-02 -.144E-02
   -.701E+01 0.676E-01 -.125E+01   0.694E+01 -.612E-01 0.124E+01   0.706E-01 -.481E-02 0.934E-02   -.195E-02 -.228E-02 -.160E-02
   0.810E+01 -.191E+01 0.329E+01   -.869E+01 0.196E+01 -.320E+01   0.567E+00 -.641E-01 -.820E-01   0.115E-01 0.383E-02 0.301E-03
   -.243E+01 0.248E+02 -.762E+01   0.232E+01 -.251E+02 0.741E+01   0.143E+00 0.349E+00 0.212E+00   -.291E-01 0.438E-02 -.881E-02
   -.335E+02 -.144E-01 -.455E+02   0.341E+02 0.200E-01 0.464E+02   -.501E+00 0.904E-03 -.844E+00   -.367E-01 -.310E-02 -.267E-01
   -.353E+01 0.854E-02 0.130E+03   0.417E+01 -.759E-02 -.133E+03   -.689E+00 -.172E-02 0.198E+01   0.415E-01 -.962E-03 0.418E-01
   -.189E+02 0.169E-02 0.852E+02   0.197E+02 -.231E-02 -.872E+02   -.746E+00 0.138E-02 0.187E+01   0.342E-01 0.744E-03 0.433E-01
   -.140E+02 -.453E-02 0.145E+02   0.143E+02 -.629E-03 -.141E+02   -.240E+00 0.104E-02 -.318E+00   -.322E-01 0.273E-02 -.282E-01
   -.251E+01 -.248E+02 -.726E+01   0.241E+01 0.252E+02 0.705E+01   0.143E+00 -.351E+00 0.219E+00   -.298E-01 -.426E-02 -.931E-02
   0.384E+02 -.307E+01 0.545E+02   -.392E+02 0.301E+01 -.559E+02   0.741E+00 0.645E-01 0.137E+01   0.407E-01 -.511E-02 0.243E-01
   0.384E+02 0.307E+01 0.548E+02   -.392E+02 -.302E+01 -.562E+02   0.743E+00 -.654E-01 0.138E+01   0.413E-01 0.561E-02 0.240E-01
   0.315E+01 -.354E+01 0.921E+01   -.303E+01 0.355E+01 -.898E+01   -.129E+00 0.374E-01 -.230E+00   0.768E-02 -.323E-01 0.378E-02
   0.641E+02 -.537E-01 -.380E+02   -.657E+02 0.670E-01 0.393E+02   0.157E+01 0.211E-02 -.127E+01   0.492E-01 -.115E-01 0.754E-03
   -.218E+02 -.272E-01 -.889E+02   0.220E+02 0.401E-01 0.899E+02   -.224E+00 0.724E-03 -.918E+00   -.487E-01 -.105E-01 -.844E-02
   -.375E+01 0.153E-01 -.127E+02   0.368E+01 -.284E-01 0.127E+02   0.119E+00 0.475E-03 -.229E-01   -.462E-01 0.104E-01 -.122E-01
   0.437E+02 0.677E-01 -.101E+03   -.449E+02 -.818E-01 0.102E+03   0.116E+01 0.411E-03 -.174E+01   0.528E-01 0.112E-01 0.376E-03
   0.320E+01 0.358E+01 0.903E+01   -.308E+01 -.358E+01 -.880E+01   -.129E+00 -.367E-01 -.231E+00   0.651E-02 0.327E-01 0.380E-02
   -.449E+02 0.236E+02 -.303E+02   0.459E+02 -.239E+02 0.312E+02   -.916E+00 0.347E+00 -.792E+00   -.268E-01 -.322E-01 -.267E-01
   -.449E+02 -.236E+02 -.303E+02   0.458E+02 0.239E+02 0.311E+02   -.913E+00 -.348E+00 -.788E+00   -.273E-01 0.324E-01 -.269E-01
   0.786E+02 0.182E+01 0.348E+03   -.836E+02 -.226E+01 -.368E+03   0.501E+01 0.491E+00 0.199E+02   0.301E-01 -.547E-01 -.957E-05
   -.455E+01 0.250E+01 -.396E+03   0.498E+01 -.328E+01 0.424E+03   -.422E+00 0.774E+00 -.276E+02   -.850E-02 0.547E-02 0.958E-02
   -.154E+01 0.333E+01 -.383E+03   0.271E+01 -.387E+01 0.409E+03   -.116E+01 0.565E+00 -.256E+02   -.204E-01 -.227E-01 0.461E-02
   0.214E+02 0.124E+01 0.414E+03   -.226E+02 -.174E+01 -.442E+03   0.118E+01 0.473E+00 0.273E+02   0.436E-01 0.187E-01 0.183E-01
   -.472E+01 -.772E-01 0.321E+03   0.474E+01 0.999E-01 -.337E+03   -.724E-01 -.879E-02 0.162E+02   0.480E-01 -.143E-01 0.194E-02
   -.637E+02 0.838E-01 -.380E+03   0.681E+02 -.732E-01 0.401E+03   -.436E+01 0.431E-02 -.212E+02   -.282E-01 -.154E-01 -.285E-01
   -.399E+02 0.636E-01 -.395E+03   0.420E+02 -.872E-01 0.421E+03   -.206E+01 0.935E-02 -.256E+02   -.494E-01 0.154E-01 -.228E-01
   -.210E+02 0.879E-01 0.327E+03   0.220E+02 -.117E+00 -.346E+03   -.102E+01 0.158E-01 0.185E+02   0.102E-02 0.143E-01 0.318E-01
   -.553E+02 0.176E+00 -.363E+03   0.592E+02 -.181E+00 0.384E+03   -.385E+01 0.133E-01 -.202E+02   -.307E-01 -.872E-02 0.877E-03
   0.393E+02 0.377E-01 0.370E+03   -.425E+02 -.331E-01 -.391E+03   0.326E+01 0.344E-02 0.212E+02   -.270E-01 -.895E-02 0.178E-01
   0.128E+02 -.133E+00 0.388E+03   -.134E+02 0.134E+00 -.414E+03   0.637E+00 -.941E-02 0.259E+02   -.296E-02 0.922E-02 0.382E-02
   -.312E+02 -.279E-01 -.391E+03   0.327E+02 0.165E-01 0.417E+03   -.144E+01 0.278E-02 -.265E+02   -.646E-02 0.889E-02 -.835E-02
   0.786E+02 -.195E+01 0.348E+03   -.836E+02 0.240E+01 -.367E+03   0.502E+01 -.504E+00 0.198E+02   0.306E-01 0.547E-01 -.347E-02
   -.447E+01 -.240E+01 -.396E+03   0.488E+01 0.317E+01 0.424E+03   -.409E+00 -.768E+00 -.276E+02   -.925E-02 -.542E-02 0.132E-01
   -.152E+01 -.322E+01 -.383E+03   0.268E+01 0.376E+01 0.409E+03   -.115E+01 -.558E+00 -.256E+02   -.142E-01 0.222E-01 0.172E-02
   0.214E+02 -.138E+01 0.414E+03   -.227E+02 0.189E+01 -.442E+03   0.118E+01 -.485E+00 0.273E+02   0.377E-01 -.184E-01 0.209E-01
   -.305E+02 0.323E+02 0.339E+03   0.311E+02 -.347E+02 -.359E+03   -.565E+00 0.238E+01 0.202E+02   -.523E-01 0.532E-02 -.274E-02
   0.100E+02 0.304E+02 -.381E+03   -.104E+02 -.324E+02 0.404E+03   0.323E+00 0.208E+01 -.229E+02   0.356E-01 -.533E-01 -.108E-01
   -.322E+02 0.222E+02 -.327E+03   0.339E+02 -.233E+02 0.346E+03   -.174E+01 0.109E+01 -.185E+02   -.990E-02 0.186E-01 -.145E-01
   -.286E+02 0.297E+02 0.359E+03   0.301E+02 -.317E+02 -.382E+03   -.152E+01 0.195E+01 0.228E+02   -.187E-01 -.214E-01 -.226E-02
   -.525E+01 -.309E-01 0.383E+03   0.517E+01 0.402E-01 -.410E+03   0.868E-01 -.455E-02 0.267E+02   -.128E-01 -.471E-02 -.145E-01
   0.167E+02 0.438E-01 -.381E+03   -.165E+02 -.408E-01 0.407E+03   -.158E+00 0.186E-02 -.258E+02   -.748E-02 -.477E-02 0.323E-01
   0.114E+02 0.430E-01 -.385E+03   -.116E+02 -.517E-01 0.411E+03   0.204E+00 0.392E-02 -.259E+02   0.467E-01 0.480E-02 0.177E-02
   0.126E+01 -.790E-01 0.390E+03   -.112E+01 0.774E-01 -.417E+03   -.148E+00 -.269E-02 0.270E+02   0.701E-02 0.486E-02 -.169E-01
   0.435E+02 0.860E-01 -.312E+03   -.449E+02 -.101E+00 0.329E+03   0.136E+01 0.121E-01 -.173E+02   0.573E-01 0.390E-02 0.202E-02
   0.894E+01 -.595E-01 0.392E+03   -.104E+02 0.578E-01 -.418E+03   0.145E+01 -.198E-02 0.261E+02   -.277E-02 0.450E-02 -.194E-01
   0.173E+02 -.611E-01 0.397E+03   -.188E+02 0.712E-01 -.423E+03   0.155E+01 -.603E-02 0.264E+02   -.268E-01 -.425E-02 -.916E-02
   0.405E+02 -.252E-01 -.313E+03   -.423E+02 0.373E-01 0.330E+03   0.174E+01 -.825E-02 -.170E+02   0.347E-01 -.390E-02 0.167E-01
   -.305E+02 -.325E+02 0.339E+03   0.311E+02 0.349E+02 -.359E+03   -.567E+00 -.239E+01 0.202E+02   -.392E-01 -.619E-02 -.101E-01
   0.101E+02 -.303E+02 -.381E+03   -.105E+02 0.323E+02 0.404E+03   0.331E+00 -.207E+01 -.229E+02   0.232E-01 0.523E-01 -.346E-02
   -.319E+02 -.221E+02 -.327E+03   0.336E+02 0.232E+02 0.346E+03   -.170E+01 -.109E+01 -.185E+02   -.186E-01 -.191E-01 -.117E-01
   -.287E+02 -.298E+02 0.359E+03   0.302E+02 0.318E+02 -.382E+03   -.154E+01 -.196E+01 0.228E+02   -.974E-02 0.209E-01 -.488E-02
   0.639E+00 0.255E-01 0.106E+01   0.185E-12 -.888E-13 -.568E-13   -.662E+00 -.135E-01 -.106E+01   0.114E-01 -.664E-02 -.118E-01

 POSITION                                       TOTAL-FORCE (eV/Angst)
      6.26147      5.55149      2.41677        -0.017775      0.002592      0.006852
     -0.54053      1.39747      2.39887         0.035895     -0.001202     -0.003417
     -2.66293      1.39547      7.14841         0.001217     -0.000786     -0.005599
      6.25439      2.80023      2.41663        -0.016326     -0.002706      0.007114
      0.01358      5.55743      0.00570         0.007344     -0.006007     -0.004335
      2.43919      1.39262      0.04555         0.014299      0.003309     -0.002231
      3.74735      1.39391      9.47461        -0.007589     -0.001843     -0.004237
      3.75649      4.17707      9.50753        -0.003922      0.001393     -0.003172
     -1.12473      4.17718      9.50809         0.010244     -0.001487     -0.002163
      0.01364      2.79445      0.00500         0.008725      0.006010     -0.003962
      1.32569      5.56607      9.51932        -0.007478      0.002740     -0.007707
      1.32572      2.78808      9.51873        -0.008755     -0.003939     -0.007676
      3.07868      5.56660      4.78657        -0.002849      0.010480      0.003173
      5.53063      1.39422      4.82235         0.000166      0.003884      0.000077
      0.67760      1.39432      4.82304        -0.002686      0.003003      0.004438
      0.67161      4.17772      4.76481        -0.003107     -0.002325      0.003070
      5.53425      4.17767      4.86898        -0.009571     -0.002485      0.000844
      3.07856      2.78852      4.78632        -0.002451     -0.011021      0.003587
      7.95626      5.56299      4.79922         0.007874      0.017409      0.010054
      7.95618      2.79245      4.79884         0.007955     -0.015881      0.009847
      4.80685      5.55295      3.87412        -0.008671     -0.003901     -0.000507
      1.44016      5.54828      5.72804        -0.001547     -0.000408      0.000416
      3.20943      5.54998      0.94458        -0.003143      0.000168     -0.010876
      2.98695      5.55650      8.55653         0.008189     -0.000837      0.024335
      7.20079      1.39465      3.79110        -0.010644     -0.000441     -0.001271
     -1.07306      1.39428      5.71174        -0.008602     -0.000687     -0.015598
     -1.03013      4.17759      5.67346        -0.007468      0.001126     -0.012156
      7.17120      4.17780      3.83406        -0.012092      0.001031     -0.007862
      0.75437      1.39261      0.97247         0.010033     -0.000283     -0.012776
      5.48192      1.39410      8.60464        -0.009437     -0.000988      0.003861
      5.44792      4.17737      8.63005        -0.007558      0.000654      0.007681
      0.76889      4.17568      0.94900         0.007257      0.000156     -0.013433
      4.80626      2.80245      3.87399        -0.007893      0.003866      0.000694
      1.44026      2.80673      5.72790        -0.001754      0.000208     -0.000431
      3.20950      2.80166      0.94416        -0.003694     -0.000202     -0.012118
      2.98703      2.79787      8.55615         0.007928      0.000069      0.023475
     -0.10062      0.03317      3.84421        -0.004959      0.000765      0.001030
      6.31091      0.03091      5.78345         0.000674     -0.003099     -0.009212
      8.04132      0.02724      0.97497         0.015361     -0.001171      0.008857
     -1.89693      0.02825      8.58024        -0.001957     -0.000630     -0.011253
      2.30507      1.39445      3.85732        -0.005744     -0.000103      0.004205
      3.85080      1.39406      5.71298        -0.006739      0.000006     -0.003122
      3.84164      4.17746      5.72445         0.003274     -0.000042     -0.002194
      2.31726      4.17763      3.84655        -0.004141      0.000419     -0.001143
      5.67396      1.39251      0.97508         0.007172      0.000437      0.011829
      0.53825      1.39385      8.60898         0.010817      0.000762      0.008544
      0.55964      4.17725      8.59464         0.009964     -0.000269      0.008279
      5.67484      4.17575      0.98282         0.004647     -0.000223      0.016695
     -0.10046      2.75603      3.84475        -0.003051     -0.000860      0.001540
      6.31080      2.75759      5.78387        -0.001160      0.002661     -0.009946
      8.04174      2.75786      0.97525         0.014864      0.000680      0.009044
     -1.89667      2.75982      8.58047        -0.001136     -0.000003     -0.011144
    total drift:                               -0.011374      0.005394     -0.012483

  FREE ENERGIE OF THE ION-ELECTRON SYSTEM (eV)
  free  energy   TOTEN  =      -324.2230031092 eV

  energy  without entropy=     -324.2230008107  energy(sigma->0) =     -324.22300196

 d Force = 0.1851973E-03[ 0.943E-04, 0.276E-03]  d Energy = 0.1909448E-03-0.575E-05
 d Force = 0.1839227E+00[ 0.183E+00, 0.185E+00]  d Ewald  =-0.5379314E-01 0.238E+00

 Quasi-Newton relaxation of ions (Broydens 2nd method)
  g(Force)  = 0.468E-03   g(Stress)= 0.763E-04

 retain information from N=  2 steps
 eigenvalues of (default step * inverse Hessian matrix)
  average eigenvalue of G=   4.0124
 eigenvalue spectrum of G is  0.1831  7.8416

volume of typ            1:     6.0 %

[...]

volume of typ            3:    10.1 %

total charge

# of ion       s       p       d       tot
    1        2.072   0.221   0.083   2.376
    2        2.075   0.231   0.089   2.396
    3        2.069   0.213   0.082   2.364
    4        2.072   0.221   0.083   2.377
    5        0.296   0.418   7.844   8.559
    6        0.296   0.418   7.837   8.551
    7        0.293   0.413   7.843   8.549
    8        0.293   0.409   7.840   8.542
    9        0.293   0.408   7.830   8.531
   10        0.296   0.418   7.845   8.559
   11        0.292   0.405   7.840   8.537
   12        0.292   0.405   7.840   8.537
   13        0.295   0.415   7.832   8.543
   14        0.296   0.416   7.854   8.567
   15        0.295   0.414   7.842   8.550
   16        0.294   0.410   7.830   8.534
   17        0.292   0.409   7.841   8.542
   18        0.295   0.416   7.832   8.543
   19        0.291   0.406   7.846   8.544
   20        0.291   0.406   7.847   8.545
   21        1.273   2.761   0.007   4.041
   22        1.286   2.720   0.009   4.014
   23        1.285   2.725   0.008   4.019
   24        1.285   2.720   0.008   4.014
   25        1.260   2.788   0.006   4.054
   26        1.277   2.746   0.007   4.030
   27        1.286   2.723   0.008   4.017
   28        1.263   2.783   0.007   4.052
   29        1.269   2.774   0.007   4.050
   30        1.275   2.753   0.007   4.036
   31        1.284   2.729   0.008   4.022
   32        1.283   2.731   0.008   4.022
   33        1.273   2.762   0.007   4.042
   34        1.286   2.720   0.009   4.014
   35        1.285   2.725   0.008   4.019
   36        1.285   2.720   0.008   4.014
   37        1.271   2.766   0.007   4.045
   38        1.273   2.758   0.008   4.038
   39        1.269   2.767   0.007   4.043
   40        1.273   2.757   0.008   4.038
   41        1.284   2.728   0.008   4.020
   42        1.286   2.724   0.008   4.018
   43        1.286   2.724   0.008   4.019
   44        1.284   2.728   0.009   4.021
   45        1.261   2.790   0.007   4.057
   46        1.287   2.718   0.008   4.013
   47        1.287   2.718   0.008   4.014
   48        1.260   2.795   0.007   4.061
   49        1.271   2.766   0.007   4.045
   50        1.273   2.758   0.008   4.038
   51        1.269   2.767   0.007   4.044
   52        1.273   2.758   0.008   4.038
tot          53.86   95.37  126.03  275.26

magnetization (x)

# of ion       s       p       d       tot
    1        0.000   0.000  -0.000   0.000
    2        0.000  -0.000  -0.000   0.000
    3       -0.000  -0.000  -0.000  -0.000
    4        0.000   0.000  -0.000   0.000
    5        0.000  -0.000   0.000   0.000
    6       -0.000   0.000  -0.000  -0.000
    7       -0.000   0.000  -0.000  -0.000
    8       -0.000   0.000  -0.000  -0.000
    9       -0.000   0.000  -0.000  -0.000
   10        0.000  -0.000   0.000   0.000
   11        0.000  -0.000   0.000   0.000
   12        0.000  -0.000   0.000   0.000
   13       -0.000   0.000  -0.000  -0.000
   14        0.000  -0.000   0.000   0.000
   15        0.000  -0.000   0.000   0.000
   16        0.000  -0.000   0.000   0.000
   17        0.000  -0.000   0.000   0.000
   18       -0.000   0.000  -0.000  -0.000
   19       -0.000   0.000  -0.000  -0.000
   20       -0.000   0.000  -0.000  -0.000
   21        0.000   0.000  -0.000   0.000
   22        0.000  -0.000  -0.000  -0.000
   23       -0.000   0.000   0.000   0.000
   24       -0.000  -0.000   0.000  -0.000
   25        0.000   0.000   0.000   0.000
   26       -0.000  -0.000   0.000  -0.000
   27        0.000   0.000   0.000   0.000
   28       -0.000   0.000   0.000   0.000
   29        0.000   0.000  -0.000   0.000
   30       -0.000  -0.000  -0.000  -0.000
   31        0.000   0.000  -0.000   0.000
   32       -0.000  -0.000  -0.000  -0.000
   33        0.000   0.000  -0.000   0.000
   34        0.000  -0.000  -0.000  -0.000
   35       -0.000   0.000   0.000   0.000
   36       -0.000  -0.000   0.000  -0.000
   37       -0.000  -0.000  -0.000  -0.000
   38        0.000  -0.000  -0.000  -0.000
   39       -0.000   0.000   0.000   0.000
   40       -0.000   0.000   0.000   0.000
   41        0.000   0.000   0.000   0.000
   42        0.000   0.000   0.000   0.000
   43       -0.000  -0.000   0.000  -0.000
   44        0.000   0.000   0.000   0.000
   45       -0.000  -0.000  -0.000  -0.000
   46        0.000   0.000  -0.000   0.000
   47       -0.000  -0.000  -0.000  -0.000
   48        0.000  -0.000  -0.000   0.000
   49       -0.000  -0.000  -0.000  -0.000
   50        0.000  -0.000  -0.000  -0.000
   51       -0.000   0.000   0.000   0.000
   52       -0.000   0.000   0.000   0.000
tot          -0.00   -0.00   -0.00   -0.00