 vasp.5.4.4.18Apr17-6-g9f103f2a35 (build May 12 2020 05:39:39) gamma-only

 MD_VERSION_INFO: Compiled 2020-05-12T12:39:39-UTC in devlin.sd.materialsdesign.
 com:/home/medea2/data/build/wwolf/vasp-gpu5.4.4/13047/x86_64/src/src/build/gam
 from svn 13047

 executed on                        Lin64 date 2023.03.07  00:59:47

 INCAR:
 POTCAR:    PAW_PBE Li_sv 10Sep2004
 POTCAR:    PAW_PBE Ni 02Aug2007
 POTCAR:    PAW_PBE O 08Apr2002

 POTCAR:    PAW_PBE Li_sv 10Sep2004

 POTCAR:    PAW_PBE Ni 02Aug2007

 POTCAR:    PAW_PBE O 08Apr2002

 Optimization of the real space projectors (new method)

 maximal supplied QI-value         = 22.11
 optimisation between [QCUT,QGAM] = [ 11.28, 22.77] = [ 35.61,145.23] Ry
 Optimized for a Real-space Cutoff    1.10 Angstroem

   l    n(q)    QCUT    max X(q) W(low)/X(q) W(high)/X(q)  e(spline)
   0      7    11.276    10.506    0.54E-04    0.58E-04    0.16E-07
   0      7    11.276     8.367    0.11E-03    0.14E-03    0.35E-07
   1      7    11.276     8.983    0.23E-03    0.43E-03    0.86E-07
 Optimization of the real space projectors (new method)

[...]

   l    n(q)    QCUT    max X(q) W(low)/X(q) W(high)/X(q)  e(spline)
   2      9    11.376    60.317    0.17E-03    0.16E-04    0.16E-06
   2      9    11.376    55.921    0.17E-03    0.16E-04    0.17E-06
   0     10    11.376    51.690    0.45E-04    0.60E-04    0.21E-06
   0     10    11.376    30.015    0.37E-04    0.55E-04    0.19E-06
   1     10    11.376    18.849    0.83E-04    0.11E-03    0.92E-07
   1     10    11.376    14.624    0.69E-04    0.92E-04    0.82E-07
 Optimization of the real space projectors (new method)

 maximal supplied QI-value         = 24.76
 optimisation between [QCUT,QGAM] = [ 11.39, 22.77] = [ 36.31,145.25] Ry
 Optimized for a Real-space Cutoff    1.10 Angstroem

   l    n(q)    QCUT    max X(q) W(low)/X(q) W(high)/X(q)  e(spline)
   0      7    11.387    20.381    0.22E-03    0.48E-03    0.18E-06
   0      7    11.387    15.268    0.22E-03    0.52E-03    0.19E-06
   1      7    11.387     5.964    0.22E-03    0.73E-03    0.24E-06
   1      7    11.387     5.382    0.19E-03    0.60E-03    0.21E-06

  PAW_PBE Li_sv 10Sep2004               :
  PAW_PBE Ni 02Aug2007                  :
  PAW_PBE O 08Apr2002                   :

 POSCAR: ce17115_1
  positions in direct lattice
 exchange correlation table for  LEXCH =       14
   RHO(1)=    0.500       N(1)  =     2000
   RHO(2)=  100.500       N(2)  =     4000

 ion  position               nearest neighbor table
   1  0.250  0.251  0.497-  42 2.07  36 2.14  24 2.14  34 2.18  22 2.18  46 2.19
   2  0.999  0.747  0.268-  23 2.03  48 2.08  47 2.08  28 2.17  27 2.20  12 2.77
   3  0.252  0.747  0.968-  31 1.94  51 2.04  39 2.05  15 2.70
   4  0.749  0.250  1.000-  33 2.11  50 2.13  38 2.14  29 2.16  52 2.16  40 2.17
   5  0.501  0.747  0.269-  35 2.03  48 2.07  47 2.08  28 2.18  27 2.20  13 2.77
   6  0.999  0.999  0.999-  33 1.84  31 1.84  32 1.84  30 1.85  40 1.89  41 1.94  11 2.77  11 2.78
                             8 2.80   9 2.80   7 2.82  10 2.82
   7  0.250  0.002  0.250-  24 1.84  36 1.85  41 1.85  53 1.85  30 1.92  47 1.95  10 2.78  10 2.78
                             6 2.82  11 2.82  12 2.82  13 2.82
   8  0.250  1.000  0.751-  37 1.84  25 1.84  52 1.86  40 1.86  31 1.97  46 1.97   9 2.78   9 2.78
                            11 2.80   6 2.80  13 2.82  12 2.82
   9  0.750  0.995  0.748-  25 1.84  37 1.84  40 1.85  52 1.85  32 1.91  49 1.92   8 2.78   8 2.78
                             6 2.80  11 2.80  12 2.81  13 2.81
  10  0.750  0.005  0.252-  24 1.86  36 1.86  53 1.86  41 1.87  48 1.99  33 1.99   7 2.78   7 2.78
                            13 2.81  12 2.81  11 2.82   6 2.82
  11  0.500  0.999  0.999-  33 1.84  31 1.84  32 1.84  30 1.85  52 1.89  53 1.94   6 2.77   6 2.78
                             8 2.80   9 2.80   7 2.82  10 2.82
  12  1.000  0.995  0.498-  49 1.84  46 1.84  48 1.86  47 1.87  25 1.90  24 1.93   2 2.77  13 2.77
                            13 2.78   9 2.81  10 2.81   8 2.82   7 2.82
  13  0.501  0.995  0.498-  49 1.84  46 1.84  48 1.86  47 1.87  37 1.90  36 1.92   5 2.77  12 2.77
                            12 2.78  10 2.81   9 2.81   8 2.82   7 2.82
  14  0.999  0.504  0.503-  44 1.83  42 1.84  43 1.85  45 1.85  22 1.90  23 1.94  19 2.77  19 2.78
                            18 2.78  15 2.79  17 2.83  16 2.84
  15  0.250  0.502  0.749-  34 1.84  22 1.84  51 1.85  39 1.85  43 1.89  26 1.92   3 2.70  18 2.77
                            18 2.78  19 2.79  14 2.79  21 2.83  20 2.83
  16  0.250  0.492  0.247-  23 1.85  35 1.85  38 1.85  50 1.85  42 2.00  27 2.07  17 2.78  17 2.78
                            20 2.80  21 2.80  19 2.84  14 2.84
  17  0.750  0.497  0.249-  50 1.85  38 1.85  23 1.85  35 1.85  45 1.89  28 1.92  16 2.78  16 2.78
                            21 2.81  20 2.81  14 2.83  19 2.83
  18  0.750  0.502  0.749-  22 1.85  34 1.85  51 1.86  39 1.86  44 1.93  29 1.99  15 2.77  15 2.78
                            14 2.78  19 2.78  20 2.83  21 2.83
  19  0.501  0.504  0.503-  44 1.83  42 1.84  43 1.85  45 1.85  34 1.90  35 1.94  14 2.77  14 2.78
                            18 2.78  15 2.79  17 2.83  16 2.84
  20  0.000  0.504  0.002-  29 1.84  26 1.85  27 1.86  28 1.87  38 1.92  39 1.92  21 2.77  21 2.78
                            16 2.80  17 2.81  15 2.83  18 2.83
  21  0.500  0.504  0.002-  29 1.84  26 1.85  27 1.86  28 1.88  50 1.92  51 1.92  20 2.77  20 2.78
                            16 2.80  17 2.81  15 2.83  18 2.83
  22  0.001  0.404  0.635-  15 1.84  18 1.85  14 1.90   1 2.18
  23  0.003  0.595  0.359-  16 1.85  17 1.85  14 1.94   2 2.03
  24  0.003  0.099  0.367-   7 1.84  10 1.86  12 1.93   1 2.14
  25  0.003  0.901  0.636-   8 1.84   9 1.84  12 1.90
  26  0.250  0.407  0.888-  20 1.85  21 1.85  15 1.92
  27  0.250  0.610  0.111-  21 1.86  20 1.86  16 2.07   2 2.20   5 2.20
  28  0.750  0.604  0.121-  20 1.87  21 1.88  17 1.92   2 2.17   5 2.18
  29  0.750  0.404  0.894-  21 1.84  20 1.84  18 1.99   4 2.16
  30  0.250  0.098  0.111-   6 1.85  11 1.85   7 1.92
  31  0.250  0.899  0.890-   6 1.84  11 1.84   3 1.94   8 1.97
  32  0.750  0.901  0.887-   6 1.84  11 1.84   9 1.91
  33  0.750  0.101  0.106-   6 1.84  11 1.84  10 1.99   4 2.11
  34  0.499  0.404  0.635-  15 1.84  18 1.85  19 1.90   1 2.18
  35  0.497  0.595  0.359-  16 1.85  17 1.85  19 1.94   5 2.03
  36  0.497  0.099  0.367-   7 1.85  10 1.86  13 1.92   1 2.14
  37  0.497  0.901  0.636-   8 1.84   9 1.84  13 1.90
  38  0.997  0.399  0.132-  17 1.85  16 1.85  20 1.92   4 2.14
  39  0.001  0.600  0.863-  15 1.85  18 1.86  20 1.92   3 2.05
  40  0.996  0.096  0.864-   9 1.85   8 1.86   6 1.89   4 2.17
  41  0.000  0.902  0.138-   7 1.85  10 1.87   6 1.94
  42  0.250  0.401  0.398-  14 1.84  19 1.84  16 2.00   1 2.07
  43  0.250  0.601  0.618-  19 1.85  14 1.85  15 1.89
  44  0.750  0.602  0.614-  14 1.83  19 1.83  18 1.93
  45  0.750  0.406  0.389-  19 1.85  14 1.85  17 1.89
  46  0.250  0.096  0.606-  12 1.84  13 1.84   8 1.97   1 2.19
  47  0.250  0.895  0.381-  12 1.87  13 1.87   7 1.95   5 2.08   2 2.08
  48  0.750  0.894  0.384-  12 1.86  13 1.86  10 1.99   5 2.07   2 2.08
  49  0.750  0.093  0.611-  12 1.84  13 1.84   9 1.92
  50  0.503  0.399  0.132-  17 1.85  16 1.85  21 1.92   4 2.13
  51  0.499  0.600  0.863-  15 1.85  18 1.86  21 1.92   3 2.04
  52  0.504  0.096  0.864-   9 1.85   8 1.86  11 1.89   4 2.16
  53  0.500  0.902  0.138-   7 1.85  10 1.86  11 1.94

  LATTYP: Found a triclinic cell.
 ALAT       =    11.6309686105
 B/A-ratio  =     0.4771854437
 C/A-ratio  =     0.8414433906
 COS(alpha) =     0.0000402945
 COS(beta)  =     0.2956929083
 COS(gamma) =     0.4767475827

  Lattice vectors:

 A1 = (  -3.5335197878,   5.5477588501,   9.5924991775)
 A2 = (  -0.0000702251,   5.5501286858,  -0.0016010516)
 A3 = (  -9.7863288309,   0.0002427781,  -0.0962017011)

Analysis of symmetry for initial positions (statically):
 Subroutine PRICEL returns:
 Original cell was already a primitive cell.

 Routine SETGRP: Setting up the symmetry group for a
 triclinic supercell.

 Subroutine GETGRP returns: Found  1 space group operations
 (whereof  1 operations were pure point group operations)
 out of a pool of  2 trial point group operations.

The static configuration has the point symmetry C_1 .

Analysis of symmetry for dynamics (positions and initial velocities):
 Subroutine PRICEL returns:
 Original cell was already a primitive cell.

[...]

The dynamic configuration has the point symmetry C_1 .

Analysis of structural, dynamic, and magnetic symmetry:
 Subroutine PRICEL returns:
 Original cell was already a primitive cell.

 Routine SETGRP: Setting up the symmetry group for a
 triclinic supercell.

 Subroutine GETGRP returns: Found  1 space group operations
 (whereof  1 operations were pure point group operations)
 out of a pool of  2 trial point group operations.

The magnetic configuration has the point symmetry C_1 .

 Subroutine INISYM returns: Found  1 space group operations
 (whereof  1 operations are pure point group operations),
 and found     1 'primitive' translations

 KPOINTS: Automatic mesh

Automatic generation of k-mesh.
Space group operators:
 irot       det(A)        alpha          n_x          n_y          n_z        tau_x        tau_y        tau_z
    1     1.000000     0.000000     1.000000     0.000000     0.000000     0.000000     0.000000     0.000000

 Subroutine IBZKPT returns following result:

 Found      1 irreducible k-points:

 Following reciprocal coordinates:
            Coordinates               Weight
  0.000000  0.000000  0.000000      1.000000

 Following cartesian coordinates:
            Coordinates               Weight
  0.000000  0.000000  0.000000      1.000000

 SYSTEM =  unknown system
 POSCAR =  ce17115_1

 Startparameter for this run:
   NWRITE =      1    write-flag & timer
   PREC   = accura    normal or accurate (medium, high low for compatibility)
   ISTART =      0    job   : 0-new  1-cont  2-samecut
   ICHARG =      2    charge: 1-file 2-atom 10-const
   ISPIN  =      2    spin polarized calculation?
   LNONCOLLINEAR =      F non collinear calculations
   LSORBIT =      F    spin-orbit coupling
   INIWAV =      1    electr: 0-lowe 1-rand  2-diag
   LASPH  =      F    aspherical Exc in radial PAW
   METAGGA=      F    non-selfconsistent MetaGGA calc.

 Electronic Relaxation 1
   ENCUT  =  500.0 eV  36.75 Ry    6.06 a.u.  10.12 18.64 17.84*2*pi/ulx,y,z
   ENINI  =  500.0     initial cutoff
   ENAUG  =  628.9 eV  augmentation charge cutoff
   NELM   =     80;   NELMIN=  2; NELMDL= -5     # of ELM steps
   EDIFF  = 0.1E-04   stopping-criterion for ELM
   LREAL  =      T    real-space projection
   NLSPLINE    = F    spline interpolate recip. space projectors
   LCOMPAT=      F    compatible to vasp.4.4
   GGA_COMPAT  = T    GGA compatible to vasp.4.4-vasp.4.6
   LMAXPAW     = -100 max onsite density
   LMAXMIX     =    2 max onsite mixed and CHGCAR
   VOSKOWN=      1    Vosko Wilk Nusair interpolation
   ROPT   =   -0.00025  -0.00025  -0.00025
 Ionic relaxation
   EDIFFG = -.2E-01   stopping-criterion for IOM
   NSW    =     20    number of steps for IOM
[...]
   0.103E+02 -.773E-01 0.179E+01   -.101E+02 0.732E-01 -.180E+01   -.198E+00 0.566E-02 0.236E-01   0.984E-03 -.137E-03 -.113E-01
   -.469E+01 -.162E+01 -.560E+01   0.548E+01 0.163E+01 0.542E+01   -.769E+00 -.124E-01 0.165E+00   0.421E-02 -.135E-02 0.121E-01
   0.101E+02 -.324E+01 -.218E+02   -.102E+02 0.324E+01 0.221E+02   0.379E-01 0.712E-02 -.351E+00   -.177E-02 -.331E-02 0.123E-01
   0.196E+02 -.364E-01 -.889E+02   -.205E+02 0.383E-01 0.901E+02   0.862E+00 -.540E-03 -.113E+01   0.531E-02 -.114E-02 -.363E-02
   0.820E+01 0.845E-02 -.456E+02   -.827E+01 -.742E-02 0.453E+02   0.859E-01 -.840E-03 0.314E+00   -.236E-01 0.766E-05 0.416E-02
   0.271E+02 -.346E-01 0.141E+02   -.273E+02 0.342E-01 -.150E+02   0.257E+00 0.478E-03 0.953E+00   -.217E-01 -.473E-04 0.473E-02
   0.192E+02 0.305E-01 -.110E+03   -.198E+02 -.317E-01 0.111E+03   0.548E+00 0.137E-03 -.135E+01   0.342E-02 0.112E-02 -.253E-02
   0.102E+02 0.323E+01 -.223E+02   -.102E+02 -.323E+01 0.226E+02   0.381E-01 -.813E-02 -.358E+00   -.187E-02 0.280E-02 0.119E-01
   -.477E+02 0.113E+02 -.316E+02   0.485E+02 -.116E+02 0.320E+02   -.851E+00 0.258E+00 -.422E+00   -.106E-01 0.214E-02 0.849E-03
   -.477E+02 -.113E+02 -.319E+02   0.485E+02 0.116E+02 0.324E+02   -.853E+00 -.258E+00 -.429E+00   -.101E-01 -.217E-02 0.395E-03
   0.108E+02 0.143E+02 -.252E+02   -.114E+02 -.143E+02 0.258E+02   0.606E+00 0.550E-01 -.637E+00   0.255E-02 0.165E-02 -.428E-02
   0.432E+01 0.328E-01 0.514E+02   -.427E+01 -.333E-01 -.516E+02   -.379E-01 0.146E-03 0.206E+00   -.133E-01 0.356E-03 -.209E-02
   -.321E+02 0.396E-01 0.128E+03   0.334E+02 -.418E-01 -.130E+03   -.133E+01 0.131E-02 0.171E+01   0.287E-01 0.111E-02 -.381E-02
   -.569E+02 0.163E-01 0.772E+02   0.581E+02 -.153E-01 -.784E+02   -.120E+01 -.880E-04 0.121E+01   0.296E-01 -.658E-03 -.854E-03
   -.336E+01 -.171E-01 0.406E+02   0.344E+01 0.164E-01 -.402E+02   -.595E-01 0.134E-02 -.353E+00   -.136E-01 -.565E-03 0.108E-02
   0.107E+02 -.143E+02 -.250E+02   -.113E+02 0.144E+02 0.257E+02   0.606E+00 -.557E-01 -.638E+00   0.274E-02 -.142E-02 -.451E-02
   0.332E+02 0.184E+01 0.490E+02   -.337E+02 -.177E+01 -.498E+02   0.535E+00 -.742E-01 0.748E+00   0.114E-01 0.129E-02 0.835E-02
   0.331E+02 -.182E+01 0.490E+02   -.336E+02 0.174E+01 -.498E+02   0.531E+00 0.734E-01 0.747E+00   0.115E-01 -.131E-02 0.815E-02
   -.187E+02 0.321E+02 0.392E+03   0.193E+02 -.343E+02 -.415E+03   -.583E+00 0.220E+01 0.233E+02   -.161E-01 -.478E-02 -.195E-01
   -.623E+02 -.862E+01 -.337E+03   0.663E+02 0.958E+01 0.357E+03   -.400E+01 -.970E+00 -.198E+02   0.728E-02 0.104E-01 0.149E-01
   -.443E+01 0.338E+02 -.401E+03   0.504E+01 -.362E+02 0.424E+03   -.617E+00 0.236E+01 -.223E+02   0.619E-02 -.163E-02 -.156E-01
   -.131E+02 -.447E+01 0.378E+03   0.130E+02 0.498E+01 -.404E+03   0.961E-01 -.509E+00 0.259E+02   -.740E-02 0.509E-02 0.148E-01
   0.202E+02 0.117E+00 0.426E+03   -.209E+02 -.126E+00 -.451E+03   0.669E+00 0.750E-02 0.253E+02   -.249E-02 0.149E-02 -.291E-01
   -.197E+02 -.121E+00 -.308E+03   0.224E+02 0.130E+00 0.324E+03   -.271E+01 -.972E-02 -.160E+02   0.915E-02 0.104E-02 0.232E-01
   0.243E+02 0.382E-01 -.330E+03   -.263E+02 -.474E-01 0.348E+03   0.194E+01 0.985E-02 -.179E+02   0.912E-03 -.107E-02 0.265E-01
   0.668E+02 0.823E-01 0.396E+03   -.719E+02 -.874E-01 -.417E+03   0.513E+01 0.694E-02 0.214E+02   -.714E-02 -.142E-02 -.274E-01
   0.144E+01 -.233E-01 -.414E+03   -.134E+01 0.248E-01 0.439E+03   -.108E+00 -.967E-03 -.252E+02   0.789E-02 -.732E-03 -.115E-01
   0.674E+02 0.275E+00 0.350E+03   -.730E+02 -.296E+00 -.370E+03   0.554E+01 0.211E-01 0.202E+02   -.131E-02 -.343E-03 0.153E-01
   0.223E+02 -.184E-01 0.394E+03   -.224E+02 0.130E-01 -.420E+03   0.610E-01 0.492E-02 0.261E+02   0.212E-02 0.759E-03 0.124E-01
   -.486E+02 -.193E+00 -.387E+03   0.535E+02 0.208E+00 0.409E+03   -.486E+01 -.162E-01 -.215E+02   0.888E-02 0.503E-03 -.131E-01
   -.188E+02 -.320E+02 0.392E+03   0.195E+02 0.342E+02 -.415E+03   -.601E+00 -.220E+01 0.233E+02   -.164E-01 0.488E-02 -.194E-01
   -.623E+02 0.846E+01 -.337E+03   0.663E+02 -.941E+01 0.357E+03   -.401E+01 0.958E+00 -.197E+02   0.685E-02 -.107E-01 0.150E-01
   -.447E+01 -.339E+02 -.401E+03   0.507E+01 0.363E+02 0.424E+03   -.615E+00 -.236E+01 -.223E+02   0.653E-02 0.113E-02 -.156E-01
   -.131E+02 0.466E+01 0.378E+03   0.130E+02 -.517E+01 -.404E+03   0.100E+00 0.523E+00 0.259E+02   -.787E-02 -.477E-02 0.149E-01
   -.480E+01 -.310E+02 0.399E+03   0.431E+01 0.329E+02 -.421E+03   0.481E+00 -.193E+01 0.225E+02   0.113E-01 0.106E-01 -.201E-01
   0.272E+02 0.386E+02 -.342E+03   -.272E+02 -.416E+02 0.363E+03   0.451E-01 0.302E+01 -.209E+02   -.936E-02 -.589E-02 0.190E-01
   0.297E+02 -.310E+02 -.383E+03   -.309E+02 0.331E+02 0.406E+03   0.115E+01 -.214E+01 -.225E+02   -.107E-02 0.460E-02 -.168E-01
   0.320E+02 0.310E+02 0.328E+03   -.340E+02 -.332E+02 -.347E+03   0.196E+01 0.217E+01 0.194E+02   0.141E-01 -.153E-02 0.225E-01
   0.427E+02 0.126E+00 0.377E+03   -.475E+02 -.133E+00 -.397E+03   0.482E+01 0.690E-02 0.201E+02   -.159E-02 0.457E-03 -.705E-02
   0.658E+01 -.345E-01 -.398E+03   -.677E+01 0.385E-01 0.424E+03   0.217E+00 -.338E-02 -.264E+02   -.185E-01 -.364E-04 0.131E-01
   -.116E+02 -.108E+00 -.393E+03   0.127E+02 0.112E+00 0.420E+03   -.111E+01 -.287E-02 -.270E+02   -.117E-01 -.629E-03 0.106E-01
   -.769E+01 0.409E-01 0.400E+03   0.816E+01 -.436E-01 -.426E+03   -.471E+00 0.332E-02 0.252E+02   0.100E-01 -.303E-03 -.119E-01
   -.559E+02 -.942E-01 -.395E+03   0.603E+02 0.986E-01 0.417E+03   -.439E+01 -.462E-02 -.221E+02   -.380E-02 0.170E-03 -.232E-01
   -.396E+02 0.102E+00 0.322E+03   0.408E+02 -.112E+00 -.338E+03   -.116E+01 0.103E-01 0.164E+02   0.646E-02 0.193E-03 0.258E-01
   -.205E+02 0.432E-02 0.315E+03   0.197E+02 0.260E-02 -.331E+03   0.787E+00 -.730E-02 0.163E+02   0.478E-02 -.269E-04 0.270E-01
   -.162E+02 -.938E-01 -.413E+03   0.171E+02 0.103E+00 0.438E+03   -.927E+00 -.921E-02 -.256E+02   -.803E-02 -.201E-03 -.208E-01
   -.482E+01 0.312E+02 0.399E+03   0.434E+01 -.331E+02 -.421E+03   0.475E+00 0.195E+01 0.225E+02   0.103E-01 -.106E-01 -.195E-01
   0.272E+02 -.388E+02 -.342E+03   -.272E+02 0.419E+02 0.362E+03   0.529E-01 -.305E+01 -.209E+02   -.822E-02 0.602E-02 0.187E-01
   0.299E+02 0.309E+02 -.383E+03   -.310E+02 -.330E+02 0.406E+03   0.117E+01 0.213E+01 -.225E+02   -.226E-02 -.427E-02 -.161E-01
   0.316E+02 -.310E+02 0.328E+03   -.335E+02 0.332E+02 -.347E+03   0.191E+01 -.218E+01 0.194E+02   0.146E-01 0.976E-03 0.219E-01
   -.198E+00 0.139E-01 -.143E+01   -.327E-12 0.711E-14 -.568E-13   0.190E+00 -.887E-02 0.139E+01   0.102E-01 -.853E-03 0.541E-01

 POSITION                                       TOTAL-FORCE (eV/Angst)
      3.95141      1.38808      2.45745        -0.011207     -0.000211     -0.004266
      0.00097      5.54154      7.23322         0.019151      0.000881     -0.005429
      6.80461      1.39280      7.32122        -0.009751     -0.002532      0.003916
      8.88003      4.16234      2.50052        -0.005116      0.001352      0.003520
      0.00840      2.78438      7.23327         0.016997     -0.000259     -0.005746
      6.22500      5.54761      9.74021        -0.004637      0.000774      0.001261
      2.43722      1.38805      0.03242        -0.004382      0.000085     -0.003968
      3.79319      1.38624      9.72863        -0.004174      0.000121      0.003173
      3.79396      4.16287      9.68516        -0.004205      0.000007      0.002763
      2.43482      4.16465      0.05899        -0.004951     -0.000006     -0.004332
      6.22491      2.77796      9.74122        -0.004512     -0.000957      0.001030
      1.34848      5.54865      9.65061        -0.003517     -0.000250     -0.001137
      1.34836      2.77717      9.65156        -0.003414      0.000178     -0.001133
      3.14002      5.54963      4.90894         0.004246      0.000034     -0.001517
      5.55859      1.38761      4.91128         0.003596     -0.000076      0.001188
      0.67415      1.38737      4.77043         0.004066      0.000133     -0.001717
      0.68436      4.16408      4.82055         0.004606      0.000136     -0.001303
      5.55249      4.16432      4.91732         0.003435     -0.000011      0.002050
      3.14010      2.77860      4.90943         0.004314      0.000296     -0.001598
     -1.75868      0.00036      4.87324         0.002942     -0.000031      0.002913
     -1.75859      2.77490      4.87262         0.002898      0.000071      0.002787
      4.78467      0.00401      3.96647         0.003722     -0.000118     -0.000803
      1.41234      0.02117      5.77246         0.008254      0.000879     -0.001948
      3.22945      0.01500      0.97656        -0.002790     -0.000423     -0.005381
      3.03380      0.01586      8.76634        -0.005876      0.000281      0.001444
      7.24921      1.38736      4.01741         0.002660      0.000138      0.003725
     -1.06426      1.38780      5.89586         0.008861      0.000132      0.001862
     -0.94409      4.16435      5.83611         0.007334     -0.000474      0.004194
      7.31345      4.16391      3.98934         0.000319      0.000320      0.005396
      0.76320      1.38818      0.93727        -0.000353     -0.000307      0.001028
      5.51350      1.38610      8.77494        -0.008045     -0.000070      0.002487
      5.46200      4.16246      8.78715        -0.006792      0.000159      0.001718
      0.66923      4.16498      0.98181         0.000453     -0.000003      0.001843
      4.78450      2.77072      3.96576         0.003904      0.000588     -0.000763
      1.41289      2.75417      5.77151         0.008245     -0.000953     -0.002098
      3.22906      2.76162      0.97604        -0.002605      0.000359     -0.005404
      3.03372      2.75630      8.76586        -0.005677     -0.000155      0.001222
     -0.12017      5.53127      3.87427         0.001317      0.000446     -0.000937
      6.32444      0.00720      5.86821         0.003054     -0.000044      0.006227
      8.10373      5.53062      1.00695        -0.002770      0.000010      0.004238
     -1.84935      0.00158      8.72116        -0.010490      0.000121     -0.003095
      2.48356      1.38720      3.90367         0.002859      0.000195     -0.003294
      3.91194      1.38783      5.85150         0.004478      0.000438     -0.000586
      3.86705      4.16434      5.86006         0.004801      0.000118     -0.000215
      2.37138      4.16391      3.95378         0.004392      0.000281     -0.003732
      5.57566      1.38822      0.98108        -0.003071     -0.000120      0.001003
      0.54164      1.38619      8.67888        -0.004408      0.000243     -0.004904
      0.60036      4.16265      8.66988        -0.005402     -0.000490     -0.004091
      5.65443      4.16499      0.93512        -0.004972     -0.000482      0.001973
     -0.11996      2.79633      3.87480         0.001228      0.000193     -0.000770
      6.32427      2.76883      5.86742         0.003453     -0.000767      0.005692
      8.10363      2.79908      1.00778        -0.002410     -0.000778      0.004155
     -1.85002      2.77028      8.72055        -0.010055      0.000545     -0.002639
    total drift:                                0.001940      0.004124      0.014055

  FREE ENERGIE OF THE ION-ELECTRON SYSTEM (eV)
  free  energy   TOTEN  =      -329.7370230452 eV

  energy  without entropy=     -329.7369620374  energy(sigma->0) =     -329.73699254

 d Force = 0.4211031E-04[ 0.371E-04, 0.471E-04]  d Energy = 0.3935728E-04 0.275E-05
 d Force = 0.3876202E-01[ 0.387E-01, 0.388E-01]  d Ewald  =-0.6422703E-01 0.103E+00

 Quasi-Newton relaxation of ions (Broydens 2nd method)
  g(Force)  = 0.126E-03   g(Stress)= 0.507E-04

 retain information from N=  3 steps
 eigenvalues of (default step * inverse Hessian matrix)
  average eigenvalue of G=   2.4400
 eigenvalue spectrum of G is  0.0794  1.7680  5.4726

 reached required accuracy - stopping structural energy minimisation

volume of typ            1:     7.4 %

[...]

volume of typ            3:     9.9 %

total charge

# of ion       s       p       d       tot
    1        2.062   0.194   0.071   2.327
    2        2.072   0.219   0.082   2.373
    3        2.072   0.223   0.084   2.379
    4        2.062   0.197   0.073   2.332
    5        2.072   0.219   0.082   2.374
    6        0.297   0.421   7.843   8.561
    7        0.298   0.421   7.849   8.568
    8        0.282   0.389   7.839   8.509
    9        0.299   0.423   7.835   8.557
   10        0.275   0.373   7.850   8.497
   11        0.297   0.421   7.843   8.562
   12        0.293   0.410   7.842   8.545
   13        0.293   0.410   7.842   8.545
   14        0.297   0.422   7.834   8.553
   15        0.301   0.425   7.844   8.570
   16        0.277   0.375   7.858   8.510
   17        0.298   0.421   7.849   8.568
   18        0.281   0.385   7.836   8.503
   19        0.297   0.422   7.834   8.553
   20        0.292   0.408   7.847   8.546
   21        0.292   0.408   7.847   8.546
   22        1.274   2.752   0.008   4.034
   23        1.270   2.769   0.007   4.046
   24        1.272   2.757   0.008   4.037
   25        1.284   2.727   0.008   4.020
   26        1.284   2.725   0.008   4.018
   27        1.261   2.784   0.006   4.051
   28        1.264   2.780   0.007   4.050
   29        1.277   2.747   0.007   4.031
   30        1.283   2.729   0.008   4.020
   31        1.271   2.770   0.008   4.049
   32        1.283   2.731   0.008   4.022
   33        1.275   2.754   0.008   4.037
   34        1.274   2.752   0.008   4.034
   35        1.269   2.769   0.007   4.046
   36        1.272   2.757   0.008   4.037
   37        1.284   2.727   0.008   4.020
   38        1.272   2.758   0.008   4.038
   39        1.272   2.762   0.007   4.041
   40        1.273   2.756   0.008   4.037
   41        1.269   2.765   0.007   4.041
   42        1.274   2.757   0.007   4.039
   43        1.284   2.727   0.008   4.020
   44        1.285   2.724   0.008   4.017
   45        1.283   2.730   0.008   4.021
   46        1.277   2.744   0.008   4.029
   47        1.260   2.791   0.006   4.057
   48        1.260   2.790   0.007   4.057
   49        1.285   2.725   0.008   4.018
   50        1.272   2.758   0.008   4.038
   51        1.272   2.762   0.007   4.042
   52        1.273   2.756   0.008   4.037
   53        1.269   2.765   0.007   4.041
tot          55.79   95.69  126.13  277.60

magnetization (x)

# of ion       s       p       d       tot
    1        0.003   0.005   0.000   0.008
    2       -0.000  -0.000  -0.000  -0.000
    3        0.003   0.006   0.000   0.008
    4        0.002   0.004  -0.000   0.006
    5       -0.000  -0.000  -0.000  -0.000
    6       -0.000  -0.000   0.025   0.024
    7       -0.000   0.000  -0.127  -0.126
    8        0.001   0.000   0.237   0.238
    9       -0.000   0.000  -0.087  -0.087
   10        0.001   0.000   0.371   0.372
   11       -0.000  -0.000   0.025   0.024
   12       -0.000  -0.000   0.030   0.029
   13       -0.000  -0.000   0.030   0.029
   14       -0.000  -0.000  -0.029  -0.030
   15        0.000  -0.000  -0.107  -0.107
   16        0.003   0.000   0.468   0.471
   17        0.000  -0.000  -0.106  -0.106
   18        0.000  -0.000   0.116   0.116
   19       -0.000  -0.000  -0.029  -0.029
   20       -0.000  -0.000  -0.046  -0.046
   21       -0.000  -0.000  -0.046  -0.047
   22       -0.000  -0.002   0.000  -0.002
   23       -0.000   0.008  -0.000   0.007
   24        0.001   0.005   0.000   0.006
   25       -0.000   0.007   0.000   0.007
   26       -0.002  -0.017  -0.000  -0.019
   27        0.004   0.045   0.000   0.049
   28       -0.001  -0.009  -0.000  -0.011
   29        0.000   0.003   0.000   0.004
   30       -0.002  -0.019  -0.000  -0.021
   31        0.003   0.019   0.000   0.022
   32       -0.000  -0.005  -0.000  -0.006
   33        0.003   0.038   0.000   0.041
   34       -0.000  -0.002   0.000  -0.002
   35       -0.000   0.008  -0.000   0.008
   36        0.001   0.005   0.000   0.006
   37       -0.000   0.007   0.000   0.007
   38        0.000   0.001   0.000   0.001
   39       -0.001  -0.005   0.000  -0.006
   40        0.001   0.004   0.000   0.005
   41        0.000   0.004   0.000   0.004
   42        0.005   0.055   0.000   0.060
   43       -0.001  -0.010  -0.000  -0.011
   44        0.001   0.013   0.000   0.014
   45       -0.002  -0.018  -0.000  -0.020
   46        0.002   0.018   0.000   0.020
   47       -0.000  -0.008  -0.000  -0.009
   48        0.004   0.042   0.000   0.047
   49       -0.001  -0.008  -0.000  -0.009
   50        0.000   0.001   0.000   0.001
   51       -0.001  -0.005   0.000  -0.006
   52        0.001   0.004   0.000   0.005
   53        0.000   0.004   0.000   0.004
tot           0.03    0.19    0.73    0.95