 vasp.5.4.4.18Apr17-6-g9f103f2a35 (build May 12 2020 05:39:39) gamma-only

 MD_VERSION_INFO: Compiled 2020-05-12T12:39:39-UTC in devlin.sd.materialsdesign.
 com:/home/medea2/data/build/wwolf/vasp-gpu5.4.4/13047/x86_64/src/src/build/gam
 from svn 13047

 executed on                        Lin64 date 2023.03.07  01:11:18

 INCAR:
 POTCAR:    PAW_PBE Li_sv 10Sep2004
 POTCAR:    PAW_PBE Ni 02Aug2007
 POTCAR:    PAW_PBE O 08Apr2002

 POTCAR:    PAW_PBE Li_sv 10Sep2004

 POTCAR:    PAW_PBE Ni 02Aug2007

 POTCAR:    PAW_PBE O 08Apr2002

 Optimization of the real space projectors (new method)

 maximal supplied QI-value         = 22.11
 optimisation between [QCUT,QGAM] = [ 11.28, 22.77] = [ 35.61,145.23] Ry
 Optimized for a Real-space Cutoff    1.10 Angstroem

   l    n(q)    QCUT    max X(q) W(low)/X(q) W(high)/X(q)  e(spline)
   0      7    11.276    10.506    0.54E-04    0.58E-04    0.16E-07
   0      7    11.276     8.367    0.11E-03    0.14E-03    0.35E-07
   1      7    11.276     8.983    0.23E-03    0.43E-03    0.86E-07
 Optimization of the real space projectors (new method)

[...]

   l    n(q)    QCUT    max X(q) W(low)/X(q) W(high)/X(q)  e(spline)
   2      9    11.376    60.317    0.17E-03    0.16E-04    0.16E-06
   2      9    11.376    55.921    0.17E-03    0.16E-04    0.17E-06
   0     10    11.376    51.690    0.45E-04    0.60E-04    0.21E-06
   0     10    11.376    30.015    0.37E-04    0.55E-04    0.19E-06
   1     10    11.376    18.849    0.83E-04    0.11E-03    0.92E-07
   1     10    11.376    14.624    0.69E-04    0.92E-04    0.82E-07
 Optimization of the real space projectors (new method)

 maximal supplied QI-value         = 24.76
 optimisation between [QCUT,QGAM] = [ 11.39, 22.77] = [ 36.31,145.25] Ry
 Optimized for a Real-space Cutoff    1.10 Angstroem

   l    n(q)    QCUT    max X(q) W(low)/X(q) W(high)/X(q)  e(spline)
   0      7    11.387    20.381    0.22E-03    0.48E-03    0.18E-06
   0      7    11.387    15.268    0.22E-03    0.52E-03    0.19E-06
   1      7    11.387     5.964    0.22E-03    0.73E-03    0.24E-06
   1      7    11.387     5.382    0.19E-03    0.60E-03    0.21E-06

  PAW_PBE Li_sv 10Sep2004               :
  PAW_PBE Ni 02Aug2007                  :
  PAW_PBE O 08Apr2002                   :

 POSCAR: ce4_1
  positions in direct lattice
 exchange correlation table for  LEXCH =       14
   RHO(1)=    0.500       N(1)  =     2000
   RHO(2)=  100.500       N(2)  =     4000

 ion  position               nearest neighbor table
   1  0.996  0.252  0.243-  48 2.08  43 2.09  55 2.12  34 2.12  40 2.13  52 2.16  16 2.79  27 2.83

   2  0.000  0.748  0.751-  35 2.06  49 2.09  53 2.10  54 2.11  41 2.12  42 2.14  24 2.81  16 2.83

[...]

  10  0.002  0.750  0.250-  37 2.09  58 2.10  57 2.10  38 2.11  33 2.14  51 2.16  22 2.82  30 2.83
                            26 2.84
  11  0.253  0.250  0.001-  40 2.04  60 2.11  36 2.12  48 2.14  62 2.14  50 2.15
  12  0.251  0.750  0.000-  51 2.09  61 2.10  37 2.10  49 2.10  63 2.11  41 2.13  17 2.83  25 2.83

[...]

  14  0.507  0.249  0.756-  62 2.04  39 2.08  36 2.12  59 2.12  44 2.15  56 2.17  31 2.79  19 2.84

  15  0.498  0.750  0.250-  63 2.06  37 2.10  45 2.11  57 2.11  58 2.12  38 2.12  23 2.82  31 2.83
                            26 2.83
  16  1.000  0.001  1.000-  42 1.88  40 1.88  43 1.91  41 1.92  50 1.98  51 2.01   1 2.79  21 2.81
                            21 2.83   2 2.83  19 2.88  17 2.89  20 2.89  18 2.89
  17  0.250  0.001  0.250-  34 1.87  63 1.87  46 1.88  51 1.88  57 2.11  40 2.13  20 2.82   3 2.82
                            20 2.82  12 2.83  22 2.88  23 2.89  16 2.89  21 2.89
  18  0.250  0.995  0.748-  62 1.85  50 1.87  35 1.88  47 1.90  41 2.03  56 2.03   4 2.79  19 2.82
                            19 2.82  23 2.89  22 2.89  16 2.89  21 2.90
  19  0.750  0.998  0.750-  62 1.86  35 1.87  50 1.88  47 1.88  59 2.11  42 2.11   5 2.81  18 2.82
                            18 2.82   9 2.83  14 2.84  21 2.88  16 2.88  23 2.90  22 2.90
  20  0.750  1.000  0.250-  63 1.88  34 1.89  46 1.91  51 1.91  43 1.94  58 1.99  17 2.82  13 2.82
                            17 2.82   6 2.82  23 2.88  22 2.88  21 2.89  16 2.89
  21  0.501  0.001  0.000-  42 1.86  40 1.86  43 1.87  41 1.89  62 2.08  63 2.12   7 2.79  16 2.81
                            16 2.83   8 2.83  19 2.88  20 2.89  17 2.89  18 2.90
  22  0.000  0.000  0.499-  57 1.87  59 1.87  56 1.88  58 1.89  34 2.12  35 2.14  23 2.81  10 2.82
                            23 2.82  17 2.88  20 2.88  18 2.89  19 2.90
  23  0.500  1.000  0.499-  57 1.89  59 1.89  56 1.90  58 1.91  46 2.02  47 2.03  22 2.81  15 2.82
                            22 2.82  20 2.88  18 2.89  17 2.89  19 2.90
  24  0.000  0.500  0.501-  52 1.89  54 1.89  53 1.90  55 1.90  33 2.04  32 2.05   2 2.81  29 2.82
                            29 2.82  28 2.88  26 2.89  25 2.89  27 2.90
  25  0.250  0.499  0.750-  44 1.89  49 1.89  32 1.89  61 1.89  53 2.03  36 2.04  28 2.82  28 2.82
                             3 2.82  12 2.83  29 2.89  30 2.89  31 2.89  24 2.89
  26  0.250  0.505  0.253-  48 1.86  60 1.86  45 1.88  33 1.89  37 2.05  52 2.06   4 2.78  27 2.82
                            27 2.82  15 2.83  10 2.84  24 2.89  29 2.89  31 2.90  30 2.90
  27  0.750  0.501  0.250-  48 1.88  60 1.88  45 1.89  33 1.89  55 2.03  38 2.04  26 2.82   5 2.82
                            26 2.82   7 2.82   1 2.83  30 2.88  31 2.89  29 2.90  24 2.90
  28  0.750  0.500  0.750-  61 1.89  32 1.90  44 1.90  49 1.90  39 1.94  54 2.00  25 2.82  25 2.82
                            13 2.83   6 2.83  24 2.88  29 2.89  31 2.89  30 2.89
  29  0.500  0.500  0.501-  52 1.88  53 1.88  54 1.89  55 1.89  45 2.07  44 2.07  24 2.82   8 2.82
                            24 2.82  25 2.89  28 2.89  26 2.89  27 2.90
  30  1.000  0.499  1.000-  39 1.88  36 1.88  38 1.89  37 1.90  48 2.03  49 2.07   9 2.79  31 2.81
                            31 2.82  10 2.83  27 2.88  25 2.89  28 2.89  26 2.90
  31  0.501  0.499  1.000-  39 1.89  36 1.89  38 1.89  37 1.90  60 2.01  61 2.05  14 2.79  30 2.81
                            30 2.82  15 2.83  27 2.89  25 2.89  28 2.89  26 2.90
  32  0.001  0.390  0.636-  25 1.89  28 1.90  24 2.05   3 2.10   6 2.11   9 2.19
  33  0.998  0.610  0.366-  26 1.89  27 1.89  24 2.04   5 2.08   4 2.09  10 2.14
  34  0.001  0.112  0.357-  17 1.87  20 1.89   3 2.11   1 2.12   6 2.12  22 2.12
  35  0.996  0.886  0.641-  19 1.87  18 1.88   2 2.06   5 2.09   4 2.12  22 2.14
  36  0.249  0.391  0.886-  30 1.88  31 1.89  25 2.04   9 2.11  14 2.12  11 2.12
  37  0.249  0.611  0.113-  30 1.90  31 1.90  26 2.05  10 2.09  15 2.10  12 2.10
  38  0.751  0.608  0.114-  30 1.89  31 1.89  27 2.04  10 2.11  13 2.12  15 2.12
  39  0.751  0.398  0.880-  30 1.88  31 1.89  28 1.94   9 2.07  14 2.08
  40  0.253  0.112  0.107-  21 1.86  16 1.88  11 2.04   7 2.11  17 2.13   1 2.13
  41  0.254  0.890  0.885-  21 1.89  16 1.92  18 2.03   8 2.08   2 2.12  12 2.13
  42  0.748  0.889  0.893-  21 1.86  16 1.88  13 2.06  19 2.11   8 2.12   2 2.14
  43  0.746  0.102  0.120-  21 1.87  16 1.91  20 1.94   7 2.06   1 2.09
  44  0.500  0.389  0.638-  25 1.89  28 1.90  29 2.07   3 2.11   6 2.11  14 2.15
  45  0.502  0.611  0.364-  26 1.88  27 1.89  29 2.07   5 2.09   4 2.10  15 2.11
  46  0.497  0.109  0.366-  17 1.88  20 1.91  23 2.02   3 2.08   6 2.11   7 2.22
  47  0.505  0.890  0.633-  19 1.88  18 1.90  23 2.03   5 2.07   4 2.11   8 2.15
  48  0.006  0.397  0.140-  26 1.86  27 1.88  30 2.03   1 2.08  11 2.14
  49  0.002  0.610  0.863-  25 1.89  28 1.90  30 2.07   2 2.09  12 2.10  13 2.11
  50  0.003  0.101  0.863-  18 1.87  19 1.88  16 1.98   9 2.11  11 2.15
  51  0.003  0.893  0.133-  17 1.88  20 1.91  16 2.01  12 2.09  13 2.11  10 2.16
  52  0.251  0.392  0.387-  29 1.88  24 1.89  26 2.06   3 2.13   7 2.15   1 2.16
  53  0.252  0.608  0.616-  29 1.88  24 1.90  25 2.03   8 2.09   2 2.10   4 2.16
  54  0.749  0.606  0.617-  29 1.89  24 1.89  28 2.00   8 2.10   2 2.11   5 2.18
  55  0.748  0.392  0.384-  29 1.89  24 1.90  27 2.03   7 2.10   1 2.12   6 2.15
  56  0.247  0.106  0.615-  22 1.88  23 1.90  18 2.03   9 2.15   3 2.16  14 2.17
  57  0.248  0.888  0.391-  22 1.87  23 1.89   4 2.06  10 2.10  17 2.11  15 2.11
  58  0.753  0.894  0.382-  22 1.89  23 1.91  20 1.99  10 2.10  15 2.12   5 2.18
  59  0.752  0.110  0.609-  22 1.87  23 1.89   6 2.08  19 2.11   9 2.12  14 2.12
  60  0.494  0.398  0.138-  26 1.86  27 1.88  31 2.01   7 2.09  11 2.11
  61  0.499  0.609  0.864-  25 1.89  28 1.89  31 2.05  12 2.10  13 2.11   8 2.11
  62  0.496  0.104  0.855-  18 1.85  19 1.86  14 2.04  21 2.08  11 2.14
  63  0.498  0.889  0.142-  17 1.87  20 1.88  15 2.06  12 2.11  13 2.12  21 2.12

  LATTYP: Found a triclinic cell.
 ALAT       =    10.0922623133
 B/A-ratio  =     0.9922621329
 C/A-ratio  =     0.5583626824
 COS(alpha) =     0.0001632852
 COS(beta)  =     0.0008239003
 COS(gamma) =     0.3691610740

  Lattice vectors:

 A1 = (  10.0922470960,   0.0041780882,   0.0170204650)
 A2 = (   3.7125322027,   0.0008271359,  -9.3005752145)
 A3 = (   0.0023091820,   5.6351421671,   0.0004321825)

Analysis of symmetry for initial positions (statically):
 Subroutine PRICEL returns:
 Original cell was already a primitive cell.

 Routine SETGRP: Setting up the symmetry group for a
 triclinic supercell.

 Subroutine GETGRP returns: Found  1 space group operations
 (whereof  1 operations were pure point group operations)
 out of a pool of  2 trial point group operations.

The static configuration has the point symmetry C_1 .

Analysis of symmetry for dynamics (positions and initial velocities):
 Subroutine PRICEL returns:
 Original cell was already a primitive cell.

[...]

The dynamic configuration has the point symmetry C_1 .

Analysis of structural, dynamic, and magnetic symmetry:
 Subroutine PRICEL returns:
 Original cell was already a primitive cell.

 Routine SETGRP: Setting up the symmetry group for a
 triclinic supercell.

 Subroutine GETGRP returns: Found  1 space group operations
 (whereof  1 operations were pure point group operations)
 out of a pool of  2 trial point group operations.

The magnetic configuration has the point symmetry C_1 .

 Subroutine INISYM returns: Found  1 space group operations
 (whereof  1 operations are pure point group operations),
 and found     1 'primitive' translations

 KPOINTS: Automatic mesh

Automatic generation of k-mesh.
Space group operators:
 irot       det(A)        alpha          n_x          n_y          n_z        tau_x        tau_y        tau_z
    1     1.000000     0.000000     1.000000     0.000000     0.000000     0.000000     0.000000     0.000000

 Subroutine IBZKPT returns following result:

 Found      1 irreducible k-points:

 Following reciprocal coordinates:
            Coordinates               Weight
  0.000000  0.000000  0.000000      1.000000

 Following cartesian coordinates:
            Coordinates               Weight
  0.000000  0.000000  0.000000      1.000000

 SYSTEM =  unknown system
 POSCAR =  ce4_1

 Startparameter for this run:
   NWRITE =      1    write-flag & timer
   PREC   = accura    normal or accurate (medium, high low for compatibility)
   ISTART =      0    job   : 0-new  1-cont  2-samecut
[...]
   -.321E+01 -.715E-01 0.135E+02   0.366E+01 0.900E-01 -.139E+02   -.495E+00 -.157E-01 0.340E+00   0.496E-01 -.223E-02 0.549E-01
   0.116E+02 -.312E+01 0.186E+02   -.117E+02 0.304E+01 -.188E+02   0.107E+00 0.818E-01 0.191E+00   0.243E-02 -.255E-03 0.252E-03
   -.209E+02 0.156E+02 0.634E+02   0.215E+02 -.158E+02 -.639E+02   -.524E+00 0.191E+00 0.491E+00   -.271E-02 0.762E-03 0.647E-03
   -.207E+02 -.158E+02 0.628E+02   0.212E+02 0.160E+02 -.633E+02   -.508E+00 -.201E+00 0.489E+00   -.315E-02 -.112E-03 0.540E-03
   0.117E+02 -.821E+00 0.272E+03   -.135E+02 0.735E+00 -.284E+03   0.173E+01 0.858E-01 0.116E+02   0.193E-01 0.520E-04 0.465E-01
   -.145E+02 0.483E+01 -.245E+03   0.175E+02 -.542E+01 0.256E+03   -.297E+01 0.590E+00 -.109E+02   -.166E-01 0.144E-02 -.448E-01
   -.215E+02 -.181E+01 -.268E+03   0.248E+02 0.143E+01 0.280E+03   -.312E+01 0.375E+00 -.120E+02   -.170E+00 0.285E-02 0.547E-01
   0.275E+02 0.469E+01 0.243E+03   -.318E+02 -.484E+01 -.255E+03   0.411E+01 0.144E+00 0.121E+02   0.171E+00 -.171E-02 -.511E-01
   -.570E+00 0.459E-02 0.281E+03   -.228E+01 0.162E+00 -.292E+03   0.281E+01 -.171E+00 0.107E+02   0.350E-01 0.531E-02 0.109E-01
   -.132E+02 -.747E-02 -.240E+03   0.152E+02 0.166E+00 0.250E+03   -.193E+01 -.162E+00 -.103E+02   -.371E-01 0.517E-02 -.120E-01
   -.185E+02 -.382E-01 -.234E+03   0.211E+02 -.113E+00 0.244E+03   -.261E+01 0.157E+00 -.104E+02   -.373E-01 -.544E-02 -.124E-01
   -.415E+02 0.383E+00 0.301E+03   0.427E+02 -.572E+00 -.314E+03   -.122E+01 0.193E+00 0.132E+02   0.347E-01 -.459E-02 0.131E-01
   -.120E+02 -.270E+00 -.277E+03   0.158E+02 -.243E+00 0.289E+03   -.365E+01 0.415E+00 -.117E+02   -.947E-01 0.968E-01 -.102E+00
   0.872E+01 0.143E+00 0.239E+03   -.109E+02 -.830E+00 -.250E+03   0.207E+01 0.589E+00 0.106E+02   0.975E-01 0.958E-01 0.989E-01
   0.277E+02 0.502E+00 0.232E+03   -.313E+02 0.176E-01 -.244E+03   0.349E+01 -.423E+00 0.116E+02   0.908E-01 -.966E-01 0.103E+00
   0.405E+02 -.921E+00 -.300E+03   -.411E+02 0.181E+01 0.314E+03   0.798E+00 -.787E+00 -.135E+02   -.113E+00 -.983E-01 -.939E-01
   0.146E+02 0.584E+00 0.271E+03   -.169E+02 -.398E+00 -.282E+03   0.224E+01 -.186E+00 0.113E+02   0.236E-01 0.854E-05 0.309E-01
   -.174E+02 -.465E+01 -.244E+03   0.209E+02 0.517E+01 0.255E+03   -.350E+01 -.521E+00 -.107E+02   -.216E-01 -.151E-02 -.294E-01
   -.599E+01 0.130E+01 -.269E+03   0.782E+01 -.761E+00 0.281E+03   -.172E+01 -.535E+00 -.116E+02   -.107E+00 -.469E-03 0.545E-02
   0.122E+02 -.476E+01 0.244E+03   -.152E+02 0.486E+01 -.256E+03   0.295E+01 -.102E+00 0.115E+02   0.109E+00 -.170E-02 -.139E-02
   0.454E+02 0.332E+02 0.306E+03   -.501E+02 -.354E+02 -.320E+03   0.480E+01 0.216E+01 0.141E+02   -.224E-01 0.150E-02 -.311E-01
   -.286E+02 -.560E+00 -.249E+03   0.315E+02 0.443E+00 0.260E+03   -.288E+01 0.118E+00 -.106E+02   0.201E-01 0.220E-03 0.299E-01
   -.366E+02 0.346E+02 -.308E+03   0.406E+02 -.364E+02 0.323E+03   -.406E+01 0.186E+01 -.150E+02   0.111E+00 0.142E-02 -.680E-03
   0.166E+02 -.142E+01 0.249E+03   -.188E+02 0.900E+00 -.260E+03   0.227E+01 0.519E+00 0.110E+02   -.111E+00 0.272E-02 -.493E-03
   0.348E+02 -.145E+00 0.273E+03   -.377E+02 0.204E-01 -.285E+03   0.296E+01 0.122E+00 0.120E+02   -.337E-01 0.132E-02 -.766E-02
   -.137E+02 0.609E+00 -.253E+03   0.161E+02 -.940E+00 0.263E+03   -.249E+01 0.328E+00 -.106E+02   0.362E-01 0.132E-02 0.101E-01
   -.897E+01 0.266E+00 -.255E+03   0.104E+02 -.182E+00 0.266E+03   -.142E+01 -.818E-01 -.114E+02   0.358E-01 -.121E-02 0.101E-01
   0.336E+02 -.680E+00 0.270E+03   -.359E+02 0.100E+01 -.281E+03   0.230E+01 -.318E+00 0.106E+02   -.332E-01 -.148E-02 -.864E-02
   -.298E+02 -.574E-01 -.273E+03   0.326E+02 0.470E+00 0.285E+03   -.295E+01 -.512E+00 -.123E+02   0.108E+00 0.990E-01 0.100E+00
   0.282E+02 -.128E-01 0.248E+03   -.317E+02 0.396E+00 -.260E+03   0.356E+01 -.482E+00 0.116E+02   -.951E-01 0.983E-01 -.104E+00
   0.894E+01 -.165E+00 0.254E+03   -.106E+02 -.256E+00 -.266E+03   0.181E+01 0.519E+00 0.116E+02   -.105E+00 -.977E-01 -.100E+00
   -.437E+02 0.538E-01 -.266E+03   0.471E+02 -.483E+00 0.278E+03   -.352E+01 0.528E+00 -.115E+02   0.100E+00 -.988E-01 0.104E+00
   0.422E+02 -.340E+02 0.306E+03   -.464E+02 0.363E+02 -.320E+03   0.426E+01 -.229E+01 0.142E+02   -.235E-01 -.126E-02 -.433E-01
   -.258E+02 0.998E+00 -.251E+03   0.282E+02 -.968E+00 0.261E+03   -.241E+01 -.297E-01 -.109E+02   0.215E-01 -.316E-03 0.425E-01
   -.513E+02 -.332E+02 -.305E+03   0.566E+02 0.348E+02 0.320E+03   -.551E+01 -.165E+01 -.151E+02   0.175E+00 0.102E-02 -.518E-01
   0.315E+02 0.195E+01 0.249E+03   -.348E+02 -.166E+01 -.261E+03   0.348E+01 -.294E+00 0.114E+02   -.172E+00 0.164E-03 0.495E-01
   0.349E+00 -.227E+00 -.583E+00   -.291E-12 0.682E-13 -.398E-12   -.332E+00 0.214E+00 0.560E+00   -.145E-01 0.149E-01 0.343E-01

 POSITION                                       TOTAL-FORCE (eV/Angst)
      1.50000      5.60637      2.34969        -0.018251     -0.004587     -0.001707
      4.80806      0.00512      6.96837         0.008087      0.000400      0.000682
      4.11249      1.40620      2.33026        -0.006849     -0.002820     -0.002818
      2.25528      1.40470      6.98159         0.009327     -0.002687     -0.002834
      2.26024      4.23067      6.98202         0.005199      0.002519     -0.001289
      4.10851      4.22928      2.33058        -0.010927      0.002521     -0.000866
      1.49897      2.84667      2.34941        -0.014625      0.000099      0.001361
      4.79787      2.81611      6.97853         0.002597      0.002215     -0.000637
      6.73177      5.60103      2.31732         0.006017     -0.001313      0.000986
     -0.26947      0.01074      6.98135         0.002043     -0.000812      0.002420
     -0.92687      1.42523      2.32911        -0.005039     -0.003105      0.004841
     -2.78307      1.41175      6.97463         0.003618     -0.001863     -0.002394
     -2.77159      4.22391      6.97217         0.004713      0.003643     -0.003027
      6.70666      2.85742      2.33376         0.000311      0.001764      0.005582
     -0.25980      2.80681      6.97227         0.004151      0.000047     -0.002450
     10.09327      5.63547      0.02099         0.000133     -0.000571      0.000025
      2.51904      1.40792      0.01061         0.001660     -0.000859     -0.001163
      3.84719      1.40904      9.26711         0.001153      0.001678      0.002402
      3.86320      4.22641      9.29857         0.000728     -0.001135      0.001556
     -1.19054      4.22502      9.30257         0.001405      0.001508     -0.001413
      0.00011      2.82316      0.00701        -0.000469      0.000051     -0.000052
      5.04185      0.00168      0.00635         0.002436     -0.000022     -0.001715
      1.32666      2.81611      9.30661         0.002118     -0.000539     -0.001547
      3.19634      0.00257      4.65464        -0.000633      0.000074     -0.001920
      5.71701      1.41223      4.65256        -0.000979     -0.000076      0.002624
      0.67501      1.40891      4.69767         0.000717      0.000665     -0.001118
      0.66297      4.22611      4.66225        -0.000034     -0.000125     -0.000947
      5.71252      4.22915      4.66262        -0.001067      0.000499      0.002511
      3.19709      2.81699      4.65466        -0.000879      0.000466     -0.001711
      8.23926      5.63415      4.65681        -0.000251      0.000784      0.002806
      8.23851      2.82273      4.65784        -0.000544      0.000415      0.002951
      4.97151      0.00703      3.63692        -0.001225      0.000049      0.003546
      1.43144      5.62106      5.68216         0.001906      0.000155     -0.005210
      3.18717      0.01004      1.04149        -0.003066      0.000792      0.000499
      3.18539      5.61170      8.25918         0.007059     -0.000699     -0.005470
      7.49605      1.40749      3.64831        -0.000659      0.001079      0.003887
     -1.12495      1.40301      5.68351         0.002207      0.002247      0.000710
     -1.11687      4.23050      5.66477        -0.001618     -0.000143      0.003190
      7.40819      4.23455      3.71253        -0.001500     -0.001118      0.004083
      0.66616      1.42208      1.03999        -0.001010     -0.000721     -0.000324
      5.62660      1.43315      8.29506        -0.001071     -0.002444      0.003659
      5.70832      4.21836      8.28248        -0.000328      0.000276      0.000881
      0.83346      4.20824      0.95398        -0.002953      0.001929     -0.001404
      4.98872      2.81632      3.62676        -0.003424     -0.000609      0.004193
      1.41366      2.83115      5.68905         0.005662     -0.000068     -0.004675
      3.29438      2.80077      1.01544         0.003492     -0.000347     -0.005223
      3.08314      2.84264      8.28437         0.001419     -0.000411      0.002653
     -0.06531      0.03223      3.69845        -0.004866      0.000192      0.001062
      6.44273      0.01203      5.68871         0.000890      0.001142      0.000939
      8.33175      0.02187      0.95852        -0.005118     -0.000463      0.001083
     -1.97102      0.01909      8.29704         0.004835      0.001341     -0.000936
      2.45062      1.41357      3.65336         0.000405     -0.000809     -0.002218
      3.95139      1.41792      5.67003        -0.004219     -0.000969     -0.000280
      3.97215      4.22243      5.64658        -0.002606      0.001497     -0.000262
      2.43059      4.21904      3.64974         0.003819      0.000815     -0.004413
      5.81113      1.39306      0.99652         0.000890     -0.000465     -0.000529
      0.64675      1.39421      8.27094         0.005376     -0.001040     -0.002074
      0.54187      4.24249      8.31680         0.005780     -0.000337     -0.003349
      5.74056      4.24012      1.02824        -0.000555      0.000127      0.000367
     -0.08139      2.78539      3.70478         0.001642      0.000110     -0.000207
      6.46016      2.81434      5.67899        -0.005406      0.000295      0.003365
      8.24621      2.79835      0.97552         0.007687      0.000393     -0.003674
     -1.87370      2.80270      8.27787        -0.009312     -0.000631      0.004993
    total drift:                                0.002091      0.002489      0.011163

  FREE ENERGIE OF THE ION-ELECTRON SYSTEM (eV)
  free  energy   TOTEN  =      -378.0583550125 eV

  energy  without entropy=     -378.0562637545  energy(sigma->0) =     -378.05730938

 d Force = 0.1087088E-03[ 0.103E-03, 0.114E-03]  d Energy = 0.1050120E-03 0.370E-05
 d Force =-0.4689107E+00[-0.469E+00,-0.469E+00]  d Ewald  =-0.8027023E+00 0.334E+00

 Quasi-Newton relaxation of ions (Broydens 2nd method)
  g(Force)  = 0.102E-03   g(Stress)= 0.280E-05

 retain information from N=  1 steps
 eigenvalues of (default step * inverse Hessian matrix)
  average eigenvalue of G=   0.5551
 eigenvalue spectrum of G is  0.5551

 reached required accuracy - stopping structural energy minimisation

volume of typ            1:    22.1 %

[...]

volume of typ            3:     9.9 %

total charge

# of ion       s       p       d       tot
    1        2.083   0.257   0.095   2.435
    2        2.088   0.271   0.102   2.461
    3        2.080   0.261   0.096   2.436
    4        2.086   0.266   0.101   2.453
    5        2.083   0.261   0.098   2.442
    6        2.083   0.262   0.097   2.442
    7        2.079   0.254   0.093   2.426
    8        2.083   0.266   0.098   2.446
    9        2.078   0.253   0.092   2.423
   10        2.082   0.263   0.096   2.442
   11        2.080   0.251   0.094   2.426
   12        2.084   0.270   0.099   2.453
   13        2.085   0.268   0.100   2.452
   14        2.083   0.258   0.095   2.437
   15        2.087   0.267   0.100   2.454
   16        0.260   0.342   7.862   8.465
   17        0.261   0.337   7.884   8.482
   18        0.270   0.360   7.869   8.498
   19        0.262   0.341   7.880   8.484
   20        0.266   0.355   7.866   8.488
   21        0.261   0.340   7.885   8.486
   22        0.260   0.336   7.912   8.509
   23        0.259   0.340   7.872   8.471
   24        0.258   0.336   7.877   8.470
   25        0.260   0.342   7.872   8.475
   26        0.269   0.355   7.874   8.498
   27        0.261   0.343   7.866   8.470
   28        0.266   0.355   7.868   8.488
   29        0.259   0.339   7.879   8.477
   30        0.260   0.339   7.870   8.469
   31        0.258   0.337   7.869   8.465
   32        1.257   2.791   0.006   4.054
   33        1.255   2.801   0.006   4.061
   34        1.259   2.791   0.006   4.055
   35        1.256   2.798   0.006   4.059
   36        1.257   2.795   0.006   4.058
   37        1.256   2.796   0.005   4.058
   38        1.256   2.797   0.006   4.059
   39        1.261   2.785   0.006   4.053
   40        1.255   2.798   0.006   4.059
   41        1.257   2.793   0.005   4.056
   42        1.257   2.795   0.006   4.058
   43        1.261   2.783   0.006   4.051
   44        1.257   2.793   0.005   4.055
   45        1.255   2.801   0.006   4.061
   46        1.257   2.791   0.006   4.054
   47        1.255   2.797   0.006   4.058
   48        1.262   2.780   0.006   4.048
   49        1.257   2.796   0.005   4.058
   50        1.262   2.775   0.006   4.043
   51        1.257   2.794   0.006   4.056
   52        1.257   2.791   0.006   4.054
   53        1.256   2.797   0.006   4.059
   54        1.256   2.798   0.006   4.059
   55        1.256   2.795   0.005   4.057
   56        1.258   2.788   0.006   4.052
   57        1.255   2.799   0.006   4.060
   58        1.256   2.796   0.006   4.058
   59        1.257   2.793   0.006   4.056
   60        1.262   2.780   0.006   4.048
   61        1.257   2.795   0.005   4.057
   62        1.264   2.774   0.007   4.044
   63        1.258   2.793   0.006   4.056
tot          75.68   98.77  127.64  302.10

magnetization (x)

# of ion       s       p       d       tot
    1        0.001   0.012  -0.000   0.013
    2        0.002   0.012  -0.000   0.014
    3        0.006   0.017  -0.000   0.022
    4        0.003   0.010   0.001   0.013
    5        0.004   0.010  -0.001   0.013
    6        0.002   0.009  -0.001   0.010
    7        0.005   0.015  -0.001   0.019
    8        0.005   0.016  -0.001   0.021
    9        0.005   0.015  -0.000   0.020
   10        0.005   0.016  -0.001   0.020
   11        0.003   0.010   0.001   0.013
   12        0.006   0.018  -0.000   0.024
   13        0.002   0.010  -0.001   0.010
   14        0.002   0.012  -0.000   0.013
   15        0.002   0.012  -0.000   0.013
   16        0.001  -0.000   0.584   0.584
   17        0.004  -0.001   0.720   0.723
   18        0.002  -0.000   0.540   0.542
   19       -0.004  -0.000  -0.510  -0.515
   20        0.000  -0.000   0.566   0.566
   21        0.000  -0.000   0.163   0.163
   22        0.001  -0.000   0.171   0.171
   23        0.001  -0.000   0.622   0.623
   24        0.001  -0.000   0.715   0.716
   25        0.001  -0.001   0.700   0.700
   26        0.003  -0.001   0.640   0.642
   27        0.001  -0.001   0.663   0.664
   28       -0.000  -0.001   0.561   0.560
   29        0.002  -0.000   0.704   0.705
   30        0.001  -0.000   0.687   0.687
   31        0.001  -0.000   0.681   0.681
   32        0.011   0.071   0.000   0.082
   33        0.010   0.061   0.000   0.071
   34        0.006   0.027   0.000   0.034
   35        0.002   0.006   0.000   0.009
   36        0.011   0.066   0.000   0.077
   37        0.012   0.085   0.000   0.097
   38        0.012   0.076   0.000   0.088
   39        0.011   0.055   0.000   0.066
   40        0.008   0.085   0.000   0.094
   41        0.010   0.070   0.000   0.079
   42       -0.002  -0.069  -0.000  -0.071
   43        0.009   0.053   0.000   0.061
   44        0.011   0.081   0.000   0.093
   45        0.010   0.068   0.000   0.078
   46        0.011   0.073   0.000   0.084
   47        0.006   0.037   0.000   0.043
   48        0.010   0.074   0.000   0.084
   49        0.012   0.075   0.000   0.087
   50        0.006   0.040   0.000   0.045
   51        0.010   0.063   0.000   0.074
   52        0.011   0.076   0.000   0.087
   53        0.011   0.074   0.000   0.086
   54        0.009   0.033   0.000   0.043
   55        0.012   0.081   0.000   0.093
   56        0.009   0.065   0.000   0.074
   57        0.009   0.089   0.000   0.098
   58        0.007   0.031   0.000   0.039
   59       -0.002  -0.067  -0.000  -0.069
   60        0.010   0.065   0.000   0.075
   61        0.011   0.063   0.000   0.074
   62        0.002   0.008   0.000   0.010
   63        0.006   0.026   0.000   0.032
tot           0.34    1.83    8.21   10.37