 vasp.5.4.4.18Apr17-6-g9f103f2a35 (build May 12 2020 05:39:39) gamma-only

 MD_VERSION_INFO: Compiled 2020-05-12T12:39:39-UTC in devlin.sd.materialsdesign.
 com:/home/medea2/data/build/wwolf/vasp-gpu5.4.4/13047/x86_64/src/src/build/gam
 from svn 13047

 executed on                        Lin64 date 2023.03.07  01:46:07

 INCAR:
 POTCAR:    PAW_PBE Li_sv 10Sep2004
 POTCAR:    PAW_PBE Ni 02Aug2007
 POTCAR:    PAW_PBE O 08Apr2002

 POTCAR:    PAW_PBE Li_sv 10Sep2004

 POTCAR:    PAW_PBE Ni 02Aug2007

 POTCAR:    PAW_PBE O 08Apr2002

 Optimization of the real space projectors (new method)

 maximal supplied QI-value         = 22.11
 optimisation between [QCUT,QGAM] = [ 11.28, 22.77] = [ 35.61,145.23] Ry
 Optimized for a Real-space Cutoff    1.10 Angstroem

   l    n(q)    QCUT    max X(q) W(low)/X(q) W(high)/X(q)  e(spline)
   0      7    11.276    10.506    0.54E-04    0.58E-04    0.16E-07
   0      7    11.276     8.367    0.11E-03    0.14E-03    0.35E-07
   1      7    11.276     8.983    0.23E-03    0.43E-03    0.86E-07
 Optimization of the real space projectors (new method)

[...]

   l    n(q)    QCUT    max X(q) W(low)/X(q) W(high)/X(q)  e(spline)
   2      9    11.376    60.317    0.17E-03    0.16E-04    0.16E-06
   2      9    11.376    55.921    0.17E-03    0.16E-04    0.17E-06
   0     10    11.376    51.690    0.45E-04    0.60E-04    0.21E-06
   0     10    11.376    30.015    0.37E-04    0.55E-04    0.19E-06
   1     10    11.376    18.849    0.83E-04    0.11E-03    0.92E-07
   1     10    11.376    14.624    0.69E-04    0.92E-04    0.82E-07
 Optimization of the real space projectors (new method)

 maximal supplied QI-value         = 24.76
 optimisation between [QCUT,QGAM] = [ 11.39, 22.77] = [ 36.31,145.25] Ry
 Optimized for a Real-space Cutoff    1.10 Angstroem

   l    n(q)    QCUT    max X(q) W(low)/X(q) W(high)/X(q)  e(spline)
   0      7    11.387    20.381    0.22E-03    0.48E-03    0.18E-06
   0      7    11.387    15.268    0.22E-03    0.52E-03    0.19E-06
   1      7    11.387     5.964    0.22E-03    0.73E-03    0.24E-06
   1      7    11.387     5.382    0.19E-03    0.60E-03    0.21E-06

  PAW_PBE Li_sv 10Sep2004               :
  PAW_PBE Ni 02Aug2007                  :
  PAW_PBE O 08Apr2002                   :

 POSCAR: ce25_1
  positions in direct lattice
 exchange correlation table for  LEXCH =       14
   RHO(1)=    0.500       N(1)  =     2000
   RHO(2)=  100.500       N(2)  =     4000

 ion  position               nearest neighbor table
   1  0.000  0.250  0.250-  48 2.06  43 2.10  40 2.10  52 2.11  55 2.11  34 2.12  16 2.81  24 2.82

   2  0.000  0.750  0.750-  49 2.08  42 2.11  41 2.11  53 2.11  54 2.11  35 2.13  24 2.82  16 2.83

   3  0.251  0.250  0.501-  46 2.09  44 2.10  34 2.11  32 2.11  56 2.14  52 2.16  25 2.81  17 2.82
                            23 2.84
   4  0.244  0.752  0.489-  33 2.06  57 2.06  45 2.10  35 2.11  47 2.17  53 2.28  26 2.77  22 2.80

[...]

   6  0.749  0.250  0.501-  46 2.09  44 2.10  34 2.11  32 2.11  59 2.14  55 2.16  28 2.81  20 2.82
                            23 2.84
   7  0.500  0.250  0.251-  60 2.06  46 2.09  40 2.10  43 2.10  55 2.10  52 2.10  29 2.82  21 2.83

[...]

  14  0.500  0.249  0.749-  44 2.06  56 2.09  59 2.09  39 2.12  36 2.12  62 2.15  23 2.77  31 2.80

  15  0.500  0.751  0.251-  45 2.05  57 2.11  58 2.11  38 2.14  37 2.14  63 2.15  23 2.84
  16  0.000  0.001  0.000-  41 1.89  42 1.89  40 1.89  43 1.89  51 1.94  50 1.99   1 2.81  21 2.82
                            21 2.82   2 2.83  18 2.88  19 2.88  17 2.89  20 2.89
  17  0.250  0.000  0.250-  51 1.89  63 1.89  34 1.89  46 1.90  57 2.02  40 2.06  11 2.79  20 2.81
                             3 2.82  20 2.82  21 2.89  22 2.89  16 2.89  23 2.90
  18  0.250  0.999  0.751-  47 1.89  62 1.89  35 1.89  50 1.90  56 2.04  41 2.04  19 2.82  19 2.82
                            10 2.84  16 2.88  21 2.88  23 2.89  22 2.90
  19  0.750  0.999  0.751-  47 1.89  62 1.89  35 1.89  50 1.90  59 2.04  42 2.04  18 2.82  18 2.82
                            13 2.84  16 2.88  21 2.88  23 2.89  22 2.90
  20  0.750  0.000  0.250-  51 1.89  63 1.89  34 1.89  46 1.90  58 2.02  43 2.06  12 2.79  17 2.81
                             6 2.82  17 2.82  21 2.89  22 2.89  16 2.89  23 2.90
  21  0.500  1.000  0.000-  41 1.89  42 1.89  40 1.89  43 1.89  62 2.02  63 2.02  16 2.82  16 2.82
                             7 2.83   8 2.83  19 2.88  18 2.88  20 2.89  17 2.89
  22  0.000  0.000  0.500-  57 1.88  58 1.88  56 1.89  59 1.89  34 2.04  35 2.04   4 2.80   5 2.80
                             9 2.81  23 2.82  23 2.82  17 2.89  20 2.89  19 2.90  18 2.90
  23  0.500  0.004  0.502-  57 1.85  58 1.85  56 1.88  59 1.88  46 2.06  47 2.07  14 2.77  22 2.82
                            22 2.82   6 2.84   3 2.84  15 2.84  18 2.89  19 2.89  17 2.90  20 2.90
  24  0.000  0.500  0.500-  53 1.88  54 1.88  52 1.89  55 1.89  33 2.04  32 2.11   1 2.82  29 2.82
                            29 2.82   2 2.82  26 2.89  27 2.89  25 2.89  28 2.89
  25  0.250  0.499  0.750-  61 1.88  32 1.88  49 1.89  44 1.89  53 2.01  36 2.03   3 2.81  28 2.82
                            28 2.82  31 2.88  29 2.89  24 2.89  30 2.90
  26  0.249  0.501  0.250-  33 1.87  48 1.89  45 1.89  60 1.89  37 2.01  52 2.02   4 2.77  10 2.81
                            27 2.81  27 2.82  30 2.88  24 2.89  29 2.89  31 2.90
  27  0.751  0.501  0.250-  33 1.87  48 1.89  45 1.89  60 1.89  38 2.01  55 2.02   5 2.77  13 2.81
                            26 2.81  26 2.82  30 2.88  24 2.89  29 2.89  31 2.90
  28  0.750  0.499  0.750-  61 1.88  32 1.88  49 1.89  44 1.89  54 2.01  39 2.03   6 2.81  25 2.82
                            25 2.82  31 2.88  29 2.89  24 2.89  30 2.90
  29  0.500  0.500  0.500-  53 1.88  54 1.88  52 1.88  55 1.88  45 2.11  44 2.12   8 2.81   7 2.82
                            24 2.82  24 2.82  28 2.89  25 2.89  26 2.89  27 2.89
  30  0.000  0.499  0.001-  37 1.87  38 1.87  36 1.88  39 1.88  48 2.10  49 2.11  31 2.82  31 2.82
                             9 2.83  11 2.84  12 2.84  26 2.88  27 2.88  25 2.90  28 2.90
  31  0.500  0.496  0.998-  37 1.85  38 1.85  36 1.87  39 1.87  60 2.11  61 2.12  14 2.80  30 2.82
                            30 2.82  25 2.88  28 2.88  27 2.90  26 2.90
  32  0.000  0.387  0.640-  25 1.88  28 1.88   9 2.05   6 2.11   3 2.11  24 2.11
  33  0.000  0.607  0.363-  26 1.87  27 1.87  24 2.04   5 2.06   4 2.06
  34  0.000  0.109  0.364-  17 1.89  20 1.89  22 2.04   6 2.11   3 2.11   1 2.12
  35  0.000  0.891  0.635-  18 1.89  19 1.89  22 2.04   5 2.11   4 2.11   2 2.13
  36  0.248  0.392  0.886-  31 1.87  30 1.88  25 2.03   9 2.11  14 2.12  10 2.17
  37  0.255  0.601  0.111-  31 1.85  30 1.87  26 2.01  11 2.12  15 2.14
  38  0.745  0.601  0.111-  31 1.85  30 1.87  27 2.01  12 2.12  15 2.14
  39  0.752  0.392  0.886-  31 1.87  30 1.88  28 2.03   9 2.11  14 2.12  13 2.17
  40  0.251  0.111  0.113-  21 1.89  16 1.89  17 2.06  10 2.07   7 2.10   1 2.10
  41  0.250  0.890  0.887-  21 1.89  16 1.89  18 2.04   2 2.11   8 2.11  11 2.17
  42  0.750  0.890  0.887-  21 1.89  16 1.89  19 2.04   2 2.11   8 2.11  12 2.17
  43  0.749  0.111  0.113-  21 1.89  16 1.89  20 2.06  13 2.07   7 2.10   1 2.10
  44  0.500  0.386  0.640-  25 1.89  28 1.89  14 2.06   6 2.10   3 2.10  29 2.12
  45  0.500  0.613  0.359-  26 1.89  27 1.89  15 2.05   5 2.10   4 2.10  29 2.11
  46  0.500  0.112  0.364-  17 1.90  20 1.90  23 2.06   7 2.09   3 2.09   6 2.09
  47  0.500  0.890  0.637-  18 1.89  19 1.89  23 2.07   8 2.11   4 2.17   5 2.17
  48  0.000  0.388  0.140-  26 1.89  27 1.89   1 2.06  10 2.10  13 2.10  30 2.10
  49  0.000  0.611  0.860-  25 1.89  28 1.89   2 2.08  30 2.11  12 2.11  11 2.11
  50  0.000  0.107  0.867-  18 1.90  19 1.90  16 1.99  13 2.11  10 2.11   9 2.17
  51  0.000  0.899  0.130-  17 1.89  20 1.89  16 1.94  12 2.07  11 2.07
  52  0.251  0.393  0.385-  29 1.88  24 1.89  26 2.02   7 2.10   1 2.11   3 2.16
  53  0.250  0.606  0.615-  29 1.88  24 1.88  25 2.01   8 2.11   2 2.11   4 2.28
  54  0.750  0.606  0.615-  29 1.88  24 1.88  28 2.01   8 2.11   2 2.11   5 2.28
  55  0.749  0.393  0.385-  29 1.88  24 1.89  27 2.02   7 2.10   1 2.11   6 2.16
  56  0.248  0.109  0.616-  23 1.88  22 1.89  18 2.04   9 2.08  14 2.09   3 2.14
  57  0.256  0.898  0.388-  23 1.85  22 1.88  17 2.02   4 2.06  15 2.11
  58  0.744  0.898  0.388-  23 1.85  22 1.88  20 2.02   5 2.06  15 2.11
  59  0.752  0.109  0.616-  23 1.88  22 1.89  19 2.04   9 2.08  14 2.09   6 2.14
  60  0.500  0.387  0.141-  26 1.89  27 1.89   7 2.06  10 2.10  13 2.10  31 2.11
  61  0.500  0.611  0.859-  25 1.88  28 1.88   8 2.07  31 2.12  12 2.17  11 2.17
  62  0.500  0.108  0.866-  18 1.89  19 1.89  21 2.02  13 2.11  10 2.11  14 2.15
  63  0.500  0.893  0.135-  17 1.89  20 1.89  21 2.02  12 2.11  11 2.11  15 2.15

  LATTYP: Found a simple monoclinic cell.
 ALAT       =    11.2823939672
 B/A-ratio  =     0.4994912941
 C/A-ratio  =     1.6665577026
 COS(beta)  =    -0.8967497873

  Lattice vectors:

 A1 = (  -6.3700777085,   0.0000000000,  -9.3120633384)
 A2 = (   0.0000000000,  -5.6354575632,   0.0000000000)
 A3 = (   2.6522009294,   0.0000000000,  18.6147692776)

Analysis of symmetry for initial positions (statically):
 Subroutine PRICEL returns:
 Original cell was already a primitive cell.

 Routine SETGRP: Setting up the symmetry group for a
 simple monoclinic supercell.

 Subroutine GETGRP returns: Found  2 space group operations
 (whereof  2 operations were pure point group operations)
 out of a pool of  4 trial point group operations.

The static configuration has the point symmetry C_1h.

Analysis of symmetry for dynamics (positions and initial velocities):
 Subroutine PRICEL returns:
 Original cell was already a primitive cell.

[...]

The dynamic configuration has the point symmetry C_1h.

Analysis of structural, dynamic, and magnetic symmetry:
 Subroutine PRICEL returns:
 Original cell was already a primitive cell.

 Routine SETGRP: Setting up the symmetry group for a
 simple monoclinic supercell.

 Subroutine GETGRP returns: Found  2 space group operations
 (whereof  2 operations were pure point group operations)
 out of a pool of  4 trial point group operations.

The magnetic configuration has the point symmetry C_1h.

 Subroutine INISYM returns: Found  2 space group operations
 (whereof  2 operations are pure point group operations),
 and found     1 'primitive' translations

 KPOINTS: Automatic mesh

Automatic generation of k-mesh.
Space group operators:
 irot       det(A)        alpha          n_x          n_y          n_z        tau_x        tau_y        tau_z
    1     1.000000     0.000001     1.000000     0.000000     0.000000     0.000000     0.000000     0.000000
    2    -1.000000   179.999999     0.000000     1.000000     0.000000     0.000000     0.000000     0.000000

 Subroutine IBZKPT returns following result:

 Found      1 irreducible k-points:

 Following reciprocal coordinates:
            Coordinates               Weight
  0.000000  0.000000  0.000000      1.000000

 Following cartesian coordinates:
            Coordinates               Weight
  0.000000  0.000000  0.000000      1.000000

 SYSTEM =  unknown system
 POSCAR =  ce25_1

[...]
   -.891E+01 -.175E+01 -.167E+02   0.889E+01 0.176E+01 0.169E+02   0.515E-01 -.187E-01 -.169E+00   -.266E-01 0.968E-02 0.710E-04
   0.129E+02 0.994E-12 -.253E+02   -.130E+02 -.314E-13 0.255E+02   0.949E-01 0.000E+00 -.138E+00   -.152E-01 0.148E-11 -.728E-02
   -.291E+02 -.551E-13 -.620E+02   0.294E+02 0.232E-13 0.626E+02   -.409E+00 0.000E+00 -.597E+00   0.187E-01 0.204E-12 0.177E-01
   -.412E+01 0.958E-12 -.201E+02   0.453E+01 0.777E-14 0.205E+02   -.433E+00 0.000E+00 -.497E+00   0.209E-01 -.232E-12 0.133E-01
   0.298E+02 -.121E-12 0.251E+03   -.330E+02 -.123E-13 -.261E+03   0.318E+01 0.000E+00 0.110E+02   -.621E-02 -.657E-12 -.153E-01
   0.219E+02 0.162E-13 -.300E+03   -.218E+02 0.306E-14 0.313E+03   -.139E+00 0.000E+00 -.134E+02   -.107E-01 -.661E-12 0.304E-02
   -.198E+02 -.122E-12 -.235E+03   0.223E+02 -.607E-13 0.246E+03   -.251E+01 0.000E+00 -.105E+02   0.455E-02 0.268E-11 -.175E-01
   0.338E+02 0.750E-13 0.273E+03   -.360E+02 0.427E-14 -.284E+03   0.224E+01 0.000E+00 0.106E+02   -.386E-01 0.215E-12 -.177E-01
   0.659E+01 0.265E+01 0.245E+03   -.954E+01 -.302E+01 -.257E+03   0.297E+01 0.386E+00 0.122E+02   -.169E-01 -.185E-01 -.217E-01
   -.331E+02 0.312E+02 -.306E+03   0.373E+02 -.332E+02 0.321E+03   -.422E+01 0.201E+01 -.155E+02   0.300E-01 -.202E-01 0.356E-01
   -.331E+02 -.312E+02 -.306E+03   0.373E+02 0.332E+02 0.321E+03   -.422E+01 -.201E+01 -.155E+02   0.300E-01 0.202E-01 0.356E-01
   0.659E+01 -.265E+01 0.245E+03   -.954E+01 0.302E+01 -.257E+03   0.297E+01 -.386E+00 0.122E+02   -.169E-01 0.185E-01 -.217E-01
   -.270E+02 -.224E+01 -.248E+03   0.293E+02 0.234E+01 0.258E+03   -.229E+01 -.148E+00 -.105E+02   0.141E-01 0.418E-01 -.926E-02
   0.114E+02 -.192E+01 0.272E+03   -.129E+02 0.194E+01 -.283E+03   0.140E+01 -.599E-01 0.113E+02   0.339E-01 0.419E-01 0.191E-02
   0.114E+02 0.192E+01 0.272E+03   -.129E+02 -.194E+01 -.283E+03   0.140E+01 0.599E-01 0.113E+02   0.339E-01 -.419E-01 0.191E-02
   -.270E+02 0.224E+01 -.248E+03   0.293E+02 -.234E+01 0.258E+03   -.229E+01 0.148E+00 -.105E+02   0.141E-01 -.418E-01 -.926E-02
   0.310E+02 0.849E-13 0.249E+03   -.341E+02 0.349E-13 -.260E+03   0.314E+01 0.000E+00 0.111E+02   -.309E-02 0.619E-12 -.189E-01
   -.173E+02 0.207E-12 -.275E+03   0.206E+02 -.246E-14 0.287E+03   -.333E+01 0.000E+00 -.112E+02   -.121E-01 0.613E-12 0.120E-01
   -.156E+02 0.868E-13 -.240E+03   0.178E+02 -.102E-13 0.250E+03   -.218E+01 0.000E+00 -.101E+02   -.500E-02 -.264E-11 -.223E-01
   0.346E+02 0.270E-12 0.276E+03   -.376E+02 0.499E-13 -.287E+03   0.306E+01 0.000E+00 0.115E+02   -.301E-01 -.220E-12 -.152E-01
   0.293E+02 -.607E-14 0.230E+03   -.322E+02 0.384E-13 -.241E+03   0.291E+01 0.000E+00 0.112E+02   0.256E-01 -.131E-12 -.255E-02
   -.440E+02 -.121E-12 -.268E+03   0.470E+02 0.438E-14 0.279E+03   -.300E+01 0.000E+00 -.110E+02   -.964E-02 0.329E-12 0.119E-01
   -.345E+01 0.475E-13 -.259E+03   0.455E+01 -.971E-13 0.269E+03   -.111E+01 0.000E+00 -.109E+02   0.939E-02 -.184E-11 0.221E-01
   -.440E+02 -.883E-13 0.303E+03   0.453E+02 -.185E-13 -.317E+03   -.137E+01 0.000E+00 0.131E+02   0.310E-01 0.524E-12 0.110E-01
   0.145E+02 -.246E+01 0.246E+03   -.174E+02 0.281E+01 -.258E+03   0.296E+01 -.339E+00 0.117E+02   -.162E-01 -.973E-02 -.185E-01
   -.107E+01 -.249E+01 -.269E+03   0.323E+01 0.279E+01 0.281E+03   -.217E+01 -.287E+00 -.125E+02   0.358E-02 -.997E-02 0.782E-02
   -.107E+01 0.249E+01 -.269E+03   0.323E+01 -.279E+01 0.281E+03   -.217E+01 0.287E+00 -.125E+02   0.358E-02 0.997E-02 0.782E-02
   0.145E+02 0.246E+01 0.246E+03   -.174E+02 -.281E+01 -.258E+03   0.296E+01 0.339E+00 0.117E+02   -.162E-01 0.973E-02 -.185E-01
   -.150E+02 0.453E+01 -.243E+03   0.179E+02 -.520E+01 0.254E+03   -.286E+01 0.672E+00 -.109E+02   -.432E-01 -.262E-02 -.117E-01
   0.448E+02 0.334E+02 0.302E+03   -.492E+02 -.358E+02 -.316E+03   0.443E+01 0.238E+01 0.141E+02   -.374E-02 -.217E-02 0.174E-01
   0.448E+02 -.334E+02 0.302E+03   -.492E+02 0.358E+02 -.316E+03   0.443E+01 -.238E+01 0.141E+02   -.374E-02 0.217E-02 0.174E-01
   -.150E+02 -.453E+01 -.243E+03   0.179E+02 0.520E+01 0.254E+03   -.286E+01 -.672E+00 -.109E+02   -.432E-01 0.262E-02 -.117E-01
   0.267E+02 0.219E-12 0.236E+03   -.292E+02 -.555E-13 -.247E+03   0.249E+01 0.000E+00 0.111E+02   0.332E-01 0.101E-12 -.111E-01
   -.456E+02 0.798E-13 -.270E+03   0.492E+02 -.686E-13 0.282E+03   -.356E+01 0.000E+00 -.122E+02   -.175E-01 -.282E-12 0.217E-01
   -.976E+01 0.255E-12 -.257E+03   0.120E+02 -.532E-13 0.268E+03   -.225E+01 0.000E+00 -.107E+02   0.459E-01 0.184E-11 0.193E-03
   -.370E+01 0.999E-13 0.284E+03   0.124E+01 -.598E-13 -.295E+03   0.248E+01 0.000E+00 0.109E+02   -.101E-01 -.636E-12 0.339E-01
   -.132E+01 0.149E-10 0.256E+00   0.352E-12 -.147E-12 0.568E-13   0.133E+01 0.000E+00 -.261E+00   0.105E-02 -.429E-12 0.362E-02

 POSITION                                       TOTAL-FORCE (eV/Angst)
      1.59385     -0.00000      2.32767         0.002046     -0.000000     -0.001421
      4.77397     -0.00000      6.98463        -0.000711     -0.000000      0.002406
      4.11984      1.41441      2.33143         0.003830      0.002061      0.003855
      2.13075      1.37506      7.00324        -0.001614      0.000964     -0.001998
      2.13075      4.26546      7.00324        -0.001614     -0.000964     -0.001998
      4.11984      4.22611      2.33143         0.003830     -0.002061      0.003855
      1.59000      2.82026      2.32505        -0.006916     -0.000000     -0.006719
      4.77518      2.82026      6.98751         0.009207     -0.000000      0.007004
      6.62710     -0.00000      2.32815         0.017599     -0.000000      0.001390
     -0.89596      1.41251      2.32042        -0.005882      0.000968      0.000823
     -2.71695      1.37566      6.96670         0.007667     -0.000222     -0.005280
     -2.71695      4.26486      6.96670         0.007667      0.000222     -0.005280
     -0.89596      4.22801      2.32042        -0.005882     -0.000968      0.000823
      6.62557      2.82026      2.32448         0.002758     -0.000000      0.003247
     -0.25931      2.82026      6.98834        -0.007199     -0.000000     -0.001199
     -0.00338     -0.00000      0.01012        -0.003142     -0.000000     -0.001540
      2.51796      1.40739      0.00551         0.000522     -0.000523     -0.002235
      3.85484      1.41140      9.29991        -0.003309     -0.001523      0.001461
      3.85484      4.22912      9.29991        -0.003309      0.001523      0.001461
      2.51796      4.23313      0.00551         0.000522      0.000523     -0.002235
     -3.70889      2.82026      9.29939        -0.001129     -0.000000     -0.002540
      5.03424     -0.00000      0.00941        -0.001208     -0.000000      0.002043
      5.04742      2.82026      0.04334        -0.002262     -0.000000      0.001710
      3.18197     -0.00000      4.65416        -0.001663     -0.000000      0.000955
      5.70361      1.41136      4.65363        -0.000603      0.000407      0.006382
      0.65822      1.40797      4.66246         0.001660     -0.005045     -0.007266
      0.65822      4.23255      4.66246         0.001660      0.005045     -0.007266
      5.70361      4.22916      4.65363        -0.000603     -0.000407      0.006382
      3.18248      2.82026      4.65928        -0.000397     -0.000000     -0.000139
     -1.84737     -0.00000      4.64520        -0.001867     -0.000000     -0.004117
      8.21811      2.82026      4.62562        -0.006312     -0.000000     -0.007999
      5.01072     -0.00000      3.61021        -0.001654     -0.000000      0.006761
      1.41007     -0.00000      5.65216         0.001085     -0.000000     -0.003533
      3.26298     -0.00000      1.02246         0.003115     -0.000000     -0.003981
      3.09157     -0.00000      8.29350        -0.011900     -0.000000      0.002862
      7.46689      1.39804      3.65552         0.002308      0.000574      0.003255
     -1.11134      1.43859      5.59716         0.005203      0.001186      0.001600
     -1.11134      4.20194      5.59716         0.005203     -0.001186      0.001600
      7.46689      4.24249      3.65552         0.002308     -0.000574      0.003255
      0.73712      1.41212      1.03047         0.005829      0.003343     -0.007759
      5.62863      1.40744      8.29354        -0.005199      0.003057      0.000900
      5.62863      4.23308      8.29354        -0.005199     -0.003057      0.000900
      0.73712      4.22840      1.03047         0.005829     -0.003343     -0.007759
      5.01397      2.82026      3.60365        -0.002679     -0.000000      0.002352
      1.34673      2.82026      5.70538         0.001406     -0.000000     -0.001460
      3.25065      2.82026      1.05040         0.001051     -0.000000     -0.000728
      3.11195      2.82026      8.28438        -0.008758     -0.000000      0.001808
     -0.02530     -0.00000      3.60874         0.006512     -0.000000     -0.000642
      6.40410     -0.00000      5.69519        -0.003569     -0.000000      0.004110
      8.34035     -0.00000      1.00318        -0.007212     -0.000000      0.004881
     -2.02655     -0.00000      8.35928         0.007971     -0.000000     -0.009409
      2.42631      1.40806      3.66373         0.005143      0.000828     -0.001973
      3.94557      1.40384      5.64039        -0.006417      0.001676      0.006801
      3.94557      4.23668      5.64039        -0.006417     -0.001676      0.006801
      2.42631      4.23246      3.66373         0.005143     -0.000828     -0.001973
      5.80716      1.40108      1.02057        -0.003217     -0.000285      0.003388
      0.57881      1.44401      8.35782        -0.001463     -0.000051      0.002101
      0.57881      4.19651      8.35782        -0.001463      0.000051      0.002101
      5.80716      4.23944      1.02057        -0.003217      0.000285      0.003388
     -0.01079      2.82026      3.59988         0.004670     -0.000000     -0.006632
      6.38043      2.82026      5.69683        -0.001345     -0.000000      0.005488
      8.32066      2.82026      1.01443        -0.002965     -0.000000      0.003671
     -1.94406      2.82026      8.30272         0.006556     -0.000000     -0.006739
    total drift:                                0.015781      0.000000     -0.000461

  FREE ENERGIE OF THE ION-ELECTRON SYSTEM (eV)
  free  energy   TOTEN  =      -378.0537053559 eV

  energy  without entropy=     -378.0490286740  energy(sigma->0) =     -378.05136701

 d Force = 0.3593986E-03[ 0.272E-03, 0.447E-03]  d Energy = 0.3230525E-03 0.363E-04
 d Force =-0.1401136E+00[-0.144E+00,-0.136E+00]  d Ewald  = 0.1437454E+01-0.158E+01

 Quasi-Newton relaxation of ions (Broydens 2nd method)
  g(Force)  = 0.141E-03   g(Stress)= 0.196E-03

 retain information from N=  3 steps
 eigenvalues of (default step * inverse Hessian matrix)
  average eigenvalue of G=   0.9369
 eigenvalue spectrum of G is  1.3426  1.3426  0.1253

 reached required accuracy - stopping structural energy minimisation

volume of typ            1:    22.1 %

[...]

volume of typ            3:     9.9 %

total charge

# of ion       s       p       d       tot
    1        2.086   0.272   0.102   2.461
    2        2.084   0.266   0.099   2.449
    3        2.081   0.263   0.096   2.440
    4        2.079   0.256   0.093   2.428
    5        2.079   0.256   0.093   2.428
    6        2.081   0.263   0.096   2.440
    7        2.089   0.277   0.105   2.471
    8        2.085   0.266   0.100   2.452
    9        2.088   0.269   0.103   2.460
   10        2.082   0.266   0.097   2.445
   11        2.077   0.251   0.091   2.419
   12        2.077   0.251   0.091   2.419
   13        2.082   0.266   0.097   2.445
   14        2.086   0.267   0.102   2.455
   15        2.081   0.252   0.094   2.427
   16        0.268   0.358   7.869   8.495
   17        0.259   0.338   7.867   8.463
   18        0.259   0.338   7.874   8.471
   19        0.259   0.338   7.874   8.471
   20        0.259   0.338   7.867   8.463
   21        0.259   0.340   7.872   8.471
   22        0.260   0.340   7.868   8.468
   23        0.269   0.355   7.877   8.501
   24        0.263   0.342   7.886   8.491
   25        0.263   0.349   7.865   8.476
   26        0.264   0.349   7.858   8.470
   27        0.264   0.349   7.858   8.470
   28        0.263   0.349   7.865   8.476
   29        0.256   0.327   7.889   8.472
   30        0.259   0.335   7.882   8.476
   31        0.267   0.346   7.894   8.507
   32        1.256   2.797   0.005   4.059
   33        1.261   2.782   0.006   4.049
   34        1.256   2.796   0.006   4.058
   35        1.256   2.793   0.005   4.055
   36        1.255   2.798   0.006   4.058
   37        1.261   2.778   0.007   4.046
   38        1.261   2.778   0.007   4.046
   39        1.255   2.798   0.006   4.058
   40        1.257   2.798   0.005   4.060
   41        1.257   2.794   0.006   4.056
   42        1.257   2.794   0.006   4.056
   43        1.257   2.798   0.005   4.060
   44        1.255   2.798   0.005   4.059
   45        1.255   2.797   0.005   4.058
   46        1.256   2.795   0.005   4.057
   47        1.258   2.789   0.005   4.052
   48        1.256   2.797   0.005   4.058
   49        1.257   2.794   0.005   4.056
   50        1.256   2.797   0.006   4.059
   51        1.261   2.784   0.006   4.052
   52        1.256   2.794   0.006   4.057
   53        1.257   2.790   0.006   4.054
   54        1.257   2.790   0.006   4.054
   55        1.256   2.794   0.006   4.057
   56        1.255   2.801   0.006   4.062
   57        1.262   2.782   0.006   4.050
   58        1.262   2.782   0.006   4.050
   59        1.255   2.801   0.006   4.062
   60        1.256   2.798   0.005   4.059
   61        1.257   2.791   0.006   4.054
   62        1.257   2.795   0.006   4.057
   63        1.257   2.794   0.006   4.056
tot          75.66   98.80  127.60  302.06

magnetization (x)

# of ion       s       p       d       tot
    1        0.002   0.010  -0.001   0.010
    2        0.002   0.010  -0.001   0.010
    3        0.005   0.016  -0.001   0.020
    4        0.005   0.015  -0.000   0.020
    5        0.005   0.015  -0.000   0.020
    6        0.005   0.016  -0.001   0.020
    7        0.002   0.014   0.001   0.017
    8        0.002   0.013   0.001   0.016
    9        0.001   0.005  -0.001   0.004
   10        0.005   0.016  -0.000   0.021
   11        0.005   0.016  -0.000   0.021
   12        0.005   0.016  -0.000   0.021
   13        0.005   0.016  -0.000   0.021
   14        0.003   0.010   0.001   0.013
   15        0.002   0.010   0.001   0.013
   16       -0.000  -0.001   0.543   0.542
   17        0.001  -0.000   0.716   0.717
   18        0.001  -0.000   0.736   0.737
   19        0.001  -0.000   0.736   0.737
   20        0.001  -0.000   0.716   0.717
   21        0.001  -0.001   0.719   0.719
   22        0.001  -0.000   0.664   0.664
   23        0.003  -0.000   0.621   0.623
   24       -0.003  -0.000  -0.462  -0.465
   25        0.002  -0.000   0.622   0.624
   26        0.002  -0.000   0.609   0.611
   27        0.002  -0.000   0.609   0.611
   28        0.002  -0.000   0.622   0.624
   29        0.003  -0.000   0.710   0.714
   30       -0.005  -0.000  -0.547  -0.552
   31        0.004   0.000   0.562   0.567
   32        0.001  -0.046  -0.000  -0.045
   33        0.001  -0.073   0.000  -0.073
   34        0.012   0.069   0.000   0.082
   35        0.012   0.074   0.000   0.086
   36        0.006   0.036   0.000   0.041
   37        0.005   0.043   0.000   0.049
   38        0.005   0.043   0.000   0.049
   39        0.006   0.036   0.000   0.041
   40        0.012   0.077   0.000   0.090
   41        0.012   0.081   0.000   0.094
   42        0.012   0.081   0.000   0.094
   43        0.012   0.077   0.000   0.090
   44        0.011   0.100   0.000   0.111
   45        0.011   0.097   0.000   0.108
   46        0.012   0.087   0.000   0.100
   47        0.012   0.084   0.000   0.096
   48        0.000  -0.061  -0.000  -0.061
   49        0.000  -0.061  -0.000  -0.061
   50        0.011   0.038   0.000   0.049
   51        0.011   0.053   0.000   0.064
   52        0.007   0.040   0.000   0.047
   53        0.007   0.048   0.000   0.055
   54        0.007   0.048   0.000   0.055
   55        0.007   0.040   0.000   0.047
   56        0.010   0.063   0.000   0.074
   57        0.010   0.073   0.000   0.083
   58        0.010   0.073   0.000   0.083
   59        0.010   0.063   0.000   0.074
   60        0.011   0.102   0.000   0.113
   61        0.010   0.096   0.000   0.106
   62        0.012   0.062   0.000   0.074
   63        0.011   0.055   0.000   0.067
tot           0.35    1.79    8.18   10.32