 vasp.5.4.4.18Apr17-6-g9f103f2a35 (build May 12 2020 05:39:39) gamma-only

 MD_VERSION_INFO: Compiled 2020-05-12T12:39:39-UTC in devlin.sd.materialsdesign.
 com:/home/medea2/data/build/wwolf/vasp-gpu5.4.4/13047/x86_64/src/src/build/gam
 from svn 13047

 executed on                        Lin64 date 2023.03.07  01:46:40

 INCAR:
 POTCAR:    PAW_PBE Li_sv 10Sep2004
 POTCAR:    PAW_PBE Ni 02Aug2007
 POTCAR:    PAW_PBE O 08Apr2002

 POTCAR:    PAW_PBE Li_sv 10Sep2004

 POTCAR:    PAW_PBE Ni 02Aug2007

 POTCAR:    PAW_PBE O 08Apr2002

 Optimization of the real space projectors (new method)

 maximal supplied QI-value         = 22.11
 optimisation between [QCUT,QGAM] = [ 11.28, 22.77] = [ 35.61,145.23] Ry
 Optimized for a Real-space Cutoff    1.10 Angstroem

   l    n(q)    QCUT    max X(q) W(low)/X(q) W(high)/X(q)  e(spline)
   0      7    11.276    10.506    0.54E-04    0.58E-04    0.16E-07
   0      7    11.276     8.367    0.11E-03    0.14E-03    0.35E-07
   1      7    11.276     8.983    0.23E-03    0.43E-03    0.86E-07
 Optimization of the real space projectors (new method)

[...]

   l    n(q)    QCUT    max X(q) W(low)/X(q) W(high)/X(q)  e(spline)
   2      9    11.376    60.317    0.17E-03    0.16E-04    0.16E-06
   2      9    11.376    55.921    0.17E-03    0.16E-04    0.17E-06
   0     10    11.376    51.690    0.45E-04    0.60E-04    0.21E-06
   0     10    11.376    30.015    0.37E-04    0.55E-04    0.19E-06
   1     10    11.376    18.849    0.83E-04    0.11E-03    0.92E-07
   1     10    11.376    14.624    0.69E-04    0.92E-04    0.82E-07
 Optimization of the real space projectors (new method)

 maximal supplied QI-value         = 24.76
 optimisation between [QCUT,QGAM] = [ 11.39, 22.77] = [ 36.31,145.25] Ry
 Optimized for a Real-space Cutoff    1.10 Angstroem

   l    n(q)    QCUT    max X(q) W(low)/X(q) W(high)/X(q)  e(spline)
   0      7    11.387    20.381    0.22E-03    0.48E-03    0.18E-06
   0      7    11.387    15.268    0.22E-03    0.52E-03    0.19E-06
   1      7    11.387     5.964    0.22E-03    0.73E-03    0.24E-06
   1      7    11.387     5.382    0.19E-03    0.60E-03    0.21E-06

  PAW_PBE Li_sv 10Sep2004               :
  PAW_PBE Ni 02Aug2007                  :
  PAW_PBE O 08Apr2002                   :

 POSCAR: ce1360_1
  positions in direct lattice
 exchange correlation table for  LEXCH =       14
   RHO(1)=    0.500       N(1)  =     2000
   RHO(2)=  100.500       N(2)  =     4000

 ion  position               nearest neighbor table
   1  0.982  0.251  0.233-  38 2.06  33 2.06  45 2.16  30 2.19  24 2.27  42 2.28   6 2.80
   2  0.000  0.749  0.786-  39 1.94  32 2.05  31 2.06   6 2.70  15 2.83
   3  0.264  0.250  0.516-  46 2.00  34 2.04  22 2.14  36 2.18  42 2.26  15 2.79  13 2.81
   4  0.253  0.752  0.483-  47 2.03  35 2.07  23 2.08  37 2.18  25 2.22  43 2.28  16 2.77
   5  0.748  0.752  0.484-  48 2.01  35 2.08  23 2.09  37 2.19  25 2.22  44 2.27  17 2.77
   6  1.000  0.999  1.000-  31 1.83  33 1.84  30 1.85  32 1.85  40 1.90  41 1.90   2 2.70  11 2.77
                            11 2.78   7 2.80   1 2.80  10 2.81   9 2.82   8 2.82
   7  0.250  0.995  0.247-  53 1.83  24 1.84  41 1.85  36 1.86  30 1.91  47 1.94  10 2.77  10 2.78
                            11 2.80   6 2.80  13 2.83  12 2.83
   8  0.251  0.001  0.751-  52 1.82  40 1.86  25 1.86  37 1.88  31 1.97  46 1.99   9 2.77   9 2.78
                            11 2.81  13 2.82   6 2.82  12 2.82
   9  0.750  0.000  0.750-  52 1.83  40 1.85  25 1.87  37 1.88  32 1.92  49 1.92   8 2.77   8 2.78
                            13 2.81  12 2.81   6 2.82  11 2.82
  10  0.749  0.997  0.249-  53 1.82  41 1.85  24 1.86  36 1.87  33 1.94  48 1.98   7 2.77   7 2.78
                            11 2.80   6 2.81  13 2.81  12 2.82
  11  0.500  0.999  1.000-  31 1.85  33 1.85  30 1.86  32 1.86  53 1.93  52 1.94   6 2.77   6 2.78
                             7 2.80  10 2.80   8 2.81   9 2.82
  12  0.999  0.003  0.501-  48 1.83  46 1.83  49 1.84  47 1.85  24 1.98  25 1.99  13 2.77  13 2.79
                             9 2.81  10 2.82   8 2.82   7 2.83
  13  0.501  0.002  0.501-  48 1.84  46 1.84  49 1.85  47 1.86  36 1.88  37 1.89  12 2.77  12 2.79
                             9 2.81  10 2.81   3 2.81   8 2.82   7 2.83
  14  0.000  0.500  0.500-  42 1.84  44 1.84  45 1.84  43 1.85  22 1.88  23 1.91  19 2.77  19 2.78
                            18 2.82  15 2.82  16 2.83  17 2.83
  15  0.251  0.499  0.751-  34 1.83  51 1.84  39 1.85  22 1.86  26 1.92  43 1.99  18 2.76  18 2.79
                             3 2.79  21 2.80  20 2.81  19 2.82  14 2.82   2 2.83
  16  0.251  0.504  0.251-  50 1.84  38 1.84  35 1.86  23 1.88  27 1.93  42 2.01  17 2.76   4 2.77
                            17 2.79  21 2.81  20 2.81  19 2.82  14 2.83
  17  0.749  0.505  0.251-  50 1.84  38 1.85  35 1.86  23 1.88  28 1.91  45 1.95  16 2.76   5 2.77
                            16 2.79  21 2.80  20 2.81  19 2.82  14 2.83
  18  0.749  0.494  0.749-  51 1.84  39 1.84  34 1.84  22 1.87  29 1.92  44 2.01  15 2.76  15 2.79
                            21 2.80  20 2.81  19 2.81  14 2.82
  19  0.501  0.499  0.500-  45 1.86  44 1.86  42 1.86  43 1.87  34 1.93  35 1.95  14 2.77  14 2.78
                            18 2.81  15 2.82  16 2.82  17 2.82
  20  1.000  0.500  1.000-  27 1.84  29 1.84  26 1.84  28 1.84  39 1.93  38 1.94  21 2.77  21 2.78
                            15 2.81  17 2.81  18 2.81  16 2.81
  21  0.500  0.500  1.000-  27 1.84  29 1.84  26 1.84  28 1.84  51 1.88  50 1.89  20 2.77  20 2.78
                            15 2.80  17 2.80  18 2.80  16 2.81
  22  0.004  0.401  0.631-  15 1.86  18 1.87  14 1.88   3 2.14
  23  0.001  0.604  0.371-  16 1.88  17 1.88  14 1.91   4 2.08   5 2.09
  24  0.004  0.100  0.357-   7 1.84  10 1.86  12 1.98   1 2.27
  25  0.002  0.897  0.638-   8 1.86   9 1.87  12 1.99   5 2.22   4 2.22
  26  0.250  0.402  0.888-  20 1.84  21 1.84  15 1.92
  27  0.250  0.599  0.110-  20 1.84  21 1.84  16 1.93
  28  0.751  0.599  0.112-  20 1.84  21 1.84  17 1.91
  29  0.750  0.401  0.889-  20 1.84  21 1.84  18 1.92
  30  0.248  0.097  0.116-   6 1.85  11 1.86   7 1.91   1 2.19
  31  0.248  0.900  0.889-   6 1.83  11 1.85   8 1.97   2 2.06
  32  0.752  0.901  0.884-   6 1.85  11 1.86   9 1.92   2 2.05
  33  0.751  0.098  0.112-   6 1.84  11 1.85  10 1.94   1 2.06
  34  0.496  0.400  0.636-  15 1.83  18 1.84  19 1.93   3 2.04
  35  0.500  0.605  0.367-  16 1.86  17 1.86  19 1.95   4 2.07   5 2.08
  36  0.496  0.096  0.365-   7 1.86  10 1.87  13 1.88   3 2.18
  37  0.500  0.900  0.630-   9 1.88   8 1.88  13 1.89   4 2.18   5 2.19
  38  1.000  0.404  0.141-  16 1.84  17 1.85  20 1.94   1 2.06
  39  0.997  0.595  0.861-  18 1.84  15 1.85  20 1.93   2 1.94
  40  0.999  0.097  0.866-   9 1.85   8 1.86   6 1.90
  41  0.998  0.900  0.132-   7 1.85  10 1.85   6 1.90
  42  0.247  0.398  0.390-  14 1.84  19 1.86  16 2.01   3 2.26   1 2.28
  43  0.249  0.603  0.612-  14 1.85  19 1.87  15 1.99   4 2.28
  44  0.753  0.602  0.611-  14 1.84  19 1.86  18 2.01   5 2.27
  45  0.752  0.402  0.386-  14 1.84  19 1.86  17 1.95   1 2.16
  46  0.250  0.103  0.609-  12 1.83  13 1.84   8 1.99   3 2.00
  47  0.248  0.901  0.389-  12 1.85  13 1.86   7 1.94   4 2.03
  48  0.751  0.901  0.393-  12 1.83  13 1.84  10 1.98   5 2.01
  49  0.750  0.099  0.615-  12 1.84  13 1.85   9 1.92
  50  0.500  0.407  0.137-  16 1.84  17 1.84  21 1.89
  51  0.503  0.593  0.864-  15 1.84  18 1.84  21 1.88
  52  0.500  0.097  0.862-   8 1.82   9 1.83  11 1.94
  53  0.502  0.900  0.137-  10 1.82   7 1.83  11 1.93

  LATTYP: Found a triclinic cell.
 ALAT       =    11.6218800079
 B/A-ratio  =     0.4775692928
 C/A-ratio  =     0.8423143228
 COS(alpha) =     0.0002549065
 COS(beta)  =     0.2982465475
 COS(gamma) =     0.4763340140

  Lattice vectors:

 A1 = (  -3.5477525259,   5.5433798548,   9.5787518351)
 A2 = (  -0.0006828286,   5.5502510781,  -0.0045877444)
 A3 = (  -9.7889160835,   0.0012216757,  -0.0839333391)

Analysis of symmetry for initial positions (statically):
 Subroutine PRICEL returns:
 Original cell was already a primitive cell.

 Routine SETGRP: Setting up the symmetry group for a
 triclinic supercell.

 Subroutine GETGRP returns: Found  1 space group operations
 (whereof  1 operations were pure point group operations)
 out of a pool of  2 trial point group operations.

The static configuration has the point symmetry C_1 .

Analysis of symmetry for dynamics (positions and initial velocities):
 Subroutine PRICEL returns:
 Original cell was already a primitive cell.

[...]

The dynamic configuration has the point symmetry C_1 .

Analysis of structural, dynamic, and magnetic symmetry:
 Subroutine PRICEL returns:
 Original cell was already a primitive cell.

 Routine SETGRP: Setting up the symmetry group for a
 triclinic supercell.

 Subroutine GETGRP returns: Found  1 space group operations
 (whereof  1 operations were pure point group operations)
 out of a pool of  2 trial point group operations.

The magnetic configuration has the point symmetry C_1 .

 Subroutine INISYM returns: Found  1 space group operations
 (whereof  1 operations are pure point group operations),
 and found     1 'primitive' translations

 KPOINTS: Automatic mesh

Automatic generation of k-mesh.
Space group operators:
 irot       det(A)        alpha          n_x          n_y          n_z        tau_x        tau_y        tau_z
    1     1.000000     0.000001     1.000000     0.000000     0.000000     0.000000     0.000000     0.000000

 Subroutine IBZKPT returns following result:

 Found      1 irreducible k-points:

 Following reciprocal coordinates:
            Coordinates               Weight
  0.000000  0.000000  0.000000      1.000000

 Following cartesian coordinates:
            Coordinates               Weight
  0.000000  0.000000  0.000000      1.000000

 SYSTEM =  unknown system
 POSCAR =  ce1360_1

 Startparameter for this run:
   NWRITE =      1    write-flag & timer
   PREC   = accura    normal or accurate (medium, high low for compatibility)
   ISTART =      0    job   : 0-new  1-cont  2-samecut
   ICHARG =      2    charge: 1-file 2-atom 10-const
   ISPIN  =      2    spin polarized calculation?
   LNONCOLLINEAR =      F non collinear calculations
   LSORBIT =      F    spin-orbit coupling
   INIWAV =      1    electr: 0-lowe 1-rand  2-diag
   LASPH  =      F    aspherical Exc in radial PAW
   METAGGA=      F    non-selfconsistent MetaGGA calc.

 Electronic Relaxation 1
   ENCUT  =  500.0 eV  36.75 Ry    6.06 a.u.  10.12 18.63 17.85*2*pi/ulx,y,z
   ENINI  =  500.0     initial cutoff
   ENAUG  =  628.9 eV  augmentation charge cutoff
   NELM   =     80;   NELMIN=  2; NELMDL= -5     # of ELM steps
   EDIFF  = 0.1E-04   stopping-criterion for ELM
   LREAL  =      T    real-space projection
   NLSPLINE    = F    spline interpolate recip. space projectors
   LCOMPAT=      F    compatible to vasp.4.4
   GGA_COMPAT  = T    GGA compatible to vasp.4.4-vasp.4.6
   LMAXPAW     = -100 max onsite density
   LMAXMIX     =    2 max onsite mixed and CHGCAR
   VOSKOWN=      1    Vosko Wilk Nusair interpolation
   ROPT   =   -0.00025  -0.00025  -0.00025
 Ionic relaxation
[...]
   -.109E+01 -.120E+01 0.654E+01   0.178E+00 0.125E+01 -.624E+01   0.895E+00 -.542E-01 -.296E+00   0.634E-03 -.986E-04 -.279E-02
   0.940E+00 0.120E+01 0.285E+01   -.156E+01 -.126E+01 -.271E+01   0.623E+00 0.589E-01 -.138E+00   -.299E-03 0.107E-03 -.300E-02
   0.180E+01 -.840E+00 -.320E+02   -.184E+01 0.840E+00 0.322E+02   0.425E-01 -.279E-02 -.199E+00   -.112E-02 0.110E-02 -.213E-02
   0.213E+02 -.107E+02 0.630E+02   -.212E+02 0.108E+02 -.642E+02   -.757E-01 -.751E-01 0.113E+01   0.420E-02 -.261E-02 -.435E-03
   -.257E+02 -.101E+02 -.910E+02   0.261E+02 0.101E+02 0.925E+02   -.383E+00 -.552E-01 -.149E+01   -.198E-02 -.112E-02 -.132E-02
   -.300E+02 0.102E+02 -.885E+02   0.302E+02 -.103E+02 0.902E+02   -.193E+00 0.711E-01 -.169E+01   -.282E-02 0.162E-02 -.151E-02
   0.105E+01 0.114E+02 0.213E+02   -.871E+00 -.115E+02 -.222E+02   -.191E+00 0.122E+00 0.885E+00   0.466E-02 0.300E-02 -.295E-03
   0.296E+01 0.595E+00 -.222E+02   -.307E+01 -.571E+00 0.221E+02   0.105E+00 -.263E-01 0.921E-01   -.182E-02 -.489E-03 -.182E-02
   0.134E+02 0.124E+02 -.721E+02   -.138E+02 -.126E+02 0.732E+02   0.449E+00 0.136E+00 -.103E+01   0.164E-02 -.368E-03 -.593E-04
   0.132E+02 -.134E+02 -.642E+02   -.136E+02 0.136E+02 0.651E+02   0.336E+00 -.187E+00 -.911E+00   0.251E-02 0.925E-03 0.192E-03
   -.124E+02 0.126E+02 0.498E+02   0.127E+02 -.128E+02 -.504E+02   -.326E+00 0.130E+00 0.627E+00   0.185E-02 0.108E-02 0.182E-02
   -.517E+02 -.889E+01 0.339E+01   0.525E+02 0.913E+01 -.372E+01   -.784E+00 -.243E+00 0.327E+00   -.270E-02 -.572E-03 0.695E-03
   0.503E+02 -.875E+01 0.353E+02   -.516E+02 0.901E+01 -.354E+02   0.126E+01 -.251E+00 0.970E-01   -.201E-03 -.681E-03 0.184E-02
   0.557E+02 0.919E+01 0.196E+02   -.566E+02 -.944E+01 -.197E+02   0.905E+00 0.260E+00 0.136E+00   -.224E-02 0.131E-03 0.195E-02
   -.284E+02 0.750E+01 0.622E+02   0.292E+02 -.774E+01 -.634E+02   -.878E+00 0.248E+00 0.117E+01   -.973E-03 -.247E-03 0.128E-02
   -.967E+01 -.123E+02 0.531E+02   0.998E+01 0.124E+02 -.538E+02   -.310E+00 -.156E+00 0.705E+00   0.192E-02 -.182E-02 0.209E-02
   -.225E+01 -.136E+01 0.304E+02   0.221E+01 0.135E+01 -.304E+02   0.484E-01 0.632E-02 -.455E-01   -.148E-02 -.160E-02 0.156E-02
   -.317E+00 0.140E+01 0.248E+02   0.278E+00 -.139E+01 -.248E+02   0.444E-01 0.212E-03 -.668E-01   -.162E-02 0.789E-03 0.142E-02
   -.335E+02 0.328E+02 0.381E+03   0.344E+02 -.350E+02 -.403E+03   -.929E+00 0.215E+01 0.221E+02   0.269E-02 0.461E-02 0.650E-02
   0.476E+02 -.384E+01 -.320E+03   -.491E+02 0.413E+01 0.337E+03   0.151E+01 -.286E+00 -.166E+02   -.931E-03 -.267E-02 -.468E-02
   -.113E+02 0.240E+02 -.354E+03   0.136E+02 -.255E+02 0.373E+03   -.229E+01 0.142E+01 -.191E+02   0.489E-02 -.480E-02 0.593E-02
   -.108E+02 -.194E+01 0.303E+03   0.101E+02 0.219E+01 -.319E+03   0.729E+00 -.247E+00 0.161E+02   -.399E-02 0.308E-02 -.581E-02
   -.191E+02 0.257E+01 0.405E+03   0.195E+02 -.273E+01 -.432E+03   -.399E+00 0.159E+00 0.264E+02   -.510E-02 -.549E-03 0.628E-02
   0.107E+02 0.169E+01 -.380E+03   -.997E+01 -.174E+01 0.405E+03   -.708E+00 0.490E-01 -.258E+02   0.273E-03 -.538E-03 -.347E-02
   0.241E+02 -.234E+01 -.381E+03   -.250E+02 0.257E+01 0.407E+03   0.887E+00 -.225E+00 -.259E+02   0.429E-02 0.107E-02 -.524E-02
   -.286E+01 -.184E+01 0.408E+03   0.214E+01 0.182E+01 -.435E+03   0.725E+00 0.194E-01 0.262E+02   0.916E-04 0.906E-03 0.522E-02
   0.166E+02 -.352E+02 -.382E+03   -.159E+02 0.379E+02 0.404E+03   -.619E+00 -.270E+01 -.224E+02   -.589E-02 -.202E-02 0.688E-02
   -.124E+02 -.380E+02 0.350E+03   0.112E+02 0.410E+02 -.371E+03   0.118E+01 -.297E+01 0.209E+02   -.164E-02 -.195E-02 -.567E-02
   -.160E+02 0.393E+02 0.349E+03   0.154E+02 -.425E+02 -.370E+03   0.645E+00 0.320E+01 0.208E+02   0.246E-02 0.152E-02 -.732E-02
   0.134E+02 0.371E+02 -.377E+03   -.133E+02 -.400E+02 0.399E+03   -.788E-01 0.293E+01 -.216E+02   -.346E-03 0.162E-02 0.484E-02
   -.165E+02 -.339E+02 0.372E+03   0.158E+02 0.361E+02 -.393E+03   0.689E+00 -.220E+01 0.215E+02   0.269E-02 -.430E-02 0.662E-02
   0.305E+02 0.324E+01 -.314E+03   -.304E+02 -.336E+01 0.331E+03   -.134E+00 0.116E+00 -.168E+02   -.998E-03 0.320E-02 -.458E-02
   0.291E+02 -.271E+02 -.369E+03   -.312E+02 0.289E+02 0.390E+03   0.218E+01 -.189E+01 -.215E+02   0.444E-02 0.450E-02 0.678E-02
   -.450E+02 0.200E+01 0.316E+03   0.478E+02 -.225E+01 -.334E+03   -.284E+01 0.246E+00 0.177E+02   -.284E-02 -.347E-02 -.664E-02
   0.592E+02 -.598E+01 0.382E+03   -.638E+02 0.607E+01 -.403E+03   0.460E+01 -.767E-01 0.214E+02   0.144E-02 -.354E-02 0.705E-02
   -.599E+02 0.580E+01 -.349E+03   0.647E+02 -.635E+01 0.369E+03   -.476E+01 0.550E+00 -.203E+02   -.159E-02 0.409E-02 -.577E-02
   -.174E+01 -.668E+00 -.423E+03   0.177E+01 0.711E+00 0.449E+03   -.333E-01 -.479E-01 -.259E+02   -.869E-04 0.375E-02 0.496E-02
   -.171E+01 0.231E+01 0.401E+03   0.178E+01 -.263E+01 -.427E+03   -.753E-01 0.325E+00 0.260E+02   -.260E-02 -.472E-02 -.760E-02
   0.540E+02 -.285E+02 0.380E+03   -.585E+02 0.302E+02 -.399E+03   0.453E+01 -.175E+01 0.193E+02   0.137E-02 -.996E-04 0.614E-02
   -.466E+02 -.294E+02 -.350E+03   0.489E+02 0.316E+02 0.369E+03   -.229E+01 -.214E+01 -.191E+02   0.531E-02 0.241E-03 -.599E-02
   -.640E+02 0.279E+02 -.339E+03   0.684E+02 -.297E+02 0.358E+03   -.438E+01 0.179E+01 -.192E+02   0.111E-02 0.405E-03 -.358E-02
   0.127E+02 0.323E+02 0.394E+03   -.128E+02 -.347E+02 -.415E+03   0.616E-01 0.245E+01 0.215E+02   -.243E-02 0.491E-03 0.642E-02
   -.673E+02 0.520E+01 -.393E+03   0.729E+02 -.540E+01 0.414E+03   -.561E+01 0.204E+00 -.210E+02   -.504E-03 -.559E-03 0.310E-02
   0.708E+02 0.521E+01 0.355E+03   -.754E+02 -.561E+01 -.374E+03   0.466E+01 0.404E+00 0.197E+02   0.609E-02 -.116E-02 -.616E-02
   0.764E+02 -.482E+01 0.349E+03   -.818E+02 0.513E+01 -.369E+03   0.531E+01 -.314E+00 0.203E+02   0.955E-03 0.648E-03 -.393E-02
   -.335E+02 -.415E+01 -.423E+03   0.354E+02 0.412E+01 0.449E+03   -.188E+01 0.229E-01 -.260E+02   -.527E-02 0.380E-03 0.408E-02
   0.234E+02 0.581E+01 0.411E+03   -.240E+02 -.590E+01 -.437E+03   0.570E+00 0.902E-01 0.264E+02   0.197E-02 0.414E-02 0.666E-02
   -.230E+02 -.601E+01 -.386E+03   0.234E+02 0.673E+01 0.412E+03   -.451E+00 -.714E+00 -.263E+02   -.252E-02 -.363E-02 -.547E-02
   -.236E+02 0.164E+00 -.418E+03   0.256E+02 -.774E-01 0.444E+03   -.200E+01 -.871E-01 -.266E+02   -.105E-02 -.416E-02 0.529E-02
   0.195E+02 -.227E+01 0.397E+03   -.211E+02 0.263E+01 -.423E+03   0.159E+01 -.364E+00 0.268E+02   -.174E-02 0.457E-02 -.834E-02
   -.514E+00 -.230E+00 0.150E+01   -.362E-12 -.142E-13 -.568E-13   0.509E+00 0.223E+00 -.152E+01   0.173E-02 0.252E-03 0.532E-02

 POSITION                                       TOTAL-FORCE (eV/Angst)
      1.36852      5.44730      2.43429        -0.016803     -0.002566      0.001990
      5.04835     -0.01579      7.28819         0.028342     -0.010288     -0.001956
      4.15577      1.48032      2.43553         0.008166      0.009551     -0.004105
      2.02391      1.40084      7.30604        -0.016298     -0.004043      0.003645
      2.05957      4.15034      7.29613        -0.000146     -0.002605      0.003448
      6.21013      5.54929      9.70950        -0.005099     -0.001114      0.001821
     -1.13787      1.38964      9.62377        -0.004260     -0.000281      0.000264
      7.32951      1.39055      0.04651        -0.004153     -0.001707     -0.002926
      7.32835      4.16030      0.04142        -0.004797     -0.002352     -0.001627
     -1.13362      4.15929      9.65184        -0.003135     -0.001554      0.000688
      6.21338      2.77245      9.70131        -0.004586     -0.003034      0.000931
      4.88475      5.54491      0.05200        -0.004238     -0.003150     -0.002864
      4.88406      2.77831      0.04216        -0.004426      0.000813     -0.003823
      3.11520      0.00114      4.86198         0.002312      0.004765     -0.001722
      5.56790      1.39527      4.86445         0.004161      0.001087      0.002068
      0.65350      1.39741      4.88846         0.004946      0.001502      0.001215
      0.65608      4.16321      4.89681         0.004745      0.002797      0.002129
      5.56145      4.15990      4.81850         0.003750      0.002985      0.000179
      3.11364      2.78181      4.85629         0.002764      0.000394     -0.000080
      7.99754      5.55362      4.88478         0.004457      0.001345      0.001809
      7.99668      2.77899      4.88945         0.004063      0.003901      0.002106
      4.74974      0.02579      3.91270        -0.002336      0.003406     -0.001174
      1.48038      0.00976      5.85139         0.008269     -0.000296      0.000705
      3.14392      0.01996      0.97488         0.004727     -0.003468     -0.002167
      3.02271      0.00126      8.69957        -0.011441      0.000856      0.000489
      7.21980      1.39085      3.94415        -0.000113      0.002469      0.002865
     -1.06968      1.38653      5.78683         0.008975      0.000735      0.000929
     -1.01381      4.16977      5.77857         0.007212      0.000708     -0.000509
      7.27618      4.16761      3.92966         0.001571      0.002833      0.002904
      0.76857      1.37666      0.94022        -0.001225     -0.003044      0.002697
      5.46430      1.37468      8.74648        -0.008493     -0.001547     -0.000293
      5.44705      4.17352      8.74959        -0.005704     -0.000029     -0.000385
      0.75321      4.16798      0.94622         0.001320     -0.002137      0.001564
      4.80286      2.75678      3.90110        -0.000496      0.003206     -0.000969
      1.42505      2.77165      5.86262         0.006177      0.000770      0.001185
      3.23431      2.75370      0.93958         0.002452     -0.000646     -0.001895
      2.93721      2.77324      8.73164        -0.008042     -0.001917     -0.002814
     -0.05584      5.55599      3.91858        -0.002057      0.002803      0.002951
      6.29335      5.53472      5.79870         0.010710      0.000478     -0.000489
      8.12722      5.55260      0.97109        -0.001513     -0.000652     -0.002658
     -1.93279      5.53817      8.71058        -0.008643     -0.001713      0.000490
      2.41112      1.37941      3.87407        -0.001591      0.002109      0.004696
      3.87464      1.37657      5.84139         0.009891      0.000883     -0.000814
      3.82029      4.17583      5.84645         0.009824      0.000082      0.000075
      2.31104      4.18426      3.91739        -0.001291      0.002260      0.003900
      5.60083      1.38580      1.01490         0.001967      0.000501     -0.003737
      0.59835      1.37883      8.72062        -0.006949      0.002073     -0.005520
      0.60387      4.16770      8.72362        -0.008397     -0.002483     -0.003254
      5.64517      4.16244      0.98691        -0.001828     -0.004637     -0.003062
     -0.11317      2.78488      3.94787        -0.001921      0.003257      0.002522
      6.33835      2.79391      5.78072         0.008992      0.000418      0.001521
      8.08747      2.77440      0.96871        -0.000122     -0.004637     -0.003777
     -1.88659      2.78589      8.70649        -0.009690      0.000910      0.000832
    total drift:                               -0.002795     -0.007074     -0.012645

  FREE ENERGIE OF THE ION-ELECTRON SYSTEM (eV)
  free  energy   TOTEN  =      -329.4442207895 eV

  energy  without entropy=     -329.4371860483  energy(sigma->0) =     -329.44070342

 d Force =-0.8490879E-05[-0.823E-05,-0.875E-05]  d Energy =-0.1122452E-04 0.273E-05
 d Force = 0.4808245E-01[ 0.481E-01, 0.481E-01]  d Ewald  = 0.8280662E-01-0.347E-01

 Quasi-Newton relaxation of ions (Broydens 2nd method)
  g(Force)  = 0.181E-03   g(Stress)= 0.890E-04

 retain information from N=  2 steps
 eigenvalues of (default step * inverse Hessian matrix)
  average eigenvalue of G=   1.3375
 eigenvalue spectrum of G is  2.5330  0.1419

volume of typ            1:     7.4 %

[...]

volume of typ            3:     9.9 %

total charge

# of ion       s       p       d       tot
    1        2.062   0.191   0.071   2.324
    2        2.072   0.219   0.083   2.374
    3        2.067   0.207   0.078   2.352
    4        2.074   0.223   0.085   2.382
    5        2.072   0.222   0.083   2.377
    6        0.306   0.437   7.840   8.583
    7        0.291   0.407   7.844   8.541
    8        0.282   0.386   7.848   8.516
    9        0.288   0.396   7.844   8.529
   10        0.285   0.394   7.841   8.521
   11        0.287   0.398   7.827   8.512
   12        0.289   0.406   7.854   8.549
   13        0.304   0.436   7.843   8.583
   14        0.302   0.432   7.847   8.581
   15        0.297   0.418   7.845   8.559
   16        0.283   0.384   7.854   8.521
   17        0.294   0.410   7.842   8.546
   18        0.286   0.391   7.844   8.521
   19        0.281   0.388   7.850   8.520
   20        0.291   0.411   7.832   8.533
   21        0.303   0.432   7.825   8.559
   22        1.272   2.757   0.008   4.037
   23        1.260   2.791   0.007   4.057
   24        1.268   2.767   0.007   4.042
   25        1.261   2.785   0.006   4.052
   26        1.285   2.724   0.008   4.017
   27        1.284   2.728   0.008   4.020
   28        1.284   2.728   0.008   4.020
   29        1.285   2.724   0.008   4.018
   30        1.274   2.752   0.008   4.033
   31        1.272   2.760   0.007   4.039
   32        1.271   2.764   0.007   4.042
   33        1.272   2.760   0.008   4.039
   34        1.271   2.765   0.008   4.044
   35        1.260   2.792   0.007   4.058
   36        1.272   2.761   0.008   4.040
   37        1.263   2.784   0.007   4.053
   38        1.273   2.756   0.008   4.037
   39        1.269   2.772   0.008   4.049
   40        1.284   2.724   0.008   4.016
   41        1.283   2.728   0.008   4.020
   42        1.269   2.765   0.007   4.041
   43        1.270   2.761   0.007   4.038
   44        1.269   2.766   0.007   4.041
   45        1.272   2.757   0.007   4.036
   46        1.272   2.761   0.007   4.041
   47        1.270   2.769   0.007   4.046
   48        1.271   2.766   0.007   4.044
   49        1.283   2.729   0.008   4.020
   50        1.283   2.728   0.008   4.019
   51        1.282   2.732   0.008   4.023
   52        1.285   2.723   0.008   4.017
   53        1.284   2.727   0.008   4.019
tot          55.79   95.69  126.12  277.60

magnetization (x)

# of ion       s       p       d       tot
    1       -0.000   0.000   0.000   0.000
    2       -0.000  -0.000  -0.000  -0.001
    3       -0.001   0.000  -0.000  -0.001
    4        0.004   0.001   0.000   0.005
    5       -0.001   0.000  -0.000  -0.000
    6        0.000  -0.000   0.034   0.034
    7        0.000   0.000   0.216   0.216
    8       -0.001   0.000  -0.330  -0.331
    9       -0.000   0.000   0.184   0.185
   10       -0.001   0.000  -0.259  -0.260
   11        0.000  -0.000   0.168   0.168
   12        0.002   0.000   0.324   0.326
   13        0.000  -0.000   0.031   0.031
   14       -0.000   0.000  -0.033  -0.033
   15        0.000  -0.000   0.116   0.116
   16        0.001  -0.000   0.371   0.372
   17        0.000  -0.001   0.108   0.107
   18        0.001  -0.000   0.303   0.304
   19       -0.001   0.000  -0.295  -0.295
   20       -0.002   0.000  -0.235  -0.236
   21       -0.001   0.000  -0.036  -0.036
   22        0.001   0.003   0.000   0.004
   23        0.002   0.004   0.000   0.006
   24        0.003   0.030   0.000   0.033
   25        0.003   0.024   0.000   0.027
   26        0.000   0.003   0.000   0.003
   27        0.003   0.048   0.000   0.051
   28        0.000   0.001   0.000   0.001
   29        0.002   0.033   0.000   0.035
   30        0.004   0.028   0.000   0.032
   31       -0.002  -0.036  -0.000  -0.039
   32        0.003   0.022   0.000   0.026
   33       -0.001  -0.024  -0.000  -0.026
   34       -0.001  -0.031  -0.000  -0.032
   35       -0.001  -0.024  -0.000  -0.026
   36       -0.000   0.000   0.000   0.000
   37       -0.000  -0.002   0.000  -0.002
   38       -0.001  -0.009  -0.000  -0.010
   39       -0.001  -0.008  -0.000  -0.009
   40       -0.000  -0.004   0.000  -0.004
   41        0.000   0.000   0.000   0.000
   42        0.003   0.030   0.000   0.033
   43       -0.001  -0.002   0.000  -0.003
   44        0.002   0.019   0.000   0.020
   45       -0.001  -0.002  -0.000  -0.003
   46       -0.002  -0.021  -0.000  -0.023
   47        0.004   0.024   0.000   0.028
   48       -0.002  -0.013  -0.000  -0.015
   49        0.003   0.029   0.000   0.032
   50        0.002   0.014   0.000   0.016
   51        0.001   0.010   0.000   0.011
   52        0.001   0.011   0.000   0.012
   53        0.001   0.011   0.000   0.012
tot           0.02    0.17    0.67    0.86