 vasp.5.4.4.18Apr17-6-g9f103f2a35 (build May 12 2020 05:39:39) gamma-only

 MD_VERSION_INFO: Compiled 2020-05-12T12:39:39-UTC in devlin.sd.materialsdesign.
 com:/home/medea2/data/build/wwolf/vasp-gpu5.4.4/13047/x86_64/src/src/build/gam
 from svn 13047

 executed on                        Lin64 date 2023.03.07  01:43:19

 INCAR:
 POTCAR:    PAW_PBE Li_sv 10Sep2004
 POTCAR:    PAW_PBE Ni 02Aug2007
 POTCAR:    PAW_PBE O 08Apr2002

 POTCAR:    PAW_PBE Li_sv 10Sep2004

 POTCAR:    PAW_PBE Ni 02Aug2007

 POTCAR:    PAW_PBE O 08Apr2002

 Optimization of the real space projectors (new method)

 maximal supplied QI-value         = 22.11
 optimisation between [QCUT,QGAM] = [ 11.28, 22.77] = [ 35.61,145.23] Ry
 Optimized for a Real-space Cutoff    1.10 Angstroem

   l    n(q)    QCUT    max X(q) W(low)/X(q) W(high)/X(q)  e(spline)
   0      7    11.276    10.506    0.54E-04    0.58E-04    0.16E-07
   0      7    11.276     8.367    0.11E-03    0.14E-03    0.35E-07
   1      7    11.276     8.983    0.23E-03    0.43E-03    0.86E-07
 Optimization of the real space projectors (new method)

[...]

   l    n(q)    QCUT    max X(q) W(low)/X(q) W(high)/X(q)  e(spline)
   2      9    11.376    60.317    0.17E-03    0.16E-04    0.16E-06
   2      9    11.376    55.921    0.17E-03    0.16E-04    0.17E-06
   0     10    11.376    51.690    0.45E-04    0.60E-04    0.21E-06
   0     10    11.376    30.015    0.37E-04    0.55E-04    0.19E-06
   1     10    11.376    18.849    0.83E-04    0.11E-03    0.92E-07
   1     10    11.376    14.624    0.69E-04    0.92E-04    0.82E-07
 Optimization of the real space projectors (new method)

 maximal supplied QI-value         = 24.76
 optimisation between [QCUT,QGAM] = [ 11.39, 22.77] = [ 36.31,145.25] Ry
 Optimized for a Real-space Cutoff    1.10 Angstroem

   l    n(q)    QCUT    max X(q) W(low)/X(q) W(high)/X(q)  e(spline)
   0      7    11.387    20.381    0.22E-03    0.48E-03    0.18E-06
   0      7    11.387    15.268    0.22E-03    0.52E-03    0.19E-06
   1      7    11.387     5.964    0.22E-03    0.73E-03    0.24E-06
   1      7    11.387     5.382    0.19E-03    0.60E-03    0.21E-06

  PAW_PBE Li_sv 10Sep2004               :
  PAW_PBE Ni 02Aug2007                  :
  PAW_PBE O 08Apr2002                   :

 POSCAR: ce67_1
  positions in direct lattice
 exchange correlation table for  LEXCH =       14
   RHO(1)=    0.500       N(1)  =     2000
   RHO(2)=  100.500       N(2)  =     4000

 ion  position               nearest neighbor table
   1  0.000  0.250  0.250-  37 2.11  40 2.11  31 2.11  49 2.11  52 2.11  45 2.14  13 2.82  21 2.83

   2  0.000  0.750  0.750-  38 2.11  39 2.11  32 2.11  50 2.11  51 2.11  46 2.14  13 2.82  21 2.83

[...]

  12  0.750  0.251  0.968-  36 1.98  47 2.06  59 2.06  57 2.22  45 2.22  16 2.70  28 2.82  27 2.82

  13  0.000  0.000  0.000-  37 1.88  38 1.88  39 1.88  40 1.88  47 1.94  48 1.94  18 2.82  18 2.82
                             1 2.82   2 2.82  14 2.86  15 2.86  16 2.86  17 2.86
  14  0.250  0.003  0.253-  60 1.88  31 1.88  48 1.89  43 1.89  54 1.96  37 2.02  10 2.70  17 2.81
                            17 2.82  19 2.83  20 2.83  13 2.86  18 2.86
  15  0.250  0.997  0.747-  59 1.88  32 1.88  47 1.89  44 1.89  53 1.96  38 2.02   9 2.70  16 2.81
                            16 2.82  19 2.83  20 2.83  13 2.86  18 2.86
  16  0.750  0.997  0.747-  59 1.88  32 1.88  47 1.89  44 1.89  56 1.96  39 2.02  12 2.70  15 2.81
                            15 2.82  19 2.83  20 2.83  13 2.86  18 2.86
  17  0.750  0.003  0.253-  60 1.88  31 1.88  48 1.89  43 1.89  55 1.96  40 2.02  11 2.70  14 2.81
                            14 2.82  19 2.83  20 2.83  13 2.86  18 2.86
  18  0.500  0.000  0.000-  37 1.88  38 1.88  39 1.88  40 1.88  59 1.94  60 1.94  13 2.82  13 2.82
                             7 2.82   8 2.82  17 2.86  14 2.86  15 2.86  16 2.86
  19  0.000  0.000  0.500-  53 1.85  54 1.85  55 1.85  56 1.85  31 2.05  32 2.05  20 2.82  20 2.82
                             3 2.83   4 2.83   5 2.83   6 2.83  14 2.83  15 2.83  16 2.83  17 2.83
  20  0.500  0.000  0.500-  53 1.85  54 1.85  55 1.85  56 1.85  43 2.03  44 2.03  19 2.82  19 2.82
                             3 2.83   4 2.83   5 2.83   6 2.83  14 2.83  15 2.83  16 2.83  17 2.83
  21  0.000  0.500  0.500-  49 1.88  50 1.88  51 1.88  52 1.88  29 1.92  30 1.92  26 2.82  26 2.82
                             1 2.83   2 2.83  22 2.86  23 2.86  24 2.86  25 2.86
  22  0.250  0.503  0.753-  41 1.88  46 1.89  58 1.89  29 1.89  33 1.96  50 2.03   3 2.70  25 2.81
                            25 2.82  28 2.83  27 2.83  26 2.86  21 2.86
  23  0.250  0.497  0.247-  42 1.88  45 1.89  57 1.89  30 1.89  34 1.96  49 2.03   4 2.70  24 2.81
                            24 2.82  28 2.83  27 2.83  26 2.86  21 2.86
  24  0.750  0.497  0.247-  42 1.88  45 1.89  57 1.89  30 1.89  35 1.96  52 2.03   5 2.70  23 2.81
                            23 2.82  28 2.83  27 2.83  26 2.86  21 2.86
  25  0.750  0.503  0.753-  41 1.88  46 1.89  58 1.89  29 1.89  36 1.96  51 2.03   6 2.70  22 2.81
                            22 2.82  28 2.83  27 2.83  26 2.86  21 2.86
  26  0.500  0.500  0.500-  49 1.89  50 1.89  51 1.89  52 1.89  41 1.94  42 1.94  21 2.82  21 2.82
                             7 2.83   8 2.83  25 2.86  22 2.86  23 2.86  24 2.86
  27  0.000  0.500  0.000-  33 1.85  34 1.85  35 1.85  36 1.85  45 2.03  46 2.03  28 2.82  28 2.82
                             9 2.82  10 2.82  11 2.82  12 2.82  22 2.83  23 2.83  24 2.83  25 2.83
  28  0.500  0.500  0.000-  33 1.85  34 1.85  35 1.85  36 1.85  57 2.05  58 2.05  27 2.82  27 2.82
                             9 2.82  10 2.82  11 2.82  12 2.82  22 2.83  23 2.83  24 2.83  25 2.83
  29  0.000  0.401  0.632-  22 1.89  25 1.89  21 1.92   6 2.06   3 2.06
  30  0.000  0.599  0.368-  23 1.89  24 1.89  21 1.92   5 2.06   4 2.06
  31  0.000  0.112  0.366-  14 1.88  17 1.88  19 2.05   1 2.11   6 2.23   3 2.23
  32  0.000  0.888  0.634-  15 1.88  16 1.88  19 2.05   2 2.11   5 2.23   4 2.23
  33  0.250  0.401  0.886-  28 1.85  27 1.85  22 1.96   9 1.98
  34  0.250  0.599  0.114-  28 1.85  27 1.85  23 1.96  10 1.98
  35  0.750  0.599  0.114-  28 1.85  27 1.85  24 1.96  11 1.98
  36  0.750  0.401  0.886-  28 1.85  27 1.85  25 1.96  12 1.98
  37  0.250  0.107  0.114-  13 1.88  18 1.88  14 2.02   7 2.11   1 2.11
  38  0.250  0.893  0.886-  13 1.88  18 1.88  15 2.02   8 2.11   2 2.11
  39  0.750  0.893  0.886-  13 1.88  18 1.88  16 2.02   8 2.11   2 2.11
  40  0.750  0.107  0.114-  13 1.88  18 1.88  17 2.02   7 2.11   1 2.11
  41  0.500  0.401  0.634-  22 1.88  25 1.88  26 1.94   6 2.05   3 2.05
  42  0.500  0.599  0.366-  23 1.88  24 1.88  26 1.94   5 2.05   4 2.05
  43  0.500  0.112  0.368-  14 1.89  17 1.89  20 2.03   7 2.14   3 2.22   6 2.22
  44  0.500  0.888  0.632-  15 1.89  16 1.89  20 2.03   8 2.14   4 2.22   5 2.22
  45  0.000  0.389  0.133-  23 1.89  24 1.89  27 2.03   1 2.14  12 2.22   9 2.22
  46  0.000  0.611  0.867-  22 1.89  25 1.89  27 2.03   2 2.14  11 2.22  10 2.22
  47  0.000  0.099  0.866-  15 1.89  16 1.89  13 1.94  12 2.06   9 2.06
  48  0.000  0.901  0.134-  14 1.89  17 1.89  13 1.94  11 2.06  10 2.06
  49  0.249  0.392  0.386-  21 1.88  26 1.89  23 2.03   1 2.11   7 2.12
  50  0.249  0.608  0.614-  21 1.88  26 1.89  22 2.03   2 2.11   8 2.12
  51  0.751  0.608  0.614-  21 1.88  26 1.89  25 2.03   2 2.11   8 2.12
  52  0.751  0.392  0.386-  21 1.88  26 1.89  24 2.03   1 2.11   7 2.12
  53  0.250  0.099  0.614-  19 1.85  20 1.85  15 1.96   3 1.99
  54  0.250  0.901  0.386-  19 1.85  20 1.85  14 1.96   4 1.99
  55  0.750  0.901  0.386-  19 1.85  20 1.85  17 1.96   5 1.99
  56  0.750  0.099  0.614-  19 1.85  20 1.85  16 1.96   6 1.99
  57  0.500  0.387  0.134-  23 1.89  24 1.89  28 2.05   7 2.11  12 2.22   9 2.22
  58  0.500  0.613  0.866-  22 1.89  25 1.89  28 2.05   8 2.11  11 2.22  10 2.22
  59  0.500  0.099  0.866-  15 1.88  16 1.88  18 1.94  12 2.06   9 2.06
  60  0.500  0.901  0.134-  14 1.88  17 1.88  18 1.94  11 2.06  10 2.06

  LATTYP: Found a simple monoclinic cell.
 ALAT       =    11.3012918181
 B/A-ratio  =     0.4984181185
 C/A-ratio  =     1.6925047051
 COS(beta)  =    -0.9007525502

  Lattice vectors:

 A1 = (  -6.1865246167,   0.0000000000,  -9.4575953563)
 A2 = (   0.0000000000,  -5.6327686048,   0.0000000000)
 A3 = (   2.4791562711,   0.0000000000,  18.9661446178)

Analysis of symmetry for initial positions (statically):
 Subroutine PRICEL returns:
 Original cell was already a primitive cell.

 Routine SETGRP: Setting up the symmetry group for a
 simple monoclinic supercell.

 Subroutine GETGRP returns: Found  4 space group operations
 (whereof  4 operations were pure point group operations)
 out of a pool of  4 trial point group operations.

The static configuration has the point symmetry C_2h.

Analysis of symmetry for dynamics (positions and initial velocities):
 Subroutine PRICEL returns:
 Original cell was already a primitive cell.

[...]

The dynamic configuration has the point symmetry C_2h.

Analysis of structural, dynamic, and magnetic symmetry:
 Subroutine PRICEL returns:
 Original cell was already a primitive cell.

 Routine SETGRP: Setting up the symmetry group for a
 simple monoclinic supercell.

 Subroutine GETGRP returns: Found  4 space group operations
 (whereof  4 operations were pure point group operations)
 out of a pool of  4 trial point group operations.

The magnetic configuration has the point symmetry C_2h.

 Subroutine INISYM returns: Found  4 space group operations
 (whereof  4 operations are pure point group operations),
 and found     1 'primitive' translations

 KPOINTS: Automatic mesh

Automatic generation of k-mesh.
Space group operators:
 irot       det(A)        alpha          n_x          n_y          n_z        tau_x        tau_y        tau_z
    1     1.000000     0.000000     1.000000     0.000000     0.000000     0.000000     0.000000     0.000000
    2    -1.000000     0.000000     1.000000     0.000000     0.000000     0.000000     0.000000     0.000000
    3     1.000000   180.000000     0.000000     1.000000     0.000000     0.000000     0.000000     0.000000
    4    -1.000000   180.000000     0.000000     1.000000     0.000000     0.000000     0.000000     0.000000

 Subroutine IBZKPT returns following result:

 Found      1 irreducible k-points:

 Following reciprocal coordinates:
            Coordinates               Weight
  0.000000  0.000000  0.000000      1.000000

 Following cartesian coordinates:
            Coordinates               Weight
  0.000000  0.000000  0.000000      1.000000

 SYSTEM =  unknown system
 POSCAR =  ce67_1

 Startparameter for this run:
   NWRITE =      1    write-flag & timer
   PREC   = accura    normal or accurate (medium, high low for compatibility)
   ISTART =      0    job   : 0-new  1-cont  2-samecut
   ICHARG =      2    charge: 1-file 2-atom 10-const
   ISPIN  =      2    spin polarized calculation?
   LNONCOLLINEAR =      F non collinear calculations
   LSORBIT =      F    spin-orbit coupling
   INIWAV =      1    electr: 0-lowe 1-rand  2-diag
   LASPH  =      F    aspherical Exc in radial PAW
   METAGGA=      F    non-selfconsistent MetaGGA calc.

[...]
   0.140E-11 -.883E-14 -.633E-13   0.515E-13 -.765E-15 -.151E-13   0.000E+00 0.000E+00 -.310E-23   0.423E-11 -.520E-12 -.139E-12
   -.425E+02 0.553E+00 0.572E+02   0.433E+02 -.539E+00 -.579E+02   -.827E+00 -.109E-01 0.712E+00   -.889E-02 -.158E-01 0.145E-02
   0.425E+02 0.553E+00 -.572E+02   -.433E+02 -.539E+00 0.579E+02   0.827E+00 -.109E-01 -.712E+00   0.889E-02 -.158E-01 -.145E-02
   0.425E+02 -.553E+00 -.572E+02   -.433E+02 0.539E+00 0.579E+02   0.827E+00 0.109E-01 -.712E+00   0.889E-02 0.158E-01 -.145E-02
   -.425E+02 -.553E+00 0.572E+02   0.433E+02 0.539E+00 -.579E+02   -.827E+00 0.109E-01 0.712E+00   -.889E-02 0.158E-01 0.145E-02
   -.202E-11 0.929E-12 0.411E-11   0.115E-12 0.299E-13 0.265E-14   0.000E+00 0.000E+00 0.233E-23   0.396E-11 0.488E-12 -.213E-12
   -.549E-12 0.159E-14 -.911E-13   0.497E-13 0.317E-13 -.213E-13   -.662E-23 0.000E+00 -.133E-22   -.361E-11 0.347E-12 0.128E-11
   -.252E-11 0.918E-12 -.291E-11   0.275E-13 -.112E-12 -.355E-13   0.000E+00 0.000E+00 -.832E-23   -.311E-11 -.339E-12 0.128E-11
   -.445E+02 -.317E-13 0.321E+03   0.457E+02 -.273E-13 -.335E+03   -.122E+01 0.662E-23 0.137E+02   -.784E-02 -.129E-11 0.471E-02
   0.445E+02 -.456E-13 -.321E+03   -.457E+02 -.355E-13 0.335E+03   0.122E+01 -.662E-23 -.137E+02   0.784E-02 0.385E-12 -.471E-02
   -.451E+02 0.310E-13 -.274E+03   0.473E+02 0.873E-13 0.286E+03   -.221E+01 0.000E+00 -.128E+02   -.711E-02 0.731E-14 0.450E-02
   0.451E+02 -.707E-13 0.274E+03   -.473E+02 0.965E-13 -.286E+03   0.221E+01 0.000E+00 0.128E+02   0.711E-02 0.427E-12 -.450E-02
   0.543E+02 0.118E+00 0.337E+03   -.597E+02 -.106E+00 -.356E+03   0.538E+01 0.124E-01 0.187E+02   -.249E-02 -.258E-01 -.607E-02
   -.543E+02 0.118E+00 -.337E+03   0.597E+02 -.106E+00 0.356E+03   -.538E+01 0.124E-01 -.187E+02   0.249E-02 -.258E-01 0.607E-02
   -.543E+02 -.118E+00 -.337E+03   0.597E+02 0.106E+00 0.356E+03   -.538E+01 -.124E-01 -.187E+02   0.249E-02 0.258E-01 0.607E-02
   0.543E+02 -.118E+00 0.337E+03   -.597E+02 0.106E+00 -.356E+03   0.538E+01 -.124E-01 0.187E+02   -.249E-02 0.258E-01 -.607E-02
   -.555E+01 0.183E+00 -.285E+03   0.660E+01 -.203E+00 0.298E+03   -.104E+01 0.184E-01 -.127E+02   -.794E-02 -.138E-02 -.954E-02
   0.555E+01 0.183E+00 0.285E+03   -.660E+01 -.203E+00 -.298E+03   0.104E+01 0.184E-01 0.127E+02   0.794E-02 -.138E-02 0.954E-02
   0.555E+01 -.183E+00 0.285E+03   -.660E+01 0.203E+00 -.298E+03   0.104E+01 -.184E-01 0.127E+02   0.794E-02 0.138E-02 0.954E-02
   -.555E+01 -.183E+00 -.285E+03   0.660E+01 0.203E+00 0.298E+03   -.104E+01 -.184E-01 -.127E+02   -.794E-02 0.138E-02 -.954E-02
   -.439E+02 0.117E-12 0.321E+03   0.451E+02 0.528E-13 -.335E+03   -.115E+01 -.331E-23 0.136E+02   -.313E-02 0.129E-11 -.452E-02
   0.439E+02 0.115E-12 -.321E+03   -.451E+02 0.777E-13 0.335E+03   0.115E+01 0.165E-23 -.136E+02   0.313E-02 -.405E-12 0.452E-02
   -.440E+02 0.106E-12 -.274E+03   0.461E+02 0.168E-15 0.286E+03   -.211E+01 0.000E+00 -.128E+02   0.810E-03 -.365E-13 -.310E-02
   0.440E+02 0.218E-12 0.274E+03   -.461E+02 0.450E-16 -.286E+03   0.211E+01 0.000E+00 0.128E+02   -.810E-03 -.436E-12 0.310E-02
   0.450E+02 -.445E-13 0.274E+03   -.471E+02 -.565E-13 -.286E+03   0.219E+01 -.662E-23 0.128E+02   -.368E-02 0.459E-12 0.212E-03
   -.450E+02 -.292E-13 -.274E+03   0.471E+02 -.516E-13 0.286E+03   -.219E+01 0.662E-23 -.128E+02   0.368E-02 -.430E-12 -.212E-03
   0.435E+02 -.751E-13 -.321E+03   -.446E+02 0.472E-13 0.334E+03   0.112E+01 0.000E+00 -.136E+02   0.122E-01 0.757E-13 -.323E-02
   -.435E+02 0.892E-14 0.321E+03   0.446E+02 0.343E-13 -.334E+03   -.112E+01 -.152E-24 0.136E+02   -.122E-01 -.356E-13 0.323E-02
   0.566E+01 -.289E-01 0.286E+03   -.671E+01 0.580E-01 -.299E+03   0.105E+01 -.192E-01 0.127E+02   0.288E-02 -.110E-01 0.100E-02
   -.566E+01 -.289E-01 -.286E+03   0.671E+01 0.580E-01 0.299E+03   -.105E+01 -.192E-01 -.127E+02   -.288E-02 -.110E-01 -.100E-02
   -.566E+01 0.289E-01 -.286E+03   0.671E+01 -.580E-01 0.299E+03   -.105E+01 0.192E-01 -.127E+02   -.288E-02 0.110E-01 -.100E-02
   0.566E+01 0.289E-01 0.286E+03   -.671E+01 -.580E-01 -.299E+03   0.105E+01 0.192E-01 0.127E+02   0.288E-02 0.110E-01 0.100E-02
   -.544E+02 0.118E+00 -.338E+03   0.597E+02 -.127E+00 0.356E+03   -.536E+01 -.145E-02 -.187E+02   0.106E-02 0.116E-01 0.530E-03
   0.544E+02 0.118E+00 0.338E+03   -.597E+02 -.127E+00 -.356E+03   0.536E+01 -.145E-02 0.187E+02   -.106E-02 0.116E-01 -.530E-03
   0.544E+02 -.118E+00 0.338E+03   -.597E+02 0.127E+00 -.356E+03   0.536E+01 0.145E-02 0.187E+02   -.106E-02 -.116E-01 -.530E-03
   -.544E+02 -.118E+00 -.338E+03   0.597E+02 0.127E+00 0.356E+03   -.536E+01 0.145E-02 -.187E+02   0.106E-02 -.116E-01 0.530E-03
   0.458E+02 0.141E-12 0.273E+03   -.480E+02 0.598E-14 -.286E+03   0.223E+01 0.662E-23 0.127E+02   0.122E-01 -.459E-12 -.132E-01
   -.458E+02 0.112E-12 -.273E+03   0.480E+02 0.152E-13 0.286E+03   -.223E+01 -.662E-23 -.127E+02   -.122E-01 0.410E-12 0.132E-01
   0.435E+02 0.214E-12 -.321E+03   -.446E+02 0.479E-13 0.334E+03   0.113E+01 -.331E-23 -.136E+02   0.944E-02 -.105E-12 -.682E-02
   -.435E+02 0.108E-12 0.321E+03   0.446E+02 0.130E-13 -.334E+03   -.113E+01 0.000E+00 0.136E+02   -.944E-02 0.322E-13 0.682E-02
   0.485E-10 0.237E-10 0.201E-10   0.355E-13 -.121E-12 0.341E-12   0.133E-14 -.331E-23 -.178E-14   0.103E-11 -.347E-12 0.308E-12

 POSITION                                       TOTAL-FORCE (eV/Angst)
      1.54577     -0.00000      2.36542        -0.000977      0.000000      0.002791
      4.63480     -0.00000      7.10220         0.000977      0.000000     -0.002791
      4.33587      1.41069      2.34856         0.010799     -0.004514     -0.006425
      1.84470      1.41069      7.11906        -0.010799     -0.004514      0.006425
      1.84470      4.22392      7.11906        -0.010799      0.004514      0.006425
      4.33587      4.22392      2.34856         0.010799      0.004514     -0.006425
      1.53986      2.81731      2.36613         0.007492      0.000000      0.002563
      4.64071      2.81731      7.10149        -0.007492      0.000000     -0.002563
      8.63950      1.40978      2.33294        -0.009181     -0.002308      0.003479
     -2.45893      1.40978      7.13468         0.009181     -0.002308     -0.003479
     -2.45893      4.22484      7.13468         0.009181      0.002308     -0.003479
      8.63950      4.22484      2.33294        -0.009181      0.002308      0.003479
     -0.00000     -0.00000     -0.00000        -0.000000      0.000000      0.000000
      2.48739      1.40841      0.01531        -0.006727      0.007855     -0.000803
      3.69318      1.40841      9.45231         0.006727      0.007855      0.000803
      3.69318      4.22620      9.45231         0.006727     -0.007855      0.000803
      2.48739      4.22620      0.01531        -0.006727     -0.007855     -0.000803
     -0.00000      2.81731     -0.00000        -0.000000      0.000000      0.000000
      4.94461     -0.00000     -0.02709        -0.000000      0.000000      0.000000
      4.94461      2.81731     -0.02709        -0.000000      0.000000      0.000000
      3.09029     -0.00000      4.73381        -0.000000      0.000000      0.000000
      5.57659      1.40898      4.75057         0.001070     -0.012335      0.004242
      0.60398      1.40898      4.71705        -0.001070     -0.012335     -0.004242
      0.60398      4.22563      4.71705        -0.001070      0.012335     -0.004242
      5.57659      4.22563      4.75057         0.001070      0.012335      0.004242
      3.09029      2.81731      4.73381        -0.000000      0.000000      0.000000
     -1.85432     -0.00000      4.76090        -0.000000      0.000000      0.000000
     -1.85432      2.81731      4.76090        -0.000000      0.000000      0.000000
      4.77575     -0.00000      3.78267         0.000994      0.000000      0.007297
      1.40482     -0.00000      5.68495        -0.000994      0.000000     -0.007297
      3.20383     -0.00000      1.04852         0.004874      0.000000      0.001874
      2.97674     -0.00000      8.41910        -0.004874      0.000000     -0.001874
      7.27259      1.40907      3.77497        -0.001695     -0.001667      0.004192
     -1.09202      1.40907      5.69265         0.001695     -0.001667     -0.004192
     -1.09202      4.22554      5.69265         0.001695      0.001667     -0.004192
      7.27259      4.22554      3.77497        -0.001695      0.001667      0.004192
      0.73423      1.40891      1.01657        -0.000413     -0.002815     -0.002815
      5.44634      1.40891      8.45105         0.000413     -0.002815      0.002815
      5.44634      4.22570      8.45105         0.000413      0.002815      0.002815
      0.73423      4.22570      1.01657        -0.000413      0.002815     -0.002815
      4.77822      2.81731      3.78337        -0.008304      0.000000      0.000183
      1.40235      2.81731      5.68425         0.008304      0.000000     -0.000183
      3.20789      2.81731      1.04819        -0.014042      0.000000      0.002375
      2.97268      2.81731      8.41943         0.014042      0.000000     -0.002375
     -0.11544     -0.00000      3.68568         0.007354      0.000000     -0.007493
      6.29601     -0.00000      5.78194        -0.007354      0.000000      0.007493
      8.20234     -0.00000      0.89872         0.000562      0.000000     -0.006289
     -2.02177     -0.00000      8.56890        -0.000562      0.000000      0.006289
      2.35780      1.40853      3.71586         0.000910     -0.001107      0.004005
      3.82277      1.40853      5.75176        -0.000910     -0.001107     -0.004005
      3.82277      4.22608      5.75176        -0.000910      0.001107     -0.004005
      2.35780      4.22608      3.71586         0.000910      0.001107      0.004005
      5.70528      1.40836      0.90623         0.004346      0.001315     -0.006556
      0.47529      1.40836      8.56138        -0.004346      0.001315      0.006556
      0.47529      4.22626      8.56138        -0.004346     -0.001315      0.006556
      5.70528      4.22626      0.90623         0.004346     -0.001315     -0.006556
     -0.11205      2.81731      3.68121        -0.008758      0.000000      0.008450
      6.29262      2.81731      5.78641         0.008758      0.000000     -0.008450
      8.20125      2.81731      0.89749         0.004150      0.000000     -0.003306
     -2.02068      2.81731      8.57013        -0.004150      0.000000      0.003306
    total drift:                                0.000000      0.000000      0.000000

  FREE ENERGIE OF THE ION-ELECTRON SYSTEM (eV)
  free  energy   TOTEN  =      -364.0709319682 eV

  energy  without entropy=     -364.0708674765  energy(sigma->0) =     -364.07089972

 d Force = 0.5599301E-03[ 0.365E-03, 0.755E-03]  d Energy = 0.5601189E-03-0.189E-06
 d Force =-0.1063194E+01[-0.107E+01,-0.106E+01]  d Ewald  =-0.5089976E+01 0.403E+01

 Quasi-Newton relaxation of ions (Broydens 2nd method)
  g(Force)  = 0.204E-03   g(Stress)= 0.325E-04

 retain information from N=  4 steps
 eigenvalues of (default step * inverse Hessian matrix)
  average eigenvalue of G=   4.2597
 eigenvalue spectrum of G is  6.9333  6.9333  1.5861  1.5861

 reached required accuracy - stopping structural energy minimisation

volume of typ            1:    17.7 %

[...]

volume of typ            3:     9.8 %

total charge

# of ion       s       p       d       tot
    1        2.079   0.254   0.093   2.425
    2        2.079   0.254   0.093   2.425
    3        2.075   0.244   0.088   2.407
    4        2.075   0.244   0.088   2.407
    5        2.075   0.244   0.088   2.407
    6        2.075   0.244   0.088   2.407
    7        2.079   0.255   0.093   2.426
    8        2.079   0.255   0.093   2.426
    9        2.075   0.244   0.088   2.407
   10        2.075   0.244   0.088   2.407
   11        2.075   0.244   0.088   2.407
   12        2.075   0.244   0.088   2.407
   13        0.274   0.373   7.857   8.505
   14        0.266   0.354   7.860   8.480
   15        0.266   0.354   7.860   8.480
   16        0.266   0.354   7.860   8.480
   17        0.266   0.354   7.860   8.480
   18        0.275   0.373   7.858   8.505
   19        0.278   0.375   7.867   8.519
   20        0.278   0.375   7.866   8.519
   21        0.275   0.374   7.857   8.506
   22        0.266   0.354   7.860   8.480
   23        0.266   0.354   7.860   8.480
   24        0.266   0.354   7.860   8.480
   25        0.266   0.354   7.860   8.480
   26        0.275   0.373   7.858   8.506
   27        0.277   0.375   7.866   8.518
   28        0.277   0.374   7.867   8.519
   29        1.261   2.788   0.006   4.055
   30        1.261   2.788   0.006   4.055
   31        1.260   2.783   0.006   4.048
   32        1.260   2.783   0.006   4.048
   33        1.265   2.774   0.007   4.047
   34        1.265   2.774   0.007   4.047
   35        1.265   2.774   0.007   4.047
   36        1.265   2.774   0.007   4.047
   37        1.261   2.784   0.006   4.051
   38        1.261   2.784   0.006   4.051
   39        1.261   2.784   0.006   4.051
   40        1.261   2.784   0.006   4.051
   41        1.261   2.789   0.006   4.056
   42        1.261   2.789   0.006   4.056
   43        1.260   2.783   0.006   4.048
   44        1.260   2.783   0.006   4.048
   45        1.260   2.783   0.006   4.048
   46        1.260   2.783   0.006   4.048
   47        1.261   2.789   0.006   4.056
   48        1.261   2.789   0.006   4.056
   49        1.261   2.783   0.006   4.051
   50        1.261   2.783   0.006   4.051
   51        1.261   2.783   0.006   4.051
   52        1.261   2.783   0.006   4.051
   53        1.265   2.774   0.007   4.047
   54        1.265   2.774   0.007   4.047
   55        1.265   2.774   0.007   4.047
   56        1.265   2.774   0.007   4.047
   57        1.260   2.783   0.006   4.048
   58        1.260   2.783   0.006   4.048
   59        1.261   2.789   0.006   4.056
   60        1.261   2.789   0.006   4.056
tot          69.63   97.82  127.05  294.50

magnetization (x)

# of ion       s       p       d       tot
    1        0.006   0.017  -0.000   0.023
    2        0.006   0.017  -0.000   0.023
    3        0.005   0.013  -0.000   0.018
    4        0.005   0.013  -0.000   0.018
    5        0.005   0.013  -0.000   0.018
    6        0.005   0.013  -0.000   0.018
    7        0.006   0.017  -0.000   0.023
    8        0.006   0.017  -0.000   0.023
    9        0.005   0.013  -0.000   0.018
   10        0.005   0.013  -0.000   0.018
   11        0.005   0.013  -0.000   0.018
   12        0.005   0.013  -0.000   0.018
   13       -0.000  -0.000   0.485   0.485
   14        0.000   0.000   0.599   0.599
   15        0.000   0.000   0.599   0.599
   16        0.000   0.000   0.599   0.599
   17        0.000   0.000   0.599   0.599
   18       -0.000  -0.000   0.482   0.482
   19        0.004  -0.000   0.539   0.543
   20        0.004  -0.000   0.533   0.537
   21       -0.000  -0.000   0.476   0.475
   22        0.000   0.000   0.599   0.599
   23        0.000   0.000   0.599   0.599
   24        0.000   0.000   0.599   0.599
   25        0.000   0.000   0.599   0.599
   26       -0.000  -0.000   0.485   0.485
   27        0.004  -0.000   0.536   0.540
   28        0.004  -0.000   0.545   0.549
   29        0.010   0.043   0.000   0.054
   30        0.010   0.043   0.000   0.054
   31        0.012   0.078   0.000   0.090
   32        0.012   0.078   0.000   0.090
   33        0.006   0.045   0.000   0.051
   34        0.006   0.045   0.000   0.051
   35        0.006   0.045   0.000   0.051
   36        0.006   0.045   0.000   0.051
   37        0.011   0.051   0.000   0.062
   38        0.011   0.051   0.000   0.062
   39        0.011   0.051   0.000   0.062
   40        0.011   0.051   0.000   0.062
   41        0.010   0.044   0.000   0.055
   42        0.010   0.044   0.000   0.055
   43        0.012   0.078   0.000   0.089
   44        0.012   0.078   0.000   0.089
   45        0.012   0.078   0.000   0.089
   46        0.012   0.078   0.000   0.089
   47        0.010   0.045   0.000   0.055
   48        0.010   0.045   0.000   0.055
   49        0.011   0.050   0.000   0.062
   50        0.011   0.050   0.000   0.062
   51        0.011   0.050   0.000   0.062
   52        0.011   0.050   0.000   0.062
   53        0.006   0.045   0.000   0.051
   54        0.006   0.045   0.000   0.051
   55        0.006   0.045   0.000   0.051
   56        0.006   0.045   0.000   0.051
   57        0.012   0.080   0.000   0.092
   58        0.012   0.080   0.000   0.092
   59        0.010   0.044   0.000   0.054
   60        0.010   0.044   0.000   0.054
tot           0.39    1.92    8.88   11.19