 vasp.5.4.4.18Apr17-6-g9f103f2a35 (build May 12 2020 05:39:39) gamma-only

 MD_VERSION_INFO: Compiled 2020-05-12T12:39:39-UTC in devlin.sd.materialsdesign.
 com:/home/medea2/data/build/wwolf/vasp-gpu5.4.4/13047/x86_64/src/src/build/gam
 from svn 13047

 executed on                        Lin64 date 2023.03.07  01:43:54

 INCAR:
 POTCAR:    PAW_PBE Li_sv 10Sep2004
 POTCAR:    PAW_PBE Ni 02Aug2007
 POTCAR:    PAW_PBE O 08Apr2002

 POTCAR:    PAW_PBE Li_sv 10Sep2004

 POTCAR:    PAW_PBE Ni 02Aug2007

 POTCAR:    PAW_PBE O 08Apr2002

 Optimization of the real space projectors (new method)

 maximal supplied QI-value         = 22.11
 optimisation between [QCUT,QGAM] = [ 11.28, 22.77] = [ 35.61,145.23] Ry
 Optimized for a Real-space Cutoff    1.10 Angstroem

   l    n(q)    QCUT    max X(q) W(low)/X(q) W(high)/X(q)  e(spline)
   0      7    11.276    10.506    0.54E-04    0.58E-04    0.16E-07
   0      7    11.276     8.367    0.11E-03    0.14E-03    0.35E-07
   1      7    11.276     8.983    0.23E-03    0.43E-03    0.86E-07
 Optimization of the real space projectors (new method)

[...]

   l    n(q)    QCUT    max X(q) W(low)/X(q) W(high)/X(q)  e(spline)
   2      9    11.376    60.317    0.17E-03    0.16E-04    0.16E-06
   2      9    11.376    55.921    0.17E-03    0.16E-04    0.17E-06
   0     10    11.376    51.690    0.45E-04    0.60E-04    0.21E-06
   0     10    11.376    30.015    0.37E-04    0.55E-04    0.19E-06
   1     10    11.376    18.849    0.83E-04    0.11E-03    0.92E-07
   1     10    11.376    14.624    0.69E-04    0.92E-04    0.82E-07
 Optimization of the real space projectors (new method)

 maximal supplied QI-value         = 24.76
 optimisation between [QCUT,QGAM] = [ 11.39, 22.77] = [ 36.31,145.25] Ry
 Optimized for a Real-space Cutoff    1.10 Angstroem

   l    n(q)    QCUT    max X(q) W(low)/X(q) W(high)/X(q)  e(spline)
   0      7    11.387    20.381    0.22E-03    0.48E-03    0.18E-06
   0      7    11.387    15.268    0.22E-03    0.52E-03    0.19E-06
   1      7    11.387     5.964    0.22E-03    0.73E-03    0.24E-06
   1      7    11.387     5.382    0.19E-03    0.60E-03    0.21E-06

  PAW_PBE Li_sv 10Sep2004               :
  PAW_PBE Ni 02Aug2007                  :
  PAW_PBE O 08Apr2002                   :

 POSCAR: ce322_1
  positions in direct lattice
 exchange correlation table for  LEXCH =       14
   RHO(1)=    0.500       N(1)  =     2000
   RHO(2)=  100.500       N(2)  =     4000

 ion  position               nearest neighbor table
   1  0.981  0.251  0.236-  41 2.06  36 2.06  48 2.14  33 2.17  27 2.20  45 2.27   9 2.82  20 2.82

   2  0.981  0.749  0.764-  42 2.06  35 2.06  47 2.14  34 2.17  28 2.20  46 2.27   9 2.82  21 2.82

   3  0.253  0.250  0.517-  49 2.01  37 2.08  25 2.10  39 2.19  45 2.24  27 2.24  18 2.76
   4  0.253  0.750  0.483-  50 2.01  38 2.08  26 2.10  40 2.19  46 2.24  28 2.24  19 2.76
   5  0.747  0.752  0.480-  51 2.00  38 2.06  26 2.08  40 2.18  28 2.23  20 2.79  16 2.83
   6  0.747  0.248  0.520-  52 2.00  37 2.06  25 2.08  39 2.18  27 2.23  21 2.79  16 2.83
   7  0.275  0.249  0.978-  29 1.98  55 2.02  53 2.18  43 2.18  33 2.21  24 2.80  11 2.81
   8  0.275  0.751  0.022-  30 1.98  56 2.02  54 2.18  44 2.18  34 2.21  24 2.80  10 2.81
   9  0.999  0.000  0.000-  35 1.84  36 1.84  33 1.84  34 1.84  43 1.89  44 1.89  14 2.77  14 2.77
                             2 2.82   1 2.82  13 2.83  12 2.83  11 2.84  10 2.84
  10  0.251  0.005  0.252-  56 1.83  44 1.85  27 1.85  39 1.87  50 2.04  33 2.07  13 2.76  13 2.77
                             8 2.81  16 2.83  14 2.83  15 2.84   9 2.84
  11  0.251  0.995  0.748-  55 1.83  43 1.85  28 1.85  40 1.87  49 2.04  34 2.07  12 2.76  12 2.77
                             7 2.81  16 2.83  14 2.83  15 2.84   9 2.84
  12  0.750  0.001  0.751-  55 1.84  28 1.86  43 1.87  40 1.88  35 1.98  52 1.99  11 2.76  11 2.77
                             9 2.83  14 2.83  16 2.84  15 2.84
  13  0.750  0.999  0.249-  56 1.84  27 1.86  44 1.87  39 1.88  36 1.98  51 1.99  10 2.76  10 2.77
                             9 2.83  14 2.83  16 2.84  15 2.84
  14  0.500  0.000  0.000-  35 1.85  36 1.85  33 1.86  34 1.86  55 1.93  56 1.93   9 2.77   9 2.77
                            13 2.83  12 2.83  11 2.83  10 2.83
  15  0.000  0.000  0.500-  49 1.83  50 1.83  51 1.84  52 1.84  27 2.06  28 2.06  16 2.77  16 2.77
                            11 2.84  10 2.84  13 2.84  12 2.84
  16  0.501  0.000  0.500-  49 1.84  50 1.84  51 1.85  52 1.85  39 1.90  40 1.90  15 2.77  15 2.77
                             5 2.83   6 2.83  10 2.83  11 2.83  12 2.84  13 2.84
  17  1.000  0.500  0.500-  45 1.84  46 1.84  47 1.85  48 1.85  25 1.95  26 1.95  22 2.77  22 2.77
                            18 2.84  19 2.84  20 2.85  21 2.85
  18  0.251  0.495  0.749-  42 1.84  54 1.85  37 1.85  25 1.87  29 2.01  46 2.06   3 2.76  21 2.76
                            21 2.78  22 2.83  24 2.83  17 2.84  23 2.84
  19  0.251  0.505  0.251-  41 1.84  53 1.85  38 1.85  26 1.87  30 2.01  45 2.06   4 2.76  20 2.76
                            20 2.78  22 2.83  24 2.83  17 2.84  23 2.84
  20  0.749  0.501  0.249-  41 1.86  53 1.86  38 1.86  26 1.87  31 1.94  48 2.01  19 2.76  19 2.78
                             5 2.79  24 2.81  23 2.82   1 2.82  22 2.85  17 2.85
  21  0.749  0.499  0.751-  42 1.86  54 1.86  37 1.86  25 1.87  32 1.94  47 2.01  18 2.76  18 2.78
                             6 2.79  24 2.81  23 2.82   2 2.82  22 2.85  17 2.85
  22  0.500  0.500  0.500-  45 1.86  46 1.86  47 1.86  48 1.86  37 1.95  38 1.95  17 2.77  17 2.77
                            18 2.83  19 2.83  20 2.85  21 2.85
  23  0.998  0.500  0.000-  31 1.83  32 1.83  29 1.84  30 1.84  41 1.99  42 1.99  24 2.75  24 2.79
                            21 2.82  20 2.82  19 2.84  18 2.84
  24  0.502  0.500  0.000-  31 1.84  32 1.84  29 1.85  30 1.85  53 1.91  54 1.91  23 2.75  23 2.79
                             7 2.80   8 2.80  20 2.81  21 2.81  18 2.83  19 2.83
  25  0.998  0.397  0.633-  18 1.87  21 1.87  17 1.95   6 2.08   3 2.10
  26  0.998  0.603  0.367-  19 1.87  20 1.87  17 1.95   5 2.08   4 2.10
  27  0.997  0.108  0.359-  10 1.85  13 1.86  15 2.06   1 2.20   6 2.23   3 2.24
  28  0.997  0.892  0.641-  11 1.85  12 1.86  15 2.06   2 2.20   5 2.23   4 2.24
  29  0.249  0.397  0.893-  23 1.84  24 1.85   7 1.98  18 2.01
  30  0.249  0.603  0.107-  23 1.84  24 1.85   8 1.98  19 2.01
  31  0.751  0.599  0.111-  23 1.83  24 1.84  20 1.94
  32  0.751  0.401  0.889-  23 1.83  24 1.84  21 1.94
  33  0.247  0.108  0.104-   9 1.84  14 1.86  10 2.07   1 2.17   7 2.21
  34  0.247  0.892  0.896-   9 1.84  14 1.86  11 2.07   2 2.17   8 2.21
  35  0.751  0.899  0.889-   9 1.84  14 1.85  12 1.98   2 2.06
  36  0.751  0.101  0.111-   9 1.84  14 1.85  13 1.98   1 2.06
  37  0.502  0.398  0.634-  18 1.85  21 1.86  22 1.95   6 2.06   3 2.08
  38  0.502  0.602  0.366-  19 1.85  20 1.86  22 1.95   5 2.06   4 2.08
  39  0.503  0.101  0.371-  10 1.87  13 1.88  16 1.90   6 2.18   3 2.19
  40  0.503  0.899  0.629-  11 1.87  12 1.88  16 1.90   5 2.18   4 2.19
  41  0.005  0.401  0.141-  19 1.84  20 1.86  23 1.99   1 2.06
  42  0.005  0.599  0.859-  18 1.84  21 1.86  23 1.99   2 2.06
  43  0.006  0.095  0.866-  11 1.85  12 1.87   9 1.89   7 2.18
  44  0.006  0.905  0.134-  10 1.85  13 1.87   9 1.89   8 2.18
  45  0.248  0.396  0.392-  17 1.84  22 1.86  19 2.06   3 2.24   1 2.27
  46  0.248  0.604  0.608-  17 1.84  22 1.86  18 2.06   4 2.24   2 2.27
  47  0.752  0.603  0.611-  17 1.85  22 1.86  21 2.01   2 2.14
  48  0.752  0.397  0.389-  17 1.85  22 1.86  20 2.01   1 2.14
  49  0.249  0.102  0.607-  15 1.83  16 1.84   3 2.01  11 2.04
  50  0.249  0.898  0.393-  15 1.83  16 1.84   4 2.01  10 2.04
  51  0.752  0.900  0.390-  15 1.84  16 1.85  13 1.99   5 2.00
  52  0.752  0.100  0.610-  15 1.84  16 1.85  12 1.99   6 2.00
  53  0.496  0.404  0.135-  19 1.85  20 1.86  24 1.91   7 2.18
  54  0.496  0.596  0.865-  18 1.85  21 1.86  24 1.91   8 2.18
  55  0.495  0.095  0.861-  11 1.83  12 1.84  14 1.93   7 2.02
  56  0.495  0.905  0.139-  10 1.83  13 1.84  14 1.93   8 2.02

  LATTYP: Found a simple monoclinic cell.
 ALAT       =    11.5401367657
 B/A-ratio  =     0.4797706468
 C/A-ratio  =     1.6837800832
 COS(beta)  =    -0.9056618495

  Lattice vectors:

 A1 = (  -6.3125147739,   0.0000000000,  -9.6605855827)
 A2 = (   0.0000000000,  -5.5366188802,   0.0000000000)
 A3 = (   2.7292534803,   0.0000000000,  19.2384244290)

Analysis of symmetry for initial positions (statically):
 Subroutine PRICEL returns:
 Original cell was already a primitive cell.

 Routine SETGRP: Setting up the symmetry group for a
 simple monoclinic supercell.

 Subroutine GETGRP returns: Found  2 space group operations
 (whereof  2 operations were pure point group operations)
 out of a pool of  4 trial point group operations.

The static configuration has the point symmetry C_2 .

Analysis of symmetry for dynamics (positions and initial velocities):
 Subroutine PRICEL returns:
 Original cell was already a primitive cell.

[...]

The dynamic configuration has the point symmetry C_2 .

Analysis of structural, dynamic, and magnetic symmetry:
 Subroutine PRICEL returns:
 Original cell was already a primitive cell.

 Routine SETGRP: Setting up the symmetry group for a
 simple monoclinic supercell.

 Subroutine GETGRP returns: Found  2 space group operations
 (whereof  2 operations were pure point group operations)
 out of a pool of  4 trial point group operations.

The magnetic configuration has the point symmetry C_2 .

 Subroutine INISYM returns: Found  2 space group operations
 (whereof  2 operations are pure point group operations),
 and found     1 'primitive' translations

 KPOINTS: Automatic mesh

Automatic generation of k-mesh.
Space group operators:
 irot       det(A)        alpha          n_x          n_y          n_z        tau_x        tau_y        tau_z
    1     1.000000     0.000001     1.000000     0.000000     0.000000     0.000000     0.000000     0.000000
    2     1.000000   180.000000     0.000000     1.000000     0.000000     0.000000     0.000000     0.000000

 Subroutine IBZKPT returns following result:

 Found      1 irreducible k-points:

 Following reciprocal coordinates:
            Coordinates               Weight
  0.000000  0.000000  0.000000      1.000000

 Following cartesian coordinates:
            Coordinates               Weight
  0.000000  0.000000  0.000000      1.000000

 SYSTEM =  unknown system
 POSCAR =  ce322_1

 Startparameter for this run:
   NWRITE =      1    write-flag & timer
   PREC   = accura    normal or accurate (medium, high low for compatibility)
   ISTART =      0    job   : 0-new  1-cont  2-samecut
   ICHARG =      2    charge: 1-file 2-atom 10-const
   ISPIN  =      2    spin polarized calculation?
   LNONCOLLINEAR =      F non collinear calculations
   LSORBIT =      F    spin-orbit coupling
   INIWAV =      1    electr: 0-lowe 1-rand  2-diag
   LASPH  =      F    aspherical Exc in radial PAW
   METAGGA=      F    non-selfconsistent MetaGGA calc.

 Electronic Relaxation 1
   ENCUT  =  500.0 eV  36.75 Ry    6.06 a.u.  10.09 18.64 18.04*2*pi/ulx,y,z
   ENINI  =  500.0     initial cutoff
[...]
   -.428E+01 -.120E+02 -.110E+02   0.408E+01 0.121E+02 0.117E+02   0.166E+00 -.768E-01 -.685E+00   0.344E-01 0.158E-01 -.215E-02
   -.167E+02 0.115E+02 -.752E+02   0.166E+02 -.116E+02 0.764E+02   0.567E-01 0.996E-01 -.120E+01   0.362E-01 -.121E-01 -.265E-02
   0.167E+02 0.115E+02 0.752E+02   -.166E+02 -.116E+02 -.764E+02   -.567E-01 0.996E-01 0.120E+01   -.362E-01 -.121E-01 0.265E-02
   0.139E-05 -.278E+02 -.317E-06   0.398E-12 0.279E+02 0.136E-11   0.000E+00 -.172E+00 0.885E-25   0.399E-11 0.210E-01 -.460E-11
   0.688E-05 0.193E+01 -.159E-05   -.355E-13 -.175E+01 -.153E-11   0.000E+00 -.170E+00 0.388E-25   -.311E-12 -.143E-01 -.249E-11
   0.658E-05 -.253E+01 -.152E-05   0.639E-13 0.232E+01 -.158E-11   0.000E+00 0.202E+00 0.242E-26   0.848E-11 0.169E-01 0.269E-11
   -.166E-06 0.382E+01 0.343E-07   -.100E-10 -.372E+01 0.125E-10   0.000E+00 -.101E+00 -.315E-25   0.289E-10 0.132E-02 -.165E-11
   -.338E+02 -.116E+02 0.257E+02   0.347E+02 0.117E+02 -.258E+02   -.890E+00 -.117E+00 0.160E+00   -.122E-01 0.152E-01 0.537E-02
   0.338E+02 -.116E+02 -.257E+02   -.347E+02 0.117E+02 0.258E+02   0.890E+00 -.117E+00 -.160E+00   0.122E-01 0.152E-01 -.537E-02
   0.473E+02 0.134E+02 0.117E+02   -.482E+02 -.136E+02 -.115E+02   0.939E+00 0.176E+00 -.225E+00   0.118E-01 -.187E-01 -.541E-02
   -.473E+02 0.134E+02 -.117E+02   0.482E+02 -.136E+02 0.115E+02   -.939E+00 0.176E+00 0.225E+00   -.118E-01 -.187E-01 0.541E-02
   -.127E-05 -.484E+01 0.263E-06   -.101E-10 0.471E+01 0.119E-10   0.000E+00 0.123E+00 0.727E-25   0.186E-11 -.213E-02 0.408E-12
   -.130E-04 0.249E+02 0.331E-05   0.351E-11 -.249E+02 -.419E-12   0.517E-25 0.329E-01 -.101E-24   -.110E-10 0.185E-02 -.611E-12
   0.785E-05 -.280E+02 -.201E-05   0.355E-11 0.282E+02 -.504E-12   0.000E+00 -.167E+00 -.162E-26   -.984E-11 -.426E-02 0.192E-11
   -.482E+02 0.188E+01 0.326E+03   0.486E+02 -.207E+01 -.342E+03   -.382E+00 0.185E+00 0.158E+02   -.293E-02 0.346E-02 -.177E-01
   0.482E+02 0.188E+01 -.326E+03   -.486E+02 -.207E+01 0.342E+03   0.382E+00 0.185E+00 -.158E+02   0.293E-02 0.346E-02 0.177E-01
   -.672E+01 0.179E+01 -.301E+03   0.951E+01 -.223E+01 0.316E+03   -.277E+01 0.462E+00 -.152E+02   -.223E-01 -.167E-01 -.380E-02
   0.672E+01 0.179E+01 0.301E+03   -.951E+01 -.223E+01 -.316E+03   0.277E+01 0.462E+00 0.152E+02   0.223E-01 -.167E-01 0.380E-02
   0.373E+02 0.694E+01 0.363E+03   -.429E+02 -.745E+01 -.382E+03   0.553E+01 0.497E+00 0.194E+02   0.264E-02 0.143E-01 -.164E-01
   -.373E+02 0.694E+01 -.363E+03   0.429E+02 -.745E+01 0.382E+03   -.553E+01 0.497E+00 -.194E+02   -.264E-02 0.143E-01 0.164E-01
   -.404E+01 -.462E+01 -.385E+03   0.564E+01 0.479E+01 0.411E+03   -.160E+01 -.159E+00 -.255E+02   -.456E-02 -.126E-01 0.204E-01
   0.404E+01 -.462E+01 0.385E+03   -.564E+01 0.479E+01 -.411E+03   0.160E+01 -.159E+00 0.255E+02   0.456E-02 -.126E-01 -.204E-01
   -.247E+02 -.329E+02 -.349E+03   0.293E+02 0.351E+02 0.367E+03   -.455E+01 -.220E+01 -.181E+02   -.152E-01 0.125E-01 -.202E-01
   0.247E+02 -.329E+02 0.349E+03   -.293E+02 0.351E+02 -.367E+03   0.455E+01 -.220E+01 0.181E+02   0.152E-01 0.125E-01 0.202E-01
   -.803E+01 0.360E+02 0.350E+03   0.719E+01 -.386E+02 -.370E+03   0.835E+00 0.270E+01 0.204E+02   0.728E-02 -.158E-01 0.310E-01
   0.803E+01 0.360E+02 -.350E+03   -.719E+01 -.386E+02 0.370E+03   -.835E+00 0.270E+01 -.204E+02   -.728E-02 -.158E-01 -.310E-01
   -.336E+02 -.254E+01 0.319E+03   0.335E+02 0.278E+01 -.335E+03   0.141E+00 -.237E+00 0.164E+02   -.193E-01 -.154E-02 -.622E-02
   0.336E+02 -.254E+01 -.319E+03   -.335E+02 0.278E+01 0.335E+03   -.141E+00 -.237E+00 -.164E+02   0.193E-01 -.154E-02 0.622E-02
   0.376E+02 -.247E+01 -.319E+03   -.394E+02 0.306E+01 0.336E+03   0.182E+01 -.595E+00 -.175E+02   -.115E-01 0.143E-01 -.948E-02
   -.376E+02 -.247E+01 0.319E+03   0.394E+02 0.306E+01 -.336E+03   -.182E+01 -.595E+00 0.175E+02   0.115E-01 0.143E-01 0.948E-02
   0.500E+02 0.192E+02 0.337E+03   -.547E+02 -.199E+02 -.355E+03   0.474E+01 0.711E+00 0.181E+02   0.608E-02 0.490E-02 -.256E-01
   -.500E+02 0.192E+02 -.337E+03   0.547E+02 -.199E+02 0.355E+03   -.474E+01 0.711E+00 -.181E+02   -.608E-02 0.490E-02 0.256E-01
   0.238E+02 0.277E+02 -.375E+03   -.245E+02 -.294E+02 0.396E+03   0.739E+00 0.168E+01 -.219E+02   0.165E-01 -.170E-01 -.960E-02
   -.238E+02 0.277E+02 0.375E+03   0.245E+02 -.294E+02 -.396E+03   -.739E+00 0.168E+01 0.219E+02   -.165E-01 -.170E-01 0.960E-02
   0.582E+02 -.312E+02 0.346E+03   -.636E+02 0.331E+02 -.364E+03   0.542E+01 -.192E+01 0.182E+02   0.423E-02 0.216E-01 -.672E-02
   -.582E+02 -.312E+02 -.346E+03   0.636E+02 0.331E+02 0.364E+03   -.542E+01 -.192E+01 -.182E+02   -.423E-02 0.216E-01 0.672E-02
   -.496E+02 0.340E+02 -.343E+03   0.529E+02 -.362E+02 0.361E+03   -.334E+01 0.220E+01 -.180E+02   -.858E-02 -.209E-01 0.101E-01
   0.496E+02 0.340E+02 0.343E+03   -.529E+02 -.362E+02 -.361E+03   0.334E+01 0.220E+01 0.180E+02   0.858E-02 -.209E-01 -.101E-01
   -.826E+02 0.488E+01 -.361E+03   0.900E+02 -.493E+01 0.380E+03   -.739E+01 0.400E-01 -.195E+02   0.340E-02 0.153E-01 0.600E-02
   0.826E+02 0.488E+01 0.361E+03   -.900E+02 -.493E+01 -.380E+03   0.739E+01 0.400E-01 0.195E+02   -.340E-02 0.153E-01 -.600E-02
   0.803E+02 -.474E+01 0.363E+03   -.862E+02 0.493E+01 -.383E+03   0.595E+01 -.173E+00 0.196E+02   -.132E-01 -.173E-01 0.339E-02
   -.803E+02 -.474E+01 -.363E+03   0.862E+02 0.493E+01 0.383E+03   -.595E+01 -.173E+00 -.196E+02   0.132E-01 -.173E-01 -.339E-02
   0.821E+00 -.237E+02 0.358E+03   -.202E-01 0.249E+02 -.379E+03   -.802E+00 -.125E+01 0.218E+02   -.467E-03 -.161E-02 -.173E-01
   -.821E+00 -.237E+02 -.358E+03   0.202E-01 0.249E+02 0.379E+03   0.802E+00 -.125E+01 -.218E+02   0.467E-03 -.161E-02 0.173E-01
   0.720E+01 -.303E+02 -.360E+03   -.701E+01 0.323E+02 0.381E+03   -.214E+00 -.195E+01 -.208E+02   0.255E-01 0.156E-01 -.170E-01
   -.720E+01 -.303E+02 0.360E+03   0.701E+01 0.323E+02 -.381E+03   0.214E+00 -.195E+01 0.208E+02   -.255E-01 0.156E-01 0.170E-01
   -.231E-05 -.109E-01 -.415E-05   -.119E-12 -.284E-12 0.227E-12   -.444E-15 -.123E-01 -.711E-14   0.310E-10 0.293E-02 0.159E-10

 POSITION                                       TOTAL-FORCE (eV/Angst)
      1.43144      5.42119      2.44634        -0.006024     -0.017374      0.003628
      4.86601      5.42119      7.25550         0.006024     -0.017374     -0.003628
      4.20448      1.40113      2.44917        -0.002546      0.001399      0.000800
      2.09298      1.40113      7.25267         0.002546      0.001399     -0.000800
      2.03078      4.13948      7.26427        -0.020764      0.001706     -0.002361
      4.26668      4.13948      2.43756         0.020764      0.001706      0.002361
      8.77530      1.53407      2.46294        -0.009111      0.009516     -0.003111
     -2.47785      1.53407      7.23889         0.009111      0.009516      0.003111
      0.00000      5.53959     -0.00000         0.000000      0.004956     -0.000000
      2.47843      1.38838      0.07373         0.002366      0.004314      0.007598
      3.81903      1.38838      9.62810        -0.002366      0.004314     -0.007598
      7.41849      4.15442      0.05025        -0.003998      0.002597     -0.007340
     -1.12104      4.15442      9.65158         0.003998      0.002597      0.007340
      0.00000      2.77086     -0.00000         0.000000      0.000614     -0.000000
      4.94273      0.00533      0.03722         0.000000      0.000590     -0.000000
      4.94273      2.77494      0.03722         0.000000      0.008384     -0.000000
      3.14873      5.53958      4.85092         0.000000     -0.003040     -0.000000
      5.62795      1.38778      4.82634         0.002481     -0.000513      0.004707
      0.66950      1.38778      4.87549        -0.002481     -0.000513     -0.004707
      0.66085      4.14951      4.84296        -0.001075     -0.004197     -0.003884
      5.63660      4.14951      4.85887         0.001075     -0.004197      0.003884
      3.14873      2.76892      4.85092         0.000000     -0.001591     -0.000000
     -1.79400      5.52860      4.81370         0.000000     -0.002967     -0.000000
     -1.79400      2.77640      4.81370         0.000000     -0.007063     -0.000000
      4.82158      5.52759      3.87933        -0.000604     -0.001234      0.002358
      1.47588      5.52759      5.82251         0.000604     -0.001234     -0.002358
      3.18170      5.52355      1.06349         0.001054      0.001312      0.003140
      3.11575      5.52355      8.63834        -0.001054      0.001312     -0.003140
      7.40459      1.37947      3.89453        -0.000810     -0.000796      0.002717
     -1.10714      1.37947      5.80730         0.000810     -0.000796     -0.002717
     -1.04703      4.15742      5.76895         0.000437     -0.000156     -0.002368
      7.34448      4.15742      3.93288        -0.000437     -0.000156      0.002368
      0.64651      1.37375      1.04180        -0.003085      0.002416     -0.001064
      5.65095      1.37375      8.66004         0.003085      0.002416      0.001064
      5.56195      4.16332      8.72322         0.002065      0.001282     -0.000343
      0.73551      4.16332      0.97861        -0.002065      0.001282      0.000343
      4.85343      2.77710      3.88109        -0.000438     -0.001288      0.004627
      1.44403      2.77710      5.82074         0.000438     -0.001288     -0.004627
      3.30854      2.78576      1.00527         0.001710      0.001073      0.002397
      2.98892      2.78576      8.69657        -0.001710      0.001073     -0.002397
     -0.03340      0.02258      3.86609         0.000079     -0.002012      0.000059
      6.33086      0.02258      5.83574        -0.000079     -0.002012     -0.000059
      8.21914      0.03429      0.96572        -0.001140      0.001652     -0.004017
     -1.92168      0.03429      8.73611         0.001140      0.001652      0.004017
      2.45828      1.37283      3.84007         0.001864     -0.000253      0.001032
      3.83918      1.37283      5.86177        -0.001864     -0.000253     -0.001032
      3.87726      4.16642      5.84811        -0.000928     -0.000319     -0.001522
      2.42019      4.16642      3.85373         0.000928     -0.000319      0.001522
      5.63647      1.38442      1.02370         0.001646      0.001415     -0.002262
      0.66098      1.38442      8.67813        -0.001646      0.001415      0.002262
      0.62176      4.16681      8.69686        -0.002151     -0.000100      0.005065
      5.67570      4.16681      1.00498         0.002151     -0.000100     -0.005065
     -0.12728      2.74594      3.90433        -0.001330     -0.001811     -0.000676
      6.42473      2.74594      5.79751         0.001330     -0.001811      0.000676
      8.17394      2.74345      0.96127         0.000196      0.001429     -0.005217
     -1.87649      2.74345      8.74056        -0.000196      0.001429      0.005217
    total drift:                               -0.000002     -0.020276     -0.000004

  FREE ENERGIE OF THE ION-ELECTRON SYSTEM (eV)
  free  energy   TOTEN  =      -344.8983677061 eV

  energy  without entropy=     -344.8809850475  energy(sigma->0) =     -344.88967638

 d Force = 0.2557036E-04[ 0.246E-04, 0.266E-04]  d Energy = 0.2508495E-04 0.485E-06
 d Force =-0.2300318E+00[-0.230E+00,-0.230E+00]  d Ewald  =-0.6157837E+00 0.386E+00

 Quasi-Newton relaxation of ions (Broydens 2nd method)
  g(Force)  = 0.143E-03   g(Stress)= 0.157E-04

 retain information from N=  1 steps
 eigenvalues of (default step * inverse Hessian matrix)
  average eigenvalue of G=   0.0601
 eigenvalue spectrum of G is  0.0601

volume of typ            1:    11.8 %

[...]

volume of typ            3:     9.9 %

total charge

# of ion       s       p       d       tot
    1        2.070   0.213   0.080   2.363
    2        2.070   0.213   0.080   2.363
    3        2.074   0.228   0.084   2.387
    4        2.074   0.228   0.084   2.387
    5        2.075   0.229   0.085   2.390
    6        2.075   0.229   0.085   2.390
    7        2.071   0.218   0.082   2.370
    8        2.071   0.218   0.082   2.370
    9        0.304   0.437   7.841   8.583
   10        0.274   0.367   7.870   8.511
   11        0.274   0.367   7.870   8.511
   12        0.274   0.372   7.850   8.497
   13        0.274   0.372   7.850   8.497
   14        0.286   0.400   7.835   8.521
   15        0.286   0.396   7.866   8.548
   16        0.301   0.431   7.850   8.582
   17        0.295   0.419   7.860   8.575
   18        0.276   0.372   7.863   8.511
   19        0.276   0.372   7.863   8.511
   20        0.278   0.376   7.853   8.506
   21        0.278   0.376   7.853   8.506
   22        0.280   0.387   7.851   8.518
   23        0.286   0.400   7.846   8.532
   24        0.301   0.431   7.838   8.571
   25        1.260   2.789   0.007   4.056
   26        1.260   2.789   0.007   4.056
   27        1.260   2.786   0.006   4.052
   28        1.260   2.786   0.006   4.052
   29        1.270   2.766   0.007   4.044
   30        1.270   2.766   0.007   4.044
   31        1.282   2.731   0.008   4.020
   32        1.282   2.731   0.008   4.020
   33        1.269   2.764   0.007   4.040
   34        1.269   2.764   0.007   4.040
   35        1.271   2.759   0.007   4.037
   36        1.271   2.759   0.007   4.037
   37        1.259   2.792   0.007   4.058
   38        1.259   2.792   0.007   4.058
   39        1.263   2.779   0.007   4.049
   40        1.263   2.779   0.007   4.049
   41        1.266   2.773   0.007   4.046
   42        1.266   2.773   0.007   4.046
   43        1.272   2.757   0.008   4.036
   44        1.272   2.757   0.008   4.036
   45        1.268   2.764   0.007   4.039
   46        1.268   2.764   0.007   4.039
   47        1.266   2.770   0.007   4.042
   48        1.266   2.770   0.007   4.042
   49        1.270   2.765   0.007   4.042
   50        1.270   2.765   0.007   4.042
   51        1.270   2.767   0.007   4.044
   52        1.270   2.767   0.007   4.044
   53        1.271   2.758   0.008   4.037
   54        1.271   2.758   0.008   4.037
   55        1.269   2.769   0.008   4.046
   56        1.269   2.769   0.008   4.046
tot          61.70   96.63  126.55  284.88

magnetization (x)

# of ion       s       p       d       tot
    1        0.000   0.001   0.000   0.001
    2        0.000   0.001   0.000   0.001
    3        0.003   0.007   0.001   0.011
    4        0.003   0.007   0.001   0.011
    5        0.002   0.004  -0.000   0.006
    6        0.002   0.004  -0.000   0.006
    7        0.003   0.007   0.001   0.010
    8        0.003   0.007   0.001   0.010
    9       -0.000  -0.000   0.056   0.055
   10        0.003   0.000   0.471   0.474
   11        0.003   0.000   0.471   0.474
   12        0.000   0.000   0.066   0.066
   13        0.000   0.000   0.066   0.066
   14       -0.001  -0.000  -0.144  -0.145
   15       -0.005  -0.000  -0.479  -0.484
   16       -0.000  -0.000   0.088   0.087
   17       -0.000  -0.000   0.271   0.270
   18        0.002   0.000   0.461   0.464
   19        0.002   0.000   0.461   0.464
   20       -0.000   0.000   0.178   0.179
   21       -0.000   0.000   0.178   0.179
   22       -0.000  -0.000   0.278   0.278
   23        0.003  -0.000   0.382   0.384
   24       -0.000  -0.000   0.073   0.072
   25        0.005   0.035   0.000   0.041
   26        0.005   0.035   0.000   0.041
   27       -0.004  -0.044  -0.000  -0.049
   28       -0.004  -0.044  -0.000  -0.049
   29        0.006   0.061   0.000   0.067
   30        0.006   0.061   0.000   0.067
   31        0.002   0.021   0.000   0.024
   32        0.002   0.021   0.000   0.024
   33        0.004   0.051   0.000   0.056
   34        0.004   0.051   0.000   0.056
   35       -0.000   0.000   0.000   0.000
   36       -0.000   0.000   0.000   0.000
   37        0.004   0.029   0.000   0.033
   38        0.004   0.029   0.000   0.033
   39        0.002   0.017   0.000   0.019
   40        0.002   0.017   0.000   0.019
   41        0.005   0.042   0.000   0.047
   42        0.005   0.042   0.000   0.047
   43        0.001   0.018   0.000   0.019
   44        0.001   0.018   0.000   0.019
   45        0.006   0.053   0.000   0.059
   46        0.006   0.053   0.000   0.059
   47        0.003   0.011   0.000   0.014
   48        0.003   0.011   0.000   0.014
   49        0.004   0.050   0.000   0.054
   50        0.004   0.050   0.000   0.054
   51       -0.000  -0.013   0.000  -0.013
   52       -0.000  -0.013   0.000  -0.013
   53        0.002   0.016   0.000   0.018
   54        0.002   0.016   0.000   0.018
   55       -0.001  -0.005  -0.000  -0.006
   56       -0.001  -0.005  -0.000  -0.006
tot           0.10    0.72    2.88    3.71