 vasp.5.4.4.18Apr17-6-g9f103f2a35 (build May 12 2020 05:39:39) gamma-only

 MD_VERSION_INFO: Compiled 2020-05-12T12:39:39-UTC in devlin.sd.materialsdesign.
 com:/home/medea2/data/build/wwolf/vasp-gpu5.4.4/13047/x86_64/src/src/build/gam
 from svn 13047

 executed on                        Lin64 date 2023.03.07  02:25:50

 INCAR:
 POTCAR:    PAW_PBE Li_sv 10Sep2004
 POTCAR:    PAW_PBE Ni 02Aug2007
 POTCAR:    PAW_PBE O 08Apr2002

 POTCAR:    PAW_PBE Li_sv 10Sep2004

 POTCAR:    PAW_PBE Ni 02Aug2007

 POTCAR:    PAW_PBE O 08Apr2002

 Optimization of the real space projectors (new method)

 maximal supplied QI-value         = 22.11
 optimisation between [QCUT,QGAM] = [ 11.28, 22.77] = [ 35.61,145.23] Ry
 Optimized for a Real-space Cutoff    1.10 Angstroem

   l    n(q)    QCUT    max X(q) W(low)/X(q) W(high)/X(q)  e(spline)
   0      7    11.276    10.506    0.54E-04    0.58E-04    0.16E-07
   0      7    11.276     8.367    0.11E-03    0.14E-03    0.35E-07
   1      7    11.276     8.983    0.23E-03    0.43E-03    0.86E-07
 Optimization of the real space projectors (new method)

[...]

   l    n(q)    QCUT    max X(q) W(low)/X(q) W(high)/X(q)  e(spline)
   2      9    11.376    60.317    0.17E-03    0.16E-04    0.16E-06
   2      9    11.376    55.921    0.17E-03    0.16E-04    0.17E-06
   0     10    11.376    51.690    0.45E-04    0.60E-04    0.21E-06
   0     10    11.376    30.015    0.37E-04    0.55E-04    0.19E-06
   1     10    11.376    18.849    0.83E-04    0.11E-03    0.92E-07
   1     10    11.376    14.624    0.69E-04    0.92E-04    0.82E-07
 Optimization of the real space projectors (new method)

 maximal supplied QI-value         = 24.76
 optimisation between [QCUT,QGAM] = [ 11.39, 22.77] = [ 36.31,145.25] Ry
 Optimized for a Real-space Cutoff    1.10 Angstroem

   l    n(q)    QCUT    max X(q) W(low)/X(q) W(high)/X(q)  e(spline)
   0      7    11.387    20.381    0.22E-03    0.48E-03    0.18E-06
   0      7    11.387    15.268    0.22E-03    0.52E-03    0.19E-06
   1      7    11.387     5.964    0.22E-03    0.73E-03    0.24E-06
   1      7    11.387     5.382    0.19E-03    0.60E-03    0.21E-06

  PAW_PBE Li_sv 10Sep2004               :
  PAW_PBE Ni 02Aug2007                  :
  PAW_PBE O 08Apr2002                   :

 POSCAR: ce6151_1
  positions in direct lattice
 exchange correlation table for  LEXCH =       14
   RHO(1)=    0.500       N(1)  =     2000
   RHO(2)=  100.500       N(2)  =     4000

 ion  position               nearest neighbor table
   1  0.996  0.253  0.236-  39 2.05  44 2.06  36 2.09  48 2.14  51 2.15  12 2.79  22 2.84  23 2.84

   2  0.255  0.250  0.514-  52 2.01  40 2.05  28 2.08  42 2.13  30 2.18  48 2.23  21 2.79  19 2.82

[...]

   7  0.975  0.246  0.767-  35 2.01  46 2.04  55 2.08  32 2.15  52 2.26  15 2.74  26 2.81
   8  0.284  0.249  0.985-  58 1.99  32 2.01  56 2.09  36 2.17  46 2.20  27 2.75  14 2.77
   9  0.244  0.750  1.000-  45 2.09  37 2.11  47 2.11  57 2.14  33 2.15  59 2.15
  10  0.760  0.750  0.001-  38 2.06  34 2.07  47 2.10  45 2.10  57 2.17  59 2.18
  11  0.520  0.747  0.264-  54 2.03  41 2.06  34 2.11  53 2.16  33 2.24  59 2.27  23 2.77  19 2.84

  12  1.000  0.001  0.000-  38 1.85  36 1.86  37 1.88  39 1.89  47 1.96  46 1.98  17 2.77  17 2.78
                             1 2.79  15 2.86  14 2.86  16 2.88  13 2.88
  13  0.250  1.000  0.251-  59 1.86  47 1.86  30 1.86  42 1.87  53 2.08  36 2.14  16 2.77  16 2.78
                            18 2.83  17 2.86  19 2.87  12 2.88
  14  0.250  0.999  0.750-  43 1.84  46 1.85  58 1.85  31 1.85  37 2.07  52 2.07   8 2.77  15 2.78
                            15 2.78  19 2.86  12 2.86  17 2.88  18 2.89
  15  0.751  1.000  0.750-  58 1.85  31 1.85  43 1.85  46 1.86  55 2.12  38 2.13   7 2.74   6 2.77
                            14 2.78  14 2.78  19 2.85  12 2.86  17 2.88  18 2.88
  16  0.750  0.001  0.252-  59 1.87  30 1.87  47 1.89  42 1.89  54 1.91  39 1.94  13 2.77  13 2.78
                            18 2.83  17 2.86  19 2.86  12 2.88
  17  0.501  0.002  0.003-  38 1.83  37 1.85  36 1.86  39 1.88  58 1.96  59 2.04  12 2.77  12 2.78
                             5 2.79  16 2.86  13 2.86  14 2.88  15 2.88
  18  0.001  1.000  0.498-  55 1.84  52 1.84  53 1.86  54 1.87  31 1.94  30 2.01  19 2.77  19 2.78
                             3 2.79  13 2.83  16 2.83  15 2.88  14 2.89
  19  0.501  0.004  0.503-  53 1.84  54 1.86  55 1.86  52 1.87  43 2.01  42 2.03  18 2.77  18 2.78
                             2 2.82   4 2.82  11 2.84  15 2.85  14 2.86  16 2.86  13 2.87
  20  0.001  0.497  0.499-  49 1.86  51 1.86  50 1.87  48 1.87  29 1.94  28 1.99  25 2.77  25 2.78
                             3 2.81  21 2.86  22 2.86  24 2.86  23 2.88
  21  0.250  0.500  0.750-  57 1.85  28 1.86  40 1.87  45 1.87  32 2.09  49 2.10  24 2.78  24 2.78
                             2 2.79  27 2.84  20 2.86  25 2.88  26 2.88
  22  0.248  0.501  0.250-  44 1.85  41 1.85  29 1.85  56 1.86  33 2.03  48 2.06  23 2.77  23 2.78
                             1 2.84  26 2.85  20 2.86  25 2.87  27 2.88
  23  0.750  0.501  0.250-  29 1.85  41 1.85  44 1.85  56 1.86  34 2.10  51 2.16  22 2.77  11 2.77
                            22 2.78   5 2.84   1 2.84  26 2.84  25 2.85  20 2.88  27 2.88
  24  0.750  0.500  0.750-  40 1.88  57 1.88  45 1.88  28 1.89  35 1.93  50 1.93  21 2.78  21 2.78
                             4 2.79  27 2.84  26 2.86  20 2.86  25 2.87
  25  0.502  0.496  0.497-  49 1.83  51 1.86  50 1.86  48 1.88  40 1.97  41 2.01  20 2.77  20 2.78
                             6 2.83  23 2.85  22 2.87  24 2.87  21 2.88
  26  0.997  0.502  0.001-  32 1.84  35 1.86  34 1.86  33 1.87  45 1.95  44 1.99  27 2.77  27 2.78
                             7 2.81  23 2.84  22 2.85  24 2.86  21 2.88
  27  0.498  0.496  0.996-  34 1.84  33 1.85  35 1.85  32 1.86  56 2.04  57 2.07   8 2.75  26 2.77
                            26 2.78  21 2.84  24 2.84  23 2.88  22 2.88
  28  0.004  0.394  0.635-  21 1.86  24 1.89  20 1.99   2 2.08   4 2.11
  29  0.999  0.597  0.367-  23 1.85  22 1.85  20 1.94   3 2.01
  30  0.002  0.106  0.364-  13 1.86  16 1.87  18 2.01   2 2.18   4 2.21
  31  0.999  0.903  0.634-  15 1.85  14 1.85  18 1.94   3 2.00
  32  0.240  0.392  0.892-  26 1.84  27 1.86   8 2.01  21 2.09   7 2.15
  33  0.257  0.604  0.110-  27 1.85  26 1.87  22 2.03   9 2.15  11 2.24
  34  0.741  0.607  0.105-  27 1.84  26 1.86  10 2.07  23 2.10  11 2.11
  35  0.752  0.401  0.882-  27 1.85  26 1.86  24 1.93   7 2.01
  36  0.249  0.112  0.107-  12 1.86  17 1.86   1 2.09   5 2.11  13 2.14   8 2.17
  37  0.254  0.894  0.892-  17 1.85  12 1.88  14 2.07   9 2.11   6 2.27
  38  0.746  0.892  0.898-  17 1.83  12 1.85  10 2.06   6 2.13  15 2.13
  39  0.751  0.103  0.122-  17 1.88  12 1.89  16 1.94   1 2.05   5 2.07
  40  0.498  0.397  0.634-  21 1.87  24 1.88  25 1.97   2 2.05   4 2.06
  41  0.499  0.601  0.362-  22 1.85  23 1.85  25 2.01  11 2.06
  42  0.498  0.109  0.365-  13 1.87  16 1.89  19 2.03   4 2.12   2 2.13   5 2.24
  43  0.499  0.899  0.638-  14 1.84  15 1.85  19 2.01   6 2.06
  44  0.998  0.399  0.137-  22 1.85  23 1.85  26 1.99   1 2.06
  45  0.003  0.602  0.869-  21 1.87  24 1.88  26 1.95   9 2.09  10 2.10
  46  0.002  0.101  0.863-  14 1.85  15 1.86  12 1.98   7 2.04   8 2.20
  47  0.003  0.900  0.133-  13 1.86  16 1.89  12 1.96  10 2.10   9 2.11
  48  0.248  0.389  0.385-  20 1.87  25 1.88  22 2.06   1 2.14   5 2.15   2 2.23
  49  0.256  0.604  0.603-  25 1.83  20 1.86  21 2.10   3 2.11   6 2.18
  50  0.750  0.596  0.615-  25 1.86  20 1.87  24 1.93   6 2.05
  51  0.752  0.386  0.393-  25 1.86  20 1.86   4 2.10   5 2.13   1 2.15  23 2.16
  52  0.244  0.108  0.610-  18 1.84  19 1.87   2 2.01  14 2.07   7 2.26
  53  0.257  0.894  0.395-  19 1.84  18 1.86  13 2.08   3 2.11  11 2.16
  54  0.745  0.903  0.383-  19 1.86  18 1.87  16 1.91  11 2.03
  55  0.758  0.110  0.606-  18 1.84  19 1.86   4 2.00   7 2.08  15 2.12
  56  0.497  0.396  0.139-  22 1.86  23 1.86  27 2.04   5 2.05   8 2.09
  57  0.498  0.609  0.860-  21 1.85  24 1.88  27 2.07   9 2.14  10 2.17   6 2.24
  58  0.501  0.098  0.865-  15 1.85  14 1.85  17 1.96   8 1.99
  59  0.499  0.894  0.140-  13 1.86  16 1.87  17 2.04   9 2.15  10 2.18  11 2.27

  LATTYP: Found a triclinic cell.
 ALAT       =    10.1771074899
 B/A-ratio  =     0.9842767910
 C/A-ratio  =     0.5456329562
 COS(alpha) =     0.0000375536
 COS(beta)  =     0.0033630458
 COS(gamma) =     0.3607321943

  Lattice vectors:

 A1 = (  -3.6866861099,  -0.0170477453,   9.4858616774)
 A2 = ( -10.0170773768,  -0.0002103684,  -0.0163376713)
 A3 = (  -0.0001082494,  -5.5529562148,   0.0100140359)

Analysis of symmetry for initial positions (statically):
 Subroutine PRICEL returns:
 Original cell was already a primitive cell.

 Routine SETGRP: Setting up the symmetry group for a
 triclinic supercell.

 Subroutine GETGRP returns: Found  1 space group operations
 (whereof  1 operations were pure point group operations)
 out of a pool of  2 trial point group operations.

The static configuration has the point symmetry C_1 .

Analysis of symmetry for dynamics (positions and initial velocities):
 Subroutine PRICEL returns:
 Original cell was already a primitive cell.

[...]

The dynamic configuration has the point symmetry C_1 .

Analysis of structural, dynamic, and magnetic symmetry:
 Subroutine PRICEL returns:
 Original cell was already a primitive cell.

 Routine SETGRP: Setting up the symmetry group for a
 triclinic supercell.

 Subroutine GETGRP returns: Found  1 space group operations
 (whereof  1 operations were pure point group operations)
 out of a pool of  2 trial point group operations.

The magnetic configuration has the point symmetry C_1 .

 Subroutine INISYM returns: Found  1 space group operations
 (whereof  1 operations are pure point group operations),
 and found     1 'primitive' translations

 KPOINTS: Automatic mesh

Automatic generation of k-mesh.
Space group operators:
 irot       det(A)        alpha          n_x          n_y          n_z        tau_x        tau_y        tau_z
    1     1.000000     0.000000     1.000000     0.000000     0.000000     0.000000     0.000000     0.000000

 Subroutine IBZKPT returns following result:

 Found      1 irreducible k-points:

 Following reciprocal coordinates:
            Coordinates               Weight
  0.000000  0.000000  0.000000      1.000000

 Following cartesian coordinates:
            Coordinates               Weight
  0.000000  0.000000  0.000000      1.000000

 SYSTEM =  unknown system
 POSCAR =  ce6151_1

 Startparameter for this run:
   NWRITE =      1    write-flag & timer
   PREC   = accura    normal or accurate (medium, high low for compatibility)
   ISTART =      0    job   : 0-new  1-cont  2-samecut
   ICHARG =      2    charge: 1-file 2-atom 10-const
   ISPIN  =      2    spin polarized calculation?
   LNONCOLLINEAR =      F non collinear calculations
   LSORBIT =      F    spin-orbit coupling
   INIWAV =      1    electr: 0-lowe 1-rand  2-diag
   LASPH  =      F    aspherical Exc in radial PAW
   METAGGA=      F    non-selfconsistent MetaGGA calc.

 Electronic Relaxation 1
   ENCUT  =  500.0 eV  36.75 Ry    6.06 a.u.  10.12 18.56 18.26*2*pi/ulx,y,z
[...]
   -.757E+01 0.131E+02 0.966E+02   0.822E+01 -.133E+02 -.977E+02   -.627E+00 0.243E+00 0.102E+01   -.194E-01 -.685E-02 -.976E-02
   -.590E+02 -.125E+02 0.280E+02   0.596E+02 0.126E+02 -.286E+02   -.638E+00 -.879E-01 0.606E+00   -.189E-01 0.669E-02 -.926E-02
   -.730E+01 0.128E+02 -.893E+02   0.716E+01 -.130E+02 0.904E+02   0.168E+00 0.195E+00 -.112E+01   -.262E-01 -.153E-02 -.291E-02
   -.419E+01 0.282E+01 -.310E+02   0.430E+01 -.271E+01 0.310E+02   -.119E+00 -.103E+00 -.551E-01   0.778E-02 -.748E-02 0.101E-01
   0.175E+02 0.129E+02 -.679E+02   -.180E+02 -.129E+02 0.686E+02   0.552E+00 -.150E-01 -.714E+00   -.115E-01 -.793E-02 -.752E-03
   0.159E+02 -.125E+02 -.635E+02   -.165E+02 0.126E+02 0.643E+02   0.540E+00 -.105E+00 -.800E+00   -.111E-01 0.714E-02 -.200E-02
   -.579E+01 -.373E+01 -.277E+02   0.582E+01 0.360E+01 0.278E+02   -.338E-01 0.119E+00 -.101E+00   0.962E-02 0.413E-02 0.916E-02
   0.266E+02 -.127E+02 -.731E+02   -.266E+02 0.127E+02 0.740E+02   0.649E-01 -.411E-01 -.868E+00   -.247E-01 -.123E-02 -.306E-02
   -.464E+02 0.131E+02 -.151E+02   0.469E+02 -.131E+02 0.150E+02   -.488E+00 0.199E-01 0.150E+00   0.196E-01 -.239E-02 0.102E-01
   0.308E+01 -.130E+02 0.539E+02   -.278E+01 0.132E+02 -.544E+02   -.324E+00 -.174E+00 0.488E+00   0.197E-01 0.765E-03 0.108E-01
   -.109E+02 -.271E+01 0.271E+03   0.926E+01 0.194E+01 -.284E+03   0.166E+01 0.765E+00 0.129E+02   -.185E-02 0.744E-02 -.856E-02
   0.821E+00 0.333E+02 -.357E+03   0.171E+00 -.356E+02 0.376E+03   -.980E+00 0.231E+01 -.195E+02   -.198E-01 -.685E-02 -.698E-02
   -.201E+02 -.773E+01 -.268E+03   0.226E+02 0.819E+01 0.283E+03   -.243E+01 -.445E+00 -.151E+02   -.247E-01 -.101E-01 -.157E-01
   -.783E+01 0.349E+02 0.348E+03   0.735E+01 -.373E+02 -.367E+03   0.480E+00 0.247E+01 0.192E+02   0.558E-02 -.592E-02 -.311E-02
   0.437E+02 -.247E+02 0.316E+03   -.501E+02 0.261E+02 -.332E+03   0.632E+01 -.143E+01 0.159E+02   0.942E-02 -.962E-02 -.236E-02
   -.498E+02 0.226E+02 -.327E+03   0.544E+02 -.239E+02 0.344E+03   -.466E+01 0.134E+01 -.167E+02   0.111E-01 -.965E-02 0.561E-02
   -.650E+02 -.257E+02 -.313E+03   0.703E+02 0.273E+02 0.329E+03   -.530E+01 -.164E+01 -.161E+02   0.162E-01 0.105E-01 0.403E-02
   -.953E+01 0.315E+02 0.337E+03   0.909E+01 -.341E+02 -.357E+03   0.424E+00 0.251E+01 0.193E+02   0.163E-01 0.102E-01 -.567E-02
   -.117E+02 0.237E+01 -.282E+03   0.157E+02 -.246E+01 0.295E+03   -.408E+01 0.898E-01 -.134E+02   0.677E-02 -.769E-03 -.866E-02
   0.578E+02 0.291E+02 0.332E+03   -.627E+02 -.310E+02 -.349E+03   0.495E+01 0.189E+01 0.167E+02   0.124E-01 -.392E-03 0.341E-02
   0.750E+02 -.273E+02 0.317E+03   -.807E+02 0.290E+02 -.334E+03   0.571E+01 -.171E+01 0.165E+02   0.101E-01 -.180E-03 0.823E-02
   0.364E+02 -.378E+01 -.299E+03   -.366E+02 0.419E+01 0.313E+03   0.178E+00 -.403E+00 -.146E+02   0.145E-01 -.642E-03 -.142E-01
   -.372E+02 0.755E+01 0.290E+03   0.374E+02 -.795E+01 -.305E+03   -.229E+00 0.400E+00 0.154E+02   -.118E-02 -.631E-02 -.103E-01
   -.325E+02 -.288E+02 -.344E+03   0.378E+02 0.304E+02 0.362E+03   -.529E+01 -.154E+01 -.178E+02   -.190E-01 0.694E-02 -.492E-02
   -.228E+02 0.322E+01 -.267E+03   0.253E+02 -.260E+01 0.279E+03   -.241E+01 -.625E+00 -.121E+02   -.233E-01 0.937E-02 -.180E-01
   0.361E+02 -.275E+02 0.327E+03   -.419E+02 0.289E+02 -.345E+03   0.582E+01 -.143E+01 0.172E+02   0.521E-02 0.525E-02 -.180E-02
   0.452E+02 0.309E+02 0.295E+03   -.500E+02 -.326E+02 -.313E+03   0.480E+01 0.174E+01 0.178E+02   0.788E-02 -.730E-02 0.103E-01
   0.252E+02 -.781E+01 -.320E+03   -.259E+02 0.824E+01 0.336E+03   0.689E+00 -.433E+00 -.160E+02   0.161E-01 0.688E-02 0.128E-01
   -.191E+02 0.311E+02 -.298E+03   0.233E+02 -.329E+02 0.315E+03   -.424E+01 0.181E+01 -.167E+02   0.116E-01 -.603E-02 -.158E-02
   -.204E+02 -.632E+00 0.327E+03   0.204E+02 -.490E+00 -.341E+03   -.528E-01 0.114E+01 0.144E+02   0.793E-02 -.102E-01 0.134E-01
   0.282E+02 0.350E+01 0.268E+03   -.311E+02 -.352E+01 -.281E+03   0.301E+01 0.218E-01 0.131E+02   -.175E-01 -.242E-02 -.655E-02
   -.405E+02 0.252E+02 -.351E+03   0.463E+02 -.267E+02 0.368E+03   -.581E+01 0.150E+01 -.170E+02   -.109E-02 -.222E-02 0.102E-01
   0.112E+02 -.341E+02 -.367E+03   -.110E+02 0.369E+02 0.386E+03   -.215E+00 -.281E+01 -.190E+02   -.690E-02 0.288E-02 0.148E-01
   0.478E+02 -.254E+01 0.258E+03   -.517E+02 0.247E+01 -.272E+03   0.393E+01 0.590E-01 0.136E+02   -.229E-01 0.314E-02 -.608E-02
   -.627E+02 -.282E+02 -.301E+03   0.684E+02 0.300E+02 0.317E+03   -.568E+01 -.177E+01 -.163E+02   -.481E-03 -.619E-04 0.505E-02
   0.299E+02 0.247E+02 0.346E+03   -.354E+02 -.263E+02 -.363E+03   0.547E+01 0.158E+01 0.170E+02   -.208E-01 -.450E-04 -.681E-02
   -.199E+02 -.273E+02 0.362E+03   0.198E+02 0.292E+02 -.381E+03   0.117E+00 -.186E+01 0.194E+02   -.304E-01 0.294E-03 -.834E-03
   -.757E+02 0.279E+02 -.286E+03   0.814E+02 -.295E+02 0.302E+03   -.566E+01 0.166E+01 -.156E+02   0.144E-02 -.362E-03 0.592E-03
   0.476E+02 -.335E+02 0.292E+03   -.520E+02 0.355E+02 -.307E+03   0.438E+01 -.204E+01 0.153E+02   0.139E-01 0.749E-02 0.527E-02
   -.737E+01 0.266E+01 -.299E+03   0.104E+02 -.196E+01 0.312E+03   -.306E+01 -.695E+00 -.134E+02   0.842E-02 -.637E-02 0.174E-01
   0.171E+02 -.371E+02 -.320E+03   -.160E+02 0.397E+02 0.339E+03   -.113E+01 -.261E+01 -.188E+02   0.116E-01 0.557E-02 -.310E-02
   0.915E+01 0.736E+01 0.314E+03   -.124E+02 -.756E+01 -.329E+03   0.320E+01 0.201E+00 0.144E+02   0.666E-02 0.942E-02 0.150E-01
   0.108E+00 0.992E-01 0.347E-01   -.274E-12 0.204E-13 -.114E-12   -.113E+00 -.105E+00 -.511E-01   -.443E-02 0.317E-03 0.593E-02

 POSITION                                       TOTAL-FORCE (eV/Angst)
      1.41978      5.52356      2.39274        -0.011758      0.003171      0.000186
      4.21588      1.40142      2.38032         0.000759     -0.000377     -0.003574
      2.26032      1.08059      7.15211         0.000815     -0.029474     -0.003164
      4.16760      4.11447      2.38471        -0.002526      0.001695     -0.004192
      1.49887      2.79230      2.38564         0.016330     -0.001177     -0.005110
      4.59956      2.88720      7.17088        -0.004296      0.009931     -0.004423
      6.77359      5.37260      2.35823         0.003399     -0.015690      0.003777
      8.94944      1.58500      2.40311        -0.004455      0.020496      0.003922
      7.26640      1.33509      7.17513         0.001630      0.002363      0.002708
     -2.73847      4.19591      7.13043         0.002044      0.000785      0.005697
     -0.07615      2.87534      7.11984         0.017684      0.007825     -0.000074
     -0.01141      5.55302      0.00594        -0.002215     -0.000781      0.000506
     -1.14771      1.36551      9.51209         0.001387      0.004903     -0.002911
      3.85106      1.36136      9.53041         0.004590      0.000117      0.002215
      3.84336      4.13473      9.52678         0.004487      0.002911      0.001603
      2.51772      4.16426      0.00364         0.000077     -0.002963     -0.003473
      0.01480      2.78354      0.01836        -0.003132      0.004917     -0.000279
      1.33617     -0.02481      9.51989         0.007641      0.000245     -0.001140
      5.02999      2.77248      0.04056         0.005714      0.002289     -0.002150
      3.17274     -0.01488      4.74308        -0.000853      0.003797     -0.000641
      5.67219      1.36418      4.78378        -0.003717      0.004148      0.002909
      0.65752      1.36403      4.76320        -0.000917     -0.003799      0.001203
      0.65366      4.14553      4.75768        -0.003291      0.000296     -0.000608
      5.67063      4.13796      4.77405        -0.002014     -0.006786      0.002181
      3.15419      2.76310      4.73451         0.000968     -0.007345      0.001133
     -1.83805      5.52308      4.75618        -0.001037     -0.003581      0.006790
      8.15823      2.74238      4.75768        -0.002129      0.000418      0.009515
      4.92519     -0.00069      3.76976         0.002866     -0.003653     -0.001056
      1.46251      5.53074      5.66851        -0.008292     -0.001669     -0.011740
      3.25184      0.00938      1.01119         0.002813      0.002551     -0.007488
      3.04442      5.51542      8.59689         0.010261      0.000363      0.001285
      7.50283      1.31582      3.76534        -0.001937     -0.001493      0.006996
     -1.12340      1.40808      5.74897        -0.007765     -0.000961     -0.003069
     -1.18790      4.10555      5.76882        -0.006841     -0.000650     -0.002223
      7.36314      4.14651      3.83697         0.000344     -0.003617      0.007196
      0.64842      1.38791      1.07501        -0.001229      0.004731      0.005664
      5.64134      1.38606      8.54632         0.005508      0.003473      0.013497
      5.71977      4.11472      8.51984         0.005948      0.003005      0.012902
      0.82771      4.17075      0.98143         0.000002      0.004274      0.002174
      4.89256      2.74655      3.80295         0.001073     -0.002996      0.002759
      1.42090      2.75328      5.70726        -0.007244      0.000450     -0.011365
      3.24202      2.74897      1.05528         0.000784      0.002121     -0.005332
      3.11373      2.73861      8.55112         0.009234      0.002567      0.002785
     -0.11449      5.53007      3.79559        -0.003858     -0.001128      0.003946
      6.47608     -0.01842      5.74836        -0.006873     -0.002972     -0.001594
      8.27513      0.00374      0.99894        -0.003616      0.002565     -0.000808
     -1.97421      0.00654      8.55930         0.002786      0.002908      0.007976
      2.43701      1.36476      3.70044         0.000828     -0.002883     -0.003832
      3.80704      1.39207      5.76631        -0.009382     -0.002030     -0.011941
      3.96234      4.13460      5.68761        -0.010171     -0.002526     -0.008710
      2.51538      4.15284      3.67426        -0.001220     -0.004073     -0.005536
      5.74433      1.34767      1.02613         0.000792      0.001238     -0.009816
      0.68671      1.39820      8.51468         0.007899     -0.000221     -0.001526
      0.54073      4.10471      8.58791         0.006791     -0.000540      0.001575
      5.66978      4.19220      1.04930        -0.000206      0.000354     -0.007753
     -0.06979      2.74811      3.76255        -0.002371     -0.000910      0.001681
      6.38714      2.73252      5.80870        -0.011684     -0.002911     -0.000417
      8.29142      2.77484      0.95381        -0.004391      0.003836      0.000158
     -1.87255      2.75190      8.51376         0.003963      0.002464      0.011007
    total drift:                               -0.008916     -0.005484     -0.010464

  FREE ENERGIE OF THE ION-ELECTRON SYSTEM (eV)
  free  energy   TOTEN  =      -359.6406129918 eV

  energy  without entropy=     -359.6333649000  energy(sigma->0) =     -359.63698895

 d Force = 0.1645343E-03[ 0.161E-03, 0.168E-03]  d Energy = 0.1300220E-03 0.345E-04
 d Force =-0.2676270E-01[-0.269E-01,-0.267E-01]  d Ewald  =-0.2160276E+01 0.213E+01

 Quasi-Newton relaxation of ions (Broydens 2nd method)
  g(Force)  = 0.292E-03   g(Stress)= 0.294E-03

 retain information from N=  1 steps
 eigenvalues of (default step * inverse Hessian matrix)
  average eigenvalue of G=   0.1595
 eigenvalue spectrum of G is  0.1595

volume of typ            1:    16.2 %

[...]

volume of typ            3:     9.9 %

total charge

# of ion       s       p       d       tot
    1        2.079   0.236   0.089   2.404
    2        2.079   0.251   0.092   2.422
    3        2.078   0.241   0.091   2.411
    4        2.086   0.263   0.099   2.447
    5        2.079   0.245   0.091   2.414
    6        2.070   0.221   0.081   2.372
    7        2.076   0.236   0.088   2.399
    8        2.083   0.255   0.097   2.435
    9        2.073   0.235   0.085   2.394
   10        2.081   0.249   0.092   2.421
   11        2.073   0.220   0.083   2.377
   12        0.275   0.376   7.850   8.501
   13        0.265   0.348   7.883   8.497
   14        0.279   0.379   7.864   8.522
   15        0.269   0.354   7.867   8.490
   16        0.276   0.376   7.858   8.510
   17        0.280   0.382   7.864   8.526
   18        0.283   0.390   7.857   8.530
   19        0.275   0.374   7.859   8.509
   20        0.277   0.379   7.851   8.507
   21        0.265   0.348   7.874   8.487
   22        0.280   0.378   7.869   8.527
   23        0.268   0.353   7.876   8.497
   24        0.277   0.378   7.854   8.509
   25        0.280   0.385   7.859   8.525
   26        0.283   0.391   7.853   8.527
   27        0.277   0.375   7.859   8.512
   28        1.260   2.792   0.006   4.057
   29        1.266   2.772   0.007   4.046
   30        1.258   2.790   0.006   4.055
   31        1.267   2.771   0.007   4.045
   32        1.262   2.783   0.006   4.051
   33        1.265   2.770   0.006   4.041
   34        1.263   2.780   0.006   4.049
   35        1.267   2.770   0.007   4.045
   36        1.255   2.799   0.006   4.060
   37        1.267   2.764   0.006   4.037
   38        1.264   2.776   0.006   4.046
   39        1.259   2.792   0.006   4.057
   40        1.261   2.785   0.007   4.053
   41        1.262   2.780   0.007   4.049
   42        1.258   2.791   0.006   4.054
   43        1.263   2.779   0.007   4.049
   44        1.262   2.781   0.007   4.050
   45        1.263   2.779   0.007   4.048
   46        1.260   2.787   0.007   4.054
   47        1.263   2.781   0.006   4.050
   48        1.259   2.788   0.006   4.052
   49        1.265   2.772   0.007   4.043
   50        1.269   2.762   0.007   4.038
   51        1.257   2.796   0.006   4.058
   52        1.264   2.774   0.006   4.045
   53        1.263   2.776   0.007   4.046
   54        1.266   2.772   0.007   4.045
   55        1.261   2.787   0.006   4.054
   56        1.259   2.788   0.006   4.054
   57        1.261   2.785   0.006   4.052
   58        1.266   2.775   0.007   4.048
   59        1.258   2.790   0.006   4.055
tot          67.66   97.60  127.00  292.26

magnetization (x)

# of ion       s       p       d       tot
    1       -0.000  -0.000   0.000  -0.001
    2        0.006   0.013   0.000   0.019
    3        0.001   0.004   0.001   0.005
    4       -0.001  -0.002  -0.002  -0.004
    5        0.005   0.009   0.000   0.014
    6        0.005   0.009   0.000   0.014
    7        0.004   0.006  -0.000   0.010
    8        0.001   0.003   0.001   0.006
    9        0.006   0.013   0.000   0.019
   10       -0.001  -0.001  -0.001  -0.004
   11       -0.001  -0.000   0.000  -0.001
   12        0.000  -0.000   0.334   0.334
   13        0.004   0.000   0.609   0.612
   14        0.004   0.000   0.470   0.474
   15       -0.006   0.000  -0.578  -0.584
   16       -0.000  -0.000   0.387   0.386
   17        0.001   0.000   0.400   0.402
   18        0.001  -0.000   0.267   0.267
   19        0.003   0.000   0.511   0.514
   20        0.000   0.000   0.290   0.290
   21        0.003  -0.001   0.656   0.659
   22        0.005   0.000   0.518   0.523
   23       -0.006  -0.000  -0.541  -0.547
   24       -0.000  -0.001   0.367   0.366
   25       -0.001   0.000  -0.349  -0.350
   26       -0.001   0.000  -0.231  -0.232
   27        0.003   0.000   0.485   0.489
   28        0.009   0.041   0.000   0.050
   29        0.003   0.032   0.000   0.035
   30        0.005   0.024   0.000   0.028
   31        0.002   0.018   0.000   0.021
   32        0.006   0.082   0.000   0.088
   33        0.006   0.072   0.000   0.078
   34       -0.006  -0.088  -0.000  -0.094
   35        0.002   0.017   0.000   0.019
   36        0.006   0.070   0.000   0.076
   37        0.009   0.078   0.000   0.086
   38       -0.005  -0.085  -0.000  -0.090
   39        0.006   0.035   0.000   0.041
   40       -0.000  -0.021  -0.000  -0.021
   41       -0.003  -0.031  -0.000  -0.035
   42        0.010   0.074   0.000   0.085
   43        0.005   0.058   0.000   0.064
   44       -0.002  -0.017  -0.000  -0.019
   45        0.002  -0.007  -0.000  -0.005
   46        0.003   0.019   0.000   0.022
   47        0.009   0.063   0.000   0.072
   48        0.006   0.057   0.000   0.063
   49        0.005   0.078   0.000   0.084
   50        0.003   0.017   0.000   0.020
   51       -0.006  -0.077  -0.000  -0.082
   52        0.007   0.066   0.000   0.073
   53        0.007   0.093   0.000   0.100
   54        0.004   0.036   0.000   0.040
   55       -0.005  -0.082  -0.000  -0.087
   56        0.005   0.053   0.000   0.058
   57        0.010   0.074   0.000   0.085
   58        0.004   0.046   0.000   0.050
   59        0.006   0.037   0.000   0.044
tot           0.14    0.89    3.60    4.63