 vasp.5.4.4.18Apr17-6-g9f103f2a35 (build May 12 2020 05:39:39) gamma-only

 MD_VERSION_INFO: Compiled 2020-05-12T12:39:39-UTC in devlin.sd.materialsdesign.
 com:/home/medea2/data/build/wwolf/vasp-gpu5.4.4/13047/x86_64/src/src/build/gam
 from svn 13047

 executed on                        Lin64 date 2023.03.07  02:24:27

 INCAR:
 POTCAR:    PAW_PBE Li_sv 10Sep2004
 POTCAR:    PAW_PBE Ni 02Aug2007
 POTCAR:    PAW_PBE O 08Apr2002

 POTCAR:    PAW_PBE Li_sv 10Sep2004

 POTCAR:    PAW_PBE Ni 02Aug2007

 POTCAR:    PAW_PBE O 08Apr2002

 Optimization of the real space projectors (new method)

 maximal supplied QI-value         = 22.11
 optimisation between [QCUT,QGAM] = [ 11.28, 22.77] = [ 35.61,145.23] Ry
 Optimized for a Real-space Cutoff    1.10 Angstroem

   l    n(q)    QCUT    max X(q) W(low)/X(q) W(high)/X(q)  e(spline)
   0      7    11.276    10.506    0.54E-04    0.58E-04    0.16E-07
   0      7    11.276     8.367    0.11E-03    0.14E-03    0.35E-07
   1      7    11.276     8.983    0.23E-03    0.43E-03    0.86E-07
 Optimization of the real space projectors (new method)

[...]

   l    n(q)    QCUT    max X(q) W(low)/X(q) W(high)/X(q)  e(spline)
   2      9    11.376    60.317    0.17E-03    0.16E-04    0.16E-06
   2      9    11.376    55.921    0.17E-03    0.16E-04    0.17E-06
   0     10    11.376    51.690    0.45E-04    0.60E-04    0.21E-06
   0     10    11.376    30.015    0.37E-04    0.55E-04    0.19E-06
   1     10    11.376    18.849    0.83E-04    0.11E-03    0.92E-07
   1     10    11.376    14.624    0.69E-04    0.92E-04    0.82E-07
 Optimization of the real space projectors (new method)

 maximal supplied QI-value         = 24.76
 optimisation between [QCUT,QGAM] = [ 11.39, 22.77] = [ 36.31,145.25] Ry
 Optimized for a Real-space Cutoff    1.10 Angstroem

   l    n(q)    QCUT    max X(q) W(low)/X(q) W(high)/X(q)  e(spline)
   0      7    11.387    20.381    0.22E-03    0.48E-03    0.18E-06
   0      7    11.387    15.268    0.22E-03    0.52E-03    0.19E-06
   1      7    11.387     5.964    0.22E-03    0.73E-03    0.24E-06
   1      7    11.387     5.382    0.19E-03    0.60E-03    0.21E-06

  PAW_PBE Li_sv 10Sep2004               :
  PAW_PBE Ni 02Aug2007                  :
  PAW_PBE O 08Apr2002                   :

 POSCAR: ce17265_1
  positions in direct lattice
 exchange correlation table for  LEXCH =       14
   RHO(1)=    0.500       N(1)  =     2000
   RHO(2)=  100.500       N(2)  =     4000

 ion  position               nearest neighbor table
   1  0.500  0.250  0.286-  39 1.94  45 2.05  48 2.05  22 2.70
   2  0.500  0.750  0.714-  40 1.94  46 2.05  47 2.05  22 2.70
   3  0.246  0.250  0.000-  43 2.10  41 2.11  53 2.13  55 2.14  29 2.17  33 2.17
   4  0.246  0.750  1.000-  44 2.10  42 2.11  54 2.13  56 2.14  30 2.17  34 2.17
   5  0.754  0.750  1.000-  44 2.10  42 2.11  54 2.13  56 2.14  31 2.17  35 2.17
   6  0.754  0.250  0.000-  43 2.10  41 2.11  53 2.13  55 2.14  32 2.17  36 2.17
   7  0.500  0.250  0.714-  37 1.94  49 2.05  52 2.05  16 2.70
   8  0.500  0.750  0.286-  38 1.94  50 2.05  51 2.05  16 2.70
   9  0.000  0.000  0.000-  33 1.86  34 1.86  35 1.86  36 1.86  44 1.94  43 1.94  14 2.77  14 2.77
                            10 2.83  11 2.83  12 2.83  13 2.83
  10  0.248  0.996  0.249-  27 1.83  39 1.85  44 1.87  56 1.87  50 1.95  33 2.01  13 2.75  13 2.79
                            15 2.83   9 2.83  16 2.83  14 2.84
  11  0.248  0.004  0.751-  28 1.83  40 1.85  43 1.87  55 1.87  49 1.95  34 2.01  12 2.75  12 2.79
                            15 2.83   9 2.83  16 2.83  14 2.84
  12  0.752  0.004  0.751-  28 1.83  40 1.85  43 1.87  55 1.87  52 1.95  35 2.01  11 2.75  11 2.79
                            15 2.83   9 2.83  16 2.83  14 2.84
  13  0.752  0.996  0.249-  27 1.83  39 1.85  44 1.87  56 1.87  51 1.95  36 2.01  10 2.75  10 2.79
                            15 2.83   9 2.83  16 2.83  14 2.84
  14  0.500  0.000  0.000-  33 1.84  34 1.84  35 1.84  36 1.84  55 2.05  56 2.05   9 2.77   9 2.77
                            13 2.84  10 2.84  11 2.84  12 2.84
  15  0.000  0.000  0.500-  49 1.85  50 1.85  51 1.85  52 1.85  27 1.93  28 1.93  16 2.77  16 2.77
                            10 2.83  11 2.83  12 2.83  13 2.83
  16  0.500  0.000  0.500-  49 1.84  50 1.84  51 1.84  52 1.84  39 1.98  40 1.98   7 2.70   8 2.70
                            15 2.77  15 2.77  10 2.83  11 2.83  12 2.83  13 2.83
  17  0.000  0.500  0.500-  45 1.85  46 1.85  47 1.85  48 1.85  25 1.93  26 1.93  22 2.77  22 2.77
                            18 2.83  19 2.83  20 2.83  21 2.83
  18  0.248  0.503  0.751-  25 1.83  37 1.84  42 1.86  54 1.87  46 1.95  29 2.01  21 2.75  21 2.78
                            17 2.83  23 2.83  22 2.83  24 2.84
  19  0.248  0.497  0.249-  26 1.83  38 1.84  41 1.86  53 1.87  45 1.95  30 2.01  20 2.75  20 2.78
                            17 2.83  23 2.83  22 2.83  24 2.84
  20  0.752  0.497  0.249-  26 1.83  38 1.84  41 1.86  53 1.87  48 1.95  31 2.01  19 2.75  19 2.78
                            17 2.83  23 2.83  22 2.83  24 2.84
  21  0.752  0.503  0.751-  25 1.83  37 1.84  42 1.86  54 1.87  47 1.95  32 2.01  18 2.75  18 2.78
                            17 2.83  23 2.83  22 2.83  24 2.84
  22  0.500  0.500  0.500-  45 1.84  46 1.84  47 1.84  48 1.84  37 1.99  38 1.99   1 2.70   2 2.70
                            17 2.77  17 2.77  21 2.83  18 2.83  19 2.83  20 2.83
  23  0.000  0.500  0.000-  29 1.86  30 1.86  31 1.86  32 1.86  41 1.94  42 1.94  24 2.77  24 2.77
                            18 2.83  19 2.83  20 2.83  21 2.83
  24  0.500  0.500  0.000-  29 1.84  30 1.84  31 1.84  32 1.84  53 2.05  54 2.05  23 2.77  23 2.77
                            18 2.84  19 2.84  20 2.84  21 2.84
  25  0.000  0.406  0.638-  18 1.83  21 1.83  17 1.93
  26  0.000  0.594  0.362-  19 1.83  20 1.83  17 1.93
  27  0.000  0.094  0.362-  10 1.83  13 1.83  15 1.93
  28  0.000  0.906  0.638-  11 1.83  12 1.83  15 1.93
  29  0.253  0.398  0.888-  24 1.84  23 1.86  18 2.01   3 2.17
  30  0.253  0.602  0.112-  24 1.84  23 1.86  19 2.01   4 2.17
  31  0.747  0.602  0.112-  24 1.84  23 1.86  20 2.01   5 2.17
  32  0.747  0.398  0.888-  24 1.84  23 1.86  21 2.01   6 2.17
  33  0.253  0.102  0.111-  14 1.84   9 1.86  10 2.01   3 2.17
  34  0.253  0.898  0.889-  14 1.84   9 1.86  11 2.01   4 2.17
  35  0.747  0.898  0.889-  14 1.84   9 1.86  12 2.01   5 2.17
  36  0.747  0.102  0.111-  14 1.84   9 1.86  13 2.01   6 2.17
  37  0.500  0.402  0.642-  18 1.84  21 1.84   7 1.94  22 1.99
  38  0.500  0.598  0.358-  19 1.84  20 1.84   8 1.94  22 1.99
  39  0.500  0.098  0.359-  10 1.85  13 1.85   1 1.94  16 1.98
  40  0.500  0.902  0.641-  11 1.85  12 1.85   2 1.94  16 1.98
  41  0.000  0.397  0.131-  19 1.86  20 1.86  23 1.94   6 2.11   3 2.11
  42  0.000  0.603  0.869-  18 1.86  21 1.86  23 1.94   5 2.11   4 2.11
  43  0.000  0.104  0.870-  11 1.87  12 1.87   9 1.94   6 2.10   3 2.10
  44  0.000  0.896  0.130-  10 1.87  13 1.87   9 1.94   5 2.10   4 2.10
  45  0.252  0.400  0.388-  22 1.84  17 1.85  19 1.95   1 2.05
  46  0.252  0.600  0.612-  22 1.84  17 1.85  18 1.95   2 2.05
  47  0.748  0.600  0.612-  22 1.84  17 1.85  21 1.95   2 2.05
  48  0.748  0.400  0.388-  22 1.84  17 1.85  20 1.95   1 2.05
  49  0.251  0.100  0.613-  16 1.84  15 1.85  11 1.95   7 2.05
  50  0.251  0.900  0.387-  16 1.84  15 1.85  10 1.95   8 2.05
  51  0.749  0.900  0.387-  16 1.84  15 1.85  13 1.95   8 2.05
  52  0.749  0.100  0.613-  16 1.84  15 1.85  12 1.95   7 2.05
  53  0.500  0.391  0.138-  19 1.87  20 1.87  24 2.05   6 2.13   3 2.13
  54  0.500  0.609  0.862-  18 1.87  21 1.87  24 2.05   5 2.13   4 2.13
  55  0.500  0.109  0.862-  11 1.87  12 1.87  14 2.05   6 2.14   3 2.14
  56  0.500  0.891  0.138-  10 1.87  13 1.87  14 2.05   5 2.14   4 2.14

  LATTYP: Found a simple monoclinic cell.
 ALAT       =    11.5111031153
 B/A-ratio  =     0.4808193030
 C/A-ratio  =     1.6916268813
 COS(beta)  =    -0.9051485570

  Lattice vectors:

 A1 = (  -6.2565012693,   0.0000000000,  -9.6623851507)
 A2 = (   0.0000000000,  -5.5347605764,   0.0000000000)
 A3 = (   2.6315416699,   0.0000000000,  19.2938568516)

Analysis of symmetry for initial positions (statically):
 Subroutine PRICEL returns:
 Original cell was already a primitive cell.

 Routine SETGRP: Setting up the symmetry group for a
 simple monoclinic supercell.

 Subroutine GETGRP returns: Found  4 space group operations
 (whereof  4 operations were pure point group operations)
 out of a pool of  4 trial point group operations.

The static configuration has the point symmetry C_2h.

Analysis of symmetry for dynamics (positions and initial velocities):
 Subroutine PRICEL returns:
 Original cell was already a primitive cell.

[...]

The dynamic configuration has the point symmetry C_2h.

Analysis of structural, dynamic, and magnetic symmetry:
 Subroutine PRICEL returns:
 Original cell was already a primitive cell.

 Routine SETGRP: Setting up the symmetry group for a
 simple monoclinic supercell.

 Subroutine GETGRP returns: Found  4 space group operations
 (whereof  4 operations were pure point group operations)
 out of a pool of  4 trial point group operations.

The magnetic configuration has the point symmetry C_2h.

 Subroutine INISYM returns: Found  4 space group operations
 (whereof  4 operations are pure point group operations),
 and found     1 'primitive' translations

 KPOINTS: Automatic mesh

Automatic generation of k-mesh.
Space group operators:
 irot       det(A)        alpha          n_x          n_y          n_z        tau_x        tau_y        tau_z
    1     1.000000     0.000000     1.000000     0.000000     0.000000     0.000000     0.000000     0.000000
    2    -1.000000     0.000000     1.000000     0.000000     0.000000     0.000000     0.000000     0.000000
    3     1.000000   180.000000     0.000000     1.000000     0.000000     0.000000     0.000000     0.000000
    4    -1.000000   180.000000     0.000000     1.000000     0.000000     0.000000     0.000000     0.000000

 Subroutine IBZKPT returns following result:

 Found      1 irreducible k-points:

 Following reciprocal coordinates:
            Coordinates               Weight
  0.000000  0.000000  0.000000      1.000000

 Following cartesian coordinates:
            Coordinates               Weight
  0.000000  0.000000  0.000000      1.000000

 SYSTEM =  unknown system
 POSCAR =  ce17265_1

 Startparameter for this run:
   NWRITE =      1    write-flag & timer
   PREC   = accura    normal or accurate (medium, high low for compatibility)
   ISTART =      0    job   : 0-new  1-cont  2-samecut
   ICHARG =      2    charge: 1-file 2-atom 10-const
   ISPIN  =      2    spin polarized calculation?
   LNONCOLLINEAR =      F non collinear calculations
   LSORBIT =      F    spin-orbit coupling
   INIWAV =      1    electr: 0-lowe 1-rand  2-diag
   LASPH  =      F    aspherical Exc in radial PAW
   METAGGA=      F    non-selfconsistent MetaGGA calc.

 Electronic Relaxation 1
   ENCUT  =  500.0 eV  36.75 Ry    6.06 a.u.  10.09 18.76 18.02*2*pi/ulx,y,z
   ENINI  =  500.0     initial cutoff
   ENAUG  =  628.9 eV  augmentation charge cutoff
[...]
   0.434E+02 0.259E+02 0.357E+02   -.442E+02 -.259E+02 -.361E+02   0.819E+00 0.534E-02 0.461E+00   -.136E-01 -.657E-03 0.672E-03
   0.434E+02 -.259E+02 0.357E+02   -.442E+02 0.259E+02 -.361E+02   0.819E+00 -.534E-02 0.461E+00   -.136E-01 0.657E-03 0.672E-03
   -.434E+02 -.259E+02 -.357E+02   0.442E+02 0.259E+02 0.361E+02   -.819E+00 -.534E-02 -.461E+00   0.136E-01 0.657E-03 -.672E-03
   -.552E-11 -.205E-12 -.237E-12   -.239E-11 -.260E-12 -.269E-11   0.000E+00 0.000E+00 -.336E-24   -.507E-12 0.590E-12 0.450E-12
   0.123E-11 0.303E-13 0.255E-12   0.568E-13 0.558E-13 -.289E-11   0.000E+00 0.000E+00 0.711E-25   0.127E-11 0.899E-13 0.204E-12
   0.190E-11 -.237E-12 0.200E-11   0.711E-14 0.559E-13 -.199E-11   0.000E+00 0.000E+00 0.827E-24   0.118E-11 -.207E-12 0.667E-12
   0.116E-11 0.201E-13 0.492E-14   0.835E-13 -.151E-11 0.147E-11   0.000E+00 0.000E+00 -.517E-25   0.105E-11 -.225E-12 -.713E-12
   0.437E+02 0.259E+02 0.357E+02   -.445E+02 -.259E+02 -.362E+02   0.823E+00 0.602E-02 0.464E+00   -.246E-01 0.701E-02 -.161E-02
   -.437E+02 0.259E+02 -.357E+02   0.445E+02 -.259E+02 0.362E+02   -.823E+00 0.602E-02 -.464E+00   0.246E-01 0.701E-02 0.161E-02
   -.437E+02 -.259E+02 -.357E+02   0.445E+02 0.259E+02 0.362E+02   -.823E+00 -.602E-02 -.464E+00   0.246E-01 -.701E-02 0.161E-02
   0.437E+02 -.259E+02 0.357E+02   -.445E+02 0.259E+02 -.362E+02   0.823E+00 -.602E-02 0.464E+00   -.246E-01 -.701E-02 -.161E-02
   -.280E-12 -.201E-12 0.635E-11   0.170E-12 -.165E-11 0.124E-11   0.207E-24 0.000E+00 0.187E-24   0.830E-12 0.163E-12 -.152E-11
   -.521E-12 0.121E-13 -.214E-12   0.977E-14 -.139E-11 0.537E-11   0.000E+00 0.000E+00 0.103E-24   0.209E-11 0.218E-12 -.505E-12
   -.454E-11 -.228E-12 0.498E-11   0.311E-13 -.146E-11 0.323E-11   0.000E+00 0.000E+00 -.905E-25   0.207E-11 -.286E-12 0.639E-12
   0.329E+02 0.937E-13 0.397E+03   -.346E+02 -.975E-11 -.423E+03   0.171E+01 0.000E+00 0.262E+02   -.123E-01 -.716E-12 0.261E-02
   -.329E+02 0.848E-13 -.397E+03   0.346E+02 -.974E-11 0.423E+03   -.171E+01 0.000E+00 -.262E+02   0.123E-01 0.486E-12 -.261E-02
   -.327E+02 0.435E-13 -.397E+03   0.343E+02 -.523E-13 0.423E+03   -.170E+01 0.000E+00 -.262E+02   0.896E-02 0.374E-12 -.169E-02
   0.327E+02 -.233E-13 0.397E+03   -.343E+02 0.455E-14 -.423E+03   0.170E+01 0.000E+00 0.262E+02   -.896E-02 -.109E-12 0.169E-02
   0.672E+02 0.240E+02 0.349E+03   -.719E+02 -.256E+02 -.367E+03   0.476E+01 0.154E+01 0.183E+02   -.139E-01 0.560E-02 -.139E-01
   -.672E+02 0.240E+02 -.349E+03   0.719E+02 -.256E+02 0.367E+03   -.476E+01 0.154E+01 -.183E+02   0.139E-01 0.560E-02 0.139E-01
   -.672E+02 -.240E+02 -.349E+03   0.719E+02 0.256E+02 0.367E+03   -.476E+01 -.154E+01 -.183E+02   0.139E-01 -.560E-02 0.139E-01
   0.672E+02 -.240E+02 0.349E+03   -.719E+02 0.256E+02 -.367E+03   0.476E+01 -.154E+01 0.183E+02   -.139E-01 -.560E-02 -.139E-01
   -.672E+02 0.239E+02 -.349E+03   0.720E+02 -.254E+02 0.367E+03   -.476E+01 0.154E+01 -.183E+02   0.763E-02 -.135E-01 0.681E-02
   0.672E+02 0.239E+02 0.349E+03   -.720E+02 -.254E+02 -.367E+03   0.476E+01 0.154E+01 0.183E+02   -.763E-02 -.135E-01 -.681E-02
   0.672E+02 -.239E+02 0.349E+03   -.720E+02 0.254E+02 -.367E+03   0.476E+01 -.154E+01 0.183E+02   -.763E-02 0.135E-01 -.681E-02
   -.672E+02 -.239E+02 -.349E+03   0.720E+02 0.254E+02 0.367E+03   -.476E+01 -.154E+01 -.183E+02   0.763E-02 0.135E-01 0.681E-02
   0.593E+02 0.250E-12 0.369E+03   -.653E+02 -.974E-11 -.387E+03   0.596E+01 0.000E+00 0.188E+02   -.118E-01 0.697E-12 0.254E-02
   -.593E+02 0.266E-12 -.369E+03   0.653E+02 -.976E-11 0.387E+03   -.596E+01 0.000E+00 -.188E+02   0.118E-01 -.500E-12 -.254E-02
   -.588E+02 0.861E-13 -.369E+03   0.647E+02 0.352E-13 0.387E+03   -.594E+01 0.000E+00 -.188E+02   0.117E-01 -.384E-12 -.126E-02
   0.588E+02 0.170E-12 0.369E+03   -.647E+02 -.734E-14 -.387E+03   0.594E+01 0.000E+00 0.188E+02   -.117E-01 0.818E-13 0.126E-02
   -.351E+02 0.108E-12 0.315E+03   0.357E+02 -.873E-11 -.332E+03   -.642E+00 0.000E+00 0.169E+02   0.195E-01 0.156E-12 -.566E-02
   0.351E+02 0.927E-13 -.315E+03   -.357E+02 -.872E-11 0.332E+03   0.642E+00 0.000E+00 -.169E+02   -.195E-01 0.452E-12 0.566E-02
   0.347E+02 0.133E-13 -.315E+03   -.353E+02 -.453E-13 0.332E+03   0.626E+00 0.000E+00 -.169E+02   -.174E-02 -.596E-12 -.502E-02
   -.347E+02 0.739E-13 0.315E+03   0.353E+02 -.828E-13 -.332E+03   -.626E+00 0.000E+00 0.169E+02   0.174E-02 -.790E-12 0.502E-02
   -.258E+02 0.361E+02 0.355E+03   0.251E+02 -.388E+02 -.376E+03   0.702E+00 0.264E+01 0.206E+02   0.709E-02 0.336E-02 0.864E-02
   0.258E+02 0.361E+02 -.355E+03   -.251E+02 -.388E+02 0.376E+03   -.702E+00 0.264E+01 -.206E+02   -.709E-02 0.336E-02 -.864E-02
   0.258E+02 -.361E+02 -.355E+03   -.251E+02 0.388E+02 0.376E+03   -.702E+00 -.264E+01 -.206E+02   -.709E-02 -.336E-02 -.864E-02
   -.258E+02 -.361E+02 0.355E+03   0.251E+02 0.388E+02 -.376E+03   0.702E+00 -.264E+01 0.206E+02   0.709E-02 -.336E-02 0.864E-02
   0.261E+02 0.361E+02 -.355E+03   -.254E+02 -.388E+02 0.376E+03   -.681E+00 0.264E+01 -.206E+02   -.815E-02 0.458E-02 -.751E-02
   -.261E+02 0.361E+02 0.355E+03   0.254E+02 -.388E+02 -.376E+03   0.681E+00 0.264E+01 0.206E+02   0.815E-02 0.458E-02 0.751E-02
   -.261E+02 -.361E+02 0.355E+03   0.254E+02 0.388E+02 -.376E+03   0.681E+00 -.264E+01 0.206E+02   0.815E-02 -.458E-02 0.751E-02
   0.261E+02 -.361E+02 -.355E+03   -.254E+02 0.388E+02 0.376E+03   -.681E+00 -.264E+01 -.206E+02   -.815E-02 -.458E-02 -.751E-02
   -.105E+02 0.222E-12 0.307E+03   0.817E+01 -.910E-11 -.322E+03   0.230E+01 0.000E+00 0.143E+02   0.156E-01 -.183E-12 0.113E-02
   0.105E+02 0.226E-12 -.307E+03   -.817E+01 -.911E-11 0.322E+03   -.230E+01 0.000E+00 -.143E+02   -.156E-01 -.485E-12 -.113E-02
   0.974E+01 0.131E-12 -.307E+03   -.740E+01 -.993E-13 0.321E+03   -.233E+01 0.000E+00 -.143E+02   -.141E-01 0.554E-12 0.247E-02
   -.974E+01 0.839E-13 0.307E+03   0.740E+01 -.603E-13 -.321E+03   0.233E+01 0.000E+00 0.143E+02   0.141E-01 0.768E-12 -.247E-02
   0.228E-09 0.851E-11 -.838E-10   0.309E-12 -.184E-12 -.171E-12   -.888E-15 0.000E+00 -.355E-14   -.984E-11 -.273E-12 0.174E-12

 POSITION                                       TOTAL-FORCE (eV/Angst)
      1.91796      2.76700      2.42399         0.005242      0.000000     -0.010406
      4.33862      2.76700      7.28529        -0.005242      0.000000      0.010406
     -0.90579      1.36294      2.42007         0.000583      0.001987     -0.001251
      7.16237      1.36294      7.28921        -0.000583      0.001987      0.001251
      7.16237      4.17106      7.28921        -0.000583     -0.001987      0.001251
     -0.90579      4.17106      2.42007         0.000583     -0.001987     -0.001251
      6.15410      2.76700      2.44580        -0.007059      0.000000      0.011970
      0.10248      2.76700      7.26348         0.007059      0.000000     -0.011970
      0.00000     -0.00000      0.00000         0.000000      0.000000     -0.000000
     -1.15073      1.37457      9.64542         0.002296     -0.000208     -0.010043
      7.40731      1.37457      0.06386        -0.002296     -0.000208      0.010043
      7.40731      4.15944      0.06386        -0.002296      0.000208      0.010043
     -1.15073      4.15944      9.64542         0.002296      0.000208     -0.010043
      0.00000      2.76700      0.00000         0.000000      0.000000     -0.000000
      4.94015     -0.00000      0.01595         0.000000      0.000000     -0.000000
      4.94015      2.76700      0.01595         0.000000      0.000000     -0.000000
      3.12829     -0.00000      4.85464         0.000000      0.000000     -0.000000
      5.59530      1.37464      4.90106        -0.000284     -0.001794      0.012924
      0.66128      1.37464      4.80823         0.000284     -0.001794     -0.012924
      0.66128      4.15936      4.80823         0.000284      0.001794     -0.012924
      5.59530      4.15936      4.90106        -0.000284      0.001794      0.012924
      3.12829      2.76700      4.85464         0.000000      0.000000     -0.000000
     -1.81186     -0.00000      4.83869         0.000000      0.000000     -0.000000
     -1.81186      2.76700      4.83869         0.000000      0.000000     -0.000000
      4.82650     -0.00000      3.96169         0.006837      0.000000      0.012003
      1.43008     -0.00000      5.74759        -0.006837      0.000000     -0.012003
      3.24117     -0.00000      0.90770        -0.005516      0.000000     -0.012301
      3.01541     -0.00000      8.80158         0.005516      0.000000      0.012301
      7.33604      1.39992      3.88590        -0.008976      0.000229      0.007681
     -1.07946      1.39992      5.82338         0.008976      0.000229     -0.007681
     -1.07946      4.13409      5.82338         0.008976     -0.000229     -0.007681
      7.33604      4.13409      3.88590        -0.008976     -0.000229      0.007681
      0.73311      1.40006      0.98406         0.007908     -0.000901     -0.006590
      5.52347      1.40006      8.72522        -0.007908     -0.000901      0.006590
      5.52347      4.13394      8.72522        -0.007908      0.000901      0.006590
      0.73311      4.13394      0.98406         0.007908      0.000901     -0.006590
      4.88214      2.76700      3.92143         0.002185      0.000000      0.012407
      1.37444      2.76700      5.78785        -0.002185      0.000000     -0.012407
      3.18680      2.76700      0.94769        -0.003338      0.000000     -0.013608
      3.06978      2.76700      8.76159         0.003338      0.000000      0.013608
     -0.14939     -0.00000      3.84344        -0.000789      0.000000     -0.015478
      6.40597     -0.00000      5.86585         0.000789      0.000000      0.015478
      8.21878     -0.00000      1.02855        -0.001260      0.000000      0.015427
     -1.96221     -0.00000      8.68073         0.001260      0.000000     -0.015427
      2.38404      1.39404      3.88545         0.007699     -0.000694     -0.007574
      3.87254      1.39404      5.82383        -0.007699     -0.000694      0.007574
      3.87254      4.13996      5.82383        -0.007699      0.000694      0.007574
      2.38404      4.13996      3.88545         0.007699      0.000694     -0.007574
      5.68369      1.39387      0.98567        -0.006345      0.000253      0.006616
      0.57288      1.39387      8.72361         0.006345      0.000253     -0.006616
      0.57288      4.14013      8.72361         0.006345     -0.000253     -0.006616
      5.68369      4.14013      0.98567        -0.006345     -0.000253      0.006616
     -0.05222      2.76700      3.78415         0.001771      0.000000     -0.018003
      6.30880      2.76700      5.92513        -0.001771      0.000000      0.018003
      8.11966      2.76700      1.08838         0.002869      0.000000      0.016509
     -1.86308      2.76700      8.62091        -0.002869      0.000000     -0.016509
    total drift:                                0.000000      0.000000     -0.000000

  FREE ENERGIE OF THE ION-ELECTRON SYSTEM (eV)
  free  energy   TOTEN  =      -344.5521394547 eV

  energy  without entropy=     -344.5477619976  energy(sigma->0) =     -344.54995073

 d Force = 0.1523342E-03[ 0.880E-04, 0.217E-03]  d Energy = 0.9575898E-04 0.566E-04
 d Force =-0.8652772E+00[-0.866E+00,-0.864E+00]  d Ewald  = 0.3748159E+01-0.461E+01

 Quasi-Newton relaxation of ions (Broydens 2nd method)
  g(Force)  = 0.348E-03   g(Stress)= 0.269E-03

 retain information from N=  3 steps
 eigenvalues of (default step * inverse Hessian matrix)
  average eigenvalue of G=   3.6309
 eigenvalue spectrum of G is  6.0508  3.8558  0.9862

 reached required accuracy - stopping structural energy minimisation

volume of typ            1:    11.8 %

[...]

volume of typ            3:     9.8 %

total charge

# of ion       s       p       d       tot
    1        2.070   0.222   0.083   2.376
    2        2.070   0.222   0.083   2.376
    3        2.071   0.223   0.082   2.376
    4        2.071   0.223   0.082   2.376
    5        2.071   0.223   0.082   2.376
    6        2.071   0.223   0.082   2.376
    7        2.070   0.222   0.083   2.376
    8        2.070   0.222   0.083   2.376
    9        0.284   0.396   7.852   8.531
   10        0.282   0.386   7.853   8.521
   11        0.282   0.386   7.853   8.521
   12        0.282   0.386   7.853   8.521
   13        0.282   0.386   7.853   8.521
   14        0.285   0.391   7.872   8.549
   15        0.288   0.402   7.822   8.512
   16        0.289   0.403   7.853   8.545
   17        0.288   0.402   7.822   8.512
   18        0.282   0.386   7.853   8.521
   19        0.282   0.386   7.853   8.521
   20        0.282   0.386   7.853   8.521
   21        0.282   0.386   7.853   8.521
   22        0.289   0.403   7.853   8.545
   23        0.284   0.396   7.853   8.532
   24        0.285   0.392   7.872   8.549
   25        1.281   2.730   0.008   4.020
   26        1.281   2.730   0.008   4.020
   27        1.281   2.730   0.008   4.020
   28        1.281   2.730   0.008   4.020
   29        1.265   2.773   0.007   4.044
   30        1.265   2.773   0.007   4.044
   31        1.265   2.773   0.007   4.044
   32        1.265   2.773   0.007   4.044
   33        1.265   2.773   0.007   4.044
   34        1.265   2.773   0.007   4.044
   35        1.265   2.773   0.007   4.044
   36        1.265   2.773   0.007   4.044
   37        1.269   2.769   0.007   4.045
   38        1.269   2.769   0.007   4.045
   39        1.269   2.769   0.007   4.045
   40        1.269   2.769   0.007   4.045
   41        1.259   2.791   0.007   4.057
   42        1.259   2.791   0.007   4.057
   43        1.259   2.791   0.007   4.057
   44        1.259   2.791   0.007   4.057
   45        1.270   2.763   0.007   4.040
   46        1.270   2.763   0.007   4.040
   47        1.270   2.763   0.007   4.040
   48        1.270   2.763   0.007   4.040
   49        1.270   2.763   0.007   4.040
   50        1.270   2.763   0.007   4.040
   51        1.270   2.763   0.007   4.040
   52        1.270   2.763   0.007   4.040
   53        1.257   2.792   0.006   4.055
   54        1.257   2.792   0.006   4.055
   55        1.257   2.792   0.006   4.055
   56        1.257   2.792   0.006   4.055
tot          61.66   96.67  126.51  284.85

magnetization (x)

# of ion       s       p       d       tot
    1        0.005   0.007   0.001   0.012
    2        0.005   0.007   0.001   0.012
    3        0.005   0.005  -0.000   0.010
    4        0.005   0.005  -0.000   0.010
    5        0.005   0.005  -0.000   0.010
    6        0.005   0.005  -0.000   0.010
    7        0.005   0.007   0.001   0.012
    8        0.005   0.007   0.001   0.012
    9       -0.000  -0.000   0.237   0.237
   10        0.001   0.000   0.370   0.370
   11        0.001   0.000   0.370   0.370
   12        0.001   0.000   0.370   0.370
   13        0.001   0.000   0.370   0.370
   14        0.005   0.000   0.568   0.573
   15       -0.001   0.000   0.098   0.098
   16        0.002   0.000   0.447   0.450
   17       -0.001   0.000   0.098   0.098
   18        0.001   0.000   0.370   0.370
   19        0.001   0.000   0.370   0.370
   20        0.001   0.000   0.370   0.370
   21        0.001   0.000   0.370   0.370
   22        0.002   0.000   0.448   0.451
   23       -0.000  -0.000   0.237   0.237
   24        0.005   0.000   0.567   0.572
   25        0.003   0.005   0.000   0.008
   26        0.003   0.005   0.000   0.008
   27        0.003   0.005   0.000   0.008
   28        0.003   0.005   0.000   0.008
   29        0.005   0.035   0.000   0.040
   30        0.005   0.035   0.000   0.040
   31        0.005   0.035   0.000   0.040
   32        0.005   0.035   0.000   0.040
   33        0.005   0.035   0.000   0.040
   34        0.005   0.035   0.000   0.040
   35        0.005   0.035   0.000   0.040
   36        0.005   0.035   0.000   0.040
   37        0.008   0.064   0.000   0.072
   38        0.008   0.064   0.000   0.072
   39        0.008   0.064   0.000   0.072
   40        0.008   0.064   0.000   0.072
   41        0.004   0.023   0.000   0.028
   42        0.004   0.023   0.000   0.028
   43        0.004   0.023   0.000   0.028
   44        0.004   0.023   0.000   0.028
   45        0.005   0.054   0.000   0.060
   46        0.005   0.054   0.000   0.060
   47        0.005   0.054   0.000   0.060
   48        0.005   0.054   0.000   0.060
   49        0.005   0.054   0.000   0.060
   50        0.005   0.054   0.000   0.060
   51        0.005   0.054   0.000   0.060
   52        0.005   0.054   0.000   0.060
   53        0.008   0.070   0.000   0.078
   54        0.008   0.070   0.000   0.078
   55        0.008   0.070   0.000   0.078
   56        0.008   0.070   0.000   0.078
tot           0.23    1.41    5.67    7.31