 vasp.5.4.4.18Apr17-6-g9f103f2a35 (build May 12 2020 05:39:39) gamma-only

 MD_VERSION_INFO: Compiled 2020-05-12T12:39:39-UTC in devlin.sd.materialsdesign.
 com:/home/medea2/data/build/wwolf/vasp-gpu5.4.4/13047/x86_64/src/src/build/gam
 from svn 13047

 executed on                        Lin64 date 2023.03.07  02:21:24

 INCAR:
 POTCAR:    PAW_PBE Li_sv 10Sep2004
 POTCAR:    PAW_PBE Ni 02Aug2007
 POTCAR:    PAW_PBE O 08Apr2002

 POTCAR:    PAW_PBE Li_sv 10Sep2004

 POTCAR:    PAW_PBE Ni 02Aug2007

 POTCAR:    PAW_PBE O 08Apr2002

 Optimization of the real space projectors (new method)

 maximal supplied QI-value         = 22.11
 optimisation between [QCUT,QGAM] = [ 11.28, 22.77] = [ 35.61,145.23] Ry
 Optimized for a Real-space Cutoff    1.10 Angstroem

   l    n(q)    QCUT    max X(q) W(low)/X(q) W(high)/X(q)  e(spline)
   0      7    11.276    10.506    0.54E-04    0.58E-04    0.16E-07
   0      7    11.276     8.367    0.11E-03    0.14E-03    0.35E-07
   1      7    11.276     8.983    0.23E-03    0.43E-03    0.86E-07
 Optimization of the real space projectors (new method)

[...]

   l    n(q)    QCUT    max X(q) W(low)/X(q) W(high)/X(q)  e(spline)
   2      9    11.376    60.317    0.17E-03    0.16E-04    0.16E-06
   2      9    11.376    55.921    0.17E-03    0.16E-04    0.17E-06
   0     10    11.376    51.690    0.45E-04    0.60E-04    0.21E-06
   0     10    11.376    30.015    0.37E-04    0.55E-04    0.19E-06
   1     10    11.376    18.849    0.83E-04    0.11E-03    0.92E-07
   1     10    11.376    14.624    0.69E-04    0.92E-04    0.82E-07
 Optimization of the real space projectors (new method)

 maximal supplied QI-value         = 24.76
 optimisation between [QCUT,QGAM] = [ 11.39, 22.77] = [ 36.31,145.25] Ry
 Optimized for a Real-space Cutoff    1.10 Angstroem

   l    n(q)    QCUT    max X(q) W(low)/X(q) W(high)/X(q)  e(spline)
   0      7    11.387    20.381    0.22E-03    0.48E-03    0.18E-06
   0      7    11.387    15.268    0.22E-03    0.52E-03    0.19E-06
   1      7    11.387     5.964    0.22E-03    0.73E-03    0.24E-06
   1      7    11.387     5.382    0.19E-03    0.60E-03    0.21E-06

  PAW_PBE Li_sv 10Sep2004               :
  PAW_PBE Ni 02Aug2007                  :
  PAW_PBE O 08Apr2002                   :

 POSCAR: ce16759_1
  positions in direct lattice
 exchange correlation table for  LEXCH =       14
   RHO(1)=    0.500       N(1)  =     2000
   RHO(2)=  100.500       N(2)  =     4000

 ion  position               nearest neighbor table
   1  0.263  0.250  0.479-  44 2.00  38 2.06  26 2.15  36 2.21   9 2.81
   2  0.498  0.751  0.713-  39 1.94  45 2.02  46 2.04  21 2.70  10 2.81  11 2.83
   3  0.967  0.249  0.753-  31 2.04  51 2.05  42 2.16  24 2.21  28 2.26  48 2.28  11 2.82
   4  0.273  0.249  0.020-  52 2.01  32 2.02  54 2.15  40 2.16  18 2.79  13 2.80
   5  0.243  0.751  0.999-  41 2.09  33 2.11  43 2.12  55 2.16  29 2.16  53 2.16  17 2.84
   6  0.755  0.751  0.999-  41 2.09  43 2.11  55 2.14  34 2.14  53 2.15  30 2.19
   7  0.503  0.747  0.292-  37 1.93  50 2.03  49 2.03  15 2.72  18 2.83  19 2.84
   8  0.999  0.999  0.998-  35 1.83  32 1.84  34 1.86  33 1.87  43 1.95  42 1.97  13 2.76  13 2.78
                            11 2.81  10 2.82  12 2.83   9 2.83
   9  0.250  0.997  0.248-  26 1.84  38 1.84  43 1.86  55 1.87  49 1.97  32 2.00  12 2.77  12 2.77
                             1 2.81  13 2.82  14 2.83   8 2.83  15 2.83
  10  0.249  0.999  0.749-  42 1.84  27 1.84  39 1.84  54 1.84  48 2.01  33 2.02  11 2.76  11 2.78
                             2 2.81   8 2.82  14 2.82  15 2.82  13 2.84
  11  0.751  0.001  0.750-  39 1.84  27 1.84  42 1.86  54 1.87  51 1.94  34 1.99  10 2.76  10 2.78
                             8 2.81   3 2.82  13 2.82  15 2.83  14 2.83   2 2.83
  12  0.750  0.000  0.250-  38 1.85  26 1.86  43 1.86  55 1.87  35 1.94  50 1.95   9 2.77   9 2.77
                            13 2.82  14 2.82  15 2.83   8 2.83
  13  0.501  0.999  0.999-  35 1.84  34 1.84  32 1.85  33 1.85  54 1.93  55 1.97   8 2.76   8 2.78
                             4 2.80  12 2.82   9 2.82  11 2.82  10 2.84
  14  0.000  0.994  0.497-  48 1.84  51 1.85  50 1.85  49 1.86  27 1.91  26 1.94  15 2.77  15 2.77
                            10 2.82  12 2.82   9 2.83  11 2.83
  15  0.500  0.002  0.501-  49 1.84  50 1.84  51 1.86  48 1.86  38 1.94  39 1.95   7 2.72  14 2.77
                            14 2.77  10 2.82  11 2.83  12 2.83   9 2.83
  16  0.999  0.505  0.502-  47 1.83  44 1.84  46 1.85  45 1.85  25 1.93  24 2.01  21 2.76  21 2.78
                            20 2.81  18 2.82  19 2.82  17 2.83
  17  0.250  0.505  0.752-  24 1.83  53 1.85  36 1.86  41 1.89  45 1.97  28 2.02  20 2.77  20 2.77
                            23 2.82  16 2.83  21 2.83   5 2.84  22 2.84
  18  0.248  0.498  0.250-  25 1.83  52 1.83  40 1.85  37 1.86  44 1.99  29 2.02  19 2.75  19 2.78
                             4 2.79  22 2.81  16 2.82  21 2.82   7 2.83  23 2.84
  19  0.751  0.495  0.249-  25 1.82  52 1.85  37 1.86  40 1.86  47 1.93  30 2.00  18 2.75  18 2.78
                            22 2.81  16 2.82  21 2.82  23 2.83   7 2.84
  20  0.750  0.504  0.751-  24 1.85  53 1.85  36 1.88  41 1.89  46 1.94  31 1.95  17 2.77  17 2.77
                            16 2.81  21 2.82  23 2.83  22 2.85
  21  0.501  0.502  0.501-  46 1.84  45 1.84  47 1.84  44 1.85  36 1.89  37 1.90   2 2.70  16 2.76
                            16 2.78  20 2.82  19 2.82  18 2.82  17 2.83
  22  1.000  0.502  0.003-  28 1.84  31 1.85  30 1.86  29 1.86  40 1.90  41 1.92  23 2.77  23 2.77
                            19 2.81  18 2.81  17 2.84  20 2.85
  23  0.500  0.497  0.999-  30 1.84  29 1.84  31 1.85  28 1.85  52 1.97  53 2.06  22 2.77  22 2.77
                            17 2.82  20 2.83  19 2.83  18 2.84
  24  0.004  0.403  0.643-  17 1.83  20 1.85  16 2.01   3 2.21
  25  0.997  0.595  0.359-  19 1.82  18 1.83  16 1.93
  26  0.005  0.095  0.363-   9 1.84  12 1.86  14 1.94   1 2.15
  27  0.999  0.902  0.636-  10 1.84  11 1.84  14 1.91
  28  0.244  0.398  0.890-  22 1.84  23 1.85  17 2.02   3 2.26
  29  0.256  0.603  0.111-  23 1.84  22 1.86  18 2.02   5 2.16
  30  0.743  0.601  0.112-  23 1.84  22 1.86  19 2.00   6 2.19
  31  0.754  0.402  0.886-  22 1.85  23 1.85  20 1.95   3 2.04
  32  0.249  0.099  0.108-   8 1.84  13 1.85   9 2.00   4 2.02
  33  0.253  0.895  0.889-  13 1.85   8 1.87  10 2.02   5 2.11
  34  0.747  0.896  0.887-  13 1.84   8 1.86  11 1.99   6 2.14
  35  0.751  0.096  0.111-   8 1.83  13 1.84  12 1.94
  36  0.497  0.406  0.633-  17 1.86  20 1.88  21 1.89   1 2.21
  37  0.502  0.595  0.364-  19 1.86  18 1.86  21 1.90   7 1.93
  38  0.496  0.097  0.362-   9 1.84  12 1.85  15 1.94   1 2.06
  39  0.501  0.902  0.638-  10 1.84  11 1.84   2 1.94  15 1.95
  40  0.004  0.400  0.131-  18 1.85  19 1.86  22 1.90   4 2.16
  41  0.999  0.605  0.873-  17 1.89  20 1.89  22 1.92   6 2.09   5 2.09
  42  0.004  0.101  0.862-  10 1.84  11 1.86   8 1.97   3 2.16
  43  0.998  0.898  0.133-  12 1.86   9 1.86   8 1.95   6 2.11   5 2.12
  44  0.248  0.401  0.393-  16 1.84  21 1.85  18 1.99   1 2.00
  45  0.253  0.604  0.612-  21 1.84  16 1.85  17 1.97   2 2.02
  46  0.747  0.603  0.614-  21 1.84  16 1.85  20 1.94   2 2.04
  47  0.754  0.403  0.391-  16 1.83  21 1.84  19 1.93
  48  0.242  0.102  0.608-  14 1.84  15 1.86  10 2.01   3 2.28
  49  0.258  0.898  0.387-  15 1.84  14 1.86   9 1.97   7 2.03
  50  0.744  0.900  0.386-  15 1.84  14 1.85  12 1.95   7 2.03
  51  0.757  0.098  0.613-  14 1.85  15 1.86  11 1.94   3 2.05
  52  0.495  0.399  0.139-  18 1.83  19 1.85  23 1.97   4 2.01
  53  0.502  0.608  0.861-  17 1.85  20 1.85  23 2.06   6 2.15   5 2.16
  54  0.496  0.097  0.865-  10 1.84  11 1.87  13 1.93   4 2.15
  55  0.503  0.895  0.134-   9 1.87  12 1.87  13 1.97   6 2.14   5 2.16

  LATTYP: Found a triclinic cell.
 ALAT       =    11.3012704880
 B/A-ratio  =     0.4898286051
 C/A-ratio  =     0.9099159554
 COS(alpha) =     0.0000873942
 COS(beta)  =     0.2992565143
 COS(gamma) =     0.4900528438

  Lattice vectors:

 A1 = (   9.8517665302,  -5.5369467090,   0.0602662438)
 A2 = (   0.0007152512,  -5.5356855130,   0.0000145510)
 A3 = (   3.5887778790,  -0.0004603269,  -9.6366490867)

Analysis of symmetry for initial positions (statically):
 Subroutine PRICEL returns:
 Original cell was already a primitive cell.

 Routine SETGRP: Setting up the symmetry group for a
 triclinic supercell.

 Subroutine GETGRP returns: Found  1 space group operations
 (whereof  1 operations were pure point group operations)
 out of a pool of  2 trial point group operations.

The static configuration has the point symmetry C_1 .

Analysis of symmetry for dynamics (positions and initial velocities):
 Subroutine PRICEL returns:
 Original cell was already a primitive cell.

[...]

The dynamic configuration has the point symmetry C_1 .

Analysis of structural, dynamic, and magnetic symmetry:
 Subroutine PRICEL returns:
 Original cell was already a primitive cell.

 Routine SETGRP: Setting up the symmetry group for a
 triclinic supercell.

 Subroutine GETGRP returns: Found  1 space group operations
 (whereof  1 operations were pure point group operations)
 out of a pool of  2 trial point group operations.

The magnetic configuration has the point symmetry C_1 .

 Subroutine INISYM returns: Found  1 space group operations
 (whereof  1 operations are pure point group operations),
 and found     1 'primitive' translations

 KPOINTS: Automatic mesh

Automatic generation of k-mesh.
Space group operators:
 irot       det(A)        alpha          n_x          n_y          n_z        tau_x        tau_y        tau_z
    1     1.000000     0.000001     1.000000     0.000000     0.000000     0.000000     0.000000     0.000000

 Subroutine IBZKPT returns following result:

 Found      1 irreducible k-points:

 Following reciprocal coordinates:
            Coordinates               Weight
  0.000000  0.000000  0.000000      1.000000

 Following cartesian coordinates:
            Coordinates               Weight
  0.000000  0.000000  0.000000      1.000000

 SYSTEM =  unknown system
 POSCAR =  ce16759_1

 Startparameter for this run:
   NWRITE =      1    write-flag & timer
   PREC   = accura    normal or accurate (medium, high low for compatibility)
   ISTART =      0    job   : 0-new  1-cont  2-samecut
   ICHARG =      2    charge: 1-file 2-atom 10-const
   ISPIN  =      2    spin polarized calculation?
   LNONCOLLINEAR =      F non collinear calculations
   LSORBIT =      F    spin-orbit coupling
   INIWAV =      1    electr: 0-lowe 1-rand  2-diag
   LASPH  =      F    aspherical Exc in radial PAW
   METAGGA=      F    non-selfconsistent MetaGGA calc.

 Electronic Relaxation 1
   ENCUT  =  500.0 eV  36.75 Ry    6.06 a.u.  10.09 18.75 17.96*2*pi/ulx,y,z
   ENINI  =  500.0     initial cutoff
   ENAUG  =  628.9 eV  augmentation charge cutoff
   NELM   =     80;   NELMIN=  2; NELMDL= -5     # of ELM steps
   EDIFF  = 0.1E-04   stopping-criterion for ELM
   LREAL  =      T    real-space projection
   NLSPLINE    = F    spline interpolate recip. space projectors
   LCOMPAT=      F    compatible to vasp.4.4
   GGA_COMPAT  = T    GGA compatible to vasp.4.4-vasp.4.6
[...]
   -.365E+01 0.119E+02 -.427E+02   0.384E+01 -.121E+02 0.433E+02   -.194E+00 0.168E+00 -.596E+00   -.406E-02 -.578E-02 0.320E-02
   0.324E+02 -.808E+00 -.118E+01   -.327E+02 0.816E+00 0.966E+00   0.253E+00 0.192E-03 0.215E+00   0.220E-02 -.499E-02 0.469E-02
   0.788E+01 0.247E+01 -.273E+02   -.814E+01 -.259E+01 0.273E+02   0.244E+00 0.112E+00 0.700E-01   0.355E-02 0.530E-02 0.465E-02
   -.284E+02 -.117E+02 -.977E+02   0.285E+02 0.118E+02 0.990E+02   -.109E+00 -.145E+00 -.138E+01   -.533E-02 0.568E-02 0.409E-02
   -.115E+02 -.134E+02 -.839E+02   0.111E+02 0.134E+02 0.851E+02   0.337E+00 -.345E-01 -.119E+01   -.301E-02 0.107E-01 -.132E-02
   0.145E+02 0.138E+02 0.560E+02   -.144E+02 -.138E+02 -.571E+02   -.943E-01 0.267E-01 0.112E+01   -.113E-02 -.909E-02 0.420E-02
   -.290E+02 -.152E+02 -.544E+02   0.294E+02 0.153E+02 0.546E+02   -.403E+00 -.109E+00 -.251E+00   -.191E-02 0.885E-02 0.549E-02
   0.121E+02 0.130E+02 -.106E+02   -.128E+02 -.130E+02 0.115E+02   0.639E+00 -.803E-01 -.861E+00   0.145E-01 0.489E-02 -.445E-02
   0.102E+02 0.166E+01 0.336E+02   -.108E+02 -.159E+01 -.338E+02   0.540E+00 -.656E-01 0.240E+00   -.762E-02 -.838E-02 -.404E-02
   -.397E+02 0.124E+02 0.171E+02   0.403E+02 -.125E+02 -.173E+02   -.580E+00 0.429E-01 0.235E+00   0.120E-01 -.126E-01 0.302E-03
   -.147E+02 -.118E+02 0.712E+02   0.152E+02 0.118E+02 -.723E+02   -.466E+00 0.116E-01 0.114E+01   0.118E-01 0.115E-01 -.623E-04
   0.331E+02 -.620E+00 0.586E+02   -.334E+02 0.502E+00 -.590E+02   0.284E+00 0.108E+00 0.350E+00   -.745E-02 0.887E-02 -.385E-02
   0.449E+02 -.153E+02 0.376E+02   -.456E+02 0.153E+02 -.378E+02   0.616E+00 0.304E-02 0.277E+00   0.163E-01 -.527E-02 -.601E-02
   -.461E+02 0.142E+02 0.206E+02   0.465E+02 -.142E+02 -.211E+02   -.465E+00 0.417E-02 0.529E+00   -.141E-01 0.331E-02 0.353E-03
   0.199E+01 -.143E+02 0.914E+02   -.122E+01 0.144E+02 -.925E+02   -.755E+00 -.618E-01 0.117E+01   -.151E-01 -.472E-02 -.289E-03
   0.462E+02 0.201E+02 0.368E+03   -.506E+02 -.212E+02 -.387E+03   0.440E+01 0.111E+01 0.196E+02   -.622E-02 0.361E-02 0.103E-01
   -.167E+02 0.118E+01 -.379E+03   0.180E+02 -.137E+01 0.405E+03   -.133E+01 0.193E+00 -.260E+02   0.175E-01 0.377E-02 -.173E-02
   0.297E+01 0.302E+02 -.383E+03   -.152E+01 -.321E+02 0.405E+03   -.144E+01 0.198E+01 -.214E+02   -.115E-01 -.120E-01 0.149E-01
   0.232E+02 0.152E+01 0.391E+03   -.242E+02 -.160E+01 -.417E+03   0.101E+01 0.917E-01 0.256E+02   0.146E-01 -.144E-01 -.955E-02
   0.385E+02 -.287E+02 0.377E+03   -.430E+02 0.301E+02 -.396E+03   0.448E+01 -.145E+01 0.191E+02   -.954E-02 -.966E-02 0.366E-02
   -.680E+02 0.152E+02 -.336E+03   0.727E+02 -.161E+02 0.354E+03   -.473E+01 0.916E+00 -.181E+02   -.657E-02 -.103E-01 -.609E-03
   -.662E+02 -.156E+02 -.329E+03   0.704E+02 0.165E+02 0.347E+03   -.420E+01 -.903E+00 -.185E+02   -.926E-02 0.995E-02 0.380E-02
   0.755E+01 0.327E+02 0.383E+03   -.824E+01 -.347E+02 -.404E+03   0.697E+00 0.202E+01 0.203E+02   -.792E-02 0.100E-01 -.143E-03
   -.598E+02 0.432E+01 -.393E+03   0.659E+02 -.469E+01 0.413E+03   -.603E+01 0.378E+00 -.200E+02   0.832E-03 -.721E-02 0.119E-01
   0.548E+02 0.255E+02 0.329E+03   -.590E+02 -.273E+02 -.346E+03   0.414E+01 0.179E+01 0.175E+02   0.544E-03 -.693E-02 -.148E-01
   0.543E+02 -.249E+02 0.325E+03   -.580E+02 0.266E+02 -.344E+03   0.368E+01 -.170E+01 0.185E+02   -.962E-02 0.706E-02 -.552E-02
   -.292E+02 -.292E+01 -.425E+03   0.308E+02 0.309E+01 0.451E+03   -.164E+01 -.178E+00 -.257E+02   0.103E-01 0.706E-02 0.359E-02
   -.564E+01 -.231E+02 0.393E+03   0.678E+01 0.246E+02 -.415E+03   -.113E+01 -.145E+01 0.219E+02   0.124E-02 -.348E-02 0.518E-02
   -.263E+02 -.149E+01 -.341E+03   0.295E+02 0.155E+01 0.361E+03   -.318E+01 -.595E-01 -.195E+02   0.991E-02 -.356E-02 0.608E-02
   0.542E+01 -.320E+02 -.389E+03   -.530E+01 0.343E+02 0.409E+03   -.120E+00 -.229E+01 -.208E+02   -.463E-02 0.117E-01 0.996E-02
   0.535E+02 -.131E+01 0.344E+03   -.589E+02 0.129E+01 -.364E+03   0.535E+01 0.606E-02 0.193E+02   0.751E-02 0.143E-01 -.619E-02
   -.270E+02 0.299E+02 0.378E+03   0.266E+02 -.321E+02 -.400E+03   0.400E+00 0.222E+01 0.225E+02   -.785E-02 0.426E-02 -.234E-02
   0.328E+02 -.280E-01 -.313E+03   -.342E+02 0.112E+00 0.329E+03   0.145E+01 -.873E-01 -.159E+02   -.339E-02 0.359E-02 -.995E-02
   -.279E+02 0.219E+02 -.361E+03   0.316E+02 -.231E+02 0.380E+03   -.368E+01 0.121E+01 -.190E+02   -.147E-02 -.144E-01 0.451E-02
   -.330E+02 0.105E+01 0.306E+03   0.336E+02 -.113E+01 -.323E+03   -.633E+00 0.905E-01 0.167E+02   -.145E-02 -.121E-01 -.237E-02
   0.478E+02 0.822E+01 0.375E+03   -.534E+02 -.856E+01 -.395E+03   0.557E+01 0.343E+00 0.198E+02   0.122E-01 -.112E-01 0.450E-02
   0.208E+02 0.396E+02 -.354E+03   -.198E+02 -.424E+02 0.374E+03   -.973E+00 0.286E+01 -.202E+02   0.392E-02 -.994E-02 -.103E-01
   0.230E+02 -.392E+02 -.349E+03   -.226E+02 0.420E+02 0.370E+03   -.461E+00 -.288E+01 -.212E+02   0.605E-03 0.101E-01 -.831E-02
   0.160E+02 -.591E+01 0.407E+03   -.168E+02 0.603E+01 -.433E+03   0.871E+00 -.127E+00 0.259E+02   0.161E-01 0.114E-01 0.200E-02
   -.199E+02 -.238E+02 -.363E+03   0.235E+02 0.252E+02 0.382E+03   -.361E+01 -.143E+01 -.189E+02   0.274E-02 0.451E-02 0.206E-01
   -.120E+02 0.329E+02 0.360E+03   0.107E+02 -.355E+02 -.380E+03   0.124E+01 0.254E+01 0.200E+02   -.251E-02 0.608E-02 -.159E-01
   -.118E+02 -.319E+02 0.350E+03   0.108E+02 0.342E+02 -.370E+03   0.108E+01 -.227E+01 0.202E+02   -.122E-01 -.579E-02 -.818E-02
   0.109E+02 0.272E+02 -.369E+03   -.112E+02 -.290E+02 0.389E+03   0.353E+00 0.181E+01 -.203E+02   0.144E-01 -.528E-02 0.113E-01
   -.134E+02 -.326E+02 0.375E+03   0.123E+02 0.351E+02 -.396E+03   0.106E+01 -.255E+01 0.203E+02   -.919E-03 -.480E-02 -.979E-02
   -.896E+01 -.885E+00 -.296E+03   0.119E+02 0.102E+01 0.312E+03   -.295E+01 -.131E+00 -.156E+02   -.102E-01 -.359E-02 -.508E-02
   0.808E+01 -.265E+02 -.382E+03   -.800E+01 0.284E+02 0.403E+03   -.630E-01 -.194E+01 -.210E+02   -.773E-02 0.141E-01 0.658E-02
   -.182E+02 -.107E+01 0.299E+03   0.173E+02 0.115E+01 -.314E+03   0.924E+00 -.895E-01 0.152E+02   0.513E-02 0.119E-01 -.341E-02
   -.527E+00 0.281E-01 0.119E+00   -.249E-13 -.122E-12 0.398E-12   0.526E+00 -.234E-01 -.125E+00   -.153E-02 -.495E-02 0.105E-01

 POSITION                                       TOTAL-FORCE (eV/Angst)
      3.79987      1.45587      2.43932        -0.014379      0.004977     -0.006845
      4.29825      2.75185      7.32223        -0.022157     -0.006242      0.003716
      6.50579      5.34724      2.46495        -0.004254     -0.008342      0.007430
     -0.69879      1.51842      2.40508         0.009837      0.005742     -0.001719
      7.13377      1.35493      7.31984         0.004152      0.003489     -0.002291
      7.13641      4.17597      7.31899         0.008152     -0.000218     -0.003245
      0.20180      2.78781      7.26654         0.033413      0.003564      0.001585
      6.21675      5.53012      9.72611        -0.003684      0.000813     -0.003643
     -1.15612      1.38347      9.67145        -0.008205      0.004920     -0.007740
      3.76441      1.37729      9.73235        -0.008252      0.003471      0.002653
      7.37702      4.15526      0.04425        -0.007309     -0.002408      0.003130
      2.44904      4.15751      0.00842        -0.007033     -0.001622     -0.006035
      6.22990      2.77243      9.73012        -0.003643      0.000646     -0.002813
      1.31092     -0.00132      9.67252         0.001288      0.001822      0.007547
      4.91732      2.77071      0.04534         0.002766      0.000806      0.010409
      3.12091      5.53264      4.91050         0.007171     -0.005332     -0.003158
      5.58435      1.38337      4.93115         0.003847     -0.000822     -0.000609
      0.67320      1.37422      4.84148         0.002795     -0.001549     -0.000149
      0.67078      4.15847      4.80679         0.001920      0.001459     -0.001165
      5.57293      4.15148      4.91523         0.002448     -0.001233      0.000585
      3.11996      2.77342      4.88107         0.005393      0.003773     -0.003396
     -1.77865      5.53520      4.87455         0.004598      0.001746      0.004303
      8.04377      2.76644      4.86780         0.002664     -0.002761      0.002978
      4.87665      0.01970      3.94146         0.004468     -0.001054     -0.001732
      1.40230      5.52367      5.77565         0.007937      0.001299     -0.001207
      3.22974      0.02893      0.93103        -0.006171      0.000645      0.000662
      3.00689      5.52953      8.79285        -0.005467     -0.001485      0.006365
      7.33474      1.34851      3.90893        -0.002875     -0.000303      0.004080
     -1.08527      1.42237      5.85974         0.008997     -0.000718      0.006463
     -1.04712      4.11583      5.82986         0.006139     -0.000789      0.008519
      7.26902      4.17464      3.94904         0.002223     -0.003152     -0.000404
      0.70596      1.37871      0.95255        -0.003217      0.001772     -0.005488
      5.50894      1.40134      8.72487        -0.011231      0.001822      0.000155
      5.48321      4.13409      8.74125        -0.010491     -0.000336      0.001349
      0.75278      4.16009      0.92566        -0.004455      0.000355     -0.007177
      4.76688      2.74803      3.95958         0.010285     -0.002876     -0.005853
      1.44871      2.77942      5.78178         0.004412     -0.002835      0.001632
      3.20624      2.74544      0.95168        -0.005837      0.002486     -0.001431
      3.01722      2.77284      8.79064        -0.006630      0.000541      0.007507
     -0.15521      0.02254      3.89731         0.004366      0.001410     -0.001906
      6.41755      5.52637      5.89799         0.000071      0.000455      0.006016
      8.11907      0.01853      1.01401         0.003369     -0.000653      0.007514
     -1.93213      5.52479      8.70906        -0.009497      0.001426     -0.008322
      2.43629      1.36908      3.89983        -0.000305     -0.002733     -0.010950
      3.84339      1.40225      5.87356         0.009430     -0.003085     -0.001611
      3.87641      4.13520      5.86115         0.004354      0.000018     -0.000284
      2.38827      4.17084      3.92696         0.005987      0.000344     -0.009406
      5.61886      1.34219      1.01401        -0.006291      0.001865      0.005764
      0.57940      1.42593      8.73388        -0.003219      0.001353     -0.004706
      0.54297      4.11790      8.75646        -0.002666     -0.000324     -0.003938
      5.67460      4.18932      0.97673        -0.005726      0.000418      0.006799
     -0.06954      2.74287      3.87817         0.001703     -0.002967     -0.001757
      6.28132      2.77364      5.93082         0.005028     -0.002496      0.000937
      8.15529      2.74386      0.98415         0.004527      0.001999      0.005975
     -1.90804      2.78424      8.68225        -0.010746      0.000901     -0.005094
    total drift:                               -0.001851     -0.000225      0.004510

  FREE ENERGIE OF THE ION-ELECTRON SYSTEM (eV)
  free  energy   TOTEN  =      -339.9220913973 eV

  energy  without entropy=     -339.9164352884  energy(sigma->0) =     -339.91926334

 d Force = 0.1661859E-03[ 0.105E-03, 0.227E-03]  d Energy = 0.1411708E-03 0.250E-04
 d Force =-0.1571492E+01[-0.157E+01,-0.157E+01]  d Ewald  =-0.1906821E+01 0.335E+00

 Quasi-Newton relaxation of ions (Broydens 2nd method)
  g(Force)  = 0.265E-03   g(Stress)= 0.523E-03

 retain information from N=  2 steps
 eigenvalues of (default step * inverse Hessian matrix)
  average eigenvalue of G=   3.0611
 eigenvalue spectrum of G is  0.5894  5.5328

volume of typ            1:    10.3 %

[...]

volume of typ            3:     9.8 %

total charge

# of ion       s       p       d       tot
    1        2.065   0.201   0.075   2.340
    2        2.074   0.227   0.086   2.387
    3        2.065   0.199   0.074   2.337
    4        2.066   0.211   0.078   2.355
    5        2.073   0.220   0.082   2.375
    6        2.071   0.220   0.081   2.373
    7        2.073   0.224   0.086   2.382
    8        0.285   0.398   7.853   8.536
    9        0.282   0.386   7.857   8.524
   10        0.285   0.395   7.857   8.537
   11        0.285   0.396   7.848   8.529
   12        0.282   0.389   7.839   8.510
   13        0.293   0.412   7.857   8.562
   14        0.291   0.408   7.839   8.539
   15        0.288   0.402   7.847   8.537
   16        0.288   0.400   7.838   8.526
   17        0.279   0.378   7.861   8.518
   18        0.284   0.392   7.856   8.532
   19        0.285   0.394   7.842   8.520
   20        0.280   0.385   7.850   8.516
   21        0.301   0.432   7.840   8.573
   22        0.295   0.417   7.847   8.559
   23        0.282   0.387   7.862   8.531
   24        1.267   2.768   0.007   4.042
   25        1.282   2.733   0.009   4.023
   26        1.272   2.756   0.008   4.036
   27        1.281   2.733   0.008   4.023
   28        1.268   2.765   0.007   4.040
   29        1.267   2.767   0.007   4.041
   30        1.266   2.770   0.007   4.043
   31        1.269   2.765   0.007   4.042
   32        1.271   2.763   0.007   4.042
   33        1.266   2.772   0.007   4.044
   34        1.266   2.774   0.007   4.046
   35        1.282   2.729   0.008   4.020
   36        1.273   2.751   0.007   4.031
   37        1.266   2.779   0.007   4.053
   38        1.271   2.759   0.007   4.037
   39        1.268   2.776   0.007   4.051
   40        1.271   2.759   0.008   4.038
   41        1.260   2.787   0.006   4.054
   42        1.266   2.774   0.007   4.046
   43        1.262   2.784   0.007   4.052
   44        1.272   2.762   0.007   4.041
   45        1.270   2.765   0.007   4.042
   46        1.270   2.765   0.007   4.042
   47        1.284   2.725   0.008   4.017
   48        1.270   2.761   0.007   4.037
   49        1.271   2.763   0.007   4.041
   50        1.270   2.766   0.007   4.043
   51        1.271   2.761   0.007   4.039
   52        1.269   2.769   0.007   4.045
   53        1.258   2.791   0.006   4.056
   54        1.271   2.760   0.007   4.039
   55        1.260   2.789   0.006   4.055
tot          59.71   96.31  126.39  282.40

magnetization (x)

# of ion       s       p       d       tot
    1        0.000   0.002   0.000   0.002
    2       -0.001   0.000   0.000  -0.001
    3       -0.001   0.001   0.000  -0.000
    4        0.004   0.005   0.000   0.009
    5       -0.000   0.001   0.000   0.001
    6        0.004   0.005  -0.000   0.009
    7        0.003   0.001   0.000   0.003
    8       -0.001  -0.000  -0.268  -0.269
    9        0.001  -0.000   0.428   0.429
   10       -0.003   0.000  -0.424  -0.427
   11        0.001   0.000   0.249   0.250
   12       -0.000  -0.000  -0.181  -0.182
   13        0.001  -0.000   0.253   0.254
   14        0.000  -0.000   0.165   0.165
   15       -0.001   0.000  -0.248  -0.248
   16        0.000   0.000   0.199   0.200
   17        0.001  -0.000   0.474   0.475
   18        0.003   0.000   0.454   0.457
   19        0.000   0.000   0.236   0.237
   20       -0.000  -0.000   0.240   0.240
   21       -0.001   0.000   0.045   0.044
   22       -0.001   0.000   0.089   0.089
   23        0.001   0.000   0.388   0.390
   24        0.003   0.011   0.000   0.014
   25        0.003   0.022   0.000   0.025
   26        0.002   0.030   0.000   0.032
   27        0.001   0.012   0.000   0.013
   28        0.005   0.047   0.000   0.053
   29        0.006   0.050   0.000   0.056
   30        0.003   0.017   0.000   0.021
   31        0.003   0.024   0.000   0.028
   32        0.004   0.041   0.000   0.045
   33       -0.004  -0.038  -0.000  -0.043
   34        0.002   0.018   0.000   0.021
   35       -0.002  -0.022  -0.000  -0.024
   36        0.004   0.028   0.000   0.032
   37        0.003   0.019   0.000   0.022
   38       -0.002  -0.017  -0.000  -0.019
   39       -0.003  -0.024  -0.000  -0.027
   40        0.003   0.019   0.000   0.022
   41        0.005   0.022   0.000   0.026
   42       -0.003  -0.027  -0.000  -0.030
   43       -0.002  -0.024  -0.000  -0.026
   44        0.006   0.057   0.000   0.063
   45        0.005   0.065   0.000   0.070
   46        0.002   0.018   0.000   0.021
   47        0.003   0.022   0.000   0.025
   48       -0.005  -0.046  -0.000  -0.051
   49        0.004   0.055   0.000   0.060
   50       -0.002  -0.020  -0.000  -0.022
   51        0.002   0.029   0.000   0.031
   52        0.005   0.062   0.000   0.067
   53        0.005   0.031   0.000   0.036
   54        0.003   0.030   0.000   0.033
   55        0.003   0.024   0.000   0.028
tot           0.07    0.55    2.10    2.73