 vasp.5.4.4.18Apr17-6-g9f103f2a35 (build May 12 2020 05:39:39) gamma-only

 MD_VERSION_INFO: Compiled 2020-05-12T12:39:39-UTC in devlin.sd.materialsdesign.
 com:/home/medea2/data/build/wwolf/vasp-gpu5.4.4/13047/x86_64/src/src/build/gam
 from svn 13047

 executed on                        Lin64 date 2023.03.07  02:18:53

 INCAR:
 POTCAR:    PAW_PBE Li_sv 10Sep2004
 POTCAR:    PAW_PBE Ni 02Aug2007
 POTCAR:    PAW_PBE O 08Apr2002

 POTCAR:    PAW_PBE Li_sv 10Sep2004

 POTCAR:    PAW_PBE Ni 02Aug2007

 POTCAR:    PAW_PBE O 08Apr2002

 Optimization of the real space projectors (new method)

 maximal supplied QI-value         = 22.11
 optimisation between [QCUT,QGAM] = [ 11.28, 22.77] = [ 35.61,145.23] Ry
 Optimized for a Real-space Cutoff    1.10 Angstroem

   l    n(q)    QCUT    max X(q) W(low)/X(q) W(high)/X(q)  e(spline)
   0      7    11.276    10.506    0.54E-04    0.58E-04    0.16E-07
   0      7    11.276     8.367    0.11E-03    0.14E-03    0.35E-07
   1      7    11.276     8.983    0.23E-03    0.43E-03    0.86E-07
 Optimization of the real space projectors (new method)

[...]

   l    n(q)    QCUT    max X(q) W(low)/X(q) W(high)/X(q)  e(spline)
   2      9    11.376    60.317    0.17E-03    0.16E-04    0.16E-06
   2      9    11.376    55.921    0.17E-03    0.16E-04    0.17E-06
   0     10    11.376    51.690    0.45E-04    0.60E-04    0.21E-06
   0     10    11.376    30.015    0.37E-04    0.55E-04    0.19E-06
   1     10    11.376    18.849    0.83E-04    0.11E-03    0.92E-07
   1     10    11.376    14.624    0.69E-04    0.92E-04    0.82E-07
 Optimization of the real space projectors (new method)

 maximal supplied QI-value         = 24.76
 optimisation between [QCUT,QGAM] = [ 11.39, 22.77] = [ 36.31,145.25] Ry
 Optimized for a Real-space Cutoff    1.10 Angstroem

   l    n(q)    QCUT    max X(q) W(low)/X(q) W(high)/X(q)  e(spline)
   0      7    11.387    20.381    0.22E-03    0.48E-03    0.18E-06
   0      7    11.387    15.268    0.22E-03    0.52E-03    0.19E-06
   1      7    11.387     5.964    0.22E-03    0.73E-03    0.24E-06
   1      7    11.387     5.382    0.19E-03    0.60E-03    0.21E-06

  PAW_PBE Li_sv 10Sep2004               :
  PAW_PBE Ni 02Aug2007                  :
  PAW_PBE O 08Apr2002                   :

 POSCAR: ce17152_1
  positions in direct lattice
 exchange correlation table for  LEXCH =       14
   RHO(1)=    0.500       N(1)  =     2000
   RHO(2)=  100.500       N(2)  =     4000

 ion  position               nearest neighbor table
   1  0.250  0.250  0.500-  44 2.16  40 2.17  20 2.17  32 2.17  22 2.17  34 2.17
   2  0.252  0.250  1.000-  28 2.14  24 2.15  50 2.16  48 2.16  38 2.17  36 2.17
   3  0.252  0.750  0.000-  25 2.11  29 2.11  51 2.16  49 2.16  39 2.17  37 2.18
   4  0.999  1.000  1.000-  31 1.83  30 1.84  29 1.85  28 1.86  38 1.89  39 1.89   9 2.76   7 2.80
                             9 2.80   8 2.80   5 2.81   6 2.81
   5  0.250  0.000  0.250-  22 1.84  34 1.84  51 1.84  39 1.84  45 1.90  28 1.94   8 2.78   8 2.78
                            11 2.80  10 2.80   9 2.81   4 2.81
   6  0.250  0.995  0.748-  23 1.84  35 1.84  50 1.85  38 1.85  44 1.95  29 1.96   7 2.78   7 2.78
                            11 2.80  10 2.80   9 2.81   4 2.81
   7  0.750  0.999  0.749-  35 1.84  23 1.84  50 1.87  38 1.87  47 1.89  30 1.90   6 2.78   6 2.78
                             9 2.80   4 2.80  11 2.80  10 2.80
   8  0.750  1.000  0.250-  51 1.86  39 1.86  22 1.86  34 1.86  46 1.92  31 1.93   5 2.78   5 2.78
                            11 2.79  10 2.79   9 2.80   4 2.80
   9  0.502  1.000  1.000-  31 1.83  30 1.84  29 1.85  28 1.85  50 1.89  51 1.89   4 2.76   7 2.80
                             4 2.80   8 2.80   5 2.81   6 2.81
  10  0.999  0.994  0.498-  46 1.83  47 1.84  44 1.85  45 1.85  23 1.89  22 1.90  11 2.77  11 2.79
                             8 2.79   7 2.80   5 2.80   6 2.80
  11  0.501  0.995  0.498-  46 1.83  47 1.84  44 1.85  45 1.85  35 1.89  34 1.90  10 2.77  10 2.79
                             8 2.79   7 2.80   5 2.80   6 2.80
  12  0.999  0.506  0.502-  42 1.83  43 1.84  40 1.84  41 1.85  21 1.89  20 1.90  17 2.77  17 2.79
                            16 2.79  13 2.80  15 2.80  14 2.80
  13  0.250  0.500  0.750-  20 1.84  32 1.84  37 1.84  49 1.85  41 1.89  24 1.94  16 2.78  16 2.78
                            17 2.80  12 2.80  18 2.81  19 2.81
  14  0.250  0.505  0.252-  33 1.84  21 1.84  36 1.85  48 1.85  40 1.95  25 1.96  15 2.78  15 2.78
                            17 2.80  12 2.80  18 2.81  19 2.81
  15  0.750  0.501  0.250-  21 1.84  33 1.84  36 1.87  48 1.87  43 1.89  26 1.90  14 2.78  14 2.78
                            19 2.79  18 2.79  12 2.80  17 2.80
  16  0.750  0.500  0.750-  37 1.86  49 1.86  20 1.86  32 1.86  42 1.92  27 1.94  13 2.78  13 2.78
                            12 2.79  17 2.79  18 2.80  19 2.80
  17  0.501  0.506  0.502-  42 1.83  43 1.84  40 1.84  41 1.85  33 1.89  32 1.90  12 2.77  12 2.79
                            16 2.79  13 2.80  15 2.80  14 2.80
  18  0.999  0.500  0.000-  27 1.83  26 1.84  25 1.85  24 1.85  36 1.89  37 1.89  19 2.76  15 2.79
                            19 2.80  16 2.80  14 2.81  13 2.81
  19  0.502  0.500  0.000-  27 1.83  26 1.84  25 1.85  24 1.85  48 1.89  49 1.89  18 2.76  15 2.79
                            18 2.80  16 2.80  14 2.81  13 2.81
  20  0.002  0.403  0.634-  13 1.84  16 1.86  12 1.90   1 2.17
  21  0.998  0.600  0.364-  14 1.84  15 1.84  12 1.89
  22  0.002  0.096  0.365-   5 1.84   8 1.86  10 1.90   1 2.17
  23  0.998  0.900  0.636-   6 1.84   7 1.84  10 1.89
  24  0.250  0.400  0.889-  18 1.85  19 1.85  13 1.94   2 2.15
  25  0.250  0.602  0.109-  18 1.85  19 1.85  14 1.96   3 2.11
  26  0.750  0.598  0.113-  19 1.84  18 1.84  15 1.90
  27  0.750  0.402  0.889-  19 1.83  18 1.83  16 1.94
  28  0.250  0.100  0.111-   9 1.85   4 1.86   5 1.94   2 2.14
  29  0.250  0.898  0.891-   9 1.85   4 1.85   6 1.96   3 2.11
  30  0.750  0.902  0.887-   4 1.84   9 1.84   7 1.90
  31  0.750  0.098  0.111-   4 1.83   9 1.83   8 1.93
  32  0.498  0.403  0.634-  13 1.84  16 1.86  17 1.90   1 2.17
  33  0.503  0.600  0.364-  14 1.84  15 1.84  17 1.89
  34  0.498  0.096  0.366-   5 1.84   8 1.86  11 1.90   1 2.17
  35  0.503  0.900  0.635-   6 1.84   7 1.84  11 1.89
  36  0.005  0.404  0.136-  14 1.85  15 1.87  18 1.89   2 2.17
  37  0.002  0.597  0.865-  13 1.84  16 1.86  18 1.89   3 2.18
  38  0.005  0.095  0.864-   6 1.85   7 1.87   4 1.89   2 2.17
  39  0.002  0.903  0.135-   5 1.84   8 1.86   4 1.89   3 2.17
  40  0.250  0.405  0.393-  12 1.84  17 1.84  14 1.95   1 2.17
  41  0.250  0.601  0.618-  12 1.85  17 1.85  13 1.89
  42  0.750  0.602  0.615-  17 1.83  12 1.83  16 1.92
  43  0.750  0.408  0.389-  17 1.84  12 1.84  15 1.89
  44  0.250  0.095  0.607-  10 1.85  11 1.85   6 1.95   1 2.16
  45  0.250  0.899  0.383-  10 1.85  11 1.85   5 1.90
  46  0.750  0.899  0.386-  11 1.83  10 1.83   8 1.92
  47  0.750  0.092  0.611-  10 1.84  11 1.84   7 1.89
  48  0.495  0.404  0.136-  14 1.85  15 1.87  19 1.89   2 2.16
  49  0.498  0.597  0.865-  13 1.85  16 1.86  19 1.89   3 2.16
  50  0.495  0.095  0.863-   6 1.85   7 1.87   9 1.89   2 2.16
  51  0.498  0.903  0.135-   5 1.84   8 1.86   9 1.89   3 2.16

  LATTYP: Found a triclinic cell.
 ALAT       =    11.5960874593
 B/A-ratio  =     0.4795043167
 C/A-ratio  =     0.8388195970
 COS(alpha) =     0.0000267887
 COS(beta)  =     0.2910433506
 COS(gamma) =     0.4794368694

  Lattice vectors:

 A1 = (  -3.4926195203,   5.5599986149,   9.5580996360)
 A2 = (  -0.0000677032,   5.5603739868,  -0.0002613582)
 A3 = (  -9.7262907684,   0.0001365280,  -0.1195457373)

Analysis of symmetry for initial positions (statically):
 Subroutine PRICEL returns:
 Original cell was already a primitive cell.

 Routine SETGRP: Setting up the symmetry group for a
 triclinic supercell.

 Subroutine GETGRP returns: Found  1 space group operations
 (whereof  1 operations were pure point group operations)
 out of a pool of  2 trial point group operations.

The static configuration has the point symmetry C_1 .

Analysis of symmetry for dynamics (positions and initial velocities):
 Subroutine PRICEL returns:
 Original cell was already a primitive cell.

[...]

The dynamic configuration has the point symmetry C_1 .

Analysis of structural, dynamic, and magnetic symmetry:
 Subroutine PRICEL returns:
 Original cell was already a primitive cell.

 Routine SETGRP: Setting up the symmetry group for a
 triclinic supercell.

 Subroutine GETGRP returns: Found  1 space group operations
 (whereof  1 operations were pure point group operations)
 out of a pool of  2 trial point group operations.

The magnetic configuration has the point symmetry C_1 .

 Subroutine INISYM returns: Found  1 space group operations
 (whereof  1 operations are pure point group operations),
 and found     1 'primitive' translations

 KPOINTS: Automatic mesh

Automatic generation of k-mesh.
Space group operators:
 irot       det(A)        alpha          n_x          n_y          n_z        tau_x        tau_y        tau_z
    1     1.000000     0.000000     1.000000     0.000000     0.000000     0.000000     0.000000     0.000000

 Subroutine IBZKPT returns following result:

 Found      1 irreducible k-points:

 Following reciprocal coordinates:
            Coordinates               Weight
  0.000000  0.000000  0.000000      1.000000

 Following cartesian coordinates:
            Coordinates               Weight
  0.000000  0.000000  0.000000      1.000000

 SYSTEM =  unknown system
 POSCAR =  ce17152_1

 Startparameter for this run:
   NWRITE =      1    write-flag & timer
   PREC   = accura    normal or accurate (medium, high low for compatibility)
   ISTART =      0    job   : 0-new  1-cont  2-samecut
   ICHARG =      2    charge: 1-file 2-atom 10-const
   ISPIN  =      2    spin polarized calculation?
   LNONCOLLINEAR =      F non collinear calculations
   LSORBIT =      F    spin-orbit coupling
   INIWAV =      1    electr: 0-lowe 1-rand  2-diag
   LASPH  =      F    aspherical Exc in radial PAW
   METAGGA=      F    non-selfconsistent MetaGGA calc.

 Electronic Relaxation 1
   ENCUT  =  500.0 eV  36.75 Ry    6.06 a.u.  10.14 18.55 17.73*2*pi/ulx,y,z
   ENINI  =  500.0     initial cutoff
   ENAUG  =  628.9 eV  augmentation charge cutoff
   NELM   =     80;   NELMIN=  2; NELMDL= -5     # of ELM steps
   EDIFF  = 0.1E-04   stopping-criterion for ELM
   LREAL  =      T    real-space projection
   NLSPLINE    = F    spline interpolate recip. space projectors
   LCOMPAT=      F    compatible to vasp.4.4
   GGA_COMPAT  = T    GGA compatible to vasp.4.4-vasp.4.6
   LMAXPAW     = -100 max onsite density
   LMAXMIX     =    2 max onsite mixed and CHGCAR
   VOSKOWN=      1    Vosko Wilk Nusair interpolation
   ROPT   =   -0.00025  -0.00025  -0.00025
 Ionic relaxation
   EDIFFG = -.2E-01   stopping-criterion for IOM
   NSW    =     20    number of steps for IOM
   NBLOCK =      1;   KBLOCK =     20    inner block; outer block
   IBRION =      1    ionic relax: 0-MD 1-quasi-New 2-CG
   NFREE  =      0    steps in history (QN), initial steepest desc. (CG)
   ISIF   =      3    stress and relaxation
[...]

 FORCES acting on ions
    electron-ion (+dipol)            ewald-force                    non-local-force                 convergence-correction
   0.627E-02 -.244E-01 -.638E-01   -.116E-01 0.241E-01 0.680E-01   -.324E-02 0.229E-02 0.102E-02   0.792E-02 -.753E-03 -.421E-02
   0.142E+00 0.265E+00 -.345E+00   -.133E+00 -.252E+00 0.355E+00   -.196E-02 -.209E-01 0.503E-02   -.658E-02 0.310E-02 -.106E-01
   -.691E-01 0.329E+00 0.230E+00   0.771E-01 -.311E+00 -.233E+00   -.761E-03 -.267E-01 -.444E-02   -.754E-02 0.327E-02 0.457E-02
   0.986E+00 0.240E+02 -.124E+02   -.996E+00 -.244E+02 0.126E+02   0.386E-01 0.385E+00 -.105E+00   -.316E-01 -.167E-01 -.208E-01
   -.177E+00 -.631E-02 -.267E+02   0.215E+00 0.399E-02 0.266E+02   -.443E-01 0.321E-02 0.149E+00   0.961E-04 0.956E-03 -.144E-01
   0.284E+02 0.260E-01 0.377E+02   -.288E+02 -.286E-01 -.384E+02   0.358E+00 0.193E-02 0.753E+00   0.173E-01 0.951E-03 0.244E-01
   0.680E+01 -.748E-02 -.183E+02   -.698E+01 0.108E-01 0.181E+02   0.153E+00 -.130E-03 0.191E+00   0.201E-01 -.291E-02 0.211E-01
   -.548E+01 0.128E-01 -.215E+02   0.543E+01 -.857E-02 0.215E+02   0.516E-01 0.169E-02 0.358E-01   -.899E-02 -.569E-02 -.157E-01
   0.968E+00 -.241E+02 -.126E+02   -.981E+00 0.245E+02 0.128E+02   0.391E-01 -.387E+00 -.109E+00   -.299E-01 0.130E-01 -.210E-01
   -.147E+02 0.867E+01 0.313E+02   0.151E+02 -.885E+01 -.323E+02   -.412E+00 0.178E+00 0.965E+00   0.504E-02 0.234E-02 -.553E-02
   -.147E+02 -.864E+01 0.313E+02   0.151E+02 0.882E+01 -.322E+02   -.411E+00 -.180E+00 0.965E+00   0.337E-02 0.369E-03 -.623E-02
   0.149E+02 0.846E+01 -.314E+02   -.154E+02 -.860E+01 0.323E+02   0.419E+00 0.189E+00 -.967E+00   0.425E-01 -.386E-01 0.160E-01
   0.182E+00 0.243E-01 0.264E+02   -.222E+00 -.280E-01 -.262E+02   0.295E-01 -.157E-02 -.162E+00   0.765E-02 0.573E-02 0.209E-01
   -.287E+02 0.374E-01 -.371E+02   0.291E+02 -.411E-01 0.379E+02   -.369E+00 -.175E-02 -.750E+00   -.149E-01 0.535E-02 -.101E-01
   -.701E+01 -.543E-02 0.188E+02   0.718E+01 0.867E-02 -.185E+02   -.165E+00 0.183E-02 -.190E+00   -.910E-02 -.483E-02 -.154E-01
   0.539E+01 -.586E-02 0.214E+02   -.533E+01 0.867E-02 -.213E+02   -.601E-01 0.134E-02 -.440E-01   0.461E-02 -.383E-02 0.252E-01
   0.149E+02 -.845E+01 -.313E+02   -.154E+02 0.859E+01 0.323E+02   0.419E+00 -.190E+00 -.966E+00   0.427E-01 0.406E-01 0.161E-01
   -.848E+00 0.241E+02 0.123E+02   0.902E+00 -.244E+02 -.125E+02   -.279E-01 0.380E+00 0.109E+00   -.176E-01 -.275E-01 -.141E-02
   -.829E+00 -.241E+02 0.125E+02   0.884E+00 0.245E+02 -.126E+02   -.289E-01 -.384E+00 0.113E+00   -.178E-01 0.270E-01 -.166E-02
   -.587E+01 0.320E+02 0.382E+03   0.634E+01 -.346E+02 -.404E+03   -.489E+00 0.259E+01 0.226E+02   0.232E-01 -.692E-02 -.212E-01
   -.339E+01 0.943E+00 -.391E+03   0.311E+01 -.121E+01 0.418E+03   0.270E+00 0.309E+00 -.268E+02   0.622E-02 -.399E-01 0.489E-01
   0.578E+01 0.320E+02 -.382E+03   -.625E+01 -.346E+02 0.404E+03   0.477E+00 0.259E+01 -.226E+02   -.409E-02 -.275E-01 0.239E-01
   0.341E+01 0.953E+00 0.391E+03   -.314E+01 -.129E+01 -.418E+03   -.269E+00 0.319E+00 0.268E+02   0.649E-02 0.184E-01 -.203E-01
   0.388E+02 0.146E+00 0.386E+03   -.423E+02 -.178E+00 -.408E+03   0.360E+01 0.134E-01 0.217E+02   -.388E-01 0.183E-01 -.383E-01
   -.436E+02 0.147E+00 -.374E+03   0.471E+02 -.179E+00 0.396E+03   -.347E+01 0.142E-01 -.222E+02   -.514E-01 0.179E-01 0.536E-01
   -.186E+02 -.121E+00 -.391E+03   0.196E+02 0.146E+00 0.418E+03   -.990E+00 -.704E-02 -.268E+02   0.199E-02 -.181E-01 0.300E-01
   0.218E+02 -.675E-01 0.405E+03   -.233E+02 0.912E-01 -.431E+03   0.152E+01 -.483E-02 0.262E+02   -.126E-01 -.186E-01 -.400E-01
   -.387E+02 0.131E+00 -.386E+03   0.423E+02 -.165E+00 0.408E+03   -.360E+01 0.129E-01 -.217E+02   -.422E-02 0.207E-01 0.133E-01
   0.436E+02 0.197E+00 0.374E+03   -.471E+02 -.236E+00 -.396E+03   0.347E+01 0.178E-01 0.222E+02   0.113E-01 0.201E-01 -.181E-01
   0.186E+02 -.938E-01 0.391E+03   -.196E+02 0.119E+00 -.418E+03   0.989E+00 -.413E-02 0.268E+02   0.143E-01 -.215E-01 -.214E-01
   -.218E+02 -.959E-01 -.405E+03   0.233E+02 0.124E+00 0.431E+03   -.150E+01 -.643E-02 -.262E+02   0.515E-03 -.217E-01 0.147E-01
   -.588E+01 -.320E+02 0.382E+03   0.635E+01 0.346E+02 -.404E+03   -.495E+00 -.259E+01 0.226E+02   0.351E-01 0.633E-02 -.253E-01
   -.338E+01 -.101E+01 -.391E+03   0.311E+01 0.129E+01 0.418E+03   0.273E+00 -.317E+00 -.268E+02   -.647E-02 0.398E-01 0.532E-01
   0.579E+01 -.321E+02 -.382E+03   -.626E+01 0.346E+02 0.404E+03   0.483E+00 -.259E+01 -.226E+02   -.802E-02 0.251E-01 0.225E-01
   0.341E+01 -.954E+00 0.391E+03   -.314E+01 0.129E+01 -.418E+03   -.272E+00 -.322E+00 0.268E+02   0.104E-01 -.187E-01 -.194E-01
   -.262E+02 0.274E+02 0.374E+03   0.281E+02 -.292E+02 -.397E+03   -.194E+01 0.186E+01 0.225E+02   -.821E-02 -.375E-01 -.475E-01
   0.176E+02 0.306E+02 -.362E+03   -.187E+02 -.329E+02 0.384E+03   0.117E+01 0.225E+01 -.226E+02   -.345E-01 -.754E-02 0.266E-01
   0.264E+02 0.274E+02 -.374E+03   -.283E+02 -.293E+02 0.397E+03   0.195E+01 0.186E+01 -.224E+02   -.647E-02 0.174E-01 0.154E-01
   -.178E+02 0.307E+02 0.362E+03   0.190E+02 -.329E+02 -.384E+03   -.120E+01 0.225E+01 0.226E+02   0.302E-02 -.282E-01 -.216E-01
   0.325E+02 0.304E-01 0.372E+03   -.360E+02 -.220E-01 -.394E+03   0.347E+01 0.203E-02 0.219E+02   0.389E-01 -.922E-02 -.612E-01
   0.614E+01 0.105E-01 -.397E+03   -.577E+01 -.862E-03 0.424E+03   -.429E+00 -.337E-03 -.268E+02   0.517E-01 -.906E-02 0.386E-01
   -.759E+01 -.294E-01 -.394E+03   0.894E+01 0.201E-01 0.421E+03   -.137E+01 0.151E-02 -.273E+02   0.276E-01 0.856E-02 0.429E-01
   0.716E+01 0.234E-02 0.399E+03   -.717E+01 -.133E-01 -.425E+03   0.226E-01 0.256E-02 0.263E+02   -.167E-01 0.864E-02 -.371E-01
   -.329E+02 -.130E-01 -.372E+03   0.364E+02 0.168E-01 0.394E+03   -.348E+01 -.353E-04 -.219E+02   0.114E-01 -.244E-02 0.291E-01
   -.586E+01 0.230E-01 0.397E+03   0.541E+01 -.219E-01 -.424E+03   0.460E+00 0.141E-02 0.268E+02   -.326E-02 -.184E-02 -.214E-01
   0.786E+01 -.531E-03 0.394E+03   -.924E+01 -.269E-02 -.421E+03   0.139E+01 0.246E-02 0.273E+02   -.112E-01 0.170E-02 -.211E-01
   -.728E+01 -.134E-01 -.399E+03   0.730E+01 0.108E-01 0.425E+03   -.288E-01 0.122E-02 -.263E+02   0.889E-02 0.188E-02 0.288E-01
   -.264E+02 -.275E+02 0.374E+03   0.284E+02 0.294E+02 -.396E+03   -.198E+01 -.187E+01 0.224E+02   -.265E-01 0.388E-01 -.402E-01
   0.178E+02 -.308E+02 -.361E+03   -.190E+02 0.331E+02 0.384E+03   0.121E+01 -.227E+01 -.225E+02   -.160E-01 0.747E-02 0.193E-01
   0.266E+02 -.275E+02 -.374E+03   -.286E+02 0.294E+02 0.396E+03   0.199E+01 -.188E+01 -.224E+02   0.122E-01 -.178E-01 0.574E-02
   -.181E+02 -.308E+02 0.361E+03   0.194E+02 0.331E+02 -.384E+03   -.123E+01 -.227E+01 0.225E+02   -.149E-01 0.268E-01 -.115E-01
   0.158E-01 0.102E+00 -.537E-02   0.316E-12 -.306E-12 -.114E-12   -.217E-01 -.907E-01 0.296E-02   0.705E-02 -.681E-02 0.214E-02

 POSITION                                       TOTAL-FORCE (eV/Angst)
      3.98851      1.39094      2.45565        -0.000632      0.001223      0.000971
      8.84392      1.39865      2.51516         0.000618     -0.004467      0.004630
     -2.61371      1.40073      7.18483        -0.000393     -0.004854     -0.002690
      6.22498      5.55389      9.69588        -0.003478      0.006391     -0.004481
      2.43153      1.39158      0.03268        -0.006540      0.001771     -0.005999
      3.79700      1.39131      9.62237        -0.002808      0.000212      0.002811
      3.79925      4.17225      9.66188        -0.003930      0.000193      0.003814
     -1.05398      4.17229      9.60384        -0.003950      0.000161     -0.005497
      6.22493      2.79083      9.69616        -0.003102     -0.003988     -0.004767
      1.36843      5.55678      9.58651         0.003630     -0.002147     -0.003470
      1.36840      2.78733      9.58664         0.003658      0.001975     -0.003213
      3.11770      5.55710      4.90306        -0.001072      0.008437     -0.001396
      5.54139      1.39183      4.87976        -0.002911      0.000367      0.005522
      0.68851      1.39182      4.86602         0.001486     -0.000194      0.000032
      0.68644      4.17274      4.82642        -0.000560      0.000150     -0.001813
      5.53993      4.17281      4.88664        -0.000265      0.000234      0.005322
      3.11770      2.78799      4.90312        -0.000849     -0.007804     -0.001723
     -1.73889      5.55449      4.79365         0.008782      0.001984      0.003781
     -1.73887      2.79130      4.79361         0.008754     -0.001823      0.003807
      4.75816      0.01231      3.94413         0.000742      0.000845      0.007041
      1.44711      5.54925      5.78621        -0.002553     -0.000329     -0.006252
      3.21507      0.01210      0.96800        -0.001051      0.000451     -0.009392
      3.03811      5.54868      8.70202         0.004073      0.000077      0.006821
      7.25041      1.39200      3.94188         0.007171     -0.000672      0.007558
     -1.02797      1.39215      5.77740         0.000600      0.000110     -0.001463
     -0.98667      4.17282      5.74066         0.005629     -0.000380     -0.001653
      7.23356      4.17290      3.96339         0.002835      0.000121      0.008768
      0.72197      1.39188      0.97025        -0.008254     -0.001092     -0.008884
      5.51497      1.39159      8.71201        -0.009353     -0.000351      0.003984
      5.47331      4.17226      8.74858        -0.006563     -0.000906      0.001117
      0.73867      4.17276      0.94842         0.001136      0.000057     -0.008936
      4.75812      2.77119      3.94403         0.001525     -0.000101      0.007120
      1.44717      2.79606      5.78622        -0.002857      0.000689     -0.005908
      3.21510      2.77117      0.96789        -0.000918     -0.001708     -0.008484
      3.03805      2.79554      8.70213         0.004377      0.000086      0.007385
     -0.08297      0.02818      3.88873         0.003513     -0.000948     -0.003175
      6.31854      0.01292      5.82680         0.002578      0.001113     -0.001201
      8.05532      0.02818      1.02140        -0.003025     -0.001116      0.002447
     -1.83249      0.01231      8.66392        -0.001539      0.001020      0.000178
      2.39000      1.39166      3.93521         0.010854      0.001129      0.004255
      3.89564      1.39173      5.83252        -0.004760      0.000195      0.003108
      3.87686      4.17257      5.83570        -0.000425      0.000663      0.001811
      2.36401      4.17253      3.95062         0.003743      0.000129      0.002831
      5.58290      1.39154      0.97596        -0.002690      0.001225     -0.000769
      0.59026      1.39115      8.65779         0.004305      0.000539     -0.002754
      0.60924      4.17198      8.65421        -0.002718      0.000858      0.002550
      5.60926      4.17241      0.96031        -0.004894      0.000484     -0.002544
     -0.08294      2.75554      3.88837         0.003429      0.001665     -0.002940
      6.31850      2.77118      5.82671         0.003635     -0.001330     -0.001171
      8.05532      2.75535      1.02151        -0.003388      0.000692      0.001851
     -1.83257      2.77057      8.66377        -0.001600     -0.001036      0.001062
    total drift:                                0.001126      0.004133     -0.000269

  FREE ENERGIE OF THE ION-ELECTRON SYSTEM (eV)
  free  energy   TOTEN  =      -319.4025949127 eV

  energy  without entropy=     -319.3971105367  energy(sigma->0) =     -319.39985272

 d Force = 0.2193062E-03[ 0.121E-03, 0.318E-03]  d Energy = 0.4857405E-03-0.266E-03
 d Force =-0.4308456E+01[-0.431E+01,-0.430E+01]  d Ewald  =-0.9922691E+01 0.561E+01

 Quasi-Newton relaxation of ions (Broydens 2nd method)
  g(Force)  = 0.112E-03   g(Stress)= 0.115E-02

 retain information from N=  1 steps
 eigenvalues of (default step * inverse Hessian matrix)
  average eigenvalue of G=   0.2191
 eigenvalue spectrum of G is  0.2191

 reached required accuracy - stopping structural energy minimisation

volume of typ            1:     4.5 %

[...]

volume of typ            3:    10.0 %

total charge

# of ion       s       p       d       tot
    1        2.058   0.177   0.067   2.302
    2        2.060   0.188   0.071   2.319
    3        2.063   0.191   0.074   2.328
    4        0.303   0.432   7.838   8.574
    5        0.297   0.417   7.846   8.560
    6        0.291   0.407   7.840   8.538
    7        0.294   0.411   7.830   8.536
    8        0.286   0.395   7.831   8.512
    9        0.303   0.433   7.837   8.573
   10        0.302   0.429   7.833   8.564
   11        0.302   0.429   7.833   8.564
   12        0.302   0.429   7.833   8.564
   13        0.297   0.417   7.845   8.560
   14        0.291   0.407   7.842   8.540
   15        0.294   0.412   7.829   8.535
   16        0.286   0.395   7.831   8.512
   17        0.302   0.429   7.833   8.565
   18        0.303   0.432   7.839   8.574
   19        0.303   0.432   7.838   8.574
   20        1.273   2.757   0.008   4.038
   21        1.285   2.724   0.008   4.018
   22        1.273   2.757   0.008   4.038
   23        1.285   2.724   0.008   4.018
   24        1.273   2.756   0.007   4.037
   25        1.274   2.754   0.007   4.035
   26        1.283   2.731   0.008   4.022
   27        1.284   2.729   0.008   4.021
   28        1.273   2.756   0.007   4.037
   29        1.274   2.754   0.007   4.035
   30        1.283   2.731   0.008   4.022
   31        1.284   2.729   0.008   4.021
   32        1.273   2.757   0.008   4.038
   33        1.285   2.724   0.008   4.018
   34        1.273   2.757   0.008   4.038
   35        1.285   2.724   0.008   4.018
   36        1.273   2.759   0.008   4.039
   37        1.274   2.757   0.008   4.038
   38        1.273   2.759   0.008   4.039
   39        1.274   2.757   0.008   4.038
   40        1.274   2.755   0.008   4.036
   41        1.285   2.723   0.008   4.016
   42        1.285   2.725   0.008   4.018
   43        1.283   2.732   0.008   4.024
   44        1.274   2.755   0.008   4.036
   45        1.285   2.723   0.008   4.016
   46        1.285   2.724   0.008   4.018
   47        1.283   2.732   0.008   4.024
   48        1.273   2.759   0.008   4.040
   49        1.274   2.757   0.008   4.039
   50        1.273   2.759   0.008   4.040
   51        1.274   2.758   0.008   4.039
tot          51.84   95.06  125.84  272.75

magnetization (x)

# of ion       s       p       d       tot
    1       -0.000   0.001  -0.000   0.000
    2        0.000   0.001  -0.000   0.001
    3       -0.000   0.000  -0.000   0.000
    4        0.000   0.000   0.098   0.098
    5       -0.000   0.001   0.009   0.010
    6       -0.000   0.001   0.011   0.011
    7       -0.000   0.001   0.004   0.004
    8       -0.000   0.000   0.007   0.007
    9        0.000   0.000   0.098   0.098
   10        0.000   0.000   0.089   0.089
   11        0.000   0.000   0.088   0.089
   12        0.000  -0.000   0.090   0.090
   13       -0.000   0.001  -0.008  -0.008
   14       -0.000   0.001  -0.034  -0.033
   15       -0.000   0.001  -0.009  -0.009
   16       -0.000   0.001  -0.025  -0.024
   17        0.000  -0.000   0.090   0.090
   18        0.000  -0.000   0.100   0.100
   19        0.000  -0.000   0.100   0.100
   20        0.001   0.004   0.000   0.004
   21        0.001   0.005   0.000   0.006
   22        0.001   0.005   0.000   0.005
   23        0.001   0.007   0.000   0.009
   24        0.002   0.002   0.000   0.003
   25        0.001  -0.001  -0.000  -0.001
   26        0.001   0.001   0.000   0.002
   27        0.001  -0.001   0.000   0.000
   28        0.002   0.003   0.000   0.004
   29        0.001   0.002   0.000   0.004
   30        0.001   0.001   0.000   0.002
   31        0.001   0.002   0.000   0.004
   32        0.001   0.004   0.000   0.004
   33        0.001   0.005   0.000   0.006
   34        0.001   0.005   0.000   0.005
   35        0.001   0.007   0.000   0.009
   36        0.001   0.005   0.000   0.006
   37        0.001   0.006   0.000   0.007
   38        0.001   0.006   0.000   0.007
   39        0.001   0.007   0.000   0.008
   40        0.001  -0.002  -0.000  -0.001
   41        0.001   0.000   0.000   0.001
   42        0.001  -0.001   0.000  -0.000
   43        0.001   0.001   0.000   0.002
   44        0.002   0.002   0.000   0.004
   45        0.001   0.002   0.000   0.003
   46        0.001   0.002   0.000   0.003
   47        0.001   0.002   0.000   0.003
   48        0.001   0.005   0.000   0.006
   49        0.001   0.006   0.000   0.007
   50        0.001   0.006   0.000   0.007
   51        0.001   0.007   0.000   0.008
tot           0.03    0.11    0.71    0.85