 vasp.5.4.4.18Apr17-6-g9f103f2a35 (build May 12 2020 05:39:39) gamma-only

 MD_VERSION_INFO: Compiled 2020-05-12T12:39:39-UTC in devlin.sd.materialsdesign.
 com:/home/medea2/data/build/wwolf/vasp-gpu5.4.4/13047/x86_64/src/src/build/gam
 from svn 13047

 executed on                        Lin64 date 2023.03.07  02:57:55

 INCAR:
 POTCAR:    PAW_PBE Li_sv 10Sep2004
 POTCAR:    PAW_PBE Ni 02Aug2007
 POTCAR:    PAW_PBE O 08Apr2002

 POTCAR:    PAW_PBE Li_sv 10Sep2004

 POTCAR:    PAW_PBE Ni 02Aug2007

 POTCAR:    PAW_PBE O 08Apr2002

 Optimization of the real space projectors (new method)

 maximal supplied QI-value         = 22.11
 optimisation between [QCUT,QGAM] = [ 11.28, 22.77] = [ 35.61,145.23] Ry
 Optimized for a Real-space Cutoff    1.10 Angstroem

   l    n(q)    QCUT    max X(q) W(low)/X(q) W(high)/X(q)  e(spline)
   0      7    11.276    10.506    0.54E-04    0.58E-04    0.16E-07
   0      7    11.276     8.367    0.11E-03    0.14E-03    0.35E-07
   1      7    11.276     8.983    0.23E-03    0.43E-03    0.86E-07
 Optimization of the real space projectors (new method)

[...]

   l    n(q)    QCUT    max X(q) W(low)/X(q) W(high)/X(q)  e(spline)
   2      9    11.376    60.317    0.17E-03    0.16E-04    0.16E-06
   2      9    11.376    55.921    0.17E-03    0.16E-04    0.17E-06
   0     10    11.376    51.690    0.45E-04    0.60E-04    0.21E-06
   0     10    11.376    30.015    0.37E-04    0.55E-04    0.19E-06
   1     10    11.376    18.849    0.83E-04    0.11E-03    0.92E-07
   1     10    11.376    14.624    0.69E-04    0.92E-04    0.82E-07
 Optimization of the real space projectors (new method)

 maximal supplied QI-value         = 24.76
 optimisation between [QCUT,QGAM] = [ 11.39, 22.77] = [ 36.31,145.25] Ry
 Optimized for a Real-space Cutoff    1.10 Angstroem

   l    n(q)    QCUT    max X(q) W(low)/X(q) W(high)/X(q)  e(spline)
   0      7    11.387    20.381    0.22E-03    0.48E-03    0.18E-06
   0      7    11.387    15.268    0.22E-03    0.52E-03    0.19E-06
   1      7    11.387     5.964    0.22E-03    0.73E-03    0.24E-06
   1      7    11.387     5.382    0.19E-03    0.60E-03    0.21E-06

  PAW_PBE Li_sv 10Sep2004               :
  PAW_PBE Ni 02Aug2007                  :
  PAW_PBE O 08Apr2002                   :

 POSCAR: ce17288_1
  positions in direct lattice
 exchange correlation table for  LEXCH =       14
   RHO(1)=    0.500       N(1)  =     2000
   RHO(2)=  100.500       N(2)  =     4000

 ion  position               nearest neighbor table
   1  0.500  0.250  0.249-  47 2.14  33 2.15  27 2.16  30 2.16  42 2.16  39 2.16
   2  0.500  0.750  0.751-  48 2.14  34 2.15  28 2.16  29 2.16  41 2.16  40 2.16
   3  0.000  0.000  0.000-  27 1.86  28 1.86  29 1.86  30 1.86  37 1.91  38 1.91   8 2.78   8 2.78
                             4 2.79   5 2.79   6 2.79   7 2.79
   4  0.249  0.995  0.248-  38 1.84  21 1.84  33 1.85  50 1.85  44 1.88  27 1.90   7 2.77   7 2.79
                             9 2.79   3 2.79  10 2.80   8 2.80
   5  0.249  0.005  0.752-  37 1.84  22 1.84  34 1.85  49 1.85  43 1.88  28 1.90   6 2.77   6 2.79
                             9 2.79   3 2.79  10 2.80   8 2.80
   6  0.751  0.005  0.752-  37 1.84  22 1.84  34 1.85  49 1.85  46 1.88  29 1.90   5 2.77   5 2.79
                             9 2.79   3 2.79  10 2.80   8 2.80
   7  0.751  0.995  0.248-  38 1.84  21 1.84  33 1.85  50 1.85  45 1.88  30 1.90   4 2.77   4 2.79
                             9 2.79   3 2.79  10 2.80   8 2.80
   8  0.500  0.000  0.000-  27 1.84  28 1.84  29 1.84  30 1.84  49 1.90  50 1.90   3 2.78   3 2.78
                             7 2.80   4 2.80   5 2.80   6 2.80
   9  0.000  0.000  0.500-  43 1.85  44 1.85  45 1.85  46 1.85  21 1.88  22 1.88  10 2.78  10 2.78
                             4 2.79   5 2.79   6 2.79   7 2.79
  10  0.500  0.000  0.500-  43 1.84  44 1.84  45 1.84  46 1.84  33 1.92  34 1.92   9 2.78   9 2.78
                             4 2.80   5 2.80   6 2.80   7 2.80
  11  0.000  0.500  0.500-  39 1.86  40 1.86  41 1.86  42 1.86  19 1.92  20 1.92  16 2.78  16 2.78
                            12 2.80  13 2.80  14 2.80  15 2.80
  12  0.249  0.494  0.748-  19 1.84  36 1.84  48 1.85  31 1.85  23 1.89  40 1.90  15 2.77  15 2.79
                            17 2.79  11 2.80  18 2.80  16 2.80
  13  0.249  0.506  0.252-  20 1.84  35 1.84  47 1.85  32 1.85  24 1.89  39 1.90  14 2.77  14 2.79
                            17 2.79  11 2.80  18 2.80  16 2.80
  14  0.751  0.506  0.252-  20 1.84  35 1.84  47 1.85  32 1.85  25 1.89  42 1.90  13 2.77  13 2.79
                            17 2.79  11 2.80  18 2.80  16 2.80
  15  0.751  0.494  0.748-  19 1.84  36 1.84  48 1.85  31 1.85  26 1.89  41 1.90  12 2.77  12 2.79
                            17 2.79  11 2.80  18 2.80  16 2.80
  16  0.500  0.500  0.500-  39 1.84  40 1.84  41 1.84  42 1.84  31 1.90  32 1.90  11 2.78  11 2.78
                            15 2.80  12 2.80  13 2.80  14 2.80
  17  0.000  0.500  0.000-  23 1.85  24 1.85  25 1.85  26 1.85  35 1.88  36 1.88  18 2.78  18 2.78
                            12 2.79  13 2.79  14 2.79  15 2.79
  18  0.500  0.500  0.000-  23 1.85  24 1.85  25 1.85  26 1.85  47 1.92  48 1.92  17 2.78  17 2.78
                            12 2.80  13 2.80  14 2.80  15 2.80
  19  0.000  0.397  0.635-  12 1.84  15 1.84  11 1.92
  20  0.000  0.603  0.365-  13 1.84  14 1.84  11 1.92
  21  0.000  0.094  0.361-   4 1.84   7 1.84   9 1.88
  22  0.000  0.906  0.639-   5 1.84   6 1.84   9 1.88
  23  0.250  0.401  0.888-  18 1.85  17 1.85  12 1.89
  24  0.250  0.599  0.112-  18 1.85  17 1.85  13 1.89
  25  0.750  0.599  0.112-  18 1.85  17 1.85  14 1.89
  26  0.750  0.401  0.888-  18 1.85  17 1.85  15 1.89
  27  0.252  0.097  0.115-   8 1.84   3 1.86   4 1.90   1 2.16
  28  0.252  0.903  0.885-   8 1.84   3 1.86   5 1.90   2 2.16
  29  0.748  0.903  0.885-   8 1.84   3 1.86   6 1.90   2 2.16
  30  0.748  0.097  0.115-   8 1.84   3 1.86   7 1.90   1 2.16
  31  0.500  0.397  0.633-  12 1.85  15 1.85  16 1.90
  32  0.500  0.603  0.367-  13 1.85  14 1.85  16 1.90
  33  0.500  0.096  0.359-   4 1.85   7 1.85  10 1.92   1 2.15
  34  0.500  0.904  0.641-   5 1.85   6 1.85  10 1.92   2 2.15
  35  0.000  0.408  0.140-  13 1.84  14 1.84  17 1.88
  36  0.000  0.592  0.860-  12 1.84  15 1.84  17 1.88
  37  0.000  0.102  0.864-   5 1.84   6 1.84   3 1.91
  38  0.000  0.898  0.136-   4 1.84   7 1.84   3 1.91
  39  0.252  0.403  0.385-  16 1.84  11 1.86  13 1.90   1 2.16
  40  0.252  0.597  0.615-  16 1.84  11 1.86  12 1.90   2 2.16
  41  0.748  0.597  0.615-  16 1.84  11 1.86  15 1.90   2 2.16
  42  0.748  0.403  0.385-  16 1.84  11 1.86  14 1.90   1 2.16
  43  0.250  0.099  0.612-  10 1.84   9 1.85   5 1.88
  44  0.250  0.901  0.388-  10 1.84   9 1.85   4 1.88
  45  0.750  0.901  0.388-  10 1.84   9 1.85   7 1.88
  46  0.750  0.099  0.612-  10 1.84   9 1.85   6 1.88
  47  0.500  0.405  0.142-  13 1.85  14 1.85  18 1.92   1 2.14
  48  0.500  0.595  0.858-  12 1.85  15 1.85  18 1.92   2 2.14
  49  0.500  0.101  0.866-   5 1.85   6 1.85   8 1.90
  50  0.500  0.899  0.134-   4 1.85   7 1.85   8 1.90

  LATTYP: Found a simple monoclinic cell.
 ALAT       =    11.4660481717
 B/A-ratio  =     0.4853262196
 C/A-ratio  =     1.6816320228
 COS(beta)  =    -0.9086516791

  Lattice vectors:

 A1 = (  -6.2465397056,   0.0000000000,  -9.6151444286)
 A2 = (   0.0000000000,  -5.5647738131,   0.0000000000)
 A3 = (   2.7933215493,   0.0000000000,  19.0782677021)

Analysis of symmetry for initial positions (statically):
 Subroutine PRICEL returns:
 Original cell was already a primitive cell.

 Routine SETGRP: Setting up the symmetry group for a
 simple monoclinic supercell.

 Subroutine GETGRP returns: Found  4 space group operations
 (whereof  4 operations were pure point group operations)
 out of a pool of  4 trial point group operations.

The static configuration has the point symmetry C_2h.

Analysis of symmetry for dynamics (positions and initial velocities):
 Subroutine PRICEL returns:
 Original cell was already a primitive cell.

[...]

The dynamic configuration has the point symmetry C_2h.

Analysis of structural, dynamic, and magnetic symmetry:
 Subroutine PRICEL returns:
 Original cell was already a primitive cell.

 Routine SETGRP: Setting up the symmetry group for a
 simple monoclinic supercell.

 Subroutine GETGRP returns: Found  4 space group operations
 (whereof  4 operations were pure point group operations)
 out of a pool of  4 trial point group operations.

The magnetic configuration has the point symmetry C_2h.

 Subroutine INISYM returns: Found  4 space group operations
 (whereof  4 operations are pure point group operations),
 and found     1 'primitive' translations

 KPOINTS: Automatic mesh

Automatic generation of k-mesh.
Space group operators:
 irot       det(A)        alpha          n_x          n_y          n_z        tau_x        tau_y        tau_z
    1     1.000000     0.000001     1.000000     0.000000     0.000000     0.000000     0.000000     0.000000
    2    -1.000000     0.000001     1.000000     0.000000     0.000000     0.000000     0.000000     0.000000
    3     1.000000   180.000000     0.000000     1.000000     0.000000     0.000000     0.000000     0.000000
    4    -1.000000   180.000000     0.000000     1.000000     0.000000     0.000000     0.000000     0.000000

 Subroutine IBZKPT returns following result:

 Found      1 irreducible k-points:

 Following reciprocal coordinates:
            Coordinates               Weight
  0.000000  0.000000  0.000000      1.000000

 Following cartesian coordinates:
            Coordinates               Weight
  0.000000  0.000000  0.000000      1.000000

 SYSTEM =  unknown system
 POSCAR =  ce17288_1

 Startparameter for this run:
   NWRITE =      1    write-flag & timer
   PREC   = accura    normal or accurate (medium, high low for compatibility)
   ISTART =      0    job   : 0-new  1-cont  2-samecut
   ICHARG =      2    charge: 1-file 2-atom 10-const
   ISPIN  =      2    spin polarized calculation?
   LNONCOLLINEAR =      F non collinear calculations
   LSORBIT =      F    spin-orbit coupling
   INIWAV =      1    electr: 0-lowe 1-rand  2-diag
   LASPH  =      F    aspherical Exc in radial PAW
   METAGGA=      F    non-selfconsistent MetaGGA calc.

 Electronic Relaxation 1
   ENCUT  =  500.0 eV  36.75 Ry    6.06 a.u.  10.15 18.37 17.69*2*pi/ulx,y,z
   ENINI  =  500.0     initial cutoff
   ENAUG  =  628.9 eV  augmentation charge cutoff
   NELM   =     80;   NELMIN=  2; NELMDL= -5     # of ELM steps
   EDIFF  = 0.1E-04   stopping-criterion for ELM
   LREAL  =      T    real-space projection
   NLSPLINE    = F    spline interpolate recip. space projectors
   LCOMPAT=      F    compatible to vasp.4.4
   GGA_COMPAT  = T    GGA compatible to vasp.4.4-vasp.4.6
   LMAXPAW     = -100 max onsite density
   LMAXMIX     =    2 max onsite mixed and CHGCAR
   VOSKOWN=      1    Vosko Wilk Nusair interpolation
   ROPT   =   -0.00025  -0.00025  -0.00025
 Ionic relaxation
   EDIFFG = -.2E-01   stopping-criterion for IOM
   NSW    =     20    number of steps for IOM
   NBLOCK =      1;   KBLOCK =     20    inner block; outer block
[...]
  in kB        0.3543830      1.9261101      2.7375358      0.0000000      0.0000000      0.1321528

 VOLUME and BASIS-vectors are now :
  energy-cutoff  :      500.00
  volume of cell :      513.71
      direct lattice vectors                 reciprocal lattice vectors
     0.000000000  5.564773813  0.000000000     0.000000000  0.179701823  0.000000000
    -3.453218156  0.000000000  9.463123273    -0.001646766  0.000000000  0.105072430
     9.699757862  0.000000000  0.152021155     0.102509091  0.000000000  0.037406916

  length of vectors
     5.564773813 10.073500768  9.700949078     0.179701823  0.105085334  0.109120992

 FORCES acting on ions
    electron-ion (+dipol)            ewald-force                    non-local-force                 convergence-correction
   0.313E+00 0.212E-12 0.435E+00   -.337E+00 0.179E-13 -.421E+00   0.307E-01 0.000E+00 -.101E-01   -.376E-03 -.155E-13 -.563E-02
   -.313E+00 0.193E-12 -.435E+00   0.337E+00 -.234E-14 0.421E+00   -.307E-01 0.000E+00 0.101E-01   0.376E-03 0.332E-14 0.563E-02
   -.297E-12 -.266E-13 0.347E-13   0.142E-13 -.223E-13 -.711E-13   0.000E+00 0.000E+00 0.455E-23   0.139E-12 0.408E-13 -.532E-13
   -.138E+02 0.103E+02 0.433E+02   0.143E+02 -.105E+02 -.444E+02   -.448E+00 0.182E+00 0.111E+01   -.501E-01 -.111E-02 0.115E-01
   0.138E+02 0.103E+02 -.433E+02   -.143E+02 -.105E+02 0.444E+02   0.448E+00 0.182E+00 -.111E+01   0.501E-01 -.111E-02 -.115E-01
   0.138E+02 -.103E+02 -.433E+02   -.143E+02 0.105E+02 0.444E+02   0.448E+00 -.182E+00 -.111E+01   0.501E-01 0.111E-02 -.115E-01
   -.138E+02 -.103E+02 0.433E+02   0.143E+02 0.105E+02 -.444E+02   -.448E+00 -.182E+00 0.111E+01   -.501E-01 0.111E-02 0.115E-01
   -.145E-10 0.975E-12 -.133E-11   0.853E-13 0.307E-13 0.000E+00   0.000E+00 0.000E+00 0.149E-22   0.163E-12 -.500E-13 -.650E-13
   0.152E-11 -.156E-13 0.645E-13   -.142E-13 -.260E-13 -.639E-13   0.000E+00 0.000E+00 -.960E-22   -.195E-12 0.344E-13 -.949E-13
   0.119E-11 0.956E-12 -.177E-11   0.213E-13 -.853E-13 -.249E-13   0.000E+00 0.000E+00 0.232E-22   -.192E-12 -.471E-13 -.906E-13
   0.148E-11 -.171E-13 -.478E-14   0.426E-13 0.314E-12 0.480E-13   0.000E+00 0.000E+00 -.488E-22   -.463E-13 0.344E-13 0.113E-12
   -.159E+02 0.100E+02 0.475E+02   0.164E+02 -.102E+02 -.487E+02   -.450E+00 0.181E+00 0.115E+01   -.471E-01 0.348E-02 0.124E-01
   0.159E+02 0.100E+02 -.475E+02   -.164E+02 -.102E+02 0.487E+02   0.450E+00 0.181E+00 -.115E+01   0.471E-01 0.348E-02 -.124E-01
   0.159E+02 -.100E+02 -.475E+02   -.164E+02 0.102E+02 0.487E+02   0.450E+00 -.181E+00 -.115E+01   0.471E-01 -.348E-02 -.124E-01
   -.159E+02 -.100E+02 0.475E+02   0.164E+02 0.102E+02 -.487E+02   -.450E+00 -.181E+00 0.115E+01   -.471E-01 -.348E-02 0.124E-01
   -.145E-11 0.971E-12 0.369E-11   -.560E-13 -.285E-13 -.311E-13   0.000E+00 0.000E+00 -.430E-22   -.364E-13 -.493E-13 0.111E-12
   -.167E-12 -.180E-13 -.706E-13   -.417E-13 0.257E-13 0.213E-13   0.000E+00 0.000E+00 -.290E-23   0.695E-14 0.301E-13 0.267E-12
   -.122E-11 0.965E-12 -.260E-11   0.114E-12 0.117E-12 -.711E-13   -.212E-21 0.000E+00 -.860E-22   -.577E-14 -.470E-13 0.278E-12
   0.103E+02 0.282E-13 0.395E+03   -.117E+02 0.227E-13 -.422E+03   0.136E+01 0.000E+00 0.270E+02   -.132E-01 -.899E-13 0.688E-02
   -.103E+02 -.101E-12 -.395E+03   0.117E+02 0.525E-14 0.422E+03   -.136E+01 0.000E+00 -.270E+02   0.132E-01 0.126E-12 -.688E-02
   -.464E+01 -.547E-13 -.387E+03   0.418E+01 -.102E-12 0.414E+03   0.499E+00 -.662E-23 -.266E+02   -.397E-01 0.100E-12 0.131E-01
   0.464E+01 -.353E-13 0.387E+03   -.418E+01 -.583E-13 -.414E+03   -.499E+00 0.132E-22 0.266E+02   0.397E-01 -.444E-13 -.131E-01
   -.833E+01 -.103E+01 0.390E+03   0.947E+01 0.116E+01 -.416E+03   -.112E+01 -.135E+00 0.269E+02   -.279E-01 0.300E-02 -.349E-01
   0.833E+01 -.103E+01 -.390E+03   -.947E+01 0.116E+01 0.416E+03   0.112E+01 -.135E+00 -.269E+02   0.279E-01 0.300E-02 0.349E-01
   0.833E+01 0.103E+01 -.390E+03   -.947E+01 -.116E+01 0.416E+03   0.112E+01 0.135E+00 -.269E+02   0.279E-01 -.300E-02 0.349E-01
   -.833E+01 0.103E+01 0.390E+03   0.947E+01 -.116E+01 -.416E+03   -.112E+01 0.135E+00 0.269E+02   -.279E-01 -.300E-02 -.349E-01
   0.832E+01 0.321E+02 -.368E+03   -.877E+01 -.346E+02 0.391E+03   0.460E+00 0.256E+01 -.228E+02   -.168E-01 0.849E-03 -.222E-01
   -.832E+01 0.321E+02 0.368E+03   0.877E+01 -.346E+02 -.391E+03   -.460E+00 0.256E+01 0.228E+02   0.168E-01 0.849E-03 0.222E-01
   -.832E+01 -.321E+02 0.368E+03   0.877E+01 0.346E+02 -.391E+03   -.460E+00 -.256E+01 0.228E+02   0.168E-01 -.849E-03 0.222E-01
   0.832E+01 -.321E+02 -.368E+03   -.877E+01 0.346E+02 0.391E+03   0.460E+00 -.256E+01 -.228E+02   -.168E-01 -.849E-03 -.222E-01
   -.338E+01 0.907E-13 0.399E+03   0.319E+01 -.624E-14 -.426E+03   0.222E+00 -.132E-22 0.267E+02   -.248E-01 0.449E-13 0.117E-01
   0.338E+01 0.293E-12 -.399E+03   -.319E+01 -.292E-13 0.426E+03   -.222E+00 0.000E+00 -.267E+02   0.248E-01 -.962E-13 -.117E-01
   -.349E+02 0.256E-12 -.363E+03   0.377E+02 -.274E-13 0.386E+03   -.273E+01 -.165E-23 -.223E+02   -.231E-01 -.670E-13 0.690E-02
   0.349E+02 0.121E-12 0.363E+03   -.377E+02 -.140E-14 -.386E+03   0.273E+01 0.331E-23 0.223E+02   0.231E-01 -.100E-13 -.690E-02
   0.426E+01 -.153E-12 0.387E+03   -.364E+01 -.366E-13 -.414E+03   -.671E+00 -.662E-23 0.266E+02   0.447E-01 0.805E-13 -.261E-01
   -.426E+01 0.597E-13 -.387E+03   0.364E+01 -.568E-13 0.414E+03   0.671E+00 0.662E-23 -.266E+02   -.447E-01 -.425E-13 0.261E-01
   -.101E+02 -.127E-13 -.396E+03   0.112E+02 0.604E-15 0.423E+03   -.118E+01 0.000E+00 -.271E+02   0.303E-01 -.564E-14 -.216E-01
   0.101E+02 -.104E-12 0.396E+03   -.112E+02 -.306E-15 -.423E+03   0.118E+01 0.000E+00 0.271E+02   -.303E-01 0.572E-13 0.216E-01
   -.603E+01 0.318E+02 0.368E+03   0.636E+01 -.343E+02 -.391E+03   -.325E+00 0.254E+01 0.229E+02   0.616E-02 0.126E-01 0.352E-02
   0.603E+01 0.318E+02 -.368E+03   -.636E+01 -.343E+02 0.391E+03   0.325E+00 0.254E+01 -.229E+02   -.616E-02 0.126E-01 -.352E-02
   0.603E+01 -.318E+02 -.368E+03   -.636E+01 0.343E+02 0.391E+03   0.325E+00 -.254E+01 -.229E+02   -.616E-02 -.126E-01 -.352E-02
   -.603E+01 -.318E+02 0.368E+03   0.636E+01 0.343E+02 -.391E+03   -.325E+00 -.254E+01 0.229E+02   0.616E-02 -.126E-01 0.352E-02
   0.636E+01 -.118E+01 -.389E+03   -.737E+01 0.131E+01 0.416E+03   0.994E+00 -.137E+00 -.269E+02   0.172E-01 0.134E-01 0.124E-01
   -.636E+01 -.118E+01 0.389E+03   0.737E+01 0.131E+01 -.416E+03   -.994E+00 -.137E+00 0.269E+02   -.172E-01 0.134E-01 -.124E-01
   -.636E+01 0.118E+01 0.389E+03   0.737E+01 -.131E+01 -.416E+03   -.994E+00 0.137E+00 0.269E+02   -.172E-01 -.134E-01 -.124E-01
   0.636E+01 0.118E+01 -.389E+03   -.737E+01 -.131E+01 0.416E+03   0.994E+00 0.137E+00 -.269E+02   0.172E-01 -.134E-01 0.124E-01
   0.342E+02 0.268E-12 0.363E+03   -.368E+02 0.754E-13 -.385E+03   0.254E+01 0.000E+00 0.222E+02   0.418E-01 -.133E-12 -.226E-01
   -.342E+02 0.123E-12 -.363E+03   0.368E+02 0.739E-13 0.385E+03   -.254E+01 0.000E+00 -.222E+02   -.418E-01 0.771E-13 0.226E-01
   0.378E+01 0.181E-12 -.400E+03   -.377E+01 0.534E-13 0.427E+03   -.418E-01 0.000E+00 -.267E+02   0.304E-01 0.340E-13 -.226E-01
   -.378E+01 0.212E-12 0.400E+03   0.377E+01 -.140E-14 -.427E+03   0.418E-01 0.000E+00 0.267E+02   -.304E-01 -.101E-12 0.226E-01
   -.370E-10 0.128E-10 0.996E-11   -.924E-13 -.192E-13 -.227E-12   0.000E+00 0.444E-15 0.000E+00   -.807E-12 -.200E-12 0.142E-11

 POSITION                                       TOTAL-FORCE (eV/Angst)
      1.55049      2.78239      2.40781         0.005642      0.000000     -0.001906
      4.69605      2.78239      7.20733        -0.005642      0.000000      0.001906
      0.00000      0.00000      0.00000         0.000000      0.000000      0.000000
     -1.02628      1.38630      9.45180         0.006007     -0.009177      0.000668
      7.27282      1.38630      0.16335        -0.006007     -0.009177     -0.000668
      7.27282      4.17847      0.16335        -0.006007      0.009177     -0.000668
     -1.02628      4.17847      9.45180         0.006007      0.009177      0.000668
      0.00000      2.78239      0.00000         0.000000      0.000000      0.000000
      4.84988      0.00000      0.07601         0.000000      0.000000      0.000000
      4.84988      2.78239      0.07601         0.000000      0.000000      0.000000
      3.12327      0.00000      4.80757         0.000000      0.000000      0.000000
      5.55046      1.38611      4.78389        -0.007495     -0.002595      0.013959
      0.69608      1.38611      4.83125         0.007495     -0.002595     -0.013959
      0.69608      4.17867      4.83125         0.007495      0.002595     -0.013959
      5.55046      4.17867      4.78389        -0.007495      0.002595      0.013959
      3.12327      2.78239      4.80757         0.000000      0.000000      0.000000
     -1.72661      0.00000      4.73156         0.000000      0.000000      0.000000
     -1.72661      2.78239      4.73156         0.000000      0.000000      0.000000
      4.78565      0.00000      3.85368         0.019805      0.000000     -0.000301
      1.46089      0.00000      5.76146        -0.019805      0.000000      0.000301
      3.18058      0.00000      0.94010        -0.004867      0.000000     -0.000651
      3.06596      0.00000      8.67505         0.004867      0.000000      0.000651
      7.22940      1.39154      3.92522        -0.001185     -0.000684      0.001366
     -0.98286      1.39154      5.68993         0.001185     -0.000684     -0.001366
     -0.98286      4.17324      5.68993         0.001185      0.000684     -0.001366
      7.22940      4.17324      3.92522        -0.001185      0.000684      0.001366
      0.78154      1.40185      0.93722        -0.006644      0.002546     -0.004008
      5.46500      1.40185      8.67792         0.006644      0.002546      0.004008
      5.46500      4.16292      8.67792         0.006644     -0.002546      0.004008
      0.78154      4.16292      0.93722        -0.006644     -0.002546     -0.004008
      4.76704      2.78239      3.85750         0.008429      0.000000      0.007142
      1.47950      2.78239      5.75765        -0.008429      0.000000     -0.007142
      3.14690      2.78239      0.96314         0.004752      0.000000     -0.000371
      3.09964      2.78239      8.65200        -0.004752      0.000000      0.000371
     -0.05437      0.00000      3.87862        -0.002656      0.000000     -0.018095
      6.30091      0.00000      5.73652         0.002656      0.000000      0.018095
      8.03354      0.00000      1.09575        -0.007280     -0.000000      0.002753
     -1.78700      0.00000      8.51939         0.007280      0.000000     -0.002753
      2.33682      1.40188      3.87626         0.008337      0.000754     -0.007978
      3.90972      1.40188      5.73889        -0.008337      0.000754      0.007978
      3.90972      4.16289      5.73889        -0.008337     -0.000754      0.007978
      2.33682      4.16289      3.87626         0.008337     -0.000754     -0.007978
      5.59926      1.39159      1.02840         0.004176      0.001526      0.004657
      0.64728      1.39159      8.58674        -0.004176      0.001526     -0.004657
      0.64728      4.17318      8.58674        -0.004176     -0.001526     -0.004657
      5.59926      4.17318      1.02840         0.004176     -0.001526      0.004657
     -0.02346      2.78239      3.85605         0.000677      0.000000     -0.015582
      6.27000      2.78239      5.75909        -0.000677      0.000000      0.015582
      8.05241      2.78239      1.09217         0.003080      0.000000     -0.001335
     -1.80587      2.78239      8.52298        -0.003080      0.000000      0.001335
    total drift:                               -0.000000      0.000000      0.000000

  FREE ENERGIE OF THE ION-ELECTRON SYSTEM (eV)
  free  energy   TOTEN  =      -313.8756240338 eV

  energy  without entropy=     -313.8618286984  energy(sigma->0) =     -313.86872637

 Quasi-Newton relaxation of ions (Broydens 2nd method)
  g(Force)  = 0.241E-03   g(Stress)= 0.113E-02

 Reset! Starting new Quasi-Newton update for ions

 reached required accuracy - stopping structural energy minimisation

volume of typ            1:     3.0 %

[...]

volume of typ            3:    10.2 %

total charge

# of ion       s       p       d       tot
    1        2.060   0.188   0.072   2.320
    2        2.060   0.188   0.072   2.320
    3        0.288   0.400   7.826   8.514
    4        0.303   0.429   7.833   8.565
    5        0.303   0.429   7.833   8.565
    6        0.303   0.429   7.833   8.565
    7        0.303   0.429   7.833   8.565
    8        0.304   0.431   7.838   8.573
    9        0.304   0.431   7.826   8.561
   10        0.293   0.414   7.829   8.536
   11        0.288   0.400   7.827   8.515
   12        0.302   0.429   7.833   8.564
   13        0.302   0.429   7.833   8.564
   14        0.302   0.429   7.833   8.564
   15        0.302   0.429   7.833   8.564
   16        0.304   0.431   7.838   8.574
   17        0.304   0.432   7.826   8.562
   18        0.294   0.415   7.829   8.538
   19        1.285   2.725   0.008   4.018
   20        1.285   2.725   0.008   4.018
   21        1.283   2.735   0.008   4.026
   22        1.283   2.735   0.008   4.026
   23        1.285   2.727   0.008   4.020
   24        1.285   2.727   0.008   4.020
   25        1.285   2.727   0.008   4.020
   26        1.285   2.727   0.008   4.020
   27        1.273   2.759   0.008   4.039
   28        1.273   2.759   0.008   4.039
   29        1.273   2.759   0.008   4.039
   30        1.273   2.759   0.008   4.039
   31        1.284   2.727   0.008   4.019
   32        1.284   2.727   0.008   4.019
   33        1.273   2.757   0.008   4.038
   34        1.273   2.757   0.008   4.038
   35        1.282   2.736   0.008   4.026
   36        1.282   2.736   0.008   4.026
   37        1.285   2.725   0.008   4.019
   38        1.285   2.725   0.008   4.019
   39        1.273   2.759   0.008   4.039
   40        1.273   2.759   0.008   4.039
   41        1.273   2.759   0.008   4.039
   42        1.273   2.759   0.008   4.039
   43        1.284   2.727   0.008   4.020
   44        1.284   2.727   0.008   4.020
   45        1.284   2.727   0.008   4.020
   46        1.284   2.727   0.008   4.020
   47        1.273   2.759   0.008   4.039
   48        1.273   2.759   0.008   4.039
   49        1.284   2.727   0.008   4.020
   50        1.284   2.727   0.008   4.020
tot          49.87   94.83  125.70  270.41

magnetization (x)

# of ion       s       p       d       tot
    1        0.004   0.000   0.000   0.004
    2        0.004   0.000   0.000   0.004
    3       -0.000   0.000   0.126   0.126
    4       -0.000   0.001   0.080   0.080
    5       -0.000   0.001   0.080   0.080
    6       -0.000   0.001   0.080   0.080
    7       -0.000   0.001   0.080   0.080
    8       -0.000   0.001   0.046   0.047
    9       -0.000   0.001   0.032   0.032
   10        0.000   0.001   0.131   0.132
   11       -0.000   0.000   0.125   0.125
   12       -0.000   0.000   0.082   0.083
   13       -0.000   0.000   0.082   0.083
   14       -0.000   0.000   0.082   0.083
   15       -0.000   0.000   0.082   0.083
   16       -0.000   0.001   0.046   0.046
   17       -0.000   0.001   0.031   0.031
   18        0.000   0.001   0.122   0.123
   19        0.002   0.012   0.000   0.014
   20        0.002   0.012   0.000   0.014
   21        0.001   0.002   0.000   0.003
   22        0.001   0.002   0.000   0.003
   23        0.002   0.007   0.000   0.009
   24        0.002   0.007   0.000   0.009
   25        0.002   0.007   0.000   0.009
   26        0.002   0.007   0.000   0.009
   27        0.002   0.005   0.000   0.007
   28        0.002   0.005   0.000   0.007
   29        0.002   0.005   0.000   0.007
   30        0.002   0.005   0.000   0.007
   31        0.002   0.004   0.000   0.005
   32        0.002   0.004   0.000   0.005
   33        0.003   0.009   0.000   0.012
   34        0.003   0.009   0.000   0.012
   35        0.001   0.002   0.000   0.003
   36        0.001   0.002   0.000   0.003
   37        0.002   0.011   0.000   0.014
   38        0.002   0.011   0.000   0.014
   39        0.002   0.005   0.000   0.007
   40        0.002   0.005   0.000   0.007
   41        0.002   0.005   0.000   0.007
   42        0.002   0.005   0.000   0.007
   43        0.002   0.007   0.000   0.008
   44        0.002   0.007   0.000   0.008
   45        0.002   0.007   0.000   0.008
   46        0.002   0.007   0.000   0.008
   47        0.003   0.009   0.000   0.012
   48        0.003   0.009   0.000   0.012
   49        0.002   0.004   0.000   0.005
   50        0.002   0.004   0.000   0.005
tot           0.07    0.21    1.31    1.59