 vasp.5.4.4.18Apr17-6-g9f103f2a35 (build May 12 2020 05:39:39) gamma-only

 MD_VERSION_INFO: Compiled 2020-05-12T12:39:39-UTC in devlin.sd.materialsdesign.
 com:/home/medea2/data/build/wwolf/vasp-gpu5.4.4/13047/x86_64/src/src/build/gam
 from svn 13047

 executed on                        Lin64 date 2023.03.07  03:00:28

 INCAR:
 POTCAR:    PAW_PBE Li_sv 10Sep2004
 POTCAR:    PAW_PBE Ni 02Aug2007
 POTCAR:    PAW_PBE O 08Apr2002

 POTCAR:    PAW_PBE Li_sv 10Sep2004

 POTCAR:    PAW_PBE Ni 02Aug2007

 POTCAR:    PAW_PBE O 08Apr2002

 Optimization of the real space projectors (new method)

 maximal supplied QI-value         = 22.11
 optimisation between [QCUT,QGAM] = [ 11.28, 22.77] = [ 35.61,145.23] Ry
 Optimized for a Real-space Cutoff    1.10 Angstroem

   l    n(q)    QCUT    max X(q) W(low)/X(q) W(high)/X(q)  e(spline)
   0      7    11.276    10.506    0.54E-04    0.58E-04    0.16E-07
   0      7    11.276     8.367    0.11E-03    0.14E-03    0.35E-07
   1      7    11.276     8.983    0.23E-03    0.43E-03    0.86E-07
 Optimization of the real space projectors (new method)

[...]

   l    n(q)    QCUT    max X(q) W(low)/X(q) W(high)/X(q)  e(spline)
   2      9    11.376    60.317    0.17E-03    0.16E-04    0.16E-06
   2      9    11.376    55.921    0.17E-03    0.16E-04    0.17E-06
   0     10    11.376    51.690    0.45E-04    0.60E-04    0.21E-06
   0     10    11.376    30.015    0.37E-04    0.55E-04    0.19E-06
   1     10    11.376    18.849    0.83E-04    0.11E-03    0.92E-07
   1     10    11.376    14.624    0.69E-04    0.92E-04    0.82E-07
 Optimization of the real space projectors (new method)

 maximal supplied QI-value         = 24.76
 optimisation between [QCUT,QGAM] = [ 11.39, 22.77] = [ 36.31,145.25] Ry
 Optimized for a Real-space Cutoff    1.10 Angstroem

   l    n(q)    QCUT    max X(q) W(low)/X(q) W(high)/X(q)  e(spline)
   0      7    11.387    20.381    0.22E-03    0.48E-03    0.18E-06
   0      7    11.387    15.268    0.22E-03    0.52E-03    0.19E-06
   1      7    11.387     5.964    0.22E-03    0.73E-03    0.24E-06
   1      7    11.387     5.382    0.19E-03    0.60E-03    0.21E-06

  PAW_PBE Li_sv 10Sep2004               :
  PAW_PBE Ni 02Aug2007                  :
  PAW_PBE O 08Apr2002                   :

 POSCAR: ce1370_1
  positions in direct lattice
 exchange correlation table for  LEXCH =       14
   RHO(1)=    0.500       N(1)  =     2000
   RHO(2)=  100.500       N(2)  =     4000

 ion  position               nearest neighbor table
   1  0.994  0.250  0.249-  43 2.08  29 2.11  38 2.11  50 2.12  47 2.16  35 2.16
   2  0.994  0.750  0.751-  44 2.08  30 2.11  37 2.11  49 2.12  48 2.16  36 2.16
   3  0.276  0.249  0.515-  51 2.02  39 2.03  41 2.12  47 2.17  27 2.20  18 2.78  20 2.81
   4  0.276  0.751  0.485-  52 2.02  40 2.03  42 2.12  48 2.17  28 2.20  18 2.78  21 2.81
   5  0.508  0.250  0.251-  41 2.09  55 2.10  50 2.11  38 2.12  47 2.15  35 2.16
   6  0.508  0.750  0.749-  42 2.09  56 2.10  49 2.11  37 2.12  48 2.15  36 2.16
   7  0.950  0.250  0.751-  34 2.00  54 2.00  45 2.13  27 2.15  14 2.77  23 2.79
   8  0.950  0.750  0.249-  33 2.00  53 2.00  46 2.13  28 2.15  15 2.77  22 2.79
   9  0.276  0.250  0.984-  31 2.01  57 2.02  55 2.12  45 2.19  35 2.19  26 2.78  13 2.80
  10  0.276  0.750  0.016-  32 2.01  58 2.02  56 2.12  46 2.19  36 2.19  26 2.78  12 2.80
  11  0.001  0.000  0.000-  37 1.87  38 1.87  35 1.88  36 1.88  45 2.02  46 2.02  16 2.77  16 2.79
                            13 2.84  12 2.84  15 2.85  14 2.85
  12  0.251  0.000  0.250-  41 1.84  46 1.84  29 1.84  58 1.85  52 2.02  35 2.07  15 2.78  15 2.78
                            10 2.80  11 2.84  18 2.85  16 2.85  17 2.86
  13  0.251  1.000  0.750-  42 1.84  45 1.84  30 1.84  57 1.85  51 2.02  36 2.07  14 2.78  14 2.78
                             9 2.80  11 2.84  18 2.85  16 2.85  17 2.86
  14  0.750  0.999  0.750-  30 1.86  57 1.86  42 1.87  45 1.87  54 1.93  37 1.94   7 2.77  13 2.78
                            13 2.78  16 2.84  17 2.84  18 2.85  11 2.85
  15  0.750  0.001  0.250-  29 1.86  58 1.86  41 1.87  46 1.87  53 1.93  38 1.94   8 2.77  12 2.78
                            12 2.78  16 2.84  17 2.84  18 2.85  11 2.85
  16  0.503  0.000  0.000-  37 1.87  38 1.87  35 1.88  36 1.88  57 1.92  58 1.92  11 2.77  11 2.79
                            15 2.84  14 2.84  13 2.85  12 2.85
  17  0.998  0.000  0.500-  53 1.85  54 1.85  51 1.85  52 1.85  29 2.04  30 2.04  18 2.77  18 2.79
                            15 2.84  14 2.84  13 2.86  12 2.86
  18  0.500  0.000  0.500-  53 1.86  54 1.86  51 1.86  52 1.86  41 2.04  42 2.04  17 2.77   4 2.78
                             3 2.78  17 2.79  12 2.85  13 2.85  14 2.85  15 2.85
  19  0.000  0.500  0.500-  49 1.87  50 1.87  47 1.88  48 1.88  27 2.02  28 2.02  24 2.77  24 2.79
                            21 2.84  20 2.84  23 2.85  22 2.85
  20  0.250  0.500  0.749-  39 1.84  27 1.84  44 1.84  56 1.85  31 2.03  48 2.08  23 2.78  23 2.78
                             3 2.81  19 2.84  24 2.85  26 2.85  25 2.86
  21  0.250  0.500  0.251-  40 1.84  28 1.84  43 1.84  55 1.85  32 2.03  47 2.08  22 2.78  22 2.78
                             4 2.81  19 2.84  24 2.85  26 2.85  25 2.86
  22  0.750  0.499  0.250-  43 1.86  40 1.86  55 1.87  28 1.87  33 1.92  50 1.93  21 2.78  21 2.78
                             8 2.79  24 2.84  25 2.84  26 2.85  19 2.85
  23  0.750  0.501  0.750-  44 1.86  39 1.86  56 1.87  27 1.87  34 1.92  49 1.93  20 2.78  20 2.78
                             7 2.79  24 2.84  25 2.84  26 2.85  19 2.85
  24  0.502  0.500  0.500-  49 1.88  50 1.88  47 1.88  48 1.88  39 1.93  40 1.93  19 2.77  19 2.79
                            23 2.84  22 2.84  21 2.85  20 2.85
  25  0.998  0.500  0.000-  33 1.84  34 1.84  31 1.85  32 1.85  43 2.05  44 2.05  26 2.77  26 2.79
                            23 2.84  22 2.84  21 2.86  20 2.86
  26  0.500  0.500  0.000-  33 1.86  34 1.86  31 1.86  32 1.86  55 2.05  56 2.05  25 2.77  10 2.78
                             9 2.78  25 2.79  22 2.85  23 2.85  20 2.85  21 2.85
  27  0.003  0.397  0.641-  20 1.84  23 1.87  19 2.02   7 2.15   3 2.20
  28  0.003  0.603  0.359-  21 1.84  22 1.87  19 2.02   8 2.15   4 2.20
  29  0.002  0.105  0.358-  12 1.84  15 1.86  17 2.04   1 2.11
  30  0.002  0.895  0.642-  13 1.84  14 1.86  17 2.04   2 2.11
  31  0.247  0.397  0.891-  25 1.85  26 1.86   9 2.01  20 2.03
  32  0.247  0.603  0.109-  25 1.85  26 1.86  10 2.01  21 2.03
  33  0.751  0.597  0.115-  25 1.84  26 1.86  22 1.92   8 2.00
  34  0.751  0.403  0.885-  25 1.84  26 1.86  23 1.92   7 2.00
  35  0.252  0.110  0.109-  16 1.88  11 1.88  12 2.07   5 2.16   1 2.16   9 2.19
  36  0.252  0.890  0.891-  16 1.88  11 1.88  13 2.07   6 2.16   2 2.16  10 2.19
  37  0.752  0.898  0.884-  16 1.87  11 1.87  14 1.94   2 2.11   6 2.12
  38  0.752  0.102  0.116-  16 1.87  11 1.87  15 1.94   1 2.11   5 2.12
  39  0.498  0.403  0.636-  20 1.84  23 1.86  24 1.93   3 2.03
  40  0.498  0.597  0.364-  21 1.84  22 1.86  24 1.93   4 2.03
  41  0.497  0.106  0.359-  12 1.84  15 1.87  18 2.04   5 2.09   3 2.12
  42  0.497  0.894  0.641-  13 1.84  14 1.87  18 2.04   6 2.09   4 2.12
  43  0.003  0.394  0.143-  21 1.84  22 1.86  25 2.05   1 2.08
  44  0.003  0.606  0.857-  20 1.84  23 1.86  25 2.05   2 2.08
  45  0.003  0.104  0.859-  13 1.84  14 1.87  11 2.02   7 2.13   9 2.19
  46  0.003  0.896  0.141-  12 1.84  15 1.87  11 2.02   8 2.13  10 2.19
  47  0.251  0.389  0.392-  24 1.88  19 1.88  21 2.08   5 2.15   1 2.16   3 2.17
  48  0.251  0.611  0.608-  24 1.88  19 1.88  20 2.08   6 2.15   2 2.16   4 2.17
  49  0.751  0.602  0.617-  19 1.87  24 1.88  23 1.93   6 2.11   2 2.12
  50  0.751  0.398  0.383-  19 1.87  24 1.88  22 1.93   5 2.11   1 2.12
  51  0.247  0.103  0.609-  17 1.85  18 1.86   3 2.02  13 2.02
  52  0.247  0.897  0.391-  17 1.85  18 1.86   4 2.02  12 2.02
  53  0.750  0.902  0.385-  17 1.85  18 1.86  15 1.93   8 2.00
  54  0.750  0.098  0.615-  17 1.85  18 1.86  14 1.93   7 2.00
  55  0.497  0.394  0.142-  21 1.85  22 1.87  26 2.05   5 2.10   9 2.12
  56  0.497  0.606  0.858-  20 1.85  23 1.87  26 2.05   6 2.10  10 2.12
  57  0.499  0.097  0.865-  13 1.85  14 1.86  16 1.92   9 2.02
  58  0.499  0.903  0.135-  12 1.85  15 1.86  16 1.92  10 2.02

  LATTYP: Found a simple monoclinic cell.
 ALAT       =    11.5101268780
 B/A-ratio  =     0.4832396767
 C/A-ratio  =     1.6761791958
 COS(beta)  =    -0.9043519568

  Lattice vectors:

 A1 = (  -6.3577642529,   0.0000000000,  -9.5948868910)
 A2 = (   0.0000000000,  -5.5621499916,   0.0000000000)
 A3 = (   2.7735387047,   0.0000000000,  19.0926344656)

Analysis of symmetry for initial positions (statically):
 Subroutine PRICEL returns:
 Original cell was already a primitive cell.

 Routine SETGRP: Setting up the symmetry group for a
 simple monoclinic supercell.

 Subroutine GETGRP returns: Found  2 space group operations
 (whereof  2 operations were pure point group operations)
 out of a pool of  4 trial point group operations.

The static configuration has the point symmetry C_2 .

Analysis of symmetry for dynamics (positions and initial velocities):
 Subroutine PRICEL returns:
 Original cell was already a primitive cell.

[...]

The dynamic configuration has the point symmetry C_2 .

Analysis of structural, dynamic, and magnetic symmetry:
 Subroutine PRICEL returns:
 Original cell was already a primitive cell.

 Routine SETGRP: Setting up the symmetry group for a
 simple monoclinic supercell.

 Subroutine GETGRP returns: Found  2 space group operations
 (whereof  2 operations were pure point group operations)
 out of a pool of  4 trial point group operations.

The magnetic configuration has the point symmetry C_2 .

 Subroutine INISYM returns: Found  2 space group operations
 (whereof  2 operations are pure point group operations),
 and found     1 'primitive' translations

 KPOINTS: Automatic mesh

Automatic generation of k-mesh.
Space group operators:
 irot       det(A)        alpha          n_x          n_y          n_z        tau_x        tau_y        tau_z
    1     1.000000     0.000000     1.000000     0.000000     0.000000     0.000000     0.000000     0.000000
    2     1.000000   180.000000     0.000000     1.000000     0.000000     0.000000     0.000000     0.000000

 Subroutine IBZKPT returns following result:

 Found      1 irreducible k-points:

 Following reciprocal coordinates:
            Coordinates               Weight
  0.000000  0.000000  0.000000      1.000000

 Following cartesian coordinates:
            Coordinates               Weight
  0.000000  0.000000  0.000000      1.000000

 SYSTEM =  unknown system
 POSCAR =  ce1370_1

 Startparameter for this run:
   NWRITE =      1    write-flag & timer
   PREC   = accura    normal or accurate (medium, high low for compatibility)
   ISTART =      0    job   : 0-new  1-cont  2-samecut
   ICHARG =      2    charge: 1-file 2-atom 10-const
   ISPIN  =      2    spin polarized calculation?
   LNONCOLLINEAR =      F non collinear calculations
   LSORBIT =      F    spin-orbit coupling
   INIWAV =      1    electr: 0-lowe 1-rand  2-diag
   LASPH  =      F    aspherical Exc in radial PAW
[...]
   0.134E-04 -.282E+02 -.215E-05   -.298E-11 0.282E+02 0.212E-11   0.000E+00 -.163E-01 0.242E-25   0.999E-11 0.151E-01 -.167E-11
   -.106E-04 0.272E+02 0.197E-05   0.114E-11 -.273E+02 0.322E-11   0.000E+00 0.107E-01 0.170E-24   -.124E-10 -.946E-02 -.605E-13
   0.401E-05 -.279E+02 -.747E-06   0.169E-11 0.281E+02 0.299E-11   0.258E-25 -.238E+00 0.755E-25   -.534E-11 0.101E-01 -.144E-11
   0.265E-05 0.255E+02 -.406E-06   -.566E-11 -.255E+02 -.864E-11   0.000E+00 0.255E-01 0.808E-26   0.400E-11 -.430E-02 -.181E-11
   -.304E+02 -.115E+02 0.433E+02   0.312E+02 0.115E+02 -.438E+02   -.785E+00 0.149E-02 0.529E+00   -.374E-01 -.966E-02 -.122E-01
   0.304E+02 -.115E+02 -.433E+02   -.312E+02 0.115E+02 0.438E+02   0.785E+00 0.149E-02 -.529E+00   0.374E-01 -.966E-02 0.122E-01
   0.329E+02 0.140E+02 -.399E+02   -.333E+02 -.142E+02 0.404E+02   0.298E+00 0.105E+00 -.483E+00   0.347E-01 0.797E-02 0.118E-01
   -.329E+02 0.140E+02 0.399E+02   0.333E+02 -.142E+02 -.404E+02   -.298E+00 0.105E+00 0.483E+00   -.347E-01 0.797E-02 -.118E-01
   0.686E-05 -.283E+02 -.105E-05   -.765E-11 0.283E+02 -.101E-10   0.339E-25 -.728E-01 0.774E-25   0.405E-11 0.397E-02 -.112E-11
   -.863E-05 0.263E+02 0.168E-05   -.367E-11 -.263E+02 -.875E-11   0.000E+00 0.385E-02 -.323E-26   -.845E-11 -.108E-01 0.594E-11
   0.262E-05 -.288E+02 -.508E-06   -.328E-11 0.290E+02 -.890E-11   0.000E+00 -.201E+00 -.291E-25   -.644E-11 0.132E-01 0.649E-11
   0.140E+02 0.262E+02 0.346E+03   -.182E+02 -.282E+02 -.364E+03   0.420E+01 0.198E+01 0.181E+02   -.266E-01 -.101E-01 0.675E-02
   -.140E+02 0.262E+02 -.346E+03   0.182E+02 -.282E+02 0.364E+03   -.420E+01 0.198E+01 -.181E+02   0.266E-01 -.101E-01 -.675E-02
   -.555E+02 0.243E+02 -.321E+03   0.608E+02 -.257E+02 0.338E+03   -.526E+01 0.146E+01 -.174E+02   0.261E-01 -.128E-01 0.924E-02
   0.555E+02 0.243E+02 0.321E+03   -.608E+02 -.257E+02 -.338E+03   0.526E+01 0.146E+01 0.174E+02   -.261E-01 -.128E-01 -.924E-02
   0.402E+02 -.226E+02 0.331E+03   -.461E+02 0.240E+02 -.348E+03   0.600E+01 -.141E+01 0.170E+02   -.150E-01 -.313E-02 -.118E-01
   -.402E+02 -.226E+02 -.331E+03   0.461E+02 0.240E+02 0.348E+03   -.600E+01 -.141E+01 -.170E+02   0.150E-01 -.313E-02 0.118E-01
   0.315E+01 0.306E+02 -.339E+03   -.328E+01 -.331E+02 0.359E+03   0.101E+00 0.246E+01 -.199E+02   0.228E-01 0.188E-02 0.686E-02
   -.315E+01 0.306E+02 0.339E+03   0.328E+01 -.331E+02 -.359E+03   -.101E+00 0.246E+01 0.199E+02   -.228E-01 0.188E-02 -.686E-02
   -.508E+01 0.672E+01 -.300E+03   0.809E+01 -.694E+01 0.313E+03   -.304E+01 0.213E+00 -.133E+02   0.257E-01 0.373E-02 0.415E-01
   0.508E+01 0.672E+01 0.300E+03   -.809E+01 -.694E+01 -.313E+03   0.304E+01 0.213E+00 0.133E+02   -.257E-01 0.373E-02 -.415E-01
   -.273E+02 -.508E+01 0.311E+03   0.288E+02 0.525E+01 -.327E+03   -.152E+01 -.164E+00 0.166E+02   -.364E-01 -.378E-02 -.343E-01
   0.273E+02 -.508E+01 -.311E+03   -.288E+02 0.525E+01 0.327E+03   0.152E+01 -.164E+00 -.166E+02   0.364E-01 -.378E-02 0.343E-01
   -.233E+02 -.316E+02 0.355E+03   0.233E+02 0.342E+02 -.376E+03   0.490E-01 -.266E+01 0.201E+02   -.163E-01 0.105E-01 0.170E-03
   0.233E+02 -.316E+02 -.355E+03   -.233E+02 0.342E+02 0.376E+03   -.490E-01 -.266E+01 -.201E+02   0.163E-01 0.105E-01 -.170E-03
   -.663E+02 -.285E+02 -.305E+03   0.717E+02 0.304E+02 0.321E+03   -.543E+01 -.195E+01 -.160E+02   0.324E-01 0.130E-01 0.366E-02
   0.663E+02 -.285E+02 0.305E+03   -.717E+02 0.304E+02 -.321E+03   0.543E+01 -.195E+01 0.160E+02   -.324E-01 0.130E-01 -.366E-02
   0.578E+02 0.230E+02 0.320E+03   -.635E+02 -.242E+02 -.337E+03   0.568E+01 0.120E+01 0.174E+02   0.198E-01 -.111E-01 0.114E-01
   -.578E+02 0.230E+02 -.320E+03   0.635E+02 -.242E+02 0.337E+03   -.568E+01 0.120E+01 -.174E+02   -.198E-01 -.111E-01 -.114E-01
   -.313E+02 0.251E+02 -.340E+03   0.372E+02 -.269E+02 0.357E+03   -.580E+01 0.174E+01 -.170E+02   -.369E-01 -.134E-01 0.157E-01
   0.313E+02 0.251E+02 0.340E+03   -.372E+02 -.269E+02 -.357E+03   0.580E+01 0.174E+01 0.170E+02   0.369E-01 -.134E-01 -.157E-01
   0.956E+01 0.506E+01 0.300E+03   -.119E+02 -.536E+01 -.314E+03   0.235E+01 0.309E+00 0.138E+02   0.205E-01 -.118E-01 0.191E-01
   -.956E+01 0.506E+01 -.300E+03   0.119E+02 -.536E+01 0.314E+03   -.235E+01 0.309E+00 -.138E+02   -.205E-01 -.118E-01 -.191E-01
   0.243E+02 -.351E+01 -.313E+03   -.259E+02 0.367E+01 0.328E+03   0.154E+01 -.175E+00 -.153E+02   -.154E-01 0.123E-01 -.242E-01
   -.243E+02 -.351E+01 0.313E+03   0.259E+02 0.367E+01 -.328E+03   -.154E+01 -.175E+00 0.153E+02   0.154E-01 0.123E-01 0.242E-01
   -.322E+02 -.243E+02 -.333E+03   0.377E+02 0.257E+02 0.349E+03   -.548E+01 -.143E+01 -.168E+02   -.224E-01 0.855E-02 -.524E-02
   0.322E+02 -.243E+02 0.333E+03   -.377E+02 0.257E+02 -.349E+03   0.548E+01 -.143E+01 0.168E+02   0.224E-01 0.855E-02 0.524E-02
   -.105E+02 0.322E+02 0.339E+03   0.109E+02 -.347E+02 -.359E+03   -.409E+00 0.253E+01 0.195E+02   0.161E-01 -.885E-02 0.116E-01
   0.105E+02 0.322E+02 -.339E+03   -.109E+02 -.347E+02 0.359E+03   0.409E+00 0.253E+01 -.195E+02   -.161E-01 -.885E-02 -.116E-01
   0.549E+02 -.270E+02 0.309E+03   -.591E+02 0.286E+02 -.326E+03   0.409E+01 -.158E+01 0.168E+02   0.209E-01 0.112E-01 0.685E-02
   -.549E+02 -.270E+02 -.309E+03   0.591E+02 0.286E+02 0.326E+03   -.409E+01 -.158E+01 -.168E+02   -.209E-01 0.112E-01 -.685E-02
   0.183E+02 -.308E+02 -.355E+03   -.181E+02 0.332E+02 0.375E+03   -.179E+00 -.241E+01 -.198E+02   -.383E-01 0.136E-01 0.156E-01
   -.183E+02 -.308E+02 0.355E+03   0.181E+02 0.332E+02 -.375E+03   0.179E+00 -.241E+01 0.198E+02   0.383E-01 0.136E-01 -.156E-01
   0.950E-05 -.252E+00 -.166E-05   -.959E-13 -.639E-13 0.455E-12   0.000E+00 0.248E+00 0.711E-14   -.127E-10 -.584E-02 0.177E-13

 POSITION                                       TOTAL-FORCE (eV/Angst)
      1.59701      5.52967      2.40967         0.011540      0.003015     -0.000186
      4.77446      5.52967      7.25250        -0.011540      0.003015      0.000186
      4.22966      1.55375      2.42861         0.002044      0.031013     -0.005589
      2.14181      1.55375      7.23355        -0.002044      0.031013      0.005589
      1.60216      2.81619      2.40406        -0.001819      0.001874      0.002493
      4.76931      2.81619      7.25810         0.001819      0.001874     -0.002493
      6.58673      5.24588      2.45090        -0.003617     -0.023566     -0.002658
     -0.21526      5.24588      7.21126         0.003617     -0.023566      0.002658
      8.89094      1.52963      2.47953        -0.009867     -0.008974     -0.007209
     -2.51947      1.52963      7.18264         0.009867     -0.008974      0.007209
     -0.00000      0.00110      0.00000        -0.000000      0.000943      0.000000
      2.49213      1.39031      0.02715        -0.000499     -0.000134      0.003249
      3.87934      1.39031      9.63502         0.000499     -0.000134     -0.003249
      3.88668      4.16143      9.62660        -0.000490     -0.000103     -0.002493
      2.48479      4.16143      0.03556         0.000490     -0.000103      0.002493
     -0.00000      2.78765      0.00000        -0.000000     -0.001561      0.000000
      4.97646      5.53934      0.05234        -0.000000     -0.000928      0.000000
      4.97646      2.77826      0.05234        -0.000000      0.000009      0.000000
      3.18573      0.00222      4.83108        -0.000000     -0.003852      0.000000
      5.66633      1.38864      4.86349         0.002702     -0.001876      0.001140
      0.70514      1.38864      4.79867        -0.002702     -0.001876     -0.001140
      0.69665      4.16035      4.78845        -0.001364      0.000152     -0.001523
      5.67482      4.16035      4.87372         0.001364      0.000152      0.001523
      3.18573      2.78043      4.83108        -0.000000      0.003675      0.000000
     -1.79072      5.54144      4.77874        -0.000000      0.003953      0.000000
     -1.79072      2.77694      4.77874        -0.000000     -0.000395      0.000000
      4.94880      0.01271      3.88058         0.002951     -0.000822      0.003799
      1.42267      0.01271      5.78158        -0.002951     -0.000822     -0.003799
      3.19358      0.01377      1.03747        -0.002359     -0.000368     -0.002997
      3.17789      0.01377      8.62470         0.002359     -0.000368      0.002997
      7.46069      1.37356      3.88657         0.003474      0.001050      0.002057
     -1.08922      1.37356      5.77559        -0.003474      0.001050     -0.002057
     -0.99678      4.16996      5.71550        -0.003659      0.001447     -0.000252
      7.36825      4.16996      3.94666         0.003659      0.001447      0.000252
      0.68102      1.38880      1.04842        -0.004097     -0.000752      0.001392
      5.69045      1.38880      8.61374         0.004097     -0.000752     -0.001392
      5.58061      4.17866      8.68222         0.001958      0.000308     -0.001301
      0.79086      4.17866      0.97994        -0.001958      0.000308      0.001301
      4.88682      2.76337      3.92652         0.002894     -0.000176      0.002970
      1.48465      2.76337      5.73565        -0.002894     -0.000176     -0.002970
      3.14526      2.75797      1.06534        -0.006119      0.000227     -0.000470
      3.22621      2.75797      8.59683         0.006119      0.000227      0.000470
      0.01024      0.01671      3.78784         0.003534      0.000245      0.001343
      6.36123      0.01671      5.87432        -0.003534      0.000245     -0.001343
      8.11875      0.01520      1.10295        -0.002907     -0.000609     -0.002568
     -1.74728      0.01520      8.55922         0.002907     -0.000609      0.002568
      2.52319      1.39110      3.75456         0.001584     -0.000517      0.002815
      3.84828      1.39110      5.90760        -0.001584     -0.000517     -0.002815
      3.97675      4.16813      5.81277        -0.003233     -0.000049     -0.003049
      2.39472      4.16813      3.84939         0.003233     -0.000049      0.003049
      5.68656      1.37889      1.04518        -0.002061     -0.000066     -0.003581
      0.68491      1.37889      8.61698         0.002061     -0.000066      0.003581
      0.59022      4.16028      8.68076         0.002648     -0.000116      0.003454
      5.78125      4.16028      0.98140        -0.002648     -0.000116     -0.003454
     -0.02303      2.75320      3.79864        -0.001195     -0.001616      0.003714
      6.39450      2.75320      5.86352         0.001195     -0.001616     -0.003714
      8.25052      2.76447      1.01959        -0.003619     -0.000508     -0.002312
     -1.87905      2.76447      8.64257         0.003619     -0.000508      0.002312
    total drift:                                0.000010     -0.009798     -0.000002

  FREE ENERGIE OF THE ION-ELECTRON SYSTEM (eV)
  free  energy   TOTEN  =      -354.7695415679 eV

  energy  without entropy=     -354.7518066112  energy(sigma->0) =     -354.76067409

 d Force = 0.1478239E-03[ 0.137E-03, 0.159E-03]  d Energy = 0.1455692E-03 0.225E-05
 d Force =-0.5284891E+00[-0.529E+00,-0.528E+00]  d Ewald  =-0.1585386E+01 0.106E+01

 Quasi-Newton relaxation of ions (Broydens 2nd method)
  g(Force)  = 0.222E-03   g(Stress)= 0.225E-04

 retain information from N=  3 steps
 eigenvalues of (default step * inverse Hessian matrix)
  average eigenvalue of G=   2.0651
 eigenvalue spectrum of G is  1.0988  0.8473  4.2491

volume of typ            1:    14.7 %

[...]

volume of typ            3:     9.8 %

total charge

# of ion       s       p       d       tot
    1        2.074   0.235   0.085   2.394
    2        2.074   0.235   0.085   2.394
    3        2.074   0.229   0.086   2.388
    4        2.074   0.229   0.086   2.388
    5        2.077   0.238   0.087   2.403
    6        2.077   0.238   0.087   2.403
    7        2.075   0.231   0.087   2.393
    8        2.075   0.231   0.087   2.393
    9        2.074   0.230   0.087   2.391
   10        2.074   0.230   0.087   2.391
   11        0.264   0.348   7.873   8.485
   12        0.283   0.387   7.865   8.535
   13        0.283   0.387   7.865   8.535
   14        0.285   0.397   7.842   8.524
   15        0.285   0.397   7.842   8.524
   16        0.279   0.382   7.853   8.514
   17        0.280   0.379   7.861   8.520
   18        0.269   0.357   7.867   8.493
   19        0.268   0.360   7.854   8.481
   20        0.283   0.384   7.868   8.534
   21        0.283   0.384   7.868   8.534
   22        0.284   0.393   7.847   8.524
   23        0.284   0.393   7.847   8.524
   24        0.279   0.385   7.850   8.514
   25        0.282   0.382   7.859   8.523
   26        0.272   0.369   7.847   8.489
   27        1.265   2.771   0.007   4.043
   28        1.265   2.771   0.007   4.043
   29        1.265   2.772   0.007   4.043
   30        1.265   2.772   0.007   4.043
   31        1.264   2.778   0.007   4.048
   32        1.264   2.778   0.007   4.048
   33        1.266   2.774   0.007   4.047
   34        1.266   2.774   0.007   4.047
   35        1.259   2.788   0.006   4.053
   36        1.259   2.788   0.006   4.053
   37        1.261   2.783   0.007   4.051
   38        1.261   2.783   0.007   4.051
   39        1.267   2.772   0.008   4.046
   40        1.267   2.772   0.008   4.046
   41        1.262   2.783   0.006   4.051
   42        1.262   2.783   0.006   4.051
   43        1.265   2.772   0.007   4.044
   44        1.265   2.772   0.007   4.044
   45        1.263   2.779   0.006   4.048
   46        1.263   2.779   0.006   4.048
   47        1.258   2.788   0.006   4.052
   48        1.258   2.788   0.006   4.052
   49        1.265   2.779   0.007   4.050
   50        1.265   2.779   0.007   4.050
   51        1.262   2.780   0.007   4.049
   52        1.262   2.780   0.007   4.049
   53        1.266   2.776   0.008   4.049
   54        1.266   2.776   0.008   4.049
   55        1.263   2.777   0.007   4.047
   56        1.263   2.777   0.007   4.047
   57        1.267   2.772   0.007   4.046
   58        1.267   2.772   0.007   4.046
tot          65.65   97.29  126.79  289.73

magnetization (x)

# of ion       s       p       d       tot
    1        0.006   0.012   0.001   0.019
    2        0.006   0.012   0.001   0.019
    3       -0.005  -0.007  -0.001  -0.012
    4       -0.005  -0.007  -0.001  -0.012
    5        0.001   0.006  -0.001   0.007
    6        0.001   0.006  -0.001   0.007
    7        0.002   0.006   0.001   0.009
    8        0.002   0.006   0.001   0.009
    9       -0.005  -0.007  -0.001  -0.013
   10       -0.005  -0.007  -0.001  -0.013
   11        0.004  -0.000   0.658   0.661
   12       -0.005  -0.000  -0.590  -0.595
   13       -0.005  -0.000  -0.590  -0.595
   14       -0.001   0.000  -0.173  -0.173
   15       -0.001   0.000  -0.173  -0.173
   16        0.001  -0.000   0.332   0.332
   17        0.005  -0.000   0.520   0.525
   18       -0.003  -0.000  -0.481  -0.484
   19        0.002   0.000   0.540   0.541
   20       -0.006  -0.000  -0.617  -0.623
   21       -0.006  -0.000  -0.617  -0.623
   22       -0.001   0.000  -0.070  -0.071
   23       -0.001   0.000  -0.070  -0.071
   24        0.001  -0.000   0.360   0.360
   25        0.006   0.000   0.598   0.604
   26        0.003   0.000   0.425   0.428
   27        0.003   0.025   0.000   0.028
   28        0.003   0.025   0.000   0.028
   29        0.003   0.039   0.000   0.043
   30        0.003   0.039   0.000   0.043
   31       -0.005  -0.069  -0.000  -0.074
   32       -0.005  -0.069  -0.000  -0.074
   33        0.002   0.022   0.000   0.024
   34        0.002   0.022   0.000   0.024
   35       -0.002  -0.048  -0.000  -0.050
   36       -0.002  -0.048  -0.000  -0.050
   37        0.002   0.011   0.000   0.013
   38        0.002   0.011   0.000   0.013
   39        0.001   0.002   0.000   0.003
   40        0.001   0.002   0.000   0.003
   41       -0.007  -0.078  -0.000  -0.085
   42       -0.007  -0.078  -0.000  -0.085
   43        0.005   0.054   0.000   0.059
   44        0.005   0.054   0.000   0.059
   45        0.005   0.077   0.000   0.082
   46        0.005   0.077   0.000   0.082
   47       -0.002  -0.041  -0.000  -0.043
   48       -0.002  -0.041  -0.000  -0.043
   49        0.006   0.020   0.000   0.026
   50        0.006   0.020   0.000   0.026
   51       -0.006  -0.067  -0.000  -0.073
   52       -0.006  -0.067  -0.000  -0.073
   53       -0.002  -0.007  -0.000  -0.009
   54       -0.002  -0.007  -0.000  -0.009
   55        0.003   0.022   0.000   0.025
   56        0.003   0.022   0.000   0.025
   57        0.000   0.004   0.000   0.004
   58        0.000   0.004   0.000   0.004
tot           0.00   -0.05    0.05    0.01