 vasp.5.4.4.18Apr17-6-g9f103f2a35 (build May 12 2020 05:39:39) gamma-only

 MD_VERSION_INFO: Compiled 2020-05-12T12:39:39-UTC in devlin.sd.materialsdesign.
 com:/home/medea2/data/build/wwolf/vasp-gpu5.4.4/13047/x86_64/src/src/build/gam
 from svn 13047

 executed on                        Lin64 date 2023.03.07  02:57:29

 INCAR:
 POTCAR:    PAW_PBE Li_sv 10Sep2004
 POTCAR:    PAW_PBE Ni 02Aug2007
 POTCAR:    PAW_PBE O 08Apr2002

 POTCAR:    PAW_PBE Li_sv 10Sep2004

 POTCAR:    PAW_PBE Ni 02Aug2007

 POTCAR:    PAW_PBE O 08Apr2002

 Optimization of the real space projectors (new method)

 maximal supplied QI-value         = 22.11
 optimisation between [QCUT,QGAM] = [ 11.28, 22.77] = [ 35.61,145.23] Ry
 Optimized for a Real-space Cutoff    1.10 Angstroem

   l    n(q)    QCUT    max X(q) W(low)/X(q) W(high)/X(q)  e(spline)
   0      7    11.276    10.506    0.54E-04    0.58E-04    0.16E-07
   0      7    11.276     8.367    0.11E-03    0.14E-03    0.35E-07
   1      7    11.276     8.983    0.23E-03    0.43E-03    0.86E-07
 Optimization of the real space projectors (new method)

[...]

   l    n(q)    QCUT    max X(q) W(low)/X(q) W(high)/X(q)  e(spline)
   2      9    11.376    60.317    0.17E-03    0.16E-04    0.16E-06
   2      9    11.376    55.921    0.17E-03    0.16E-04    0.17E-06
   0     10    11.376    51.690    0.45E-04    0.60E-04    0.21E-06
   0     10    11.376    30.015    0.37E-04    0.55E-04    0.19E-06
   1     10    11.376    18.849    0.83E-04    0.11E-03    0.92E-07
   1     10    11.376    14.624    0.69E-04    0.92E-04    0.82E-07
 Optimization of the real space projectors (new method)

 maximal supplied QI-value         = 24.76
 optimisation between [QCUT,QGAM] = [ 11.39, 22.77] = [ 36.31,145.25] Ry
 Optimized for a Real-space Cutoff    1.10 Angstroem

   l    n(q)    QCUT    max X(q) W(low)/X(q) W(high)/X(q)  e(spline)
   0      7    11.387    20.381    0.22E-03    0.48E-03    0.18E-06
   0      7    11.387    15.268    0.22E-03    0.52E-03    0.19E-06
   1      7    11.387     5.964    0.22E-03    0.73E-03    0.24E-06
   1      7    11.387     5.382    0.19E-03    0.60E-03    0.21E-06

  PAW_PBE Li_sv 10Sep2004               :
  PAW_PBE Ni 02Aug2007                  :
  PAW_PBE O 08Apr2002                   :

 POSCAR: ce17285_1
  positions in direct lattice
 exchange correlation table for  LEXCH =       14
   RHO(1)=    0.500       N(1)  =     2000
   RHO(2)=  100.500       N(2)  =     4000

 ion  position               nearest neighbor table
   1  0.516  0.250  0.268-  34 2.02  43 2.06  40 2.17  31 2.20  48 2.28  17 2.79
   2  0.503  0.749  0.752-  49 2.09  30 2.14  29 2.15  35 2.16  42 2.16  41 2.18
   3  0.235  0.254  0.982-  24 2.00  38 2.05  50 2.15  36 2.19   6 2.81  18 2.83
   4  0.999  0.996  0.999-  30 1.85  31 1.86  29 1.86  28 1.86  39 1.93  38 1.95   9 2.77   9 2.78
                             8 2.79   5 2.80   7 2.81   6 2.81
   5  0.249  0.996  0.249-  39 1.83  22 1.84  34 1.84  51 1.85  45 1.89  28 1.94   8 2.77   8 2.79
                             4 2.80  10 2.80   9 2.80  11 2.81
   6  0.249  0.000  0.750-  38 1.83  23 1.84  35 1.84  50 1.85  44 1.88  29 1.91   7 2.77   7 2.79
                            10 2.80  11 2.80   3 2.81   4 2.81   9 2.81
   7  0.751  0.005  0.752-  35 1.84  23 1.84  38 1.85  50 1.87  47 1.89  30 1.92   6 2.77   6 2.79
                            10 2.80   4 2.81  11 2.81   9 2.81
   8  0.751  0.994  0.248-  39 1.83  22 1.84  34 1.85  51 1.85  46 1.88  31 1.90   5 2.77   5 2.79
                             4 2.79  10 2.80  11 2.80   9 2.80
   9  0.500  0.997  1.000-  30 1.84  31 1.84  28 1.84  29 1.85  51 1.89  50 1.91   4 2.77   4 2.78
                             5 2.80   8 2.80   7 2.81   6 2.81
  10  1.000  1.000  0.500-  47 1.84  46 1.84  45 1.85  44 1.85  22 1.89  23 1.89  11 2.78  11 2.78
                             6 2.80   8 2.80   5 2.80   7 2.80
  11  0.500  1.000  0.500-  47 1.84  45 1.84  46 1.84  44 1.84  34 1.95  35 1.96  10 2.78  10 2.78
                             6 2.80   8 2.80   5 2.81   7 2.81
  12  0.000  0.500  0.500-  43 1.85  41 1.86  42 1.86  40 1.86  20 1.94  21 1.95  17 2.78  17 2.78
                            13 2.79  16 2.79  14 2.81  15 2.81
  13  0.249  0.495  0.747-  20 1.83  49 1.84  37 1.85  32 1.85  41 1.89  24 1.92  16 2.77  16 2.79
                            12 2.79  17 2.80  18 2.81  19 2.82
  14  0.250  0.507  0.252-  21 1.83  48 1.84  33 1.85  36 1.85  25 1.89  40 1.90  15 2.77  15 2.79
                            19 2.80  18 2.80  12 2.81  17 2.81
  15  0.751  0.504  0.250-  21 1.83  33 1.85  36 1.86  48 1.86  26 1.90  43 1.91  14 2.77  14 2.79
                            19 2.79  18 2.79  17 2.81  12 2.81
  16  0.751  0.496  0.748-  20 1.83  49 1.84  37 1.84  32 1.85  27 1.88  42 1.89  13 2.77  13 2.79
                            12 2.79  17 2.80  18 2.81  19 2.81
  17  0.500  0.500  0.500-  42 1.84  43 1.84  41 1.84  40 1.84  32 1.90  33 1.91  12 2.78  12 2.78
                             1 2.79  13 2.80  16 2.80  14 2.81  15 2.81
  18  0.999  0.506  0.002-  26 1.84  27 1.85  24 1.85  25 1.85  37 1.88  36 1.89  19 2.77  15 2.79
                            19 2.79  14 2.80  16 2.81  13 2.81   3 2.83
  19  0.501  0.506  0.003-  26 1.83  27 1.84  25 1.85  24 1.85  49 1.96  48 1.96  18 2.77  15 2.79
                            18 2.79  14 2.80  16 2.81  13 2.82
  20  1.000  0.398  0.637-  13 1.83  16 1.83  12 1.94
  21  0.998  0.602  0.363-  14 1.83  15 1.83  12 1.95
  22  1.000  0.093  0.361-   5 1.84   8 1.84  10 1.89
  23  0.997  0.905  0.638-   6 1.84   7 1.84  10 1.89
  24  0.251  0.405  0.892-  19 1.85  18 1.85  13 1.92   3 2.00
  25  0.251  0.603  0.116-  19 1.85  18 1.85  14 1.89
  26  0.750  0.603  0.115-  19 1.83  18 1.84  15 1.90
  27  0.750  0.407  0.890-  19 1.84  18 1.85  16 1.88
  28  0.251  0.098  0.112-   9 1.84   4 1.86   5 1.94
  29  0.252  0.900  0.884-   9 1.85   4 1.86   6 1.91   2 2.15
  30  0.747  0.901  0.884-   9 1.84   4 1.85   7 1.92   2 2.14
  31  0.749  0.095  0.115-   9 1.84   4 1.86   8 1.90   1 2.20
  32  0.500  0.399  0.633-  13 1.85  16 1.85  17 1.90
  33  0.502  0.601  0.366-  14 1.85  15 1.85  17 1.91
  34  0.500  0.096  0.357-   5 1.84   8 1.85  11 1.95   1 2.02
  35  0.503  0.902  0.642-   7 1.84   6 1.84  11 1.96   2 2.16
  36  0.004  0.407  0.136-  14 1.85  15 1.86  18 1.89   3 2.19
  37  0.000  0.595  0.861-  16 1.84  13 1.85  18 1.88
  38  0.005  0.100  0.863-   6 1.83   7 1.85   4 1.95   3 2.05
  39  0.001  0.897  0.138-   8 1.83   5 1.83   4 1.93
  40  0.252  0.404  0.384-  17 1.84  12 1.86  14 1.90   1 2.17
  41  0.251  0.596  0.616-  17 1.84  12 1.86  13 1.89   2 2.18
  42  0.749  0.596  0.616-  17 1.84  12 1.86  16 1.89   2 2.16
  43  0.749  0.404  0.385-  17 1.84  12 1.85  15 1.91   1 2.06
  44  0.250  0.096  0.614-  11 1.84  10 1.85   6 1.88
  45  0.250  0.902  0.387-  11 1.84  10 1.85   5 1.89
  46  0.750  0.902  0.386-  11 1.84  10 1.84   8 1.88
  47  0.750  0.097  0.613-  11 1.84  10 1.84   7 1.89
  48  0.496  0.403  0.141-  14 1.84  15 1.86  19 1.96   1 2.28
  49  0.500  0.598  0.855-  16 1.84  13 1.84  19 1.96   2 2.09
  50  0.495  0.100  0.867-   6 1.85   7 1.87   9 1.91   3 2.15
  51  0.499  0.899  0.134-   5 1.85   8 1.85   9 1.89

  LATTYP: Found a triclinic cell.
 ALAT       =     9.7363383809
 B/A-ratio  =     1.9245943930
 C/A-ratio  =     0.5707875880
 COS(alpha) =     0.0003098584
 COS(beta)  =     0.0004556903
 COS(gamma) =     0.8591988204

  Lattice vectors:

 A1 = (  -9.7355677026,  -0.0023090380,  -0.1224795672)
 A2 = ( -15.9782187921,  -0.0031273247,  -9.7891767402)
 A3 = (  -0.0012204995,  -5.5573809467,   0.0004712780)

Analysis of symmetry for initial positions (statically):
 Subroutine PRICEL returns:
 Original cell was already a primitive cell.

 Routine SETGRP: Setting up the symmetry group for a
 triclinic supercell.

 Subroutine GETGRP returns: Found  1 space group operations
 (whereof  1 operations were pure point group operations)
 out of a pool of  2 trial point group operations.

The static configuration has the point symmetry C_1 .

Analysis of symmetry for dynamics (positions and initial velocities):
 Subroutine PRICEL returns:
 Original cell was already a primitive cell.

[...]

The dynamic configuration has the point symmetry C_1 .

Analysis of structural, dynamic, and magnetic symmetry:
 Subroutine PRICEL returns:
 Original cell was already a primitive cell.

 Routine SETGRP: Setting up the symmetry group for a
 triclinic supercell.

 Subroutine GETGRP returns: Found  1 space group operations
 (whereof  1 operations were pure point group operations)
 out of a pool of  2 trial point group operations.

The magnetic configuration has the point symmetry C_1 .

 Subroutine INISYM returns: Found  1 space group operations
 (whereof  1 operations are pure point group operations),
 and found     1 'primitive' translations

 KPOINTS: Automatic mesh

Automatic generation of k-mesh.
Space group operators:
 irot       det(A)        alpha          n_x          n_y          n_z        tau_x        tau_y        tau_z
    1     1.000000     0.000000     1.000000     0.000000     0.000000     0.000000     0.000000     0.000000

 Subroutine IBZKPT returns following result:

 Found      1 irreducible k-points:

 Following reciprocal coordinates:
            Coordinates               Weight
  0.000000  0.000000  0.000000      1.000000

 Following cartesian coordinates:
            Coordinates               Weight
  0.000000  0.000000  0.000000      1.000000

 SYSTEM =  unknown system
 POSCAR =  ce17285_1

 Startparameter for this run:
   NWRITE =      1    write-flag & timer
   PREC   = accura    normal or accurate (medium, high low for compatibility)
   ISTART =      0    job   : 0-new  1-cont  2-samecut
   ICHARG =      2    charge: 1-file 2-atom 10-const
   ISPIN  =      2    spin polarized calculation?
   LNONCOLLINEAR =      F non collinear calculations
   LSORBIT =      F    spin-orbit coupling
   INIWAV =      1    electr: 0-lowe 1-rand  2-diag
   LASPH  =      F    aspherical Exc in radial PAW
   METAGGA=      F    non-selfconsistent MetaGGA calc.

 Electronic Relaxation 1
   ENCUT  =  500.0 eV  36.75 Ry    6.06 a.u.  10.13 18.53 17.75*2*pi/ulx,y,z
   ENINI  =  500.0     initial cutoff
   ENAUG  =  628.9 eV  augmentation charge cutoff
   NELM   =     80;   NELMIN=  2; NELMDL= -5     # of ELM steps
   EDIFF  = 0.1E-04   stopping-criterion for ELM
   LREAL  =      T    real-space projection
   NLSPLINE    = F    spline interpolate recip. space projectors
   LCOMPAT=      F    compatible to vasp.4.4
   GGA_COMPAT  = T    GGA compatible to vasp.4.4-vasp.4.6
   LMAXPAW     = -100 max onsite density
   LMAXMIX     =    2 max onsite mixed and CHGCAR
   VOSKOWN=      1    Vosko Wilk Nusair interpolation
   ROPT   =   -0.00025  -0.00025  -0.00025
 Ionic relaxation
   EDIFFG = -.2E-01   stopping-criterion for IOM
   NSW    =     20    number of steps for IOM
   NBLOCK =      1;   KBLOCK =     20    inner block; outer block
   IBRION =      1    ionic relax: 0-MD 1-quasi-New 2-CG
   NFREE  =      0    steps in history (QN), initial steepest desc. (CG)
   ISIF   =      3    stress and relaxation
[...]

  length of vectors
     5.560109652 10.245549696  9.726675704     0.179853132  0.103349863  0.108862856

 FORCES acting on ions
    electron-ion (+dipol)            ewald-force                    non-local-force                 convergence-correction
   -.503E+00 0.847E+00 -.785E+00   0.134E+01 -.503E+00 0.661E+00   -.828E+00 -.333E+00 0.124E+00   0.322E-02 -.811E-03 0.480E-03
   0.560E+01 0.103E+00 0.507E+00   -.532E+01 -.121E-01 -.557E+00   -.277E+00 -.825E-01 0.514E-01   -.354E-02 -.245E-04 0.487E-03
   -.296E+01 -.310E+00 0.203E+01   0.194E+01 -.288E-01 -.193E+01   0.999E+00 0.336E+00 -.896E-01   0.116E-02 -.285E-02 -.347E-02
   -.942E+01 0.116E+02 0.293E+02   0.975E+01 -.118E+02 -.302E+02   -.332E+00 0.176E+00 0.846E+00   0.391E-02 0.464E-02 0.419E-02
   -.193E+02 0.885E+01 0.239E+02   0.199E+02 -.899E+01 -.250E+02   -.530E+00 0.133E+00 0.112E+01   -.122E-02 0.722E-03 -.199E-03
   0.435E+02 0.107E+02 0.667E+01   -.442E+02 -.109E+02 -.668E+01   0.689E+00 0.200E+00 0.201E-01   0.158E-02 0.413E-02 -.488E-02
   0.205E+02 -.942E+01 -.588E+02   -.210E+02 0.962E+01 0.596E+02   0.481E+00 -.200E+00 -.793E+00   0.217E-02 -.764E-02 -.952E-02
   -.229E+02 -.928E+01 0.390E+02   0.233E+02 0.945E+01 -.402E+02   -.448E+00 -.171E+00 0.122E+01   0.158E-02 -.543E-02 -.126E-02
   -.117E+02 -.119E+02 0.134E+02   0.121E+02 0.121E+02 -.138E+02   -.320E+00 -.157E+00 0.458E+00   0.251E-02 -.927E-02 0.554E-02
   0.501E+00 -.271E+01 -.435E+01   -.589E+00 0.270E+01 0.440E+01   0.931E-01 0.542E-02 -.560E-01   -.186E-02 0.792E-03 -.221E-02
   -.168E+00 0.252E+01 -.204E+01   0.766E-01 -.250E+01 0.209E+01   0.919E-01 -.149E-01 -.518E-01   0.126E-02 -.578E-02 -.198E-02
   0.225E+01 -.168E+01 0.811E+01   -.236E+01 0.160E+01 -.820E+01   0.114E+00 0.806E-01 0.876E-01   -.599E-02 0.197E-02 0.279E-02
   -.163E+02 0.104E+02 0.586E+02   0.168E+02 -.105E+02 -.594E+02   -.557E+00 0.115E+00 0.861E+00   -.212E-01 -.443E-02 0.943E-03
   -.137E+02 0.108E+02 -.635E+02   0.136E+02 -.109E+02 0.649E+02   0.662E-01 0.147E+00 -.138E+01   0.218E-01 -.944E-02 -.514E-02
   0.650E+01 -.113E+02 -.208E+02   -.670E+01 0.115E+02 0.219E+02   0.175E+00 -.198E+00 -.114E+01   0.227E-01 0.126E-01 0.394E-02
   -.128E+02 -.106E+02 0.565E+02   0.134E+02 0.108E+02 -.576E+02   -.567E+00 -.131E+00 0.102E+01   -.242E-01 0.825E-02 0.309E-02
   0.112E+01 0.208E+01 -.881E+00   -.114E+01 -.204E+01 0.999E+00   0.136E-01 -.519E-01 -.121E+00   -.440E-02 0.200E-02 0.300E-02
   0.153E+02 0.113E+02 -.473E+02   -.158E+02 -.115E+02 0.485E+02   0.433E+00 0.173E+00 -.118E+01   0.439E-02 0.599E-02 0.169E-02
   0.160E+02 -.104E+02 -.385E+02   -.165E+02 0.105E+02 0.394E+02   0.507E+00 -.120E+00 -.946E+00   0.339E-02 -.170E-02 0.193E-03
   0.118E+02 -.145E+00 0.415E+03   -.130E+02 0.276E-01 -.442E+03   0.128E+01 0.122E+00 0.270E+02   -.964E-02 -.111E-02 -.191E-02
   -.206E+02 0.249E+01 -.404E+03   0.226E+02 -.296E+01 0.430E+03   -.200E+01 0.477E+00 -.268E+02   0.743E-02 0.183E-02 -.254E-02
   -.157E+02 -.125E+01 -.401E+03   0.156E+02 0.113E+01 0.427E+03   0.428E-01 0.105E+00 -.263E+02   -.470E-02 0.114E-01 0.121E-01
   0.174E+02 0.209E+01 0.396E+03   -.175E+02 -.269E+01 -.422E+03   0.112E+00 0.603E+00 0.267E+02   0.383E-02 -.167E-02 -.107E-01
   0.378E+02 -.667E+01 0.366E+03   -.407E+02 0.736E+01 -.387E+03   0.288E+01 -.666E+00 0.201E+02   -.967E-02 -.178E-01 -.192E-01
   0.129E+01 -.183E+01 -.407E+03   -.174E+01 0.187E+01 0.434E+03   0.440E+00 -.212E-01 -.269E+02   0.171E-01 -.184E-01 0.164E-01
   -.561E+01 0.304E+01 -.401E+03   0.619E+01 -.317E+01 0.428E+03   -.585E+00 0.116E+00 -.273E+02   0.151E-01 0.175E-01 0.161E-01
   0.585E+01 0.398E+01 0.397E+03   -.516E+01 -.424E+01 -.423E+03   -.679E+00 0.242E+00 0.258E+02   -.117E-01 0.168E-01 -.182E-01
   -.252E+02 0.287E+02 -.366E+03   0.271E+02 -.308E+02 0.386E+03   -.198E+01 0.204E+01 -.205E+02   0.129E-02 -.124E-01 -.185E-02
   -.895E+01 0.328E+02 0.381E+03   0.968E+01 -.352E+02 -.404E+03   -.727E+00 0.242E+01 0.225E+02   0.413E-02 -.130E-01 0.492E-03
   -.197E+01 -.339E+02 0.371E+03   0.158E+01 0.363E+02 -.393E+03   0.391E+00 -.247E+01 0.224E+02   -.148E-03 0.137E-01 0.227E-02
   0.310E+01 -.300E+02 -.375E+03   -.384E+01 0.323E+02 0.397E+03   0.753E+00 -.232E+01 -.220E+02   -.863E-02 0.140E-01 0.224E-02
   -.745E+01 -.686E+00 0.419E+03   0.774E+01 0.822E+00 -.445E+03   -.287E+00 -.130E+00 0.266E+02   -.865E-02 -.484E-03 -.766E-02
   -.249E+01 -.131E+01 -.410E+03   0.284E+01 0.165E+01 0.437E+03   -.366E+00 -.341E+00 -.268E+02   0.691E-02 -.227E-02 0.258E-02
   -.531E+02 0.364E+01 -.370E+03   0.574E+02 -.379E+01 0.390E+03   -.431E+01 0.159E+00 -.207E+02   0.212E-01 -.973E-02 0.324E-03
   0.536E+02 -.321E+01 0.372E+03   -.578E+02 0.379E+01 -.395E+03   0.426E+01 -.582E+00 0.224E+02   -.218E-01 0.251E-02 0.786E-03
   -.972E+01 0.253E+02 0.372E+03   0.110E+02 -.271E+02 -.395E+03   -.132E+01 0.175E+01 0.223E+02   0.133E-01 0.389E-02 -.182E-02
   -.287E+01 -.127E+01 -.389E+03   0.210E+01 0.152E+01 0.415E+03   0.783E+00 -.248E+00 -.262E+02   -.889E-02 -.605E-03 0.373E-02
   0.441E+01 0.332E+02 -.375E+03   -.349E+01 -.357E+02 0.396E+03   -.922E+00 0.249E+01 -.212E+02   0.103E-01 0.237E-03 0.234E-03
   0.694E+01 -.193E+01 0.400E+03   -.826E+01 0.220E+01 -.427E+03   0.131E+01 -.283E+00 0.270E+02   -.857E-02 0.116E-01 0.279E-02
   -.152E+02 0.335E+02 0.375E+03   0.151E+02 -.361E+02 -.397E+03   0.993E-01 0.258E+01 0.222E+02   -.812E-05 -.536E-02 0.321E-02
   0.167E+02 0.327E+02 -.372E+03   -.174E+02 -.352E+02 0.395E+03   0.773E+00 0.242E+01 -.233E+02   -.750E-02 -.474E-02 -.402E-04
   0.179E+02 -.329E+02 -.371E+03   -.189E+02 0.355E+02 0.394E+03   0.101E+01 -.255E+01 -.229E+02   -.625E-02 0.418E-02 -.144E-02
   -.115E+02 -.369E+02 0.371E+03   0.117E+02 0.399E+02 -.392E+03   -.182E+00 -.295E+01 0.211E+02   0.476E-02 0.393E-02 0.225E-03
   0.188E+02 -.192E+01 -.399E+03   -.197E+02 0.203E+01 0.425E+03   0.936E+00 -.136E+00 -.263E+02   -.127E-01 0.258E-01 -.176E-02
   -.901E+01 -.321E+01 0.393E+03   0.951E+01 0.334E+01 -.420E+03   -.500E+00 -.146E+00 0.268E+02   0.292E-02 0.255E-01 0.493E-02
   -.106E+02 0.234E+01 0.395E+03   0.115E+02 -.243E+01 -.422E+03   -.910E+00 0.114E+00 0.269E+02   0.139E-01 -.243E-01 -.977E-03
   0.110E+02 0.279E+01 -.404E+03   -.120E+02 -.296E+01 0.430E+03   0.930E+00 0.184E+00 -.265E+02   -.987E-02 -.246E-01 -.169E-02
   0.265E+02 -.236E+02 0.361E+03   -.290E+02 0.250E+02 -.381E+03   0.246E+01 -.140E+01 0.201E+02   0.276E-01 -.626E-02 -.104E-01
   -.434E+02 0.246E+01 -.362E+03   0.475E+02 -.284E+01 0.383E+03   -.414E+01 0.384E+00 -.211E+02   -.247E-01 -.275E-03 0.117E-01
   0.206E+02 -.303E+02 -.387E+03   -.212E+02 0.325E+02 0.409E+03   0.576E+00 -.226E+01 -.220E+02   -.226E-02 0.103E-02 0.284E-02
   -.116E+02 0.590E+00 0.404E+03   0.119E+02 -.740E+00 -.431E+03   -.309E+00 0.159E+00 0.267E+02   0.498E-02 -.975E-02 -.431E-03
   0.385E+00 0.236E+00 0.220E+00   0.995E-13 -.298E-12 0.512E-12   -.376E+00 -.224E+00 -.218E+00   0.609E-02 -.507E-02 0.113E-03

 POSITION                                       TOTAL-FORCE (eV/Angst)
      1.77554      2.89386      2.43904         0.015228      0.009426      0.000892
      4.70696      2.81870      7.31670         0.002322      0.007848      0.001690
      8.60867      1.28676      2.55899        -0.028630     -0.005680      0.006763
      6.24486      5.56863      9.72850         0.000144     -0.004621      0.000277
     -1.05404      1.39490      9.62428        -0.000211     -0.003611     -0.003174
      7.29047      1.38564      0.09163         0.003046     -0.004422     -0.002053
      7.29526      4.17246      0.14198         0.004482     -0.000811     -0.004233
     -1.05108      4.18644      9.61487        -0.002558     -0.002635     -0.002959
      6.24295      2.79100      9.74016         0.000103      0.002025      0.000144
      1.37497      5.56958      9.68758         0.002948     -0.001004     -0.001518
      1.37346      2.79232      9.68351         0.001450     -0.002825     -0.001144
      3.11991      0.00999      4.87618        -0.001344      0.003165      0.000249
      5.53943      1.39371      4.88347        -0.002261     -0.001799      0.005540
      0.68171      1.39640      4.90062         0.000401      0.004230     -0.007147
      0.67522      4.18183      4.87608        -0.002396     -0.000492     -0.001982
      5.54248      4.18345      4.89312        -0.000061      0.006250      0.004869
      3.11803      2.79014      4.88714        -0.003994     -0.000895      0.000916
     -1.74631      5.56412      4.88338        -0.001201     -0.003011      0.002588
     -1.73981      2.79428      4.87630         0.001753      0.006204      0.001111
      4.81025      5.56918      3.94108        -0.000366      0.003431      0.006397
      1.42544      5.55648      5.82506        -0.001799      0.003017     -0.002964
      3.20096      5.55650      0.93923        -0.003508     -0.003539     -0.006392
      3.04512      5.55463      8.80402         0.004098      0.000875     -0.000394
      7.25108      1.40393      4.02766        -0.004259      0.002816      0.003830
     -0.96765      1.40240      5.80900         0.005098     -0.000269     -0.003801
     -0.97439      4.17498      5.80834         0.002149      0.000164     -0.001315
      7.22423      4.17904      4.04982        -0.003567      0.004451      0.005283
      0.75234      1.39159      0.94652         0.001509     -0.005117     -0.000501
      5.45400      1.41576      8.78936         0.004959     -0.000022      0.002521
      5.45724      4.16749      8.80783         0.007376     -0.000308      0.001183
      0.79209      4.15889      0.92579         0.000542     -0.003820      0.000077
      4.76579      2.79072      3.94853        -0.001184      0.004652      0.004987
      1.46068      2.80047      5.81604        -0.002382     -0.003925     -0.003160
      3.14231      2.78100      0.96782         0.002156     -0.005149     -0.007034
      3.10737      2.81029      8.76765        -0.000532     -0.001390      0.000080
     -0.10849      0.03404      3.93354        -0.001948      0.001885     -0.001056
      6.29519      0.00766      5.84606         0.000376      0.000041      0.002552
      8.03918      0.02432      1.06836         0.010171     -0.004871     -0.007138
     -1.78691      0.01510      8.66994        -0.010136      0.000487      0.002272
      2.32838      1.41317      3.94656         0.000731      0.003945      0.001719
      3.89771      1.40536      5.82282         0.000277      0.000061     -0.000515
      3.90072      4.17012      5.82557        -0.001307      0.000323      0.002417
      2.34337      4.17116      3.94107        -0.002836      0.003776      0.004872
      5.63781      1.39170      0.98518         0.003266     -0.002435     -0.004672
      0.61068      1.40413      8.74198        -0.000321      0.001850      0.002623
      0.60876      4.18107      8.74372         0.000544     -0.003037      0.001247
      5.61959      4.16505      1.00200         0.004364     -0.005815     -0.005867
     -0.03252      2.76569      3.89468        -0.000297      0.005816      0.000692
      6.22743      2.78602      5.87937        -0.000634     -0.000438      0.003181
      8.08431      2.74757      1.06603         0.001071     -0.002859     -0.002131
     -1.83616      2.78762      8.68970        -0.002831     -0.001939      0.000181
    total drift:                                0.015049      0.007205      0.001353

  FREE ENERGIE OF THE ION-ELECTRON SYSTEM (eV)
  free  energy   TOTEN  =      -319.2792739966 eV

  energy  without entropy=     -319.2776795779  energy(sigma->0) =     -319.27847679

 d Force = 0.1318649E-03[ 0.118E-03, 0.146E-03]  d Energy = 0.1510055E-03-0.191E-04
 d Force =-0.2236244E+01[-0.224E+01,-0.224E+01]  d Ewald  =-0.4479248E+01 0.224E+01

 Quasi-Newton relaxation of ions (Broydens 2nd method)
  g(Force)  = 0.141E-03   g(Stress)= 0.343E-04

 retain information from N=  1 steps
 eigenvalues of (default step * inverse Hessian matrix)
  average eigenvalue of G=   0.4272
 eigenvalue spectrum of G is  0.4272

volume of typ            1:     4.5 %

[...]

volume of typ            3:    10.0 %

total charge

# of ion       s       p       d       tot
    1        2.063   0.194   0.072   2.329
    2        2.062   0.192   0.072   2.326
    3        2.063   0.200   0.075   2.338
    4        0.283   0.389   7.839   8.511
    5        0.299   0.423   7.833   8.555
    6        0.304   0.434   7.838   8.575
    7        0.296   0.417   7.830   8.543
    8        0.304   0.433   7.832   8.569
    9        0.302   0.428   7.843   8.573
   10        0.301   0.426   7.828   8.556
   11        0.288   0.403   7.835   8.526
   12        0.285   0.392   7.832   8.509
   13        0.298   0.424   7.832   8.554
   14        0.303   0.431   7.833   8.567
   15        0.296   0.415   7.832   8.543
   16        0.304   0.433   7.830   8.566
   17        0.303   0.429   7.842   8.573
   18        0.301   0.427   7.835   8.564
   19        0.288   0.401   7.844   8.533
   20        1.284   2.726   0.008   4.019
   21        1.286   2.723   0.008   4.017
   22        1.282   2.734   0.008   4.024
   23        1.283   2.729   0.008   4.021
   24        1.270   2.771   0.007   4.049
   25        1.284   2.727   0.008   4.019
   26        1.284   2.727   0.009   4.020
   27        1.282   2.736   0.008   4.026
   28        1.270   2.764   0.007   4.041
   29        1.273   2.757   0.008   4.037
   30        1.273   2.759   0.008   4.040
   31        1.272   2.759   0.008   4.039
   32        1.283   2.727   0.008   4.019
   33        1.285   2.724   0.008   4.017
   34        1.271   2.766   0.007   4.044
   35        1.275   2.751   0.008   4.033
   36        1.272   2.761   0.008   4.040
   37        1.283   2.731   0.008   4.022
   38        1.270   2.766   0.007   4.044
   39        1.285   2.724   0.008   4.018
   40        1.273   2.758   0.008   4.038
   41        1.274   2.753   0.008   4.035
   42        1.273   2.759   0.008   4.040
   43        1.271   2.766   0.007   4.044
   44        1.283   2.732   0.008   4.023
   45        1.285   2.726   0.008   4.019
   46        1.284   2.729   0.009   4.021
   47        1.284   2.729   0.008   4.022
   48        1.269   2.764   0.007   4.040
   49        1.274   2.757   0.007   4.038
   50        1.272   2.758   0.007   4.037
   51        1.284   2.726   0.008   4.019
tot          51.84   95.11  125.83  272.78

magnetization (x)

# of ion       s       p       d       tot
    1        0.000   0.001   0.000   0.001
    2       -0.000   0.000  -0.000   0.000
    3        0.003  -0.000   0.000   0.003
    4        0.000   0.000   0.250   0.250
    5       -0.000   0.001   0.110   0.110
    6       -0.000   0.000   0.067   0.067
    7       -0.000   0.000   0.108   0.108
    8       -0.000   0.000   0.058   0.058
    9       -0.000   0.001   0.040   0.040
   10        0.000   0.001   0.023   0.024
   11        0.001   0.001   0.268   0.270
   12       -0.000   0.001  -0.218  -0.218
   13        0.000  -0.001   0.130   0.130
   14        0.000  -0.001   0.085   0.085
   15        0.000  -0.000   0.132   0.132
   16        0.000  -0.000   0.076   0.076
   17       -0.000   0.001  -0.048  -0.047
   18       -0.000   0.001  -0.037  -0.037
   19       -0.002   0.001  -0.322  -0.323
   20       -0.001  -0.017  -0.000  -0.018
   21       -0.001  -0.020  -0.000  -0.021
   22        0.001   0.000   0.000   0.002
   23        0.002   0.001   0.000   0.002
   24       -0.000   0.003   0.000   0.003
   25       -0.000  -0.002   0.000  -0.002
   26        0.000   0.003   0.000   0.003
   27       -0.000  -0.001   0.000  -0.001
   28        0.003   0.008   0.000   0.011
   29        0.002   0.008   0.000   0.010
   30        0.002   0.007   0.000   0.010
   31        0.002   0.006   0.000   0.009
   32        0.001   0.001  -0.000   0.001
   33        0.001   0.004  -0.000   0.005
   34        0.004   0.018   0.000   0.022
   35        0.004   0.020   0.000   0.024
   36        0.001   0.002   0.000   0.003
   37        0.001   0.004  -0.000   0.005
   38        0.003   0.021   0.000   0.024
   39        0.003   0.030   0.000   0.033
   40       -0.001   0.002   0.000   0.001
   41        0.000   0.007   0.000   0.007
   42       -0.001   0.000  -0.000  -0.000
   43       -0.001   0.005   0.000   0.005
   44        0.002   0.010   0.000   0.012
   45        0.002   0.015   0.000   0.016
   46        0.001   0.011   0.000   0.013
   47        0.002   0.014   0.000   0.016
   48       -0.002  -0.024  -0.000  -0.025
   49       -0.003  -0.026  -0.000  -0.029
   50        0.002   0.002   0.000   0.004
   51        0.002   0.003   0.000   0.004
tot           0.04    0.12    0.72    0.88