 vasp.5.4.4.18Apr17-6-g9f103f2a35 (build May 12 2020 05:39:39) gamma-only

 MD_VERSION_INFO: Compiled 2020-05-12T12:39:39-UTC in devlin.sd.materialsdesign.
 com:/home/medea2/data/build/wwolf/vasp-gpu5.4.4/13047/x86_64/src/src/build/gam
 from svn 13047

 executed on                        Lin64 date 2023.03.07  02:53:00

 INCAR:
 POTCAR:    PAW_PBE Li_sv 10Sep2004
 POTCAR:    PAW_PBE Ni 02Aug2007
 POTCAR:    PAW_PBE O 08Apr2002

 POTCAR:    PAW_PBE Li_sv 10Sep2004

 POTCAR:    PAW_PBE Ni 02Aug2007

 POTCAR:    PAW_PBE O 08Apr2002

 Optimization of the real space projectors (new method)

 maximal supplied QI-value         = 22.11
 optimisation between [QCUT,QGAM] = [ 11.28, 22.77] = [ 35.61,145.23] Ry
 Optimized for a Real-space Cutoff    1.10 Angstroem

   l    n(q)    QCUT    max X(q) W(low)/X(q) W(high)/X(q)  e(spline)
   0      7    11.276    10.506    0.54E-04    0.58E-04    0.16E-07
   0      7    11.276     8.367    0.11E-03    0.14E-03    0.35E-07
   1      7    11.276     8.983    0.23E-03    0.43E-03    0.86E-07
 Optimization of the real space projectors (new method)

[...]

   l    n(q)    QCUT    max X(q) W(low)/X(q) W(high)/X(q)  e(spline)
   2      9    11.376    60.317    0.17E-03    0.16E-04    0.16E-06
   2      9    11.376    55.921    0.17E-03    0.16E-04    0.17E-06
   0     10    11.376    51.690    0.45E-04    0.60E-04    0.21E-06
   0     10    11.376    30.015    0.37E-04    0.55E-04    0.19E-06
   1     10    11.376    18.849    0.83E-04    0.11E-03    0.92E-07
   1     10    11.376    14.624    0.69E-04    0.92E-04    0.82E-07
 Optimization of the real space projectors (new method)

 maximal supplied QI-value         = 24.76
 optimisation between [QCUT,QGAM] = [ 11.39, 22.77] = [ 36.31,145.25] Ry
 Optimized for a Real-space Cutoff    1.10 Angstroem

   l    n(q)    QCUT    max X(q) W(low)/X(q) W(high)/X(q)  e(spline)
   0      7    11.387    20.381    0.22E-03    0.48E-03    0.18E-06
   0      7    11.387    15.268    0.22E-03    0.52E-03    0.19E-06
   1      7    11.387     5.964    0.22E-03    0.73E-03    0.24E-06
   1      7    11.387     5.382    0.19E-03    0.60E-03    0.21E-06

  PAW_PBE Li_sv 10Sep2004               :
  PAW_PBE Ni 02Aug2007                  :
  PAW_PBE O 08Apr2002                   :

 POSCAR: ce1387_1
  positions in direct lattice
 exchange correlation table for  LEXCH =       14
   RHO(1)=    0.500       N(1)  =     2000
   RHO(2)=  100.500       N(2)  =     4000

 ion  position               nearest neighbor table
   1  1.000  0.250  0.249-  40 2.10  49 2.11  37 2.12  45 2.12  31 2.12  52 2.13  13 2.84  21 2.84

   2  1.000  0.750  0.751-  39 2.10  50 2.11  38 2.12  46 2.12  32 2.12  51 2.13  13 2.84  21 2.84

[...]

  12  0.500  0.750  0.250-  54 2.11  35 2.11  60 2.12  42 2.12  55 2.12  34 2.13  20 2.84  28 2.84

  13  0.001  0.000  0.000-  37 1.87  38 1.87  39 1.89  40 1.89  47 2.02  48 2.02  18 2.79  18 2.82
                             1 2.84   2 2.84  14 2.85  15 2.85  16 2.87  17 2.87
  14  0.250  0.996  0.248-  31 1.85  43 1.85  48 1.87  60 1.87  37 1.97  54 2.02  17 2.80  17 2.80
                            18 2.85  13 2.85  19 2.87  20 2.87
  15  0.250  0.004  0.752-  32 1.85  44 1.85  47 1.87  59 1.87  38 1.97  53 2.02  16 2.80  16 2.80
                            18 2.85  13 2.85  19 2.87  20 2.87
  16  0.750  0.996  0.748-  47 1.85  59 1.85  44 1.87  32 1.87  56 1.97  39 2.02  15 2.80  15 2.80
                            20 2.85  19 2.85  13 2.87  18 2.87
  17  0.750  0.004  0.252-  48 1.85  60 1.85  43 1.87  31 1.87  55 1.97  40 2.02  14 2.80  14 2.80
                            20 2.85  19 2.85  13 2.87  18 2.87
  18  0.498  0.000  0.000-  37 1.87  38 1.87  39 1.89  40 1.89  59 2.02  60 2.02  13 2.79  13 2.82
                             6 2.84   5 2.84  14 2.85  15 2.85  16 2.87  17 2.87
  19  0.998  0.000  0.500-  55 1.87  56 1.87  53 1.89  54 1.89  31 2.03  32 2.03  20 2.79  20 2.82
                             8 2.84   7 2.84  17 2.85  16 2.85  15 2.87  14 2.87
  20  0.501  0.000  0.500-  55 1.87  56 1.87  53 1.89  54 1.89  43 2.03  44 2.03  19 2.79  19 2.82
                            11 2.84  12 2.84  16 2.85  17 2.85  14 2.87  15 2.87
  21  0.998  0.500  0.500-  51 1.87  52 1.87  49 1.89  50 1.89  29 2.03  30 2.03  26 2.79  26 2.82
                             2 2.84   1 2.84  25 2.85  24 2.85  23 2.87  22 2.87
  22  0.250  0.504  0.752-  29 1.85  41 1.85  58 1.87  46 1.87  33 1.97  50 2.02  25 2.80  25 2.80
                            28 2.85  27 2.85  21 2.87  26 2.87
  23  0.250  0.496  0.248-  30 1.85  42 1.85  57 1.87  45 1.87  34 1.97  49 2.02  24 2.80  24 2.80
                            28 2.85  27 2.85  21 2.87  26 2.87
  24  0.750  0.505  0.252-  45 1.85  57 1.85  42 1.87  30 1.87  52 1.97  35 2.02  23 2.80  23 2.80
                            26 2.85  21 2.85  27 2.87  28 2.87
  25  0.750  0.495  0.748-  46 1.85  58 1.85  41 1.87  29 1.87  51 1.97  36 2.02  22 2.80  22 2.80
                            26 2.85  21 2.85  27 2.87  28 2.87
  26  0.501  0.500  0.500-  51 1.87  52 1.87  49 1.89  50 1.89  41 2.03  42 2.03  21 2.79  21 2.82
                             5 2.84   6 2.84  25 2.85  24 2.85  23 2.87  22 2.87
  27  0.001  0.500  0.000-  33 1.87  34 1.87  35 1.89  36 1.89  45 2.02  46 2.02  28 2.79  28 2.82
                             7 2.84   8 2.84  22 2.85  23 2.85  24 2.87  25 2.87
  28  0.498  0.500  0.000-  33 1.87  34 1.87  35 1.89  36 1.89  57 2.02  58 2.02  27 2.79  27 2.82
                            12 2.84  11 2.84  23 2.85  22 2.85  25 2.87  24 2.87
  29  0.008  0.395  0.639-  22 1.85  25 1.87  21 2.03   3 2.11   7 2.12
  30  0.008  0.605  0.361-  23 1.85  24 1.87  21 2.03   4 2.11   8 2.12
  31  0.008  0.105  0.361-  14 1.85  17 1.87  19 2.03   3 2.11   1 2.12
  32  0.008  0.895  0.639-  15 1.85  16 1.87  19 2.03   4 2.11   2 2.12
  33  0.250  0.397  0.883-  27 1.87  28 1.87  22 1.97   7 2.12  11 2.13
  34  0.250  0.603  0.117-  27 1.87  28 1.87  23 1.97   8 2.12  12 2.13
  35  0.750  0.610  0.113-  27 1.89  28 1.89  24 2.02   9 2.10  12 2.11   8 2.11
  36  0.750  0.390  0.887-  27 1.89  28 1.89  25 2.02  10 2.10  11 2.11   7 2.11
  37  0.250  0.103  0.117-  18 1.87  13 1.87  14 1.97   1 2.12   5 2.12
  38  0.250  0.897  0.883-  18 1.87  13 1.87  15 1.97   2 2.12   6 2.12
  39  0.750  0.890  0.886-  18 1.89  13 1.89  16 2.02   9 2.10   2 2.10   6 2.11
  40  0.750  0.110  0.114-  18 1.89  13 1.89  17 2.02  10 2.10   1 2.10   5 2.11
  41  0.492  0.395  0.639-  22 1.85  25 1.87  26 2.03   3 2.11  11 2.12
  42  0.492  0.605  0.361-  23 1.85  24 1.87  26 2.03   4 2.11  12 2.12
  43  0.492  0.105  0.361-  14 1.85  17 1.87  20 2.03   3 2.11   5 2.12
  44  0.492  0.895  0.639-  15 1.85  16 1.87  20 2.03   4 2.11   6 2.12
  45  0.992  0.396  0.139-  24 1.85  23 1.87  27 2.02  10 2.11   1 2.12
  46  0.992  0.604  0.861-  25 1.85  22 1.87  27 2.02   9 2.11   2 2.12
  47  0.992  0.105  0.861-  16 1.85  15 1.87  13 2.02  10 2.11   7 2.12
  48  0.992  0.895  0.139-  17 1.85  14 1.87  13 2.02   9 2.11   8 2.12
  49  0.250  0.391  0.386-  21 1.89  26 1.89  23 2.02   5 2.10   1 2.11   3 2.11
  50  0.250  0.609  0.614-  21 1.89  26 1.89  22 2.02   6 2.10   2 2.11   4 2.11
  51  0.750  0.602  0.617-  21 1.87  26 1.87  25 1.97   6 2.12   2 2.13
  52  0.750  0.398  0.383-  21 1.87  26 1.87  24 1.97   5 2.12   1 2.13
  53  0.250  0.109  0.614-  20 1.89  19 1.89  15 2.02  11 2.11   7 2.11   3 2.11
  54  0.250  0.891  0.386-  20 1.89  19 1.89  14 2.02  12 2.11   8 2.11   4 2.11
  55  0.750  0.897  0.383-  20 1.87  19 1.87  17 1.97  12 2.12   8 2.12
  56  0.750  0.103  0.617-  20 1.87  19 1.87  16 1.97  11 2.12   7 2.12
  57  0.508  0.396  0.139-  24 1.85  23 1.87  28 2.02  10 2.12   5 2.12
  58  0.508  0.604  0.861-  25 1.85  22 1.87  28 2.02   9 2.12   6 2.12
  59  0.508  0.105  0.861-  16 1.85  15 1.87  18 2.02  10 2.11  11 2.12
  60  0.508  0.895  0.139-  17 1.85  14 1.87  18 2.02   9 2.11  12 2.12

  LATTYP: Found a simple monoclinic cell.
 ALAT       =    11.3554172377
 B/A-ratio  =     0.4933248658
 C/A-ratio  =     1.6713142745
 COS(beta)  =    -0.9005295572

  Lattice vectors:

 A1 = (  -6.3430943560,   0.0000000000,  -9.4186333739)
 A2 = (   0.0000000000,  -5.6019096853,   0.0000000000)
 A3 = (   2.7024669702,   0.0000000000,  18.7850746819)

Analysis of symmetry for initial positions (statically):
 Subroutine PRICEL returns:
 Original cell was already a primitive cell.

 Routine SETGRP: Setting up the symmetry group for a
 simple monoclinic supercell.

 Subroutine GETGRP returns: Found  2 space group operations
 (whereof  2 operations were pure point group operations)
 out of a pool of  4 trial point group operations.

The static configuration has the point symmetry C_2 .

Analysis of symmetry for dynamics (positions and initial velocities):
 Subroutine PRICEL returns:
 Original cell was already a primitive cell.

[...]

The dynamic configuration has the point symmetry C_2 .

Analysis of structural, dynamic, and magnetic symmetry:
 Subroutine PRICEL returns:
 Original cell was already a primitive cell.

 Routine SETGRP: Setting up the symmetry group for a
 simple monoclinic supercell.

 Subroutine GETGRP returns: Found  2 space group operations
 (whereof  2 operations were pure point group operations)
 out of a pool of  4 trial point group operations.

The magnetic configuration has the point symmetry C_2 .

 Subroutine INISYM returns: Found  2 space group operations
 (whereof  2 operations are pure point group operations),
 and found     1 'primitive' translations

 KPOINTS: Automatic mesh

Automatic generation of k-mesh.
Space group operators:
 irot       det(A)        alpha          n_x          n_y          n_z        tau_x        tau_y        tau_z
    1     1.000000     0.000000     1.000000     0.000000     0.000000     0.000000     0.000000     0.000000
    2     1.000000   179.999999     0.000000     1.000000     0.000000     0.000000     0.000000     0.000000

 Subroutine IBZKPT returns following result:

 Found      1 irreducible k-points:

 Following reciprocal coordinates:
            Coordinates               Weight
  0.000000  0.000000  0.000000      1.000000

 Following cartesian coordinates:
            Coordinates               Weight
  0.000000  0.000000  0.000000      1.000000

 SYSTEM =  unknown system
 POSCAR =  ce1387_1

 Startparameter for this run:
   NWRITE =      1    write-flag & timer
   PREC   = accura    normal or accurate (medium, high low for compatibility)
   ISTART =      0    job   : 0-new  1-cont  2-samecut
   ICHARG =      2    charge: 1-file 2-atom 10-const
   ISPIN  =      2    spin polarized calculation?
   LNONCOLLINEAR =      F non collinear calculations
   LSORBIT =      F    spin-orbit coupling
   INIWAV =      1    electr: 0-lowe 1-rand  2-diag
   LASPH  =      F    aspherical Exc in radial PAW
   METAGGA=      F    non-selfconsistent MetaGGA calc.

 Electronic Relaxation 1
   ENCUT  =  500.0 eV  36.75 Ry    6.06 a.u.  10.21 18.32 18.20*2*pi/ulx,y,z
   ENINI  =  500.0     initial cutoff
   ENAUG  =  628.9 eV  augmentation charge cutoff
   NELM   =     80;   NELMIN=  2; NELMDL= -5     # of ELM steps
   EDIFF  = 0.1E-04   stopping-criterion for ELM
[...]
   -.980E-05 0.234E+02 0.169E-05   -.568E-13 -.239E+02 -.426E-13   0.000E+00 0.495E+00 -.133E-22   -.716E-13 -.731E-02 0.174E-12
   -.974E-05 0.228E+02 0.171E-05   0.142E-13 -.233E+02 0.604E-13   0.000E+00 0.497E+00 -.827E-24   -.148E-12 -.311E-02 0.162E-12
   0.793E-05 -.228E+02 -.139E-05   -.142E-13 0.233E+02 -.355E-14   0.000E+00 -.496E+00 0.136E-22   -.147E-12 0.397E-02 0.753E-13
   -.963E-05 0.233E+02 0.170E-05   0.453E-13 -.238E+02 -.240E-13   0.000E+00 0.494E+00 -.132E-22   -.244E-12 0.143E-01 0.607E-13
   -.135E+02 0.160E+00 -.542E+02   0.140E+02 -.162E+00 0.541E+02   -.516E+00 0.285E-02 0.441E-01   0.311E-01 -.486E-02 0.442E-02
   0.135E+02 0.160E+00 0.542E+02   -.140E+02 -.162E+00 -.541E+02   0.516E+00 0.285E-02 -.441E-01   -.311E-01 -.486E-02 -.442E-02
   -.159E+02 -.172E+00 -.559E+02   0.165E+02 0.174E+00 0.559E+02   -.561E+00 -.238E-02 0.145E-01   -.301E-01 0.478E-02 -.225E-02
   0.159E+02 -.172E+00 0.559E+02   -.165E+02 0.174E+00 -.559E+02   0.561E+00 -.238E-02 -.145E-01   0.301E-01 0.478E-02 0.225E-02
   0.700E-05 -.233E+02 -.123E-05   -.107E-13 0.238E+02 0.000E+00   0.000E+00 -.496E+00 0.827E-24   -.201E-12 -.142E-01 -.730E-14
   0.613E-05 -.234E+02 -.105E-05   0.142E-13 0.238E+02 -.568E-13   0.000E+00 -.486E+00 -.310E-23   0.332E-13 0.136E-01 -.885E-13
   -.992E-05 0.234E+02 0.170E-05   -.171E-12 -.239E+02 0.497E-13   0.000E+00 0.486E+00 0.221E-22   -.750E-14 -.138E-01 -.165E-13
   0.404E+02 0.292E+02 0.304E+03   -.450E+02 -.310E+02 -.320E+03   0.462E+01 0.172E+01 0.159E+02   -.587E-02 0.149E-01 -.303E-01
   -.404E+02 0.292E+02 -.304E+03   0.450E+02 -.310E+02 0.320E+03   -.462E+01 0.172E+01 -.159E+02   0.587E-02 0.149E-01 0.303E-01
   -.401E+02 0.293E+02 -.305E+03   0.447E+02 -.311E+02 0.321E+03   -.461E+01 0.172E+01 -.159E+02   -.969E-02 -.131E-02 -.310E-01
   0.401E+02 0.293E+02 0.305E+03   -.447E+02 -.311E+02 -.321E+03   0.461E+01 0.172E+01 0.159E+02   0.969E-02 -.131E-02 0.310E-01
   -.247E+02 -.342E-01 0.295E+03   0.253E+02 0.488E-01 -.310E+03   -.620E+00 -.517E-02 0.150E+02   0.331E-01 -.805E-02 0.334E-02
   0.247E+02 -.342E-01 -.295E+03   -.253E+02 0.488E-01 0.310E+03   0.620E+00 -.517E-02 -.150E+02   -.331E-01 -.805E-02 -.334E-02
   -.788E+01 -.190E-02 -.277E+03   0.930E+01 -.102E-01 0.289E+03   -.137E+01 0.591E-02 -.114E+02   -.400E-01 0.797E-02 0.459E-02
   0.788E+01 -.190E-02 0.277E+03   -.930E+01 -.102E-01 -.289E+03   0.137E+01 0.591E-02 0.114E+02   0.400E-01 0.797E-02 -.459E-02
   0.249E+02 -.842E-01 -.294E+03   -.256E+02 0.134E+00 0.309E+03   0.615E+00 -.204E-01 -.150E+02   0.559E-02 -.311E-01 -.194E-01
   -.249E+02 -.842E-01 0.294E+03   0.256E+02 0.134E+00 -.309E+03   -.615E+00 -.204E-01 0.150E+02   -.559E-02 -.311E-01 0.194E-01
   0.781E+01 0.114E+00 0.277E+03   -.919E+01 -.170E+00 -.288E+03   0.140E+01 0.308E-01 0.113E+02   -.673E-02 0.302E-01 0.214E-01
   -.781E+01 0.114E+00 -.277E+03   0.919E+01 -.170E+00 0.288E+03   -.140E+01 0.308E-01 -.113E+02   0.673E-02 0.302E-01 -.214E-01
   0.405E+02 -.292E+02 0.304E+03   -.451E+02 0.309E+02 -.320E+03   0.463E+01 -.171E+01 0.159E+02   -.521E-02 -.153E-01 -.290E-01
   -.405E+02 -.292E+02 -.304E+03   0.451E+02 0.309E+02 0.320E+03   -.463E+01 -.171E+01 -.159E+02   0.521E-02 -.153E-01 0.290E-01
   -.400E+02 -.293E+02 -.305E+03   0.446E+02 0.310E+02 0.320E+03   -.461E+01 -.172E+01 -.159E+02   -.259E-01 -.423E-03 -.175E-01
   0.400E+02 -.293E+02 0.305E+03   -.446E+02 0.310E+02 -.320E+03   0.461E+01 -.172E+01 0.159E+02   0.259E-01 -.423E-03 0.175E-01
   0.379E+02 -.289E+02 0.305E+03   -.423E+02 0.306E+02 -.321E+03   0.446E+01 -.167E+01 0.159E+02   -.414E-01 0.160E-01 -.257E-01
   -.379E+02 -.289E+02 -.305E+03   0.423E+02 0.306E+02 0.321E+03   -.446E+01 -.167E+01 -.159E+02   0.414E-01 0.160E-01 0.257E-01
   -.385E+02 -.291E+02 -.304E+03   0.430E+02 0.308E+02 0.320E+03   -.449E+01 -.170E+01 -.158E+02   0.358E-02 0.192E-02 -.255E-01
   0.385E+02 -.291E+02 0.304E+03   -.430E+02 0.308E+02 -.320E+03   0.449E+01 -.170E+01 0.158E+02   -.358E-02 0.192E-02 0.255E-01
   0.786E+01 0.235E+00 0.277E+03   -.928E+01 -.257E+00 -.288E+03   0.142E+01 0.271E-01 0.114E+02   0.666E-02 -.483E-02 -.192E-01
   -.786E+01 0.235E+00 -.277E+03   0.928E+01 -.257E+00 0.288E+03   -.142E+01 0.271E-01 -.114E+02   -.666E-02 -.483E-02 0.192E-01
   0.241E+02 -.179E+00 -.293E+03   -.245E+02 0.195E+00 0.308E+03   0.491E+00 -.212E-01 -.150E+02   -.182E-01 0.483E-02 0.270E-01
   -.241E+02 -.179E+00 0.293E+03   0.245E+02 0.195E+00 -.308E+03   -.491E+00 -.212E-01 0.150E+02   0.182E-01 0.483E-02 -.270E-01
   -.778E+01 0.177E+00 -.277E+03   0.915E+01 -.160E+00 0.288E+03   -.139E+01 0.482E-02 -.114E+02   0.189E-01 -.267E-01 -.898E-02
   0.778E+01 0.177E+00 0.277E+03   -.915E+01 -.160E+00 -.288E+03   0.139E+01 0.482E-02 0.114E+02   -.189E-01 -.267E-01 0.898E-02
   -.240E+02 -.204E+00 0.294E+03   0.246E+02 0.193E+00 -.309E+03   -.512E+00 -.113E-01 0.150E+02   -.200E-01 0.275E-01 0.115E-01
   0.240E+02 -.204E+00 -.294E+03   -.246E+02 0.193E+00 0.309E+03   0.512E+00 -.113E-01 -.150E+02   0.200E-01 0.275E-01 -.115E-01
   0.380E+02 0.288E+02 0.305E+03   -.424E+02 -.304E+02 -.321E+03   0.447E+01 0.166E+01 0.159E+02   -.354E-01 -.156E-01 -.259E-01
   -.380E+02 0.288E+02 -.305E+03   0.424E+02 -.304E+02 0.321E+03   -.447E+01 0.166E+01 -.159E+02   0.354E-01 -.156E-01 0.259E-01
   -.384E+02 0.291E+02 -.305E+03   0.429E+02 -.308E+02 0.320E+03   -.448E+01 0.170E+01 -.159E+02   -.154E-01 -.264E-03 -.111E-01
   0.384E+02 0.291E+02 0.305E+03   -.429E+02 -.308E+02 -.320E+03   0.448E+01 0.170E+01 0.159E+02   0.154E-01 -.264E-03 0.111E-01
   -.164E-04 0.202E-01 0.411E-05   -.284E-13 -.146E-12 -.341E-12   0.000E+00 -.118E-01 0.178E-14   -.110E-11 0.513E-04 0.676E-12

 POSITION                                       TOTAL-FORCE (eV/Angst)
      1.57942      5.60031      2.35502         0.010265      0.000776      0.011076
      4.76368      5.60031      7.06361        -0.010265      0.000776     -0.011076
      4.08114      1.40043      2.36669         0.002301     -0.002975      0.004282
      2.26195      1.40043      7.05194        -0.002301     -0.002975     -0.004282
      1.58351      2.79781      2.35897         0.000342      0.003969     -0.005008
      4.75959      2.79781      7.05967        -0.000342      0.003969      0.005008
      6.58227      5.60146      2.37592        -0.007630      0.000266      0.008690
     -0.23918      5.60146      7.04271         0.007630      0.000266     -0.008690
     -2.72984      4.20143      7.02911        -0.002354     -0.004343     -0.014384
      9.07294      4.20143      2.38952         0.002354     -0.004343      0.014384
      6.58002      2.80002      2.37690        -0.002952     -0.001306      0.005119
     -0.23692      2.80002      7.04173         0.002952     -0.001306     -0.005119
      0.00000      0.00600      0.00000         0.000000      0.007974      0.000000
     -1.15344      1.39932      9.34527         0.000046      0.002949      0.001550
      7.49653      1.39932      0.07336        -0.000046      0.002949     -0.001550
      3.83981      4.20011      9.36350         0.006834      0.000926      0.007013
      2.50328      4.20011      0.05513        -0.006834      0.000926     -0.007013
      0.00000      2.79216      0.00000         0.000000     -0.012140      0.000000
      4.99186      5.59308      0.02610         0.000000      0.009421      0.000000
      4.99186      2.80807      0.02610         0.000000     -0.012566      0.000000
      3.17155      5.59325      4.70932         0.000000     -0.017274      0.000000
      5.67711      1.39899      4.75614        -0.011137     -0.003747     -0.010296
      0.66598      1.39899      4.66249         0.011137     -0.003747      0.010296
      0.68211      4.19983      4.73886         0.002223      0.004715     -0.008537
      5.66098      4.19983      4.67977        -0.002223      0.004715      0.008537
      3.17155      2.80716      4.70932         0.000000      0.014235      0.000000
     -1.82031      0.00538      4.68322         0.000000      0.014580      0.000000
     -1.82031      2.79208      4.68322         0.000000     -0.012823      0.000000
      4.94509      0.04234      3.72946         0.004492      0.004423      0.005787
      1.39800      0.04234      5.68917        -0.004492      0.004423     -0.005787
      3.21862      0.04290      1.00512         0.003594     -0.000998      0.000094
      3.12448      0.04290      8.41351        -0.003594     -0.000998     -0.000094
      7.37494      1.39866      3.76369        -0.002110      0.001268      0.008819
     -1.03185      1.39866      5.65494         0.002110      0.001268     -0.008819
     -1.08756      4.19973      5.71625         0.003819      0.001617     -0.002878
      7.43065      4.19973      3.70238        -0.003819      0.001617      0.002878
      0.78995      1.39908      0.97190        -0.009861     -0.001352     -0.016557
      5.55314      1.39908      8.44674         0.009861     -0.001352      0.016557
      5.60863      4.19977      8.38563         0.008559      0.005451      0.011334
      0.73447      4.19977      1.03300        -0.008559      0.005451     -0.011334
      4.94546      2.75583      3.72937         0.000896     -0.005900      0.003682
      1.39764      2.75583      5.68926        -0.000896     -0.005900     -0.003682
      3.21829      2.75588      1.00576         0.001939     -0.001482     -0.002501
      3.12480      2.75588      8.41287        -0.001939     -0.001482      0.002501
     -0.05041      5.55655      3.71221         0.001364     -0.002470     -0.002786
      6.39350      5.55655      5.70642        -0.001364     -0.002470      0.002786
      8.21274      5.55698      1.02377        -0.000307     -0.003525      0.002067
     -1.86965      5.55698      8.39486         0.000307     -0.003525     -0.002067
      2.43116      1.39916      3.68332         0.004813      0.000716     -0.008098
      3.91193      1.39916      5.73531        -0.004813      0.000716      0.008098
      3.96577      4.20022      5.67528        -0.008502     -0.000229     -0.000886
      2.37733      4.20022      3.74335         0.008502     -0.000229      0.000886
      5.73117      1.39998      1.05312        -0.003637     -0.005028     -0.001617
      0.61193      1.39998      8.36551         0.003637     -0.005028      0.001617
      0.55788      4.20020      8.42606         0.002155      0.004967     -0.001670
      5.78521      4.20020      0.99257        -0.002155      0.004967      0.001670
     -0.05067      2.84297      3.71245         0.003507      0.003934     -0.003274
      6.39376      2.84297      5.70619        -0.003507      0.003934      0.003274
      8.21321      2.84338      1.02378        -0.006950      0.001674     -0.000978
     -1.87011      2.84338      8.39485         0.006950      0.001674      0.000978
    total drift:                               -0.000016      0.008495      0.000004

  FREE ENERGIE OF THE ION-ELECTRON SYSTEM (eV)
  free  energy   TOTEN  =      -364.3245373086 eV

  energy  without entropy=     -364.3228323195  energy(sigma->0) =     -364.32368481

 Quasi-Newton relaxation of ions (Broydens 2nd method)
  g(Force)  = 0.294E-03   g(Stress)= 0.147E-03

 Reset! Starting new Quasi-Newton update for ions

 reached required accuracy - stopping structural energy minimisation

volume of typ            1:    17.8 %

[...]

volume of typ            3:     9.9 %

total charge

# of ion       s       p       d       tot
    1        2.078   0.253   0.092   2.422
    2        2.078   0.253   0.092   2.422
    3        2.080   0.252   0.095   2.427
    4        2.080   0.252   0.095   2.427
    5        2.078   0.253   0.092   2.422
    6        2.078   0.253   0.092   2.422
    7        2.078   0.253   0.092   2.422
    8        2.078   0.253   0.092   2.422
    9        2.081   0.252   0.095   2.427
   10        2.081   0.252   0.095   2.427
   11        2.078   0.253   0.092   2.422
   12        2.078   0.253   0.092   2.422
   13        0.263   0.347   7.861   8.471
   14        0.278   0.379   7.861   8.519
   15        0.278   0.379   7.861   8.519
   16        0.278   0.379   7.861   8.518
   17        0.278   0.379   7.861   8.518
   18        0.263   0.347   7.862   8.472
   19        0.263   0.346   7.861   8.471
   20        0.263   0.347   7.863   8.473
   21        0.263   0.347   7.862   8.471
   22        0.278   0.379   7.862   8.519
   23        0.278   0.379   7.862   8.519
   24        0.278   0.379   7.863   8.520
   25        0.278   0.379   7.863   8.520
   26        0.263   0.346   7.862   8.471
   27        0.263   0.348   7.860   8.471
   28        0.263   0.348   7.861   8.472
   29        1.263   2.778   0.006   4.047
   30        1.263   2.778   0.006   4.047
   31        1.263   2.778   0.006   4.048
   32        1.263   2.778   0.006   4.048
   33        1.263   2.779   0.006   4.049
   34        1.263   2.779   0.006   4.049
   35        1.257   2.797   0.006   4.059
   36        1.257   2.797   0.006   4.059
   37        1.263   2.780   0.006   4.049
   38        1.263   2.780   0.006   4.049
   39        1.257   2.797   0.006   4.059
   40        1.257   2.797   0.006   4.059
   41        1.263   2.779   0.006   4.048
   42        1.263   2.779   0.006   4.048
   43        1.263   2.779   0.006   4.048
   44        1.263   2.779   0.006   4.048
   45        1.263   2.779   0.006   4.048
   46        1.263   2.779   0.006   4.048
   47        1.263   2.779   0.006   4.048
   48        1.263   2.779   0.006   4.048
   49        1.257   2.797   0.006   4.059
   50        1.257   2.797   0.006   4.059
   51        1.263   2.780   0.006   4.049
   52        1.263   2.780   0.006   4.049
   53        1.257   2.797   0.006   4.059
   54        1.257   2.797   0.006   4.059
   55        1.263   2.780   0.006   4.049
   56        1.263   2.780   0.006   4.049
   57        1.263   2.779   0.006   4.048
   58        1.263   2.779   0.006   4.048
   59        1.263   2.779   0.006   4.048
   60        1.263   2.779   0.006   4.048
tot          69.63   97.91  127.10  294.64

magnetization (x)

# of ion       s       p       d       tot
    1        0.005   0.017  -0.001   0.021
    2        0.005   0.017  -0.001   0.021
    3        0.005   0.009  -0.000   0.014
    4        0.005   0.009  -0.000   0.014
    5        0.005   0.017  -0.001   0.021
    6        0.005   0.017  -0.001   0.021
    7        0.005   0.017  -0.001   0.021
    8        0.005   0.017  -0.001   0.021
    9        0.005   0.009  -0.000   0.014
   10        0.005   0.009  -0.000   0.014
   11        0.005   0.017  -0.001   0.021
   12        0.005   0.017  -0.001   0.021
   13        0.001  -0.000   0.666   0.667
   14        0.000  -0.000   0.436   0.436
   15        0.000  -0.000   0.436   0.436
   16        0.000  -0.000   0.439   0.439
   17        0.000  -0.000   0.439   0.439
   18        0.001  -0.000   0.666   0.667
   19        0.001  -0.000   0.671   0.672
   20        0.001  -0.000   0.671   0.672
   21        0.001  -0.000   0.670   0.671
   22        0.000  -0.000   0.435   0.436
   23        0.000  -0.000   0.435   0.436
   24        0.000  -0.000   0.439   0.439
   25        0.000  -0.000   0.439   0.439
   26        0.001  -0.000   0.671   0.672
   27        0.001  -0.000   0.662   0.663
   28        0.001  -0.000   0.661   0.662
   29        0.008   0.052   0.000   0.060
   30        0.008   0.052   0.000   0.060
   31        0.008   0.052   0.000   0.060
   32        0.008   0.052   0.000   0.060
   33        0.011   0.077   0.000   0.088
   34        0.011   0.077   0.000   0.088
   35        0.011   0.049   0.000   0.060
   36        0.011   0.049   0.000   0.060
   37        0.011   0.078   0.000   0.089
   38        0.011   0.078   0.000   0.089
   39        0.011   0.049   0.000   0.060
   40        0.011   0.049   0.000   0.060
   41        0.008   0.052   0.000   0.060
   42        0.008   0.052   0.000   0.060
   43        0.008   0.052   0.000   0.060
   44        0.008   0.052   0.000   0.060
   45        0.008   0.049   0.000   0.057
   46        0.008   0.049   0.000   0.057
   47        0.008   0.050   0.000   0.058
   48        0.008   0.050   0.000   0.058
   49        0.010   0.048   0.000   0.059
   50        0.010   0.048   0.000   0.059
   51        0.011   0.078   0.000   0.089
   52        0.011   0.078   0.000   0.089
   53        0.010   0.048   0.000   0.059
   54        0.010   0.048   0.000   0.059
   55        0.011   0.078   0.000   0.089
   56        0.011   0.078   0.000   0.089
   57        0.008   0.049   0.000   0.057
   58        0.008   0.049   0.000   0.057
   59        0.008   0.050   0.000   0.058
   60        0.008   0.050   0.000   0.058
tot           0.37    1.99    8.84   11.19