 vasp.5.4.4.18Apr17-6-g9f103f2a35 (build May 12 2020 05:39:39) gamma-only

 MD_VERSION_INFO: Compiled 2020-05-12T12:39:39-UTC in devlin.sd.materialsdesign.
 com:/home/medea2/data/build/wwolf/vasp-gpu5.4.4/13047/x86_64/src/src/build/gam
 from svn 13047

 executed on                        Lin64 date 2023.01.19  14:55:05

 INCAR:
 POTCAR:    PAW_PBE Li_sv 10Sep2004
 POTCAR:    PAW_PBE Ni 02Aug2007
 POTCAR:    PAW_PBE O 08Apr2002

 POTCAR:    PAW_PBE Li_sv 10Sep2004

 POTCAR:    PAW_PBE Ni 02Aug2007

 POTCAR:    PAW_PBE O 08Apr2002

 Optimization of the real space projectors (new method)

 maximal supplied QI-value         = 22.11
 optimisation between [QCUT,QGAM] = [ 11.28, 22.77] = [ 35.61,145.23] Ry
 Optimized for a Real-space Cutoff    1.10 Angstroem

   l    n(q)    QCUT    max X(q) W(low)/X(q) W(high)/X(q)  e(spline)
   0      7    11.276    10.506    0.54E-04    0.58E-04    0.16E-07
   0      7    11.276     8.367    0.11E-03    0.14E-03    0.35E-07
   1      7    11.276     8.983    0.23E-03    0.43E-03    0.86E-07
 Optimization of the real space projectors (new method)

[...]

   l    n(q)    QCUT    max X(q) W(low)/X(q) W(high)/X(q)  e(spline)
   2      9    11.376    60.317    0.17E-03    0.16E-04    0.16E-06
   2      9    11.376    55.921    0.17E-03    0.16E-04    0.17E-06
   0     10    11.376    51.690    0.45E-04    0.60E-04    0.21E-06
   0     10    11.376    30.015    0.37E-04    0.55E-04    0.19E-06
   1     10    11.376    18.849    0.83E-04    0.11E-03    0.92E-07
   1     10    11.376    14.624    0.69E-04    0.92E-04    0.82E-07
 Optimization of the real space projectors (new method)

 maximal supplied QI-value         = 24.76
 optimisation between [QCUT,QGAM] = [ 11.39, 22.77] = [ 36.31,145.25] Ry
 Optimized for a Real-space Cutoff    1.10 Angstroem

   l    n(q)    QCUT    max X(q) W(low)/X(q) W(high)/X(q)  e(spline)
   0      7    11.387    20.381    0.22E-03    0.48E-03    0.18E-06
   0      7    11.387    15.268    0.22E-03    0.52E-03    0.19E-06
   1      7    11.387     5.964    0.22E-03    0.73E-03    0.24E-06
   1      7    11.387     5.382    0.19E-03    0.60E-03    0.21E-06

  PAW_PBE Li_sv 10Sep2004               :
  PAW_PBE Ni 02Aug2007                  :
  PAW_PBE O 08Apr2002                   :

 POSCAR: ce213057_1
  positions in direct lattice
 exchange correlation table for  LEXCH =       14
   RHO(1)=    0.500       N(1)  =     2000
   RHO(2)=  100.500       N(2)  =     4000

 ion  position               nearest neighbor table
   1  0.974  0.500  0.974-  95 2.00  94 2.00  59 2.13  82 2.13  46 2.27  47 2.27  42 2.78  41 2.78

   2  0.090  0.835  0.201-  43 1.99  60 2.01  48 2.09  61 2.13  66 2.24  67 2.28  16 2.77  24 2.79

[...]

  15  0.582  0.167  0.778-  92 2.00  93 2.00  56 2.13  69 2.13  86 2.27  87 2.27  41 2.78  40 2.78

  16  0.001  0.000  0.001-  60 1.86  81 1.86  96 1.93  93 1.93  45 1.96  48 1.96   2 2.77   3 2.77
                            25 2.81  19 2.81  34 2.83  22 2.83  40 2.85  28 2.85
  17  0.113  0.334  0.224-  68 1.86  59 1.87  44 1.88  62 1.92  47 1.92  65 1.92  29 2.80  20 2.81
                            23 2.81  41 2.83  26 2.84  35 2.84
  18  0.224  0.666  0.113-  67 1.86  82 1.87  43 1.88  49 1.92  46 1.92  52 1.92  30 2.80  27 2.81
                            36 2.81  42 2.83  21 2.84  24 2.84
  19  0.331  0.998  0.998-  81 1.87  54 1.88  51 1.89  84 1.91  87 1.94  48 1.95  34 2.79  16 2.81
                            37 2.81  22 2.83  31 2.84  28 2.85
  20  0.445  0.331  0.225-  71 1.87  50 1.88  53 1.89  68 1.91  47 1.94  74 1.95  29 2.79  32 2.81
                            17 2.81  35 2.83  38 2.84  23 2.85
  21  0.558  0.665  0.111-  55 1.87  52 1.88  49 1.89  58 1.91  73 1.94  88 1.95  24 2.79  39 2.81
                            33 2.81  30 2.83  18 2.84  36 2.85
  22  0.667  0.998  0.001-  90 1.87  93 1.87  87 1.88  60 1.90  57 1.91  54 1.92  14 2.79  25 2.79
                            31 2.80  16 2.83  19 2.83  37 2.84  40 2.84
  23  0.778  0.333  0.218-  74 1.86  77 1.86  56 1.90  59 1.90  62 1.94  53 1.94  41 2.77  17 2.81
                            38 2.81  32 2.85  26 2.85  20 2.85
  24  0.888  0.669  0.112-  43 1.87  94 1.87  46 1.88  55 1.90  58 1.91  61 1.92   2 2.79  21 2.79
                            33 2.80  39 2.83  27 2.83  18 2.84  42 2.84
  25  0.998  0.002  0.331-  60 1.87  63 1.88  66 1.89  57 1.91  78 1.94  45 1.95  22 2.79  16 2.81
                            31 2.81  34 2.83  37 2.84  28 2.85
  26  0.111  0.335  0.558-  80 1.87  65 1.88  62 1.89  83 1.91  86 1.94  77 1.95  35 2.79  32 2.81
                            38 2.81  29 2.83  17 2.84  23 2.85
  27  0.225  0.669  0.445-  70 1.87  61 1.88  64 1.89  67 1.91  46 1.94  85 1.95  30 2.79  39 2.81
                            18 2.81  24 2.83  33 2.84  36 2.85
  28  0.338  0.000  0.338-  48 1.86  45 1.86  69 1.90  72 1.90  51 1.94  66 1.94  40 2.77  37 2.81
                            31 2.81  16 2.85  19 2.85  25 2.85
  29  0.444  0.335  0.554-  89 1.87  92 1.87  86 1.88  71 1.90  68 1.91  65 1.92  13 2.79  20 2.79
                            17 2.80  32 2.83  26 2.83  38 2.84  41 2.84
  30  0.554  0.665  0.444-  76 1.87  91 1.87  73 1.88  70 1.90  67 1.91  52 1.92  10 2.79  27 2.79
                            18 2.80  39 2.83  21 2.83  33 2.84  42 2.84
  31  0.667  0.999  0.332-  57 1.86  72 1.87  75 1.88  51 1.92  78 1.92  54 1.92  22 2.80  25 2.81
                            28 2.81  40 2.83  19 2.84  34 2.84
  32  0.778  0.333  0.554-  80 1.86  71 1.86  92 1.93  95 1.93  74 1.96  77 1.96  12 2.77  10 2.77
                            26 2.81  20 2.81  35 2.83  29 2.83  41 2.85  23 2.85
  33  0.889  0.668  0.443-  58 1.86  79 1.87  76 1.88  64 1.92  73 1.92  61 1.92  24 2.80  21 2.81
                            36 2.81  42 2.83  27 2.84  30 2.84
  34  0.001  0.002  0.667-  75 1.87  96 1.87  78 1.88  81 1.90  84 1.91  63 1.92  12 2.79  19 2.79
                            37 2.80  16 2.83  25 2.83  31 2.84  40 2.84
  35  0.112  0.331  0.888-  44 1.87  95 1.87  47 1.88  80 1.90  83 1.91  50 1.92   3 2.79  26 2.79
                            38 2.80  32 2.83  20 2.83  17 2.84  41 2.84
  36  0.218  0.667  0.778-  85 1.86  88 1.86  79 1.90  82 1.90  49 1.94  64 1.94  42 2.77  18 2.81
                            33 2.81  39 2.85  21 2.85  27 2.85
  37  0.332  0.001  0.667-  84 1.86  69 1.87  90 1.88  66 1.92  87 1.92  63 1.92  34 2.80  19 2.81
                            28 2.81  40 2.83  25 2.84  22 2.84
  38  0.443  0.332  0.889-  83 1.86  56 1.87  89 1.88  53 1.92  86 1.92  50 1.92  35 2.80  26 2.81
                            23 2.81  41 2.83  20 2.84  29 2.84
  39  0.554  0.667  0.778-  55 1.86  70 1.86  91 1.93  94 1.93  85 1.96  88 1.96  14 2.77  13 2.77
                            21 2.81  27 2.81  24 2.83  30 2.83  42 2.85  36 2.85
  40  0.665  0.000  0.665-  93 1.87  96 1.87  72 1.91  69 1.91  90 1.97  75 1.97  28 2.77  15 2.78
                            11 2.78  31 2.83  37 2.83  22 2.84  34 2.84  16 2.85
  41  0.778  0.333  0.891-  92 1.87  95 1.87  56 1.91  59 1.91  44 1.97  89 1.97  23 2.77  15 2.78
                             1 2.78  17 2.83  38 2.83  35 2.84  29 2.84  32 2.85
  42  0.891  0.667  0.778-  91 1.87  94 1.87  79 1.91  82 1.91  43 1.97  76 1.97  36 2.77  11 2.78
                             1 2.78  18 2.83  33 2.83  24 2.84  30 2.84  39 2.85
  43  0.006  0.735  0.011-  24 1.87  18 1.88  42 1.97   2 1.99
  44  0.011  0.265  0.006-  35 1.87  17 1.88  41 1.97   3 1.99
  45  0.125  0.071  0.229-  28 1.86  25 1.95  16 1.96   9 2.08   3 2.09
  46  0.104  0.597  0.219-  24 1.88  18 1.92  27 1.94   7 2.12   1 2.27
  47  0.219  0.403  0.104-  35 1.88  17 1.92  20 1.94   4 2.12   1 2.27
  48  0.229  0.929  0.125-  28 1.86  19 1.95  16 1.96   5 2.08   2 2.09
  49  0.341  0.736  0.006-  21 1.89  18 1.92  36 1.94   5 2.10  14 2.24
  50  0.336  0.262  0.006-  20 1.88  35 1.92  38 1.92   6 2.12   3 2.13
  51  0.444  0.069  0.215-  19 1.89  31 1.92  28 1.94   6 2.10   3 2.24
  52  0.448  0.595  0.219-  21 1.88  30 1.92  18 1.92   4 2.12  10 2.13
  53  0.549  0.402  0.112-  20 1.89  38 1.92  23 1.94   4 2.10  10 2.24
  54  0.549  0.929  0.108-  19 1.88  22 1.92  31 1.92   5 2.12  14 2.13
  55  0.661  0.733  0.997-  39 1.86  21 1.87  24 1.90  14 2.01
  56  0.660  0.264  0.997-  38 1.87  23 1.90  41 1.91   6 2.12  15 2.13
  57  0.772  0.069  0.222-  31 1.86  22 1.91  25 1.91   6 2.10  12 2.28
  58  0.783  0.598  0.228-  33 1.86  24 1.91  21 1.91   7 2.10  10 2.28
  59  0.896  0.403  0.114-  17 1.87  23 1.90  41 1.91   7 2.12   1 2.13
  60  0.894  0.934  0.113-  16 1.86  25 1.87  22 1.90   2 2.01
  61  0.006  0.738  0.336-  27 1.88  24 1.92  33 1.92   8 2.12   2 2.13
  62  0.006  0.264  0.341-  26 1.89  17 1.92  23 1.94   9 2.10  12 2.24
  63  0.108  0.071  0.549-  25 1.88  34 1.92  37 1.92   9 2.12  12 2.13
  64  0.112  0.598  0.549-  27 1.89  33 1.92  36 1.94   7 2.10  13 2.24
  65  0.219  0.405  0.448-  26 1.88  29 1.92  17 1.92   7 2.12  13 2.13
  66  0.215  0.931  0.444-  25 1.89  37 1.92  28 1.94   8 2.10   2 2.24
  67  0.333  0.736  0.328-  18 1.86  30 1.91  27 1.91   5 2.10   2 2.28
  68  0.328  0.264  0.333-  17 1.86  29 1.91  20 1.91   9 2.10   3 2.28
  69  0.441  0.070  0.559-  37 1.87  28 1.90  40 1.91   9 2.12  15 2.13
  70  0.442  0.601  0.559-  39 1.86  27 1.87  30 1.90  13 2.01
  71  0.559  0.399  0.442-  32 1.86  20 1.87  29 1.90  10 2.01
  72  0.559  0.930  0.441-  31 1.87  28 1.90  40 1.91   5 2.12  11 2.13
  73  0.663  0.736  0.337-  30 1.88  33 1.92  21 1.94   5 2.12  11 2.27
  74  0.673  0.262  0.326-  23 1.86  20 1.95  32 1.96   6 2.08  12 2.09
  75  0.782  0.069  0.549-  34 1.87  31 1.88  40 1.97  12 1.99
  76  0.773  0.598  0.545-  30 1.87  33 1.88  42 1.97  10 1.99
  77  0.882  0.405  0.431-  23 1.86  26 1.95  32 1.96   7 2.08  10 2.09
  78  0.892  0.931  0.452-  34 1.88  31 1.92  25 1.94   8 2.12  11 2.27
  79  0.997  0.736  0.660-  33 1.87  36 1.90  42 1.91   8 2.12  11 2.13
  80  0.997  0.267  0.661-  32 1.86  26 1.87  35 1.90  12 2.01
  81  0.113  0.066  0.894-  16 1.86  19 1.87  34 1.90   3 2.01
  82  0.114  0.597  0.896-  18 1.87  36 1.90  42 1.91   4 2.12   1 2.13
  83  0.228  0.402  0.783-  38 1.86  35 1.91  26 1.91   4 2.10  13 2.28
  84  0.222  0.931  0.772-  37 1.86  34 1.91  19 1.91   8 2.10  14 2.28
  85  0.326  0.738  0.673-  36 1.86  27 1.95  39 1.96   8 2.08  14 2.09
  86  0.337  0.264  0.663-  29 1.88  38 1.92  26 1.94   9 2.12  15 2.27
  87  0.452  0.069  0.892-  22 1.88  37 1.92  19 1.94   6 2.12  15 2.27
  88  0.431  0.595  0.882-  36 1.86  21 1.95  39 1.96   4 2.08  13 2.09
  89  0.545  0.402  0.773-  29 1.87  38 1.88  41 1.97  13 1.99
  90  0.549  0.931  0.782-  22 1.87  37 1.88  40 1.97  14 1.99
  91  0.670  0.732  0.663-  42 1.87  30 1.87  39 1.93  11 2.00
  92  0.663  0.268  0.670-  41 1.87  29 1.87  32 1.93  15 2.00
  93  0.770  0.066  0.885-  40 1.87  22 1.87  16 1.93  15 2.00
  94  0.785  0.601  0.893-  42 1.87  24 1.87  39 1.93   1 2.00
  95  0.893  0.399  0.785-  41 1.87  35 1.87  32 1.93   1 2.00
  96  0.885  0.934  0.770-  40 1.87  34 1.87  16 1.93  11 2.00

  LATTYP: Found a hexagonal cell.
 ALAT       =     8.4667686932
 C/A-ratio  =     1.6797022876

  Lattice vectors:

[...]
   0.190E+02 -.382E+02 -.334E+03   -.190E+02 0.414E+02 0.354E+03   -.168E-01 -.314E+01 -.207E+02   0.189E-01 -.123E-02 0.157E-01
   0.169E+02 -.416E+02 0.316E+03   -.171E+02 0.439E+02 -.335E+03   0.275E+00 -.231E+01 0.182E+02   0.114E-01 -.496E-03 0.103E-01
   0.327E+02 -.212E+02 -.320E+03   -.346E+02 0.229E+02 0.339E+03   0.188E+01 -.168E+01 -.190E+02   0.181E-01 -.699E-02 0.450E-02
   0.327E+02 0.212E+02 0.320E+03   -.346E+02 -.229E+02 -.339E+03   0.188E+01 0.168E+01 0.190E+02   0.181E-01 0.699E-02 -.450E-02
   0.169E+02 0.416E+02 -.316E+03   -.171E+02 -.439E+02 0.335E+03   0.275E+00 0.231E+01 -.182E+02   0.114E-01 0.496E-03 -.103E-01
   0.190E+02 0.382E+02 0.334E+03   -.190E+02 -.414E+02 -.354E+03   -.168E-01 0.314E+01 0.207E+02   0.189E-01 0.123E-02 -.157E-01
[...]
   0.202E+01 0.390E+02 -.320E+03   -.253E+01 -.415E+02 0.339E+03   0.518E+00 0.246E+01 -.190E+02   -.297E-02 0.191E-01 0.450E-02
   -.348E+02 0.177E+02 0.320E+03   0.372E+02 -.185E+02 -.339E+03   -.239E+01 0.784E+00 0.190E+02   -.151E-01 0.121E-01 -.450E-02
   0.298E+02 -.413E+02 -.315E+03   -.319E+02 0.435E+02 0.330E+03   0.215E+01 -.216E+01 -.146E+02   0.150E-01 -.254E-01 0.703E-02
   -.272E+02 0.929E+01 0.327E+03   0.298E+02 -.105E+02 -.344E+03   -.258E+01 0.120E+01 0.163E+02   0.100E-01 0.620E-02 -.507E-02
   0.557E+01 0.282E+02 -.327E+03   -.582E+01 -.311E+02 0.344E+03   0.253E+00 0.283E+01 -.163E+02   -.104E-01 -.560E-02 0.507E-02
   0.209E+02 -.464E+02 0.315E+03   -.217E+02 0.494E+02 -.330E+03   0.793E+00 -.294E+01 0.146E+02   0.145E-01 -.257E-01 -.703E-02
   0.792E+01 -.621E+02 -.346E+03   -.723E+01 0.674E+02 0.364E+03   -.707E+00 -.527E+01 -.175E+02   0.208E-01 0.848E-03 -.440E-02
   0.498E+02 -.379E+02 0.346E+03   -.547E+02 0.399E+02 -.364E+03   0.491E+01 -.202E+01 0.175E+02   -.111E-01 -.176E-01 0.440E-02
   -.522E+02 0.166E+02 -.329E+03   0.562E+02 -.190E+02 0.347E+03   -.402E+01 0.235E+01 -.180E+02   -.137E-01 0.131E-01 0.139E-01
   0.405E+02 -.369E+02 0.329E+03   -.445E+02 0.392E+02 -.347E+03   0.404E+01 -.231E+01 0.180E+02   0.182E-01 -.533E-02 -.139E-01
   0.117E+02 -.535E+02 -.329E+03   -.117E+02 0.581E+02 0.347E+03   -.227E-01 -.466E+01 -.180E+02   -.447E-02 -.184E-01 0.139E-01
   0.117E+02 0.535E+02 0.329E+03   -.117E+02 -.581E+02 -.347E+03   -.227E-01 0.466E+01 0.180E+02   -.447E-02 0.184E-01 -.139E-01
   0.405E+02 0.369E+02 -.329E+03   -.445E+02 -.392E+02 0.347E+03   0.404E+01 0.231E+01 -.180E+02   0.182E-01 0.533E-02 0.139E-01
   -.522E+02 -.166E+02 0.329E+03   0.562E+02 0.190E+02 -.347E+03   -.402E+01 -.235E+01 0.180E+02   -.137E-01 -.131E-01 -.139E-01
   -.642E-03 0.162E-02 0.209E-02   -.483E-12 0.444E-12 0.341E-12   0.888E-15 -.178E-14 0.142E-13   -.107E-04 -.186E-04 -.648E-08

 POSITION                                       TOTAL-FORCE (eV/Angst)
      4.11925      7.13475      7.15398        -0.003918     -0.006786      0.000000
      1.30444      0.64758     11.95080        -0.014877     -0.012193      0.003180
     -0.09140      1.45347      2.35716        -0.003120     -0.018980     -0.003180
      7.04180      2.44426      7.14699        -0.000454      0.006425      0.000711
      0.00471      3.24743     11.91631        -0.005337     -0.003605      0.000711
     -1.40411      4.08123      2.37767         0.005791     -0.002820      0.000711
     -1.40411      7.32051      7.16097         0.005791      0.002820     -0.000711
      4.23651      0.82462     11.93029        -0.005337      0.003605     -0.000711
      2.81000      1.62779      2.39165        -0.000454     -0.006425     -0.000711
      0.19756      4.89498      7.12649         0.017998      0.006788     -0.003180
      1.63569      5.70087     11.92330         0.007836      0.000000      0.000000
      0.19756      6.50676      2.41216         0.017998     -0.006788      0.003180
      4.14040      2.61858      7.18148        -0.003120      0.018980      0.003180
      5.53624      3.42447     11.89581        -0.014877      0.012193     -0.003180
      4.11925      4.26699      2.38466        -0.003918      0.006786      0.000000
      0.00193      0.00335     -0.00000        -0.000695     -0.001203      0.000000
      1.42031      0.83113      4.78911        -0.000970      0.002590      0.000221
      0.00962      1.64559      9.51886         0.002728      0.000455     -0.000221
      7.04594      2.42899     14.27827         0.000410      0.000768     -0.000368
      0.01586      3.25865      4.73962        -0.000870     -0.000029     -0.000368
     -1.41941      4.08528      9.50895         0.000461     -0.000739     -0.000368
     -2.80862      4.89091     14.28302         0.000698     -0.001554      0.000441
     -1.45768      5.70087      4.76932        -0.000970     -0.000000      0.000000
     -2.80862      6.51083      9.56359         0.000698      0.001554     -0.000441
     -1.41941      7.31646      0.02970         0.000461      0.000739      0.000368
      4.24766      0.81340      4.79902        -0.000870      0.000029      0.000368
      2.81414      1.64306      9.56834         0.000410     -0.000768      0.000368
      1.43414      2.48400     -0.00000         0.000485      0.000840      0.000000
      2.81106      3.24897      4.79427         0.000997     -0.001382     -0.000441
      1.40816      4.05893      9.51370        -0.001695      0.000172      0.000441
     -0.01933      4.88641     14.28818        -0.001758      0.002135     -0.000221
      1.40674      5.70087      4.76932         0.001389      0.000000      0.000000
     -0.01933      6.51533      9.55843        -0.001758     -0.002135      0.000221
      5.63996      0.01312      0.02495        -0.001695     -0.000172     -0.000441
      7.04286      0.82308      4.74437         0.000997      0.001382      0.000441
      5.66594      1.58805      9.53864         0.000485     -0.000840      0.000000
      4.24142      2.42646      0.01978         0.002728     -0.000455      0.000221
      5.65211      3.24092      4.74954        -0.000970     -0.002590     -0.000221
      4.23373      4.06871      9.53864        -0.000695      0.001203      0.000000
      2.81356      4.87323     -0.00000        -0.000021     -0.000036      0.000000
      4.24708      5.70087      4.76932         0.000041      0.000000      0.000000
      2.81356      6.52851      9.53864        -0.000021      0.000036      0.000000
      0.07127      0.05132     10.50812         0.001943      0.003034     -0.000892
      0.00881      0.08738      3.79984         0.001656      0.003200      0.000892
      1.42357      0.91648      1.01244         0.002198     -0.000238     -0.002212
      1.42174      0.76672      8.54946         0.002515      0.003472      0.001726
     -0.04687      1.61462      5.75851         0.001750      0.003914     -0.001726
      0.08191      1.69109     13.29552        -0.001305      0.001785      0.002212
     -1.38921      2.50282     10.52109         0.004888     -0.001331     -0.002468
     -1.36182      2.46239      3.75087        -0.001424      0.000775      0.000535
     -0.06230      3.24637      0.98245        -0.001291      0.004898     -0.002468
     -0.04098      3.29031      8.52019         0.000041     -0.001621      0.000535
     -1.36969      4.02374      5.75177        -0.003597     -0.003567     -0.002468
     -1.41840      4.02023     13.28951         0.001384      0.000846      0.000535
      5.63990      4.83959     10.47456         0.000358      0.001242     -0.000811
      5.63215      4.83285      3.78000        -0.000364     -0.001753      0.001892
     -1.38620      5.66537      0.98025        -0.001256      0.000558     -0.000100
     -1.38620      5.73638      8.55839        -0.001256     -0.000558      0.000100
     -2.83144      6.56889      5.75864        -0.000364      0.001753     -0.001892
     -2.82370      6.56215     13.37204         0.000358     -0.001242      0.000811
[...]
      7.10455      0.83234      8.54932         0.001700      0.000561      0.001892
      5.66094      1.66771      5.74957         0.000145     -0.001367     -0.000100
      5.59945      1.63220     13.32772         0.001111     -0.000808      0.000100
      4.31371      2.38096     10.55108        -0.001305     -0.001785     -0.002212
      4.18493      2.45743      3.78014         0.001750     -0.003914      0.001726
      5.65353      3.30533      0.98919         0.002515     -0.003472     -0.001726
      5.65537      3.15557      8.52620         0.002198      0.000238      0.002212
      4.24061      3.98467      5.73880         0.001656     -0.003200     -0.000892
      4.30306      4.02073     13.33849         0.001943     -0.003034      0.000892
      2.75802      4.92356     10.47664        -0.001494      0.001674     -0.000410
      2.88492      4.85030      3.83132         0.002197     -0.000457      0.000410
      4.23126      5.62760      0.93800        -0.000702     -0.002131     -0.000410
      4.23126      5.77414      8.60064        -0.000702      0.002131      0.000410
      2.88492      6.55145      5.70732         0.002197      0.000457     -0.000410
      2.75802      6.47818     13.36996        -0.001494     -0.001674      0.000410
    total drift:                               -0.000653      0.001598      0.002094

  FREE ENERGIE OF THE ION-ELECTRON SYSTEM (eV)
  free  energy   TOTEN  =      -586.8843710003 eV

  energy  without entropy=     -586.8524635432  energy(sigma->0) =     -586.86841727

 d Force = 0.1150363E-03[ 0.110E-03, 0.120E-03]  d Energy = 0.1080264E-03 0.701E-05
 d Force =-0.3008107E+00[-0.301E+00,-0.301E+00]  d Ewald  =-0.8085147E+00 0.508E+00

 Quasi-Newton relaxation of ions (Broydens 2nd method)
  g(Force)  = 0.163E-03   g(Stress)= 0.794E-04

 retain information from N=  1 steps
 eigenvalues of (default step * inverse Hessian matrix)
  average eigenvalue of G=   0.1179
 eigenvalue spectrum of G is  0.1179

 reached required accuracy - stopping structural energy minimisation

volume of typ            1:    13.2 %

[...]

volume of typ            3:     9.9 %

total charge

# of ion       s       p       d       tot
    1        2.076   0.246   0.093   2.415
    2        2.076   0.247   0.094   2.417
    3        2.076   0.247   0.094   2.417
    4        2.075   0.243   0.092   2.409
    5        2.075   0.243   0.092   2.409
    6        2.075   0.243   0.092   2.409
    7        2.075   0.243   0.092   2.409
    8        2.075   0.243   0.092   2.409
    9        2.075   0.243   0.092   2.409
   10        2.076   0.247   0.094   2.417
   11        2.076   0.246   0.093   2.415
   12        2.076   0.247   0.094   2.417
   13        2.076   0.247   0.094   2.417
   14        2.076   0.247   0.094   2.417
   15        2.076   0.246   0.093   2.415
   16        0.268   0.352   7.848   8.468
   17        0.283   0.385   7.842   8.510
   18        0.283   0.385   7.842   8.510
   19        0.281   0.382   7.844   8.507
   20        0.281   0.382   7.844   8.507
   21        0.281   0.382   7.844   8.507
   22        0.286   0.389   7.838   8.513
   23        0.277   0.373   7.844   8.495
   24        0.286   0.389   7.838   8.513
   25        0.281   0.382   7.844   8.507
   26        0.281   0.382   7.844   8.507
   27        0.281   0.382   7.844   8.507
   28        0.277   0.373   7.844   8.495
   29        0.286   0.389   7.838   8.513
   30        0.286   0.389   7.838   8.513
   31        0.283   0.385   7.842   8.510
   32        0.268   0.352   7.848   8.468
   33        0.283   0.385   7.842   8.510
   34        0.286   0.389   7.838   8.513
   35        0.286   0.389   7.838   8.513
   36        0.277   0.373   7.844   8.495
   37        0.283   0.385   7.842   8.510
   38        0.283   0.385   7.842   8.510
   39        0.268   0.352   7.848   8.468
   40        0.273   0.362   7.845   8.480
   41        0.273   0.362   7.845   8.480
   42        0.273   0.362   7.845   8.480
   43        1.275   2.755   0.007   4.036
   44        1.275   2.755   0.007   4.036
   45        1.267   2.771   0.006   4.044
   46        1.272   2.757   0.006   4.035
   47        1.272   2.757   0.006   4.035
   48        1.267   2.771   0.006   4.044
   49        1.270   2.761   0.006   4.038
   50        1.265   2.774   0.006   4.045
   51        1.270   2.761   0.006   4.038
   52        1.265   2.774   0.006   4.045
   53        1.270   2.761   0.006   4.038
   54        1.265   2.774   0.006   4.045
   55        1.268   2.770   0.007   4.046
   56        1.263   2.781   0.007   4.051
   57        1.266   2.773   0.007   4.046
   58        1.266   2.773   0.007   4.046
   59        1.263   2.781   0.007   4.051
   60        1.268   2.770   0.007   4.046
[...]
   82        1.263   2.781   0.007   4.051
   83        1.266   2.773   0.007   4.046
   84        1.266   2.773   0.007   4.046
   85        1.267   2.771   0.006   4.044
   86        1.272   2.757   0.006   4.035
   87        1.272   2.757   0.006   4.035
   88        1.267   2.771   0.006   4.044
   89        1.275   2.755   0.007   4.036
   90        1.275   2.755   0.007   4.036
   91        1.272   2.761   0.007   4.040
   92        1.272   2.761   0.007   4.040
   93        1.272   2.761   0.007   4.040
   94        1.272   2.761   0.007   4.040
   95        1.272   2.761   0.007   4.040
   96        1.272   2.761   0.007   4.040
tot         107.20  163.30  213.50  484.00

magnetization (x)

# of ion       s       p       d       tot
    1        0.006   0.013   0.001   0.020
    2        0.007   0.012   0.001   0.019
    3        0.007   0.012   0.001   0.019
    4        0.006   0.012   0.001   0.019
    5        0.006   0.012   0.001   0.019
    6        0.006   0.012   0.001   0.019
    7        0.006   0.012   0.001   0.019
    8        0.006   0.012   0.001   0.019
    9        0.006   0.012   0.001   0.019
   10        0.007   0.012   0.001   0.019
   11        0.006   0.013   0.001   0.020
   12        0.007   0.012   0.001   0.019
   13        0.007   0.012   0.001   0.019
   14        0.007   0.012   0.001   0.019
   15        0.006   0.013   0.001   0.020
   16       -0.000  -0.001   0.635   0.634
   17       -0.000  -0.001   0.348   0.347
   18       -0.000  -0.001   0.348   0.347
   19       -0.000  -0.001   0.382   0.381
   20       -0.000  -0.001   0.382   0.381
   21       -0.000  -0.001   0.382   0.381
   22       -0.001  -0.000   0.254   0.253
   23       -0.000  -0.001   0.450   0.449
   24       -0.001  -0.000   0.254   0.253
   25       -0.000  -0.001   0.382   0.381
   26       -0.000  -0.001   0.382   0.381
   27       -0.000  -0.001   0.382   0.381
   28       -0.000  -0.001   0.450   0.449
   29       -0.001  -0.000   0.254   0.253
   30       -0.001  -0.000   0.254   0.253
   31       -0.000  -0.001   0.348   0.347
   32       -0.000  -0.001   0.635   0.634
   33       -0.000  -0.001   0.348   0.347
   34       -0.001  -0.000   0.254   0.253
   35       -0.001  -0.000   0.254   0.253
   36       -0.000  -0.001   0.450   0.449
   37       -0.000  -0.001   0.348   0.347
   38       -0.000  -0.001   0.348   0.347
   39       -0.000  -0.001   0.635   0.634
   40       -0.000  -0.001   0.537   0.537
   41       -0.000  -0.001   0.537   0.537
   42       -0.000  -0.001   0.537   0.537
   43        0.011   0.092   0.000   0.103
   44        0.011   0.092   0.000   0.103
   45        0.012   0.087   0.000   0.099
   46        0.011   0.061   0.000   0.072
   47        0.011   0.061   0.000   0.072
   48        0.012   0.087   0.000   0.099
   49        0.011   0.074   0.000   0.086
   50        0.004   0.006   0.000   0.010
   51        0.011   0.074   0.000   0.086
   52        0.004   0.006   0.000   0.010
   53        0.011   0.074   0.000   0.086
   54        0.004   0.006   0.000   0.010
   55        0.004   0.005   0.000   0.009
   56        0.004   0.007   0.000   0.011
   57        0.004   0.004   0.000   0.008
   58        0.004   0.004   0.000   0.008
   59        0.004   0.007   0.000   0.011
   60        0.004   0.005   0.000   0.009
[...]
   82        0.004   0.007   0.000   0.011
   83        0.004   0.004   0.000   0.008
   84        0.004   0.004   0.000   0.008
   85        0.012   0.087   0.000   0.099
   86        0.011   0.061   0.000   0.072
   87        0.011   0.061   0.000   0.072
   88        0.012   0.087   0.000   0.099
   89        0.011   0.092   0.000   0.103
   90        0.011   0.092   0.000   0.103
   91        0.010   0.074   0.000   0.084
   92        0.010   0.074   0.000   0.084
   93        0.010   0.074   0.000   0.084
   94        0.010   0.074   0.000   0.084
   95        0.010   0.074   0.000   0.084
   96        0.010   0.074   0.000   0.084
tot           0.51    2.62   10.80   13.93