 vasp.5.4.4.18Apr17-6-g9f103f2a35 (build May 12 2020 05:39:39) gamma-only

 MD_VERSION_INFO: Compiled 2020-05-12T12:39:39-UTC in devlin.sd.materialsdesign.
 com:/home/medea2/data/build/wwolf/vasp-gpu5.4.4/13047/x86_64/src/src/build/gam
 from svn 13047

 executed on                        Lin64 date 2023.03.07  03:46:41

 INCAR:
 POTCAR:    PAW_PBE Li_sv 10Sep2004
 POTCAR:    PAW_PBE Ni 02Aug2007
 POTCAR:    PAW_PBE O 08Apr2002

 POTCAR:    PAW_PBE Li_sv 10Sep2004

 POTCAR:    PAW_PBE Ni 02Aug2007

 POTCAR:    PAW_PBE O 08Apr2002

 Optimization of the real space projectors (new method)

 maximal supplied QI-value         = 22.11
 optimisation between [QCUT,QGAM] = [ 11.28, 22.77] = [ 35.61,145.23] Ry
 Optimized for a Real-space Cutoff    1.10 Angstroem

   l    n(q)    QCUT    max X(q) W(low)/X(q) W(high)/X(q)  e(spline)
   0      7    11.276    10.506    0.54E-04    0.58E-04    0.16E-07
   0      7    11.276     8.367    0.11E-03    0.14E-03    0.35E-07
   1      7    11.276     8.983    0.23E-03    0.43E-03    0.86E-07
 Optimization of the real space projectors (new method)

[...]

   l    n(q)    QCUT    max X(q) W(low)/X(q) W(high)/X(q)  e(spline)
   2      9    11.376    60.317    0.17E-03    0.16E-04    0.16E-06
   2      9    11.376    55.921    0.17E-03    0.16E-04    0.17E-06
   0     10    11.376    51.690    0.45E-04    0.60E-04    0.21E-06
   0     10    11.376    30.015    0.37E-04    0.55E-04    0.19E-06
   1     10    11.376    18.849    0.83E-04    0.11E-03    0.92E-07
   1     10    11.376    14.624    0.69E-04    0.92E-04    0.82E-07
 Optimization of the real space projectors (new method)

 maximal supplied QI-value         = 24.76
 optimisation between [QCUT,QGAM] = [ 11.39, 22.77] = [ 36.31,145.25] Ry
 Optimized for a Real-space Cutoff    1.10 Angstroem

   l    n(q)    QCUT    max X(q) W(low)/X(q) W(high)/X(q)  e(spline)
   0      7    11.387    20.381    0.22E-03    0.48E-03    0.18E-06
   0      7    11.387    15.268    0.22E-03    0.52E-03    0.19E-06
   1      7    11.387     5.964    0.22E-03    0.73E-03    0.24E-06
   1      7    11.387     5.382    0.19E-03    0.60E-03    0.21E-06

  PAW_PBE Li_sv 10Sep2004               :
  PAW_PBE Ni 02Aug2007                  :
  PAW_PBE O 08Apr2002                   :

 POSCAR: ce14527_1
  positions in direct lattice
 exchange correlation table for  LEXCH =       14
   RHO(1)=    0.500       N(1)  =     2000
   RHO(2)=  100.500       N(2)  =     4000

 ion  position               nearest neighbor table
   1  0.252  0.249  0.498-  46 2.09  40 2.11  50 2.11  28 2.15  26 2.15  38 2.17
   2  0.207  0.750  0.500-  29 2.02  27 2.06  51 2.14  47 2.14  16 2.78  18 2.83
   3  0.527  0.251  0.265-  40 1.98  49 2.02  37 2.12  46 2.16  54 2.19  14 2.76  23 2.81
   4  0.549  0.751  0.751-  48 2.03  36 2.03  41 2.10  55 2.13  22 2.79  13 2.80
   5  0.974  0.251  0.732-  53 2.01  26 2.01  33 2.12  50 2.15  44 2.24  22 2.76  16 2.82
   6  0.250  0.249  1.000-  34 2.09  42 2.13  44 2.13  56 2.13  54 2.13  30 2.13  20 2.84  12 2.84

   7  0.202  0.751  0.999-  43 2.03  45 2.03  35 2.12  31 2.16  10 2.78  24 2.80
   8  0.751  0.249  0.000-  54 2.10  44 2.11  37 2.12  42 2.13  56 2.13  33 2.15
   9  0.542  0.751  0.250-  52 2.03  32 2.03  57 2.14  39 2.18  14 2.81  21 2.84
  10  0.001  0.002  0.001-  36 1.85  34 1.85  35 1.85  37 1.86  45 1.96  44 2.04  15 2.76  15 2.77
                             7 2.78  11 2.83  12 2.84  13 2.85  14 2.86
  11  0.247  0.002  0.251-  45 1.83  28 1.84  40 1.84  57 1.85  51 2.04  34 2.04  14 2.75  14 2.78
                            10 2.83  16 2.84  15 2.85  17 2.86
  12  0.250  0.004  0.753-  41 1.83  29 1.85  44 1.86  56 1.87  50 2.03  35 2.04  13 2.76  13 2.77
                            10 2.84  15 2.84  17 2.84   6 2.84  16 2.86
  13  0.750  0.002  0.750-  41 1.85  29 1.86  56 1.86  44 1.87  53 1.94  36 1.95  12 2.76  12 2.77
                             4 2.80  17 2.82  16 2.85  10 2.85  15 2.86
  14  0.749  0.003  0.252-  45 1.85  28 1.86  40 1.86  57 1.86  52 1.94  37 2.01  11 2.75   3 2.76
                            11 2.78   9 2.81  16 2.83  15 2.83  17 2.85  10 2.86
  15  0.502  0.999  0.001-  35 1.84  37 1.84  36 1.85  34 1.85  56 1.97  57 1.99  10 2.76  10 2.77
                            14 2.83  12 2.84  11 2.85  13 2.86
  16  0.999  0.999  0.499-  50 1.85  53 1.85  52 1.86  51 1.86  28 1.94  29 1.94  17 2.76  17 2.77
                             2 2.78   5 2.82  14 2.83  11 2.84  13 2.85  12 2.86
  17  0.500  0.005  0.504-  51 1.84  52 1.84  53 1.84  50 1.86  40 2.06  41 2.08  16 2.76  16 2.77
                            13 2.82  12 2.84  14 2.85  11 2.86
  18  0.000  0.497  0.498-  49 1.85  47 1.85  48 1.86  46 1.87  27 1.96  26 2.00  23 2.76  23 2.77
                             2 2.83  21 2.83  19 2.85  22 2.85  20 2.86
  19  0.251  0.500  0.750-  55 1.84  38 1.84  26 1.84  43 1.85  30 2.02  47 2.03  22 2.76  22 2.77
                            25 2.82  18 2.85  23 2.85  24 2.86
  20  0.250  0.494  0.246-  27 1.84  39 1.84  42 1.85  54 1.87  31 2.04  46 2.04  21 2.76  21 2.77
                            24 2.82   6 2.84  25 2.85  18 2.86  23 2.86
  21  0.751  0.497  0.249-  27 1.85  39 1.86  42 1.87  54 1.87  32 1.94  49 1.94  20 2.76  20 2.77
                            18 2.83   9 2.84  24 2.84  23 2.84  25 2.86
  22  0.750  0.499  0.749-  38 1.85  43 1.86  55 1.86  26 1.87  48 1.95  33 2.00  19 2.76   5 2.76
                            19 2.77   4 2.79  25 2.83  23 2.84  24 2.85  18 2.85
  23  0.502  0.500  0.500-  48 1.84  47 1.84  49 1.84  46 1.84  38 1.96  39 2.01  18 2.76  18 2.77
                             3 2.81  22 2.84  21 2.84  19 2.85  20 2.86
  24  0.999  0.502  0.001-  30 1.84  33 1.85  32 1.86  31 1.86  43 1.95  42 1.96  25 2.76  25 2.77
                             7 2.80  20 2.82  21 2.84  22 2.85  19 2.86
  25  0.500  0.497  0.997-  31 1.83  32 1.84  30 1.86  33 1.86  55 2.03  54 2.07  24 2.76  24 2.77
                            19 2.82  22 2.83  20 2.85  21 2.86
  26  0.005  0.396  0.639-  19 1.84  22 1.87  18 2.00   5 2.01   1 2.15
  27  0.004  0.595  0.359-  20 1.84  21 1.85  18 1.96   2 2.06
  28  0.001  0.101  0.366-  11 1.84  14 1.86  16 1.94   1 2.15
  29  0.004  0.903  0.638-  12 1.85  13 1.86  16 1.94   2 2.02
  30  0.245  0.396  0.890-  24 1.84  25 1.86  19 2.02   6 2.13
  31  0.256  0.602  0.108-  25 1.83  24 1.86  20 2.04   7 2.16
  32  0.743  0.596  0.114-  25 1.84  24 1.86  21 1.94   9 2.03
  33  0.756  0.396  0.888-  24 1.85  25 1.86  22 2.00   5 2.12   8 2.15
  34  0.252  0.105  0.108-  15 1.85  10 1.85  11 2.04   6 2.09
  35  0.252  0.898  0.894-  15 1.84  10 1.85  12 2.04   7 2.12
  36  0.753  0.903  0.888-  15 1.85  10 1.85  13 1.95   4 2.03
  37  0.747  0.105  0.111-  15 1.84  10 1.86  14 2.01   3 2.12   8 2.12
  38  0.499  0.401  0.637-  19 1.84  22 1.85  23 1.96   1 2.17
  39  0.494  0.599  0.356-  20 1.84  21 1.86  23 2.01   9 2.18
  40  0.494  0.108  0.358-  11 1.84  14 1.86   3 1.98  17 2.06   1 2.11
  41  0.496  0.897  0.647-  12 1.83  13 1.85  17 2.08   4 2.10
  42  1.000  0.395  0.132-  20 1.85  21 1.87  24 1.96   6 2.13   8 2.13
  43  0.000  0.598  0.863-  19 1.85  22 1.86  24 1.95   7 2.03
  44  0.998  0.109  0.862-  12 1.86  13 1.87  10 2.04   8 2.11   6 2.13   5 2.24
  45  0.000  0.904  0.140-  11 1.83  14 1.85  10 1.96   7 2.03
  46  0.257  0.393  0.391-  23 1.84  18 1.87  20 2.04   1 2.09   3 2.16
  47  0.250  0.602  0.607-  23 1.84  18 1.85  19 2.03   2 2.14
  48  0.750  0.598  0.613-  23 1.84  18 1.86  22 1.95   4 2.03
  49  0.750  0.400  0.386-  23 1.84  18 1.85  21 1.94   3 2.02
  50  0.242  0.106  0.610-  16 1.85  17 1.86  12 2.03   1 2.11   5 2.15
  51  0.258  0.898  0.394-  17 1.84  16 1.86  11 2.04   2 2.14
  52  0.744  0.904  0.388-  17 1.84  16 1.86  14 1.94   9 2.03
  53  0.752  0.100  0.615-  17 1.84  16 1.85  13 1.94   5 2.01
  54  0.504  0.388  0.138-  20 1.87  21 1.87  25 2.07   8 2.10   6 2.13   3 2.19
  55  0.498  0.604  0.857-  19 1.84  22 1.86  25 2.03   4 2.13
  56  0.502  0.104  0.867-  13 1.86  12 1.87  15 1.97   8 2.13   6 2.13
  57  0.498  0.900  0.142-  11 1.85  14 1.86  15 1.99   9 2.14

  LATTYP: Found a triclinic cell.
 ALAT       =    11.6321672204
 B/A-ratio  =     0.4753870905
 C/A-ratio  =     0.8550888596
 COS(alpha) =     0.0025348646
 COS(beta)  =     0.2992297082
 COS(gamma) =     0.4805164947

  Lattice vectors:

 A1 = (  -3.5802293042,   5.5595800307,   9.5697618704)
 A2 = (  -0.0070909353,   5.5297582574,   0.0146200211)
 A3 = (  -9.9459131341,   0.0127518621,  -0.1106332788)

Analysis of symmetry for initial positions (statically):
 Subroutine PRICEL returns:
 Original cell was already a primitive cell.

 Routine SETGRP: Setting up the symmetry group for a
 triclinic supercell.

 Subroutine GETGRP returns: Found  1 space group operations
 (whereof  1 operations were pure point group operations)
 out of a pool of  2 trial point group operations.

The static configuration has the point symmetry C_1 .

Analysis of symmetry for dynamics (positions and initial velocities):
 Subroutine PRICEL returns:
 Original cell was already a primitive cell.

[...]

The dynamic configuration has the point symmetry C_1 .

Analysis of structural, dynamic, and magnetic symmetry:
 Subroutine PRICEL returns:
 Original cell was already a primitive cell.

 Routine SETGRP: Setting up the symmetry group for a
 triclinic supercell.

 Subroutine GETGRP returns: Found  1 space group operations
 (whereof  1 operations were pure point group operations)
 out of a pool of  2 trial point group operations.

The magnetic configuration has the point symmetry C_1 .

 Subroutine INISYM returns: Found  1 space group operations
 (whereof  1 operations are pure point group operations),
 and found     1 'primitive' translations

 KPOINTS: Automatic mesh

Automatic generation of k-mesh.
Space group operators:
 irot       det(A)        alpha          n_x          n_y          n_z        tau_x        tau_y        tau_z
    1     1.000000     0.000000     1.000000     0.000000     0.000000     0.000000     0.000000     0.000000

 Subroutine IBZKPT returns following result:

 Found      1 irreducible k-points:

 Following reciprocal coordinates:
            Coordinates               Weight
  0.000000  0.000000  0.000000      1.000000

 Following cartesian coordinates:
            Coordinates               Weight
  0.000000  0.000000  0.000000      1.000000

 SYSTEM =  unknown system
 POSCAR =  ce14527_1

 Startparameter for this run:
   NWRITE =      1    write-flag & timer
   PREC   = accura    normal or accurate (medium, high low for compatibility)
   ISTART =      0    job   : 0-new  1-cont  2-samecut
   ICHARG =      2    charge: 1-file 2-atom 10-const
   ISPIN  =      2    spin polarized calculation?
   LNONCOLLINEAR =      F non collinear calculations
   LSORBIT =      F    spin-orbit coupling
   INIWAV =      1    electr: 0-lowe 1-rand  2-diag
   LASPH  =      F    aspherical Exc in radial PAW
   METAGGA=      F    non-selfconsistent MetaGGA calc.

 Electronic Relaxation 1
   ENCUT  =  500.0 eV  36.75 Ry    6.06 a.u.  10.08 18.60 18.13*2*pi/ulx,y,z
   ENINI  =  500.0     initial cutoff
   ENAUG  =  628.9 eV  augmentation charge cutoff
[...]
   0.311E+02 -.226E+01 0.733E+02   -.314E+02 0.228E+01 -.738E+02   0.318E+00 -.223E-03 0.576E+00   -.903E-02 -.908E-02 -.112E-02
   -.554E+01 -.239E+02 0.308E+02   0.573E+01 0.242E+02 -.310E+02   -.191E+00 -.313E+00 0.221E+00   0.881E-02 -.220E-01 -.490E-02
   -.236E+02 -.131E+02 0.969E+02   0.239E+02 0.132E+02 -.976E+02   -.320E+00 -.986E-01 0.698E+00   0.201E-01 -.144E-01 -.655E-02
   0.209E+02 0.243E+02 0.836E+02   -.212E+02 -.245E+02 -.838E+02   0.263E+00 0.223E+00 0.197E+00   -.818E-02 0.203E-01 -.312E-02
   -.190E+02 -.207E+02 0.890E+01   0.189E+02 0.209E+02 -.871E+01   0.458E-01 -.185E+00 -.183E+00   -.144E-01 -.211E-01 -.419E-03
   -.915E+01 0.248E+02 -.277E+02   0.905E+01 -.252E+02 0.276E+02   0.776E-01 0.343E+00 0.722E-01   0.174E-01 0.305E-01 0.342E-02
   0.721E+01 0.109E+01 -.465E+02   -.728E+01 -.103E+01 0.468E+02   0.515E-01 -.519E-01 -.234E+00   0.159E-01 -.122E-01 0.485E-02
   -.624E+01 0.216E+02 -.414E+02   0.658E+01 -.219E+02 0.418E+02   -.331E+00 0.216E+00 -.446E+00   -.217E-01 -.441E-02 -.214E-03
   -.253E+02 -.242E+02 -.764E+02   0.257E+02 0.246E+02 0.770E+02   -.341E+00 -.358E+00 -.529E+00   -.233E-01 0.724E-02 0.696E-03
   0.160E+01 -.165E+01 -.273E+02   -.196E+01 0.163E+01 0.276E+02   0.332E+00 0.140E-01 -.285E+00   0.166E-01 0.123E-01 0.513E-02
   0.290E+01 -.239E+02 -.630E+02   -.250E+01 0.241E+02 0.630E+02   -.417E+00 -.158E+00 -.359E-01   0.118E-01 -.301E-01 0.586E-02
   -.358E+01 0.140E+02 -.115E+03   0.334E+01 -.142E+02 0.116E+03   0.265E+00 0.158E+00 -.835E+00   -.175E-01 0.270E-01 0.469E-03
   0.346E+02 -.114E+02 -.449E+02   -.352E+02 0.115E+02 0.457E+02   0.654E+00 -.141E-01 -.779E+00   -.165E-01 -.264E-01 0.997E-03
   0.353E+02 0.259E+02 0.305E+03   -.394E+02 -.280E+02 -.321E+03   0.406E+01 0.203E+01 0.160E+02   -.439E-03 0.275E-01 0.125E-01
   -.970E-01 0.261E+02 -.373E+03   0.698E+00 -.280E+02 0.393E+03   -.624E+00 0.190E+01 -.193E+02   0.101E-01 0.355E-01 0.507E-02
   -.308E+00 0.283E+02 -.331E+03   0.109E+01 -.301E+02 0.352E+03   -.787E+00 0.180E+01 -.216E+02   -.623E-03 0.140E-01 -.323E-02
   -.199E+01 0.229E+02 0.377E+03   0.227E+01 -.245E+02 -.397E+03   -.252E+00 0.162E+01 0.198E+02   -.850E-02 0.216E-01 -.915E-02
   0.501E+02 -.282E+02 0.308E+03   -.555E+02 0.297E+02 -.325E+03   0.537E+01 -.154E+01 0.175E+02   0.578E-02 -.147E-01 0.377E-01
   -.376E+02 0.187E+02 -.371E+03   0.430E+02 -.198E+02 0.389E+03   -.539E+01 0.110E+01 -.180E+02   -.196E-01 -.157E-01 -.287E-01
   0.909E+00 -.228E+02 -.381E+03   -.604E+00 0.245E+02 0.401E+03   -.279E+00 -.172E+01 -.200E+02   -.458E-01 0.147E-01 -.882E-02
   0.457E+02 0.288E+02 0.297E+03   -.491E+02 -.305E+02 -.313E+03   0.344E+01 0.173E+01 0.164E+02   0.224E-01 0.151E-01 0.246E-01
   -.461E+02 0.271E+02 -.309E+03   0.509E+02 -.284E+02 0.326E+03   -.482E+01 0.120E+01 -.177E+02   0.137E-01 0.244E-01 0.858E-03
   0.379E+02 0.222E+02 0.371E+03   -.433E+02 -.238E+02 -.389E+03   0.542E+01 0.158E+01 0.182E+02   -.624E-03 0.226E-01 -.945E-02
   -.201E+01 -.312E+02 0.381E+03   0.182E+01 0.337E+02 -.401E+03   0.185E+00 -.250E+01 0.198E+02   0.143E-01 -.227E-01 -.182E-01
   -.454E+02 -.303E+02 -.296E+03   0.490E+02 0.323E+02 0.312E+03   -.356E+01 -.195E+01 -.161E+02   0.750E-02 -.248E-01 0.297E-02
   -.778E+00 -.271E+02 0.337E+03   -.749E+00 0.290E+02 -.358E+03   0.153E+01 -.183E+01 0.209E+02   -.108E-02 -.289E-01 0.809E-02
   -.298E+02 -.164E+02 -.371E+03   0.341E+02 0.172E+02 0.390E+03   -.430E+01 -.789E+00 -.185E+02   0.902E-02 -.344E-01 0.759E-02
   -.417E+02 -.266E+02 -.309E+03   0.466E+02 0.285E+02 0.325E+03   -.485E+01 -.187E+01 -.156E+02   0.146E-02 -.133E-01 -.124E-01
   0.427E+02 -.175E+02 0.363E+03   -.479E+02 0.183E+02 -.381E+03   0.524E+01 -.766E+00 0.184E+02   -.119E-01 -.220E-01 -.659E-02
   -.242E+02 -.192E+01 0.293E+03   0.240E+02 0.174E+01 -.310E+03   0.157E+00 0.151E+00 0.171E+02   -.385E-01 0.343E-01 0.109E-01
   0.105E+02 0.288E+02 -.371E+03   -.107E+02 -.313E+02 0.391E+03   0.146E+00 0.240E+01 -.198E+02   0.280E-01 0.278E-01 -.198E-01
   -.457E+01 -.228E+01 -.279E+03   0.676E+01 0.235E+01 0.292E+03   -.219E+01 -.991E-01 -.139E+02   -.104E-01 0.209E-01 0.211E-01
   -.866E+01 0.282E+02 0.369E+03   0.802E+01 -.308E+02 -.388E+03   0.631E+00 0.260E+01 0.195E+02   0.203E-01 0.128E-01 -.103E-01
   0.207E+02 0.294E+02 0.311E+03   -.252E+02 -.315E+02 -.328E+03   0.452E+01 0.212E+01 0.167E+02   0.640E-02 -.178E-02 0.152E-01
   -.292E+02 0.231E+02 -.364E+03   0.343E+02 -.245E+02 0.382E+03   -.515E+01 0.143E+01 -.181E+02   0.720E-02 -.177E-02 -.194E-01
   0.654E+01 -.298E+02 -.366E+03   -.605E+01 0.327E+02 0.385E+03   -.509E+00 -.287E+01 -.193E+02   -.102E-01 0.261E-02 -.531E-02
   -.173E+02 -.334E+02 0.320E+03   0.171E+02 0.358E+02 -.340E+03   0.177E+00 -.241E+01 0.202E+02   0.315E-01 0.666E-03 -.307E-02
   -.234E+02 -.304E+02 -.312E+03   0.280E+02 0.324E+02 0.329E+03   -.462E+01 -.205E+01 -.167E+02   -.449E-02 0.879E-02 -.427E-02
   0.252E+02 0.155E+02 0.365E+03   -.297E+02 -.163E+02 -.383E+03   0.451E+01 0.813E+00 0.179E+02   -.649E-02 0.867E-02 0.867E-02
   -.501E+01 -.232E+02 0.369E+03   0.475E+01 0.246E+02 -.389E+03   0.282E+00 -.137E+01 0.199E+02   -.219E-03 -.100E-01 0.286E-02
   0.156E+02 0.326E+02 -.321E+03   -.155E+02 -.347E+02 0.342E+03   -.481E-01 0.210E+01 -.203E+02   -.197E-01 -.810E-02 0.511E-02
   0.114E+02 0.255E+01 0.278E+03   -.142E+02 -.262E+01 -.291E+03   0.284E+01 0.102E+00 0.132E+02   -.228E-01 -.338E-01 -.221E-02
   -.321E+02 -.200E+02 -.355E+03   0.373E+02 0.215E+02 0.373E+03   -.520E+01 -.148E+01 -.181E+02   0.138E-01 -.276E-01 -.901E-02
   0.299E+02 0.276E+01 -.301E+03   -.297E+02 -.252E+01 0.318E+03   -.221E+00 -.218E+00 -.167E+02   0.961E-02 -.211E-01 0.758E-02
   0.184E+02 -.223E+02 0.366E+03   -.224E+02 0.236E+02 -.384E+03   0.402E+01 -.131E+01 0.182E+02   0.150E-02 -.124E-01 0.603E-02
   0.183E+00 0.361E-01 -.436E-01   0.746E-13 0.462E-13 -.171E-12   -.181E+00 -.437E-01 0.344E-01   -.626E-02 -.604E-02 0.119E-01

 POSITION                                       TOTAL-FORCE (eV/Angst)
      4.07523      1.39893      2.48122         0.011481      0.007918      0.005597
      2.31146      1.14004      7.24868         0.005783     -0.046387     -0.001529
      1.72738      2.93213      2.45204        -0.000516      0.018521     -0.001499
      4.80520      3.07054      7.30327         0.006201      0.028223     -0.000496
      6.40378      5.38122      2.53570         0.013788     -0.012025      0.001466
      9.04350      1.38512      2.55078         0.000219      0.002418      0.005248
      7.26499      1.11576      7.33082        -0.002492     -0.033613     -0.008753
     -0.88942      4.15814      2.41590        -0.003640     -0.004334      0.003597
     -0.18501      3.03322      7.23232         0.000059      0.023909     -0.004621
      0.00837     -0.00047      0.02193         0.009757     -0.001777      0.006717
      2.49274      1.36976      0.06021         0.004711      0.014143     -0.005969
      7.46540      1.37497      0.15741         0.007971     -0.007423      0.012611
      7.44838      4.13948      0.14289         0.006084      0.003332      0.015101
      2.49457      4.14939      0.08032         0.004675     -0.006623     -0.005839
     -3.52737      2.80518      9.58951         0.016675      0.000400      0.007647
      1.41883      5.55214      9.67127         0.008528      0.002400      0.010158
      4.98534      2.75930      0.12327         0.004329     -0.002243      0.002919
      3.18839      0.01659      4.83357        -0.007221     -0.000915     -0.001694
      5.66426      1.39581      4.90279        -0.007422      0.003764     -0.001526
      0.69510      1.39921      4.77633        -0.013319     -0.004057     -0.004146
      0.70134      4.17280      4.81078        -0.010653      0.006757     -0.007196
      5.66639      4.15656      4.89523        -0.009842     -0.001835     -0.003787
      3.17971      2.79189      4.87295        -0.005287      0.005241      0.001575
     -1.77937      5.54843      4.82354        -0.000045      0.006065     -0.000773
      8.13551      2.77359      4.91597        -0.003199     -0.004547      0.004063
      4.94308      0.03453      3.88671        -0.002986      0.003698     -0.002179
      1.46140      0.04087      5.75155        -0.013380      0.001236     -0.002176
      3.27379      0.00520      1.00912        -0.005100     -0.000784      0.000552
      3.14878      0.05566      8.76129         0.014522      0.000121      0.013283
      7.45096      1.36021      3.92126         0.001827      0.004032     -0.001885
     -1.07558      1.43592      5.78899        -0.018053     -0.000900     -0.012373
     -1.00306      4.13385      5.74321        -0.019591      0.001220     -0.007489
      7.42137      4.18406      3.93031         0.004989      0.002428     -0.007406
      0.71459      1.39546      1.01908         0.003101     -0.003649     -0.010816
      5.70269      1.41369      8.73818         0.008663     -0.003647      0.002459
      5.61596      4.17969      8.80079         0.010093     -0.002985      0.002019
      0.72820      4.12539      1.02931        -0.000176     -0.007186     -0.008849
      4.91234      2.76607      3.93955        -0.003245      0.001493     -0.000546
      1.39345      2.75948      5.80308        -0.017292      0.003329     -0.000868
      3.19351      2.73550      1.08381         0.000646     -0.002024     -0.008485
      3.23238      2.77211      8.72528         0.010264      0.000770      0.014534
     -0.07938      5.54786      3.82798         0.005724      0.007551      0.002187
      6.43607      0.01185      5.84914        -0.015416     -0.001634     -0.008107
      8.17142      5.51085      1.18907        -0.004076     -0.003061      0.004782
     -1.80394      0.04019      8.68332         0.017250      0.002607     -0.005541
      2.49520      1.43018      3.82925        -0.002783      0.004883      0.002082
      3.87148      1.40024      5.86346        -0.019642     -0.001788     -0.007499
      3.94817      4.16477      5.82850        -0.022176     -0.001315     -0.006310
      2.42124      4.15838      3.90100         0.002504      0.001435     -0.000520
      5.66720      1.32955      1.11216        -0.006678     -0.003494      0.004825
      0.72578      1.45360      8.68107         0.017890     -0.001178      0.007071
      0.66337      4.14403      8.73055         0.018790      0.003836      0.001335
      5.74276      4.15508      1.06079        -0.009372     -0.002531      0.008782
      0.00430      2.79971      3.73971         0.004016      0.004563     -0.000878
      6.36162      2.76451      5.91026        -0.018496     -0.001125     -0.008491
      8.23299      2.76307      1.12999        -0.000750     -0.006155      0.006863
     -1.76308      2.79490      8.66194         0.022310      0.002938      0.000774
    total drift:                               -0.004481     -0.013554      0.002720

  FREE ENERGIE OF THE ION-ELECTRON SYSTEM (eV)
  free  energy   TOTEN  =      -350.1418572111 eV

  energy  without entropy=     -350.1411332638  energy(sigma->0) =     -350.14149524

 d Force = 0.4461703E-03[ 0.398E-03, 0.494E-03]  d Energy = 0.4850929E-03-0.389E-04
 d Force = 0.2388772E+01[ 0.239E+01, 0.239E+01]  d Ewald  = 0.3716850E+01-0.133E+01

 Quasi-Newton relaxation of ions (Broydens 2nd method)
  g(Force)  = 0.720E-03   g(Stress)= 0.755E-03

 retain information from N=  3 steps
 eigenvalues of (default step * inverse Hessian matrix)
  average eigenvalue of G=   5.2969
 eigenvalue spectrum of G is  7.9418  7.9418  0.0073

volume of typ            1:    13.3 %

[...]

volume of typ            3:     9.8 %

total charge

# of ion       s       p       d       tot
    1        2.072   0.226   0.084   2.382
    2        2.068   0.208   0.077   2.353
    3        2.078   0.242   0.091   2.411
    4        2.068   0.216   0.080   2.363
    5        2.075   0.236   0.088   2.400
    6        2.077   0.231   0.087   2.394
    7        2.066   0.214   0.079   2.359
    8        2.076   0.238   0.088   2.402
    9        2.069   0.209   0.078   2.356
   10        0.278   0.380   7.858   8.515
   11        0.284   0.392   7.858   8.534
   12        0.276   0.373   7.859   8.509
   13        0.283   0.390   7.848   8.521
   14        0.279   0.383   7.846   8.508
   15        0.287   0.400   7.865   8.552
   16        0.289   0.403   7.851   8.543
   17        0.277   0.377   7.855   8.509
   18        0.278   0.383   7.845   8.506
   19        0.282   0.387   7.861   8.530
   20        0.276   0.373   7.859   8.508
   21        0.282   0.389   7.849   8.521
   22        0.278   0.381   7.849   8.508
   23        0.287   0.398   7.861   8.547
   24        0.286   0.397   7.858   8.541
   25        0.276   0.374   7.864   8.513
   26        1.261   2.787   0.007   4.055
   27        1.269   2.764   0.007   4.040
   28        1.271   2.761   0.008   4.039
   29        1.269   2.764   0.007   4.040
   30        1.265   2.774   0.007   4.045
   31        1.266   2.769   0.007   4.041
   32        1.267   2.771   0.007   4.045
   33        1.262   2.783   0.007   4.052
   34        1.266   2.771   0.007   4.044
   35        1.267   2.768   0.007   4.042
   36        1.268   2.768   0.007   4.044
   37        1.263   2.782   0.007   4.052
   38        1.271   2.759   0.007   4.037
   39        1.266   2.768   0.007   4.041
   40        1.263   2.784   0.006   4.053
   41        1.268   2.765   0.007   4.039
   42        1.261   2.786   0.007   4.053
   43        1.267   2.770   0.007   4.044
   44        1.257   2.795   0.006   4.058
   45        1.269   2.766   0.007   4.043
   46        1.264   2.777   0.007   4.048
   47        1.266   2.769   0.007   4.042
   48        1.269   2.765   0.007   4.042
   49        1.268   2.770   0.007   4.046
   50        1.264   2.776   0.007   4.047
   51        1.267   2.767   0.007   4.041
   52        1.269   2.766   0.007   4.042
   53        1.268   2.769   0.007   4.045
   54        1.256   2.796   0.006   4.058
   55        1.266   2.770   0.007   4.043
   56        1.262   2.781   0.007   4.050
   57        1.266   2.770   0.007   4.043
tot          63.65   96.93  126.66  287.24

magnetization (x)

# of ion       s       p       d       tot
    1        0.005   0.009   0.000   0.015
    2        0.000   0.002   0.000   0.002
    3        0.005   0.010   0.000   0.015
    4        0.004   0.009   0.000   0.014
    5        0.004   0.008  -0.000   0.011
    6        0.000   0.001  -0.000   0.001
    7        0.005   0.008   0.000   0.013
    8        0.004   0.007  -0.000   0.011
    9        0.000   0.000   0.000   0.000
   10        0.001   0.000   0.341   0.342
   11       -0.003  -0.000  -0.434  -0.438
   12        0.003  -0.000   0.531   0.533
   13       -0.000  -0.000  -0.182  -0.183
   14        0.000  -0.000   0.300   0.300
   15       -0.001  -0.000  -0.345  -0.347
   16       -0.000  -0.000  -0.157  -0.157
   17        0.003  -0.000   0.499   0.502
   18        0.000  -0.000   0.321   0.321
   19        0.003   0.000   0.498   0.502
   20        0.002  -0.000   0.522   0.524
   21       -0.000  -0.000   0.219   0.218
   22        0.000  -0.000   0.323   0.323
   23        0.001   0.000   0.364   0.365
   24       -0.000  -0.000   0.258   0.257
   25        0.003   0.000   0.527   0.531
   26        0.006   0.032   0.000   0.038
   27        0.006   0.053   0.000   0.059
   28       -0.002  -0.026  -0.000  -0.027
   29       -0.001  -0.007  -0.000  -0.009
   30        0.006   0.055   0.000   0.061
   31        0.007   0.065   0.000   0.072
   32        0.003   0.022   0.000   0.026
   33        0.005   0.024   0.000   0.029
   34       -0.005  -0.048  -0.000  -0.053
   35        0.006   0.060   0.000   0.065
   36       -0.002  -0.025  -0.000  -0.027
   37        0.004   0.019   0.000   0.023
   38        0.005   0.053   0.000   0.058
   39        0.005   0.035   0.000   0.041
   40        0.006   0.053   0.000   0.059
   41        0.006   0.063   0.000   0.069
   42        0.004   0.025   0.000   0.029
   43        0.004   0.028   0.000   0.032
   44        0.004   0.027   0.000   0.031
   45        0.004   0.052   0.000   0.056
   46        0.007   0.064   0.000   0.072
   47        0.007   0.058   0.000   0.065
   48        0.006   0.049   0.000   0.055
   49        0.003   0.018   0.000   0.021
   50        0.006   0.058   0.000   0.063
   51       -0.005  -0.041  -0.000  -0.046
   52        0.004   0.050   0.000   0.054
   53       -0.001  -0.017  -0.000  -0.019
   54        0.008   0.059   0.000   0.067
   55        0.007   0.075   0.000   0.083
   56       -0.004  -0.041  -0.000  -0.045
   57       -0.004  -0.039  -0.000  -0.043
tot           0.14    0.90    3.59    4.64