 vasp.5.4.4.18Apr17-6-g9f103f2a35 (build May 12 2020 05:39:39) gamma-only

 MD_VERSION_INFO: Compiled 2020-05-12T12:39:39-UTC in devlin.sd.materialsdesign.
 com:/home/medea2/data/build/wwolf/vasp-gpu5.4.4/13047/x86_64/src/src/build/gam
 from svn 13047

 executed on                        Lin64 date 2023.03.07  04:31:40

 INCAR:
 POTCAR:    PAW_PBE Li_sv 10Sep2004
 POTCAR:    PAW_PBE Ni 02Aug2007
 POTCAR:    PAW_PBE O 08Apr2002

 POTCAR:    PAW_PBE Li_sv 10Sep2004

 POTCAR:    PAW_PBE Ni 02Aug2007

 POTCAR:    PAW_PBE O 08Apr2002

 Optimization of the real space projectors (new method)

 maximal supplied QI-value         = 22.11
 optimisation between [QCUT,QGAM] = [ 11.28, 22.77] = [ 35.61,145.23] Ry
 Optimized for a Real-space Cutoff    1.10 Angstroem

   l    n(q)    QCUT    max X(q) W(low)/X(q) W(high)/X(q)  e(spline)
   0      7    11.276    10.506    0.54E-04    0.58E-04    0.16E-07
   0      7    11.276     8.367    0.11E-03    0.14E-03    0.35E-07
   1      7    11.276     8.983    0.23E-03    0.43E-03    0.86E-07
 Optimization of the real space projectors (new method)

[...]

   l    n(q)    QCUT    max X(q) W(low)/X(q) W(high)/X(q)  e(spline)
   2      9    11.376    60.317    0.17E-03    0.16E-04    0.16E-06
   2      9    11.376    55.921    0.17E-03    0.16E-04    0.17E-06
   0     10    11.376    51.690    0.45E-04    0.60E-04    0.21E-06
   0     10    11.376    30.015    0.37E-04    0.55E-04    0.19E-06
   1     10    11.376    18.849    0.83E-04    0.11E-03    0.92E-07
   1     10    11.376    14.624    0.69E-04    0.92E-04    0.82E-07
 Optimization of the real space projectors (new method)

 maximal supplied QI-value         = 24.76
 optimisation between [QCUT,QGAM] = [ 11.39, 22.77] = [ 36.31,145.25] Ry
 Optimized for a Real-space Cutoff    1.10 Angstroem

   l    n(q)    QCUT    max X(q) W(low)/X(q) W(high)/X(q)  e(spline)
   0      7    11.387    20.381    0.22E-03    0.48E-03    0.18E-06
   0      7    11.387    15.268    0.22E-03    0.52E-03    0.19E-06
   1      7    11.387     5.964    0.22E-03    0.73E-03    0.24E-06
   1      7    11.387     5.382    0.19E-03    0.60E-03    0.21E-06

  PAW_PBE Li_sv 10Sep2004               :
  PAW_PBE Ni 02Aug2007                  :
  PAW_PBE O 08Apr2002                   :

 POSCAR: ce17272_1
  positions in direct lattice
 exchange correlation table for  LEXCH =       14
   RHO(1)=    0.500       N(1)  =     2000
   RHO(2)=  100.500       N(2)  =     4000

 ion  position               nearest neighbor table
   1  0.519  0.252  0.265-  37 2.03  46 2.05  34 2.18  43 2.19  51 2.20  20 2.81
   2  0.519  0.748  0.735-  38 2.03  45 2.05  33 2.18  44 2.19  52 2.20  20 2.81
   3  0.224  0.250  0.000-  39 2.06  41 2.07  31 2.17  27 2.18  53 2.24  51 2.24
   4  0.224  0.750  1.000-  40 2.06  42 2.07  32 2.17  28 2.18  54 2.24  52 2.24
   5  0.519  0.249  0.735-  35 2.02  50 2.05  30 2.18  47 2.19  53 2.20  14 2.81
   6  0.519  0.751  0.265-  36 2.02  49 2.05  29 2.18  48 2.19  54 2.20  14 2.81
   7  1.000  0.000  0.000-  33 1.86  34 1.86  31 1.87  32 1.87  41 1.94  42 1.94  12 2.76  12 2.78
                            11 2.82  10 2.82   9 2.83   8 2.83
   8  0.248  0.002  0.251-  25 1.83  42 1.84  37 1.84  54 1.84  48 1.90  31 1.96  11 2.76  11 2.78
                            13 2.81  14 2.82   7 2.83  12 2.84
   9  0.248  0.998  0.749-  26 1.83  41 1.84  38 1.84  53 1.84  47 1.90  32 1.96  10 2.76  10 2.78
                            13 2.81  14 2.82   7 2.83  12 2.84
  10  0.751  0.003  0.751-  26 1.84  38 1.84  41 1.85  53 1.87  50 1.90  33 1.92   9 2.76   9 2.78
                             7 2.82  12 2.82  13 2.82  14 2.83
  11  0.751  0.997  0.249-  25 1.84  37 1.84  42 1.85  54 1.87  49 1.90  34 1.92   8 2.76   8 2.78
                             7 2.82  12 2.82  13 2.82  14 2.83
  12  0.502  0.000  0.000-  33 1.84  34 1.84  31 1.85  32 1.85  53 2.04  54 2.04   7 2.76   7 2.78
                            11 2.82  10 2.82   9 2.84   8 2.84
  13  1.000  0.000  0.500-  47 1.86  48 1.86  49 1.86  50 1.86  25 1.94  26 1.94  14 2.77  14 2.77
                             9 2.81   8 2.81  11 2.82  10 2.82
  14  0.500  0.000  0.500-  47 1.84  48 1.84  49 1.84  50 1.84  37 2.01  38 2.01  13 2.77  13 2.77
                             5 2.81   6 2.81   8 2.82   9 2.82  10 2.83  11 2.83
  15  1.000  0.500  0.500-  43 1.86  44 1.86  45 1.86  46 1.86  23 1.94  24 1.94  20 2.77  20 2.77
                            16 2.82  17 2.82  18 2.82  19 2.82
  16  0.248  0.498  0.749-  23 1.83  35 1.84  40 1.84  52 1.84  44 1.91  27 1.95  19 2.76  19 2.78
                            15 2.82  21 2.82  20 2.82  22 2.83
  17  0.248  0.502  0.251-  24 1.83  36 1.84  39 1.84  51 1.84  43 1.91  28 1.95  18 2.76  18 2.78
                            15 2.82  21 2.82  20 2.82  22 2.83
  18  0.751  0.497  0.249-  24 1.84  36 1.84  39 1.86  51 1.86  46 1.90  29 1.91  17 2.76  17 2.78
                            22 2.81  21 2.81  15 2.82  20 2.83
  19  0.751  0.503  0.751-  23 1.84  35 1.84  40 1.86  52 1.86  45 1.90  30 1.91  16 2.76  16 2.78
                            22 2.81  21 2.81  15 2.82  20 2.83
  20  0.500  0.500  0.500-  43 1.84  44 1.84  45 1.84  46 1.84  35 2.03  36 2.03  15 2.77  15 2.77
                             2 2.81   1 2.81  16 2.82  17 2.82  18 2.83  19 2.83
  21  0.999  0.500  0.000-  29 1.85  30 1.85  27 1.87  28 1.87  39 1.93  40 1.93  22 2.75  22 2.78
                            19 2.81  18 2.81  17 2.82  16 2.82
  22  0.502  0.500  0.000-  29 1.83  30 1.83  27 1.85  28 1.85  51 2.04  52 2.04  21 2.75  21 2.78
                            18 2.81  19 2.81  16 2.83  17 2.83
  23  0.997  0.403  0.638-  16 1.83  19 1.84  15 1.94
  24  0.997  0.597  0.362-  17 1.83  18 1.84  15 1.94
  25  0.997  0.097  0.362-   8 1.83  11 1.84  13 1.94
  26  0.997  0.903  0.638-   9 1.83  10 1.84  13 1.94
  27  0.253  0.400  0.887-  22 1.85  21 1.87  16 1.95   3 2.18
  28  0.253  0.600  0.113-  22 1.85  21 1.87  17 1.95   4 2.18
  29  0.748  0.596  0.115-  22 1.83  21 1.85  18 1.91   6 2.18
  30  0.748  0.404  0.885-  22 1.83  21 1.85  19 1.91   5 2.18
  31  0.253  0.101  0.113-  12 1.85   7 1.87   8 1.96   3 2.17
  32  0.253  0.899  0.887-  12 1.85   7 1.87   9 1.96   4 2.17
  33  0.748  0.903  0.885-  12 1.84   7 1.86  10 1.92   2 2.18
  34  0.748  0.097  0.115-  12 1.84   7 1.86  11 1.92   1 2.18
  35  0.503  0.398  0.644-  19 1.84  16 1.84   5 2.02  20 2.03
  36  0.503  0.602  0.356-  18 1.84  17 1.84   6 2.02  20 2.03
  37  0.503  0.101  0.357-   8 1.84  11 1.84  14 2.01   1 2.03
  38  0.503  0.899  0.643-   9 1.84  10 1.84  14 2.01   2 2.03
  39  0.005  0.401  0.136-  17 1.84  18 1.86  21 1.93   3 2.06
  40  0.005  0.599  0.864-  16 1.84  19 1.86  21 1.93   4 2.06
  41  0.005  0.099  0.864-   9 1.84  10 1.85   7 1.94   3 2.07
  42  0.005  0.901  0.136-   8 1.84  11 1.85   7 1.94   4 2.07
  43  0.252  0.404  0.385-  20 1.84  15 1.86  17 1.91   1 2.19
  44  0.252  0.596  0.615-  20 1.84  15 1.86  16 1.91   2 2.19
  45  0.747  0.597  0.615-  20 1.84  15 1.86  19 1.90   2 2.05
  46  0.747  0.403  0.385-  20 1.84  15 1.86  18 1.90   1 2.05
  47  0.252  0.096  0.615-  14 1.84  13 1.86   9 1.90   5 2.19
  48  0.252  0.904  0.385-  14 1.84  13 1.86   8 1.90   6 2.19
  49  0.748  0.903  0.385-  14 1.84  13 1.86  11 1.90   6 2.05
  50  0.748  0.097  0.615-  14 1.84  13 1.86  10 1.90   5 2.05
  51  0.494  0.395  0.143-  17 1.84  18 1.86  22 2.04   1 2.20   3 2.24
  52  0.494  0.605  0.857-  16 1.84  19 1.86  22 2.04   2 2.20   4 2.24
  53  0.494  0.105  0.857-   9 1.84  10 1.87  12 2.04   5 2.20   3 2.24
  54  0.494  0.895  0.143-   8 1.84  11 1.87  12 2.04   6 2.20   4 2.24

  LATTYP: Found a simple monoclinic cell.
 ALAT       =    11.5898921977
 B/A-ratio  =     0.4777552725
 C/A-ratio  =     1.6888199398
 COS(beta)  =    -0.9077980471

  Lattice vectors:

 A1 = (  -6.2828524619,   0.0000000000,  -9.7391666018)
 A2 = (   0.0000000000,  -5.5371321057,   0.0000000000)
 A3 = (   2.7339985884,   0.0000000000,  19.3813574514)

Analysis of symmetry for initial positions (statically):
 Subroutine PRICEL returns:
 Original cell was already a primitive cell.

 Routine SETGRP: Setting up the symmetry group for a
 simple monoclinic supercell.

 Subroutine GETGRP returns: Found  2 space group operations
 (whereof  2 operations were pure point group operations)
 out of a pool of  4 trial point group operations.

The static configuration has the point symmetry C_2 .

Analysis of symmetry for dynamics (positions and initial velocities):
 Subroutine PRICEL returns:
 Original cell was already a primitive cell.

[...]

The dynamic configuration has the point symmetry C_2 .

Analysis of structural, dynamic, and magnetic symmetry:
 Subroutine PRICEL returns:
 Original cell was already a primitive cell.

 Routine SETGRP: Setting up the symmetry group for a
 simple monoclinic supercell.

 Subroutine GETGRP returns: Found  2 space group operations
 (whereof  2 operations were pure point group operations)
 out of a pool of  4 trial point group operations.

The magnetic configuration has the point symmetry C_2 .

 Subroutine INISYM returns: Found  2 space group operations
 (whereof  2 operations are pure point group operations),
 and found     1 'primitive' translations

 KPOINTS: Automatic mesh

Automatic generation of k-mesh.
Space group operators:
 irot       det(A)        alpha          n_x          n_y          n_z        tau_x        tau_y        tau_z
    1     1.000000     0.000000     1.000000     0.000000     0.000000     0.000000     0.000000     0.000000
    2     1.000000   179.999999     0.000000     1.000000     0.000000     0.000000     0.000000     0.000000

 Subroutine IBZKPT returns following result:

 Found      1 irreducible k-points:

 Following reciprocal coordinates:
            Coordinates               Weight
  0.000000  0.000000  0.000000      1.000000

 Following cartesian coordinates:
            Coordinates               Weight
  0.000000  0.000000  0.000000      1.000000

 SYSTEM =  unknown system
 POSCAR =  ce17272_1

 Startparameter for this run:
   NWRITE =      1    write-flag & timer
   PREC   = accura    normal or accurate (medium, high low for compatibility)
   ISTART =      0    job   : 0-new  1-cont  2-samecut
   ICHARG =      2    charge: 1-file 2-atom 10-const
   ISPIN  =      2    spin polarized calculation?
   LNONCOLLINEAR =      F non collinear calculations
   LSORBIT =      F    spin-orbit coupling
   INIWAV =      1    electr: 0-lowe 1-rand  2-diag
   LASPH  =      F    aspherical Exc in radial PAW
   METAGGA=      F    non-selfconsistent MetaGGA calc.

 Electronic Relaxation 1
   ENCUT  =  500.0 eV  36.75 Ry    6.06 a.u.  10.10 18.73 17.93*2*pi/ulx,y,z
   ENINI  =  500.0     initial cutoff
   ENAUG  =  628.9 eV  augmentation charge cutoff
   NELM   =     80;   NELMIN=  2; NELMDL= -5     # of ELM steps
   EDIFF  = 0.1E-04   stopping-criterion for ELM
   LREAL  =      T    real-space projection
   NLSPLINE    = F    spline interpolate recip. space projectors
   LCOMPAT=      F    compatible to vasp.4.4
   GGA_COMPAT  = T    GGA compatible to vasp.4.4-vasp.4.6
   LMAXPAW     = -100 max onsite density
[...]
   -.758E+01 0.767E-01 -.547E-01   0.821E+01 0.327E+00 -.686E-01   -.633E+00 -.375E+00 0.118E+00   0.664E-02 0.635E-03 0.493E-04
   -.875E-05 0.229E+02 0.195E-05   -.178E-12 -.233E+02 0.273E-11   0.000E+00 0.451E+00 -.375E-24   -.767E-11 0.116E-02 0.373E-11
   -.268E+02 0.265E+02 -.497E+02   0.271E+02 -.266E+02 0.501E+02   -.347E+00 0.107E+00 -.390E+00   0.126E-01 -.587E-02 0.577E-02
   0.268E+02 0.265E+02 0.497E+02   -.271E+02 -.266E+02 -.501E+02   0.347E+00 0.107E+00 0.390E+00   -.126E-01 -.587E-02 -.577E-02
   0.110E+02 -.271E+02 -.105E+02   -.111E+02 0.273E+02 0.105E+02   0.873E-01 -.213E+00 0.288E-01   -.157E-01 0.660E-02 -.415E-02
   -.110E+02 -.271E+02 0.105E+02   0.111E+02 0.273E+02 -.105E+02   -.873E-01 -.213E+00 -.288E-01   0.157E-01 0.660E-02 0.415E-02
   0.837E-05 -.207E+02 -.186E-05   -.187E-10 0.209E+02 0.184E-10   0.000E+00 -.270E+00 -.517E-25   -.185E-11 -.500E-05 0.349E-11
   -.600E-06 -.318E+01 0.139E-06   -.289E-11 0.305E+01 -.109E-11   0.000E+00 0.140E+00 0.349E-24   -.698E-12 -.454E-02 0.574E-11
   -.190E-05 0.352E+01 0.441E-06   -.674E-11 -.341E+01 -.277E-11   -.827E-24 -.115E+00 -.814E-24   -.553E-11 0.484E-02 0.357E-11
   -.160E-05 -.311E+01 0.372E-06   -.620E-12 0.299E+01 -.330E-12   0.000E+00 0.139E+00 0.375E-24   0.107E-11 -.519E-02 -.509E-11
   0.290E+02 0.274E+02 0.488E+02   -.294E+02 -.275E+02 -.492E+02   0.420E+00 0.688E-01 0.401E+00   -.478E-01 0.117E-01 -.651E-02
   -.290E+02 0.274E+02 -.488E+02   0.294E+02 -.275E+02 0.492E+02   -.420E+00 0.688E-01 -.401E+00   0.478E-01 0.117E-01 0.651E-02
   -.133E+02 -.279E+02 0.111E+02   0.133E+02 0.281E+02 -.111E+02   -.136E+00 -.174E+00 -.360E-01   0.499E-01 -.115E-01 0.572E-02
   0.133E+02 -.279E+02 -.111E+02   -.133E+02 0.281E+02 0.111E+02   0.136E+00 -.174E+00 0.360E-01   -.499E-01 -.115E-01 -.572E-02
   -.322E-05 0.343E+01 0.751E-06   -.841E-12 -.332E+01 -.557E-12   0.000E+00 -.115E+00 -.763E-24   0.122E-11 0.593E-02 -.476E-11
   -.883E-05 0.226E+02 0.199E-05   0.110E-11 -.231E+02 -.426E-13   0.000E+00 0.459E+00 -.620E-24   -.971E-11 -.169E-02 0.520E-12
   0.818E-05 -.205E+02 -.185E-05   0.150E-11 0.208E+02 -.853E-13   0.827E-24 -.279E+00 -.101E-23   0.143E-11 0.274E-02 0.691E-12
   0.310E+02 0.233E+00 0.402E+03   -.324E+02 -.758E+00 -.427E+03   0.143E+01 0.528E+00 0.259E+02   -.150E-01 -.494E-02 0.138E-01
   -.310E+02 0.233E+00 -.402E+03   0.324E+02 -.758E+00 0.427E+03   -.143E+01 0.528E+00 -.259E+02   0.150E-01 -.494E-02 -.138E-01
   -.292E+02 0.341E+00 -.403E+03   0.306E+02 -.898E+00 0.428E+03   -.141E+01 0.559E+00 -.259E+02   0.180E-02 -.375E-02 -.198E-02
   0.292E+02 0.341E+00 0.403E+03   -.306E+02 -.898E+00 -.428E+03   0.141E+01 0.559E+00 0.259E+02   -.180E-02 -.375E-02 0.198E-02
   0.269E+02 0.222E+02 0.357E+03   -.298E+02 -.235E+02 -.376E+03   0.288E+01 0.127E+01 0.193E+02   -.272E-01 0.534E-02 -.189E-01
   -.269E+02 0.222E+02 -.357E+03   0.298E+02 -.235E+02 0.376E+03   -.288E+01 0.127E+01 -.193E+02   0.272E-01 0.534E-02 0.189E-01
   -.498E+00 -.259E+02 -.365E+03   0.810E+00 0.278E+02 0.387E+03   -.342E+00 -.191E+01 -.221E+02   0.338E-01 -.688E-02 0.176E-01
   0.498E+00 -.259E+02 0.365E+03   -.810E+00 0.278E+02 -.387E+03   0.342E+00 -.191E+01 0.221E+02   -.338E-01 -.688E-02 -.176E-01
   -.281E+02 0.222E+02 -.357E+03   0.310E+02 -.235E+02 0.376E+03   -.288E+01 0.126E+01 -.190E+02   0.146E-01 -.162E-01 0.102E-01
   0.281E+02 0.222E+02 0.357E+03   -.310E+02 -.235E+02 -.376E+03   0.288E+01 0.126E+01 0.190E+02   -.146E-01 -.162E-01 -.102E-01
   0.149E+01 -.259E+02 0.366E+03   -.175E+01 0.278E+02 -.388E+03   0.276E+00 -.190E+01 0.219E+02   -.189E-01 0.149E-01 -.993E-02
   -.149E+01 -.259E+02 -.366E+03   0.175E+01 0.278E+02 0.388E+03   -.276E+00 -.190E+01 -.219E+02   0.189E-01 0.149E-01 0.993E-02
   0.611E+02 0.102E+01 0.379E+03   -.671E+02 -.868E+00 -.399E+03   0.599E+01 -.154E+00 0.197E+02   -.236E-01 0.418E-02 0.194E-01
   -.611E+02 0.102E+01 -.379E+03   0.671E+02 -.868E+00 0.399E+03   -.599E+01 -.154E+00 -.197E+02   0.236E-01 0.418E-02 -.194E-01
   -.563E+02 0.990E+00 -.380E+03   0.619E+02 -.815E+00 0.400E+03   -.556E+01 -.181E+00 -.200E+02   0.247E-02 0.365E-02 0.251E-02
   0.563E+02 0.990E+00 0.380E+03   -.619E+02 -.815E+00 -.400E+03   0.556E+01 -.181E+00 0.200E+02   -.247E-02 0.365E-02 -.251E-02
   -.748E+01 0.280E+02 0.361E+03   0.799E+01 -.301E+02 -.381E+03   -.553E+00 0.202E+01 0.207E+02   0.387E-01 -.430E-02 -.319E-02
   0.748E+01 0.280E+02 -.361E+03   -.799E+01 -.301E+02 0.381E+03   0.553E+00 0.202E+01 -.207E+02   -.387E-01 -.430E-02 0.319E-02
   0.664E+01 0.280E+02 -.360E+03   -.710E+01 -.300E+02 0.381E+03   0.463E+00 0.198E+01 -.207E+02   -.908E-02 -.340E-02 -.611E-02
   -.664E+01 0.280E+02 0.360E+03   0.710E+01 -.300E+02 -.381E+03   -.463E+00 0.198E+01 0.207E+02   0.908E-02 -.340E-02 0.611E-02
   -.296E+02 0.300E+02 0.364E+03   0.295E+02 -.322E+02 -.387E+03   0.134E+00 0.214E+01 0.227E+02   0.148E-01 0.121E-01 0.216E-01
   0.296E+02 0.300E+02 -.364E+03   -.295E+02 -.322E+02 0.387E+03   -.134E+00 0.214E+01 -.227E+02   -.148E-01 0.121E-01 -.216E-01
   0.287E+02 -.335E+02 -.360E+03   -.296E+02 0.360E+02 0.382E+03   0.869E+00 -.253E+01 -.213E+02   -.104E-01 -.122E-01 -.229E-01
   -.287E+02 -.335E+02 0.360E+03   0.296E+02 0.360E+02 -.382E+03   -.869E+00 -.253E+01 0.213E+02   0.104E-01 -.122E-01 0.229E-01
   0.288E+02 0.306E+02 -.365E+03   -.287E+02 -.327E+02 0.388E+03   -.481E-01 0.207E+01 -.225E+02   -.357E-02 -.315E-02 -.163E-02
   -.288E+02 0.306E+02 0.365E+03   0.287E+02 -.327E+02 -.388E+03   0.481E-01 0.207E+01 0.225E+02   0.357E-02 -.315E-02 0.163E-02
   -.278E+02 -.340E+02 0.361E+03   0.287E+02 0.365E+02 -.382E+03   -.904E+00 -.247E+01 0.212E+02   0.819E-03 0.269E-02 0.272E-02
   0.278E+02 -.340E+02 -.361E+03   -.287E+02 0.365E+02 0.382E+03   0.904E+00 -.247E+01 -.212E+02   -.819E-03 0.269E-02 -.272E-02
   0.267E+02 -.240E+02 0.355E+03   -.308E+02 0.254E+02 -.373E+03   0.406E+01 -.146E+01 0.179E+02   0.345E-01 0.388E-02 0.441E-02
   -.267E+02 -.240E+02 -.355E+03   0.308E+02 0.254E+02 0.373E+03   -.406E+01 -.146E+01 -.179E+02   -.345E-01 0.388E-02 -.441E-02
   -.273E+02 -.239E+02 -.354E+03   0.313E+02 0.253E+02 0.372E+03   -.403E+01 -.142E+01 -.180E+02   -.207E-01 0.276E-02 0.131E-02
   0.273E+02 -.239E+02 0.354E+03   -.313E+02 0.253E+02 -.372E+03   0.403E+01 -.142E+01 0.180E+02   0.207E-01 0.276E-02 -.131E-02
   -.174E-04 0.710E+00 0.565E-05   0.224E-12 0.675E-13 -.568E-13   0.888E-15 -.726E+00 -.284E-13   -.126E-10 -.388E-02 0.825E-11

 POSITION                                       TOTAL-FORCE (eV/Angst)
      1.72931      2.90006      2.45872         0.007753      0.031516     -0.007026
      4.55910      2.90006      7.33682        -0.007753      0.031516      0.007026
     -0.87874      1.21720      2.42003         0.000160     -0.023456      0.001299
      7.16716      1.21720      7.37550        -0.000160     -0.023456     -0.001299
      6.32502      2.89905      2.49966        -0.006749      0.029831      0.005558
     -0.03660      2.89905      7.29588         0.006749      0.029831     -0.005558
     -0.00000      5.53319      0.00000         0.000000      0.001081      0.000000
      2.45858      1.37573      0.03979         0.006208      0.002851      0.001758
      3.82984      1.37573      9.75574        -0.006208      0.002851     -0.001758
      7.36089      4.15869      0.11770        -0.004718     -0.002873     -0.001808
     -1.07248      4.15869      9.67783         0.004718     -0.002873      0.001808
     -0.00000      2.77653      0.00000         0.000000     -0.000530      0.000000
      4.90705      5.53957      0.05724         0.000000      0.001694      0.000000
      4.90705      2.76860      0.05724         0.000000     -0.000628      0.000000
      3.14421      5.53882      4.89777         0.000000      0.005151      0.000000
      5.59510      1.37573      4.91334        -0.002840     -0.001800      0.000944
      0.69332      1.37573      4.88219         0.002840     -0.001800     -0.000944
      0.68921      4.15818      4.83953         0.004045     -0.003307     -0.000678
      5.59920      4.15818      4.95600        -0.004045     -0.003307      0.000678
      3.14421      2.76761      4.89777         0.000000     -0.001444      0.000000
     -1.76284      5.53308      4.84053         0.000000      0.006884      0.000000
     -1.76284      2.77641      4.84053         0.000000     -0.007729      0.000000
      4.84575      5.52361      3.98202         0.003914     -0.000747      0.007802
      1.44267      5.52361      5.81351        -0.003914     -0.000747     -0.007802
      3.20572      5.52379      0.97035        -0.005280     -0.001502     -0.009092
      3.08270      5.52379      8.82518         0.005280     -0.001502      0.009092
      7.30179      1.39845      3.97527        -0.000506     -0.004764      0.004741
     -1.01338      1.39845      5.82026         0.000506     -0.004764     -0.004741
     -0.97472      4.14042      5.78202         0.003168     -0.005343     -0.000895
      7.26314      4.14042      4.01351        -0.003168     -0.005343      0.000895
      0.75061      1.39956      0.97814         0.001798     -0.004590     -0.005142
      5.53781      1.39956      8.81739        -0.001798     -0.004590      0.005142
      5.49910      4.13952      8.85525        -0.002944     -0.005015      0.002708
      0.78932      4.13952      0.94028         0.002944     -0.005015     -0.002708
      4.92017      2.78375      3.93774         0.001198     -0.000546      0.010137
      1.36825      2.78375      5.85779        -0.001198     -0.000546     -0.010137
      3.14529      2.78444      1.01095        -0.002693     -0.001293     -0.011425
      3.14313      2.78444      8.78459         0.002693     -0.001293      0.011425
     -0.07343      0.02245      3.89600         0.002745     -0.002155     -0.010964
      6.36185      0.02245      5.89953        -0.002745     -0.002155      0.010964
      8.12580      0.02325      1.05928        -0.000231     -0.003073      0.012086
     -1.83738      0.02325      8.73625         0.000231     -0.003073     -0.012086
      2.35768      1.39447      3.95628         0.008651     -0.002613     -0.003302
      3.93074      1.39447      5.83925        -0.008651     -0.002613      0.003302
      3.92071      4.14246      5.84966        -0.006879     -0.001040      0.004787
      2.36770      4.14246      3.94587         0.006879     -0.001040     -0.004787
      5.68991      1.39525      1.00130        -0.006743     -0.002832      0.004091
      0.59851      1.39525      8.79423         0.006743     -0.002832     -0.004091
      0.60786      4.14336      8.78463         0.006120      0.001006     -0.005481
      5.68056      4.14336      1.01090        -0.006120      0.001006      0.005481
      0.01895      2.73553      3.83837         0.003200      0.000276     -0.010613
      6.26947      2.73553      5.95716        -0.003200      0.000276      0.010613
      8.03494      2.73543      1.11489        -0.000921     -0.000772      0.009799
     -1.74652      2.73543      8.68064         0.000921     -0.000772     -0.009799
    total drift:                               -0.000017     -0.019528      0.000006

  FREE ENERGIE OF THE ION-ELECTRON SYSTEM (eV)
  free  energy   TOTEN  =      -335.2557994320 eV

  energy  without entropy=     -335.2557894268  energy(sigma->0) =     -335.25579443

 d Force =-0.1696818E-03[-0.175E-03,-0.165E-03]  d Energy =-0.2681772E-03 0.985E-04
 d Force = 0.1317999E+01[ 0.132E+01, 0.132E+01]  d Ewald  = 0.4193109E+01-0.288E+01

 Quasi-Newton relaxation of ions (Broydens 2nd method)
  g(Force)  = 0.409E-03   g(Stress)= 0.236E-03

 retain information from N=  2 steps
 eigenvalues of (default step * inverse Hessian matrix)
  average eigenvalue of G=   0.9057
 eigenvalue spectrum of G is  0.3151  1.4964

volume of typ            1:     8.8 %

[...]

volume of typ            3:     9.9 %

total charge

# of ion       s       p       d       tot
    1        2.066   0.206   0.077   2.349
    2        2.066   0.206   0.077   2.349
    3        2.065   0.196   0.074   2.335
    4        2.065   0.196   0.074   2.335
    5        2.066   0.210   0.078   2.354
    6        2.066   0.210   0.078   2.354
    7        0.284   0.392   7.846   8.522
    8        0.296   0.421   7.845   8.562
    9        0.296   0.421   7.845   8.562
   10        0.295   0.416   7.840   8.551
   11        0.295   0.416   7.840   8.551
   12        0.283   0.386   7.865   8.534
   13        0.285   0.393   7.829   8.507
   14        0.285   0.393   7.855   8.533
   15        0.285   0.392   7.829   8.506
   16        0.297   0.421   7.844   8.562
   17        0.297   0.421   7.844   8.562
   18        0.295   0.417   7.839   8.551
   19        0.295   0.417   7.839   8.551
   20        0.284   0.388   7.855   8.528
   21        0.284   0.393   7.846   8.523
   22        0.282   0.385   7.865   8.532
   23        1.283   2.727   0.008   4.019
   24        1.283   2.727   0.008   4.019
   25        1.283   2.728   0.008   4.019
   26        1.283   2.728   0.008   4.019
   27        1.265   2.772   0.007   4.044
   28        1.265   2.772   0.007   4.044
   29        1.270   2.762   0.008   4.040
   30        1.270   2.762   0.008   4.040
   31        1.266   2.772   0.007   4.045
   32        1.266   2.772   0.007   4.045
   33        1.271   2.762   0.008   4.041
   34        1.271   2.762   0.008   4.041
   35        1.273   2.759   0.007   4.039
   36        1.273   2.759   0.007   4.039
   37        1.273   2.758   0.007   4.038
   38        1.273   2.758   0.007   4.038
   39        1.270   2.766   0.007   4.043
   40        1.270   2.766   0.007   4.043
   41        1.270   2.765   0.007   4.043
   42        1.270   2.765   0.007   4.043
   43        1.273   2.754   0.008   4.035
   44        1.273   2.754   0.008   4.035
   45        1.269   2.768   0.008   4.045
   46        1.269   2.768   0.008   4.045
   47        1.274   2.754   0.008   4.035
   48        1.274   2.754   0.008   4.035
   49        1.270   2.767   0.008   4.045
   50        1.270   2.767   0.008   4.045
   51        1.268   2.768   0.007   4.043
   52        1.268   2.768   0.007   4.043
   53        1.268   2.768   0.007   4.042
   54        1.268   2.768   0.007   4.042
tot          57.73   96.00  126.22  279.95

magnetization (x)

# of ion       s       p       d       tot
    1       -0.001   0.000   0.000  -0.000
    2       -0.001   0.000   0.000  -0.000
    3       -0.000   0.000  -0.000  -0.000
    4       -0.000   0.000  -0.000  -0.000
    5        0.005   0.007   0.001   0.012
    6        0.005   0.007   0.001   0.012
    7       -0.000  -0.000  -0.181  -0.181
    8        0.000  -0.000   0.013   0.013
    9        0.000  -0.000   0.013   0.013
   10        0.000  -0.000   0.005   0.005
   11        0.000  -0.000   0.005   0.005
   12        0.004  -0.000   0.546   0.550
   13        0.000   0.000   0.129   0.129
   14       -0.002   0.000  -0.468  -0.470
   15        0.000  -0.000   0.154   0.154
   16       -0.001   0.000  -0.033  -0.033
   17       -0.001   0.000  -0.033  -0.033
   18       -0.001   0.000  -0.031  -0.032
   19       -0.001   0.000  -0.031  -0.032
   20        0.003  -0.000   0.535   0.538
   21        0.000  -0.000   0.218   0.218
   22        0.004  -0.000   0.575   0.579
   23        0.001   0.003   0.000   0.004
   24        0.001   0.003   0.000   0.004
   25        0.001   0.012   0.000   0.013
   26        0.001   0.012   0.000   0.013
   27        0.002   0.006   0.000   0.008
   28        0.002   0.006   0.000   0.008
   29        0.001   0.004   0.000   0.006
   30        0.001   0.004   0.000   0.006
   31        0.000   0.009  -0.000   0.010
   32        0.000   0.009  -0.000   0.010
   33        0.000   0.009  -0.000   0.009
   34        0.000   0.009  -0.000   0.009
   35        0.005   0.058   0.000   0.063
   36        0.005   0.058   0.000   0.063
   37       -0.005  -0.047  -0.000  -0.053
   38       -0.005  -0.047  -0.000  -0.053
   39        0.002   0.012   0.000   0.014
   40        0.002   0.012   0.000   0.014
   41       -0.002  -0.018  -0.000  -0.019
   42       -0.002  -0.018  -0.000  -0.019
   43        0.001   0.005   0.000   0.007
   44        0.001   0.005   0.000   0.007
   45        0.002   0.008   0.000   0.009
   46        0.002   0.008   0.000   0.009
   47       -0.000  -0.007   0.000  -0.007
   48       -0.000  -0.007   0.000  -0.007
   49       -0.001  -0.008   0.000  -0.008
   50       -0.001  -0.008   0.000  -0.008
   51        0.005   0.067   0.000   0.073
   52        0.005   0.067   0.000   0.073
   53        0.005   0.063   0.000   0.068
   54        0.005   0.063   0.000   0.068
tot           0.05    0.36    1.42    1.84