 vasp.5.4.4.18Apr17-6-g9f103f2a35 (build May 12 2020 05:39:39) gamma-only

 MD_VERSION_INFO: Compiled 2020-05-12T12:39:39-UTC in devlin.sd.materialsdesign.
 com:/home/medea2/data/build/wwolf/vasp-gpu5.4.4/13047/x86_64/src/src/build/gam
 from svn 13047

 executed on                        Lin64 date 2023.03.07  04:31:18

 INCAR:
 POTCAR:    PAW_PBE Li_sv 10Sep2004
 POTCAR:    PAW_PBE Ni 02Aug2007
 POTCAR:    PAW_PBE O 08Apr2002

 POTCAR:    PAW_PBE Li_sv 10Sep2004

 POTCAR:    PAW_PBE Ni 02Aug2007

 POTCAR:    PAW_PBE O 08Apr2002

 Optimization of the real space projectors (new method)

 maximal supplied QI-value         = 22.11
 optimisation between [QCUT,QGAM] = [ 11.28, 22.77] = [ 35.61,145.23] Ry
 Optimized for a Real-space Cutoff    1.10 Angstroem

   l    n(q)    QCUT    max X(q) W(low)/X(q) W(high)/X(q)  e(spline)
   0      7    11.276    10.506    0.54E-04    0.58E-04    0.16E-07
   0      7    11.276     8.367    0.11E-03    0.14E-03    0.35E-07
   1      7    11.276     8.983    0.23E-03    0.43E-03    0.86E-07
 Optimization of the real space projectors (new method)

[...]

   l    n(q)    QCUT    max X(q) W(low)/X(q) W(high)/X(q)  e(spline)
   2      9    11.376    60.317    0.17E-03    0.16E-04    0.16E-06
   2      9    11.376    55.921    0.17E-03    0.16E-04    0.17E-06
   0     10    11.376    51.690    0.45E-04    0.60E-04    0.21E-06
   0     10    11.376    30.015    0.37E-04    0.55E-04    0.19E-06
   1     10    11.376    18.849    0.83E-04    0.11E-03    0.92E-07
   1     10    11.376    14.624    0.69E-04    0.92E-04    0.82E-07
 Optimization of the real space projectors (new method)

 maximal supplied QI-value         = 24.76
 optimisation between [QCUT,QGAM] = [ 11.39, 22.77] = [ 36.31,145.25] Ry
 Optimized for a Real-space Cutoff    1.10 Angstroem

   l    n(q)    QCUT    max X(q) W(low)/X(q) W(high)/X(q)  e(spline)
   0      7    11.387    20.381    0.22E-03    0.48E-03    0.18E-06
   0      7    11.387    15.268    0.22E-03    0.52E-03    0.19E-06
   1      7    11.387     5.964    0.22E-03    0.73E-03    0.24E-06
   1      7    11.387     5.382    0.19E-03    0.60E-03    0.21E-06

  PAW_PBE Li_sv 10Sep2004               :
  PAW_PBE Ni 02Aug2007                  :
  PAW_PBE O 08Apr2002                   :

 POSCAR: ce5381_1
  positions in direct lattice
 exchange correlation table for  LEXCH =       14
   RHO(1)=    0.500       N(1)  =     2000
   RHO(2)=  100.500       N(2)  =     4000

 ion  position               nearest neighbor table
   1  0.991  0.249  0.249-  39 2.07  51 2.08  36 2.13  30 2.14  44 2.14  48 2.14  12 2.81  20 2.82

   2  0.253  0.250  0.500-  52 2.06  48 2.08  42 2.13  40 2.13  28 2.15  30 2.16  25 2.83  19 2.83
                            20 2.84
   3  0.247  0.750  0.516-  49 2.01  31 2.07  43 2.09  29 2.17  41 2.20  53 2.22  14 2.74
   4  0.752  0.749  0.518-  50 2.01  31 2.06  43 2.08  29 2.18  41 2.19  54 2.28  15 2.77
   5  0.509  0.249  0.250-  39 2.07  51 2.07  42 2.11  36 2.13  48 2.13  56 2.15  17 2.81  25 2.82

   6  0.991  0.248  0.750-  55 2.07  35 2.08  46 2.10  52 2.14  32 2.15  28 2.15
   7  0.251  0.250  1.000-  32 2.06  36 2.07  46 2.14  58 2.14  56 2.15  44 2.16  12 2.83  17 2.83

[...]

  11  0.499  0.751  0.250-  59 2.08  41 2.09  53 2.14  33 2.15  54 2.15  34 2.16  13 2.84  22 2.84

  12  1.000  0.006  0.002-  38 1.85  37 1.85  39 1.87  36 1.87  47 1.97  46 2.00  17 2.78  17 2.79
                             1 2.81   7 2.83  15 2.85  13 2.86  14 2.86  16 2.87
  13  0.249  0.996  0.248-  30 1.85  42 1.86  47 1.86  59 1.87  53 2.03  36 2.08  16 2.78  16 2.79
                            11 2.84  18 2.85  12 2.86  17 2.86  19 2.87
  14  0.250  0.995  0.749-  58 1.85  46 1.85  43 1.86  31 1.86  37 2.00  52 2.10   3 2.74  15 2.78
                            15 2.79  12 2.86  17 2.86  19 2.86  18 2.87
  15  0.750  0.998  0.751-  58 1.87  43 1.87  31 1.87  46 1.88  38 1.98  55 1.98   4 2.77  14 2.78
                            14 2.79  12 2.85  17 2.85  19 2.87  18 2.88
  16  0.750  0.998  0.250-  30 1.87  59 1.87  47 1.87  42 1.88  39 1.98  54 1.99  13 2.78  13 2.79
                            18 2.84  19 2.85  17 2.87  12 2.87
  17  0.501  0.006  0.003-  38 1.85  37 1.85  39 1.86  36 1.87  58 2.03  59 2.08  12 2.78  12 2.79
                             5 2.81   7 2.83  15 2.85  13 2.86  14 2.86  16 2.87
  18  1.000  0.002  0.500-  54 1.87  53 1.87  52 1.87  55 1.87  31 1.97  30 2.00  19 2.78  19 2.79
                            16 2.84  13 2.85  14 2.87  15 2.88
  19  0.501  0.005  0.502-  54 1.85  53 1.85  55 1.87  52 1.87  43 1.99  42 2.01  18 2.78  18 2.79
                            10 2.82   2 2.83  16 2.85  14 2.86  15 2.87  13 2.87
  20  1.000  0.493  0.497-  49 1.85  50 1.85  51 1.87  48 1.87  29 1.96  28 1.99  25 2.78  25 2.79
                             1 2.82   2 2.84  22 2.85  24 2.86  23 2.86  21 2.87
  21  0.250  0.504  0.752-  40 1.85  28 1.85  57 1.86  45 1.86  49 2.01  32 2.09   8 2.76  24 2.78
                            24 2.79  27 2.85  26 2.87  25 2.87  20 2.87
  22  0.249  0.505  0.253-  44 1.85  56 1.85  29 1.86  41 1.86  33 2.04  48 2.08  23 2.78  23 2.79
                            11 2.84  20 2.85  25 2.85  26 2.86  27 2.88
  23  0.751  0.503  0.251-  44 1.87  41 1.87  29 1.87  56 1.88  51 1.98  34 2.01  22 2.78  22 2.79
                            26 2.85  20 2.86  25 2.86  27 2.86
  24  0.750  0.502  0.749-  40 1.87  57 1.87  45 1.87  28 1.87  50 1.98  35 1.99  21 2.78   9 2.79
                            21 2.79  25 2.85  20 2.86  27 2.86  26 2.88
  25  0.500  0.494  0.497-  50 1.84  49 1.85  51 1.86  48 1.87  40 2.03  41 2.08  20 2.78  20 2.79
                             5 2.82   2 2.83  24 2.85  22 2.85  23 2.86  21 2.87
  26  0.000  0.498  0.000-  34 1.86  33 1.87  32 1.87  35 1.87  45 1.97  44 2.00  27 2.78  27 2.79
                            23 2.85  22 2.86  21 2.87  24 2.88
  27  0.501  0.495  0.997-  34 1.85  33 1.85  35 1.87  32 1.87  57 1.97  56 1.99  26 2.78  26 2.79
                            10 2.83  21 2.85  24 2.86  23 2.86  22 2.88
  28  0.005  0.397  0.640-  21 1.85  24 1.87  20 1.99   6 2.15   2 2.15
  29  0.999  0.603  0.369-  22 1.86  23 1.87  20 1.96   3 2.17   4 2.18
  30  0.004  0.102  0.359-  13 1.85  16 1.87  18 2.00   1 2.14   2 2.16
  31  0.999  0.897  0.633-  14 1.86  15 1.87  18 1.97   4 2.06   3 2.07
  32  0.248  0.389  0.889-  27 1.87  26 1.87   7 2.06  21 2.09   6 2.15  10 2.17
  33  0.256  0.604  0.106-  27 1.85  26 1.87  22 2.04  11 2.15   8 2.21
  34  0.746  0.602  0.108-  27 1.85  26 1.86  23 2.01  11 2.16   9 2.26
  35  0.752  0.395  0.883-  27 1.87  26 1.87  24 1.99   6 2.08  10 2.09
  36  0.251  0.113  0.113-  17 1.87  12 1.87   7 2.07  13 2.08   5 2.13   1 2.13
  37  0.250  0.901  0.896-  17 1.85  12 1.85  14 2.00   8 2.02
  38  0.750  0.902  0.894-  17 1.85  12 1.85  15 1.98   9 2.02
  39  0.750  0.106  0.119-  17 1.86  12 1.87  16 1.98   5 2.07   1 2.07
  40  0.495  0.395  0.643-  21 1.85  24 1.87  25 2.03  10 2.10   2 2.13
  41  0.501  0.610  0.362-  22 1.86  23 1.87  25 2.08  11 2.09   4 2.19   3 2.20
  42  0.494  0.104  0.359-  13 1.86  16 1.88  19 2.01   5 2.11   2 2.13
  43  0.501  0.896  0.634-  14 1.86  15 1.87  19 1.99   4 2.08   3 2.09
  44  0.004  0.399  0.142-  22 1.85  23 1.87  26 2.00   1 2.14   7 2.16
  45  0.999  0.603  0.867-  21 1.86  24 1.87  26 1.97   9 2.07   8 2.07
  46  0.005  0.104  0.859-  14 1.85  15 1.88  12 2.00   6 2.10   7 2.14
  47  0.999  0.897  0.132-  13 1.86  16 1.87  12 1.97   9 2.16   8 2.16
  48  0.251  0.387  0.386-  25 1.87  20 1.87   2 2.08  22 2.08   5 2.13   1 2.14
  49  0.250  0.598  0.604-  25 1.85  20 1.85  21 2.01   3 2.01
  50  0.750  0.597  0.606-  25 1.84  20 1.85  24 1.98   4 2.01
  51  0.749  0.394  0.381-  25 1.86  20 1.87  23 1.98   5 2.07   1 2.08
  52  0.248  0.111  0.611-  19 1.87  18 1.87   2 2.06  14 2.10   6 2.14  10 2.16
  53  0.255  0.896  0.393-  19 1.85  18 1.87  13 2.03  11 2.14   3 2.22
  54  0.746  0.898  0.391-  19 1.85  18 1.87  16 1.99  11 2.15   4 2.28
  55  0.752  0.104  0.617-  19 1.87  18 1.87  15 1.98   6 2.07  10 2.08
  56  0.495  0.399  0.141-  22 1.85  23 1.88  27 1.99   7 2.15   5 2.15
  57  0.501  0.603  0.867-  21 1.86  24 1.87  27 1.97   9 2.10   8 2.11
  58  0.495  0.104  0.857-  14 1.85  15 1.87  17 2.03  10 2.09   7 2.14
  59  0.501  0.891  0.139-  13 1.87  16 1.87  17 2.08  11 2.08   9 2.20   8 2.20

  LATTYP: Found a triclinic cell.
 ALAT       =    14.9659707638
 B/A-ratio  =     0.3721305620
 C/A-ratio  =     0.7656226367
 COS(alpha) =     0.0000602974
 COS(beta)  =     0.3776514498
 COS(gamma) =     0.7443559405

  Lattice vectors:

 A1 = (  -9.9943993730,  11.1392664684,  -0.0948926839)
 A2 = (  -0.0004145258,   5.5692950960,   0.0000634816)
 A3 = (  -6.3890910680,   0.0003237802,  -9.5116682659)

Analysis of symmetry for initial positions (statically):
 Subroutine PRICEL returns:
 Original cell was already a primitive cell.

 Routine SETGRP: Setting up the symmetry group for a
 triclinic supercell.

 Subroutine GETGRP returns: Found  1 space group operations
 (whereof  1 operations were pure point group operations)
 out of a pool of  2 trial point group operations.

The static configuration has the point symmetry C_1 .

Analysis of symmetry for dynamics (positions and initial velocities):
 Subroutine PRICEL returns:
 Original cell was already a primitive cell.

[...]

The dynamic configuration has the point symmetry C_1 .

Analysis of structural, dynamic, and magnetic symmetry:
 Subroutine PRICEL returns:
 Original cell was already a primitive cell.

 Routine SETGRP: Setting up the symmetry group for a
 triclinic supercell.

 Subroutine GETGRP returns: Found  1 space group operations
 (whereof  1 operations were pure point group operations)
 out of a pool of  2 trial point group operations.

The magnetic configuration has the point symmetry C_1 .

 Subroutine INISYM returns: Found  1 space group operations
 (whereof  1 operations are pure point group operations),
 and found     1 'primitive' translations

 KPOINTS: Automatic mesh

Automatic generation of k-mesh.
Space group operators:
 irot       det(A)        alpha          n_x          n_y          n_z        tau_x        tau_y        tau_z
    1     1.000000     0.000000     1.000000     0.000000     0.000000     0.000000     0.000000     0.000000

 Subroutine IBZKPT returns following result:

 Found      1 irreducible k-points:

 Following reciprocal coordinates:
            Coordinates               Weight
  0.000000  0.000000  0.000000      1.000000

 Following cartesian coordinates:
            Coordinates               Weight
  0.000000  0.000000  0.000000      1.000000

 SYSTEM =  unknown system
 POSCAR =  ce5381_1

 Startparameter for this run:
   NWRITE =      1    write-flag & timer
   PREC   = accura    normal or accurate (medium, high low for compatibility)
   ISTART =      0    job   : 0-new  1-cont  2-samecut
   ICHARG =      2    charge: 1-file 2-atom 10-const
   ISPIN  =      2    spin polarized calculation?
   LNONCOLLINEAR =      F non collinear calculations
   LSORBIT =      F    spin-orbit coupling
   INIWAV =      1    electr: 0-lowe 1-rand  2-diag
[...]
   0.273E+02 0.147E+02 0.206E+02   -.276E+02 -.149E+02 -.209E+02   0.236E+00 0.125E+00 0.312E+00   0.113E-01 0.386E-02 -.306E-03
   0.506E+01 -.155E+02 -.238E+02   -.541E+01 0.156E+02 0.237E+02   0.338E+00 -.121E+00 0.725E-01   0.133E-01 -.104E-01 0.122E-03
   -.427E+02 0.159E+02 -.585E+01   0.431E+02 -.160E+02 0.630E+01   -.413E+00 0.117E+00 -.451E+00   0.115E-01 -.823E-02 0.448E-02
   0.218E+02 0.250E+01 -.104E+03   -.229E+02 -.245E+01 0.105E+03   0.118E+01 -.492E-01 -.877E+00   -.203E-01 -.965E-02 0.165E-02
   0.549E+00 0.142E+02 -.731E+02   -.132E+01 -.143E+02 0.735E+02   0.753E+00 0.151E+00 -.410E+00   0.193E-01 -.915E-02 -.287E-02
   0.326E+02 -.140E+02 -.419E+02   -.329E+02 0.141E+02 0.419E+02   0.274E+00 -.141E+00 0.137E-01   0.222E-01 0.942E-02 -.362E-02
   0.542E+02 -.221E+01 -.717E+02   -.548E+02 0.216E+01 0.720E+02   0.591E+00 0.383E-01 -.389E+00   -.204E-01 0.924E-02 0.370E-02
   -.314E+02 -.153E+02 -.152E+02   0.324E+02 0.155E+02 0.154E+02   -.977E+00 -.135E+00 -.240E+00   0.110E-01 0.617E-02 0.387E-02
   -.274E+02 0.150E+02 -.203E+02   0.276E+02 -.151E+02 0.207E+02   -.218E+00 0.142E+00 -.367E+00   -.618E-02 -.585E-02 0.859E-03
   -.538E+01 -.160E+02 0.224E+02   0.563E+01 0.161E+02 -.222E+02   -.249E+00 -.127E+00 -.130E+00   -.485E-02 0.619E-02 0.808E-03
   0.296E+02 0.294E+02 0.284E+03   -.330E+02 -.310E+02 -.301E+03   0.340E+01 0.162E+01 0.169E+02   -.102E-01 -.113E-01 0.219E-01
   0.303E+01 0.171E+01 -.331E+03   -.208E+01 -.221E+01 0.347E+03   -.962E+00 0.503E+00 -.166E+02   0.163E-01 -.458E-02 -.159E-01
   -.322E+02 0.318E+02 -.291E+03   0.360E+02 -.337E+02 0.308E+03   -.379E+01 0.188E+01 -.169E+02   -.139E-01 0.116E-01 0.131E-01
   -.296E+02 0.610E+00 0.327E+03   0.289E+02 -.124E+01 -.342E+03   0.728E+00 0.630E+00 0.152E+02   0.201E-01 -.207E-02 -.657E-02
   0.246E+02 0.305E+01 0.278E+03   -.291E+02 -.325E+01 -.291E+03   0.455E+01 0.212E+00 0.124E+02   -.462E-02 -.825E-02 0.235E-03
   -.274E+02 0.319E+02 -.328E+03   0.313E+02 -.340E+02 0.344E+03   -.388E+01 0.210E+01 -.162E+02   -.678E-03 -.581E-02 0.696E-03
   -.267E+02 -.312E+02 -.324E+03   0.299E+02 0.332E+02 0.341E+03   -.319E+01 -.199E+01 -.171E+02   -.188E-02 0.772E-02 -.360E-02
   -.122E+02 -.337E+01 0.299E+03   0.117E+02 0.393E+01 -.314E+03   0.506E+00 -.568E+00 0.146E+02   -.142E-01 0.543E-02 0.486E-02
   -.180E+02 -.211E+01 -.274E+03   0.221E+02 0.221E+01 0.287E+03   -.409E+01 -.896E-01 -.127E+02   -.115E-01 -.464E-02 -.924E-02
   0.695E+02 -.211E+01 0.353E+03   -.764E+02 0.214E+01 -.371E+03   0.687E+01 -.230E-01 0.187E+02   0.460E-02 -.474E-02 0.209E-02
   0.592E+02 0.234E+01 0.348E+03   -.643E+02 -.241E+01 -.367E+03   0.509E+01 0.763E-01 0.189E+02   0.461E-03 0.248E-02 0.430E-02
   0.657E+01 0.187E+01 -.296E+03   -.537E+01 -.178E+01 0.311E+03   -.120E+01 -.865E-01 -.157E+02   -.128E-01 0.220E-02 -.498E-02
   0.339E+02 -.312E+02 0.283E+03   -.380E+02 0.332E+02 -.299E+03   0.408E+01 -.207E+01 0.159E+02   -.406E-02 0.100E-01 0.157E-01
   -.351E+02 -.144E+01 -.306E+03   0.395E+02 0.179E+01 0.320E+03   -.438E+01 -.362E+00 -.137E+02   0.815E-02 0.500E-02 -.883E-02
   -.241E+02 -.331E+02 -.297E+03   0.274E+02 0.352E+02 0.314E+03   -.325E+01 -.205E+01 -.162E+02   -.164E-01 -.128E-01 0.172E-01
   -.345E+02 -.362E+00 0.329E+03   0.335E+02 0.826E+00 -.345E+03   0.940E+00 -.474E+00 0.161E+02   0.234E-01 0.482E-02 -.927E-02
   0.363E+02 0.290E+02 0.292E+03   -.402E+02 -.310E+02 -.308E+03   0.394E+01 0.197E+01 0.165E+02   0.473E-02 -.470E-02 0.200E-02
   0.274E+02 0.244E+01 -.328E+03   -.267E+02 -.305E+01 0.343E+03   -.714E+00 0.615E+00 -.148E+02   -.113E-01 -.107E-01 -.592E-02
   -.212E+02 0.273E+02 -.285E+03   0.240E+02 -.291E+02 0.301E+03   -.280E+01 0.185E+01 -.166E+02   0.125E-01 -.318E-02 -.910E-02
   -.107E+02 0.333E+01 0.331E+03   0.103E+02 -.371E+01 -.348E+03   0.435E+00 0.365E+00 0.171E+02   -.213E-01 0.110E-01 -.155E-02
   0.202E+02 -.965E+00 0.273E+03   -.250E+02 0.933E+00 -.286E+03   0.474E+01 0.421E-01 0.129E+02   0.933E-02 -.114E-01 0.180E-01
   -.569E+02 -.155E+01 -.355E+03   0.626E+02 0.159E+01 0.374E+03   -.571E+01 -.355E-01 -.188E+02   -.220E-02 -.116E-01 -.138E-01
   -.578E+02 0.137E+01 -.347E+03   0.630E+02 -.153E+01 0.367E+03   -.521E+01 0.147E+00 -.194E+02   0.453E-02 0.131E-01 -.193E-01
   -.163E+02 0.863E+00 0.294E+03   0.157E+02 -.768E+00 -.310E+03   0.571E+00 -.108E+00 0.152E+02   0.750E-02 0.117E-01 0.213E-01
   -.365E+02 0.375E+01 -.275E+03   0.414E+02 -.402E+01 0.288E+03   -.492E+01 0.270E+00 -.129E+02   0.132E-01 -.274E-02 0.221E-01
   0.283E+02 0.336E+02 0.328E+03   -.317E+02 -.356E+02 -.345E+03   0.348E+01 0.207E+01 0.162E+02   -.914E-02 -.488E-02 -.171E-01
   0.406E+02 -.323E+02 0.321E+03   -.449E+02 0.342E+02 -.339E+03   0.427E+01 -.185E+01 0.171E+02   -.683E-02 0.531E-02 -.208E-01
   0.935E+01 -.421E+01 -.299E+03   -.902E+01 0.481E+01 0.314E+03   -.330E+00 -.608E+00 -.146E+02   0.166E-01 0.640E-02 0.186E-01
   0.310E+02 -.295E+02 0.298E+03   -.346E+02 0.315E+02 -.314E+03   0.359E+01 -.201E+01 0.162E+02   0.762E-02 0.364E-02 -.515E-04
   0.288E+02 -.888E+00 -.331E+03   -.274E+02 0.979E+00 0.346E+03   -.143E+01 -.103E+00 -.159E+02   -.164E-01 0.119E-01 -.316E-02
   -.289E+02 -.273E+02 -.283E+03   0.328E+02 0.293E+02 0.299E+03   -.393E+01 -.195E+01 -.160E+02   0.993E-02 0.320E-02 -.802E-02
   0.292E+02 -.334E+01 0.308E+03   -.334E+02 0.348E+01 -.322E+03   0.422E+01 -.133E+00 0.139E+02   -.142E-01 -.866E-02 -.253E-02
   -.225E+01 0.231E+00 0.101E+01   -.142E-13 -.244E-13 -.114E-12   0.224E+01 -.209E+00 -.102E+01   0.388E-02 -.641E-02 0.983E-02

 POSITION                                       TOTAL-FORCE (eV/Angst)
      1.59131      5.50044      2.38398        -0.006939     -0.008977     -0.000271
      4.10658      1.40047      2.39729        -0.018261      0.005449     -0.001011
      2.44390      1.36557      7.11501         0.002677     -0.003685     -0.005981
      2.46686      4.17981      7.11427        -0.017323     -0.001959      0.009735
      1.59298      2.82817      2.38297        -0.008628      0.009815     -0.002087
      6.60791      5.51122      2.42197        -0.004603      0.003885     -0.001360
      9.11026      1.40027      2.45229         0.006822      0.007269      0.002689
      7.14325      1.36538      7.16754         0.005799     -0.001582     -0.002089
      7.11480      4.18053      7.18031        -0.022488      0.000031      0.005192
      6.60526      2.82754      2.42218        -0.002456      0.000417     -0.002061
     -0.21099      2.77307      7.10679         0.003181      0.013184      0.003564
      0.00317      5.55018      0.06213         0.003198      0.004896      0.008860
     -1.12771      1.38101      9.42306        -0.000468     -0.000852     -0.000147
      3.89057      1.38717      9.46105        -0.002055     -0.003364      0.001042
      3.90265      4.16232      9.49040        -0.000190     -0.001691     -0.000798
     -1.11649      4.16611      9.44202        -0.002342     -0.000720     -0.002216
      0.00574      2.77970      0.05916         0.002909      0.001676      0.009443
      5.00363      5.54993      0.05747         0.003485     -0.006587     -0.003165
      5.01839      2.78040      0.08631         0.005102     -0.000460     -0.003057
      3.19829      5.54665      4.69812        -0.001097     -0.002277     -0.005242
      5.69686      1.38815      4.82460        -0.000412      0.000159     -0.000904
      0.69736      1.38375      4.79490         0.000181     -0.001393     -0.004362
      0.68539      4.16734      4.77058         0.001553      0.000939     -0.004218
      5.68433      4.16357      4.79846         0.000473     -0.000145     -0.000606
      3.19374      2.77741      4.70033        -0.001571      0.000817     -0.005371
     -1.80639      0.00064      4.70908         0.001252     -0.000617      0.000503
      8.19911      2.78424      4.76040         0.001498      0.003583     -0.000272
      4.98815      0.02141      3.79805        -0.004026     -0.000786     -0.000066
      1.50506      5.54759      5.72308         0.009092     -0.000086     -0.002335
      3.23117      0.01659      0.97433         0.003411     -0.002046      0.002765
      3.09058      5.55149      8.53164         0.007634     -0.001965     -0.001850
      7.50011      1.37844      3.74378        -0.000136      0.001460     -0.002758
     -1.12365      1.42195      5.72002         0.001161     -0.001869      0.002062
     -1.09499      4.14369      5.69668         0.006840     -0.001046      0.002242
      7.40445      4.17805      3.80861         0.001062      0.002018      0.002277
      0.74144      1.39117      1.07917         0.009050      0.002608      0.000552
      5.74873      1.39087      8.57639        -0.001765      0.002419      0.002904
      5.67104      4.16291      8.59834        -0.010499      0.003579     -0.000386
      0.75151      4.16079      1.03848        -0.019462      0.003778      0.008565
      5.00864      2.74515      3.78004         0.001395      0.001249     -0.000447
      1.41617      2.78391      5.78978         0.006387     -0.000879     -0.002508
      3.24151      2.75413      0.98165         0.001947      0.005689     -0.003430
      3.09160      2.77475      8.53363         0.007648     -0.005861     -0.000770
     -0.02804      0.02557      3.78306        -0.001146     -0.000330     -0.000249
      6.49124      5.54807      5.76790        -0.000123     -0.000357      0.001507
      8.24998      0.03339      1.03090        -0.000427     -0.000471      0.009653
     -1.95022      5.53806      8.49941         0.001187     -0.002765     -0.000651
      2.47640      1.38798      3.68359         0.002988     -0.000877     -0.005244
      3.88977      1.38895      5.69751         0.000334     -0.001029      0.003290
      3.90877      4.15930      5.68517         0.002688     -0.001980      0.004132
      2.38300      4.15778      3.75112         0.005553     -0.000894     -0.003864
      5.66233      1.37390      1.12659        -0.002992     -0.005268     -0.002175
      0.68110      1.41889      8.49753        -0.006879     -0.001261     -0.004698
      0.72594      4.13653      8.49191         0.020473     -0.003623     -0.010435
      5.81805      4.17562      1.03976         0.014529     -0.005759     -0.001408
     -0.02425      2.74636      3.77338         0.000119      0.000700     -0.004110
      6.47695      2.78756      5.76337         0.002212     -0.000495      0.002743
      8.21681      2.74404      1.04776         0.001149      0.000754      0.011018
     -1.85387      2.78734      8.43705        -0.008700     -0.002413     -0.002136
    total drift:                               -0.001421      0.015513     -0.004445

  FREE ENERGIE OF THE ION-ELECTRON SYSTEM (eV)
  free  energy   TOTEN  =      -359.5467363401 eV

  energy  without entropy=     -359.5204751267  energy(sigma->0) =     -359.53360573

 d Force = 0.1612465E-03[ 0.146E-03, 0.176E-03]  d Energy = 0.1357099E-03 0.255E-04
 d Force = 0.5629252E+00[ 0.563E+00, 0.563E+00]  d Ewald  = 0.2167283E+01-0.160E+01

 Quasi-Newton relaxation of ions (Broydens 2nd method)
  g(Force)  = 0.244E-03   g(Stress)= 0.819E-05

 retain information from N=  1 steps
 eigenvalues of (default step * inverse Hessian matrix)
  average eigenvalue of G=   0.3515
 eigenvalue spectrum of G is  0.3515

volume of typ            1:    16.3 %

[...]

volume of typ            3:     9.9 %

total charge

# of ion       s       p       d       tot
    1        2.079   0.246   0.092   2.417
    2        2.083   0.253   0.097   2.433
    3        2.075   0.238   0.087   2.400
    4        2.077   0.238   0.089   2.404
    5        2.082   0.246   0.094   2.421
    6        2.081   0.242   0.091   2.414
    7        2.077   0.243   0.090   2.411
    8        2.080   0.246   0.092   2.418
    9        2.075   0.237   0.087   2.399
   10        2.078   0.247   0.091   2.417
   11        2.073   0.232   0.085   2.390
   12        0.283   0.391   7.855   8.529
   13        0.273   0.366   7.868   8.508
   14        0.273   0.362   7.879   8.514
   15        0.272   0.367   7.851   8.490
   16        0.269   0.357   7.876   8.502
   17        0.276   0.374   7.862   8.511
   18        0.274   0.372   7.853   8.499
   19        0.282   0.388   7.860   8.529
   20        0.279   0.381   7.862   8.522
   21        0.275   0.369   7.862   8.506
   22        0.274   0.368   7.872   8.514
   23        0.273   0.369   7.857   8.499
   24        0.274   0.371   7.850   8.495
   25        0.274   0.368   7.866   8.508
   26        0.272   0.368   7.856   8.496
   27        0.278   0.379   7.866   8.524
   28        1.263   2.779   0.007   4.048
   29        1.264   2.776   0.007   4.046
   30        1.263   2.778   0.007   4.048
   31        1.260   2.789   0.007   4.055
   32        1.257   2.797   0.006   4.060
   33        1.266   2.769   0.006   4.041
   34        1.266   2.769   0.007   4.042
   35        1.262   2.785   0.006   4.053
   36        1.255   2.800   0.006   4.061
   37        1.270   2.765   0.007   4.042
   38        1.270   2.762   0.007   4.039
   39        1.259   2.790   0.006   4.056
   40        1.263   2.778   0.006   4.048
   41        1.258   2.792   0.006   4.055
   42        1.263   2.778   0.007   4.047
   43        1.261   2.785   0.007   4.052
   44        1.263   2.779   0.007   4.049
   45        1.260   2.789   0.006   4.055
   46        1.263   2.778   0.007   4.048
   47        1.263   2.777   0.007   4.047
   48        1.255   2.801   0.006   4.062
   49        1.270   2.762   0.007   4.039
   50        1.269   2.765   0.007   4.041
   51        1.259   2.792   0.006   4.057
   52        1.256   2.800   0.006   4.062
   53        1.267   2.766   0.006   4.039
   54        1.267   2.769   0.007   4.042
   55        1.262   2.785   0.006   4.053
   56        1.263   2.779   0.007   4.048
   57        1.261   2.786   0.007   4.053
   58        1.263   2.778   0.007   4.048
   59        1.258   2.791   0.006   4.055
tot          67.65   97.61  127.00  292.26

magnetization (x)

# of ion       s       p       d       tot
    1        0.004   0.007  -0.000   0.010
    2        0.002   0.008   0.001   0.011
    3        0.005   0.011   0.000   0.016
    4        0.001   0.004  -0.000   0.005
    5       -0.000   0.001  -0.000   0.001
    6       -0.000   0.003  -0.000   0.003
    7        0.005   0.011   0.000   0.017
    8        0.002   0.008   0.001   0.012
    9        0.004   0.008  -0.000   0.011
   10        0.005   0.012   0.000   0.017
   11        0.005   0.011  -0.000   0.016
   12       -0.001  -0.000  -0.248  -0.250
   13        0.003  -0.000   0.511   0.514
   14        0.005   0.000   0.596   0.600
   15        0.000  -0.001   0.409   0.409
   16       -0.002  -0.000  -0.421  -0.423
   17        0.003  -0.000   0.487   0.490
   18        0.000  -0.000   0.365   0.365
   19       -0.002  -0.000  -0.304  -0.306
   20        0.000  -0.000   0.340   0.340
   21        0.003   0.000   0.558   0.561
   22        0.004  -0.000   0.542   0.546
   23        0.000  -0.000   0.400   0.400
   24       -0.000  -0.000   0.385   0.384
   25        0.003  -0.000   0.544   0.547
   26        0.000  -0.001   0.439   0.439
   27        0.001  -0.000   0.425   0.425
   28        0.005   0.033   0.000   0.039
   29        0.006   0.050   0.000   0.056
   30        0.003   0.026   0.000   0.030
   31        0.006   0.050   0.000   0.057
   32        0.008   0.056   0.000   0.064
   33        0.008   0.083   0.000   0.091
   34        0.007   0.038   0.000   0.045
   35        0.008   0.056   0.000   0.064
   36        0.005   0.053   0.000   0.058
   37        0.007   0.096   0.000   0.102
   38        0.004   0.036   0.000   0.040
   39       -0.005  -0.072  -0.000  -0.077
   40        0.008   0.078   0.000   0.086
   41        0.007   0.060   0.000   0.068
   42       -0.004  -0.026  -0.000  -0.029
   43       -0.001  -0.026  -0.000  -0.027
   44        0.006   0.039   0.000   0.045
   45        0.007   0.057   0.000   0.065
   46        0.000   0.000  -0.000   0.000
   47       -0.003  -0.038  -0.000  -0.041
   48        0.006   0.057   0.000   0.063
   49        0.008   0.083   0.000   0.091
   50        0.005   0.037   0.000   0.043
   51        0.006   0.047   0.000   0.053
   52        0.006   0.068   0.000   0.074
   53        0.006   0.065   0.000   0.072
   54       -0.004  -0.061  -0.000  -0.065
   55        0.006   0.049   0.000   0.055
   56        0.006   0.048   0.000   0.054
   57        0.006   0.052   0.000   0.059
   58        0.007   0.069   0.000   0.077
   59        0.005   0.047   0.000   0.053
tot           0.20    1.29    5.03    6.52