 vasp.5.4.4.18Apr17-6-g9f103f2a35 (build May 12 2020 05:39:39) gamma-only

 MD_VERSION_INFO: Compiled 2020-05-12T12:39:39-UTC in devlin.sd.materialsdesign.
 com:/home/medea2/data/build/wwolf/vasp-gpu5.4.4/13047/x86_64/src/src/build/gam
 from svn 13047

 executed on                        Lin64 date 2023.03.07  05:18:35

 INCAR:
 POTCAR:    PAW_PBE Li_sv 10Sep2004
 POTCAR:    PAW_PBE Ni 02Aug2007
 POTCAR:    PAW_PBE O 08Apr2002

 POTCAR:    PAW_PBE Li_sv 10Sep2004

 POTCAR:    PAW_PBE Ni 02Aug2007

 POTCAR:    PAW_PBE O 08Apr2002

 Optimization of the real space projectors (new method)

 maximal supplied QI-value         = 22.11
 optimisation between [QCUT,QGAM] = [ 11.28, 22.77] = [ 35.61,145.23] Ry
 Optimized for a Real-space Cutoff    1.10 Angstroem

   l    n(q)    QCUT    max X(q) W(low)/X(q) W(high)/X(q)  e(spline)
   0      7    11.276    10.506    0.54E-04    0.58E-04    0.16E-07
   0      7    11.276     8.367    0.11E-03    0.14E-03    0.35E-07
   1      7    11.276     8.983    0.23E-03    0.43E-03    0.86E-07
 Optimization of the real space projectors (new method)

[...]

   l    n(q)    QCUT    max X(q) W(low)/X(q) W(high)/X(q)  e(spline)
   2      9    11.376    60.317    0.17E-03    0.16E-04    0.16E-06
   2      9    11.376    55.921    0.17E-03    0.16E-04    0.17E-06
   0     10    11.376    51.690    0.45E-04    0.60E-04    0.21E-06
   0     10    11.376    30.015    0.37E-04    0.55E-04    0.19E-06
   1     10    11.376    18.849    0.83E-04    0.11E-03    0.92E-07
   1     10    11.376    14.624    0.69E-04    0.92E-04    0.82E-07
 Optimization of the real space projectors (new method)

 maximal supplied QI-value         = 24.76
 optimisation between [QCUT,QGAM] = [ 11.39, 22.77] = [ 36.31,145.25] Ry
 Optimized for a Real-space Cutoff    1.10 Angstroem

   l    n(q)    QCUT    max X(q) W(low)/X(q) W(high)/X(q)  e(spline)
   0      7    11.387    20.381    0.22E-03    0.48E-03    0.18E-06
   0      7    11.387    15.268    0.22E-03    0.52E-03    0.19E-06
   1      7    11.387     5.964    0.22E-03    0.73E-03    0.24E-06
   1      7    11.387     5.382    0.19E-03    0.60E-03    0.21E-06

  PAW_PBE Li_sv 10Sep2004               :
  PAW_PBE Ni 02Aug2007                  :
  PAW_PBE O 08Apr2002                   :

 POSCAR: ce14490_1
  positions in direct lattice
 exchange correlation table for  LEXCH =       14
   RHO(1)=    0.500       N(1)  =     2000
   RHO(2)=  100.500       N(2)  =     4000

 ion  position               nearest neighbor table
   1  0.250  0.250  0.500-  49 2.11  45 2.11  27 2.14  37 2.15  25 2.17  39 2.17
   2  0.250  0.750  0.500-  50 2.11  46 2.11  28 2.14  38 2.15  26 2.17  40 2.17
   3  0.543  0.250  0.250-  36 2.04  48 2.04  39 2.06  53 2.07  13 2.80  20 2.80
   4  0.543  0.750  0.750-  35 2.04  47 2.04  40 2.06  54 2.07  12 2.80  21 2.80
   5  0.956  0.250  0.751-  32 2.03  52 2.04  43 2.06  25 2.08  12 2.79  21 2.80
   6  0.956  0.750  0.249-  31 2.03  51 2.04  44 2.06  26 2.08  13 2.79  20 2.80
   7  0.253  0.250  1.000-  29 2.11  33 2.11  55 2.14  41 2.15  53 2.16  43 2.18
   8  0.253  0.750  0.000-  30 2.11  34 2.11  56 2.14  42 2.15  54 2.16  44 2.18
   9  1.000  0.000  0.000-  35 1.84  36 1.84  33 1.85  34 1.85  43 2.10  44 2.10  14 2.75  14 2.77
                            13 2.85  12 2.85  10 2.85  11 2.85
  10  0.251  0.000  0.251-  39 1.82  44 1.82  27 1.87  56 1.87  50 2.04  33 2.04  13 2.76  13 2.76
                            16 2.84  15 2.84   9 2.85  14 2.85
  11  0.251  1.000  0.749-  40 1.82  43 1.82  28 1.87  55 1.87  49 2.04  34 2.04  12 2.76  12 2.76
                            16 2.84  15 2.84   9 2.85  14 2.85
  12  0.750  0.000  0.750-  40 1.84  43 1.85  55 1.88  28 1.88  52 1.93  35 1.94  11 2.76  11 2.76
                             5 2.79   4 2.80  15 2.84  16 2.84  14 2.84   9 2.85
  13  0.750  1.000  0.250-  39 1.84  44 1.85  56 1.88  27 1.88  51 1.93  36 1.94  10 2.76  10 2.76
                             6 2.79   3 2.80  15 2.84  16 2.84  14 2.84   9 2.85
  14  0.502  0.000  0.000-  35 1.84  36 1.84  33 1.84  34 1.84  55 1.89  56 1.89   9 2.75   9 2.77
                            13 2.84  12 2.84  10 2.85  11 2.85
  15  0.999  0.000  0.500-  49 1.84  50 1.84  51 1.85  52 1.85  27 1.89  28 1.89  16 2.76  16 2.76
                            13 2.84  12 2.84  11 2.84  10 2.84
  16  0.500  0.000  0.500-  51 1.84  52 1.84  49 1.85  50 1.85  39 2.11  40 2.11  15 2.76  15 2.76
                            11 2.84  10 2.84  12 2.84  13 2.84
  17  1.000  0.500  0.500-  47 1.84  48 1.84  45 1.85  46 1.85  25 2.10  26 2.10  22 2.75  22 2.77
                            21 2.84  20 2.84  19 2.84  18 2.84
  18  0.250  0.500  0.750-  25 1.82  54 1.83  42 1.86  37 1.86  29 2.04  46 2.04  21 2.76  21 2.76
                            17 2.84  24 2.85  23 2.85  22 2.85
  19  0.250  0.500  0.250-  26 1.82  53 1.83  41 1.86  38 1.86  30 2.04  45 2.04  20 2.76  20 2.76
                            17 2.84  24 2.85  23 2.85  22 2.85
  20  0.750  0.500  0.250-  26 1.85  53 1.85  41 1.88  38 1.88  31 1.93  48 1.93  19 2.76  19 2.76
                             6 2.80   3 2.80  22 2.84  23 2.84  24 2.84  17 2.84
  21  0.750  0.500  0.750-  25 1.85  54 1.85  42 1.88  37 1.88  32 1.93  47 1.93  18 2.76  18 2.76
                             5 2.80   4 2.80  22 2.84  23 2.84  24 2.84  17 2.84
  22  0.502  0.500  0.500-  45 1.85  46 1.85  47 1.85  48 1.85  37 1.88  38 1.88  17 2.75  17 2.77
                            21 2.84  20 2.84  19 2.85  18 2.85
  23  0.999  0.500  0.000-  29 1.84  30 1.84  31 1.85  32 1.85  41 1.88  42 1.88  24 2.75  24 2.77
                            21 2.84  20 2.84  19 2.85  18 2.85
  24  0.501  0.500  0.000-  31 1.84  32 1.84  29 1.85  30 1.85  53 2.10  54 2.10  23 2.75  23 2.77
                            20 2.84  21 2.84  18 2.85  19 2.85
  25  0.003  0.394  0.647-  18 1.82  21 1.85   5 2.08  17 2.10   1 2.17
  26  0.003  0.606  0.353-  19 1.82  20 1.85   6 2.08  17 2.10   2 2.17
  27  0.002  0.098  0.370-  10 1.87  13 1.88  15 1.89   1 2.14
  28  0.002  0.902  0.630-  11 1.87  12 1.88  15 1.89   2 2.14
  29  0.250  0.396  0.893-  23 1.84  24 1.85  18 2.04   7 2.11
  30  0.250  0.604  0.107-  23 1.84  24 1.85  19 2.04   8 2.11
  31  0.748  0.598  0.114-  24 1.84  23 1.85  20 1.93   6 2.03
  32  0.748  0.402  0.886-  24 1.84  23 1.85  21 1.93   5 2.03
  33  0.251  0.103  0.107-  14 1.84   9 1.85  10 2.04   7 2.11
  34  0.251  0.897  0.893-  14 1.84   9 1.85  11 2.04   8 2.11
  35  0.752  0.902  0.887-   9 1.84  14 1.84  12 1.94   4 2.04
  36  0.752  0.098  0.113-   9 1.84  14 1.84  13 1.94   3 2.04
  37  0.498  0.402  0.630-  18 1.86  22 1.88  21 1.88   1 2.15
  38  0.498  0.598  0.370-  19 1.86  22 1.88  20 1.88   2 2.15
  39  0.497  0.106  0.352-  10 1.82  13 1.84   3 2.06  16 2.11   1 2.17
  40  0.497  0.894  0.648-  11 1.82  12 1.84   4 2.06  16 2.11   2 2.17
  41  0.003  0.403  0.130-  19 1.86  23 1.88  20 1.88   7 2.15
  42  0.003  0.597  0.870-  18 1.86  23 1.88  21 1.88   8 2.15
  43  0.003  0.106  0.852-  11 1.82  12 1.85   5 2.06   9 2.10   7 2.18
  44  0.003  0.894  0.148-  10 1.82  13 1.85   6 2.06   9 2.10   8 2.18
  45  0.251  0.396  0.393-  17 1.85  22 1.85  19 2.04   1 2.11
  46  0.251  0.604  0.607-  17 1.85  22 1.85  18 2.04   2 2.11
  47  0.752  0.598  0.614-  17 1.84  22 1.85  21 1.93   4 2.04
  48  0.752  0.402  0.386-  17 1.84  22 1.85  20 1.93   3 2.04
  49  0.249  0.103  0.607-  15 1.84  16 1.85  11 2.04   1 2.11
  50  0.249  0.897  0.393-  15 1.84  16 1.85  10 2.04   2 2.11
  51  0.748  0.902  0.386-  16 1.84  15 1.85  13 1.93   6 2.04
  52  0.748  0.098  0.614-  16 1.84  15 1.85  12 1.93   5 2.04
  53  0.497  0.394  0.148-  19 1.83  20 1.85   3 2.07  24 2.10   7 2.16
  54  0.497  0.606  0.852-  18 1.83  21 1.85   4 2.07  24 2.10   8 2.16
  55  0.498  0.098  0.870-  11 1.87  12 1.88  14 1.89   7 2.14
  56  0.498  0.902  0.130-  10 1.87  13 1.88  14 1.89   8 2.14

  LATTYP: Found a simple monoclinic cell.
 ALAT       =    11.5777944687
 B/A-ratio  =     0.4768265906
 C/A-ratio  =     1.6788966075
 COS(beta)  =    -0.9055479471

  Lattice vectors:

 A1 = (  -6.3642570604,   0.0000000000,  -9.6716884167)
 A2 = (   0.0000000000,  -5.5206002630,   0.0000000000)
 A3 = (   2.7869428055,   0.0000000000,  19.2370912070)

Analysis of symmetry for initial positions (statically):
 Subroutine PRICEL returns:
 Original cell was already a primitive cell.

 Routine SETGRP: Setting up the symmetry group for a
 simple monoclinic supercell.

 Subroutine GETGRP returns: Found  2 space group operations
 (whereof  2 operations were pure point group operations)
 out of a pool of  4 trial point group operations.

The static configuration has the point symmetry C_2 .

Analysis of symmetry for dynamics (positions and initial velocities):
 Subroutine PRICEL returns:
 Original cell was already a primitive cell.

[...]

The dynamic configuration has the point symmetry C_2 .

Analysis of structural, dynamic, and magnetic symmetry:
 Subroutine PRICEL returns:
 Original cell was already a primitive cell.

 Routine SETGRP: Setting up the symmetry group for a
 simple monoclinic supercell.

 Subroutine GETGRP returns: Found  2 space group operations
 (whereof  2 operations were pure point group operations)
 out of a pool of  4 trial point group operations.

The magnetic configuration has the point symmetry C_2 .

 Subroutine INISYM returns: Found  2 space group operations
 (whereof  2 operations are pure point group operations),
 and found     1 'primitive' translations

 KPOINTS: Automatic mesh

Automatic generation of k-mesh.
Space group operators:
 irot       det(A)        alpha          n_x          n_y          n_z        tau_x        tau_y        tau_z
    1     1.000000     0.000000     1.000000     0.000000     0.000000     0.000000     0.000000     0.000000
    2     1.000000   180.000000     0.000000     1.000000     0.000000     0.000000     0.000000     0.000000

 Subroutine IBZKPT returns following result:

 Found      1 irreducible k-points:

 Following reciprocal coordinates:
            Coordinates               Weight
  0.000000  0.000000  0.000000      1.000000

 Following cartesian coordinates:
            Coordinates               Weight
  0.000000  0.000000  0.000000      1.000000

 SYSTEM =  unknown system
 POSCAR =  ce14490_1

 Startparameter for this run:
   NWRITE =      1    write-flag & timer
   PREC   = accura    normal or accurate (medium, high low for compatibility)
   ISTART =      0    job   : 0-new  1-cont  2-samecut
   ICHARG =      2    charge: 1-file 2-atom 10-const
   ISPIN  =      2    spin polarized calculation?
   LNONCOLLINEAR =      F non collinear calculations
   LSORBIT =      F    spin-orbit coupling
   INIWAV =      1    electr: 0-lowe 1-rand  2-diag
   LASPH  =      F    aspherical Exc in radial PAW
   METAGGA=      F    non-selfconsistent MetaGGA calc.

 Electronic Relaxation 1
   ENCUT  =  500.0 eV  36.75 Ry    6.06 a.u.  10.07 18.62 18.13*2*pi/ulx,y,z
   ENINI  =  500.0     initial cutoff
   ENAUG  =  628.9 eV  augmentation charge cutoff
   NELM   =     80;   NELMIN=  2; NELMDL= -5     # of ELM steps
   EDIFF  = 0.1E-04   stopping-criterion for ELM
[...]
   0.104E+00 -.828E-01 0.382E+00   -.896E-01 0.883E-01 -.379E+00   0.447E-02 0.178E-02 -.128E-03   -.234E-01 0.295E-02 -.818E-02
   0.707E-01 0.660E-01 0.425E+00   -.501E-01 -.683E-01 -.424E+00   0.450E-02 0.280E-02 0.131E-02   -.255E-01 -.523E-02 -.623E-02
   -.707E-01 0.660E-01 -.425E+00   0.501E-01 -.683E-01 0.424E+00   -.450E-02 0.280E-02 -.131E-02   0.255E-01 -.523E-02 0.623E-02
   0.121E-04 -.284E+02 -.258E-05   0.284E-13 0.286E+02 -.689E-11   0.000E+00 -.153E+00 -.388E-25   0.952E-11 0.568E-02 -.344E-11
   -.959E-05 0.282E+02 0.204E-05   0.691E-11 -.284E+02 -.105E-11   0.207E-24 0.154E+00 -.194E-25   -.711E-11 -.127E-01 -.370E-12
   0.199E-05 -.248E+02 -.423E-06   0.283E-11 0.249E+02 -.283E-11   0.000E+00 -.196E+00 0.000E+00   -.667E-11 0.106E-01 0.165E-11
   0.150E-05 0.249E+02 -.318E-06   0.535E-11 -.251E+02 0.940E-11   0.000E+00 0.195E+00 0.129E-25   0.698E-11 -.697E-02 0.104E-11
   0.453E-01 -.153E-01 0.198E+00   -.138E-01 0.276E-01 -.189E+00   0.214E-02 0.814E-03 -.617E-03   -.341E-01 -.125E-01 -.752E-02
   -.453E-01 -.153E-01 -.198E+00   0.138E-01 0.276E-01 0.189E+00   -.214E-02 0.814E-03 0.617E-03   0.341E-01 -.125E-01 0.752E-02
   -.547E-01 0.105E+00 -.174E+00   0.215E-01 -.120E+00 0.166E+00   -.264E-02 -.228E-02 -.291E-02   0.364E-01 0.142E-01 0.839E-02
   0.547E-01 0.105E+00 0.174E+00   -.215E-01 -.120E+00 -.166E+00   0.264E-02 -.228E-02 0.291E-02   -.364E-01 0.142E-01 -.839E-02
   0.123E-04 -.283E+02 -.262E-05   0.514E-11 0.285E+02 0.935E-11   0.000E+00 -.151E+00 -.372E-25   -.359E-11 0.717E-02 0.162E-11
   -.789E-05 0.283E+02 0.168E-05   0.280E-11 -.285E+02 0.895E-11   0.000E+00 0.147E+00 -.215E-25   -.109E-13 -.275E-02 0.279E-11
   0.349E-05 -.250E+02 -.746E-06   0.313E-11 0.252E+02 0.897E-11   0.000E+00 -.196E+00 0.727E-25   -.422E-11 0.462E-02 0.545E-11
   0.468E+02 0.232E+02 0.336E+03   -.523E+02 -.247E+02 -.354E+03   0.552E+01 0.156E+01 0.177E+02   -.313E-01 -.638E-02 0.864E-02
   -.468E+02 0.232E+02 -.336E+03   0.523E+02 -.247E+02 0.354E+03   -.552E+01 0.156E+01 -.177E+02   0.313E-01 -.638E-02 -.864E-02
   0.216E+02 0.265E+02 -.365E+03   -.225E+02 -.285E+02 0.386E+03   0.918E+00 0.196E+01 -.211E+02   0.112E-01 -.813E-02 0.436E-03
   -.216E+02 0.265E+02 0.365E+03   0.225E+02 -.285E+02 -.386E+03   -.918E+00 0.196E+01 0.211E+02   -.112E-01 -.813E-02 -.436E-03
   0.358E+02 -.348E+02 0.350E+03   -.412E+02 0.367E+02 -.368E+03   0.542E+01 -.182E+01 0.179E+02   -.223E-02 -.334E-02 -.417E-02
   -.358E+02 -.348E+02 -.350E+03   0.412E+02 0.367E+02 0.368E+03   -.542E+01 -.182E+01 -.179E+02   0.223E-02 -.334E-02 0.417E-02
   0.252E+01 0.391E+02 -.353E+03   -.264E+01 -.416E+02 0.373E+03   0.106E+00 0.257E+01 -.201E+02   0.841E-02 0.391E-02 0.707E-03
   -.252E+01 0.391E+02 0.353E+03   0.264E+01 -.416E+02 -.373E+03   -.106E+00 0.257E+01 0.201E+02   -.841E-02 0.391E-02 -.707E-03
   -.356E+02 0.351E+02 -.350E+03   0.410E+02 -.370E+02 0.368E+03   -.539E+01 0.184E+01 -.179E+02   0.439E-03 -.223E-02 -.775E-03
   0.356E+02 0.351E+02 0.350E+03   -.410E+02 -.370E+02 -.368E+03   0.539E+01 0.184E+01 0.179E+02   -.439E-03 -.223E-02 0.775E-03
   -.259E+01 -.392E+02 0.353E+03   0.272E+01 0.418E+02 -.373E+03   -.117E+00 -.257E+01 0.202E+02   -.527E-02 0.109E-02 0.498E-02
   0.259E+01 -.392E+02 -.353E+03   -.272E+01 0.418E+02 0.373E+03   0.117E+00 -.257E+01 -.202E+02   0.527E-02 0.109E-02 -.498E-02
   -.217E+02 -.266E+02 0.365E+03   0.227E+02 0.286E+02 -.386E+03   -.929E+00 -.197E+01 0.211E+02   -.186E-01 0.633E-02 0.202E-02
   0.217E+02 -.266E+02 -.365E+03   -.227E+02 0.286E+02 0.386E+03   0.929E+00 -.197E+01 -.211E+02   0.186E-01 0.633E-02 -.202E-02
   -.469E+02 -.232E+02 -.336E+03   0.524E+02 0.247E+02 0.354E+03   -.553E+01 -.157E+01 -.177E+02   0.200E-01 0.794E-02 -.517E-02
   0.469E+02 -.232E+02 0.336E+03   -.524E+02 0.247E+02 -.354E+03   0.553E+01 -.157E+01 0.177E+02   -.200E-01 0.794E-02 0.517E-02
   -.218E+02 0.265E+02 0.365E+03   0.227E+02 -.284E+02 -.387E+03   -.937E+00 0.195E+01 0.212E+02   0.942E-02 -.570E-02 0.350E-02
   0.218E+02 0.265E+02 -.365E+03   -.227E+02 -.284E+02 0.387E+03   0.937E+00 0.195E+01 -.212E+02   -.942E-02 -.570E-02 -.350E-02
   -.467E+02 0.231E+02 -.336E+03   0.522E+02 -.247E+02 0.354E+03   -.552E+01 0.156E+01 -.177E+02   0.157E-02 -.914E-02 -.664E-02
   0.467E+02 0.231E+02 0.336E+03   -.522E+02 -.247E+02 -.354E+03   0.552E+01 0.156E+01 0.177E+02   -.157E-02 -.914E-02 0.664E-02
   0.359E+02 0.350E+02 0.350E+03   -.413E+02 -.368E+02 -.368E+03   0.541E+01 0.183E+01 0.179E+02   0.228E-01 -.180E-01 0.195E-01
   -.359E+02 0.350E+02 -.350E+03   0.413E+02 -.368E+02 0.368E+03   -.541E+01 0.183E+01 -.179E+02   -.228E-01 -.180E-01 -.195E-01
   0.230E+01 -.392E+02 -.352E+03   -.238E+01 0.417E+02 0.373E+03   0.913E-01 -.257E+01 -.202E+02   -.178E-01 0.177E-01 -.237E-01
   -.230E+01 -.392E+02 0.352E+03   0.238E+01 0.417E+02 -.373E+03   -.913E-01 -.257E+01 0.202E+02   0.178E-01 0.177E-01 0.237E-01
   -.359E+02 -.350E+02 -.350E+03   0.414E+02 0.368E+02 0.368E+03   -.541E+01 -.183E+01 -.179E+02   -.186E-01 0.151E-01 -.170E-01
   0.359E+02 -.350E+02 0.350E+03   -.414E+02 0.368E+02 -.368E+03   0.541E+01 -.183E+01 0.179E+02   0.186E-01 0.151E-01 0.170E-01
   -.223E+01 0.392E+02 0.353E+03   0.231E+01 -.417E+02 -.373E+03   -.889E-01 0.257E+01 0.201E+02   0.139E-01 -.144E-01 0.201E-01
   0.223E+01 0.392E+02 -.353E+03   -.231E+01 -.417E+02 0.373E+03   0.889E-01 0.257E+01 -.201E+02   -.139E-01 -.144E-01 -.201E-01
   0.465E+02 -.233E+02 0.336E+03   -.520E+02 0.248E+02 -.354E+03   0.548E+01 -.157E+01 0.177E+02   0.112E-01 0.656E-02 -.757E-03
   -.465E+02 -.233E+02 -.336E+03   0.520E+02 0.248E+02 0.354E+03   -.548E+01 -.157E+01 -.177E+02   -.112E-01 0.656E-02 0.757E-03
   0.221E+02 -.266E+02 -.365E+03   -.231E+02 0.285E+02 0.386E+03   0.972E+00 -.196E+01 -.211E+02   -.380E-02 0.723E-02 -.800E-02
   -.221E+02 -.266E+02 0.365E+03   0.231E+02 0.285E+02 -.386E+03   -.972E+00 -.196E+01 0.211E+02   0.380E-02 0.723E-02 0.800E-02
   0.276E-04 0.593E-01 -.579E-05   -.217E-12 0.213E-13 -.114E-12   0.000E+00 -.597E-01 -.355E-14   0.157E-10 -.484E-02 0.225E-11

 POSITION                                       TOTAL-FORCE (eV/Angst)
      4.07862      1.37960      2.48113        -0.000664      0.001027     -0.000575
      2.30350      1.37960      7.30851         0.000664      0.001027      0.000575
      1.59574      3.03700      2.44836         0.000269      0.041539     -0.000282
      4.78639      3.03700      7.34128        -0.000269      0.041539      0.000282
      6.56187      5.24148      2.51334        -0.000366     -0.039495      0.000687
     -0.17974      5.24148      7.27631         0.000366     -0.039495     -0.000687
      9.04041      1.38873      2.54816         0.001284     -0.003077     -0.000297
     -2.65828      1.38873      7.24149        -0.001284     -0.003077      0.000297
      0.00000      5.51915     -0.00000        -0.000000     -0.004450     -0.000000
      2.48214      1.38038      0.03484         0.004388      0.010300      0.005308
      3.89999      1.38038      9.75480        -0.004388      0.010300     -0.005308
      7.44712      4.13975      0.09897        -0.000313     -0.004629     -0.004018
     -1.06500      4.13975      9.69068         0.000313     -0.004629      0.004018
      0.00000      2.76841     -0.00000        -0.000000      0.004180     -0.000000
      4.96467      5.51082      0.06691        -0.000000      0.005586     -0.000000
      4.96467      2.76051      0.06691        -0.000000     -0.005185     -0.000000
      3.19106      5.51919      4.89482        -0.000000      0.001248     -0.000000
      5.67356      1.38123      4.92757        -0.000500      0.000685      0.000843
      0.70857      1.38123      4.86207         0.000500      0.000685     -0.000843
      0.70859      4.14048      4.86210         0.000585     -0.003264     -0.002406
      5.67354      4.14048      4.92754        -0.000585     -0.003264      0.002406
      3.19106      2.76863      4.89482        -0.000000      0.000670     -0.000000
     -1.77361      5.51219      4.82791        -0.000000     -0.004085     -0.000000
     -1.77361      2.76160      4.82791        -0.000000      0.000901     -0.000000
      5.04171      0.01697      3.90259         0.004013      0.000447     -0.000875
      1.34041      0.01697      5.88705        -0.004013      0.000447      0.000875
      3.31774      0.01511      0.98684        -0.005879     -0.000902      0.000063
      3.06438      0.01511      8.80281         0.005879     -0.000902     -0.000063
      7.46731      1.37726      3.95630         0.004133      0.001064      0.001100
     -1.08519      1.37726      5.83335        -0.004133      0.001064     -0.001100
     -0.99758      4.13152      5.77918        -0.006664     -0.000215     -0.000037
      7.37971      4.13152      4.01046         0.006664     -0.000215      0.000037
      0.68820      1.38546      1.00559        -0.004397     -0.001979     -0.001096
      5.69393      1.38546      8.78405         0.004397     -0.001979      0.001096
      5.60641      4.14894      8.83803         0.006208      0.000321      0.000820
      0.77572      4.14894      0.95161        -0.006208      0.000321     -0.000820
      4.83821      2.74644      3.97569         0.005537      0.000461     -0.001139
      1.54392      2.74644      5.81395        -0.005537      0.000461      0.001139
      3.11457      2.74465      1.05959        -0.005917     -0.000472     -0.004843
      3.26756      2.74465      8.73006         0.005917     -0.000472      0.004843
     -0.12630      0.01615      3.90991         0.005930      0.000138     -0.001289
      6.50843      0.01615      5.87973        -0.005930      0.000138      0.001289
      8.07997      0.01650      1.12304        -0.005643     -0.002359      0.006282
     -1.69784      0.01650      8.66660         0.005643     -0.002359     -0.006282
      2.50180      1.38535      3.89018         0.004808     -0.001146      0.001393
      3.88032      1.38535      5.89947        -0.004808     -0.001146     -0.001393
      3.96785      4.14939      5.84521        -0.007218      0.000771      0.000717
      2.41428      4.14939      3.94444         0.007218      0.000771     -0.000717
      5.65442      1.37606      1.07122        -0.006288      0.001141     -0.001632
      0.72771      1.37606      8.71843         0.006288      0.001141      0.001632
      0.64031      4.13029      8.77257         0.007145     -0.000449     -0.001379
      5.74182      4.13029      1.01708        -0.007145     -0.000449      0.001379
      0.07623      2.74551      3.83727         0.007560      0.001675     -0.000393
      6.30590      2.74551      5.95237        -0.007560      0.001675      0.000393
      8.28181      2.74614      1.05142        -0.006087     -0.001013      0.002291
     -1.89968      2.74614      8.73823         0.006087     -0.001013     -0.002291
    total drift:                                0.000028     -0.005275     -0.000006

  FREE ENERGIE OF THE ION-ELECTRON SYSTEM (eV)
  free  energy   TOTEN  =      -345.3793027875 eV

  energy  without entropy=     -345.3658722398  energy(sigma->0) =     -345.37258751

 d Force =-0.6860840E-05[-0.194E-04, 0.570E-05]  d Energy =-0.1471781E-04 0.786E-05
 d Force = 0.1738184E+01[ 0.174E+01, 0.174E+01]  d Ewald  = 0.6186671E+01-0.445E+01

 Quasi-Newton relaxation of ions (Broydens 2nd method)
  g(Force)  = 0.408E-03   g(Stress)= 0.555E-04

 retain information from N=  2 steps
 eigenvalues of (default step * inverse Hessian matrix)
  average eigenvalue of G=   3.3163
 eigenvalue spectrum of G is  6.1618  0.4708

volume of typ            1:    11.7 %

[...]

volume of typ            3:     9.8 %

total charge

# of ion       s       p       d       tot
    1        2.064   0.204   0.075   2.343
    2        2.064   0.204   0.075   2.343
    3        2.075   0.229   0.085   2.389
    4        2.075   0.229   0.085   2.389
    5        2.075   0.229   0.085   2.389
    6        2.075   0.229   0.085   2.389
    7        2.064   0.204   0.075   2.343
    8        2.064   0.204   0.075   2.343
    9        0.272   0.365   7.876   8.513
   10        0.283   0.387   7.860   8.530
   11        0.283   0.387   7.860   8.530
   12        0.284   0.392   7.842   8.518
   13        0.284   0.392   7.842   8.518
   14        0.303   0.434   7.843   8.579
   15        0.303   0.433   7.843   8.579
   16        0.272   0.365   7.876   8.513
   17        0.272   0.365   7.876   8.513
   18        0.283   0.387   7.860   8.530
   19        0.283   0.387   7.860   8.530
   20        0.284   0.392   7.842   8.518
   21        0.284   0.392   7.842   8.518
   22        0.303   0.433   7.843   8.579
   23        0.303   0.433   7.843   8.579
   24        0.272   0.365   7.877   8.514
   25        1.264   2.777   0.007   4.049
   26        1.264   2.777   0.007   4.049
   27        1.269   2.761   0.007   4.038
   28        1.269   2.761   0.007   4.038
   29        1.267   2.770   0.007   4.044
   30        1.267   2.770   0.007   4.044
   31        1.268   2.769   0.008   4.045
   32        1.268   2.769   0.008   4.045
   33        1.267   2.770   0.007   4.044
   34        1.267   2.770   0.007   4.044
   35        1.269   2.769   0.008   4.045
   36        1.269   2.769   0.008   4.045
   37        1.269   2.761   0.007   4.038
   38        1.269   2.761   0.007   4.038
   39        1.264   2.777   0.007   4.048
   40        1.264   2.777   0.007   4.048
   41        1.270   2.761   0.007   4.038
   42        1.270   2.761   0.007   4.038
   43        1.264   2.777   0.007   4.049
   44        1.264   2.777   0.007   4.049
   45        1.267   2.770   0.007   4.044
   46        1.267   2.770   0.007   4.044
   47        1.268   2.769   0.008   4.045
   48        1.268   2.769   0.008   4.045
   49        1.267   2.770   0.007   4.044
   50        1.267   2.770   0.007   4.044
   51        1.268   2.769   0.008   4.045
   52        1.268   2.769   0.008   4.045
   53        1.264   2.778   0.007   4.049
   54        1.264   2.778   0.007   4.049
   55        1.269   2.762   0.007   4.038
   56        1.269   2.762   0.007   4.038
tot          61.68   96.67  126.55  284.90

magnetization (x)

# of ion       s       p       d       tot
    1        0.005   0.007   0.001   0.013
    2        0.005   0.007   0.001   0.013
    3       -0.000  -0.000  -0.000  -0.001
    4       -0.000  -0.000  -0.000  -0.001
    5       -0.000  -0.001  -0.000  -0.001
    6       -0.000  -0.001  -0.000  -0.001
    7        0.005   0.007   0.001   0.013
    8        0.005   0.007   0.001   0.013
    9       -0.001   0.000  -0.083  -0.084
   10        0.004   0.000   0.553   0.558
   11        0.004   0.000   0.553   0.558
   12        0.000  -0.000   0.201   0.201
   13        0.000  -0.000   0.201   0.201
   14       -0.001   0.000  -0.008  -0.008
   15       -0.001   0.000  -0.008  -0.008
   16       -0.001   0.000  -0.069  -0.070
   17       -0.001   0.000  -0.081  -0.083
   18        0.004   0.000   0.554   0.558
   19        0.004   0.000   0.554   0.558
   20        0.000  -0.000   0.200   0.200
   21        0.000  -0.000   0.200   0.200
   22       -0.001   0.000  -0.009  -0.009
   23       -0.001   0.000  -0.008  -0.008
   24       -0.001   0.000  -0.068  -0.069
   25        0.001  -0.005  -0.000  -0.004
   26        0.001  -0.005  -0.000  -0.004
   27        0.003   0.019   0.000   0.022
   28        0.003   0.019   0.000   0.022
   29        0.006   0.059   0.000   0.064
   30        0.006   0.059   0.000   0.064
   31        0.001   0.007   0.000   0.009
   32        0.001   0.007   0.000   0.009
   33        0.006   0.058   0.000   0.064
   34        0.006   0.058   0.000   0.064
   35        0.001   0.007   0.000   0.009
   36        0.001   0.007   0.000   0.009
   37        0.003   0.019   0.000   0.022
   38        0.003   0.019   0.000   0.022
   39        0.001  -0.003  -0.000  -0.002
   40        0.001  -0.003  -0.000  -0.002
   41        0.003   0.019   0.000   0.021
   42        0.003   0.019   0.000   0.021
   43        0.001  -0.005  -0.000  -0.005
   44        0.001  -0.005  -0.000  -0.005
   45        0.006   0.059   0.000   0.064
   46        0.006   0.059   0.000   0.064
   47        0.001   0.007   0.000   0.008
   48        0.001   0.007   0.000   0.008
   49        0.006   0.059   0.000   0.065
   50        0.006   0.059   0.000   0.065
   51        0.001   0.007   0.000   0.009
   52        0.001   0.007   0.000   0.009
   53        0.001  -0.003  -0.000  -0.002
   54        0.001  -0.003  -0.000  -0.002
   55        0.003   0.019   0.000   0.022
   56        0.003   0.019   0.000   0.022
tot           0.11    0.67    2.69    3.47