 vasp.5.4.4.18Apr17-6-g9f103f2a35 (build May 12 2020 05:39:39) gamma-only

 MD_VERSION_INFO: Compiled 2020-05-12T12:39:39-UTC in devlin.sd.materialsdesign.
 com:/home/medea2/data/build/wwolf/vasp-gpu5.4.4/13047/x86_64/src/src/build/gam
 from svn 13047

 executed on                        Lin64 date 2023.03.07  05:14:39

 INCAR:
 POTCAR:    PAW_PBE Li_sv 10Sep2004
 POTCAR:    PAW_PBE Ni 02Aug2007
 POTCAR:    PAW_PBE O 08Apr2002

 POTCAR:    PAW_PBE Li_sv 10Sep2004

 POTCAR:    PAW_PBE Ni 02Aug2007

 POTCAR:    PAW_PBE O 08Apr2002

 Optimization of the real space projectors (new method)

 maximal supplied QI-value         = 22.11
 optimisation between [QCUT,QGAM] = [ 11.28, 22.77] = [ 35.61,145.23] Ry
 Optimized for a Real-space Cutoff    1.10 Angstroem

   l    n(q)    QCUT    max X(q) W(low)/X(q) W(high)/X(q)  e(spline)
   0      7    11.276    10.506    0.54E-04    0.58E-04    0.16E-07
   0      7    11.276     8.367    0.11E-03    0.14E-03    0.35E-07
   1      7    11.276     8.983    0.23E-03    0.43E-03    0.86E-07
 Optimization of the real space projectors (new method)

[...]

   l    n(q)    QCUT    max X(q) W(low)/X(q) W(high)/X(q)  e(spline)
   2      9    11.376    60.317    0.17E-03    0.16E-04    0.16E-06
   2      9    11.376    55.921    0.17E-03    0.16E-04    0.17E-06
   0     10    11.376    51.690    0.45E-04    0.60E-04    0.21E-06
   0     10    11.376    30.015    0.37E-04    0.55E-04    0.19E-06
   1     10    11.376    18.849    0.83E-04    0.11E-03    0.92E-07
   1     10    11.376    14.624    0.69E-04    0.92E-04    0.82E-07
 Optimization of the real space projectors (new method)

 maximal supplied QI-value         = 24.76
 optimisation between [QCUT,QGAM] = [ 11.39, 22.77] = [ 36.31,145.25] Ry
 Optimized for a Real-space Cutoff    1.10 Angstroem

   l    n(q)    QCUT    max X(q) W(low)/X(q) W(high)/X(q)  e(spline)
   0      7    11.387    20.381    0.22E-03    0.48E-03    0.18E-06
   0      7    11.387    15.268    0.22E-03    0.52E-03    0.19E-06
   1      7    11.387     5.964    0.22E-03    0.73E-03    0.24E-06
   1      7    11.387     5.382    0.19E-03    0.60E-03    0.21E-06

  PAW_PBE Li_sv 10Sep2004               :
  PAW_PBE Ni 02Aug2007                  :
  PAW_PBE O 08Apr2002                   :

 POSCAR: ce630_1
  positions in direct lattice
 exchange correlation table for  LEXCH =       14
   RHO(1)=    0.500       N(1)  =     2000
   RHO(2)=  100.500       N(2)  =     4000

 ion  position               nearest neighbor table
   1  0.996  0.251  0.235-  44 2.02  39 2.07  36 2.10  51 2.18  48 2.20  30 2.22  12 2.76
   2  0.001  0.749  0.751-  45 2.06  31 2.08  37 2.13  49 2.14  38 2.15  50 2.16  14 2.83  15 2.84
                            21 2.84
   3  0.249  0.250  0.500-  52 2.09  48 2.09  30 2.14  28 2.14  40 2.15  42 2.16  18 2.84  20 2.84

   4  0.258  0.750  0.500-  43 2.07  41 2.07  53 2.12  49 2.12  31 2.12  29 2.13  14 2.81  22 2.81

   5  0.741  0.750  0.500-  43 2.08  41 2.08  31 2.13  29 2.13  54 2.14  50 2.14  15 2.81  23 2.81

   6  0.503  0.252  0.233-  56 2.02  39 2.07  36 2.09  51 2.18  48 2.19  42 2.28  17 2.78
   7  0.996  0.248  0.765-  46 2.02  35 2.07  32 2.10  55 2.18  52 2.20  28 2.22  26 2.76
   8  0.001  0.750  0.250-  47 2.06  29 2.07  33 2.14  53 2.14  34 2.15  54 2.16  22 2.83  23 2.84
                            13 2.84
   9  0.261  0.750  1.000-  37 2.09  33 2.09  59 2.09  57 2.09  47 2.16  45 2.16  13 2.83  21 2.83

  10  0.741  0.750  1.000-  59 2.08  57 2.08  38 2.10  34 2.10  47 2.15  45 2.15
  11  0.503  0.247  0.767-  58 2.02  35 2.07  32 2.10  55 2.17  52 2.19  40 2.28  27 2.78
  12  0.000  0.004  0.001-  37 1.85  38 1.85  36 1.86  39 1.86  46 2.00  47 2.09   1 2.76  17 2.78
                            17 2.78  13 2.86  14 2.86  15 2.86  16 2.87
  13  0.251  0.995  0.248-  42 1.85  30 1.85  59 1.87  47 1.87  36 1.99  53 2.01  16 2.78  16 2.79
                             9 2.83   8 2.84  19 2.85  12 2.86  17 2.87  18 2.87
  14  0.250  0.993  0.747-  58 1.85  46 1.85  43 1.86  31 1.87  37 2.03  52 2.08  15 2.78  15 2.79
                             4 2.81   2 2.83  17 2.85  18 2.86  12 2.86  19 2.87
  15  0.749  0.993  0.747-  58 1.85  46 1.85  43 1.87  31 1.87  55 1.99  38 2.01  14 2.78  14 2.79
                             5 2.81   2 2.84  17 2.85  18 2.86  19 2.86  12 2.86
  16  0.750  0.998  0.250-  42 1.87  47 1.87  30 1.87  59 1.87  39 1.97  54 1.99  13 2.78  13 2.79
                            19 2.84  18 2.85  12 2.87  17 2.88
  17  0.500  0.001  0.999-  36 1.87  38 1.87  37 1.88  39 1.88  58 1.98  59 1.98   6 2.78  12 2.78
                            12 2.78  15 2.85  14 2.85  13 2.87  16 2.88
  18  0.999  0.005  0.502-  54 1.85  53 1.85  55 1.86  52 1.87  30 2.03  31 2.08  19 2.78  19 2.79
                             3 2.84  16 2.85  15 2.86  14 2.86  13 2.87
  19  0.500  0.002  0.500-  55 1.87  54 1.87  52 1.87  53 1.87  43 1.97  42 1.99  18 2.78  18 2.79
                            16 2.84  13 2.85  15 2.86  14 2.87
  20  0.999  0.495  0.498-  50 1.85  49 1.85  51 1.86  48 1.87  28 2.03  29 2.08  25 2.78  25 2.79
                             3 2.84  24 2.85  23 2.86  22 2.86  21 2.87
  21  0.251  0.504  0.752-  40 1.85  28 1.85  57 1.87  45 1.87  32 1.99  49 2.01  24 2.78  24 2.79
                             9 2.83   2 2.84  25 2.85  26 2.86  27 2.87  20 2.87
  22  0.250  0.506  0.253-  56 1.85  44 1.85  41 1.86  29 1.87  33 2.03  48 2.07  23 2.78  23 2.79
                             4 2.81   8 2.83  27 2.85  20 2.86  26 2.86  25 2.87
  23  0.749  0.507  0.253-  56 1.85  44 1.85  41 1.87  29 1.87  51 1.99  34 2.01  22 2.78  22 2.79
                             5 2.81   8 2.84  27 2.85  20 2.86  26 2.86  25 2.87
  24  0.750  0.501  0.750-  40 1.87  28 1.87  45 1.87  57 1.87  35 1.97  50 2.00  21 2.78  21 2.79
                            25 2.84  20 2.85  26 2.87  27 2.88
  25  0.500  0.497  0.500-  51 1.87  50 1.87  48 1.87  49 1.87  41 1.97  40 1.99  20 2.78  20 2.79
                            24 2.84  21 2.85  23 2.87  22 2.87
  26  0.000  0.495  0.999-  33 1.85  34 1.85  32 1.86  35 1.86  44 2.00  45 2.09   7 2.76  27 2.78
                            27 2.79  21 2.86  23 2.86  22 2.86  24 2.87
  27  0.500  0.498  0.001-  32 1.87  34 1.87  33 1.87  35 1.88  57 1.97  56 1.97  11 2.78  26 2.78
                            26 2.79  23 2.85  22 2.85  21 2.87  24 2.88
  28  0.006  0.395  0.643-  21 1.85  24 1.87  20 2.03   3 2.14   7 2.22
  29  0.000  0.613  0.363-  22 1.87  23 1.87   8 2.07  20 2.08   4 2.13   5 2.13
  30  0.006  0.104  0.357-  13 1.85  16 1.87  18 2.03   3 2.14   1 2.22
  31  0.000  0.886  0.636-  14 1.87  15 1.87   2 2.08  18 2.08   4 2.12   5 2.13
  32  0.251  0.396  0.885-  26 1.86  27 1.87  21 1.99  11 2.10   7 2.10
  33  0.245  0.605  0.107-  26 1.85  27 1.87  22 2.03   9 2.09   8 2.14
  34  0.755  0.604  0.108-  26 1.85  27 1.87  23 2.01  10 2.10   8 2.15
  35  0.749  0.396  0.883-  26 1.86  27 1.88  24 1.97  11 2.07   7 2.07
  36  0.251  0.103  0.115-  12 1.86  17 1.87  13 1.99   6 2.09   1 2.10
  37  0.245  0.894  0.893-  12 1.85  17 1.88  14 2.03   9 2.09   2 2.13
  38  0.755  0.895  0.892-  12 1.85  17 1.87  15 2.01  10 2.10   2 2.15
  39  0.750  0.103  0.117-  12 1.86  17 1.88  16 1.97   6 2.07   1 2.07
  40  0.496  0.398  0.641-  21 1.85  24 1.87  25 1.99   3 2.15  11 2.28
  41  0.499  0.606  0.370-  22 1.86  23 1.87  25 1.97   4 2.07   5 2.08
  42  0.496  0.102  0.359-  13 1.85  16 1.87  19 1.99   3 2.16   6 2.28
  43  0.499  0.894  0.630-  14 1.86  15 1.87  19 1.97   4 2.07   5 2.08
  44  1.000  0.402  0.146-  22 1.85  23 1.85  26 2.00   1 2.02
  45  0.998  0.610  0.861-  21 1.87  24 1.87   2 2.06  26 2.09  10 2.15   9 2.16
  46  1.000  0.097  0.854-  14 1.85  15 1.85  12 2.00   7 2.02
  47  0.999  0.889  0.139-  13 1.87  16 1.87   8 2.06  12 2.09  10 2.15   9 2.16
  48  0.251  0.390  0.388-  20 1.87  25 1.87  22 2.07   3 2.09   6 2.19   1 2.20
  49  0.245  0.603  0.608-  20 1.85  25 1.87  21 2.01   4 2.12   2 2.14
  50  0.754  0.601  0.609-  20 1.85  25 1.87  24 2.00   5 2.14   2 2.16
  51  0.749  0.397  0.383-  20 1.86  25 1.87  23 1.99   6 2.18   1 2.18
  52  0.251  0.109  0.612-  18 1.87  19 1.87  14 2.08   3 2.09  11 2.19   7 2.20
  53  0.245  0.897  0.392-  18 1.85  19 1.87  13 2.01   4 2.12   8 2.14
  54  0.754  0.898  0.391-  18 1.85  19 1.87  16 1.99   5 2.14   8 2.16
  55  0.749  0.103  0.617-  18 1.86  19 1.87  15 1.99  11 2.17   7 2.18
  56  0.500  0.403  0.144-  22 1.85  23 1.85  27 1.97   6 2.02
  57  0.502  0.603  0.867-  21 1.87  24 1.87  27 1.97  10 2.08   9 2.09
  58  0.500  0.096  0.856-  14 1.85  15 1.85  17 1.98  11 2.02
  59  0.502  0.896  0.133-  13 1.87  16 1.87  17 1.98  10 2.08   9 2.09

  LATTYP: Found a triclinic cell.
 ALAT       =    14.9632075354
 B/A-ratio  =     0.3721739402
 C/A-ratio  =     0.7663652807
 COS(alpha) =     0.0000297518
 COS(beta)  =     0.3776454731
 COS(gamma) =     0.7443129351

  Lattice vectors:

 A1 = (  -9.9920648323,  11.1376191741,  -0.0982815671)
 A2 = (   0.0001748768,   5.5689159005,  -0.0002001242)
 A3 = (  -6.3911921707,   0.0001997209,  -9.5210942705)

Analysis of symmetry for initial positions (statically):
 Subroutine PRICEL returns:
 Original cell was already a primitive cell.

 Routine SETGRP: Setting up the symmetry group for a
 triclinic supercell.

 Subroutine GETGRP returns: Found  1 space group operations
 (whereof  1 operations were pure point group operations)
 out of a pool of  2 trial point group operations.

The static configuration has the point symmetry C_1 .

Analysis of symmetry for dynamics (positions and initial velocities):
 Subroutine PRICEL returns:
 Original cell was already a primitive cell.

[...]

The dynamic configuration has the point symmetry C_1 .

Analysis of structural, dynamic, and magnetic symmetry:
 Subroutine PRICEL returns:
 Original cell was already a primitive cell.

 Routine SETGRP: Setting up the symmetry group for a
 triclinic supercell.

 Subroutine GETGRP returns: Found  1 space group operations
 (whereof  1 operations were pure point group operations)
 out of a pool of  2 trial point group operations.

The magnetic configuration has the point symmetry C_1 .

 Subroutine INISYM returns: Found  1 space group operations
 (whereof  1 operations are pure point group operations),
 and found     1 'primitive' translations

 KPOINTS: Automatic mesh

Automatic generation of k-mesh.
Space group operators:
 irot       det(A)        alpha          n_x          n_y          n_z        tau_x        tau_y        tau_z
    1     1.000000     0.000001     1.000000     0.000000     0.000000     0.000000     0.000000     0.000000

 Subroutine IBZKPT returns following result:

 Found      1 irreducible k-points:

 Following reciprocal coordinates:
            Coordinates               Weight
  0.000000  0.000000  0.000000      1.000000

 Following cartesian coordinates:
            Coordinates               Weight
  0.000000  0.000000  0.000000      1.000000

 SYSTEM =  unknown system
 POSCAR =  ce630_1

 Startparameter for this run:
   NWRITE =      1    write-flag & timer
   PREC   = accura    normal or accurate (medium, high low for compatibility)
[...]
   -.154E+01 0.147E+02 -.725E+02   0.880E+00 -.149E+02 0.729E+02   0.695E+00 0.148E+00 -.411E+00   -.304E-01 -.252E-02 0.176E-02
   0.297E+02 -.144E+02 -.411E+02   -.300E+02 0.146E+02 0.411E+02   0.255E+00 -.152E+00 -.805E-02   -.316E-01 0.140E-02 -.172E-04
   -.246E+01 0.142E+02 0.722E+02   0.324E+01 -.143E+02 -.726E+02   -.797E+00 0.104E+00 0.388E+00   0.141E-01 0.185E-01 -.741E-02
   0.619E+01 -.169E+02 -.230E+02   -.655E+01 0.171E+02 0.229E+02   0.321E+00 -.178E+00 0.122E+00   0.435E-01 -.806E-02 0.277E-03
   0.352E+02 -.154E+02 0.162E+02   -.362E+02 0.156E+02 -.164E+02   0.104E+01 -.171E+00 0.259E+00   -.427E-01 -.751E-02 0.553E-02
   0.455E+02 0.162E+02 0.620E+01   -.462E+02 -.163E+02 -.662E+01   0.688E+00 0.161E+00 0.412E+00   -.433E-01 0.877E-02 0.864E-02
   0.275E+02 0.159E+02 0.215E+02   -.277E+02 -.161E+02 -.219E+02   0.217E+00 0.192E+00 0.371E+00   0.390E-01 0.661E-02 -.349E-02
   -.323E+02 -.140E+02 0.406E+02   0.327E+02 0.141E+02 -.406E+02   -.394E+00 -.100E+00 -.366E-02   0.146E-01 -.166E-01 -.475E-02
   -.265E+02 0.258E+01 0.106E+03   0.277E+02 -.261E+01 -.107E+03   -.121E+01 0.107E-01 0.824E+00   -.166E-01 0.157E-01 0.633E-02
   -.556E+02 -.266E+01 0.734E+02   0.563E+02 0.270E+01 -.738E+02   -.701E+00 -.276E-01 0.398E+00   -.147E-01 -.173E-01 0.986E-02
   0.284E+02 0.333E+02 0.326E+03   -.322E+02 -.354E+02 -.342E+03   0.375E+01 0.207E+01 0.161E+02   0.318E-01 0.336E-01 0.462E-02
   -.177E+02 -.129E+01 -.272E+03   0.220E+02 0.139E+01 0.285E+03   -.428E+01 -.996E-01 -.129E+02   -.270E-01 -.913E-03 0.107E-01
   -.258E+02 0.323E+02 -.326E+03   0.292E+02 -.343E+02 0.343E+03   -.345E+01 0.203E+01 -.163E+02   -.138E-02 -.545E-02 -.258E-01
   0.178E+02 -.114E+01 0.270E+03   -.223E+02 0.109E+01 -.283E+03   0.447E+01 0.500E-01 0.128E+02   -.150E-01 0.614E-03 0.981E-03
   -.366E+02 -.226E+01 0.331E+03   0.363E+02 0.260E+01 -.347E+03   0.329E+00 -.344E+00 0.160E+02   -.198E-01 0.185E-02 0.244E-01
   -.318E+02 -.306E+02 -.281E+03   0.357E+02 0.326E+02 0.297E+03   -.387E+01 -.204E+01 -.157E+02   -.111E-01 -.356E-03 -.213E-02
   -.254E+02 0.301E+02 -.283E+03   0.283E+02 -.321E+02 0.299E+03   -.290E+01 0.195E+01 -.161E+02   -.682E-02 -.723E-04 -.649E-03
   -.323E+02 0.278E+01 0.329E+03   0.319E+02 -.331E+01 -.344E+03   0.385E+00 0.522E+00 0.148E+02   0.321E-02 0.225E-03 0.646E-02
   0.339E+02 -.177E+01 -.330E+03   -.328E+02 0.213E+01 0.345E+03   -.111E+01 -.357E+00 -.151E+02   0.250E-01 -.126E-02 0.358E-02
   0.328E+02 -.304E+02 0.282E+03   -.367E+02 0.324E+02 -.298E+03   0.385E+01 -.200E+01 0.158E+02   0.478E-02 -.175E-02 -.186E-01
   0.275E+02 0.303E+02 0.283E+03   -.308E+02 -.323E+02 -.299E+03   0.322E+01 0.195E+01 0.159E+02   0.751E-02 0.967E-03 -.146E-01
   0.314E+02 0.237E+01 -.329E+03   -.310E+02 -.287E+01 0.344E+03   -.349E+00 0.492E+00 -.148E+02   0.333E-01 0.962E-03 -.625E-03
   0.271E+02 -.324E+02 0.322E+03   -.303E+02 0.345E+02 -.339E+03   0.320E+01 -.205E+01 0.167E+02   0.448E-01 -.338E-01 -.346E-02
   0.170E+02 0.121E+01 -.294E+03   -.167E+02 -.133E+01 0.310E+03   -.287E+00 0.124E+00 -.155E+02   -.375E-01 -.716E-03 0.186E-01
   -.246E+02 -.320E+02 -.322E+03   0.275E+02 0.341E+02 0.339E+03   -.292E+01 -.207E+01 -.170E+02   0.572E-02 0.668E-02 -.308E-01
   -.178E+02 0.915E+00 0.293E+03   0.174E+02 -.818E+00 -.308E+03   0.439E+00 -.963E-01 0.153E+02   -.249E-01 -.956E-03 0.810E-02
   0.585E+02 -.193E+01 0.354E+03   -.641E+02 0.191E+01 -.372E+03   0.566E+01 0.244E-01 0.186E+02   -.109E-01 -.149E-02 0.571E-02
   -.241E+02 0.391E+01 -.278E+03   0.285E+02 -.440E+01 0.290E+03   -.434E+01 0.457E+00 -.125E+02   0.291E-02 0.325E-01 -.166E-01
   -.562E+02 -.142E+01 -.354E+03   0.617E+02 0.143E+01 0.372E+03   -.548E+01 -.714E-02 -.188E+02   -.106E-01 -.225E-03 0.172E-01
   0.245E+02 0.347E+01 0.276E+03   -.289E+02 -.376E+01 -.289E+03   0.442E+01 0.291E+00 0.123E+02   0.265E-01 -.573E-02 0.561E-02
   0.322E+02 -.250E+01 0.306E+03   -.363E+02 0.289E+01 -.320E+03   0.411E+01 -.373E+00 0.136E+02   -.126E-01 -.146E-01 -.295E-01
   -.275E+02 -.301E+02 -.298E+03   0.306E+02 0.321E+02 0.314E+03   -.320E+01 -.198E+01 -.161E+02   0.461E-01 -.141E-01 0.120E-01
   -.331E+02 0.301E+02 -.291E+03   0.368E+02 -.322E+02 0.307E+03   -.365E+01 0.209E+01 -.164E+02   0.218E-01 0.153E-01 0.278E-01
   -.702E+01 0.239E+01 0.331E+03   0.688E+01 -.280E+01 -.349E+03   0.140E+00 0.398E+00 0.172E+02   -.200E-01 0.142E-01 -.280E-01
   -.344E+02 -.215E+01 -.306E+03   0.387E+02 0.246E+01 0.319E+03   -.421E+01 -.311E+00 -.136E+02   -.175E-01 0.816E-02 -.330E-02
   0.286E+02 -.308E+02 0.297E+03   -.319E+02 0.329E+02 -.313E+03   0.338E+01 -.208E+01 0.157E+02   -.108E-01 0.912E-02 0.179E-01
   0.327E+02 0.299E+02 0.292E+03   -.362E+02 -.319E+02 -.309E+03   0.353E+01 0.201E+01 0.166E+02   -.184E-01 -.696E-02 0.188E-01
   0.440E+01 0.240E+01 -.330E+03   -.358E+01 -.289E+01 0.346E+03   -.789E+00 0.504E+00 -.161E+02   -.223E-01 -.921E-02 -.848E-02
   0.583E+02 0.169E+01 0.346E+03   -.634E+02 -.170E+01 -.365E+03   0.513E+01 0.347E-02 0.189E+02   -.136E-01 0.110E-02 0.446E-02
   0.120E+02 -.436E+01 -.299E+03   -.117E+02 0.513E+01 0.313E+03   -.324E+00 -.742E+00 -.146E+02   0.700E-02 -.322E-01 -.173E-01
   -.561E+02 0.144E+01 -.346E+03   0.610E+02 -.147E+01 0.365E+03   -.495E+01 0.395E-01 -.192E+02   -.134E-01 -.114E-02 0.177E-01
   -.129E+02 -.339E+01 0.297E+03   0.126E+02 0.382E+01 -.312E+03   0.313E+00 -.439E+00 0.144E+02   0.307E-01 0.731E-02 0.646E-02
   -.538E+00 0.113E-02 0.471E+00   0.131E-12 0.128E-12 0.114E-12   0.540E+00 -.475E-02 -.493E+00   0.300E-02 0.237E-02 0.185E-01

 POSITION                                       TOTAL-FORCE (eV/Angst)
      1.44393      5.55206      2.38207        -0.003026      0.003499     -0.004358
      4.79629      0.00413      7.13680        -0.003969     -0.006020     -0.002440
      4.09363      1.38454      2.40104        -0.002267      0.001767     -0.002169
      2.28933      1.43879      7.12561        -0.007094      0.003767      0.009537
      2.29479      4.12614      7.12165         0.004224     -0.001471      0.004449
      1.41597      2.79752      2.39122        -0.008044     -0.002636     -0.006810
      6.74270      5.54689      2.41474        -0.008641     -0.007585     -0.004155
     -0.20782      0.01031      7.10387         0.003799      0.007618      0.006286
      7.28936      1.45127      7.16920         0.003198      0.000330      0.005159
      7.28642      4.12715      7.17261        -0.001419     -0.000155      0.007704
      6.76898      2.80465      2.40577        -0.003735      0.005397     -0.003327
     -0.00182      0.00100      0.03618         0.002773      0.001316     -0.002568
     -1.10542      1.39732      9.40788        -0.000305     -0.002216      0.001630
      3.88775      1.39374      9.43431        -0.000172      0.001109     -0.004456
      3.89246      4.17215      9.43065         0.002187      0.003090     -0.002375
     -1.09533      4.17611      9.43829        -0.002294     -0.001588      0.000625
      9.97191      2.78410      0.10886         0.002037      0.000504     -0.004322
      4.99798      5.56313      0.09411         0.001638     -0.002712      0.002114
      4.98610      2.78638      0.07187         0.002322     -0.001019      0.003158
      3.18494      5.56353      4.71334        -0.004199     -0.001762     -0.007370
      5.70042      1.39833      4.82502         0.000311     -0.001700     -0.002984
      0.69943      1.39318      4.80040         0.003325      0.001098      0.007150
      0.70218      4.17162      4.80255         0.001411      0.002860      0.003515
      5.68271      4.17700      4.79701         0.002771     -0.000063      0.000977
      3.19692      2.78641      4.73543        -0.004575      0.002778     -0.006068
      8.18601      0.00034      4.76938         0.001439     -0.002715      0.004154
     -1.78687      2.78320      4.69571        -0.003535     -0.000813      0.002997
      5.00555      0.03593      3.78861         0.001761     -0.000025     -0.005002
      1.42003      0.00176      5.81922         0.003753      0.002387      0.002891
      3.18622      0.03184      1.02019         0.001861     -0.002955      0.005869
      3.16896      0.00069      8.41526         0.000073      0.001857     -0.001244
      7.39870      1.39816      3.82409        -0.011334     -0.000204      0.000915
     -1.10973      1.36263      5.71391        -0.002924      0.000177      0.003118
     -1.07802      4.20334      5.69508         0.006979     -0.000199      0.004083
      7.39374      4.17243      3.82461         0.005714     -0.004209     -0.000959
      0.78089      1.39927      0.98306         0.002835     -0.000094      0.000489
      5.69880      1.36351      8.51810         0.002201      0.001561     -0.007934
      5.67825      4.20383      8.52559        -0.001986      0.002466     -0.010734
      0.79193      4.17252      0.97937        -0.002732     -0.000844     -0.000631
      4.97599      2.75941      3.81087         0.003699     -0.000868     -0.006468
      1.50198      2.77713      5.75287        -0.003121     -0.000375      0.006719
      3.21493      2.75957      0.99682         0.000502     -0.002040      0.006619
      3.08176      2.77913      8.48485         0.001274      0.000579     -0.001022
      0.00902      5.56641      3.80629        -0.004641      0.001524     -0.001839
      6.39778      5.55886      5.83926         0.006815     -0.002696      0.000529
      8.18327      5.56988      0.99999         0.007658      0.002091      0.002872
     -1.80707      5.55879      8.39322        -0.001432     -0.004465     -0.000244
      2.46328      1.39719      3.71687        -0.002820      0.002782     -0.003502
      3.92023      1.36356      5.72453         0.015817      0.000063     -0.003564
      3.91667      4.20174      5.72174        -0.002732      0.000355     -0.004216
      2.37734      4.17033      3.78182        -0.014805      0.001667     -0.005607
      5.71906      1.39848      1.08814         0.001497      0.002300      0.001019
      0.67874      1.36058      8.49496        -0.004883     -0.002237     -0.001548
      0.66910      4.19936      8.51339         0.000529     -0.002905      0.003599
      5.80510      4.17142      1.02861         0.007637     -0.000566      0.005308
     -0.01371      2.78171      3.81662        -0.006274     -0.000326     -0.001170
      6.48427      2.79704      5.77847         0.001824      0.000403      0.005079
      8.20562      2.78190      0.98870         0.009694      0.002178      0.002269
     -1.89915      2.79668      8.45800        -0.000594     -0.000066     -0.001750
    total drift:                                0.005026     -0.001242     -0.003281

  FREE ENERGIE OF THE ION-ELECTRON SYSTEM (eV)
  free  energy   TOTEN  =      -359.5053286948 eV

  energy  without entropy=     -359.4804004559  energy(sigma->0) =     -359.49286458

 d Force = 0.9243149E-04[ 0.795E-04, 0.105E-03]  d Energy = 0.6978070E-04 0.227E-04
 d Force = 0.4726959E+00[ 0.472E+00, 0.473E+00]  d Ewald  = 0.2102617E+01-0.163E+01

 Quasi-Newton relaxation of ions (Broydens 2nd method)
  g(Force)  = 0.149E-03   g(Stress)= 0.176E-03

 retain information from N=  1 steps
 eigenvalues of (default step * inverse Hessian matrix)
  average eigenvalue of G=   0.1757
 eigenvalue spectrum of G is  0.1757

 reached required accuracy - stopping structural energy minimisation

volume of typ            1:    16.3 %

[...]

volume of typ            3:     9.9 %

total charge

# of ion       s       p       d       tot
    1        2.076   0.242   0.088   2.406
    2        2.079   0.249   0.093   2.420
    3        2.074   0.236   0.087   2.398
    4        2.083   0.250   0.095   2.429
    5        2.079   0.248   0.093   2.420
    6        2.075   0.239   0.088   2.402
    7        2.076   0.242   0.089   2.406
    8        2.079   0.249   0.093   2.421
    9        2.079   0.252   0.093   2.424
   10        2.082   0.247   0.092   2.420
   11        2.075   0.239   0.088   2.401
   12        0.274   0.368   7.862   8.504
   13        0.278   0.379   7.865   8.522
   14        0.273   0.367   7.866   8.506
   15        0.279   0.380   7.863   8.521
   16        0.272   0.369   7.855   8.495
   17        0.272   0.368   7.852   8.492
   18        0.273   0.366   7.868   8.507
   19        0.272   0.367   7.857   8.496
   20        0.273   0.366   7.869   8.508
   21        0.281   0.385   7.861   8.527
   22        0.274   0.368   7.864   8.506
   23        0.281   0.384   7.859   8.524
   24        0.272   0.369   7.855   8.497
   25        0.272   0.366   7.859   8.497
   26        0.274   0.367   7.861   8.502
   27        0.271   0.366   7.852   8.490
   28        1.267   2.768   0.006   4.041
   29        1.255   2.801   0.006   4.062
   30        1.266   2.769   0.006   4.041
   31        1.255   2.802   0.006   4.062
   32        1.261   2.783   0.007   4.051
   33        1.263   2.778   0.006   4.048
   34        1.264   2.777   0.007   4.047
   35        1.261   2.787   0.006   4.054
   36        1.261   2.785   0.006   4.052
   37        1.263   2.778   0.006   4.048
   38        1.263   2.780   0.006   4.049
   39        1.260   2.787   0.006   4.054
   40        1.267   2.768   0.007   4.042
   41        1.259   2.791   0.007   4.057
   42        1.266   2.770   0.007   4.043
   43        1.259   2.792   0.006   4.057
   44        1.270   2.761   0.007   4.038
   45        1.258   2.795   0.006   4.059
   46        1.269   2.762   0.007   4.039
   47        1.257   2.796   0.006   4.059
   48        1.258   2.791   0.006   4.055
   49        1.264   2.776   0.007   4.047
   50        1.263   2.779   0.007   4.049
   51        1.264   2.775   0.007   4.045
   52        1.258   2.791   0.006   4.055
   53        1.262   2.780   0.006   4.049
   54        1.263   2.779   0.007   4.049
   55        1.264   2.776   0.007   4.046
   56        1.269   2.765   0.007   4.041
   57        1.262   2.784   0.006   4.053
   58        1.268   2.766   0.007   4.041
   59        1.262   2.785   0.006   4.053
tot          67.65   97.60  126.97  292.22

magnetization (x)

# of ion       s       p       d       tot
    1        0.005   0.013   0.000   0.018
    2        0.005   0.013   0.000   0.018
    3        0.005   0.012  -0.000   0.017
    4        0.000   0.003  -0.000   0.003
    5        0.004   0.008  -0.001   0.011
    6        0.004   0.009  -0.000   0.013
    7        0.005   0.013   0.000   0.018
    8        0.005   0.013   0.000   0.019
    9        0.005   0.014   0.000   0.019
   10        0.000   0.005  -0.000   0.005
   11        0.004   0.009  -0.000   0.013
   12        0.002   0.000   0.575   0.577
   13        0.000  -0.000   0.450   0.450
   14        0.003  -0.000   0.538   0.541
   15        0.000  -0.000   0.378   0.378
   16        0.000  -0.000   0.424   0.424
   17       -0.000  -0.000   0.429   0.429
   18        0.003  -0.000   0.587   0.590
   19        0.000  -0.000   0.434   0.433
   20        0.004  -0.000   0.604   0.607
   21       -0.002  -0.000  -0.267  -0.269
   22        0.003  -0.000   0.521   0.524
   23       -0.002  -0.000  -0.254  -0.256
   24       -0.000  -0.000   0.419   0.419
   25        0.001  -0.001   0.455   0.455
   26        0.003  -0.000   0.595   0.598
   27        0.000  -0.001   0.467   0.467
   28        0.007   0.070   0.000   0.077
   29        0.006   0.055   0.000   0.061
   30        0.009   0.081   0.000   0.090
   31        0.007   0.057   0.000   0.064
   32        0.001  -0.025  -0.000  -0.024
   33        0.009   0.076   0.000   0.085
   34        0.001  -0.001  -0.000  -0.000
   35        0.008   0.053   0.000   0.062
   36        0.008   0.060   0.000   0.068
   37        0.008   0.071   0.000   0.079
   38        0.007   0.043   0.000   0.050
   39        0.008   0.048   0.000   0.055
   40        0.005   0.031   0.000   0.036
   41        0.004   0.044   0.000   0.048
   42        0.007   0.038   0.000   0.045
   43        0.006   0.045   0.000   0.051
   44        0.006   0.069   0.000   0.075
   45        0.007   0.051   0.000   0.058
   46        0.008   0.077   0.000   0.085
   47        0.009   0.055   0.000   0.064
   48        0.008   0.060   0.000   0.068
   49        0.000  -0.004  -0.000  -0.004
   50        0.007   0.040   0.000   0.047
   51        0.001  -0.023  -0.000  -0.022
   52        0.008   0.057   0.000   0.065
   53        0.008   0.052   0.000   0.060
   54        0.007   0.032   0.000   0.039
   55        0.008   0.056   0.000   0.064
   56        0.004   0.034   0.000   0.039
   57        0.007   0.050   0.000   0.057
   58        0.006   0.038   0.000   0.044
   59        0.008   0.052   0.000   0.060
tot           0.26    1.55    6.36    8.17