 vasp.5.4.4.18Apr17-6-g9f103f2a35 (build May 12 2020 05:39:39) gamma-only

 MD_VERSION_INFO: Compiled 2020-05-12T12:39:39-UTC in devlin.sd.materialsdesign.
 com:/home/medea2/data/build/wwolf/vasp-gpu5.4.4/13047/x86_64/src/src/build/gam
 from svn 13047

 executed on                        Lin64 date 2023.03.07  05:13:45

 INCAR:
 POTCAR:    PAW_PBE Li_sv 10Sep2004
 POTCAR:    PAW_PBE Ni 02Aug2007
 POTCAR:    PAW_PBE O 08Apr2002

 POTCAR:    PAW_PBE Li_sv 10Sep2004

 POTCAR:    PAW_PBE Ni 02Aug2007

 POTCAR:    PAW_PBE O 08Apr2002

 Optimization of the real space projectors (new method)

 maximal supplied QI-value         = 22.11
 optimisation between [QCUT,QGAM] = [ 11.28, 22.77] = [ 35.61,145.23] Ry
 Optimized for a Real-space Cutoff    1.10 Angstroem

   l    n(q)    QCUT    max X(q) W(low)/X(q) W(high)/X(q)  e(spline)
   0      7    11.276    10.506    0.54E-04    0.58E-04    0.16E-07
   0      7    11.276     8.367    0.11E-03    0.14E-03    0.35E-07
   1      7    11.276     8.983    0.23E-03    0.43E-03    0.86E-07
 Optimization of the real space projectors (new method)

[...]

   l    n(q)    QCUT    max X(q) W(low)/X(q) W(high)/X(q)  e(spline)
   2      9    11.376    60.317    0.17E-03    0.16E-04    0.16E-06
   2      9    11.376    55.921    0.17E-03    0.16E-04    0.17E-06
   0     10    11.376    51.690    0.45E-04    0.60E-04    0.21E-06
   0     10    11.376    30.015    0.37E-04    0.55E-04    0.19E-06
   1     10    11.376    18.849    0.83E-04    0.11E-03    0.92E-07
   1     10    11.376    14.624    0.69E-04    0.92E-04    0.82E-07
 Optimization of the real space projectors (new method)

 maximal supplied QI-value         = 24.76
 optimisation between [QCUT,QGAM] = [ 11.39, 22.77] = [ 36.31,145.25] Ry
 Optimized for a Real-space Cutoff    1.10 Angstroem

   l    n(q)    QCUT    max X(q) W(low)/X(q) W(high)/X(q)  e(spline)
   0      7    11.387    20.381    0.22E-03    0.48E-03    0.18E-06
   0      7    11.387    15.268    0.22E-03    0.52E-03    0.19E-06
   1      7    11.387     5.964    0.22E-03    0.73E-03    0.24E-06
   1      7    11.387     5.382    0.19E-03    0.60E-03    0.21E-06

  PAW_PBE Li_sv 10Sep2004               :
  PAW_PBE Ni 02Aug2007                  :
  PAW_PBE O 08Apr2002                   :

 POSCAR: ce94_1
  positions in direct lattice
 exchange correlation table for  LEXCH =       14
   RHO(1)=    0.500       N(1)  =     2000
   RHO(2)=  100.500       N(2)  =     4000

 ion  position               nearest neighbor table
   1  0.994  0.252  0.242-  41 2.07  46 2.07  38 2.11  53 2.13  50 2.14  32 2.17  14 2.78  22 2.84

   2  0.002  0.748  0.750-  33 2.11  47 2.11  52 2.13  39 2.13  51 2.13  40 2.15  16 2.84
   3  0.247  0.250  0.500-  32 2.09  30 2.09  42 2.11  44 2.11  54 2.12  50 2.15  23 2.84  20 2.84
                            15 2.84  22 2.84
   4  0.258  0.750  0.499-  43 2.09  45 2.09  51 2.09  55 2.12  33 2.14  31 2.15  24 2.80  16 2.80

   5  0.743  0.750  0.500-  43 2.07  45 2.07  33 2.12  31 2.12  56 2.18  52 2.19  25 2.83  17 2.83

[...]

   9  0.999  0.751  0.249-  31 2.07  49 2.10  56 2.13  35 2.14  55 2.15  36 2.15
  10  0.249  0.249  0.000-  34 2.04  38 2.05  48 2.14  46 2.14  60 2.15  58 2.16  14 2.84
  11  0.258  0.750  0.000-  61 2.09  59 2.09  39 2.12  35 2.13  49 2.14  47 2.15
  12  0.741  0.750  0.998-  40 2.08  36 2.08  61 2.10  59 2.11  47 2.16  49 2.17  26 2.85
  13  0.505  0.247  0.760-  37 2.06  60 2.08  34 2.09  57 2.11  54 2.14  42 2.26  29 2.80  17 2.84

  14  1.000  0.004  0.002-  40 1.84  39 1.85  41 1.86  38 1.87  48 2.04  49 2.09  19 2.77   1 2.78
                            19 2.79  10 2.84  17 2.88  15 2.89  18 2.89  16 2.90
  15  0.251  1.000  0.251-  49 1.86  61 1.87  44 1.87  32 1.88  55 2.07  38 2.12  18 2.77  18 2.79
                             3 2.84  21 2.88  14 2.89  20 2.90  19 2.90
  16  0.251  0.993  0.748-  60 1.85  48 1.85  45 1.86  33 1.87  39 2.05  54 2.09  17 2.77  17 2.79
                             4 2.80   2 2.84  19 2.88  20 2.88  21 2.88  14 2.90
  17  0.750  0.996  0.750-  33 1.86  60 1.86  45 1.86  48 1.87  40 2.08  57 2.13  16 2.77  16 2.79
                             5 2.83  13 2.84  19 2.87  14 2.88  20 2.89  21 2.90
  18  0.750  0.999  0.251-  49 1.88  44 1.88  61 1.88  32 1.89  41 1.98  56 2.01  15 2.77  15 2.79
                            21 2.88  14 2.89  20 2.89  19 2.90
  19  0.501  0.002  1.000-  40 1.86  38 1.87  39 1.88  41 1.88  61 1.97  60 2.01  14 2.77  14 2.79
                             7 2.81  17 2.87  16 2.88  18 2.90  15 2.90
  20  1.000  0.005  0.503-  55 1.84  56 1.85  57 1.87  54 1.87  32 2.09  33 2.10  21 2.78  21 2.78
                             6 2.83   3 2.84   8 2.84  16 2.88  17 2.89  18 2.89  15 2.90
  21  0.499  0.002  0.501-  55 1.86  57 1.87  54 1.87  56 1.87  45 1.98  44 2.03  20 2.78  20 2.78
                            15 2.88  18 2.88  16 2.88  17 2.90
  22  1.000  0.495  0.497-  51 1.83  52 1.85  53 1.85  50 1.87  30 2.11  31 2.14  27 2.78  27 2.78
                             1 2.84   3 2.84  24 2.88  26 2.89  25 2.89  23 2.89
  23  0.251  0.500  0.749-  59 1.85  47 1.86  42 1.87  30 1.87  51 2.11  34 2.16  26 2.77  26 2.79
                             3 2.84  27 2.87  28 2.89  22 2.89  29 2.90
  24  0.251  0.506  0.252-  58 1.85  46 1.86  31 1.86  43 1.87  35 2.03  50 2.07  25 2.77  25 2.79
                             4 2.80  29 2.88  22 2.88  27 2.89  28 2.90
  25  0.750  0.504  0.250-  58 1.85  31 1.85  43 1.86  46 1.87  36 2.11  53 2.16  24 2.77  24 2.79
                             5 2.83  29 2.87  28 2.88  22 2.89  27 2.90
  26  0.750  0.500  0.749-  47 1.88  59 1.88  42 1.88  30 1.88  37 1.98  52 2.00  23 2.77  23 2.79
                             6 2.84  12 2.85  27 2.88  28 2.89  22 2.89  29 2.90
  27  0.499  0.498  0.500-  51 1.85  53 1.86  50 1.88  52 1.88  43 1.98  42 2.01  22 2.78  22 2.78
                            23 2.87  26 2.88  24 2.89  25 2.90
  28  1.000  0.495  0.997-  36 1.83  35 1.86  34 1.86  37 1.87  46 2.04  47 2.08   8 2.77  29 2.77
                            29 2.79  25 2.88  26 2.89  23 2.89  24 2.90
  29  0.501  0.498  1.000-  36 1.85  34 1.86  37 1.87  35 1.87  59 1.98  58 2.02  28 2.77  28 2.79
                            13 2.80  25 2.87  24 2.88  26 2.90  23 2.90
  30  0.002  0.387  0.641-  23 1.87  26 1.88   3 2.09   6 2.11  22 2.11   8 2.14
  31  0.997  0.613  0.359-  25 1.85  24 1.86   9 2.07   5 2.12  22 2.14   4 2.15
  32  0.001  0.112  0.361-  15 1.88  18 1.89  20 2.09   3 2.09   6 2.10   1 2.17
  33  0.997  0.888  0.638-  17 1.86  16 1.87  20 2.10   2 2.11   5 2.12   4 2.14
  34  0.253  0.385  0.893-  28 1.86  29 1.86  10 2.04  13 2.09   8 2.11  23 2.16
  35  0.246  0.604  0.109-  28 1.86  29 1.87  24 2.03  11 2.13   9 2.14
  36  0.755  0.606  0.102-  28 1.83  29 1.85  12 2.08  25 2.11   9 2.15
  37  0.748  0.395  0.881-  28 1.87  29 1.87  26 1.98  13 2.06   8 2.07
  38  0.252  0.113  0.110-  14 1.87  19 1.87  10 2.05   7 2.10   1 2.11  15 2.12
  39  0.245  0.895  0.892-  14 1.85  19 1.88  16 2.05  11 2.12   2 2.13
  40  0.755  0.894  0.895-  14 1.84  19 1.86  17 2.08  12 2.08   2 2.15
  41  0.750  0.104  0.119-  14 1.86  19 1.88  18 1.98   1 2.07   7 2.07
  42  0.498  0.393  0.635-  23 1.87  26 1.88  27 2.01   3 2.11   6 2.12  13 2.26
  43  0.504  0.604  0.369-  25 1.86  24 1.87  27 1.98   5 2.07   4 2.09
  44  0.499  0.108  0.364-  15 1.87  18 1.88  21 2.03   3 2.11   6 2.12   7 2.23
  45  0.503  0.896  0.631-  16 1.86  17 1.86  21 1.98   5 2.07   4 2.09
  46  0.004  0.398  0.142-  24 1.86  25 1.87  28 2.04   1 2.07  10 2.14
  47  0.003  0.607  0.861-  23 1.86  26 1.88  28 2.08   2 2.11  11 2.15  12 2.16
  48  0.005  0.102  0.858-  16 1.85  17 1.87  14 2.04   8 2.07  10 2.14
  49  0.002  0.892  0.140-  15 1.86  18 1.88  14 2.09   9 2.10  11 2.14  12 2.17
  50  0.250  0.391  0.384-  22 1.87  27 1.88  24 2.07   7 2.14   1 2.14   3 2.15
  51  0.244  0.605  0.603-  22 1.83  27 1.85   4 2.09  23 2.11   2 2.13
  52  0.756  0.601  0.612-  22 1.85  27 1.88  26 2.00   2 2.13   5 2.19
  53  0.748  0.388  0.391-  22 1.85  27 1.86   6 2.08   7 2.11   1 2.13  25 2.16
  54  0.251  0.110  0.614-  20 1.87  21 1.87  16 2.09   3 2.12  13 2.14   8 2.14
  55  0.245  0.897  0.394-  20 1.84  21 1.86  15 2.07   4 2.12   9 2.15
  56  0.755  0.899  0.389-  20 1.85  21 1.87  18 2.01   9 2.13   5 2.18
  57  0.748  0.112  0.612-  20 1.87  21 1.87   6 2.07  13 2.11   8 2.12  17 2.13
  58  0.498  0.399  0.141-  24 1.85  25 1.85  29 2.02   7 2.08  10 2.16
  59  0.497  0.601  0.866-  23 1.85  26 1.88  29 1.98  11 2.09  12 2.11
  60  0.497  0.100  0.860-  16 1.85  17 1.86  19 2.01  13 2.08  10 2.15
  61  0.498  0.899  0.132-  15 1.87  18 1.88  19 1.97  11 2.09  12 2.10

  LATTYP: Found a triclinic cell.
 ALAT       =    11.5201206625
 B/A-ratio  =     0.4826601213
 C/A-ratio  =     0.8784860510
 COS(alpha) =     0.0001375375
 COS(beta)  =     0.3192275187
 COS(gamma) =     0.4830544193

  Lattice vectors:

 A1 = (  -3.7079888331,   5.5625677012,   9.3819954946)
 A2 = (  -0.0003858907,   5.5603026939,   0.0011973440)
 A3 = ( -10.1202107059,   0.0006967202,  -0.0332368601)

Analysis of symmetry for initial positions (statically):
 Subroutine PRICEL returns:
 Original cell was already a primitive cell.

 Routine SETGRP: Setting up the symmetry group for a
 triclinic supercell.

 Subroutine GETGRP returns: Found  1 space group operations
 (whereof  1 operations were pure point group operations)
 out of a pool of  2 trial point group operations.

The static configuration has the point symmetry C_1 .

Analysis of symmetry for dynamics (positions and initial velocities):
 Subroutine PRICEL returns:
 Original cell was already a primitive cell.

[...]

The dynamic configuration has the point symmetry C_1 .

Analysis of structural, dynamic, and magnetic symmetry:
 Subroutine PRICEL returns:
 Original cell was already a primitive cell.

 Routine SETGRP: Setting up the symmetry group for a
 triclinic supercell.

 Subroutine GETGRP returns: Found  1 space group operations
 (whereof  1 operations were pure point group operations)
 out of a pool of  2 trial point group operations.

The magnetic configuration has the point symmetry C_1 .

 Subroutine INISYM returns: Found  1 space group operations
 (whereof  1 operations are pure point group operations),
 and found     1 'primitive' translations

 KPOINTS: Automatic mesh

Automatic generation of k-mesh.
Space group operators:
 irot       det(A)        alpha          n_x          n_y          n_z        tau_x        tau_y        tau_z
    1     1.000000     0.000002     1.000000     0.000000     0.000000     0.000000     0.000000     0.000000

 Subroutine IBZKPT returns following result:

 Found      1 irreducible k-points:

 Following reciprocal coordinates:
            Coordinates               Weight
  0.000000  0.000000  0.000000      1.000000

 Following cartesian coordinates:
            Coordinates               Weight
  0.000000  0.000000  0.000000      1.000000

 SYSTEM =  unknown system
 POSCAR =  ce94_1

 Startparameter for this run:
   NWRITE =      1    write-flag & timer
   PREC   = accura    normal or accurate (medium, high low for compatibility)
[...]
   0.157E+02 0.202E+01 -.195E+02   -.154E+02 -.203E+01 0.200E+02   -.269E+00 0.218E-01 -.464E+00   0.455E-02 -.694E-02 0.144E-02
   0.278E-01 -.161E+02 -.575E+02   -.408E+00 0.162E+02 0.580E+02   0.399E+00 -.541E-01 -.554E+00   -.228E-01 -.906E-02 -.749E-02
   0.185E+02 -.169E+02 -.642E+02   -.193E+02 0.169E+02 0.645E+02   0.761E+00 0.108E-01 -.331E+00   0.196E-01 -.987E-02 0.102E-01
   0.392E+02 0.152E+02 -.225E+02   -.400E+02 -.152E+02 0.227E+02   0.809E+00 -.201E-01 -.235E+00   0.217E-01 0.591E-02 0.879E-02
   0.841E+01 0.178E+02 -.679E+02   -.837E+01 -.178E+02 0.683E+02   -.201E-01 0.650E-01 -.329E+00   -.253E-01 0.786E-02 -.556E-02
   -.170E+02 -.205E+01 -.527E+02   0.170E+02 0.208E+01 0.535E+02   0.637E-02 -.370E-01 -.800E+00   0.548E-02 0.653E-02 0.102E-02
   -.166E+02 0.137E+02 0.254E+02   0.174E+02 -.139E+02 -.254E+02   -.803E+00 0.144E+00 0.400E-01   -.195E-01 0.106E-02 -.108E-01
   -.488E+02 -.142E+02 -.796E+01   0.492E+02 0.143E+02 0.828E+01   -.337E+00 -.116E+00 -.308E+00   -.198E-01 0.308E-02 -.112E-01
   0.164E+02 -.233E+01 0.251E+03   -.196E+02 0.196E+01 -.263E+03   0.325E+01 0.355E+00 0.126E+02   -.953E-02 0.478E-02 -.240E-01
   -.218E+02 0.518E+01 -.282E+03   0.268E+02 -.523E+01 0.295E+03   -.505E+01 0.565E-01 -.132E+02   0.125E-01 -.612E-02 0.229E-01
   -.800E+01 -.276E+01 -.252E+03   0.106E+02 0.261E+01 0.264E+03   -.263E+01 0.128E+00 -.118E+02   0.233E-01 0.155E-01 0.320E-03
   0.185E+02 0.406E+01 0.284E+03   -.233E+02 -.415E+01 -.298E+03   0.477E+01 0.777E-01 0.131E+02   -.414E-02 0.113E-01 0.264E-01
   0.170E+02 -.250E+01 0.265E+03   -.217E+02 0.276E+01 -.277E+03   0.470E+01 -.241E+00 0.123E+02   -.115E-01 -.181E-01 -.434E-01
   -.344E+02 -.313E+02 -.309E+03   0.386E+02 0.333E+02 0.324E+03   -.431E+01 -.196E+01 -.152E+02   0.119E-01 -.184E-01 0.279E-01
   -.525E+02 0.305E+02 -.300E+03   0.580E+02 -.324E+02 0.316E+03   -.549E+01 0.183E+01 -.162E+02   0.148E-01 0.163E-01 0.237E-01
   -.315E+02 0.257E+01 0.287E+03   0.308E+02 -.279E+01 -.301E+03   0.713E+00 0.211E+00 0.141E+02   -.422E-02 0.154E-01 -.420E-01
   -.157E+02 -.747E+00 -.266E+03   0.206E+02 0.927E+00 0.278E+03   -.495E+01 -.199E+00 -.118E+02   -.142E-01 0.138E-01 -.227E-01
   0.354E+02 -.301E+02 0.309E+03   -.397E+02 0.322E+02 -.324E+03   0.433E+01 -.208E+01 0.154E+02   -.197E-01 0.135E-01 0.249E-01
   0.470E+02 0.286E+02 0.301E+03   -.524E+02 -.305E+02 -.317E+03   0.545E+01 0.186E+01 0.159E+02   -.157E-01 -.136E-01 0.181E-01
   0.287E+02 0.179E+01 -.289E+03   -.277E+02 -.220E+01 0.303E+03   -.104E+01 0.431E+00 -.139E+02   -.232E-01 -.148E-01 -.110E-01
   0.737E+01 0.229E+01 0.249E+03   -.994E+01 -.177E+01 -.262E+03   0.257E+01 -.518E+00 0.127E+02   -.137E-03 -.255E-02 -.269E-01
   0.202E+02 -.532E+01 -.304E+03   -.197E+02 0.542E+01 0.319E+03   -.491E+00 -.117E+00 -.152E+02   0.528E-02 0.753E-02 0.256E-01
   -.741E+01 0.205E+01 -.249E+03   0.986E+01 -.166E+01 0.261E+03   -.247E+01 -.366E+00 -.120E+02   0.298E-01 -.178E-01 -.441E-02
   -.175E+02 -.440E+01 0.306E+03   0.167E+02 0.469E+01 -.321E+03   0.789E+00 -.287E+00 0.151E+02   -.861E-02 -.115E-01 0.320E-01
   0.384E+02 0.353E+02 0.288E+03   -.432E+02 -.373E+02 -.304E+03   0.481E+01 0.193E+01 0.152E+02   0.115E-01 -.592E-02 -.178E-01
   -.234E+02 -.214E+01 -.293E+03   0.281E+02 0.168E+01 0.306E+03   -.466E+01 0.457E+00 -.127E+02   -.116E-01 0.296E-02 0.160E-01
   -.426E+02 0.341E+02 -.288E+03   0.476E+02 -.361E+02 0.304E+03   -.490E+01 0.199E+01 -.153E+02   -.195E-01 0.126E-01 -.293E-01
   0.240E+02 -.183E+01 0.292E+03   -.286E+02 0.148E+01 -.304E+03   0.457E+01 0.326E+00 0.120E+02   -.526E-02 0.168E-01 0.615E-02
   0.385E+02 -.661E+00 0.261E+03   -.428E+02 0.103E+01 -.273E+03   0.432E+01 -.376E+00 0.125E+02   0.265E-02 0.655E-02 -.171E-01
   -.521E+02 -.283E+02 -.316E+03   0.579E+02 0.303E+02 0.332E+03   -.579E+01 -.197E+01 -.163E+02   0.840E-03 0.662E-02 0.302E-01
   -.333E+02 0.302E+02 -.320E+03   0.371E+02 -.326E+02 0.336E+03   -.376E+01 0.236E+01 -.160E+02   -.638E-02 -.663E-02 0.298E-01
   0.548E+02 0.533E-01 0.256E+03   -.593E+02 -.181E+00 -.269E+03   0.453E+01 0.136E+00 0.129E+02   -.722E-03 -.745E-02 -.133E-01
   -.407E+02 -.235E+01 -.260E+03   0.452E+02 0.267E+01 0.273E+03   -.455E+01 -.324E+00 -.127E+02   -.147E-02 0.851E-03 -.388E-01
   0.482E+02 -.298E+02 0.318E+03   -.538E+02 0.317E+02 -.334E+03   0.554E+01 -.193E+01 0.160E+02   0.253E-01 -.117E-03 0.395E-01
   0.369E+02 0.311E+02 0.321E+03   -.410E+02 -.333E+02 -.337E+03   0.413E+01 0.226E+01 0.159E+02   0.344E-01 0.199E-03 0.302E-01
   -.494E+02 0.163E+01 -.256E+03   0.541E+02 -.184E+01 0.268E+03   -.476E+01 0.209E+00 -.122E+02   -.443E-02 -.121E-02 -.337E-01
   0.425E+02 -.339E+02 0.282E+03   -.472E+02 0.356E+02 -.298E+03   0.476E+01 -.171E+01 0.161E+02   0.106E-01 0.825E-02 -.230E-01
   0.916E+01 0.130E+01 -.312E+03   -.835E+01 -.736E+00 0.327E+03   -.835E+00 -.559E+00 -.147E+02   -.851E-02 -.491E-02 0.184E-01
   -.416E+02 -.329E+02 -.283E+03   0.459E+02 0.347E+02 0.299E+03   -.432E+01 -.182E+01 -.160E+02   -.986E-02 -.133E-01 -.353E-01
   -.139E+02 0.209E+01 0.312E+03   0.137E+02 -.181E+01 -.326E+03   0.205E+00 -.258E+00 0.139E+02   -.161E-01 -.181E-01 0.141E-01
   0.756E+00 0.349E-01 -.365E+00   0.391E-13 0.593E-13 -.455E-12   -.729E+00 -.562E-01 0.387E+00   -.934E-02 0.866E-03 -.205E-01

 POSITION                                       TOTAL-FORCE (eV/Angst)
      1.51400      5.52584      2.37313        -0.002296     -0.000828      0.000800
      4.81806      0.01367      7.04764        -0.004340      0.005629      0.002458
      4.13357      1.37688      2.36134        -0.003779      0.003554      0.001128
      2.26749      1.43676      7.05657        -0.016156      0.001177      0.001394
      2.27953      4.12999      7.05312        -0.001144     -0.001183      0.000294
      4.14146      4.18047      2.35418        -0.011674     -0.000006     -0.002538
      1.51197      2.81051      2.37696        -0.009319     -0.000400     -0.000948
      6.75714      5.53379      2.35548        -0.003693      0.002236     -0.000034
     -0.25909      5.55311      7.05420         0.002927     -0.002518     -0.004602
     -0.91208      1.37799      2.33712         0.008672     -0.016172      0.007599
     -2.77472      1.43688      7.03550         0.003875     -0.000934      0.001414
      7.33806      4.11471      7.07664         0.014427     -0.002921      0.003193
      6.78368      2.80626      2.34334         0.011262      0.000916     -0.002723
      0.00892      5.55610      0.03877         0.000419      0.000286     -0.000284
     -1.16699      1.39468      9.38691         0.003970      0.001138     -0.004166
      3.88986      1.39597      9.34831         0.003764      0.000779      0.003695
      3.90202      4.16833      9.37397         0.002950      0.000103      0.002671
     -1.16576      4.16835      9.38224         0.003711      0.001072     -0.004046
     10.11990      2.78331      0.05061         0.000538      0.001318      0.004431
      5.07529      5.55603      0.06018         0.005170      0.000011     -0.003208
      5.06479      2.77574      0.03684         0.004728      0.001243     -0.002591
      3.19579      5.55592      4.66800         0.000671      0.000112     -0.002222
      5.73366      1.39283      4.71447        -0.003695     -0.000838      0.001500
      0.67534      1.39384      4.75558        -0.000344     -0.000951      0.000355
      0.66185      4.16562      4.73266         0.000265     -0.001158     -0.000008
      5.72962      4.16734      4.72038        -0.004484      0.000398      0.002121
      3.20689      2.77659      4.69160         0.002121     -0.000698     -0.002474
      8.26006      5.55603      4.68120        -0.004969      0.000033      0.004354
      8.27567      2.78480      4.70463        -0.007226      0.001030      0.004528
      5.06268      0.01379      3.65747         0.020923     -0.003939     -0.001947
      1.36240      5.53972      5.76143        -0.014211     -0.000591      0.001953
      3.24513      0.00565      1.05638         0.011138     -0.001110     -0.015496
      3.17089      5.54395      8.35641        -0.001973     -0.000776      0.006593
      7.61055      1.40436      3.64762        -0.007718      0.002367      0.003339
     -1.14270      1.36702      5.67325        -0.007218      0.003941     -0.001522
     -1.22080      4.19680      5.69120        -0.005803      0.000182     -0.002128
      7.44577      4.15974      3.73889        -0.011672      0.000231      0.005265
      0.69175      1.40360      1.06427         0.002770     -0.005477     -0.000358
      5.71358      1.36241      8.42631        -0.002023     -0.004185      0.002273
      5.74583      4.19551      8.42176         0.000991      0.004797      0.003558
      0.81369      4.16576      0.98411        -0.001384      0.007053      0.000435
      4.97644      2.76730      3.71398        -0.006687     -0.000938      0.002741
      1.50137      2.79811      5.67811         0.009004     -0.001178     -0.004574
      3.28404      2.77200      1.02078         0.001088      0.002677     -0.008756
      3.07206      2.79572      8.42485         0.005079      0.000446      0.003301
     -0.04461      0.02116      3.73554        -0.012019     -0.001744      0.001015
      6.45739      0.01569      5.72756         0.000558      0.000187      0.000874
      8.30726      0.02646      0.99299         0.002263     -0.001484      0.002321
     -1.88971      0.01394      8.36887         0.001337     -0.000414      0.004481
      2.44308      1.39055      3.67438         0.004631     -0.001891     -0.001490
      3.86596      1.36033      5.69183        -0.002730      0.001315     -0.006369
      3.96934      4.20009      5.65968         0.003242      0.001092     -0.007849
      2.52970      4.15859      3.64846         0.002756      0.000606     -0.000972
      5.81445      1.39381      1.05516         0.001651      0.002285     -0.003284
      0.66560      1.36442      8.42370         0.006047      0.003269     -0.001557
      0.61135      4.19563      8.44658         0.012509     -0.002795     -0.003021
      5.78037      4.15529      1.07269        -0.000283     -0.001501     -0.003544
     -0.04970      2.76404      3.75159         0.015630     -0.002868     -0.004905
      6.53249      2.76053      5.67003        -0.029498      0.002582      0.011963
      8.33825      2.76036      0.96947         0.002822      0.002263      0.001234
     -1.99541      2.77071      8.43897         0.002429      0.003171      0.004335
    total drift:                                0.017704     -0.020491      0.001487

  FREE ENERGIE OF THE ION-ELECTRON SYSTEM (eV)
  free  energy   TOTEN  =      -368.9609891248 eV

  energy  without entropy=     -368.9548312760  energy(sigma->0) =     -368.95791020

 d Force = 0.1875432E-03[ 0.184E-03, 0.191E-03]  d Energy = 0.1801530E-03 0.739E-05
 d Force =-0.1959573E+00[-0.196E+00,-0.195E+00]  d Ewald  =-0.3274271E+00 0.131E+00

 Quasi-Newton relaxation of ions (Broydens 2nd method)
  g(Force)  = 0.270E-03   g(Stress)= 0.740E-05

 retain information from N=  1 steps
 eigenvalues of (default step * inverse Hessian matrix)
  average eigenvalue of G=   0.0655
 eigenvalue spectrum of G is  0.0655

volume of typ            1:    19.2 %

[...]

volume of typ            3:     9.9 %

total charge

# of ion       s       p       d       tot
    1        2.082   0.254   0.095   2.431
    2        2.077   0.238   0.089   2.404
    3        2.081   0.259   0.095   2.435
    4        2.081   0.251   0.095   2.426
    5        2.077   0.244   0.091   2.412
    6        2.086   0.268   0.102   2.456
    7        2.083   0.251   0.094   2.427
    8        2.085   0.259   0.098   2.442
    9        2.080   0.241   0.091   2.412
   10        2.083   0.256   0.097   2.436
   11        2.077   0.248   0.090   2.415
   12        2.080   0.251   0.093   2.425
   13        2.082   0.252   0.094   2.428
   14        0.272   0.364   7.874   8.510
   15        0.263   0.345   7.870   8.479
   16        0.272   0.363   7.868   8.503
   17        0.265   0.348   7.867   8.480
   18        0.267   0.357   7.865   8.489
   19        0.272   0.369   7.857   8.498
   20        0.271   0.361   7.881   8.514
   21        0.271   0.366   7.866   8.503
   22        0.272   0.359   7.893   8.524
   23        0.266   0.348   7.884   8.498
   24        0.272   0.364   7.867   8.503
   25        0.265   0.345   7.879   8.488
   26        0.269   0.362   7.860   8.491
   27        0.272   0.368   7.864   8.505
   28        0.273   0.366   7.870   8.509
   29        0.271   0.366   7.866   8.503
   30        1.256   2.795   0.006   4.057
   31        1.254   2.800   0.006   4.060
   32        1.256   2.795   0.006   4.057
   33        1.255   2.798   0.006   4.059
   34        1.255   2.802   0.006   4.063
   35        1.264   2.772   0.006   4.043
   36        1.263   2.777   0.007   4.047
   37        1.260   2.789   0.006   4.055
   38        1.254   2.804   0.006   4.064
   39        1.264   2.774   0.006   4.044
   40        1.263   2.778   0.006   4.047
   41        1.260   2.789   0.006   4.055
   42        1.258   2.792   0.006   4.056
   43        1.258   2.789   0.007   4.054
   44        1.257   2.796   0.006   4.059
   45        1.259   2.789   0.006   4.054
   46        1.261   2.781   0.006   4.048
   47        1.258   2.791   0.006   4.055
   48        1.262   2.781   0.006   4.049
   49        1.258   2.793   0.006   4.057
   50        1.256   2.795   0.006   4.057
   51        1.263   2.776   0.007   4.046
   52        1.263   2.775   0.007   4.045
   53        1.254   2.802   0.006   4.062
   54        1.256   2.796   0.006   4.058
   55        1.262   2.779   0.006   4.048
   56        1.263   2.777   0.007   4.046
   57        1.255   2.802   0.006   4.062
   58        1.262   2.782   0.007   4.050
   59        1.263   2.779   0.006   4.048
   60        1.261   2.783   0.007   4.051
   61        1.262   2.782   0.006   4.051
tot          71.66   98.24  127.35  297.25

magnetization (x)

# of ion       s       p       d       tot
    1        0.003   0.010   0.000   0.014
    2        0.004   0.010   0.000   0.013
    3        0.005   0.014  -0.000   0.019
    4        0.001   0.005  -0.000   0.005
    5        0.004   0.008  -0.000   0.012
    6        0.003   0.010   0.001   0.014
    7        0.001   0.005  -0.001   0.005
    8        0.002   0.009   0.000   0.012
    9        0.002   0.009   0.000   0.011
   10        0.001   0.005  -0.000   0.006
   11        0.005   0.015  -0.000   0.020
   12        0.003   0.011   0.001   0.015
   13        0.003   0.007  -0.001   0.009
   14        0.003  -0.000   0.508   0.510
   15        0.004  -0.000   0.740   0.744
   16        0.003  -0.000   0.576   0.579
   17        0.004  -0.000   0.644   0.648
   18        0.000  -0.001   0.562   0.561
   19       -0.000  -0.001   0.283   0.282
   20        0.004  -0.001   0.553   0.556
   21        0.000  -0.001   0.364   0.363
   22        0.005  -0.000   0.510   0.515
   23       -0.005  -0.001  -0.492  -0.498
   24        0.003  -0.000   0.553   0.556
   25        0.004  -0.000   0.589   0.593
   26        0.000  -0.000   0.462   0.462
   27        0.000   0.000   0.287   0.287
   28        0.003   0.000   0.482   0.485
   29       -0.001  -0.000  -0.090  -0.091
   30        0.006   0.067   0.000   0.074
   31        0.006   0.071   0.000   0.078
   32        0.010   0.085   0.000   0.095
   33        0.007   0.064   0.000   0.071
   34       -0.005  -0.070  -0.000  -0.075
   35        0.006   0.071   0.000   0.077
   36        0.005   0.087   0.000   0.092
   37        0.005   0.047   0.000   0.053
   38        0.007   0.072   0.000   0.079
   39        0.008   0.079   0.000   0.087
   40        0.007   0.086   0.000   0.093
   41        0.007   0.058   0.000   0.065
   42        0.005   0.017   0.000   0.022
   43        0.005   0.043   0.000   0.049
   44        0.009   0.041   0.000   0.050
   45        0.006   0.051   0.000   0.057
   46        0.007   0.075   0.000   0.082
   47        0.007   0.050   0.000   0.058
   48        0.007   0.070   0.000   0.078
   49        0.010   0.068   0.000   0.078
   50        0.007   0.063   0.000   0.071
   51       -0.005  -0.084  -0.000  -0.089
   52        0.006   0.046   0.000   0.053
   53        0.006   0.075   0.000   0.081
   54        0.008   0.062   0.000   0.070
   55        0.008   0.090   0.000   0.098
   56        0.007   0.046   0.000   0.053
   57        0.007   0.073   0.000   0.080
   58        0.001  -0.011   0.000  -0.010
   59        0.001  -0.017   0.000  -0.015
   60        0.005   0.025   0.000   0.030
   61        0.009   0.050   0.000   0.059
tot           0.25    1.66    6.54    8.45