 vasp.5.4.4.18Apr17-6-g9f103f2a35 (build May 12 2020 05:39:39) gamma-only

 MD_VERSION_INFO: Compiled 2020-05-12T12:39:39-UTC in devlin.sd.materialsdesign.
 com:/home/medea2/data/build/wwolf/vasp-gpu5.4.4/13047/x86_64/src/src/build/gam
 from svn 13047

 executed on                        Lin64 date 2023.03.07  06:00:33

 INCAR:
 POTCAR:    PAW_PBE Li_sv 10Sep2004
 POTCAR:    PAW_PBE Ni 02Aug2007
 POTCAR:    PAW_PBE O 08Apr2002

 POTCAR:    PAW_PBE Li_sv 10Sep2004

 POTCAR:    PAW_PBE Ni 02Aug2007

 POTCAR:    PAW_PBE O 08Apr2002

 Optimization of the real space projectors (new method)

 maximal supplied QI-value         = 22.11
 optimisation between [QCUT,QGAM] = [ 11.28, 22.77] = [ 35.61,145.23] Ry
 Optimized for a Real-space Cutoff    1.10 Angstroem

   l    n(q)    QCUT    max X(q) W(low)/X(q) W(high)/X(q)  e(spline)
   0      7    11.276    10.506    0.54E-04    0.58E-04    0.16E-07
   0      7    11.276     8.367    0.11E-03    0.14E-03    0.35E-07
   1      7    11.276     8.983    0.23E-03    0.43E-03    0.86E-07
 Optimization of the real space projectors (new method)

[...]

   l    n(q)    QCUT    max X(q) W(low)/X(q) W(high)/X(q)  e(spline)
   2      9    11.376    60.317    0.17E-03    0.16E-04    0.16E-06
   2      9    11.376    55.921    0.17E-03    0.16E-04    0.17E-06
   0     10    11.376    51.690    0.45E-04    0.60E-04    0.21E-06
   0     10    11.376    30.015    0.37E-04    0.55E-04    0.19E-06
   1     10    11.376    18.849    0.83E-04    0.11E-03    0.92E-07
   1     10    11.376    14.624    0.69E-04    0.92E-04    0.82E-07
 Optimization of the real space projectors (new method)

 maximal supplied QI-value         = 24.76
 optimisation between [QCUT,QGAM] = [ 11.39, 22.77] = [ 36.31,145.25] Ry
 Optimized for a Real-space Cutoff    1.10 Angstroem

   l    n(q)    QCUT    max X(q) W(low)/X(q) W(high)/X(q)  e(spline)
   0      7    11.387    20.381    0.22E-03    0.48E-03    0.18E-06
   0      7    11.387    15.268    0.22E-03    0.52E-03    0.19E-06
   1      7    11.387     5.964    0.22E-03    0.73E-03    0.24E-06
   1      7    11.387     5.382    0.19E-03    0.60E-03    0.21E-06

  PAW_PBE Li_sv 10Sep2004               :
  PAW_PBE Ni 02Aug2007                  :
  PAW_PBE O 08Apr2002                   :

 POSCAR: ce17535_1
  positions in direct lattice
 exchange correlation table for  LEXCH =       14
   RHO(1)=    0.500       N(1)  =     2000
   RHO(2)=  100.500       N(2)  =     4000

 ion  position               nearest neighbor table
   1  0.500  0.249  0.751-  48 2.12  30 2.14  22 2.15  25 2.15  45 2.16  42 2.16
   2  0.000  0.999  1.000-  27 1.85  28 1.85  26 1.85  29 1.85  37 1.88  36 1.89   7 2.78   7 2.78
                             3 2.79   6 2.79   5 2.79   4 2.79
   3  0.250  0.000  0.250-  37 1.84  20 1.84  32 1.84  49 1.84  43 1.88  26 1.88   6 2.78   6 2.79
                             2 2.79   9 2.79   8 2.79   7 2.79
   4  0.249  0.993  0.748-  21 1.84  36 1.84  33 1.85  48 1.85  27 1.87  42 1.88   5 2.78   5 2.79
                             2 2.79   8 2.79   7 2.80   9 2.80
   5  0.751  0.993  0.748-  21 1.84  36 1.84  33 1.85  48 1.85  28 1.87  45 1.88   4 2.78   4 2.79
                             2 2.79   8 2.79   7 2.80   9 2.80
   6  0.750  0.000  0.250-  37 1.84  20 1.84  32 1.84  49 1.84  44 1.88  29 1.88   3 2.78   3 2.79
                             2 2.79   9 2.79   8 2.79   7 2.79
   7  0.500  1.000  1.000-  26 1.84  29 1.84  28 1.85  27 1.85  49 1.88  48 1.92   2 2.78   2 2.78
                             6 2.79   3 2.79   4 2.80   5 2.80
   8  0.000  0.999  0.499-  43 1.84  44 1.84  42 1.86  45 1.86  20 1.89  21 1.91   9 2.78   9 2.78
                             3 2.79   6 2.79   5 2.79   4 2.79
   9  0.500  0.994  0.498-  43 1.84  44 1.84  42 1.85  45 1.85  32 1.89  33 1.90   8 2.78   8 2.78
                             3 2.79   6 2.79   5 2.80   4 2.80
  10  0.000  0.501  0.500-  39 1.84  40 1.84  38 1.85  41 1.85  19 1.88  18 1.89  15 2.78  15 2.78
                            12 2.79  13 2.79  11 2.79  14 2.79
  11  0.249  0.506  0.752-  35 1.84  18 1.84  47 1.85  30 1.85  39 1.87  22 1.88  14 2.78  14 2.79
                            16 2.79  10 2.79  15 2.80  17 2.80
  12  0.250  0.501  0.250-  19 1.84  34 1.84  46 1.84  31 1.84  38 1.88  23 1.88  13 2.78  13 2.79
                            10 2.79  15 2.79  17 2.79  16 2.79
  13  0.750  0.501  0.250-  19 1.84  34 1.84  46 1.84  31 1.84  41 1.88  24 1.88  12 2.78  12 2.79
                            10 2.79  15 2.79  17 2.79  16 2.79
  14  0.751  0.506  0.752-  35 1.84  18 1.84  47 1.85  30 1.85  40 1.87  25 1.88  11 2.78  11 2.79
                            16 2.79  10 2.79  15 2.80  17 2.80
  15  0.500  0.500  0.500-  38 1.84  41 1.84  40 1.85  39 1.85  31 1.88  30 1.92  10 2.78  10 2.78
                            13 2.79  12 2.79  14 2.80  11 2.80
  16  0.000  0.501  0.000-  23 1.84  24 1.84  22 1.86  25 1.86  34 1.89  35 1.91  17 2.78  17 2.78
                            12 2.79  13 2.79  11 2.79  14 2.79
  17  0.500  0.506  0.002-  23 1.84  24 1.84  22 1.85  25 1.85  46 1.89  47 1.90  16 2.78  16 2.78
                            12 2.79  13 2.79  11 2.80  14 2.80
  18  0.000  0.406  0.639-  11 1.84  14 1.84  10 1.89
  19  0.000  0.599  0.364-  12 1.84  13 1.84  10 1.88
  20  0.000  0.099  0.364-   3 1.84   6 1.84   8 1.89
  21  0.000  0.896  0.634-   4 1.84   5 1.84   8 1.91
  22  0.255  0.405  0.885-  17 1.85  16 1.86  11 1.88   1 2.15
  23  0.247  0.600  0.116-  16 1.84  17 1.84  12 1.88
  24  0.753  0.600  0.116-  16 1.84  17 1.84  13 1.88
  25  0.745  0.405  0.885-  17 1.85  16 1.86  14 1.88   1 2.15
  26  0.250  0.098  0.114-   7 1.84   2 1.85   3 1.88
  27  0.250  0.900  0.886-   2 1.85   7 1.85   4 1.87
  28  0.750  0.900  0.886-   2 1.85   7 1.85   5 1.87
  29  0.750  0.098  0.114-   7 1.84   2 1.85   6 1.88
  30  0.500  0.403  0.642-  11 1.85  14 1.85  15 1.92   1 2.14
  31  0.500  0.599  0.364-  12 1.84  13 1.84  15 1.88
  32  0.500  0.097  0.365-   3 1.84   6 1.84   9 1.89
  33  0.500  0.894  0.634-   4 1.85   5 1.85   9 1.90
  34  0.000  0.402  0.137-  12 1.84  13 1.84  16 1.89
  35  0.000  0.603  0.865-  11 1.84  14 1.84  16 1.91
  36  0.000  0.093  0.860-   4 1.84   5 1.84   2 1.89
  37  0.000  0.903  0.137-   3 1.84   6 1.84   2 1.88
  38  0.250  0.403  0.386-  15 1.84  10 1.85  12 1.88
  39  0.250  0.600  0.614-  10 1.84  15 1.85  11 1.87
  40  0.750  0.600  0.614-  10 1.84  15 1.85  14 1.87
  41  0.750  0.403  0.386-  15 1.84  10 1.85  13 1.88
  42  0.255  0.094  0.615-   9 1.85   8 1.86   4 1.88   1 2.16
  43  0.247  0.900  0.384-   8 1.84   9 1.84   3 1.88
  44  0.753  0.900  0.384-   8 1.84   9 1.84   6 1.88
  45  0.745  0.094  0.615-   9 1.85   8 1.86   5 1.88   1 2.16
  46  0.500  0.404  0.136-  12 1.84  13 1.84  17 1.89
  47  0.500  0.605  0.866-  11 1.85  14 1.85  17 1.90
  48  0.500  0.096  0.858-   4 1.85   5 1.85   7 1.92   1 2.12
  49  0.500  0.902  0.136-   3 1.84   6 1.84   7 1.88

  LATTYP: Found a simple monoclinic cell.
 ALAT       =    11.3777123301
 B/A-ratio  =     0.4894113981
 C/A-ratio  =     1.6789125019
 COS(beta)  =    -0.9074041756

  Lattice vectors:

 A1 = (  -6.2288178401,   0.0000000000,  -9.5212481420)
 A2 = (   0.0000000000,  -5.5683820989,   0.0000000000)
 A3 = (   2.7713215959,   0.0000000000,  18.9000843937)

Analysis of symmetry for initial positions (statically):
 Subroutine PRICEL returns:
 Original cell was already a primitive cell.

 Routine SETGRP: Setting up the symmetry group for a
 simple monoclinic supercell.

 Subroutine GETGRP returns: Found  2 space group operations
 (whereof  2 operations were pure point group operations)
 out of a pool of  4 trial point group operations.

The static configuration has the point symmetry C_1h.

Analysis of symmetry for dynamics (positions and initial velocities):
 Subroutine PRICEL returns:
 Original cell was already a primitive cell.

[...]

The dynamic configuration has the point symmetry C_1h.

Analysis of structural, dynamic, and magnetic symmetry:
 Subroutine PRICEL returns:
 Original cell was already a primitive cell.

 Routine SETGRP: Setting up the symmetry group for a
 simple monoclinic supercell.

 Subroutine GETGRP returns: Found  2 space group operations
 (whereof  2 operations were pure point group operations)
 out of a pool of  4 trial point group operations.

The magnetic configuration has the point symmetry C_1h.

 Subroutine INISYM returns: Found  2 space group operations
 (whereof  2 operations are pure point group operations),
 and found     1 'primitive' translations

 KPOINTS: Automatic mesh

Automatic generation of k-mesh.
Space group operators:
 irot       det(A)        alpha          n_x          n_y          n_z        tau_x        tau_y        tau_z
    1     1.000000     0.000001     1.000000     0.000000     0.000000     0.000000     0.000000     0.000000
    2    -1.000000   180.000000     0.000000     1.000000     0.000000     0.000000     0.000000     0.000000

 Subroutine IBZKPT returns following result:

 Found      1 irreducible k-points:

 Following reciprocal coordinates:
            Coordinates               Weight
  0.000000  0.000000  0.000000      1.000000

 Following cartesian coordinates:
            Coordinates               Weight
  0.000000  0.000000  0.000000      1.000000

 SYSTEM =  unknown system
 POSCAR =  ce17535_1

 Startparameter for this run:
   NWRITE =      1    write-flag & timer
   PREC   = accura    normal or accurate (medium, high low for compatibility)
   ISTART =      0    job   : 0-new  1-cont  2-samecut
   ICHARG =      2    charge: 1-file 2-atom 10-const
   ISPIN  =      2    spin polarized calculation?
   LNONCOLLINEAR =      F non collinear calculations
   LSORBIT =      F    spin-orbit coupling
   INIWAV =      1    electr: 0-lowe 1-rand  2-diag
   LASPH  =      F    aspherical Exc in radial PAW
   METAGGA=      F    non-selfconsistent MetaGGA calc.

 Electronic Relaxation 1
   ENCUT  =  500.0 eV  36.75 Ry    6.06 a.u.  10.15 18.22 17.66*2*pi/ulx,y,z
   ENINI  =  500.0     initial cutoff
   ENAUG  =  628.9 eV  augmentation charge cutoff
   NELM   =     80;   NELMIN=  2; NELMDL= -5     # of ELM steps
   EDIFF  = 0.1E-04   stopping-criterion for ELM
   LREAL  =      T    real-space projection
   NLSPLINE    = F    spline interpolate recip. space projectors
   LCOMPAT=      F    compatible to vasp.4.4
   GGA_COMPAT  = T    GGA compatible to vasp.4.4-vasp.4.6
   LMAXPAW     = -100 max onsite density
   LMAXMIX     =    2 max onsite mixed and CHGCAR
   VOSKOWN=      1    Vosko Wilk Nusair interpolation
   ROPT   =   -0.00025  -0.00025  -0.00025
 Ionic relaxation
   EDIFFG = -.2E-01   stopping-criterion for IOM
   NSW    =     20    number of steps for IOM
   NBLOCK =      1;   KBLOCK =     20    inner block; outer block
   IBRION =      1    ionic relax: 0-MD 1-quasi-New 2-CG
   NFREE  =      0    steps in history (QN), initial steepest desc. (CG)
   ISIF   =      3    stress and relaxation
   IWAVPR =     11    prediction:  0-non 1-charg 2-wave 3-comb
   ISYM   =      2    0-nonsym 1-usesym 2-fastsym
   LCORR  =      T    Harris-Foulkes like correction to forces

[...]
  in kB        1.9678889      1.3548310      1.7578589      0.0000000      0.0000000     -0.3051930

 VOLUME and BASIS-vectors are now :
  energy-cutoff  :      500.00
  volume of cell :      510.48
      direct lattice vectors                 reciprocal lattice vectors
     0.000000000  5.571688386  0.000000000     0.000000000  0.179478810  0.000000000
    -3.457853518  0.000000000  9.417369740    -0.001521746  0.000000000  0.105628010
     9.677617207  0.000000000  0.139422045     0.102787495  0.000000000  0.037741334

  length of vectors
     5.571688386 10.032128576  9.678621457     0.179478810  0.105638971  0.109497385

 FORCES acting on ions
    electron-ion (+dipol)            ewald-force                    non-local-force                 convergence-correction
   0.620E-01 0.218E-12 -.358E+00   -.356E-01 -.430E-13 0.351E+00   -.331E-01 0.000E+00 0.967E-02   -.600E-03 0.725E-13 0.176E-02
   -.782E+01 0.694E-13 -.278E+02   0.788E+01 0.839E-13 0.278E+02   -.256E-01 0.000E+00 0.303E-02   -.206E-01 0.199E-13 0.415E-02
   0.302E+01 -.219E+01 -.241E+02   -.313E+01 0.218E+01 0.243E+02   0.965E-01 0.683E-02 -.165E+00   0.156E-01 -.184E-02 0.609E-02
   -.124E+02 0.125E+02 0.230E+02   0.128E+02 -.127E+02 -.240E+02   -.331E+00 0.186E+00 0.998E+00   -.530E-02 -.151E-01 0.167E-01
   -.124E+02 -.125E+02 0.230E+02   0.128E+02 0.127E+02 -.240E+02   -.331E+00 -.186E+00 0.998E+00   -.530E-02 0.151E-01 0.167E-01
   0.302E+01 0.219E+01 -.241E+02   -.313E+01 -.218E+01 0.243E+02   0.965E-01 -.683E-02 -.165E+00   0.156E-01 0.184E-02 0.609E-02
   -.342E+01 0.104E-11 -.344E+02   0.355E+01 -.977E-13 0.342E+02   -.121E+00 0.000E+00 0.116E+00   -.149E-01 -.560E-13 0.260E-02
   0.536E+01 0.233E-13 -.257E+02   -.548E+01 -.150E-12 0.255E+02   0.110E+00 0.000E+00 0.177E+00   0.122E-01 0.122E-12 0.106E-01
   0.275E+02 0.995E-12 0.302E+02   -.278E+02 -.846E-13 -.311E+02   0.297E+00 0.000E+00 0.834E+00   0.252E-02 -.190E-12 0.148E-01
   0.749E+01 -.169E-13 0.281E+02   -.753E+01 0.588E-13 -.281E+02   0.194E-01 0.000E+00 0.533E-03   0.157E-01 0.615E-12 -.352E-02
   0.117E+02 0.128E+02 -.208E+02   -.121E+02 -.130E+02 0.218E+02   0.333E+00 0.187E+00 -.968E+00   -.273E-02 -.105E-01 -.141E-01
   -.169E+01 -.218E+01 0.218E+02   0.178E+01 0.216E+01 -.220E+02   -.885E-01 0.588E-02 0.139E+00   -.631E-03 0.980E-03 -.323E-02
   -.169E+01 0.218E+01 0.218E+02   0.178E+01 -.216E+01 -.220E+02   -.885E-01 -.588E-02 0.139E+00   -.631E-03 -.980E-03 -.323E-02
   0.117E+02 -.128E+02 -.208E+02   -.121E+02 0.130E+02 0.218E+02   0.333E+00 -.187E+00 -.968E+00   -.273E-02 0.105E-01 -.141E-01
   0.314E+01 0.935E-12 0.348E+02   -.327E+01 0.282E-13 -.347E+02   0.116E+00 0.000E+00 -.112E+00   0.112E-01 -.703E-12 -.266E-02
   -.559E+01 0.110E-14 0.259E+02   0.573E+01 -.238E-12 -.257E+02   -.112E+00 0.000E+00 -.180E+00   -.135E-01 -.395E-12 -.107E-01
   -.277E+02 0.973E-12 -.308E+02   0.280E+02 -.645E-14 0.317E+02   -.301E+00 0.000E+00 -.846E+00   -.510E-02 0.313E-12 -.148E-01
   0.109E+02 0.659E-13 0.399E+03   -.106E+02 -.221E-14 -.426E+03   -.280E+00 0.000E+00 0.266E+02   0.614E-02 0.414E-13 0.861E-02
   0.206E+01 -.111E-12 -.377E+03   -.240E+01 0.203E-13 0.405E+03   0.337E+00 0.000E+00 -.275E+02   0.548E-02 -.188E-12 -.366E-02
   0.789E+00 -.100E-12 -.402E+03   -.880E+00 -.423E-13 0.430E+03   0.744E-01 0.000E+00 -.272E+02   0.661E-02 0.428E-12 -.359E-03
   0.139E+02 0.150E-12 0.383E+03   -.150E+02 0.156E-13 -.410E+03   0.118E+01 0.000E+00 0.275E+02   0.840E-02 -.212E-13 0.177E-01
   -.202E+02 0.291E+02 0.374E+03   0.216E+02 -.311E+02 -.396E+03   -.146E+01 0.208E+01 0.227E+02   -.584E-02 -.136E-01 0.331E-02
   -.821E+01 0.240E+01 -.382E+03   0.826E+01 -.291E+01 0.410E+03   -.451E-01 0.514E+00 -.274E+02   -.585E-02 -.118E-01 -.111E-01
   -.821E+01 -.240E+01 -.382E+03   0.826E+01 0.291E+01 0.410E+03   -.451E-01 -.514E+00 -.274E+02   -.585E-02 0.118E-01 -.111E-01
   -.202E+02 -.291E+02 0.374E+03   0.216E+02 0.311E+02 -.396E+03   -.146E+01 -.208E+01 0.227E+02   -.584E-02 0.136E-01 0.331E-02
   -.121E+01 0.256E+00 -.404E+03   0.627E+00 -.350E+00 0.431E+03   0.580E+00 0.111E+00 -.270E+02   0.514E-02 -.158E-01 0.980E-02
   -.128E+02 -.116E+01 0.374E+03   0.143E+02 0.142E+01 -.401E+03   -.148E+01 -.241E+00 0.271E+02   -.225E-01 -.172E-01 -.185E-02
   -.128E+02 0.116E+01 0.374E+03   0.143E+02 -.142E+01 -.401E+03   -.148E+01 0.241E+00 0.271E+02   -.225E-01 0.172E-01 -.185E-02
   -.121E+01 -.256E+00 -.404E+03   0.627E+00 0.350E+00 0.431E+03   0.580E+00 -.111E+00 -.270E+02   0.514E-02 0.158E-01 0.980E-02
   0.409E+02 0.306E-12 0.377E+03   -.438E+02 0.612E-13 -.399E+03   0.284E+01 0.000E+00 0.225E+02   0.371E-02 -.943E-13 0.656E-02
   0.238E+01 0.492E-13 -.376E+03   -.258E+01 -.714E-13 0.403E+03   0.194E+00 0.000E+00 -.273E+02   0.561E-02 0.207E-12 -.512E-02
   0.629E+01 0.106E-12 -.398E+03   -.620E+01 -.468E-13 0.425E+03   -.967E-01 0.000E+00 -.270E+02   -.252E-02 -.405E-12 0.581E-02
   0.660E+01 0.376E-12 0.391E+03   -.659E+01 -.667E-13 -.418E+03   -.136E-01 0.000E+00 0.272E+02   0.144E-01 -.436E-13 0.105E-01
   -.977E+00 -.715E-13 0.403E+03   0.116E+01 -.294E-14 -.430E+03   -.162E+00 0.000E+00 0.272E+02   -.143E-01 -.130E-12 0.553E-02
   -.134E+02 0.274E-13 -.383E+03   0.145E+02 0.653E-13 0.411E+03   -.107E+01 0.000E+00 -.275E+02   0.100E-02 0.698E-14 -.215E-01
   -.106E+02 0.101E-12 -.400E+03   0.103E+02 0.571E-13 0.426E+03   0.369E+00 0.000E+00 -.266E+02   -.141E-01 -.295E-13 -.595E-02
   -.224E+01 -.815E-13 0.377E+03   0.266E+01 0.648E-13 -.405E+03   -.421E+00 0.000E+00 0.275E+02   0.171E-02 0.520E-13 -.102E-02
   0.208E+01 0.157E+00 0.403E+03   -.156E+01 -.264E+00 -.430E+03   -.514E+00 0.111E+00 0.270E+02   0.828E-02 -.983E-03 0.518E-02
   0.117E+02 -.117E+01 -.374E+03   -.131E+02 0.141E+01 0.401E+03   0.140E+01 -.239E+00 -.271E+02   0.699E-02 -.256E-02 -.118E-01
   0.117E+02 0.117E+01 -.374E+03   -.131E+02 -.141E+01 0.401E+03   0.140E+01 0.239E+00 -.271E+02   0.699E-02 0.256E-02 -.118E-01
   0.208E+01 -.157E+00 0.403E+03   -.156E+01 0.264E+00 -.430E+03   -.514E+00 -.111E+00 0.270E+02   0.828E-02 0.983E-03 0.518E-02
   0.192E+02 0.287E+02 -.373E+03   -.206E+02 -.308E+02 0.396E+03   0.139E+01 0.206E+01 -.227E+02   0.131E-01 -.121E-01 0.580E-02
   0.917E+01 0.229E+01 0.382E+03   -.927E+01 -.278E+01 -.409E+03   0.109E+00 0.507E+00 0.274E+02   0.284E-03 -.991E-02 0.138E-02
   0.917E+01 -.229E+01 0.382E+03   -.927E+01 0.278E+01 -.409E+03   0.109E+00 -.507E+00 0.274E+02   0.284E-03 0.991E-02 0.138E-02
   0.192E+02 -.287E+02 -.373E+03   -.206E+02 0.308E+02 0.396E+03   0.139E+01 -.206E+01 -.227E+02   0.131E-01 0.121E-01 0.580E-02
   -.668E+01 0.122E-12 0.398E+03   0.667E+01 -.753E-13 -.425E+03   0.138E-01 0.000E+00 0.270E+02   -.173E-02 0.627E-13 0.424E-03
   -.614E+01 0.250E-12 -.391E+03   0.603E+01 0.102E-13 0.418E+03   0.123E+00 0.000E+00 -.273E+02   -.901E-02 0.249E-13 -.155E-01
   -.407E+02 0.313E-12 -.376E+03   0.436E+02 0.134E-13 0.399E+03   -.278E+01 0.000E+00 -.224E+02   -.257E-01 0.677E-13 0.258E-02
   -.274E+01 0.152E-12 0.376E+03   0.301E+01 0.415E-14 -.403E+03   -.289E+00 0.000E+00 0.273E+02   0.169E-01 -.114E-12 -.692E-02
   0.450E-01 0.240E-10 -.461E-01   -.131E-12 -.794E-13 -.171E-12   -.519E-01 0.000E+00 0.338E-01   0.255E-02 -.416E-12 0.123E-01

 POSITION                                       TOTAL-FORCE (eV/Angst)
      6.40304      2.78584      2.45650        -0.007244      0.000000      0.003676
      6.22116     -0.00000      9.54145         0.009902      0.000000     -0.003395
      2.41799      1.39172      0.03032         0.000588     -0.010969     -0.016541
      3.80119      1.38924      9.45845        -0.011941      0.003527      0.000174
      3.80119      4.18244      9.45845        -0.011941     -0.003527      0.000174
      2.41799      4.17997      0.03032         0.000588      0.010969     -0.016541
      6.21972      2.78584      9.55057        -0.000137      0.000000     -0.002352
      1.37961     -0.00000      9.47430        -0.005358      0.000000     -0.004578
      1.37665      2.78584      9.43413        -0.002273      0.000000     -0.007002
      3.10786     -0.00000      4.79335        -0.004939      0.000000      0.005885
      5.52864      1.38948      4.87049         0.001403     -0.003808      0.005263
      0.69154      1.39175      4.75420        -0.000766     -0.012276      0.007210
      0.69154      4.17994      4.75420        -0.000766      0.012276      0.007210
      5.52864      4.18221      4.87049         0.001403      0.003808      0.005263
      3.10946      2.78584      4.78414        -0.000996      0.000000      0.004995
     -1.72811     -0.00000      4.72118         0.010754      0.000000      0.008763
     -1.72531      2.78584      4.76190         0.008302      0.000000      0.011093
      4.78046     -0.00000      3.91540         0.004050      0.000000      0.004689
      1.45518     -0.00000      5.68725        -0.001058      0.000000      0.000575
      3.18055     -0.00000      0.96857        -0.009312      0.000000     -0.009168
      3.03955     -0.00000      8.52892         0.004956      0.000000      0.009451
      7.16649      1.41834      3.94099        -0.000022     -0.002628      0.002665
     -0.95486      1.37793      5.66699        -0.003138     -0.000705     -0.005350
     -0.95486      4.19375      5.66699        -0.003138      0.000705     -0.005350
      7.16649      4.15335      3.94099        -0.000022      0.002628      0.002665
      0.76494      1.39202      0.92716        -0.002077      0.001349     -0.012743
      5.46273      1.39377      8.59960        -0.004473      0.000685     -0.001264
      5.46273      4.17792      8.59960        -0.004473     -0.000685     -0.001264
      0.76494      4.17967      0.92716        -0.002077     -0.001349     -0.012743
      4.81342      2.78584      3.89258        -0.000302      0.000000      0.003741
      1.45798      2.78584      5.68652         0.001802      0.000000      0.004707
      3.19472      2.78584      0.95507        -0.002082      0.000000     -0.008652
      3.03872      2.78584      8.51792         0.003425      0.000000      0.011559
     -0.06929     -0.00000      3.81490         0.003986      0.000000      0.008364
      6.28865     -0.00000      5.80103        -0.000119      0.000000     -0.007297
      8.00541     -0.00000      0.99716        -0.000718      0.000000      0.002889
     -1.80189     -0.00000      8.51385        -0.001356      0.000000     -0.007586
      2.34144      1.39198      3.85375         0.006900      0.002831      0.009001
      3.86928      1.39381      5.73219         0.002207      0.001973      0.001056
      3.86928      4.17788      5.73219         0.002207     -0.001973      0.001056
      2.34144      4.17971      3.85375         0.006900     -0.002831      0.009001
      5.62346      1.41794      0.97358        -0.003304      0.000723      0.000319
      0.60357      1.37797      8.53180         0.005846      0.002202     -0.001965
      0.60357      4.19371      8.53180         0.005846     -0.002202     -0.001965
      5.62346      4.15375      0.97358        -0.003304     -0.000723      0.000319
     -0.08416      2.78584      3.82876         0.004153      0.000000      0.003341
      6.28923      2.78584      5.81217        -0.000282      0.000000     -0.001392
      7.97322      2.78584      1.01957         0.002531      0.000000      0.004258
     -1.80503      2.78584      8.51465        -0.000130      0.000000     -0.012215
    total drift:                               -0.004347      0.000000      0.000022

  FREE ENERGIE OF THE ION-ELECTRON SYSTEM (eV)
  free  energy   TOTEN  =      -308.4869110428 eV

  energy  without entropy=     -308.4649960961  energy(sigma->0) =     -308.47595357

 d Force = 0.9702986E-03[ 0.657E-03, 0.128E-02]  d Energy = 0.1617917E-02-0.648E-03
 d Force =-0.2358956E+02[-0.237E+02,-0.235E+02]  d Ewald  =-0.5942927E+02 0.358E+02

 Quasi-Newton relaxation of ions (Broydens 2nd method)
  g(Force)  = 0.204E-03   g(Stress)= 0.898E-03

 retain information from N=  3 steps
 eigenvalues of (default step * inverse Hessian matrix)
  average eigenvalue of G=   2.3476
 eigenvalue spectrum of G is  3.2072  3.2072  0.6283

 reached required accuracy - stopping structural energy minimisation

volume of typ            1:     1.5 %

[...]

volume of typ            3:    10.2 %

total charge

# of ion       s       p       d       tot
    1        2.060   0.193   0.073   2.326
    2        0.303   0.429   7.827   8.559
    3        0.305   0.433   7.824   8.562
    4        0.306   0.436   7.828   8.569
    5        0.306   0.436   7.828   8.569
    6        0.305   0.433   7.824   8.562
    7        0.299   0.420   7.830   8.548
    8        0.296   0.413   7.828   8.537
    9        0.303   0.428   7.834   8.565
   10        0.303   0.429   7.827   8.559
   11        0.306   0.436   7.828   8.569
   12        0.305   0.433   7.824   8.562
   13        0.305   0.433   7.824   8.562
   14        0.306   0.436   7.828   8.569
   15        0.298   0.420   7.829   8.547
   16        0.296   0.414   7.827   8.537
   17        0.303   0.428   7.833   8.565
   18        1.282   2.734   0.008   4.024
   19        1.284   2.730   0.009   4.022
   20        1.284   2.728   0.008   4.020
   21        1.285   2.726   0.008   4.019
   22        1.272   2.763   0.008   4.042
   23        1.284   2.727   0.008   4.020
   24        1.284   2.727   0.008   4.020
   25        1.272   2.763   0.008   4.042
   26        1.284   2.729   0.008   4.021
   27        1.284   2.729   0.008   4.022
   28        1.284   2.729   0.008   4.022
   29        1.284   2.729   0.008   4.021
   30        1.272   2.760   0.008   4.040
   31        1.285   2.727   0.008   4.020
   32        1.283   2.730   0.008   4.022
   33        1.284   2.725   0.008   4.018
   34        1.284   2.728   0.008   4.020
   35        1.284   2.726   0.008   4.019
   36        1.282   2.734   0.008   4.024
   37        1.284   2.730   0.009   4.023
   38        1.284   2.729   0.008   4.021
   39        1.284   2.730   0.008   4.022
   40        1.284   2.730   0.008   4.022
   41        1.284   2.729   0.008   4.021
   42        1.272   2.762   0.008   4.042
   43        1.284   2.727   0.008   4.020
   44        1.284   2.727   0.008   4.020
   45        1.272   2.762   0.008   4.042
   46        1.283   2.731   0.008   4.022
   47        1.284   2.726   0.008   4.018
   48        1.272   2.761   0.008   4.041
   49        1.285   2.727   0.008   4.020
tot          47.92   94.57  125.58  268.06

magnetization (x)

# of ion       s       p       d       tot
    1       -0.003   0.000  -0.000  -0.003
    2       -0.000   0.000  -0.056  -0.056
    3        0.000  -0.001   0.008   0.007
    4        0.000  -0.000   0.008   0.007
    5        0.000  -0.000   0.008   0.007
    6        0.000  -0.001   0.008   0.007
    7       -0.000   0.000  -0.097  -0.097
    8       -0.000   0.000  -0.099  -0.099
    9       -0.000   0.000  -0.066  -0.066
   10       -0.000   0.000  -0.056  -0.056
   11        0.000  -0.000   0.008   0.007
   12        0.000  -0.001   0.008   0.007
   13        0.000  -0.001   0.008   0.007
   14        0.000  -0.000   0.008   0.007
   15       -0.000   0.000  -0.098  -0.098
   16       -0.000   0.000  -0.098  -0.098
   17       -0.000   0.000  -0.065  -0.065
   18       -0.001  -0.003  -0.000  -0.003
   19       -0.001  -0.003  -0.000  -0.003
   20       -0.001  -0.008  -0.000  -0.008
   21       -0.001  -0.007  -0.000  -0.008
   22       -0.001  -0.000  -0.000  -0.001
   23       -0.001  -0.001  -0.000  -0.002
   24       -0.001  -0.001  -0.000  -0.002
   25       -0.001  -0.000  -0.000  -0.001
   26       -0.001  -0.000  -0.000  -0.001
   27       -0.001  -0.000  -0.000  -0.001
   28       -0.001  -0.000  -0.000  -0.001
   29       -0.001  -0.000  -0.000  -0.001
   30       -0.001  -0.006  -0.000  -0.007
   31       -0.001  -0.007  -0.000  -0.008
   32       -0.001  -0.005  -0.000  -0.005
   33       -0.001  -0.004  -0.000  -0.004
   34       -0.001  -0.007  -0.000  -0.008
   35       -0.001  -0.007  -0.000  -0.008
   36       -0.001  -0.003  -0.000  -0.003
   37       -0.001  -0.003  -0.000  -0.003
   38       -0.001  -0.000  -0.000  -0.001
   39       -0.001  -0.000  -0.000  -0.001
   40       -0.001  -0.000  -0.000  -0.001
   41       -0.001  -0.000  -0.000  -0.001
   42       -0.001  -0.000  -0.000  -0.001
   43       -0.001  -0.001  -0.000  -0.002
   44       -0.001  -0.001  -0.000  -0.002
   45       -0.001  -0.000  -0.000  -0.001
   46       -0.001  -0.004  -0.000  -0.005
   47       -0.001  -0.004  -0.000  -0.004
   48       -0.001  -0.006  -0.000  -0.007
   49       -0.001  -0.007  -0.000  -0.008
tot          -0.03   -0.09   -0.57   -0.70