 vasp.5.4.4.18Apr17-6-g9f103f2a35 (build May 12 2020 05:39:39) gamma-only

 MD_VERSION_INFO: Compiled 2020-05-12T12:39:39-UTC in devlin.sd.materialsdesign.
 com:/home/medea2/data/build/wwolf/vasp-gpu5.4.4/13047/x86_64/src/src/build/gam
 from svn 13047

 executed on                        Lin64 date 2023.03.07  06:02:11

 INCAR:
 POTCAR:    PAW_PBE Li_sv 10Sep2004
 POTCAR:    PAW_PBE Ni 02Aug2007
 POTCAR:    PAW_PBE O 08Apr2002

 POTCAR:    PAW_PBE Li_sv 10Sep2004

 POTCAR:    PAW_PBE Ni 02Aug2007

 POTCAR:    PAW_PBE O 08Apr2002

 Optimization of the real space projectors (new method)

 maximal supplied QI-value         = 22.11
 optimisation between [QCUT,QGAM] = [ 11.28, 22.77] = [ 35.61,145.23] Ry
 Optimized for a Real-space Cutoff    1.10 Angstroem

   l    n(q)    QCUT    max X(q) W(low)/X(q) W(high)/X(q)  e(spline)
   0      7    11.276    10.506    0.54E-04    0.58E-04    0.16E-07
   0      7    11.276     8.367    0.11E-03    0.14E-03    0.35E-07
   1      7    11.276     8.983    0.23E-03    0.43E-03    0.86E-07
 Optimization of the real space projectors (new method)

[...]

   l    n(q)    QCUT    max X(q) W(low)/X(q) W(high)/X(q)  e(spline)
   2      9    11.376    60.317    0.17E-03    0.16E-04    0.16E-06
   2      9    11.376    55.921    0.17E-03    0.16E-04    0.17E-06
   0     10    11.376    51.690    0.45E-04    0.60E-04    0.21E-06
   0     10    11.376    30.015    0.37E-04    0.55E-04    0.19E-06
   1     10    11.376    18.849    0.83E-04    0.11E-03    0.92E-07
   1     10    11.376    14.624    0.69E-04    0.92E-04    0.82E-07
 Optimization of the real space projectors (new method)

 maximal supplied QI-value         = 24.76
 optimisation between [QCUT,QGAM] = [ 11.39, 22.77] = [ 36.31,145.25] Ry
 Optimized for a Real-space Cutoff    1.10 Angstroem

   l    n(q)    QCUT    max X(q) W(low)/X(q) W(high)/X(q)  e(spline)
   0      7    11.387    20.381    0.22E-03    0.48E-03    0.18E-06
   0      7    11.387    15.268    0.22E-03    0.52E-03    0.19E-06
   1      7    11.387     5.964    0.22E-03    0.73E-03    0.24E-06
   1      7    11.387     5.382    0.19E-03    0.60E-03    0.21E-06

  PAW_PBE Li_sv 10Sep2004               :
  PAW_PBE Ni 02Aug2007                  :
  PAW_PBE O 08Apr2002                   :

 POSCAR: ce17534_1
  positions in direct lattice
 exchange correlation table for  LEXCH =       14
   RHO(1)=    0.500       N(1)  =     2000
   RHO(2)=  100.500       N(2)  =     4000

 ion  position               nearest neighbor table
   1  0.500  0.249  0.751-  49 2.14  26 2.16  23 2.16  31 2.16  46 2.16  43 2.16
   2  0.500  0.751  0.249-  50 2.14  25 2.16  24 2.16  32 2.16  45 2.16  44 2.16
   3  0.000  0.000  0.000-  27 1.85  28 1.85  29 1.85  30 1.85  37 1.88  38 1.88   8 2.78   8 2.78
                             4 2.79   5 2.79   6 2.79   7 2.79
   4  0.249  0.007  0.252-  21 1.83  38 1.84  50 1.85  33 1.85  27 1.89  44 1.90   7 2.77   7 2.79
                             3 2.79   9 2.80   8 2.80  10 2.80
   5  0.249  0.993  0.748-  22 1.83  37 1.84  49 1.85  34 1.85  28 1.89  43 1.90   6 2.77   6 2.79
                             3 2.79   9 2.80   8 2.80  10 2.80
   6  0.751  0.993  0.748-  22 1.83  37 1.84  49 1.85  34 1.85  29 1.89  46 1.90   5 2.77   5 2.79
                             3 2.79   9 2.80   8 2.80  10 2.80
   7  0.751  0.007  0.252-  21 1.83  38 1.84  50 1.85  33 1.85  30 1.89  45 1.90   4 2.77   4 2.79
                             3 2.79   9 2.80   8 2.80  10 2.80
   8  0.500  0.000  0.000-  27 1.85  28 1.85  29 1.85  30 1.85  49 1.91  50 1.91   3 2.78   3 2.78
                             7 2.80   4 2.80   5 2.80   6 2.80
   9  0.000  0.000  0.500-  43 1.86  44 1.86  45 1.86  46 1.86  21 1.92  22 1.92  10 2.78  10 2.78
                             4 2.80   5 2.80   6 2.80   7 2.80
  10  0.500  0.000  0.500-  43 1.84  44 1.84  45 1.84  46 1.84  33 1.90  34 1.90   9 2.78   9 2.78
                             4 2.80   5 2.80   6 2.80   7 2.80
  11  0.000  0.500  0.500-  39 1.85  40 1.85  41 1.85  42 1.85  19 1.88  20 1.88  16 2.78  16 2.78
                            12 2.79  13 2.79  14 2.79  15 2.79
  12  0.249  0.505  0.752-  36 1.84  19 1.84  31 1.85  48 1.85  40 1.89  23 1.90  15 2.77  15 2.79
                            11 2.79  17 2.80  16 2.80  18 2.80
  13  0.249  0.495  0.248-  35 1.84  20 1.84  32 1.85  47 1.85  39 1.89  24 1.90  14 2.77  14 2.79
                            11 2.79  17 2.80  16 2.80  18 2.80
  14  0.751  0.495  0.248-  35 1.84  20 1.84  32 1.85  47 1.85  42 1.89  25 1.90  13 2.77  13 2.79
                            11 2.79  17 2.80  16 2.80  18 2.80
  15  0.751  0.505  0.752-  36 1.84  19 1.84  31 1.85  48 1.85  41 1.89  26 1.90  12 2.77  12 2.79
                            11 2.79  17 2.80  16 2.80  18 2.80
  16  0.500  0.500  0.500-  39 1.84  40 1.84  41 1.84  42 1.84  31 1.92  32 1.92  11 2.78  11 2.78
                            15 2.80  12 2.80  13 2.80  14 2.80
  17  0.000  0.500  0.000-  23 1.86  24 1.86  25 1.86  26 1.86  35 1.92  36 1.92  18 2.78  18 2.78
                            12 2.80  13 2.80  14 2.80  15 2.80
  18  0.500  0.500  0.000-  23 1.84  24 1.84  25 1.84  26 1.84  47 1.90  48 1.90  17 2.78  17 2.78
                            12 2.80  13 2.80  14 2.80  15 2.80
  19  0.000  0.407  0.639-  12 1.84  15 1.84  11 1.88
  20  0.000  0.593  0.361-  13 1.84  14 1.84  11 1.88
  21  0.000  0.103  0.365-   4 1.83   7 1.83   9 1.92
  22  0.000  0.897  0.635-   5 1.83   6 1.83   9 1.92
  23  0.252  0.403  0.885-  18 1.84  17 1.86  12 1.90   1 2.16
  24  0.252  0.597  0.115-  18 1.84  17 1.86  13 1.90   2 2.16
  25  0.748  0.597  0.115-  18 1.84  17 1.86  14 1.90   2 2.16
  26  0.748  0.403  0.885-  18 1.84  17 1.86  15 1.90   1 2.16
  27  0.250  0.100  0.112-   8 1.85   3 1.85   4 1.89
  28  0.250  0.900  0.888-   8 1.85   3 1.85   5 1.89
  29  0.750  0.900  0.888-   8 1.85   3 1.85   6 1.89
  30  0.750  0.100  0.112-   8 1.85   3 1.85   7 1.89
  31  0.500  0.404  0.641-  12 1.85  15 1.85  16 1.92   1 2.16
  32  0.500  0.596  0.359-  13 1.85  14 1.85  16 1.92   2 2.16
  33  0.500  0.103  0.367-   4 1.85   7 1.85  10 1.90
  34  0.500  0.897  0.633-   5 1.85   6 1.85  10 1.90
  35  0.000  0.398  0.135-  13 1.84  14 1.84  17 1.92
  36  0.000  0.602  0.865-  12 1.84  15 1.84  17 1.92
  37  0.000  0.092  0.860-   5 1.84   6 1.84   3 1.88
  38  0.000  0.908  0.140-   4 1.84   7 1.84   3 1.88
  39  0.250  0.401  0.388-  16 1.84  11 1.85  13 1.89
  40  0.250  0.599  0.612-  16 1.84  11 1.85  12 1.89
  41  0.750  0.599  0.612-  16 1.84  11 1.85  15 1.89
  42  0.750  0.401  0.388-  16 1.84  11 1.85  14 1.89
  43  0.252  0.096  0.615-  10 1.84   9 1.86   5 1.90   1 2.16
  44  0.252  0.904  0.385-  10 1.84   9 1.86   4 1.90   2 2.16
  45  0.748  0.904  0.385-  10 1.84   9 1.86   7 1.90   2 2.16
  46  0.748  0.096  0.615-  10 1.84   9 1.86   6 1.90   1 2.16
  47  0.500  0.398  0.134-  13 1.85  14 1.85  18 1.90
  48  0.500  0.602  0.866-  12 1.85  15 1.85  18 1.90
  49  0.500  0.094  0.858-   5 1.85   6 1.85   8 1.91   1 2.14
  50  0.500  0.906  0.142-   4 1.85   7 1.85   8 1.91   2 2.14

  LATTYP: Found a simple monoclinic cell.
 ALAT       =    11.4710862820
 B/A-ratio  =     0.4851632136
 C/A-ratio  =     1.6817419609
 COS(beta)  =    -0.9086790038

  Lattice vectors:

 A1 = (  -6.2480935632,   0.0000000000,  -9.6201427908)
 A2 = (   0.0000000000,  -5.5653490846,   0.0000000000)
 A3 = (   2.7936179111,   0.0000000000,  19.0880614083)

Analysis of symmetry for initial positions (statically):
 Subroutine PRICEL returns:
 Original cell was already a primitive cell.

 Routine SETGRP: Setting up the symmetry group for a
 simple monoclinic supercell.

 Subroutine GETGRP returns: Found  4 space group operations
 (whereof  4 operations were pure point group operations)
 out of a pool of  4 trial point group operations.

The static configuration has the point symmetry C_2h.

Analysis of symmetry for dynamics (positions and initial velocities):
 Subroutine PRICEL returns:
 Original cell was already a primitive cell.

[...]

The dynamic configuration has the point symmetry C_2h.

Analysis of structural, dynamic, and magnetic symmetry:
 Subroutine PRICEL returns:
 Original cell was already a primitive cell.

 Routine SETGRP: Setting up the symmetry group for a
 simple monoclinic supercell.

 Subroutine GETGRP returns: Found  4 space group operations
 (whereof  4 operations were pure point group operations)
 out of a pool of  4 trial point group operations.

The magnetic configuration has the point symmetry C_2h.

 Subroutine INISYM returns: Found  4 space group operations
 (whereof  4 operations are pure point group operations),
 and found     1 'primitive' translations

 KPOINTS: Automatic mesh

Automatic generation of k-mesh.
Space group operators:
 irot       det(A)        alpha          n_x          n_y          n_z        tau_x        tau_y        tau_z
    1     1.000000     0.000000     1.000000     0.000000     0.000000     0.000000     0.000000     0.000000
    2    -1.000000     0.000000     1.000000     0.000000     0.000000     0.000000     0.000000     0.000000
    3     1.000000   180.000000     0.000000     1.000000     0.000000     0.000000     0.000000     0.000000
    4    -1.000000   180.000000     0.000000     1.000000     0.000000     0.000000     0.000000     0.000000

 Subroutine IBZKPT returns following result:

 Found      1 irreducible k-points:

 Following reciprocal coordinates:
            Coordinates               Weight
  0.000000  0.000000  0.000000      1.000000

 Following cartesian coordinates:
            Coordinates               Weight
  0.000000  0.000000  0.000000      1.000000

 SYSTEM =  unknown system
 POSCAR =  ce17534_1

 Startparameter for this run:
   NWRITE =      1    write-flag & timer
   PREC   = accura    normal or accurate (medium, high low for compatibility)
   ISTART =      0    job   : 0-new  1-cont  2-samecut
   ICHARG =      2    charge: 1-file 2-atom 10-const
   ISPIN  =      2    spin polarized calculation?
   LNONCOLLINEAR =      F non collinear calculations
   LSORBIT =      F    spin-orbit coupling
   INIWAV =      1    electr: 0-lowe 1-rand  2-diag
   LASPH  =      F    aspherical Exc in radial PAW
   METAGGA=      F    non-selfconsistent MetaGGA calc.

 Electronic Relaxation 1
   ENCUT  =  500.0 eV  36.75 Ry    6.06 a.u.  10.15 18.38 17.69*2*pi/ulx,y,z
   ENINI  =  500.0     initial cutoff
   ENAUG  =  628.9 eV  augmentation charge cutoff
   NELM   =     80;   NELMIN=  2; NELMDL= -5     # of ELM steps
   EDIFF  = 0.1E-04   stopping-criterion for ELM
   LREAL  =      T    real-space projection
   NLSPLINE    = F    spline interpolate recip. space projectors
   LCOMPAT=      F    compatible to vasp.4.4
   GGA_COMPAT  = T    GGA compatible to vasp.4.4-vasp.4.6
   LMAXPAW     = -100 max onsite density
   LMAXMIX     =    2 max onsite mixed and CHGCAR
   VOSKOWN=      1    Vosko Wilk Nusair interpolation
   ROPT   =   -0.00025  -0.00025  -0.00025
 Ionic relaxation
   EDIFFG = -.2E-01   stopping-criterion for IOM
   NSW    =     20    number of steps for IOM
   NBLOCK =      1;   KBLOCK =     20    inner block; outer block
[...]
     0.000000000  5.566665270  0.000000000     0.000000000  0.179640764  0.000000000
    -3.451050535  0.000000000  9.478138665    -0.001667384  0.000000000  0.104898842
     9.697764841  0.000000000  0.154147563     0.102523188  0.000000000  0.037329345

  length of vectors
     5.566665270 10.086865834  9.698989864     0.179640764  0.104912093  0.109107672

 FORCES acting on ions
    electron-ion (+dipol)            ewald-force                    non-local-force                 convergence-correction
   -.838E-02 0.199E-12 -.113E+01   0.486E-01 -.324E-15 0.111E+01   -.491E-01 0.000E+00 0.267E-01   -.348E-03 -.133E-12 -.955E-03
   0.838E-02 0.212E-12 0.113E+01   -.486E-01 0.114E-13 -.111E+01   0.491E-01 0.000E+00 -.267E-01   0.348E-03 -.313E-12 0.955E-03
   -.245E-12 -.985E-15 0.104E-13   -.782E-12 0.331E-12 -.377E-12   0.000E+00 0.000E+00 0.775E-25   -.227E-11 -.204E-12 0.136E-11
   0.157E+02 0.987E+01 -.476E+02   -.162E+02 -.100E+02 0.487E+02   0.449E+00 0.180E+00 -.115E+01   0.708E-02 -.941E-02 -.431E-02
   -.157E+02 0.987E+01 0.476E+02   0.162E+02 -.100E+02 -.487E+02   -.449E+00 0.180E+00 0.115E+01   -.708E-02 -.941E-02 0.431E-02
   -.157E+02 -.987E+01 0.476E+02   0.162E+02 0.100E+02 -.487E+02   -.449E+00 -.180E+00 0.115E+01   -.708E-02 0.941E-02 0.431E-02
   0.157E+02 -.987E+01 -.476E+02   -.162E+02 0.100E+02 0.487E+02   0.449E+00 -.180E+00 -.115E+01   0.708E-02 0.941E-02 -.431E-02
   -.141E-10 0.913E-12 -.200E-11   -.540E-12 -.282E-12 -.270E-12   -.414E-24 0.000E+00 0.168E-24   -.233E-11 0.208E-12 0.148E-11
   0.158E-11 -.110E-13 0.397E-13   0.152E-11 0.168E-12 0.341E-12   -.162E-26 0.000E+00 0.583E-26   0.274E-11 -.580E-12 0.114E-12
   0.112E-11 0.912E-12 -.203E-11   0.101E-11 0.856E-13 0.231E-12   0.000E+00 0.000E+00 0.258E-25   0.301E-11 0.505E-12 0.909E-13
   0.167E-11 -.193E-13 0.307E-13   -.248E-10 0.209E-13 0.220E-10   0.000E+00 0.000E+00 -.152E-24   0.177E-12 0.193E-12 -.292E-12
   0.138E+02 0.101E+02 -.434E+02   -.142E+02 -.102E+02 0.445E+02   0.449E+00 0.177E+00 -.110E+01   0.191E-02 -.609E-02 -.201E-02
   -.138E+02 0.101E+02 0.434E+02   0.142E+02 -.102E+02 -.445E+02   -.449E+00 0.177E+00 0.110E+01   -.191E-02 -.609E-02 0.201E-02
   -.138E+02 -.101E+02 0.434E+02   0.142E+02 0.102E+02 -.445E+02   -.449E+00 -.177E+00 0.110E+01   -.191E-02 0.609E-02 0.201E-02
   0.138E+02 -.101E+02 -.434E+02   -.142E+02 0.102E+02 0.445E+02   0.449E+00 -.177E+00 -.110E+01   0.191E-02 0.609E-02 -.201E-02
   -.115E-11 0.976E-12 0.170E-11   0.300E-12 -.137E-12 0.234E-11   0.000E+00 0.000E+00 -.283E-26   0.368E-12 -.253E-12 -.485E-12
   -.233E-13 -.153E-13 -.955E-14   -.686E-11 -.111E-13 -.259E-11   0.000E+00 0.000E+00 0.207E-24   -.827E-12 0.851E-12 -.621E-12
   -.101E-11 0.995E-12 -.396E-11   -.302E-11 0.143E-12 -.115E-11   0.000E+00 0.000E+00 0.929E-25   -.954E-13 -.835E-12 -.114E-11
   0.418E+01 -.356E-13 0.388E+03   -.363E+01 -.420E-13 -.415E+03   -.549E+00 -.529E-22 0.266E+02   -.422E-02 -.357E-13 -.139E-01
   -.418E+01 0.874E-13 -.388E+03   0.363E+01 -.564E-14 0.415E+03   0.549E+00 0.529E-22 -.266E+02   0.422E-02 0.204E-12 0.139E-01
   -.108E+02 -.121E-12 -.396E+03   0.121E+02 -.105E-12 0.423E+03   -.136E+01 0.000E+00 -.270E+02   0.176E-01 0.117E-11 -.354E-03
   0.108E+02 0.119E-12 0.396E+03   -.121E+02 -.759E-13 -.423E+03   0.136E+01 0.000E+00 0.270E+02   -.176E-01 -.611E-12 0.354E-03
   -.788E+01 0.320E+02 0.370E+03   0.830E+01 -.346E+02 -.392E+03   -.437E+00 0.256E+01 0.228E+02   0.126E-01 -.152E-01 -.722E-03
   0.788E+01 0.320E+02 -.370E+03   -.830E+01 -.346E+02 0.392E+03   0.437E+00 0.256E+01 -.228E+02   -.126E-01 -.152E-01 0.722E-03
   0.788E+01 -.320E+02 -.370E+03   -.830E+01 0.346E+02 0.392E+03   0.437E+00 -.256E+01 -.228E+02   -.126E-01 0.152E-01 0.722E-03
   -.788E+01 -.320E+02 0.370E+03   0.830E+01 0.346E+02 -.392E+03   -.437E+00 -.256E+01 0.228E+02   0.126E-01 0.152E-01 -.722E-03
   0.850E+01 -.110E+01 -.390E+03   -.963E+01 0.122E+01 0.417E+03   0.114E+01 -.134E+00 -.269E+02   -.249E-02 0.664E-02 0.591E-02
   -.850E+01 -.110E+01 0.390E+03   0.963E+01 0.122E+01 -.417E+03   -.114E+01 -.134E+00 0.269E+02   0.249E-02 0.664E-02 -.591E-02
   -.850E+01 0.110E+01 0.390E+03   0.963E+01 -.122E+01 -.417E+03   -.114E+01 0.134E+00 0.269E+02   0.249E-02 -.664E-02 -.591E-02
   0.850E+01 0.110E+01 -.390E+03   -.963E+01 -.122E+01 0.417E+03   0.114E+01 0.134E+00 -.269E+02   -.249E-02 -.664E-02 0.591E-02
   0.340E+02 0.252E-12 0.365E+03   -.366E+02 -.774E-14 -.387E+03   0.264E+01 0.000E+00 0.223E+02   -.173E-01 0.320E-13 -.871E-02
   -.340E+02 0.200E-12 -.365E+03   0.366E+02 -.963E-14 0.387E+03   -.264E+01 0.000E+00 -.223E+02   0.173E-01 -.255E-12 0.871E-02
   0.334E+01 0.212E-12 -.400E+03   -.315E+01 -.208E-13 0.427E+03   -.203E+00 0.000E+00 -.267E+02   0.332E-02 -.119E-11 0.105E-01
   -.334E+01 -.657E-13 0.400E+03   0.315E+01 -.216E-13 -.427E+03   0.203E+00 0.000E+00 0.267E+02   -.332E-02 0.561E-12 -.105E-01
   0.101E+02 0.896E-13 0.396E+03   -.113E+02 0.465E-13 -.423E+03   0.118E+01 0.529E-22 0.271E+02   -.227E-01 0.479E-12 -.525E-02
   -.101E+02 -.371E-13 -.396E+03   0.113E+02 0.727E-13 0.423E+03   -.118E+01 -.529E-22 -.271E+02   0.227E-01 -.104E-11 0.525E-02
   -.370E+01 0.152E-12 -.388E+03   0.300E+01 -.293E-15 0.415E+03   0.701E+00 -.132E-22 -.266E+02   -.491E-02 -.939E-12 0.559E-02
   0.370E+01 -.114E-12 0.388E+03   -.300E+01 0.406E-13 -.415E+03   -.701E+00 0.132E-22 0.266E+02   0.491E-02 0.250E-12 -.559E-02
   -.694E+01 -.117E+01 0.390E+03   0.796E+01 0.129E+01 -.417E+03   -.103E+01 -.136E+00 0.269E+02   0.105E-01 0.890E-02 -.553E-02
   0.694E+01 -.117E+01 -.390E+03   -.796E+01 0.129E+01 0.417E+03   0.103E+01 -.136E+00 -.269E+02   -.105E-01 0.890E-02 0.553E-02
   0.694E+01 0.117E+01 -.390E+03   -.796E+01 -.129E+01 0.417E+03   0.103E+01 0.136E+00 -.269E+02   -.105E-01 -.890E-02 0.553E-02
   -.694E+01 0.117E+01 0.390E+03   0.796E+01 -.129E+01 -.417E+03   -.103E+01 0.136E+00 0.269E+02   0.105E-01 -.890E-02 -.553E-02
   0.615E+01 0.318E+02 -.369E+03   -.649E+01 -.343E+02 0.392E+03   0.339E+00 0.253E+01 -.229E+02   -.689E-02 -.172E-01 -.303E-02
   -.615E+01 0.318E+02 0.369E+03   0.649E+01 -.343E+02 -.392E+03   -.339E+00 0.253E+01 0.229E+02   0.689E-02 -.172E-01 0.303E-02
   -.615E+01 -.318E+02 0.369E+03   0.649E+01 0.343E+02 -.392E+03   -.339E+00 -.253E+01 0.229E+02   0.689E-02 0.172E-01 0.303E-02
   0.615E+01 -.318E+02 -.369E+03   -.649E+01 0.343E+02 0.392E+03   0.339E+00 -.253E+01 -.229E+02   -.689E-02 0.172E-01 -.303E-02
   -.393E+01 0.165E-12 0.401E+03   0.391E+01 0.125E-13 -.427E+03   0.368E-01 0.000E+00 0.267E+02   -.785E-02 -.543E-12 -.134E-01
   0.393E+01 0.276E-12 -.401E+03   -.391E+01 0.997E-14 0.427E+03   -.368E-01 0.000E+00 -.267E+02   0.785E-02 0.102E-11 0.134E-01
   -.338E+02 -.178E-13 -.364E+03   0.363E+02 0.241E-13 0.386E+03   -.252E+01 0.000E+00 -.221E+02   0.772E-02 0.891E-12 0.123E-02
   0.338E+02 0.206E-12 0.364E+03   -.363E+02 -.121E-13 -.386E+03   0.252E+01 0.000E+00 0.221E+02   -.772E-02 -.287E-12 -.123E-02
   0.216E-11 0.135E-10 0.206E-11   0.469E-12 0.205E-12 0.455E-12   0.444E-15 0.444E-15 -.355E-14   -.774E-12 -.724E-12 0.291E-11

 POSITION                                       TOTAL-FORCE (eV/Angst)
      6.42594      2.78333      2.47903        -0.009236      0.000000      0.010851
     -0.17923      2.78333      7.15326         0.009236     -0.000000     -0.010851
      0.00000      0.00000      0.00000         0.000000      0.000000     -0.000000
      2.42241      1.38646      0.10100        -0.003965      0.001304     -0.019311
      3.82430      1.38646      9.53129         0.003965      0.001304      0.019311
      3.82430      4.18021      9.53129         0.003965     -0.001304      0.019311
      2.42241      4.18021      0.10100        -0.003965     -0.001304     -0.019311
      0.00000      2.78333      0.00000         0.000000      0.000000     -0.000000
      4.84888      0.00000      0.07707         0.000000      0.000000     -0.000000
      4.84888      2.78333      0.07707         0.000000      0.000000     -0.000000
      3.12336      0.00000      4.81614         0.000000      0.000000     -0.000000
      5.54575      1.38667      4.90588        -0.001836     -0.000032     -0.005411
      0.70097      1.38667      4.72641         0.001836     -0.000032      0.005411
      0.70097      4.18000      4.72641         0.001836      0.000032      0.005411
      5.54575      4.18000      4.90588        -0.001836      0.000032     -0.005411
      3.12336      2.78333      4.81614         0.000000      0.000000     -0.000000
     -1.72553      0.00000      4.73907         0.000000      0.000000     -0.000000
     -1.72553      2.78333      4.73907         0.000000      0.000000     -0.000000
      4.79312      0.00000      3.95392         0.001494      0.000000      0.001732
      1.45360      0.00000      5.67837        -0.001494      0.000000     -0.001732
      3.18533      0.00000      1.03194        -0.004616      0.000000     -0.013245
      3.06138      0.00000      8.60034         0.004616      0.000000      0.013245
      7.19084      1.40255      3.95637         0.003233     -0.000608      0.005948
     -0.94412      1.40255      5.67592        -0.003233     -0.000608     -0.005948
     -0.94412      4.16411      5.67592        -0.003233      0.000608     -0.005948
      7.19084      4.16411      3.95637         0.003233      0.000608      0.005948
      0.74258      1.39200      0.95947         0.006503      0.000440     -0.014396
      5.50414      1.39200      8.67282        -0.006503      0.000440      0.014396
      5.50414      4.17467      8.67282        -0.006503     -0.000440      0.014396
      0.74258      4.17467      0.95947         0.006503     -0.000440     -0.014396
      4.82605      2.78333      3.93100         0.002583      0.000000      0.001969
      1.42066      2.78333      5.70128        -0.002583      0.000000     -0.001969
      3.20552      2.78333      1.02771        -0.008443     -0.000000     -0.016964
      3.04120      2.78333      8.60458         0.008443      0.000000      0.016964
     -0.05964      0.00000      3.79375         0.004278      0.000000      0.008043
      6.30636      0.00000      5.83854        -0.004278      0.000000     -0.008043
      8.02558      0.00000      1.00680        -0.002130      0.000000      0.004763
     -1.77887      0.00000      8.62548         0.002130      0.000000     -0.004763
      2.37517      1.39213      3.86213         0.000479     -0.000152      0.008696
      3.87155      1.39213      5.77015        -0.000479     -0.000152     -0.008696
      3.87155      4.17454      5.77015        -0.000479      0.000152     -0.008696
      2.37517      4.17454      3.86213         0.000479      0.000152      0.008696
      5.63470      1.40242      1.00898        -0.005623     -0.000704     -0.002894
      0.61201      1.40242      8.62331         0.005623     -0.000704      0.002894
      0.61201      4.16425      8.62331         0.005623      0.000704      0.002894
      5.63470      4.16425      1.00898        -0.005623      0.000704     -0.002894
     -0.07909      2.78333      3.79759         0.003418     -0.000000      0.007726
      6.32580      2.78333      5.83470        -0.003418      0.000000     -0.007726
      7.99432      2.78333      1.02892        -0.002436     -0.000000      0.008106
     -1.74760      2.78333      8.60336         0.002436      0.000000     -0.008106
    total drift:                                0.000000      0.000000      0.000000

  FREE ENERGIE OF THE ION-ELECTRON SYSTEM (eV)
  free  energy   TOTEN  =      -313.8780538154 eV

  energy  without entropy=     -313.8647081521  energy(sigma->0) =     -313.87138098

 d Force = 0.1685822E-03[ 0.163E-03, 0.174E-03]  d Energy = 0.2837851E-03-0.115E-03
 d Force =-0.2545624E+01[-0.255E+01,-0.255E+01]  d Ewald  =-0.8497289E+01 0.595E+01

 Quasi-Newton relaxation of ions (Broydens 2nd method)
  g(Force)  = 0.260E-03   g(Stress)= 0.181E-03

 retain information from N=  2 steps
 eigenvalues of (default step * inverse Hessian matrix)
  average eigenvalue of G=   3.5168
 eigenvalue spectrum of G is  0.1591  6.8746

 reached required accuracy - stopping structural energy minimisation

volume of typ            1:     3.0 %

[...]

volume of typ            3:    10.1 %

total charge

# of ion       s       p       d       tot
    1        2.059   0.187   0.071   2.317
    2        2.059   0.187   0.071   2.317
    3        0.304   0.432   7.825   8.560
    4        0.302   0.428   7.833   8.563
    5        0.302   0.428   7.833   8.563
    6        0.302   0.428   7.833   8.563
    7        0.302   0.428   7.833   8.563
    8        0.293   0.415   7.828   8.536
    9        0.288   0.399   7.826   8.513
   10        0.304   0.431   7.839   8.574
   11        0.303   0.431   7.825   8.559
   12        0.302   0.429   7.833   8.564
   13        0.302   0.429   7.833   8.564
   14        0.302   0.429   7.833   8.564
   15        0.302   0.429   7.833   8.564
   16        0.293   0.414   7.828   8.535
   17        0.288   0.399   7.826   8.513
   18        0.304   0.431   7.839   8.574
   19        1.283   2.735   0.008   4.026
   20        1.283   2.735   0.008   4.026
   21        1.285   2.724   0.008   4.018
   22        1.285   2.724   0.008   4.018
   23        1.273   2.759   0.008   4.039
   24        1.273   2.759   0.008   4.039
   25        1.273   2.759   0.008   4.039
   26        1.273   2.759   0.008   4.039
   27        1.285   2.726   0.008   4.019
   28        1.285   2.726   0.008   4.019
   29        1.285   2.726   0.008   4.019
   30        1.285   2.726   0.008   4.019
   31        1.273   2.757   0.008   4.038
   32        1.273   2.757   0.008   4.038
   33        1.284   2.727   0.008   4.019
   34        1.284   2.727   0.008   4.019
   35        1.285   2.725   0.008   4.018
   36        1.285   2.725   0.008   4.018
   37        1.282   2.735   0.008   4.026
   38        1.282   2.735   0.008   4.026
   39        1.285   2.727   0.008   4.020
   40        1.285   2.727   0.008   4.020
   41        1.285   2.727   0.008   4.020
   42        1.285   2.727   0.008   4.020
   43        1.273   2.758   0.008   4.039
   44        1.273   2.758   0.008   4.039
   45        1.273   2.758   0.008   4.039
   46        1.273   2.758   0.008   4.039
   47        1.284   2.727   0.008   4.019
   48        1.284   2.727   0.008   4.019
   49        1.273   2.759   0.008   4.040
   50        1.273   2.759   0.008   4.040
tot          49.87   94.81  125.70  270.38

magnetization (x)

# of ion       s       p       d       tot
    1        0.004   0.000   0.000   0.004
    2        0.004   0.000   0.000   0.004
    3       -0.000   0.001   0.031   0.031
    4       -0.000   0.000   0.083   0.083
    5       -0.000   0.000   0.083   0.083
    6       -0.000   0.000   0.083   0.083
    7       -0.000   0.000   0.083   0.083
    8        0.000   0.001   0.123   0.124
    9       -0.000   0.000   0.127   0.128
   10       -0.000   0.001   0.046   0.047
   11       -0.000   0.001   0.032   0.032
   12       -0.000   0.000   0.080   0.081
   13       -0.000   0.000   0.080   0.081
   14       -0.000   0.000   0.080   0.081
   15       -0.000   0.000   0.080   0.081
   16        0.000   0.001   0.130   0.130
   17       -0.000   0.000   0.127   0.127
   18       -0.000   0.001   0.046   0.047
   19        0.001   0.002   0.000   0.003
   20        0.001   0.002   0.000   0.003
   21        0.002   0.012   0.000   0.014
   22        0.002   0.012   0.000   0.014
   23        0.002   0.005   0.000   0.007
   24        0.002   0.005   0.000   0.007
   25        0.002   0.005   0.000   0.007
   26        0.002   0.005   0.000   0.007
   27        0.002   0.007   0.000   0.009
   28        0.002   0.007   0.000   0.009
   29        0.002   0.007   0.000   0.009
   30        0.002   0.007   0.000   0.009
   31        0.003   0.009   0.000   0.012
   32        0.003   0.009   0.000   0.012
   33        0.002   0.004   0.000   0.006
   34        0.002   0.004   0.000   0.006
   35        0.002   0.012   0.000   0.014
   36        0.002   0.012   0.000   0.014
   37        0.001   0.002   0.000   0.003
   38        0.001   0.002   0.000   0.003
   39        0.002   0.007   0.000   0.009
   40        0.002   0.007   0.000   0.009
   41        0.002   0.007   0.000   0.009
   42        0.002   0.007   0.000   0.009
   43        0.002   0.005   0.000   0.007
   44        0.002   0.005   0.000   0.007
   45        0.002   0.005   0.000   0.007
   46        0.002   0.005   0.000   0.007
   47        0.002   0.004   0.000   0.006
   48        0.002   0.004   0.000   0.006
   49        0.003   0.009   0.000   0.012
   50        0.003   0.009   0.000   0.012
tot           0.07    0.21    1.32    1.60