 vasp.5.4.4.18Apr17-6-g9f103f2a35 (build May 12 2020 05:39:39) gamma-only

 MD_VERSION_INFO: Compiled 2020-05-12T12:39:39-UTC in devlin.sd.materialsdesign.
 com:/home/medea2/data/build/wwolf/vasp-gpu5.4.4/13047/x86_64/src/src/build/gam
 from svn 13047

 executed on                        Lin64 date 2023.03.07  06:04:13

 INCAR:
 POTCAR:    PAW_PBE Li_sv 10Sep2004
 POTCAR:    PAW_PBE Ni 02Aug2007
 POTCAR:    PAW_PBE O 08Apr2002

 POTCAR:    PAW_PBE Li_sv 10Sep2004

 POTCAR:    PAW_PBE Ni 02Aug2007

 POTCAR:    PAW_PBE O 08Apr2002

 Optimization of the real space projectors (new method)

 maximal supplied QI-value         = 22.11
 optimisation between [QCUT,QGAM] = [ 11.28, 22.77] = [ 35.61,145.23] Ry
 Optimized for a Real-space Cutoff    1.10 Angstroem

   l    n(q)    QCUT    max X(q) W(low)/X(q) W(high)/X(q)  e(spline)
   0      7    11.276    10.506    0.54E-04    0.58E-04    0.16E-07
   0      7    11.276     8.367    0.11E-03    0.14E-03    0.35E-07
   1      7    11.276     8.983    0.23E-03    0.43E-03    0.86E-07
 Optimization of the real space projectors (new method)

[...]

   l    n(q)    QCUT    max X(q) W(low)/X(q) W(high)/X(q)  e(spline)
   2      9    11.376    60.317    0.17E-03    0.16E-04    0.16E-06
   2      9    11.376    55.921    0.17E-03    0.16E-04    0.17E-06
   0     10    11.376    51.690    0.45E-04    0.60E-04    0.21E-06
   0     10    11.376    30.015    0.37E-04    0.55E-04    0.19E-06
   1     10    11.376    18.849    0.83E-04    0.11E-03    0.92E-07
   1     10    11.376    14.624    0.69E-04    0.92E-04    0.82E-07
 Optimization of the real space projectors (new method)

 maximal supplied QI-value         = 24.76
 optimisation between [QCUT,QGAM] = [ 11.39, 22.77] = [ 36.31,145.25] Ry
 Optimized for a Real-space Cutoff    1.10 Angstroem

   l    n(q)    QCUT    max X(q) W(low)/X(q) W(high)/X(q)  e(spline)
   0      7    11.387    20.381    0.22E-03    0.48E-03    0.18E-06
   0      7    11.387    15.268    0.22E-03    0.52E-03    0.19E-06
   1      7    11.387     5.964    0.22E-03    0.73E-03    0.24E-06
   1      7    11.387     5.382    0.19E-03    0.60E-03    0.21E-06

  PAW_PBE Li_sv 10Sep2004               :
  PAW_PBE Ni 02Aug2007                  :
  PAW_PBE O 08Apr2002                   :

 POSCAR: ce17286_1
  positions in direct lattice
 exchange correlation table for  LEXCH =       14
   RHO(1)=    0.500       N(1)  =     2000
   RHO(2)=  100.500       N(2)  =     4000

 ion  position               nearest neighbor table
   1  0.500  0.250  0.249-  35 2.12  49 2.12  29 2.17  32 2.17  44 2.18  41 2.18
   2  0.500  0.750  0.751-  36 2.12  50 2.12  30 2.17  31 2.17  43 2.18  42 2.18
   3  0.500  0.250  0.751-  51 2.12  33 2.12  25 2.17  28 2.17  48 2.18  45 2.18
   4  0.500  0.750  0.249-  52 2.12  34 2.12  26 2.17  27 2.17  47 2.18  46 2.18
   5  0.000  0.000  0.000-  29 1.86  30 1.86  31 1.86  32 1.86  39 1.91  40 1.91  10 2.77  10 2.77
                             6 2.80   7 2.80   8 2.80   9 2.80
   6  0.250  0.001  0.250-  23 1.83  35 1.84  52 1.84  40 1.85  46 1.88  29 1.90   9 2.77   9 2.78
                            11 2.80  12 2.80   5 2.80  10 2.81
   7  0.250  0.999  0.750-  24 1.83  36 1.84  51 1.84  39 1.85  45 1.88  30 1.90   8 2.77   8 2.78
                            11 2.80  12 2.80   5 2.80  10 2.81
   8  0.750  0.999  0.750-  24 1.83  36 1.84  51 1.84  39 1.85  48 1.88  31 1.90   7 2.77   7 2.78
                            11 2.80  12 2.80   5 2.80  10 2.81
   9  0.750  0.001  0.250-  23 1.83  35 1.84  52 1.84  40 1.85  47 1.88  32 1.90   6 2.77   6 2.78
                            11 2.80  12 2.80   5 2.80  10 2.81
  10  0.500  0.000  0.000-  29 1.85  30 1.85  31 1.85  32 1.85  51 1.97  52 1.97   5 2.77   5 2.77
                             9 2.81   6 2.81   7 2.81   8 2.81
  11  0.000  0.000  0.500-  45 1.86  46 1.86  47 1.86  48 1.86  23 1.92  24 1.92  12 2.77  12 2.77
                             6 2.80   7 2.80   8 2.80   9 2.80
  12  0.500  0.000  0.500-  45 1.84  46 1.84  47 1.84  48 1.84  35 1.98  36 1.98  11 2.77  11 2.77
                             6 2.80   7 2.80   8 2.80   9 2.80
  13  0.000  0.500  0.500-  41 1.86  42 1.86  43 1.86  44 1.86  21 1.92  22 1.92  18 2.77  18 2.77
                            14 2.80  15 2.80  16 2.80  17 2.80
  14  0.248  0.500  0.750-  38 1.83  21 1.84  50 1.85  33 1.85  42 1.89  25 1.89  17 2.75  17 2.79
                            19 2.80  13 2.80  20 2.81  18 2.81
  15  0.248  0.500  0.250-  37 1.83  22 1.84  49 1.85  34 1.85  41 1.89  26 1.89  16 2.75  16 2.79
                            19 2.80  13 2.80  20 2.81  18 2.81
  16  0.752  0.500  0.250-  37 1.83  22 1.84  49 1.85  34 1.85  44 1.89  27 1.89  15 2.75  15 2.79
                            19 2.80  13 2.80  20 2.81  18 2.81
  17  0.752  0.500  0.750-  38 1.83  21 1.84  50 1.85  33 1.85  43 1.89  28 1.89  14 2.75  14 2.79
                            19 2.80  13 2.80  20 2.81  18 2.81
  18  0.500  0.500  0.500-  41 1.84  42 1.84  43 1.84  44 1.84  33 1.99  34 1.99  13 2.77  13 2.77
                            17 2.81  14 2.81  15 2.81  16 2.81
  19  0.000  0.500  0.000-  25 1.86  26 1.86  27 1.86  28 1.86  37 1.92  38 1.92  20 2.77  20 2.77
                            14 2.80  15 2.80  16 2.80  17 2.80
  20  0.500  0.500  0.000-  25 1.84  26 1.84  27 1.84  28 1.84  49 1.98  50 1.98  19 2.77  19 2.77
                            14 2.81  15 2.81  16 2.81  17 2.81
  21  0.000  0.403  0.638-  14 1.84  17 1.84  13 1.92
  22  0.000  0.597  0.362-  15 1.84  16 1.84  13 1.92
  23  0.000  0.097  0.361-   6 1.83   9 1.83  11 1.92
  24  0.000  0.903  0.639-   7 1.83   8 1.83  11 1.92
  25  0.252  0.403  0.885-  20 1.84  19 1.86  14 1.89   3 2.17
  26  0.252  0.597  0.115-  20 1.84  19 1.86  15 1.89   4 2.17
  27  0.748  0.597  0.115-  20 1.84  19 1.86  16 1.89   4 2.17
  28  0.748  0.403  0.885-  20 1.84  19 1.86  17 1.89   3 2.17
  29  0.252  0.098  0.115-  10 1.85   5 1.86   6 1.90   1 2.17
  30  0.252  0.902  0.885-  10 1.85   5 1.86   7 1.90   2 2.17
  31  0.748  0.902  0.885-  10 1.85   5 1.86   8 1.90   2 2.17
  32  0.748  0.098  0.115-  10 1.85   5 1.86   9 1.90   1 2.17
  33  0.500  0.399  0.642-  14 1.85  17 1.85  18 1.99   3 2.12
  34  0.500  0.601  0.358-  15 1.85  16 1.85  18 1.99   4 2.12
  35  0.500  0.102  0.358-   6 1.84   9 1.84  12 1.98   1 2.12
  36  0.500  0.898  0.642-   7 1.84   8 1.84  12 1.98   2 2.12
  37  0.000  0.403  0.138-  15 1.83  16 1.83  19 1.92
  38  0.000  0.597  0.862-  14 1.83  17 1.83  19 1.92
  39  0.000  0.097  0.863-   7 1.85   8 1.85   5 1.91
  40  0.000  0.903  0.137-   6 1.85   9 1.85   5 1.91
  41  0.252  0.404  0.385-  18 1.84  13 1.86  15 1.89   1 2.18
  42  0.252  0.596  0.615-  18 1.84  13 1.86  14 1.89   2 2.18
  43  0.748  0.596  0.615-  18 1.84  13 1.86  17 1.89   2 2.18
  44  0.748  0.404  0.385-  18 1.84  13 1.86  16 1.89   1 2.18
  45  0.252  0.096  0.615-  12 1.84  11 1.86   7 1.88   3 2.18
  46  0.252  0.904  0.385-  12 1.84  11 1.86   6 1.88   4 2.18
  47  0.748  0.904  0.385-  12 1.84  11 1.86   9 1.88   4 2.18
  48  0.748  0.096  0.615-  12 1.84  11 1.86   8 1.88   3 2.18
  49  0.500  0.400  0.142-  15 1.85  16 1.85  20 1.98   1 2.12
  50  0.500  0.600  0.858-  14 1.85  17 1.85  20 1.98   2 2.12
  51  0.500  0.100  0.858-   7 1.84   8 1.84  10 1.97   3 2.12
  52  0.500  0.900  0.142-   6 1.84   9 1.84  10 1.97   4 2.12

  LATTYP: Found a simple monoclinic cell.
 ALAT       =    11.5867824767
 B/A-ratio  =     0.4787767351
 C/A-ratio  =     1.6901504800
 COS(beta)  =    -0.9095016765

  Lattice vectors:

 A1 = (  -6.2508387354,   0.0000000000,  -9.7560516228)
 A2 = (   0.0000000000,  -5.5474818845,   0.0000000000)
 A3 = (   2.7541934710,   0.0000000000,  19.3887649814)

Analysis of symmetry for initial positions (statically):
 Subroutine PRICEL returns:
 Original cell was already a primitive cell.

 Routine SETGRP: Setting up the symmetry group for a
 simple monoclinic supercell.

 Subroutine GETGRP returns: Found  4 space group operations
 (whereof  4 operations were pure point group operations)
 out of a pool of  4 trial point group operations.

The static configuration has the point symmetry C_2h.

Analysis of symmetry for dynamics (positions and initial velocities):
 Subroutine PRICEL returns:
 Original cell was already a primitive cell.

[...]

The dynamic configuration has the point symmetry C_2h.

Analysis of structural, dynamic, and magnetic symmetry:
 Subroutine PRICEL returns:
 Original cell was already a primitive cell.

 Routine SETGRP: Setting up the symmetry group for a
 simple monoclinic supercell.

 Subroutine GETGRP returns: Found  4 space group operations
 (whereof  4 operations were pure point group operations)
 out of a pool of  4 trial point group operations.

The magnetic configuration has the point symmetry C_2h.

 Subroutine INISYM returns: Found  4 space group operations
 (whereof  4 operations are pure point group operations),
 and found     1 'primitive' translations

 KPOINTS: Automatic mesh

Automatic generation of k-mesh.
Space group operators:
 irot       det(A)        alpha          n_x          n_y          n_z        tau_x        tau_y        tau_z
    1     1.000000     0.000000     1.000000     0.000000     0.000000     0.000000     0.000000     0.000000
    2    -1.000000     0.000000     1.000000     0.000000     0.000000     0.000000     0.000000     0.000000
    3     1.000000   180.000000     0.000000     1.000000     0.000000     0.000000     0.000000     0.000000
    4    -1.000000   180.000000     0.000000     1.000000     0.000000     0.000000     0.000000     0.000000

 Subroutine IBZKPT returns following result:

 Found      1 irreducible k-points:

 Following reciprocal coordinates:
            Coordinates               Weight
  0.000000  0.000000  0.000000      1.000000

 Following cartesian coordinates:
            Coordinates               Weight
  0.000000  0.000000  0.000000      1.000000

 SYSTEM =  unknown system
 POSCAR =  ce17286_1

 Startparameter for this run:
   NWRITE =      1    write-flag & timer
   PREC   = accura    normal or accurate (medium, high low for compatibility)
   ISTART =      0    job   : 0-new  1-cont  2-samecut
   ICHARG =      2    charge: 1-file 2-atom 10-const
   ISPIN  =      2    spin polarized calculation?
   LNONCOLLINEAR =      F non collinear calculations
   LSORBIT =      F    spin-orbit coupling
   INIWAV =      1    electr: 0-lowe 1-rand  2-diag
   LASPH  =      F    aspherical Exc in radial PAW
   METAGGA=      F    non-selfconsistent MetaGGA calc.

 Electronic Relaxation 1
   ENCUT  =  500.0 eV  36.75 Ry    6.06 a.u.  10.11 18.68 17.77*2*pi/ulx,y,z
   ENINI  =  500.0     initial cutoff
   ENAUG  =  628.9 eV  augmentation charge cutoff
   NELM   =     80;   NELMIN=  2; NELMDL= -5     # of ELM steps
   EDIFF  = 0.1E-04   stopping-criterion for ELM
   LREAL  =      T    real-space projection
   NLSPLINE    = F    spline interpolate recip. space projectors
   LCOMPAT=      F    compatible to vasp.4.4
   GGA_COMPAT  = T    GGA compatible to vasp.4.4-vasp.4.6
   LMAXPAW     = -100 max onsite density
   LMAXMIX     =    2 max onsite mixed and CHGCAR
[...]
   -.278E+00 0.299E-13 0.529E-01   0.255E+00 -.505E-13 -.481E-01   0.134E-01 0.000E+00 -.150E-01   0.539E-02 0.686E-12 0.115E-01
   -.293E-01 0.511E-13 -.239E+00   0.236E-01 0.285E-13 0.241E+00   -.430E-02 0.000E+00 0.540E-02   0.460E-02 -.740E-13 -.680E-02
   0.293E-01 0.733E-13 0.239E+00   -.236E-01 0.454E-14 -.241E+00   0.430E-02 0.000E+00 -.540E-02   -.460E-02 0.316E-12 0.680E-02
   -.837E-12 0.261E-13 -.559E-12   0.000E+00 0.146E-12 0.306E-12   0.129E-25 0.000E+00 0.125E-24   -.262E-11 -.216E-11 -.150E-11
   0.138E+01 0.263E+02 -.191E+01   -.137E+01 -.265E+02 0.191E+01   0.350E-01 0.241E+00 0.300E-03   -.460E-01 0.262E-02 -.891E-02
   -.138E+01 0.263E+02 0.191E+01   0.137E+01 -.265E+02 -.191E+01   -.350E-01 0.241E+00 -.300E-03   0.460E-01 0.262E-02 0.891E-02
   -.138E+01 -.263E+02 0.191E+01   0.137E+01 0.265E+02 -.191E+01   -.350E-01 -.241E+00 -.300E-03   0.460E-01 -.262E-02 0.891E-02
   0.138E+01 -.263E+02 -.191E+01   -.137E+01 0.265E+02 0.191E+01   0.350E-01 -.241E+00 0.300E-03   -.460E-01 -.262E-02 -.891E-02
   -.572E-11 -.198E-12 -.857E-12   -.114E-12 -.499E-13 0.313E-12   0.000E+00 0.000E+00 -.155E-24   -.316E-11 0.200E-11 -.189E-11
   0.624E-12 -.147E-13 -.248E-12   0.256E-12 0.177E-14 0.203E-12   0.000E+00 0.000E+00 -.775E-25   0.314E-11 0.873E-12 -.609E-12
   0.780E-12 -.234E-12 0.148E-11   0.142E-12 -.292E-13 0.568E-13   0.000E+00 0.000E+00 -.162E-25   0.398E-11 -.961E-12 0.408E-12
   0.326E-12 -.642E-13 0.166E-11   -.103E-12 -.541E-13 -.271E-12   -.310E-24 0.000E+00 0.116E-24   0.200E-11 0.350E-11 0.328E-11
   0.196E+01 0.261E+02 0.435E+00   -.201E+01 -.263E+02 -.474E+00   0.633E-01 0.244E+00 0.326E-01   -.527E-02 -.447E-01 0.712E-02
   -.196E+01 0.261E+02 -.435E+00   0.201E+01 -.263E+02 0.474E+00   -.633E-01 0.244E+00 -.326E-01   0.527E-02 -.447E-01 -.712E-02
   -.196E+01 -.261E+02 -.435E+00   0.201E+01 0.263E+02 0.474E+00   -.633E-01 -.244E+00 -.326E-01   0.527E-02 0.447E-01 -.712E-02
   0.196E+01 -.261E+02 0.435E+00   -.201E+01 0.263E+02 -.474E+00   0.633E-01 -.244E+00 0.326E-01   -.527E-02 0.447E-01 0.712E-02
   -.254E-11 -.221E-12 0.798E-11   0.391E-13 -.195E-14 -.247E-12   0.000E+00 0.000E+00 0.155E-24   0.287E-11 -.375E-11 0.302E-11
   -.911E-12 0.439E-12 0.125E-11   0.409E-13 0.580E-13 -.398E-12   0.000E+00 0.000E+00 0.856E-25   -.871E-12 -.491E-12 0.173E-11
   -.476E-11 0.270E-12 0.767E-11   0.480E-13 -.142E-12 -.306E-12   0.000E+00 0.000E+00 -.113E-25   -.150E-11 0.452E-12 0.178E-11
   0.205E+02 0.409E-12 0.405E+03   -.218E+02 0.106E-12 -.431E+03   0.126E+01 0.000E+00 0.264E+02   0.251E-02 0.163E-11 0.745E-02
   -.205E+02 0.427E-12 -.405E+03   0.218E+02 0.108E-12 0.431E+03   -.126E+01 0.000E+00 -.264E+02   -.251E-02 0.114E-11 -.745E-02
   -.202E+02 -.244E-12 -.406E+03   0.216E+02 0.364E-13 0.432E+03   -.136E+01 0.000E+00 -.264E+02   -.284E-01 0.108E-11 -.141E-02
   0.202E+02 0.618E-13 0.406E+03   -.216E+02 -.919E-14 -.432E+03   0.136E+01 0.000E+00 0.264E+02   0.284E-01 -.401E-12 0.141E-02
   -.214E+02 0.302E+02 0.377E+03   0.227E+02 -.323E+02 -.399E+03   -.124E+01 0.210E+01 0.226E+02   -.190E-01 -.450E-01 -.301E-01
   0.214E+02 0.302E+02 -.377E+03   -.227E+02 -.323E+02 0.399E+03   0.124E+01 0.210E+01 -.226E+02   0.190E-01 -.450E-01 0.301E-01
   0.214E+02 -.302E+02 -.377E+03   -.227E+02 0.323E+02 0.399E+03   0.124E+01 -.210E+01 -.226E+02   0.190E-01 0.450E-01 0.301E-01
   -.214E+02 -.302E+02 0.377E+03   0.227E+02 0.323E+02 -.399E+03   -.124E+01 -.210E+01 0.226E+02   -.190E-01 0.450E-01 -.301E-01
   0.218E+02 0.289E+02 -.376E+03   -.231E+02 -.310E+02 0.399E+03   0.130E+01 0.209E+01 -.225E+02   -.684E-02 0.836E-02 -.126E-01
   -.218E+02 0.289E+02 0.376E+03   0.231E+02 -.310E+02 -.399E+03   -.130E+01 0.209E+01 0.225E+02   0.684E-02 0.836E-02 0.126E-01
   -.218E+02 -.289E+02 0.376E+03   0.231E+02 0.310E+02 -.399E+03   -.130E+01 -.209E+01 0.225E+02   0.684E-02 -.836E-02 0.126E-01
   0.218E+02 -.289E+02 -.376E+03   -.231E+02 0.310E+02 0.399E+03   0.130E+01 -.209E+01 -.225E+02   -.684E-02 -.836E-02 -.126E-01
   0.478E+02 0.622E-12 0.386E+03   -.529E+02 0.375E-13 -.407E+03   0.509E+01 0.000E+00 0.212E+02   0.238E-01 -.165E-11 -.134E-01
   -.478E+02 0.619E-12 -.386E+03   0.529E+02 0.652E-13 0.407E+03   -.509E+01 0.000E+00 -.212E+02   -.238E-01 -.107E-11 0.134E-01
   -.433E+02 0.171E-12 -.388E+03   0.479E+02 -.160E-13 0.409E+03   -.457E+01 0.000E+00 -.214E+02   -.394E-01 -.116E-11 -.848E-03
   0.433E+02 -.136E-12 0.388E+03   -.479E+02 0.186E-14 -.409E+03   0.457E+01 0.000E+00 0.214E+02   0.394E-01 0.412E-12 0.848E-03
   0.192E+02 0.450E-12 0.406E+03   -.205E+02 -.509E-13 -.432E+03   0.126E+01 0.000E+00 0.264E+02   0.689E-02 0.185E-12 -.345E-02
   -.192E+02 0.431E-12 -.406E+03   0.205E+02 0.278E-13 0.432E+03   -.126E+01 0.000E+00 -.264E+02   -.689E-02 -.370E-12 0.345E-02
   -.199E+02 0.792E-13 -.405E+03   0.210E+02 -.290E-13 0.432E+03   -.118E+01 0.000E+00 -.264E+02   0.782E-02 -.142E-11 -.967E-02
   0.199E+02 -.240E-12 0.405E+03   -.210E+02 -.139E-13 -.432E+03   0.118E+01 0.000E+00 0.264E+02   -.782E-02 -.508E-12 0.967E-02
   -.210E+02 0.288E+02 0.376E+03   0.222E+02 -.308E+02 -.398E+03   -.123E+01 0.208E+01 0.225E+02   -.200E-01 -.420E-01 -.226E-01
   0.210E+02 0.288E+02 -.376E+03   -.222E+02 -.308E+02 0.398E+03   0.123E+01 0.208E+01 -.225E+02   0.200E-01 -.420E-01 0.226E-01
   0.210E+02 -.288E+02 -.376E+03   -.222E+02 0.308E+02 0.398E+03   0.123E+01 -.208E+01 -.225E+02   0.200E-01 0.420E-01 0.226E-01
   -.210E+02 -.288E+02 0.376E+03   0.222E+02 0.308E+02 -.398E+03   -.123E+01 -.208E+01 0.225E+02   -.200E-01 0.420E-01 -.226E-01
   0.211E+02 0.299E+02 -.376E+03   -.224E+02 -.320E+02 0.399E+03   0.120E+01 0.209E+01 -.226E+02   0.300E-01 -.131E-01 0.212E-01
   -.211E+02 0.299E+02 0.376E+03   0.224E+02 -.320E+02 -.399E+03   -.120E+01 0.209E+01 0.226E+02   -.300E-01 -.131E-01 -.212E-01
   -.211E+02 -.299E+02 0.376E+03   0.224E+02 0.320E+02 -.399E+03   -.120E+01 -.209E+01 0.226E+02   -.300E-01 0.131E-01 -.212E-01
   0.211E+02 -.299E+02 -.376E+03   -.224E+02 0.320E+02 0.399E+03   0.120E+01 -.209E+01 -.226E+02   0.300E-01 0.131E-01 0.212E-01
   0.411E+02 0.602E-12 0.388E+03   -.454E+02 -.392E-13 -.409E+03   0.432E+01 0.000E+00 0.214E+02   0.340E-01 -.296E-12 -.292E-01
   -.411E+02 0.653E-12 -.388E+03   0.454E+02 -.199E-13 0.409E+03   -.432E+01 0.000E+00 -.214E+02   -.340E-01 0.370E-12 0.292E-01
   -.464E+02 -.982E-13 -.386E+03   0.513E+02 -.286E-13 0.407E+03   -.493E+01 0.000E+00 -.211E+02   0.234E-01 0.132E-11 -.195E-01
   0.464E+02 0.182E-12 0.386E+03   -.513E+02 -.899E-13 -.407E+03   0.493E+01 0.000E+00 0.211E+02   -.234E-01 0.449E-12 0.195E-01
   0.204E-09 0.234E-10 0.214E-10   0.270E-12 -.284E-12 -.568E-12   -.178E-14 0.000E+00 0.107E-13   -.122E-10 -.725E-12 0.873E-11

 POSITION                                       TOTAL-FORCE (eV/Angst)
      1.56438      2.77569      2.46578         0.003864      0.000000     -0.001224
      4.70690      2.77569      7.38909        -0.003864      0.000000      0.001224
      6.44734      2.77569      2.53341        -0.005461      0.000000      0.001082
     -0.17606      2.77569      7.32147         0.005461      0.000000     -0.001082
     -0.00000      0.00000      0.00000         0.000000      0.000000     -0.000000
      2.43725      1.38005      0.03860         0.006155     -0.004183     -0.003379
      3.83403      1.38005      9.81627        -0.006155     -0.004183      0.003379
      3.83403      4.17133      9.81627        -0.006155      0.004183      0.003379
      2.43725      4.17133      0.03860         0.006155      0.004183     -0.003379
     -0.00000      2.77569      0.00000         0.000000      0.000000     -0.000000
      4.87400      0.00000      0.07232         0.000000      0.000000     -0.000000
      4.87400      2.77569      0.07232         0.000000      0.000000     -0.000000
      3.13564      0.00000      4.92744         0.000000      0.000000     -0.000000
      5.57391      1.37993      4.95943         0.008034      0.002010      0.000236
      0.69737      1.37993      4.89544        -0.008034      0.002010     -0.000236
      0.69737      4.17145      4.89544        -0.008034     -0.002010     -0.000236
      5.57391      4.17145      4.95943         0.008034     -0.002010      0.000236
      3.13564      2.77569      4.92744         0.000000      0.000000     -0.000000
     -1.73836      0.00000      4.85512         0.000000      0.000000     -0.000000
     -1.73836      2.77569      4.85512         0.000000      0.000000     -0.000000
      4.82355      0.00000      4.00733         0.006154      0.000000      0.002698
      1.44773      0.00000      5.84754        -0.006154      0.000000     -0.002698
      3.17980      0.00000      0.99368        -0.018972      0.000000     -0.007346
      3.09148      0.00000      8.86119         0.018972      0.000000      0.007346
      7.22798      1.39916      4.05316         0.002103     -0.002934      0.009396
     -0.95670      1.39916      5.80171        -0.002103     -0.002934     -0.009396
     -0.95670      4.15221      5.80171        -0.002103      0.002934     -0.009396
      7.22798      4.15221      4.05316         0.002103      0.002934      0.009396
      0.78452      1.40037      0.94516         0.007632      0.003407     -0.015952
      5.48676      1.40037      8.90971        -0.007632      0.003407      0.015952
      5.48676      4.15100      8.90971        -0.007632     -0.003407      0.015952
      0.78452      4.15100      0.94516         0.007632     -0.003407     -0.015952
      4.88946      2.77569      3.96654         0.044729      0.000000     -0.011347
      1.38182      2.77569      5.88834        -0.044729      0.000000      0.011347
      3.13435      2.77569      1.02854        -0.002013      0.000000     -0.010796
      3.13693      2.77569      8.82634         0.002013      0.000000      0.010796
     -0.04249      0.00000      3.93906         0.012907      0.000000      0.003294
      6.31377      0.00000      5.91582        -0.012907      0.000000     -0.003294
      8.05747      0.00000      1.06027        -0.001069      0.000000     -0.000981
     -1.78619      0.00000      8.79460         0.001069      0.000000      0.000981
      2.34781      1.40107      3.98572        -0.006697      0.000511      0.013066
      3.92347      1.40107      5.86915         0.006697      0.000511     -0.013066
      3.92347      4.15030      5.86915         0.006697     -0.000511     -0.013066
      2.34781      4.15030      3.98572        -0.006697     -0.000511      0.013066
      5.66001      1.39980      1.01500        -0.004383     -0.003646     -0.006592
      0.61127      1.39980      8.83988         0.004383     -0.003646      0.006592
      0.61127      4.15158      8.83988         0.004383      0.003646      0.006592
      5.66001      4.15158      1.01500        -0.004383      0.003646     -0.006592
     -0.00373      2.77569      3.90677         0.008224      0.000000      0.005593
      6.27501      2.77569      5.94811        -0.008224      0.000000     -0.005593
      7.99727      2.77569      1.09876        -0.045595      0.000000      0.017496
     -1.72599      2.77569      8.75611         0.045595      0.000000     -0.017496
    total drift:                                0.000000      0.000000      0.000000

  FREE ENERGIE OF THE ION-ELECTRON SYSTEM (eV)
  free  energy   TOTEN  =      -324.8196401574 eV

  energy  without entropy=     -324.7840530441  energy(sigma->0) =     -324.80184660

 d Force = 0.1594249E-03[ 0.171E-03, 0.148E-03]  d Energy = 0.2024433E-03-0.430E-04
 d Force =-0.2230113E+01[-0.223E+01,-0.223E+01]  d Ewald  =-0.4330005E+01 0.210E+01

 Quasi-Newton relaxation of ions (Broydens 2nd method)
  g(Force)  = 0.688E-03   g(Stress)= 0.250E-03

 retain information from N=  2 steps
 eigenvalues of (default step * inverse Hessian matrix)
  average eigenvalue of G=   1.8831
 eigenvalue spectrum of G is  0.1053  3.6609

volume of typ            1:     5.9 %

[...]

volume of typ            3:     9.9 %

total charge

# of ion       s       p       d       tot
    1        2.057   0.182   0.068   2.306
    2        2.057   0.182   0.068   2.306
    3        2.058   0.187   0.069   2.315
    4        2.058   0.187   0.069   2.315
    5        0.285   0.392   7.831   8.508
    6        0.305   0.438   7.833   8.576
    7        0.305   0.438   7.833   8.576
    8        0.305   0.438   7.833   8.576
    9        0.305   0.438   7.833   8.576
   10        0.286   0.393   7.853   8.532
   11        0.285   0.391   7.832   8.508
   12        0.287   0.395   7.853   8.535
   13        0.285   0.392   7.831   8.508
   14        0.305   0.438   7.833   8.576
   15        0.305   0.438   7.833   8.576
   16        0.305   0.438   7.833   8.576
   17        0.305   0.438   7.833   8.576
   18        0.286   0.392   7.856   8.534
   19        0.285   0.392   7.831   8.508
   20        0.287   0.397   7.853   8.538
   21        1.283   2.729   0.008   4.021
   22        1.283   2.729   0.008   4.021
   23        1.283   2.730   0.008   4.021
   24        1.283   2.730   0.008   4.021
   25        1.273   2.758   0.008   4.039
   26        1.273   2.758   0.008   4.039
   27        1.273   2.758   0.008   4.039
   28        1.273   2.758   0.008   4.039
   29        1.272   2.759   0.008   4.039
   30        1.272   2.759   0.008   4.039
   31        1.272   2.759   0.008   4.039
   32        1.272   2.759   0.008   4.039
   33        1.274   2.755   0.007   4.036
   34        1.274   2.755   0.007   4.036
   35        1.274   2.754   0.007   4.035
   36        1.274   2.754   0.007   4.035
   37        1.283   2.730   0.008   4.021
   38        1.283   2.730   0.008   4.021
   39        1.283   2.730   0.008   4.021
   40        1.283   2.730   0.008   4.021
   41        1.272   2.759   0.008   4.039
   42        1.272   2.759   0.008   4.039
   43        1.272   2.759   0.008   4.039
   44        1.272   2.759   0.008   4.039
   45        1.272   2.759   0.008   4.039
   46        1.272   2.759   0.008   4.039
   47        1.272   2.759   0.008   4.039
   48        1.272   2.759   0.008   4.039
   49        1.274   2.754   0.007   4.035
   50        1.274   2.754   0.007   4.035
   51        1.273   2.755   0.007   4.036
   52        1.273   2.755   0.007   4.036
tot          53.77   95.40  125.93  275.10

magnetization (x)

# of ion       s       p       d       tot
    1        0.004   0.003   0.000   0.008
    2        0.004   0.003   0.000   0.008
    3       -0.004  -0.005  -0.000  -0.010
    4       -0.004  -0.005  -0.000  -0.010
    5        0.000   0.000   0.124   0.124
    6        0.000  -0.000   0.073   0.073
    7        0.000  -0.000   0.073   0.073
    8        0.000  -0.000   0.073   0.073
    9        0.000  -0.000   0.073   0.073
   10       -0.002   0.001  -0.426  -0.427
   11       -0.000   0.000  -0.168  -0.167
   12        0.001   0.000   0.341   0.343
   13        0.000   0.001   0.119   0.120
   14        0.000  -0.000   0.076   0.076
   15        0.000  -0.000   0.076   0.076
   16        0.000  -0.000   0.076   0.076
   17        0.000  -0.000   0.076   0.076
   18       -0.002   0.001  -0.439  -0.441
   19       -0.000   0.000  -0.168  -0.168
   20        0.001   0.000   0.317   0.318
   21        0.002   0.014   0.000   0.016
   22        0.002   0.014   0.000   0.016
   23       -0.001  -0.013  -0.000  -0.014
   24       -0.001  -0.013  -0.000  -0.014
   25        0.001   0.010   0.000   0.010
   26        0.001   0.010   0.000   0.010
   27        0.001   0.010   0.000   0.010
   28        0.001   0.010   0.000   0.010
   29        0.000  -0.004   0.000  -0.003
   30        0.000  -0.004   0.000  -0.003
   31        0.000  -0.004   0.000  -0.003
   32        0.000  -0.004   0.000  -0.003
   33       -0.004  -0.045  -0.000  -0.049
   34       -0.004  -0.045  -0.000  -0.049
   35        0.005   0.039   0.000   0.044
   36        0.005   0.039   0.000   0.044
   37       -0.001  -0.013  -0.000  -0.014
   38       -0.001  -0.013  -0.000  -0.014
   39        0.002   0.013   0.000   0.015
   40        0.002   0.013   0.000   0.015
   41        0.000  -0.004   0.000  -0.003
   42        0.000  -0.004   0.000  -0.003
   43        0.000  -0.004   0.000  -0.003
   44        0.000  -0.004   0.000  -0.003
   45        0.001   0.010   0.000   0.010
   46        0.001   0.010   0.000   0.010
   47        0.001   0.010   0.000   0.010
   48        0.001   0.010   0.000   0.010
   49        0.005   0.036   0.000   0.041
   50        0.005   0.036   0.000   0.041
   51       -0.003  -0.043  -0.000  -0.047
   52       -0.003  -0.043  -0.000  -0.047
tot           0.02    0.02    0.30    0.34