 vasp.5.4.4.18Apr17-6-g9f103f2a35 (build May 12 2020 05:39:39) gamma-only

 MD_VERSION_INFO: Compiled 2020-05-12T12:39:39-UTC in devlin.sd.materialsdesign.
 com:/home/medea2/data/build/wwolf/vasp-gpu5.4.4/13047/x86_64/src/src/build/gam
 from svn 13047

 executed on                        Lin64 date 2023.03.07  06:03:28

 INCAR:
 POTCAR:    PAW_PBE Li_sv 10Sep2004
 POTCAR:    PAW_PBE Ni 02Aug2007
 POTCAR:    PAW_PBE O 08Apr2002

 POTCAR:    PAW_PBE Li_sv 10Sep2004

 POTCAR:    PAW_PBE Ni 02Aug2007

 POTCAR:    PAW_PBE O 08Apr2002

 Optimization of the real space projectors (new method)

 maximal supplied QI-value         = 22.11
 optimisation between [QCUT,QGAM] = [ 11.28, 22.77] = [ 35.61,145.23] Ry
 Optimized for a Real-space Cutoff    1.10 Angstroem

   l    n(q)    QCUT    max X(q) W(low)/X(q) W(high)/X(q)  e(spline)
   0      7    11.276    10.506    0.54E-04    0.58E-04    0.16E-07
   0      7    11.276     8.367    0.11E-03    0.14E-03    0.35E-07
   1      7    11.276     8.983    0.23E-03    0.43E-03    0.86E-07
 Optimization of the real space projectors (new method)

[...]

   l    n(q)    QCUT    max X(q) W(low)/X(q) W(high)/X(q)  e(spline)
   2      9    11.376    60.317    0.17E-03    0.16E-04    0.16E-06
   2      9    11.376    55.921    0.17E-03    0.16E-04    0.17E-06
   0     10    11.376    51.690    0.45E-04    0.60E-04    0.21E-06
   0     10    11.376    30.015    0.37E-04    0.55E-04    0.19E-06
   1     10    11.376    18.849    0.83E-04    0.11E-03    0.92E-07
   1     10    11.376    14.624    0.69E-04    0.92E-04    0.82E-07
 Optimization of the real space projectors (new method)

 maximal supplied QI-value         = 24.76
 optimisation between [QCUT,QGAM] = [ 11.39, 22.77] = [ 36.31,145.25] Ry
 Optimized for a Real-space Cutoff    1.10 Angstroem

   l    n(q)    QCUT    max X(q) W(low)/X(q) W(high)/X(q)  e(spline)
   0      7    11.387    20.381    0.22E-03    0.48E-03    0.18E-06
   0      7    11.387    15.268    0.22E-03    0.52E-03    0.19E-06
   1      7    11.387     5.964    0.22E-03    0.73E-03    0.24E-06
   1      7    11.387     5.382    0.19E-03    0.60E-03    0.21E-06

  PAW_PBE Li_sv 10Sep2004               :
  PAW_PBE Ni 02Aug2007                  :
  PAW_PBE O 08Apr2002                   :

 POSCAR: ce10557_1
  positions in direct lattice
 exchange correlation table for  LEXCH =       14
   RHO(1)=    0.500       N(1)  =     2000
   RHO(2)=  100.500       N(2)  =     4000

 ion  position               nearest neighbor table
   1  0.982  0.252  0.229-  38 2.00  33 2.04  30 2.16  45 2.18  17 2.82   6 2.83
   2  0.250  0.250  0.501-  22 2.14  34 2.14  24 2.14  36 2.14  46 2.16  42 2.17
   3  0.502  0.751  0.750-  37 2.13  32 2.14  44 2.14  43 2.15  31 2.15  51 2.20
   4  0.520  0.250  0.770-  52 1.99  29 2.04  26 2.17  49 2.20  34 2.24  21 2.81   9 2.83
   5  0.501  0.751  0.250-  35 2.11  53 2.13  48 2.15  47 2.15  28 2.16  27 2.18
   6  1.000  0.996  0.998-  33 1.85  30 1.85  31 1.86  32 1.86  41 1.92  40 1.93  11 2.77  11 2.77
                             9 2.80   8 2.80   7 2.82  10 2.83   1 2.83
   7  0.249  0.000  0.250-  53 1.84  24 1.84  41 1.84  36 1.85  47 1.90  30 1.90  10 2.77  10 2.78
                            12 2.81  11 2.81  13 2.82   6 2.82
   8  0.249  0.001  0.751-  40 1.83  25 1.83  52 1.85  37 1.85  31 1.91  46 1.95   9 2.76   9 2.79
                             6 2.80  11 2.81  12 2.82  13 2.82
   9  0.751  0.999  0.750-  25 1.83  40 1.84  37 1.85  52 1.85  32 1.89  49 1.90   8 2.76   8 2.79
                             6 2.80  11 2.81  12 2.81  13 2.82   4 2.83
  10  0.750  0.003  0.252-  53 1.84  41 1.84  24 1.86  36 1.86  48 1.91  33 1.91   7 2.77   7 2.78
                            13 2.80  12 2.80  11 2.82   6 2.83
  11  0.500  0.004  0.002-  31 1.84  32 1.85  33 1.86  30 1.86  52 1.98  53 2.00   6 2.77   6 2.77
                             9 2.81   7 2.81   8 2.81  10 2.82
  12  0.999  0.998  0.499-  48 1.85  49 1.86  46 1.86  47 1.86  25 1.94  24 1.99  13 2.77  13 2.78
                            10 2.80   7 2.81   9 2.81   8 2.82
  13  0.501  0.997  0.499-  48 1.84  49 1.85  46 1.85  47 1.85  36 1.94  37 1.97  12 2.77  12 2.78
                            10 2.80   7 2.82   8 2.82   9 2.82
  14  1.000  0.505  0.503-  42 1.85  45 1.85  44 1.85  43 1.87  23 1.90  22 1.92  19 2.77  19 2.78
                            18 2.79  15 2.80  16 2.83  17 2.83
  15  0.249  0.499  0.750-  39 1.83  34 1.84  22 1.84  51 1.85  43 1.90  26 1.91  18 2.76  18 2.79
                            14 2.80  20 2.81  21 2.82  19 2.83
  16  0.250  0.501  0.249-  35 1.83  38 1.84  50 1.85  23 1.85  27 1.92  42 1.97  17 2.77  17 2.77
                            21 2.79  20 2.80  19 2.82  14 2.83
  17  0.750  0.502  0.250-  35 1.83  38 1.84  23 1.85  50 1.85  28 1.90  45 1.90  16 2.77  16 2.77
                            21 2.80  20 2.80  19 2.81   1 2.82  14 2.83
  18  0.751  0.496  0.748-  39 1.83  51 1.85  22 1.86  34 1.86  44 1.92  29 1.93  15 2.76  15 2.79
                            14 2.79  19 2.82  20 2.82  21 2.83
  19  0.501  0.499  0.499-  44 1.83  43 1.85  45 1.86  42 1.86  35 2.01  34 2.03  14 2.77  14 2.78
                            17 2.81  18 2.82  16 2.82  15 2.83
  20  1.000  0.500  0.000-  29 1.85  27 1.86  26 1.86  28 1.87  39 1.93  38 1.95  21 2.77  21 2.77
                            17 2.80  16 2.80  15 2.81  18 2.82
  21  0.500  0.501  0.002-  27 1.84  29 1.84  28 1.84  26 1.85  50 1.89  51 1.94  20 2.77  20 2.77
                            16 2.79  17 2.80   4 2.81  15 2.82  18 2.83
  22  0.004  0.400  0.633-  15 1.84  18 1.86  14 1.92   2 2.14
  23  0.001  0.598  0.364-  16 1.85  17 1.85  14 1.90
  24  0.004  0.103  0.362-   7 1.84  10 1.86  12 1.99   2 2.14
  25  0.001  0.902  0.640-   9 1.83   8 1.83  12 1.94
  26  0.253  0.402  0.887-  21 1.85  20 1.86  15 1.91   4 2.17
  27  0.250  0.600  0.113-  21 1.84  20 1.86  16 1.92   5 2.18
  28  0.749  0.599  0.115-  21 1.84  20 1.87  17 1.90   5 2.16
  29  0.748  0.401  0.889-  21 1.84  20 1.85  18 1.93   4 2.04
  30  0.243  0.097  0.115-   6 1.85  11 1.86   7 1.90   1 2.16
  31  0.257  0.903  0.885-  11 1.84   6 1.86   8 1.91   3 2.15
  32  0.743  0.902  0.885-  11 1.85   6 1.86   9 1.89   3 2.14
  33  0.756  0.098  0.114-   6 1.85  11 1.86  10 1.91   1 2.04
  34  0.495  0.394  0.641-  15 1.84  18 1.86  19 2.03   2 2.14   4 2.24
  35  0.499  0.602  0.356-  17 1.83  16 1.83  19 2.01   5 2.11
  36  0.495  0.101  0.365-   7 1.85  10 1.86  13 1.94   2 2.14
  37  0.499  0.899  0.641-   9 1.85   8 1.85  13 1.97   3 2.13
  38  1.000  0.402  0.141-  16 1.84  17 1.84  20 1.95   1 2.00
  39  0.997  0.595  0.860-  18 1.83  15 1.83  20 1.93
  40  0.999  0.097  0.863-   8 1.83   9 1.84   6 1.93
  41  0.998  0.903  0.140-  10 1.84   7 1.84   6 1.92
  42  0.244  0.401  0.390-  14 1.85  19 1.86  16 1.97   2 2.17
  43  0.257  0.598  0.617-  19 1.85  14 1.87  15 1.90   3 2.15
  44  0.743  0.598  0.615-  19 1.83  14 1.85  18 1.92   3 2.14
  45  0.757  0.405  0.385-  14 1.85  19 1.86  17 1.90   1 2.18
  46  0.252  0.099  0.611-  13 1.85  12 1.86   8 1.95   2 2.16
  47  0.252  0.901  0.383-  13 1.85  12 1.86   7 1.90   5 2.15
  48  0.748  0.901  0.385-  13 1.84  12 1.85  10 1.91   5 2.15
  49  0.748  0.095  0.615-  13 1.85  12 1.86   9 1.90   4 2.20
  50  0.500  0.404  0.135-  16 1.85  17 1.85  21 1.89
  51  0.502  0.597  0.861-  18 1.85  15 1.85  21 1.94   3 2.20
  52  0.500  0.102  0.858-   8 1.85   9 1.85  11 1.98   4 1.99
  53  0.502  0.901  0.143-  10 1.84   7 1.84  11 2.00   5 2.13

  LATTYP: Found a triclinic cell.
 ALAT       =    14.7848821627
 B/A-ratio  =     0.3750851251
 C/A-ratio  =     0.6931086183
 COS(alpha) =     0.0001610051
 COS(beta)  =     0.2215826865
 COS(gamma) =     0.7495386554

  Lattice vectors:

 A1 = (   9.7813495115, -11.0863895631,   0.0995427296)
 A2 = (  -0.0025642187,  -5.5455886142,  -0.0013680649)
 A3 = (   3.5290898292,  -0.0009083514,  -9.6206746040)

Analysis of symmetry for initial positions (statically):
 Subroutine PRICEL returns:
 Original cell was already a primitive cell.

 Routine SETGRP: Setting up the symmetry group for a
 triclinic supercell.

 Subroutine GETGRP returns: Found  1 space group operations
 (whereof  1 operations were pure point group operations)
 out of a pool of  2 trial point group operations.

The static configuration has the point symmetry C_1 .

Analysis of symmetry for dynamics (positions and initial velocities):
 Subroutine PRICEL returns:
 Original cell was already a primitive cell.

[...]

The dynamic configuration has the point symmetry C_1 .

Analysis of structural, dynamic, and magnetic symmetry:
 Subroutine PRICEL returns:
 Original cell was already a primitive cell.

 Routine SETGRP: Setting up the symmetry group for a
 triclinic supercell.

 Subroutine GETGRP returns: Found  1 space group operations
 (whereof  1 operations were pure point group operations)
 out of a pool of  2 trial point group operations.

The magnetic configuration has the point symmetry C_1 .

 Subroutine INISYM returns: Found  1 space group operations
 (whereof  1 operations are pure point group operations),
 and found     1 'primitive' translations

 KPOINTS: Automatic mesh

Automatic generation of k-mesh.
Space group operators:
 irot       det(A)        alpha          n_x          n_y          n_z        tau_x        tau_y        tau_z
    1     1.000000     0.000001     1.000000     0.000000     0.000000     0.000000     0.000000     0.000000

 Subroutine IBZKPT returns following result:

 Found      1 irreducible k-points:

 Following reciprocal coordinates:
            Coordinates               Weight
  0.000000  0.000000  0.000000      1.000000

 Following cartesian coordinates:
            Coordinates               Weight
  0.000000  0.000000  0.000000      1.000000

 SYSTEM =  unknown system
 POSCAR =  ce10557_1

 Startparameter for this run:
   NWRITE =      1    write-flag & timer
   PREC   = accura    normal or accurate (medium, high low for compatibility)
   ISTART =      0    job   : 0-new  1-cont  2-samecut
   ICHARG =      2    charge: 1-file 2-atom 10-const
   ISPIN  =      2    spin polarized calculation?
   LNONCOLLINEAR =      F non collinear calculations
   LSORBIT =      F    spin-orbit coupling
   INIWAV =      1    electr: 0-lowe 1-rand  2-diag
   LASPH  =      F    aspherical Exc in radial PAW
   METAGGA=      F    non-selfconsistent MetaGGA calc.

 Electronic Relaxation 1
   ENCUT  =  500.0 eV  36.75 Ry    6.06 a.u.  10.11 18.68 17.84*2*pi/ulx,y,z
   ENINI  =  500.0     initial cutoff
   ENAUG  =  628.9 eV  augmentation charge cutoff
   NELM   =     80;   NELMIN=  2; NELMDL= -5     # of ELM steps
   EDIFF  = 0.1E-04   stopping-criterion for ELM
   LREAL  =      T    real-space projection
   NLSPLINE    = F    spline interpolate recip. space projectors
   LCOMPAT=      F    compatible to vasp.4.4
   GGA_COMPAT  = T    GGA compatible to vasp.4.4-vasp.4.6
   LMAXPAW     = -100 max onsite density
   LMAXMIX     =    2 max onsite mixed and CHGCAR
   VOSKOWN=      1    Vosko Wilk Nusair interpolation
   ROPT   =   -0.00025  -0.00025  -0.00025
 Ionic relaxation
   EDIFFG = -.2E-01   stopping-criterion for IOM
[...]
   -.392E+01 0.186E+00 0.254E+01   0.477E+01 0.192E+00 -.266E+01   -.844E+00 -.358E+00 0.125E+00   0.691E-02 -.174E-02 -.558E-03
   0.364E+01 0.146E+00 0.217E+01   -.354E+01 -.108E+00 -.214E+01   -.903E-01 -.360E-01 -.250E-01   -.673E-02 0.965E-03 0.106E-02
   0.171E+02 -.215E+01 0.788E+02   -.171E+02 0.210E+01 -.796E+02   0.741E-01 0.499E-01 0.754E+00   0.159E-01 -.314E-02 0.777E-03
   0.387E+02 0.297E+00 0.420E+02   -.393E+02 -.341E+00 -.426E+02   0.568E+00 0.345E-01 0.598E+00   -.263E-01 0.151E-02 -.911E-02
   -.512E+01 0.252E+02 0.190E+01   0.522E+01 -.254E+02 -.199E+01   -.122E+00 0.201E+00 0.806E-01   0.253E-01 0.144E-02 0.585E-02
   -.101E+02 -.262E+02 0.201E+02   0.102E+02 0.264E+02 -.203E+02   -.475E-01 -.270E+00 0.200E+00   0.253E-01 -.322E-02 0.491E-02
   0.165E+02 0.527E+00 -.527E+01   -.169E+02 -.538E+00 0.504E+01   0.407E+00 0.181E-01 0.245E+00   -.263E-01 -.314E-02 -.966E-02
   -.255E+02 0.213E+01 -.344E+02   0.256E+02 -.206E+01 0.349E+02   -.813E-01 -.729E-01 -.515E+00   0.143E-01 0.134E-02 0.301E-03
   -.107E+02 0.110E+02 0.493E+02   0.114E+02 -.112E+02 -.503E+02   -.615E+00 0.173E+00 0.101E+01   -.121E-01 -.370E-02 -.217E-02
   -.229E+02 -.117E+02 0.504E+02   0.235E+02 0.118E+02 -.509E+02   -.521E+00 -.156E+00 0.520E+00   -.112E-01 0.175E-02 -.137E-02
   -.439E+01 0.108E+02 -.983E+02   0.403E+01 -.109E+02 0.995E+02   0.372E+00 0.145E+00 -.120E+01   -.135E-01 0.713E-02 -.274E-02
   -.232E+02 0.261E+02 -.487E+02   0.234E+02 -.263E+02 0.492E+02   -.247E+00 0.161E+00 -.517E+00   0.185E-01 -.342E-02 0.856E-02
   -.100E+02 0.119E+01 0.540E+00   0.102E+02 -.124E+01 -.299E+00   -.186E+00 0.262E-01 -.250E+00   -.166E-01 -.225E-02 -.220E-02
   -.453E+01 -.126E+01 -.152E+02   0.481E+01 0.127E+01 0.156E+02   -.275E+00 0.126E-01 -.319E+00   -.174E-01 0.328E-02 -.140E-02
   -.537E+00 -.252E+02 -.909E+00   0.570E+00 0.254E+02 0.107E+01   -.554E-01 -.204E+00 -.170E+00   0.184E-01 0.518E-02 0.813E-02
   0.350E+02 -.113E+02 0.236E+01   -.355E+02 0.115E+02 -.194E+01   0.515E+00 -.176E+00 -.412E+00   -.119E-01 -.545E-02 -.307E-02
   -.330E-01 -.169E+01 -.154E+02   -.153E+00 0.162E+01 0.155E+02   0.179E+00 0.696E-01 -.112E+00   0.105E-01 0.630E-02 0.652E-02
   0.875E+01 0.209E+01 -.298E+02   -.884E+01 -.203E+01 0.298E+02   0.778E-01 -.493E-01 -.633E-01   0.942E-02 -.482E-02 0.667E-02
   -.279E+01 0.295E+02 0.356E+03   0.246E+01 -.316E+02 -.378E+03   0.335E+00 0.210E+01 0.216E+02   -.894E-02 0.142E-01 -.624E-02
   -.132E+02 -.142E+01 -.409E+03   0.136E+02 0.161E+01 0.434E+03   -.410E+00 -.196E+00 -.253E+02   -.162E-02 0.860E-03 -.128E-02
   -.221E+02 0.300E+02 -.349E+03   0.250E+02 -.321E+02 0.369E+03   -.281E+01 0.203E+01 -.191E+02   -.252E-01 -.951E-02 -.134E-01
   0.145E+02 -.306E+01 0.407E+03   -.160E+02 0.339E+01 -.433E+03   0.153E+01 -.337E+00 0.259E+02   0.144E-01 0.476E-02 0.710E-03
   -.243E+02 0.313E+02 0.363E+03   0.247E+02 -.333E+02 -.385E+03   -.444E+00 0.196E+01 0.221E+02   0.174E-01 0.227E-02 0.111E-01
   0.171E+02 0.347E+02 -.381E+03   -.174E+02 -.375E+02 0.404E+03   0.300E+00 0.280E+01 -.231E+02   -.130E-01 0.101E-02 -.744E-02
   0.221E+02 -.341E+02 -.382E+03   -.232E+02 0.369E+02 0.404E+03   0.116E+01 -.283E+01 -.228E+02   -.113E-01 -.106E-02 -.556E-02
   -.184E+02 -.357E+02 0.358E+03   0.189E+02 0.381E+02 -.379E+03   -.550E+00 -.238E+01 0.209E+02   0.309E-01 -.276E-02 0.408E-02
   0.233E+02 -.292E+02 -.360E+03   -.237E+02 0.310E+02 0.382E+03   0.388E+00 -.183E+01 -.215E+02   0.200E-02 0.919E-02 -.847E-02
   -.175E+02 0.226E+02 0.379E+03   0.180E+02 -.239E+02 -.401E+03   -.463E+00 0.123E+01 0.224E+02   0.450E-02 0.937E-02 0.946E-02
   -.219E+02 -.239E+02 0.381E+03   0.231E+02 0.251E+02 -.403E+03   -.119E+01 -.125E+01 0.223E+02   0.109E-01 -.960E-02 0.899E-02
   0.164E+02 0.326E+02 -.356E+03   -.167E+02 -.348E+02 0.377E+03   0.343E+00 0.217E+01 -.205E+02   0.127E-01 -.925E-02 -.135E-01
   0.329E+02 -.300E+02 0.348E+03   -.363E+02 0.321E+02 -.366E+03   0.344E+01 -.204E+01 0.179E+02   0.175E-02 -.146E-01 -.939E-02
   -.562E+02 0.374E+01 -.375E+03   0.621E+02 -.413E+01 0.396E+03   -.597E+01 0.386E+00 -.211E+02   -.944E-02 -.961E-03 0.554E-02
   0.185E+02 -.291E+02 -.370E+03   -.192E+02 0.311E+02 0.391E+03   0.779E+00 -.205E+01 -.216E+02   -.319E-01 0.961E-02 -.106E-01
   0.270E+02 0.161E+01 0.390E+03   -.302E+02 -.190E+01 -.412E+03   0.320E+01 0.299E+00 0.213E+02   0.207E-01 -.470E-02 0.593E-03
   0.494E+02 -.458E+01 0.368E+03   -.541E+02 0.479E+01 -.388E+03   0.466E+01 -.213E+00 0.207E+02   -.113E-01 0.760E-03 0.478E-03
   -.211E+02 0.334E+01 -.410E+03   0.225E+02 -.387E+01 0.436E+03   -.148E+01 0.523E+00 -.260E+02   0.224E-01 0.146E-01 0.119E-01
   -.177E+02 -.168E+01 -.390E+03   0.190E+02 0.153E+01 0.415E+03   -.129E+01 0.144E+00 -.259E+02   0.383E-02 0.476E-02 -.157E-02
   0.211E+02 0.168E+01 0.413E+03   -.216E+02 -.207E+01 -.439E+03   0.509E+00 0.395E+00 0.255E+02   0.744E-02 -.986E-02 0.122E-01
   0.328E+02 -.253E+02 0.342E+03   -.359E+02 0.265E+02 -.361E+03   0.310E+01 -.115E+01 0.187E+02   -.404E-02 -.997E-02 -.409E-02
   0.138E+02 0.252E+02 -.391E+03   -.146E+02 -.267E+02 0.413E+03   0.791E+00 0.154E+01 -.222E+02   0.638E-04 -.888E-02 0.367E-02
   0.595E+01 -.238E+02 -.382E+03   -.570E+01 0.253E+02 0.405E+03   -.241E+00 -.147E+01 -.224E+02   -.128E-01 0.818E-02 0.119E-01
   -.309E+01 0.260E+02 0.359E+03   0.374E+01 -.273E+02 -.380E+03   -.650E+00 0.133E+01 0.215E+02   -.585E-02 0.986E-02 -.668E-02
   -.329E+02 0.284E+02 -.343E+03   0.359E+02 -.298E+02 0.362E+03   -.305E+01 0.143E+01 -.190E+02   0.157E-01 -.450E-02 0.772E-02
   -.143E+02 0.333E+02 0.392E+03   0.151E+02 -.358E+02 -.415E+03   -.761E+00 0.254E+01 0.227E+02   -.230E-01 -.510E-02 -.966E-02
   -.647E+01 -.349E+02 0.384E+03   0.623E+01 0.376E+02 -.407E+03   0.274E+00 -.267E+01 0.230E+02   -.333E-01 0.533E-02 -.458E-02
   0.341E+01 -.290E+02 -.359E+03   -.420E+01 0.306E+02 0.381E+03   0.781E+00 -.169E+01 -.217E+02   0.101E-01 0.476E-02 0.794E-02
   0.231E+01 0.128E+01 0.403E+03   -.237E+01 -.113E+01 -.428E+03   0.695E-01 -.155E+00 0.258E+02   -.169E-01 -.817E-03 -.237E-02
   -.346E+02 -.193E+01 -.395E+03   0.380E+02 0.233E+01 0.417E+03   -.343E+01 -.383E+00 -.214E+02   0.254E-01 -.148E-01 0.108E-01
   -.583E+02 0.486E+01 -.370E+03   0.634E+02 -.507E+01 0.390E+03   -.514E+01 0.219E+00 -.199E+02   0.140E-01 -.466E-02 -.673E-02
   0.632E+02 -.388E+01 0.379E+03   -.692E+02 0.438E+01 -.400E+03   0.601E+01 -.508E+00 0.212E+02   -.376E-02 0.994E-02 0.157E-01
   0.251E+00 0.171E+00 0.820E-01   0.171E-12 0.152E-12 -.114E-12   -.259E+00 -.158E+00 -.114E+00   0.282E-02 -.736E-02 0.213E-01

 POSITION                                       TOTAL-FORCE (eV/Angst)
      1.31223      5.44004      2.46252        -0.028625     -0.009654     -0.003643
      4.01416      1.38130      2.48025         0.000345     -0.006231     -0.000541
      4.68358      2.80126      7.34779        -0.001508      0.000951     -0.001713
      6.66819      2.91685      2.51771         0.012883      0.017503      0.005611
     -0.19468      2.80017      7.30905         0.004656      0.003292      0.001088
      6.24686      5.56607      9.76094         0.004155     -0.002144     -0.001777
      2.45275      1.38182      0.02591         0.007396     -0.008454      0.005257
      7.33852      1.37879      0.09211         0.001809      0.002985      0.004159
      3.81439      4.18776      9.77323         0.003044     -0.006007      0.002735
      2.46340      4.16090      0.06203         0.006530      0.003513      0.004326
      0.00335      2.76993      0.04435         0.000999     -0.000756     -0.001172
      1.36911      5.56325      9.73904        -0.001808     -0.000191      0.002732
      1.36460      2.79501      9.73065         0.000777     -0.003004      0.002276
      3.13205      5.55872      4.95610        -0.003253      0.004879     -0.003425
      5.57425      1.39463      4.91505        -0.005010      0.014856     -0.004081
      0.67110      1.39876      4.88161        -0.007657     -0.020243     -0.010240
      0.67054      4.17271      4.90163        -0.008878      0.023768     -0.009966
      5.56552      4.18006      4.88996        -0.003896     -0.009240     -0.003427
      3.11925      2.79124      4.88258         0.004559     -0.002417     -0.003471
     -1.76009      5.55835      4.85754         0.003224      0.002254     -0.000269
     -1.75393      2.78428      4.86909        -0.006698      0.001383     -0.000105
      4.77991      0.03921      3.95025        -0.002321      0.005244      0.000209
      1.44294      0.01614      5.83212         0.002516      0.001373     -0.006921
      3.16952      0.02107      1.03176        -0.000683     -0.005526     -0.008120
      3.08077      0.02706      8.81737         0.000832      0.001657      0.005540
      7.24792      1.41705      4.00437        -0.001990      0.005374      0.006105
     -0.99974      1.39916      5.81712        -0.003976     -0.000455      0.000387
     -0.98594      4.16322      5.82365        -0.000073     -0.000730      0.001029
      7.26991      4.16537      4.00213         0.003857      0.004039      0.005142
      0.78550      1.34245      0.94522         0.004528     -0.004797     -0.006252
      5.47590      1.45394      8.84651         0.000062      0.000424      0.001575
      5.46577      4.13743      8.85037        -0.001383      0.000085      0.000882
      0.76576      4.18963      0.95809         0.003201     -0.005721     -0.007378
      4.89011      2.76180      3.88410         0.000567      0.003333      0.005913
      1.35977      2.77912      5.86982         0.004386     -0.002116      0.002549
      3.23685      2.74475      1.00794        -0.002873     -0.004491     -0.004326
      3.07255      2.78908      8.81006         0.003666     -0.001152      0.006361
     -0.04170      5.55823      3.92311         0.000363      0.005542      0.012181
      6.30409      5.54555      5.86373        -0.002407      0.000173      0.002184
      8.11794      5.54248      1.02793         0.003298     -0.004969     -0.001151
     -1.82906      5.55213      8.78555         0.004423     -0.000965     -0.001730
      2.38563      1.36761      3.93514         0.001646      0.005171     -0.000808
      3.92380      1.44331      5.85057        -0.002157     -0.000767     -0.007287
      3.90805      4.12996      5.85221        -0.008021     -0.000398     -0.004308
      2.33126      4.21055      3.97623        -0.003326      0.004430     -0.002125
      5.61839      1.39439      1.02519         0.001377     -0.005826      0.002406
      0.58034      1.41587      8.78095         0.002788      0.001027      0.006402
      0.59759      4.17252      8.79124         0.004366     -0.000618      0.007324
      5.67318      4.15003      0.99792         0.005167     -0.004502      0.002836
     -0.09451      2.78916      3.94019        -0.004566      0.002912      0.004189
      6.30053      2.79918      5.87733        -0.000995     -0.001394     -0.002759
      8.02599      2.77526      1.07710         0.001537     -0.004308     -0.001424
     -1.75889      2.80552      8.75837         0.003145      0.000910     -0.002980
    total drift:                               -0.005317      0.005631     -0.010632

  FREE ENERGIE OF THE ION-ELECTRON SYSTEM (eV)
  free  energy   TOTEN  =      -330.1573376547 eV

  energy  without entropy=     -330.1569179450  energy(sigma->0) =     -330.15712780

 d Force = 0.9697723E-04[ 0.148E-04, 0.179E-03]  d Energy = 0.9741059E-04-0.433E-06
 d Force =-0.9968433E+00[-0.998E+00,-0.995E+00]  d Ewald  =-0.1892906E+01 0.896E+00

 Quasi-Newton relaxation of ions (Broydens 2nd method)
  g(Force)  = 0.252E-03   g(Stress)= 0.603E-04

 retain information from N=  2 steps
 eigenvalues of (default step * inverse Hessian matrix)
  average eigenvalue of G=   0.3381
 eigenvalue spectrum of G is  0.1065  0.5697

volume of typ            1:     7.4 %

[...]

volume of typ            3:     9.9 %

total charge

# of ion       s       p       d       tot
    1        2.066   0.208   0.077   2.351
    2        2.065   0.196   0.073   2.334
    3        2.058   0.184   0.069   2.311
    4        2.068   0.212   0.079   2.359
    5        2.061   0.194   0.072   2.326
    6        0.292   0.407   7.836   8.535
    7        0.301   0.429   7.844   8.573
    8        0.295   0.418   7.844   8.557
    9        0.302   0.431   7.841   8.574
   10        0.292   0.410   7.842   8.544
   11        0.279   0.381   7.846   8.506
   12        0.280   0.384   7.842   8.506
   13        0.295   0.416   7.848   8.559
   14        0.291   0.405   7.838   8.534
   15        0.301   0.429   7.844   8.574
   16        0.294   0.416   7.846   8.556
   17        0.301   0.430   7.842   8.573
   18        0.292   0.410   7.844   8.546
   19        0.278   0.378   7.856   8.513
   20        0.282   0.388   7.832   8.501
   21        0.297   0.417   7.843   8.557
   22        1.271   2.762   0.007   4.040
   23        1.284   2.727   0.008   4.019
   24        1.267   2.772   0.007   4.046
   25        1.284   2.727   0.008   4.020
   26        1.273   2.756   0.008   4.037
   27        1.275   2.750   0.008   4.033
   28        1.273   2.756   0.008   4.037
   29        1.271   2.766   0.008   4.044
   30        1.272   2.759   0.008   4.039
   31        1.273   2.754   0.008   4.035
   32        1.272   2.758   0.008   4.038
   33        1.270   2.767   0.007   4.044
   34        1.267   2.769   0.007   4.043
   35        1.275   2.754   0.007   4.036
   36        1.272   2.757   0.007   4.037
   37        1.275   2.753   0.007   4.036
   38        1.271   2.769   0.008   4.047
   39        1.285   2.725   0.008   4.018
   40        1.282   2.734   0.008   4.024
   41        1.285   2.725   0.008   4.017
   42        1.267   2.770   0.007   4.044
   43        1.272   2.758   0.008   4.037
   44        1.272   2.760   0.008   4.039
   45        1.272   2.759   0.008   4.038
   46        1.268   2.770   0.007   4.045
   47        1.273   2.755   0.008   4.036
   48        1.273   2.756   0.008   4.037
   49        1.273   2.758   0.008   4.038
   50        1.282   2.732   0.008   4.022
   51        1.276   2.750   0.007   4.034
   52        1.271   2.766   0.007   4.044
   53        1.276   2.751   0.007   4.034
tot          55.76   95.67  126.10  277.53

magnetization (x)

# of ion       s       p       d       tot
    1        0.003   0.004  -0.000   0.007
    2        0.000  -0.000  -0.000  -0.001
    3       -0.004  -0.000  -0.000  -0.004
    4        0.004   0.007   0.000   0.010
    5        0.004   0.006   0.000   0.010
    6       -0.000  -0.000  -0.100  -0.100
    7       -0.000  -0.000  -0.028  -0.028
    8       -0.000  -0.000  -0.089  -0.090
    9       -0.000  -0.000  -0.030  -0.030
   10       -0.000  -0.000  -0.073  -0.073
   11        0.002  -0.000   0.418   0.420
   12        0.000   0.000   0.237   0.238
   13       -0.000  -0.000  -0.164  -0.164
   14       -0.000   0.000  -0.120  -0.120
   15       -0.000  -0.000   0.019   0.019
   16        0.000  -0.000   0.081   0.081
   17       -0.000  -0.000   0.020   0.020
   18       -0.000  -0.000   0.061   0.061
   19        0.002   0.000   0.445   0.448
   20        0.000   0.000   0.189   0.189
   21       -0.000   0.000  -0.148  -0.148
   22       -0.000  -0.010  -0.000  -0.011
   23       -0.001  -0.011  -0.000  -0.012
   24        0.002   0.012   0.000   0.014
   25        0.002   0.028   0.000   0.030
   26        0.000  -0.000   0.000  -0.000
   27        0.001   0.009   0.000   0.010
   28        0.001   0.002   0.000   0.002
   29        0.000   0.004   0.000   0.004
   30        0.000   0.002   0.000   0.002
   31       -0.000   0.002  -0.000   0.001
   32        0.001   0.009  -0.000   0.010
   33       -0.000  -0.003  -0.000  -0.003
   34        0.005   0.041   0.000   0.046
   35        0.005   0.052   0.000   0.057
   36       -0.002  -0.018  -0.000  -0.020
   37       -0.003  -0.020  -0.000  -0.023
   38        0.002   0.010   0.000   0.012
   39        0.002   0.022   0.000   0.024
   40       -0.001  -0.012  -0.000  -0.013
   41       -0.002  -0.017  -0.000  -0.020
   42        0.001   0.008   0.000   0.009
   43        0.001   0.011   0.000   0.012
   44        0.001   0.013   0.000   0.014
   45        0.000   0.004   0.000   0.005
   46       -0.001  -0.006  -0.000  -0.007
   47        0.000  -0.000   0.000  -0.000
   48       -0.000  -0.005  -0.000  -0.006
   49       -0.000  -0.001   0.000  -0.001
   50       -0.001  -0.015  -0.000  -0.016
   51       -0.001  -0.010  -0.000  -0.011
   52        0.004   0.036   0.000   0.040
   53        0.004   0.041   0.000   0.045
tot           0.03    0.19    0.72    0.94