 vasp.5.4.4.18Apr17-6-g9f103f2a35 (build May 12 2020 05:39:39) gamma-only

 MD_VERSION_INFO: Compiled 2020-05-12T12:39:39-UTC in devlin.sd.materialsdesign.
 com:/home/medea2/data/build/wwolf/vasp-gpu5.4.4/13047/x86_64/src/src/build/gam
 from svn 13047

 executed on                        Lin64 date 2023.03.07  06:38:59

 INCAR:
 POTCAR:    PAW_PBE Li_sv 10Sep2004
 POTCAR:    PAW_PBE Ni 02Aug2007
 POTCAR:    PAW_PBE O 08Apr2002

 POTCAR:    PAW_PBE Li_sv 10Sep2004

 POTCAR:    PAW_PBE Ni 02Aug2007

 POTCAR:    PAW_PBE O 08Apr2002

 Optimization of the real space projectors (new method)

 maximal supplied QI-value         = 22.11
 optimisation between [QCUT,QGAM] = [ 11.28, 22.77] = [ 35.61,145.23] Ry
 Optimized for a Real-space Cutoff    1.10 Angstroem

   l    n(q)    QCUT    max X(q) W(low)/X(q) W(high)/X(q)  e(spline)
   0      7    11.276    10.506    0.54E-04    0.58E-04    0.16E-07
   0      7    11.276     8.367    0.11E-03    0.14E-03    0.35E-07
   1      7    11.276     8.983    0.23E-03    0.43E-03    0.86E-07
 Optimization of the real space projectors (new method)

[...]

   l    n(q)    QCUT    max X(q) W(low)/X(q) W(high)/X(q)  e(spline)
   2      9    11.376    60.317    0.17E-03    0.16E-04    0.16E-06
   2      9    11.376    55.921    0.17E-03    0.16E-04    0.17E-06
   0     10    11.376    51.690    0.45E-04    0.60E-04    0.21E-06
   0     10    11.376    30.015    0.37E-04    0.55E-04    0.19E-06
   1     10    11.376    18.849    0.83E-04    0.11E-03    0.92E-07
   1     10    11.376    14.624    0.69E-04    0.92E-04    0.82E-07
 Optimization of the real space projectors (new method)

 maximal supplied QI-value         = 24.76
 optimisation between [QCUT,QGAM] = [ 11.39, 22.77] = [ 36.31,145.25] Ry
 Optimized for a Real-space Cutoff    1.10 Angstroem

   l    n(q)    QCUT    max X(q) W(low)/X(q) W(high)/X(q)  e(spline)
   0      7    11.387    20.381    0.22E-03    0.48E-03    0.18E-06
   0      7    11.387    15.268    0.22E-03    0.52E-03    0.19E-06
   1      7    11.387     5.964    0.22E-03    0.73E-03    0.24E-06
   1      7    11.387     5.382    0.19E-03    0.60E-03    0.21E-06

  PAW_PBE Li_sv 10Sep2004               :
  PAW_PBE Ni 02Aug2007                  :
  PAW_PBE O 08Apr2002                   :

 POSCAR: ce17328_1
  positions in direct lattice
 exchange correlation table for  LEXCH =       14
   RHO(1)=    0.500       N(1)  =     2000
   RHO(2)=  100.500       N(2)  =     4000

 ion  position               nearest neighbor table
   1  0.500  0.251  0.249-  48 2.11  34 2.12  43 2.17  40 2.17  28 2.17  31 2.17
   2  0.000  0.249  0.751-  38 2.13  20 2.15  27 2.17  24 2.17  44 2.18  47 2.18
   3  0.000  0.751  0.249-  39 2.10  21 2.12  26 2.17  25 2.17  45 2.17  46 2.17
   4  0.000  1.000  1.000-  29 1.84  30 1.84  28 1.86  31 1.86  38 1.96  39 1.98   9 2.78   9 2.78
                             6 2.80   7 2.80   5 2.80   8 2.80
   5  0.250  0.001  0.250-  34 1.84  39 1.84  51 1.85  22 1.85  28 1.89  45 1.89   8 2.78   8 2.78
                             4 2.80  10 2.80   9 2.81  11 2.81
   6  0.251  0.994  0.748-  35 1.83  38 1.84  50 1.85  23 1.85  29 1.89  44 1.90   7 2.77   7 2.79
                             9 2.80  11 2.80   4 2.80  10 2.80
   7  0.749  0.994  0.748-  35 1.83  38 1.84  50 1.85  23 1.85  30 1.89  47 1.90   6 2.77   6 2.79
                             9 2.80  11 2.80   4 2.80  10 2.80
   8  0.750  0.001  0.250-  34 1.84  39 1.84  51 1.85  22 1.85  31 1.89  46 1.89   5 2.78   5 2.78
                             4 2.80  10 2.80   9 2.81  11 2.81
   9  0.500  0.996  0.998-  29 1.85  30 1.85  28 1.85  31 1.85  50 1.88  51 1.89   4 2.78   4 2.78
                             7 2.80   6 2.80   8 2.81   5 2.81
  10  0.000  0.999  0.500-  45 1.84  46 1.84  44 1.84  47 1.84  23 1.89  22 1.90  11 2.78  11 2.78
                             6 2.80   7 2.80   5 2.80   8 2.80
  11  0.500  1.000  0.500-  44 1.86  47 1.86  46 1.86  45 1.86  35 1.94  34 1.99  10 2.78  10 2.78
                             6 2.80   7 2.80   5 2.81   8 2.81
  12  0.000  0.500  0.500-  41 1.84  42 1.84  40 1.86  43 1.86  20 1.97  21 1.98  17 2.78  17 2.78
                            14 2.80  15 2.80  13 2.81  16 2.81
  13  0.251  0.505  0.752-  49 1.83  20 1.84  32 1.85  37 1.85  41 1.89  24 1.90  16 2.77  16 2.79
                            19 2.79  18 2.80  17 2.80  12 2.81
  14  0.250  0.501  0.251-  48 1.84  21 1.84  33 1.85  36 1.85  40 1.89  25 1.90  15 2.78  15 2.78
                            12 2.80  17 2.80  18 2.81  19 2.81
  15  0.750  0.501  0.251-  48 1.84  21 1.84  33 1.85  36 1.85  43 1.89  26 1.90  14 2.78  14 2.78
                            12 2.80  17 2.80  18 2.81  19 2.81
  16  0.749  0.505  0.752-  49 1.83  20 1.84  32 1.85  37 1.85  42 1.89  27 1.90  13 2.77  13 2.79
                            19 2.79  18 2.80  17 2.80  12 2.81
  17  0.500  0.504  0.502-  41 1.84  42 1.84  40 1.85  43 1.85  32 1.88  33 1.89  12 2.78  12 2.78
                            16 2.80  13 2.80  14 2.80  15 2.80
  18  0.000  0.501  1.000-  25 1.84  26 1.84  24 1.85  27 1.85  37 1.88  36 1.90  19 2.78  19 2.78
                            13 2.80  16 2.80  15 2.81  14 2.81
  19  0.500  0.500  0.999-  24 1.86  27 1.86  26 1.86  25 1.86  49 1.93  48 1.99  18 2.78  18 2.78
                            13 2.79  16 2.79  15 2.81  14 2.81
  20  0.000  0.403  0.644-  13 1.84  16 1.84  12 1.97   2 2.15
  21  0.000  0.602  0.358-  14 1.84  15 1.84  12 1.98   3 2.12
  22  0.000  0.098  0.365-   5 1.85   8 1.85  10 1.90
  23  0.000  0.899  0.632-   6 1.85   7 1.85  10 1.89
  24  0.248  0.404  0.885-  18 1.85  19 1.86  13 1.90   2 2.17
  25  0.249  0.598  0.114-  18 1.84  19 1.86  14 1.90   3 2.17
  26  0.751  0.598  0.114-  18 1.84  19 1.86  15 1.90   3 2.17
  27  0.752  0.404  0.885-  18 1.85  19 1.86  16 1.90   2 2.17
  28  0.254  0.096  0.114-   9 1.85   4 1.86   5 1.89   1 2.17
  29  0.247  0.900  0.886-   4 1.84   9 1.85   6 1.89
  30  0.753  0.900  0.886-   4 1.84   9 1.85   7 1.89
  31  0.746  0.096  0.114-   9 1.85   4 1.86   8 1.89   1 2.17
  32  0.500  0.408  0.637-  13 1.85  16 1.85  17 1.88
  33  0.500  0.599  0.365-  14 1.85  15 1.85  17 1.89
  34  0.500  0.102  0.358-   5 1.84   8 1.84  11 1.99   1 2.12
  35  0.500  0.897  0.637-   6 1.83   7 1.83  11 1.94
  36  0.000  0.404  0.136-  14 1.85  15 1.85  18 1.90
  37  0.000  0.600  0.867-  13 1.85  16 1.85  18 1.88
  38  0.000  0.096  0.856-   6 1.84   7 1.84   4 1.96   2 2.13
  39  0.000  0.900  0.143-   5 1.84   8 1.84   4 1.98   3 2.10
  40  0.254  0.404  0.386-  17 1.85  12 1.86  14 1.89   1 2.17
  41  0.247  0.598  0.614-  12 1.84  17 1.84  13 1.89
  42  0.753  0.598  0.614-  12 1.84  17 1.84  16 1.89
  43  0.746  0.404  0.386-  17 1.85  12 1.86  15 1.89   1 2.17
  44  0.248  0.095  0.615-  10 1.84  11 1.86   6 1.90   2 2.18
  45  0.249  0.903  0.385-  10 1.84  11 1.86   5 1.89   3 2.17
  46  0.751  0.903  0.385-  10 1.84  11 1.86   8 1.89   3 2.17
  47  0.752  0.095  0.615-  10 1.84  11 1.86   7 1.90   2 2.18
  48  0.500  0.400  0.143-  14 1.84  15 1.84  19 1.99   1 2.11
  49  0.500  0.602  0.863-  13 1.83  16 1.83  19 1.93
  50  0.500  0.091  0.862-   6 1.85   7 1.85   9 1.88
  51  0.500  0.902  0.137-   5 1.85   8 1.85   9 1.89

  LATTYP: Found a simple monoclinic cell.
 ALAT       =    11.5344940762
 B/A-ratio  =     0.4818658446
 C/A-ratio  =     1.6881032020
 COS(beta)  =    -0.9089651639

  Lattice vectors:

 A1 = (  -6.2412846076,   0.0000000000,  -9.7000474246)
 A2 = (   0.0000000000,  -5.5580787298,   0.0000000000)
 A3 = (   2.7506482688,   0.0000000000,  19.2761508108)

Analysis of symmetry for initial positions (statically):
 Subroutine PRICEL returns:
 Original cell was already a primitive cell.

 Routine SETGRP: Setting up the symmetry group for a
 simple monoclinic supercell.

 Subroutine GETGRP returns: Found  2 space group operations
 (whereof  2 operations were pure point group operations)
 out of a pool of  4 trial point group operations.

The static configuration has the point symmetry C_1h.

Analysis of symmetry for dynamics (positions and initial velocities):
 Subroutine PRICEL returns:
 Original cell was already a primitive cell.

[...]

The dynamic configuration has the point symmetry C_1h.

Analysis of structural, dynamic, and magnetic symmetry:
 Subroutine PRICEL returns:
 Original cell was already a primitive cell.

 Routine SETGRP: Setting up the symmetry group for a
 simple monoclinic supercell.

 Subroutine GETGRP returns: Found  2 space group operations
 (whereof  2 operations were pure point group operations)
 out of a pool of  4 trial point group operations.

The magnetic configuration has the point symmetry C_1h.

 Subroutine INISYM returns: Found  2 space group operations
 (whereof  2 operations are pure point group operations),
 and found     1 'primitive' translations

 KPOINTS: Automatic mesh

Automatic generation of k-mesh.
Space group operators:
 irot       det(A)        alpha          n_x          n_y          n_z        tau_x        tau_y        tau_z
    1     1.000000     0.000001     1.000000     0.000000     0.000000     0.000000     0.000000     0.000000
    2    -1.000000   180.000000     0.000000     1.000000     0.000000     0.000000     0.000000     0.000000

 Subroutine IBZKPT returns following result:

 Found      1 irreducible k-points:

 Following reciprocal coordinates:
            Coordinates               Weight
  0.000000  0.000000  0.000000      1.000000

 Following cartesian coordinates:
            Coordinates               Weight
  0.000000  0.000000  0.000000      1.000000

 SYSTEM =  unknown system
 POSCAR =  ce17328_1

 Startparameter for this run:
   NWRITE =      1    write-flag & timer
   PREC   = accura    normal or accurate (medium, high low for compatibility)
   ISTART =      0    job   : 0-new  1-cont  2-samecut
   ICHARG =      2    charge: 1-file 2-atom 10-const
   ISPIN  =      2    spin polarized calculation?
   LNONCOLLINEAR =      F non collinear calculations
   LSORBIT =      F    spin-orbit coupling
   INIWAV =      1    electr: 0-lowe 1-rand  2-diag
   LASPH  =      F    aspherical Exc in radial PAW
   METAGGA=      F    non-selfconsistent MetaGGA calc.

 Electronic Relaxation 1
   ENCUT  =  500.0 eV  36.75 Ry    6.06 a.u.  10.13 18.58 17.74*2*pi/ulx,y,z
   ENINI  =  500.0     initial cutoff
   ENAUG  =  628.9 eV  augmentation charge cutoff
   NELM   =     80;   NELMIN=  2; NELMDL= -5     # of ELM steps
   EDIFF  = 0.1E-04   stopping-criterion for ELM
   LREAL  =      T    real-space projection
   NLSPLINE    = F    spline interpolate recip. space projectors
   LCOMPAT=      F    compatible to vasp.4.4
   GGA_COMPAT  = T    GGA compatible to vasp.4.4-vasp.4.6
   LMAXPAW     = -100 max onsite density
   LMAXMIX     =    2 max onsite mixed and CHGCAR
   VOSKOWN=      1    Vosko Wilk Nusair interpolation
   ROPT   =   -0.00025  -0.00025  -0.00025
 Ionic relaxation
   EDIFFG = -.2E-01   stopping-criterion for IOM
   NSW    =     20    number of steps for IOM
   NBLOCK =      1;   KBLOCK =     20    inner block; outer block
   IBRION =      1    ionic relax: 0-MD 1-quasi-New 2-CG
[...]

 FORCES acting on ions
    electron-ion (+dipol)            ewald-force                    non-local-force                 convergence-correction
   0.261E+00 0.200E-12 0.640E+00   -.281E+00 0.964E-14 -.609E+00   0.236E-01 0.000E+00 -.169E-01   0.393E-03 -.225E-13 -.186E-01
   -.238E+00 -.563E-14 -.728E+00   0.253E+00 0.829E-14 0.733E+00   -.221E-01 0.000E+00 0.192E-01   0.184E-02 0.338E-13 -.185E-01
   0.163E+00 -.620E-14 0.449E+00   -.191E+00 -.225E-13 -.452E+00   0.353E-01 0.000E+00 -.190E-01   -.192E-02 -.183E-13 0.188E-01
   0.935E+01 -.419E-13 -.201E+02   -.968E+01 -.675E-13 0.200E+02   0.337E+00 0.000E+00 0.138E+00   -.401E-03 -.742E-13 -.919E-03
   -.259E+00 0.199E+01 -.148E+02   0.318E+00 -.195E+01 0.149E+02   -.610E-01 -.501E-01 -.141E+00   -.239E-02 -.240E-02 -.218E-02
   -.170E+02 -.115E+02 0.332E+02   0.175E+02 0.117E+02 -.342E+02   -.485E+00 -.108E+00 0.975E+00   0.226E-02 -.179E-03 0.239E-02
   -.170E+02 0.115E+02 0.332E+02   0.175E+02 -.117E+02 -.342E+02   -.485E+00 0.108E+00 0.975E+00   0.226E-02 0.179E-03 0.239E-02
   -.259E+00 -.199E+01 -.148E+02   0.318E+00 0.195E+01 0.149E+02   -.610E-01 0.501E-01 -.141E+00   -.239E-02 0.240E-02 -.218E-02
   0.298E+02 0.958E-12 0.349E+02   -.302E+02 0.114E-12 -.357E+02   0.359E+00 0.000E+00 0.795E+00   -.561E-03 0.600E-13 0.113E-02
   -.449E+01 -.217E-13 -.204E+02   0.442E+01 0.721E-14 0.204E+02   0.659E-01 0.000E+00 0.119E-01   -.106E-02 0.966E-13 0.328E-03
   0.778E+00 0.100E-11 -.268E+02   -.782E+00 0.110E-14 0.266E+02   0.306E-02 0.000E+00 0.184E+00   0.424E-03 -.103E-12 -.980E-03
   -.920E+01 -.608E-14 0.204E+02   0.954E+01 -.773E-13 -.202E+02   -.345E+00 0.000E+00 -.126E+00   -.164E-02 -.150E-12 -.149E-02
   0.155E+02 -.118E+02 -.293E+02   -.160E+02 0.119E+02 0.303E+02   0.491E+00 -.107E+00 -.936E+00   0.412E-02 -.413E-04 0.168E-02
   0.145E+01 0.163E+01 0.104E+02   -.149E+01 -.159E+01 -.105E+02   0.491E-01 -.491E-01 0.880E-01   -.417E-02 0.149E-02 -.127E-02
   0.145E+01 -.163E+01 0.104E+02   -.149E+01 0.159E+01 -.105E+02   0.491E-01 0.491E-01 0.880E-01   -.417E-02 -.149E-02 -.127E-02
   0.155E+02 0.118E+02 -.293E+02   -.160E+02 -.119E+02 0.303E+02   0.491E+00 0.107E+00 -.936E+00   0.412E-02 0.413E-04 0.168E-02
   -.300E+02 0.993E-12 -.345E+02   0.303E+02 0.198E-12 0.353E+02   -.364E+00 0.000E+00 -.785E+00   -.134E-02 0.119E-12 0.190E-03
   0.450E+01 -.263E-13 0.208E+02   -.443E+01 -.295E-13 -.208E+02   -.664E-01 0.000E+00 -.472E-02   0.385E-03 0.505E-13 -.226E-04
   -.679E+00 0.987E-12 0.267E+02   0.686E+00 -.226E-13 -.265E+02   -.961E-02 0.000E+00 -.179E+00   0.116E-02 -.753E-13 -.107E-02
   0.401E+02 0.102E-12 0.377E+03   -.439E+02 0.737E-14 -.398E+03   0.378E+01 0.000E+00 0.217E+02   0.279E-01 -.209E-13 -.292E-01
   -.518E+02 -.651E-13 -.368E+03   0.565E+02 0.519E-13 0.391E+03   -.463E+01 0.000E+00 -.227E+02   -.267E-01 -.202E-13 0.304E-01
   -.910E+01 -.761E-13 -.411E+03   0.952E+01 0.234E-13 0.437E+03   -.429E+00 0.000E+00 -.258E+02   0.179E-02 0.540E-15 -.247E-01
   -.754E+01 -.521E-13 0.400E+03   0.738E+01 0.312E-13 -.427E+03   0.162E+00 0.000E+00 0.270E+02   -.280E-02 -.650E-13 0.244E-01
   -.816E+01 -.320E+02 0.384E+03   0.886E+01 0.344E+02 -.407E+03   -.690E+00 -.233E+01 0.228E+02   -.101E-01 -.163E-01 -.322E-01
   0.181E+02 -.332E+02 -.362E+03   -.192E+02 0.360E+02 0.384E+03   0.106E+01 -.278E+01 -.224E+02   0.103E-01 -.164E-01 0.325E-01
   0.181E+02 0.332E+02 -.362E+03   -.192E+02 -.360E+02 0.384E+03   0.106E+01 0.278E+01 -.224E+02   0.103E-01 0.164E-01 0.325E-01
   -.816E+01 0.320E+02 0.384E+03   0.886E+01 -.344E+02 -.407E+03   -.690E+00 0.233E+01 0.228E+02   -.101E-01 0.163E-01 -.322E-01
   0.280E+02 0.303E+02 -.376E+03   -.301E+02 -.323E+02 0.399E+03   0.203E+01 0.207E+01 -.226E+02   -.106E-01 -.172E-01 -.326E-01
   0.281E+01 0.436E+01 0.392E+03   -.255E+01 -.504E+01 -.419E+03   -.272E+00 0.699E+00 0.266E+02   0.117E-01 -.177E-01 0.341E-01
   0.281E+01 -.436E+01 0.392E+03   -.255E+01 0.504E+01 -.419E+03   -.272E+00 -.699E+00 0.266E+02   0.117E-01 0.177E-01 0.341E-01
   0.280E+02 -.303E+02 -.376E+03   -.301E+02 0.323E+02 0.399E+03   0.203E+01 -.207E+01 -.226E+02   -.106E-01 0.172E-01 -.326E-01
   0.153E+01 0.312E-12 0.396E+03   -.169E+01 0.530E-13 -.422E+03   0.164E+00 0.000E+00 0.261E+02   0.463E-02 -.674E-13 -.216E-01
   -.113E+02 0.160E-12 -.400E+03   0.112E+02 0.388E-13 0.427E+03   0.113E+00 0.000E+00 -.266E+02   -.464E-02 0.110E-12 0.229E-01
   -.564E+02 0.176E-12 -.383E+03   0.616E+02 -.143E-13 0.404E+03   -.522E+01 0.000E+00 -.217E+02   0.179E-01 0.835E-13 -.289E-01
   0.846E+01 0.155E-12 0.395E+03   -.100E+02 0.315E-14 -.422E+03   0.159E+01 0.000E+00 0.273E+02   -.195E-01 -.324E-13 0.292E-01
   0.812E+01 -.236E-13 0.411E+03   -.836E+01 -.625E-13 -.437E+03   0.246E+00 0.000E+00 0.258E+02   0.758E-03 0.789E-14 -.230E-01
   0.833E+01 0.990E-13 -.400E+03   -.832E+01 0.553E-15 0.427E+03   -.846E-02 0.000E+00 -.270E+02   -.142E-02 -.394E-14 0.231E-01
   -.396E+02 -.746E-13 -.376E+03   0.432E+02 0.503E-13 0.398E+03   -.362E+01 0.000E+00 -.216E+02   0.241E-01 0.637E-13 -.274E-01
   0.512E+02 -.567E-13 0.368E+03   -.557E+02 0.306E-14 -.390E+03   0.445E+01 0.000E+00 0.225E+02   -.217E-01 -.737E-13 0.294E-01
   -.263E+02 0.301E+02 0.376E+03   0.282E+02 -.321E+02 -.398E+03   -.191E+01 0.206E+01 0.226E+02   -.137E-01 0.187E-01 -.346E-01
   -.440E+01 0.430E+01 -.392E+03   0.421E+01 -.502E+01 0.418E+03   0.176E+00 0.705E+00 -.266E+02   0.142E-01 0.192E-01 0.358E-01
   -.440E+01 -.430E+01 -.392E+03   0.421E+01 0.502E+01 0.418E+03   0.176E+00 -.705E+00 -.266E+02   0.142E-01 -.192E-01 0.358E-01
   -.263E+02 -.301E+02 0.376E+03   0.282E+02 0.321E+02 -.398E+03   -.191E+01 -.206E+01 0.226E+02   -.137E-01 -.187E-01 -.346E-01
   0.663E+01 -.320E+02 -.383E+03   -.722E+01 0.344E+02 0.406E+03   0.597E+00 -.232E+01 -.228E+02   -.977E-02 0.137E-01 -.314E-01
   -.165E+02 -.331E+02 0.362E+03   0.174E+02 0.358E+02 -.384E+03   -.940E+00 -.275E+01 0.224E+02   0.853E-02 0.136E-01 0.321E-01
   -.165E+02 0.331E+02 0.362E+03   0.174E+02 -.358E+02 -.384E+03   -.940E+00 0.275E+01 0.224E+02   0.853E-02 -.136E-01 0.321E-01
   0.663E+01 0.320E+02 -.383E+03   -.722E+01 -.344E+02 0.406E+03   0.597E+00 0.232E+01 -.228E+02   -.977E-02 -.137E-01 -.314E-01
   0.554E+02 0.170E-12 0.382E+03   -.605E+02 0.598E-13 -.404E+03   0.506E+01 0.000E+00 0.217E+02   0.205E-01 -.110E-12 -.288E-01
   -.745E+01 0.282E-12 -.395E+03   0.889E+01 0.682E-13 0.423E+03   -.142E+01 0.000E+00 -.273E+02   -.217E-01 0.946E-13 0.297E-01
   -.847E+00 0.121E-12 -.396E+03   0.853E+00 0.185E-13 0.422E+03   -.135E-01 0.000E+00 -.261E+02   0.370E-02 0.201E-13 -.207E-01
   0.106E+02 0.141E-12 0.401E+03   -.103E+02 0.532E-13 -.427E+03   -.292E+00 0.000E+00 0.266E+02   -.227E-02 -.280E-13 0.231E-01
   -.360E-01 0.194E-10 0.395E-01   0.959E-13 0.129E-12 -.341E-12   0.330E-01 0.000E+00 -.461E-01   -.130E-02 -.229E-12 -.487E-02

 POSITION                                       TOTAL-FORCE (eV/Angst)
      1.55083      2.77979      2.43520         0.004445      0.000000     -0.004764
      6.42918      0.00000      2.48898        -0.005248      0.000000      0.006101
     -0.19465      0.00000      7.23262         0.006111      0.000000     -0.003735
      6.24109      0.00000      9.71885         0.003694      0.000000      0.004812
      2.42544      1.39146      0.03254        -0.004283     -0.007361     -0.013566
      3.80353      1.39335      9.63238         0.002684      0.005378     -0.002313
      3.80353      4.16624      9.63238         0.002684     -0.005378     -0.002313
      2.42544      4.16813      0.03254        -0.004283      0.007361     -0.013566
      6.23487      2.77979      9.67997        -0.005189      0.000000      0.002477
      1.38072      0.00000      9.64975        -0.004704      0.000000     -0.002059
      1.38713      2.77979      9.65609        -0.001013      0.000000     -0.003253
      3.11349      0.00000      4.86509        -0.007849      0.000000      0.002944
      5.55114      1.39321      4.94085        -0.001446      0.006061      0.006219
      0.69258      1.39128      4.84088         0.007996     -0.005658     -0.001460
      0.69258      4.16830      4.84088         0.007996      0.005658     -0.001460
      5.55114      4.16637      4.94085        -0.001446     -0.006061      0.006219
      3.11992      2.77979      4.90414         0.003166      0.000000      0.004965
      7.97365      0.00000      4.93405         0.001307      0.000000      0.005787
      7.96737      2.77979      4.92783        -0.001542      0.000000      0.005852
      4.84338      0.00000      3.95923         0.000762      0.000000      0.009103
      1.39666      0.00000      5.81841         0.003078      0.000000      0.000493
      3.19604      0.00000      0.97636        -0.008175      0.000000     -0.007919
      3.02135      0.00000      8.70329        -0.002347      0.000000     -0.003577
      7.19171      1.37827      3.98783        -0.002987     -0.003658     -0.000342
     -0.97107      1.38363      5.74835         0.002747     -0.000421      0.000404
     -0.97107      4.17596      5.74835         0.002747      0.000421      0.000404
      7.19171      4.18132      3.98783        -0.002987      0.003658     -0.000342
      0.76967      1.41387      0.93807         0.002184     -0.001846     -0.002200
      5.48031      1.37266      8.75839        -0.000145     -0.001597     -0.000160
      5.48031      4.18693      8.75839        -0.000145      0.001597     -0.000160
      0.76967      4.14572      0.93807         0.002184      0.001846     -0.002200
      4.78058      2.77979      4.00085         0.006935      0.000000      0.007968
      1.45057      2.77979      5.79576        -0.001675      0.000000      0.003163
      3.12904      2.77979      1.00980         0.006048      0.000000     -0.008998
      3.05763      2.77979      8.69123        -0.011330      0.000000      0.000634
     -0.07505      0.00000      3.89479         0.006147      0.000000     -0.001115
      6.33069      0.00000      5.87146        -0.000757      0.000000      0.014287
      7.99495      0.00000      1.01766         0.006489      0.000000      0.002293
     -1.76172      0.00000      8.65045        -0.012314      0.000000     -0.010580
      2.34329      1.41350      3.92947         0.003107      0.001701     -0.007514
      3.87971      1.37225      5.82016        -0.004939      0.002387      0.007208
      3.87971      4.18733      5.82016        -0.004939     -0.002387      0.007208
      2.34329      4.14609      3.92947         0.003107     -0.001701     -0.007514
      5.65174      1.37808      0.99462        -0.001566      0.000894      0.004849
      0.59965      1.38374      8.71475         0.005294      0.002564     -0.002762
      0.59965      4.17585      8.71475         0.005294     -0.002564     -0.002762
      5.65174      4.18151      0.99462        -0.001566     -0.000894      0.004849
     -0.01028      2.77979      3.86273         0.002847      0.000000     -0.000930
      6.29581      2.77979      5.88313         0.001678      0.000000      0.009817
      8.05596      2.77979      0.97725        -0.003514      0.000000      0.003478
     -1.81334      2.77979      8.67232        -0.004337      0.000000     -0.013971
    total drift:                               -0.004285      0.000000     -0.011415

  FREE ENERGIE OF THE ION-ELECTRON SYSTEM (eV)
  free  energy   TOTEN  =      -319.4461112817 eV

  energy  without entropy=     -319.4390590659  energy(sigma->0) =     -319.44258517

 d Force = 0.2784673E-03[ 0.150E-03, 0.407E-03]  d Energy = 0.3553414E-03-0.769E-04
 d Force =-0.6130890E+01[-0.614E+01,-0.613E+01]  d Ewald  =-0.1047177E+02 0.434E+01

 Quasi-Newton relaxation of ions (Broydens 2nd method)
  g(Force)  = 0.166E-03   g(Stress)= 0.301E-03

 retain information from N=  1 steps
 eigenvalues of (default step * inverse Hessian matrix)
  average eigenvalue of G=   0.0257
 eigenvalue spectrum of G is  0.0257

 reached required accuracy - stopping structural energy minimisation

volume of typ            1:     4.5 %

[...]

volume of typ            3:    10.0 %

total charge

# of ion       s       p       d       tot
    1        2.064   0.192   0.073   2.328
    2        2.060   0.180   0.068   2.308
    3        2.063   0.189   0.073   2.325
    4        0.284   0.392   7.836   8.512
    5        0.303   0.433   7.837   8.573
    6        0.302   0.430   7.832   8.564
    7        0.302   0.430   7.832   8.564
    8        0.303   0.433   7.837   8.573
    9        0.302   0.427   7.833   8.562
   10        0.302   0.427   7.841   8.570
   11        0.281   0.384   7.836   8.501
   12        0.283   0.391   7.839   8.514
   13        0.302   0.430   7.832   8.564
   14        0.303   0.433   7.837   8.573
   15        0.303   0.433   7.837   8.573
   16        0.302   0.430   7.832   8.564
   17        0.302   0.426   7.833   8.561
   18        0.302   0.427   7.841   8.571
   19        0.281   0.385   7.838   8.504
   20        1.275   2.753   0.007   4.035
   21        1.274   2.754   0.008   4.036
   22        1.282   2.731   0.008   4.021
   23        1.284   2.727   0.008   4.019
   24        1.273   2.758   0.008   4.038
   25        1.274   2.757   0.008   4.038
   26        1.274   2.757   0.008   4.038
   27        1.273   2.758   0.008   4.038
   28        1.273   2.759   0.008   4.040
   29        1.285   2.724   0.008   4.018
   30        1.285   2.724   0.008   4.018
   31        1.273   2.759   0.008   4.040
   32        1.282   2.734   0.008   4.025
   33        1.283   2.731   0.008   4.022
   34        1.275   2.754   0.007   4.036
   35        1.286   2.721   0.008   4.015
   36        1.282   2.732   0.008   4.022
   37        1.284   2.727   0.008   4.020
   38        1.275   2.754   0.007   4.036
   39        1.273   2.756   0.008   4.037
   40        1.273   2.759   0.008   4.040
   41        1.285   2.725   0.008   4.019
   42        1.285   2.725   0.008   4.019
   43        1.273   2.759   0.008   4.040
   44        1.273   2.758   0.008   4.039
   45        1.274   2.757   0.008   4.038
   46        1.274   2.757   0.008   4.038
   47        1.273   2.758   0.008   4.039
   48        1.274   2.756   0.007   4.038
   49        1.286   2.722   0.008   4.016
   50        1.282   2.735   0.008   4.026
   51        1.283   2.731   0.008   4.022
tot          51.84   95.08  125.84  272.77

magnetization (x)

# of ion       s       p       d       tot
    1        0.000   0.001  -0.000   0.001
    2        0.000   0.001  -0.000   0.001
    3        0.000   0.000  -0.000   0.000
    4       -0.000   0.001   0.006   0.006
    5        0.000  -0.000   0.094   0.094
    6        0.000  -0.000   0.084   0.084
    7        0.000  -0.000   0.084   0.084
    8        0.000  -0.000   0.094   0.094
    9       -0.000   0.001  -0.009  -0.009
   10       -0.000   0.001  -0.008  -0.008
   11       -0.000   0.001   0.008   0.009
   12       -0.000   0.001   0.005   0.006
   13        0.000  -0.000   0.084   0.084
   14        0.000  -0.000   0.094   0.094
   15        0.000  -0.000   0.094   0.094
   16        0.000  -0.000   0.084   0.084
   17       -0.000   0.001  -0.009  -0.009
   18       -0.000   0.001  -0.008  -0.008
   19       -0.000   0.001   0.008   0.008
   20        0.002   0.002   0.000   0.004
   21        0.001   0.001   0.000   0.001
   22        0.001   0.001   0.000   0.002
   23        0.001   0.001   0.000   0.002
   24        0.000   0.003   0.000   0.004
   25        0.001   0.007   0.000   0.008
   26        0.001   0.007   0.000   0.008
   27        0.000   0.003   0.000   0.004
   28        0.001   0.005   0.000   0.006
   29        0.001   0.006   0.000   0.008
   30        0.001   0.006   0.000   0.008
   31        0.001   0.005   0.000   0.006
   32        0.001   0.000   0.000   0.002
   33        0.001   0.002   0.000   0.003
   34        0.002   0.003   0.000   0.004
   35        0.001   0.001   0.000   0.001
   36        0.001   0.001   0.000   0.002
   37        0.001   0.001   0.000   0.002
   38        0.002   0.002   0.000   0.004
   39        0.001   0.001   0.000   0.001
   40        0.001   0.005   0.000   0.006
   41        0.001   0.006   0.000   0.008
   42        0.001   0.006   0.000   0.008
   43        0.001   0.005   0.000   0.006
   44        0.000   0.003   0.000   0.004
   45        0.001   0.007   0.000   0.008
   46        0.001   0.007   0.000   0.008
   47        0.000   0.003   0.000   0.004
   48        0.002   0.003   0.000   0.004
   49        0.001   0.001   0.000   0.001
   50        0.001   0.000   0.000   0.002
   51        0.001   0.002   0.000   0.003
tot           0.03    0.11    0.71    0.85