 vasp.5.4.4.18Apr17-6-g9f103f2a35 (build May 12 2020 05:39:39) gamma-only

 MD_VERSION_INFO: Compiled 2020-05-12T12:39:39-UTC in devlin.sd.materialsdesign.
 com:/home/medea2/data/build/wwolf/vasp-gpu5.4.4/13047/x86_64/src/src/build/gam
 from svn 13047

 executed on                        Lin64 date 2023.03.07  06:43:02

 INCAR:
 POTCAR:    PAW_PBE Li_sv 10Sep2004
 POTCAR:    PAW_PBE Ni 02Aug2007
 POTCAR:    PAW_PBE O 08Apr2002

 POTCAR:    PAW_PBE Li_sv 10Sep2004

 POTCAR:    PAW_PBE Ni 02Aug2007

 POTCAR:    PAW_PBE O 08Apr2002

 Optimization of the real space projectors (new method)

 maximal supplied QI-value         = 22.11
 optimisation between [QCUT,QGAM] = [ 11.28, 22.77] = [ 35.61,145.23] Ry
 Optimized for a Real-space Cutoff    1.10 Angstroem

   l    n(q)    QCUT    max X(q) W(low)/X(q) W(high)/X(q)  e(spline)
   0      7    11.276    10.506    0.54E-04    0.58E-04    0.16E-07
   0      7    11.276     8.367    0.11E-03    0.14E-03    0.35E-07
   1      7    11.276     8.983    0.23E-03    0.43E-03    0.86E-07
 Optimization of the real space projectors (new method)

[...]

   l    n(q)    QCUT    max X(q) W(low)/X(q) W(high)/X(q)  e(spline)
   2      9    11.376    60.317    0.17E-03    0.16E-04    0.16E-06
   2      9    11.376    55.921    0.17E-03    0.16E-04    0.17E-06
   0     10    11.376    51.690    0.45E-04    0.60E-04    0.21E-06
   0     10    11.376    30.015    0.37E-04    0.55E-04    0.19E-06
   1     10    11.376    18.849    0.83E-04    0.11E-03    0.92E-07
   1     10    11.376    14.624    0.69E-04    0.92E-04    0.82E-07
 Optimization of the real space projectors (new method)

 maximal supplied QI-value         = 24.76
 optimisation between [QCUT,QGAM] = [ 11.39, 22.77] = [ 36.31,145.25] Ry
 Optimized for a Real-space Cutoff    1.10 Angstroem

   l    n(q)    QCUT    max X(q) W(low)/X(q) W(high)/X(q)  e(spline)
   0      7    11.387    20.381    0.22E-03    0.48E-03    0.18E-06
   0      7    11.387    15.268    0.22E-03    0.52E-03    0.19E-06
   1      7    11.387     5.964    0.22E-03    0.73E-03    0.24E-06
   1      7    11.387     5.382    0.19E-03    0.60E-03    0.21E-06

  PAW_PBE Li_sv 10Sep2004               :
  PAW_PBE Ni 02Aug2007                  :
  PAW_PBE O 08Apr2002                   :

 POSCAR: ce17210_1
  positions in direct lattice
 exchange correlation table for  LEXCH =       14
   RHO(1)=    0.500       N(1)  =     2000
   RHO(2)=  100.500       N(2)  =     4000

 ion  position               nearest neighbor table
   1  0.522  0.251  0.268-  37 2.00  46 2.03  34 2.18  43 2.19  51 2.22  20 2.79  11 2.84
   2  0.522  0.749  0.732-  38 2.00  45 2.03  33 2.18  44 2.19  52 2.22  20 2.79  10 2.84
   3  0.978  0.249  0.732-  23 2.00  50 2.03  30 2.18  47 2.19  41 2.22  13 2.80  19 2.84
   4  0.978  0.751  0.268-  24 2.00  49 2.03  29 2.18  48 2.19  42 2.22  13 2.80  18 2.84
   5  0.251  0.250  1.000-  53 2.14  51 2.14  41 2.15  39 2.15  27 2.16  31 2.17
   6  0.251  0.750  0.000-  54 2.14  52 2.14  42 2.15  40 2.15  28 2.16  32 2.17
   7  0.998  0.000  0.000-  33 1.84  34 1.84  31 1.86  32 1.86  41 2.04  42 2.04  12 2.75  12 2.78
                            11 2.81  10 2.81   9 2.83   8 2.83
   8  0.250  0.002  0.251-  37 1.83  42 1.84  25 1.84  54 1.85  48 1.91  31 1.96  11 2.77  11 2.77
                            14 2.82  13 2.82   7 2.83  12 2.83
   9  0.250  0.998  0.749-  38 1.83  41 1.84  26 1.84  53 1.85  47 1.91  32 1.96  10 2.77  10 2.77
                            14 2.82  13 2.82   7 2.83  12 2.83
  10  0.750  0.003  0.752-  38 1.83  26 1.85  41 1.86  53 1.87  50 1.91  33 1.92   9 2.77   9 2.77
                             7 2.81  12 2.82  13 2.83  14 2.83   2 2.84
  11  0.750  0.997  0.248-  37 1.83  25 1.85  42 1.86  54 1.87  49 1.91  34 1.92   8 2.77   8 2.77
                             7 2.81  12 2.82  13 2.83  14 2.83   1 2.84
  12  0.501  0.000  0.000-  33 1.84  34 1.84  31 1.85  32 1.85  53 1.92  54 1.92   7 2.75   7 2.78
                            11 2.82  10 2.82   9 2.83   8 2.83
  13  1.000  0.000  0.500-  47 1.85  48 1.85  49 1.85  50 1.85  25 1.92  26 1.92  14 2.77  14 2.77
                             4 2.80   3 2.80   9 2.82   8 2.82  11 2.83  10 2.83
  14  0.500  0.000  0.500-  47 1.85  48 1.85  49 1.85  50 1.85  37 2.02  38 2.02  13 2.77  13 2.77
                             8 2.82   9 2.82  10 2.83  11 2.83
  15  0.001  0.500  0.500-  43 1.85  44 1.85  45 1.85  46 1.85  23 2.02  24 2.02  20 2.77  20 2.77
                            17 2.82  16 2.82  19 2.83  18 2.83
  16  0.251  0.498  0.749-  23 1.84  52 1.84  35 1.84  40 1.85  44 1.92  27 1.95  19 2.77  19 2.77
                            20 2.82  15 2.82  21 2.83  22 2.83
  17  0.251  0.502  0.251-  24 1.84  51 1.84  36 1.84  39 1.85  43 1.92  28 1.95  18 2.77  18 2.77
                            20 2.82  15 2.82  21 2.83  22 2.83
  18  0.750  0.497  0.249-  24 1.84  36 1.85  51 1.86  39 1.87  46 1.91  29 1.92  17 2.77  17 2.77
                            22 2.81  21 2.82  20 2.82  15 2.83   4 2.84
  19  0.750  0.503  0.751-  23 1.84  35 1.85  52 1.86  40 1.87  45 1.91  30 1.92  16 2.77  16 2.77
                            22 2.81  21 2.82  20 2.82  15 2.83   3 2.84
  20  0.501  0.500  0.500-  43 1.85  44 1.85  45 1.85  46 1.85  35 1.92  36 1.92  15 2.77  15 2.77
                             1 2.79   2 2.79  17 2.82  16 2.82  19 2.82  18 2.82
  21  1.000  0.500  0.000-  29 1.84  30 1.84  27 1.85  28 1.85  39 1.92  40 1.92  22 2.75  22 2.78
                            19 2.82  18 2.82  17 2.83  16 2.83
  22  0.502  0.500  0.000-  29 1.84  30 1.84  27 1.86  28 1.86  51 2.04  52 2.04  21 2.75  21 2.78
                            18 2.81  19 2.81  16 2.83  17 2.83
  23  0.997  0.398  0.644-  16 1.84  19 1.84   3 2.00  15 2.02
  24  0.997  0.602  0.356-  17 1.84  18 1.84   4 2.00  15 2.02
  25  0.997  0.097  0.363-   8 1.84  11 1.85  13 1.92
  26  0.997  0.903  0.637-   9 1.84  10 1.85  13 1.92
  27  0.250  0.399  0.888-  21 1.85  22 1.86  16 1.95   5 2.16
  28  0.250  0.601  0.112-  21 1.85  22 1.86  17 1.95   6 2.16
  29  0.751  0.597  0.115-  21 1.84  22 1.84  18 1.92   4 2.18
  30  0.751  0.403  0.885-  21 1.84  22 1.84  19 1.92   3 2.18
  31  0.251  0.101  0.112-  12 1.85   7 1.86   8 1.96   5 2.17
  32  0.251  0.899  0.888-  12 1.85   7 1.86   9 1.96   6 2.17
  33  0.749  0.903  0.886-  12 1.84   7 1.84  10 1.92   2 2.18
  34  0.749  0.097  0.114-  12 1.84   7 1.84  11 1.92   1 2.18
  35  0.503  0.403  0.637-  16 1.84  19 1.85  20 1.92
  36  0.503  0.597  0.363-  17 1.84  18 1.85  20 1.92
  37  0.503  0.101  0.356-   8 1.83  11 1.83   1 2.00  14 2.02
  38  0.503  0.899  0.644-   9 1.83  10 1.83   2 2.00  14 2.02
  39  0.005  0.401  0.134-  17 1.85  18 1.87  21 1.92   5 2.15
  40  0.005  0.599  0.866-  16 1.85  19 1.87  21 1.92   6 2.15
  41  0.006  0.105  0.858-   9 1.84  10 1.86   7 2.04   5 2.15   3 2.22
  42  0.006  0.895  0.142-   8 1.84  11 1.86   7 2.04   6 2.15   4 2.22
  43  0.251  0.403  0.385-  20 1.85  15 1.85  17 1.92   1 2.19
  44  0.251  0.597  0.615-  20 1.85  15 1.85  16 1.92   2 2.19
  45  0.750  0.598  0.614-  20 1.85  15 1.85  19 1.91   2 2.03
  46  0.750  0.402  0.386-  20 1.85  15 1.85  18 1.91   1 2.03
  47  0.249  0.097  0.615-  13 1.85  14 1.85   9 1.91   3 2.19
  48  0.249  0.903  0.385-  13 1.85  14 1.85   8 1.91   4 2.19
  49  0.751  0.902  0.386-  13 1.85  14 1.85  11 1.91   4 2.03
  50  0.751  0.098  0.614-  13 1.85  14 1.85  10 1.91   3 2.03
  51  0.495  0.394  0.142-  17 1.84  18 1.86  22 2.04   5 2.14   1 2.22
  52  0.495  0.606  0.858-  16 1.84  19 1.86  22 2.04   6 2.14   2 2.22
  53  0.495  0.099  0.866-   9 1.85  10 1.87  12 1.92   5 2.14
  54  0.495  0.901  0.134-   8 1.85  11 1.87  12 1.92   6 2.14

  LATTYP: Found a simple monoclinic cell.
 ALAT       =    11.5682090435
 B/A-ratio  =     0.4786298854
 C/A-ratio  =     1.6860734338
 COS(beta)  =    -0.9073183004

  Lattice vectors:

 A1 = (  -6.2933978254,   0.0000000000,  -9.7065238003)
 A2 = (   0.0000000000,  -5.5368905690,   0.0000000000)
 A3 = (   2.7467170595,   0.0000000000,  19.3104820442)

Analysis of symmetry for initial positions (statically):
 Subroutine PRICEL returns:
 Original cell was already a primitive cell.

 Routine SETGRP: Setting up the symmetry group for a
 simple monoclinic supercell.

 Subroutine GETGRP returns: Found  2 space group operations
 (whereof  2 operations were pure point group operations)
 out of a pool of  4 trial point group operations.

The static configuration has the point symmetry C_2 .

Analysis of symmetry for dynamics (positions and initial velocities):
 Subroutine PRICEL returns:
 Original cell was already a primitive cell.

[...]

The dynamic configuration has the point symmetry C_2 .

Analysis of structural, dynamic, and magnetic symmetry:
 Subroutine PRICEL returns:
 Original cell was already a primitive cell.

 Routine SETGRP: Setting up the symmetry group for a
 simple monoclinic supercell.

 Subroutine GETGRP returns: Found  2 space group operations
 (whereof  2 operations were pure point group operations)
 out of a pool of  4 trial point group operations.

The magnetic configuration has the point symmetry C_2 .

 Subroutine INISYM returns: Found  2 space group operations
 (whereof  2 operations are pure point group operations),
 and found     1 'primitive' translations

 KPOINTS: Automatic mesh

Automatic generation of k-mesh.
Space group operators:
 irot       det(A)        alpha          n_x          n_y          n_z        tau_x        tau_y        tau_z
    1     1.000000     0.000000     1.000000     0.000000     0.000000     0.000000     0.000000     0.000000
    2     1.000000   180.000000     0.000000     1.000000     0.000000     0.000000     0.000000     0.000000

 Subroutine IBZKPT returns following result:

 Found      1 irreducible k-points:

 Following reciprocal coordinates:
            Coordinates               Weight
  0.000000  0.000000  0.000000      1.000000

 Following cartesian coordinates:
            Coordinates               Weight
  0.000000  0.000000  0.000000      1.000000

 SYSTEM =  unknown system
 POSCAR =  ce17210_1

 Startparameter for this run:
   NWRITE =      1    write-flag & timer
   PREC   = accura    normal or accurate (medium, high low for compatibility)
   ISTART =      0    job   : 0-new  1-cont  2-samecut
   ICHARG =      2    charge: 1-file 2-atom 10-const
   ISPIN  =      2    spin polarized calculation?
   LNONCOLLINEAR =      F non collinear calculations
   LSORBIT =      F    spin-orbit coupling
   INIWAV =      1    electr: 0-lowe 1-rand  2-diag
   LASPH  =      F    aspherical Exc in radial PAW
   METAGGA=      F    non-selfconsistent MetaGGA calc.

 Electronic Relaxation 1
   ENCUT  =  500.0 eV  36.75 Ry    6.06 a.u.  10.10 18.67 17.94*2*pi/ulx,y,z
   ENINI  =  500.0     initial cutoff
   ENAUG  =  628.9 eV  augmentation charge cutoff
   NELM   =     80;   NELMIN=  2; NELMDL= -5     # of ELM steps
   EDIFF  = 0.1E-04   stopping-criterion for ELM
   LREAL  =      T    real-space projection
   NLSPLINE    = F    spline interpolate recip. space projectors
   LCOMPAT=      F    compatible to vasp.4.4
   GGA_COMPAT  = T    GGA compatible to vasp.4.4-vasp.4.6
[...]
   -.133E-01 0.147E+00 -.101E+00   0.155E-01 -.137E+00 0.104E+00   -.524E-02 -.152E-01 0.124E-02   0.196E-02 0.296E-02 -.366E-02
   -.149E-04 0.209E+02 0.334E-05   -.355E-13 -.212E+02 0.995E-13   0.000E+00 0.355E+00 -.743E-25   0.982E-11 0.801E-02 -.363E-11
   -.306E+02 -.173E-01 -.483E+02   0.310E+02 -.332E-01 0.487E+02   -.463E+00 0.331E-01 -.400E+00   0.525E-01 0.173E-01 0.150E-02
   0.306E+02 -.173E-01 0.483E+02   -.310E+02 -.332E-01 -.487E+02   0.463E+00 0.331E-01 0.400E+00   -.525E-01 0.173E-01 -.150E-02
   0.135E+02 0.133E+01 -.139E+02   -.136E+02 -.131E+01 0.139E+02   0.176E+00 -.133E-02 0.432E-01   -.528E-01 -.211E-01 -.157E-02
   -.135E+02 0.133E+01 0.139E+02   0.136E+02 -.131E+01 -.139E+02   -.176E+00 -.133E-02 -.432E-01   0.528E-01 -.211E-01 0.157E-02
   0.663E-07 -.238E+02 -.149E-07   -.114E-12 0.242E+02 0.114E-12   0.000E+00 -.374E+00 0.000E+00   0.897E-11 -.101E-01 0.584E-11
   -.504E-05 -.372E+01 0.118E-05   0.924E-13 0.363E+01 0.107E-13   0.000E+00 0.971E-01 0.485E-25   -.222E-10 0.690E-03 0.104E-10
   -.686E-05 0.201E+01 0.161E-05   0.711E-14 -.184E+01 0.124E-12   0.000E+00 -.171E+00 -.969E-26   -.797E-11 -.860E-02 0.237E-12
   0.997E-05 -.204E+01 -.234E-05   -.249E-13 0.187E+01 -.222E-13   0.000E+00 0.166E+00 0.404E-26   -.116E-10 0.148E-01 -.556E-11
   0.306E+02 0.370E-01 0.483E+02   -.310E+02 -.170E-01 -.487E+02   0.463E+00 -.347E-01 0.397E+00   -.116E-01 0.159E-01 0.222E-02
   -.306E+02 0.370E-01 -.483E+02   0.310E+02 -.170E-01 0.487E+02   -.463E+00 -.347E-01 -.397E+00   0.116E-01 0.159E-01 -.222E-02
   -.135E+02 -.133E+01 0.142E+02   0.137E+02 0.134E+01 -.141E+02   -.177E+00 0.452E-02 -.368E-01   0.109E-01 -.109E-01 0.854E-03
   0.135E+02 -.133E+01 -.142E+02   -.137E+02 0.134E+01 0.141E+02   0.177E+00 0.452E-02 0.368E-01   -.109E-01 -.109E-01 -.854E-03
   0.844E-05 0.376E+01 -.198E-05   -.107E-13 -.366E+01 -.551E-13   0.000E+00 -.921E-01 -.808E-27   -.134E-10 -.895E-02 -.113E-11
   0.361E-05 0.238E+02 -.811E-06   0.480E-13 -.242E+02 -.213E-12   0.000E+00 0.371E+00 0.162E-25   0.139E-10 0.112E-01 -.407E-11
   0.171E-04 -.209E+02 -.385E-05   -.266E-14 0.213E+02 -.114E-12   0.000E+00 -.358E+00 -.323E-26   0.466E-11 -.956E-02 -.734E-11
   0.763E+02 -.113E+01 0.372E+03   -.833E+02 0.828E+00 -.392E+03   0.709E+01 0.288E+00 0.198E+02   -.118E-01 0.138E-01 -.198E-01
   -.763E+02 -.113E+01 -.372E+03   0.833E+02 0.828E+00 0.392E+03   -.709E+01 0.288E+00 -.198E+02   0.118E-01 0.138E-01 0.198E-01
   -.119E+02 -.140E+00 -.408E+03   0.119E+02 -.282E+00 0.434E+03   0.146E-01 0.407E+00 -.254E+02   0.201E-01 0.139E-01 0.135E-01
   0.119E+02 -.140E+00 0.408E+03   -.119E+02 -.282E+00 -.434E+03   -.146E-01 0.407E+00 0.254E+02   -.201E-01 0.139E-01 -.135E-01
   0.334E+02 -.341E+02 0.358E+03   -.365E+02 0.361E+02 -.377E+03   0.314E+01 -.198E+01 0.192E+02   -.617E-02 0.116E-01 -.106E-01
   -.334E+02 -.341E+02 -.358E+03   0.365E+02 0.361E+02 0.377E+03   -.314E+01 -.198E+01 -.192E+02   0.617E-02 0.116E-01 0.106E-01
   -.619E+01 0.352E+02 -.366E+03   0.666E+01 -.373E+02 0.388E+03   -.468E+00 0.210E+01 -.219E+02   -.427E-02 -.141E-01 0.167E-01
   0.619E+01 0.352E+02 0.366E+03   -.666E+01 -.373E+02 -.388E+03   0.468E+00 0.210E+01 0.219E+02   0.427E-02 -.141E-01 -.167E-01
   -.332E+02 0.343E+02 -.358E+03   0.363E+02 -.363E+02 0.377E+03   -.312E+01 0.200E+01 -.192E+02   0.190E-01 0.139E-01 0.222E-01
   0.332E+02 0.343E+02 0.358E+03   -.363E+02 -.363E+02 -.377E+03   0.312E+01 0.200E+01 0.192E+02   -.190E-01 0.139E-01 -.222E-01
   0.616E+01 -.353E+02 0.366E+03   -.661E+01 0.374E+02 -.388E+03   0.464E+00 -.210E+01 0.220E+02   -.954E-02 -.116E-01 -.273E-01
   -.616E+01 -.353E+02 -.366E+03   0.661E+01 0.374E+02 0.388E+03   -.464E+00 -.210E+01 -.220E+02   0.954E-02 -.116E-01 0.273E-01
   0.118E+02 0.150E+00 0.408E+03   -.118E+02 0.274E+00 -.434E+03   -.238E-01 -.410E+00 0.254E+02   -.726E-02 -.145E-01 -.213E-01
   -.118E+02 0.150E+00 -.408E+03   0.118E+02 0.274E+00 0.434E+03   0.238E-01 -.410E+00 -.254E+02   0.726E-02 -.145E-01 0.213E-01
   -.763E+02 0.107E+01 -.372E+03   0.834E+02 -.764E+00 0.392E+03   -.709E+01 -.294E+00 -.198E+02   0.415E-01 -.142E-01 0.133E-02
   0.763E+02 0.107E+01 0.372E+03   -.834E+02 -.764E+00 -.392E+03   0.709E+01 -.294E+00 0.198E+02   -.415E-01 -.142E-01 -.133E-02
   -.226E+02 0.276E+02 0.369E+03   0.241E+02 -.295E+02 -.390E+03   -.148E+01 0.194E+01 0.210E+02   0.711E-02 0.135E-01 -.912E-02
   0.226E+02 0.276E+02 -.369E+03   -.241E+02 -.295E+02 0.390E+03   0.148E+01 0.194E+01 -.210E+02   -.711E-02 0.135E-01 0.912E-02
   -.383E+02 0.258E+02 -.343E+03   0.431E+02 -.274E+02 0.361E+03   -.477E+01 0.160E+01 -.178E+02   -.251E-01 0.143E-01 0.136E-01
   0.383E+02 0.258E+02 0.343E+03   -.431E+02 -.274E+02 -.361E+03   0.477E+01 0.160E+01 0.178E+02   0.251E-01 0.143E-01 -.136E-01
   -.285E+02 0.365E+02 0.365E+03   0.284E+02 -.390E+02 -.387E+03   0.135E+00 0.245E+01 0.223E+02   0.455E-02 -.133E-02 -.313E-02
   0.285E+02 0.365E+02 -.365E+03   -.284E+02 -.390E+02 0.387E+03   -.135E+00 0.245E+01 -.223E+02   -.455E-02 -.133E-02 0.313E-02
   0.279E+02 -.406E+02 -.360E+03   -.287E+02 0.437E+02 0.381E+03   0.865E+00 -.310E+01 -.208E+02   -.151E-01 0.888E-04 0.908E-02
   -.279E+02 -.406E+02 0.360E+03   0.287E+02 0.437E+02 -.381E+03   -.865E+00 -.310E+01 0.208E+02   0.151E-01 0.888E-04 -.908E-02
   0.284E+02 -.364E+02 -.365E+03   -.283E+02 0.388E+02 0.387E+03   -.143E+00 -.244E+01 -.223E+02   -.182E-01 0.309E-01 -.162E-01
   -.284E+02 -.364E+02 0.365E+03   0.283E+02 0.388E+02 -.387E+03   0.143E+00 -.244E+01 0.223E+02   0.182E-01 0.309E-01 0.162E-01
   -.278E+02 0.406E+02 0.360E+03   0.287E+02 -.436E+02 -.381E+03   -.864E+00 0.310E+01 0.208E+02   0.289E-01 -.301E-01 0.108E-01
   0.278E+02 0.406E+02 -.360E+03   -.287E+02 -.436E+02 0.381E+03   0.864E+00 0.310E+01 -.208E+02   -.289E-01 -.301E-01 -.108E-01
   0.382E+02 -.259E+02 0.343E+03   -.429E+02 0.275E+02 -.361E+03   0.474E+01 -.160E+01 0.177E+02   -.104E-02 -.147E-01 -.427E-02
   -.382E+02 -.259E+02 -.343E+03   0.429E+02 0.275E+02 0.361E+03   -.474E+01 -.160E+01 -.177E+02   0.104E-02 -.147E-01 0.427E-02
   0.228E+02 -.276E+02 -.369E+03   -.242E+02 0.296E+02 0.390E+03   0.150E+01 -.195E+01 -.210E+02   -.213E-01 -.123E-01 0.938E-02
   -.228E+02 -.276E+02 0.369E+03   0.242E+02 0.296E+02 -.390E+03   -.150E+01 -.195E+01 0.210E+02   0.213E-01 -.123E-01 -.938E-02
   0.257E-04 0.295E-01 -.565E-05   0.000E+00 -.128E-12 0.512E-12   -.444E-15 -.349E-01 -.355E-14   -.139E-11 0.179E-02 -.185E-10

 POSITION                                       TOTAL-FORCE (eV/Angst)
      1.74769      2.91168      2.45804         0.002847      0.019291     -0.005785
      4.55425      2.91168      7.33609        -0.002847      0.019291      0.005785
      6.32764      5.39612      2.49275        -0.002819     -0.018169      0.005945
     -0.02569      5.39612      7.30139         0.002819     -0.018169     -0.005945
      8.95932      1.39021      2.52924         0.001139     -0.003058     -0.000753
     -2.65738      1.39021      7.26490        -0.001139     -0.003058      0.000753
      0.00000      5.52553      0.00000        -0.000000     -0.001782     -0.000000
      2.46448      1.38324      0.03067         0.000500      0.000032     -0.006692
      3.83746      1.38324      9.76346        -0.000500      0.000032      0.006692
      7.38916      4.15663      0.12097         0.000121     -0.002604      0.006053
     -1.08722      4.15663      9.67316        -0.000121     -0.002604     -0.006053
      0.00000      2.76919      0.00000        -0.000000     -0.002145     -0.000000
      4.92391      5.53443      0.05354        -0.000000      0.000301     -0.000000
      4.92391      2.76388      0.05354        -0.000000     -0.002915     -0.000000
      3.15097      0.00801      4.89707        -0.000000      0.002951     -0.000000
      5.61045      1.38882      4.92031        -0.000031      0.001168      0.006243
      0.69149      1.38882      4.87382         0.000031      0.001168     -0.006243
      0.68570      4.15387      4.82908        -0.000328      0.002517     -0.005367
      5.61624      4.15387      4.96505         0.000328      0.002517      0.005367
      3.15097      2.77587      4.89707        -0.000000      0.000515     -0.000000
     -1.77294      5.54136      4.84352        -0.000000      0.001763     -0.000000
     -1.77294      2.78507      4.84352        -0.000000      0.002062     -0.000000
      4.96828      5.52412      3.93727         0.000442      0.001704      0.007962
      1.33366      5.52412      5.85686        -0.000442      0.001704     -0.007962
      3.25566      5.52297      0.95023        -0.003642     -0.000789     -0.006643
      3.04628      5.52297      8.84391         0.003642     -0.000789      0.006643
      7.32228      1.39311      3.98106         0.000565      0.001766      0.004843
     -1.02034      1.39311      5.81307        -0.000565      0.001766     -0.004843
     -0.98136      4.16009      5.77551        -0.001344      0.001019     -0.003643
      7.28331      4.16009      4.01862         0.001344      0.001019      0.003643
      0.75251      1.37924      0.96969         0.000499     -0.002018     -0.004561
      5.54943      1.37924      8.82444        -0.000499     -0.002018      0.004561
      5.51058      4.15044      8.86195         0.000883     -0.001258      0.003638
      0.79137      4.15044      0.93218        -0.000883     -0.001258     -0.003638
      4.81935      2.78747      4.00085         0.003549      0.000412      0.005705
      1.48259      2.78747      5.79329        -0.003549      0.000412     -0.005705
      3.10681      2.78621      1.01365         0.001083     -0.001309     -0.008859
      3.19513      2.78621      8.78049        -0.001083     -0.001309      0.008859
     -0.13121      0.03203      3.90355         0.002140      0.001882     -0.002546
      6.43315      0.03203      5.89058        -0.002140      0.001882      0.002546
      8.01869      0.03204      1.13768        -0.002237     -0.000023      0.004623
     -1.71675      0.03204      8.65645         0.002237     -0.000023     -0.004623
      2.36721      1.38972      3.95669         0.005371      0.001666     -0.000027
      3.93474      1.38972      5.83744        -0.005371      0.001666      0.000027
      3.92586      4.16114      5.84824        -0.005824      0.001754      0.001266
      2.37608      4.16114      3.94589         0.005824      0.001754     -0.001266
      5.70775      1.38232      0.99368        -0.005337     -0.001874      0.000526
      0.59419      1.38232      8.80045         0.005337     -0.001874     -0.000526
      0.60304      4.14900      8.78975         0.005435     -0.001062     -0.001840
      5.69890      4.14900      1.00439        -0.005435     -0.001062      0.001840
      0.05597      2.74009      3.81238         0.001782      0.000737     -0.003029
      6.24597      2.74009      5.98175        -0.001782      0.000737      0.003029
      8.20598      2.74024      1.04676        -0.001280     -0.002157      0.002589
     -1.90404      2.74024      8.74737         0.001280     -0.002157     -0.002589
    total drift:                                0.000026     -0.003628     -0.000006

  FREE ENERGIE OF THE ION-ELECTRON SYSTEM (eV)
  free  energy   TOTEN  =      -335.3647347747 eV

  energy  without entropy=     -335.3646004929  energy(sigma->0) =     -335.36466763

 d Force = 0.7147991E-04[ 0.623E-04, 0.807E-04]  d Energy = 0.8592958E-04-0.144E-04
 d Force = 0.2881656E+00[ 0.288E+00, 0.288E+00]  d Ewald  =-0.1452857E+00 0.433E+00

 Quasi-Newton relaxation of ions (Broydens 2nd method)
  g(Force)  = 0.146E-03   g(Stress)= 0.688E-03

 retain information from N=  1 steps
 eigenvalues of (default step * inverse Hessian matrix)
  average eigenvalue of G=   0.0228
 eigenvalue spectrum of G is  0.0228

volume of typ            1:     8.8 %

[...]

volume of typ            3:     9.8 %

total charge

# of ion       s       p       d       tot
    1        2.070   0.219   0.081   2.369
    2        2.070   0.219   0.081   2.369
    3        2.070   0.219   0.081   2.369
    4        2.070   0.219   0.081   2.369
    5        2.063   0.193   0.072   2.328
    6        2.063   0.193   0.072   2.328
    7        0.271   0.361   7.873   8.505
    8        0.295   0.416   7.845   8.556
    9        0.295   0.416   7.845   8.556
   10        0.293   0.411   7.841   8.545
   11        0.293   0.411   7.841   8.545
   12        0.301   0.427   7.845   8.573
   13        0.300   0.424   7.840   8.565
   14        0.272   0.364   7.851   8.486
   15        0.272   0.364   7.852   8.488
   16        0.295   0.416   7.845   8.556
   17        0.295   0.416   7.845   8.556
   18        0.293   0.411   7.841   8.545
   19        0.293   0.411   7.841   8.545
   20        0.300   0.424   7.840   8.564
   21        0.301   0.427   7.845   8.573
   22        0.271   0.361   7.872   8.504
   23        1.273   2.761   0.007   4.041
   24        1.273   2.761   0.007   4.041
   25        1.283   2.729   0.008   4.020
   26        1.283   2.729   0.008   4.020
   27        1.267   2.770   0.007   4.044
   28        1.267   2.770   0.007   4.044
   29        1.271   2.761   0.008   4.040
   30        1.271   2.761   0.008   4.040
   31        1.267   2.770   0.007   4.044
   32        1.267   2.770   0.007   4.044
   33        1.271   2.761   0.008   4.040
   34        1.271   2.761   0.008   4.040
   35        1.283   2.729   0.008   4.020
   36        1.283   2.729   0.008   4.020
   37        1.273   2.761   0.007   4.041
   38        1.273   2.761   0.007   4.041
   39        1.271   2.760   0.007   4.039
   40        1.271   2.760   0.007   4.039
   41        1.266   2.773   0.007   4.046
   42        1.266   2.773   0.007   4.046
   43        1.274   2.753   0.008   4.034
   44        1.274   2.753   0.008   4.034
   45        1.270   2.766   0.008   4.044
   46        1.270   2.766   0.008   4.044
   47        1.274   2.753   0.008   4.034
   48        1.274   2.753   0.008   4.034
   49        1.270   2.767   0.008   4.044
   50        1.270   2.767   0.008   4.044
   51        1.266   2.773   0.007   4.046
   52        1.266   2.773   0.007   4.046
   53        1.271   2.760   0.007   4.039
   54        1.271   2.760   0.007   4.039
tot          57.74   96.02  126.27  280.02

magnetization (x)

# of ion       s       p       d       tot
    1        0.001   0.004   0.001   0.006
    2        0.001   0.004   0.001   0.006
    3       -0.001  -0.004  -0.001  -0.006
    4       -0.001  -0.004  -0.001  -0.006
    5        0.000  -0.000  -0.000  -0.000
    6        0.000  -0.000  -0.000  -0.000
    7       -0.004   0.000  -0.519  -0.522
    8        0.000   0.000   0.091   0.091
    9        0.000   0.000   0.091   0.091
   10        0.000   0.000   0.080   0.080
   11        0.000   0.000   0.080   0.080
   12       -0.000   0.001  -0.003  -0.002
   13       -0.000   0.000   0.013   0.013
   14        0.002   0.000   0.486   0.488
   15       -0.002  -0.000  -0.486  -0.488
   16       -0.000  -0.000  -0.091  -0.091
   17       -0.000  -0.000  -0.091  -0.091
   18       -0.000  -0.000  -0.080  -0.080
   19       -0.000  -0.000  -0.080  -0.080
   20        0.000  -0.000  -0.012  -0.013
   21        0.000  -0.001   0.003   0.002
   22        0.004  -0.000   0.519   0.523
   23       -0.006  -0.068  -0.000  -0.073
   24       -0.006  -0.068  -0.000  -0.073
   25        0.001   0.006   0.000   0.007
   26        0.001   0.006   0.000   0.007
   27        0.000   0.004  -0.000   0.004
   28        0.000   0.004  -0.000   0.004
   29        0.000   0.004  -0.000   0.004
   30        0.000   0.004  -0.000   0.004
   31       -0.000  -0.004   0.000  -0.004
   32       -0.000  -0.004   0.000  -0.004
   33       -0.000  -0.004   0.000  -0.004
   34       -0.000  -0.004   0.000  -0.004
   35       -0.001  -0.006  -0.000  -0.007
   36       -0.001  -0.006  -0.000  -0.007
   37        0.006   0.067   0.000   0.073
   38        0.006   0.067   0.000   0.073
   39       -0.001  -0.008  -0.000  -0.009
   40       -0.001  -0.008  -0.000  -0.009
   41       -0.004  -0.074  -0.000  -0.079
   42       -0.004  -0.074  -0.000  -0.079
   43       -0.002  -0.018  -0.000  -0.020
   44       -0.002  -0.018  -0.000  -0.020
   45       -0.002  -0.016  -0.000  -0.018
   46       -0.002  -0.016  -0.000  -0.018
   47        0.002   0.018   0.000   0.020
   48        0.002   0.018   0.000   0.020
   49        0.002   0.016   0.000   0.018
   50        0.002   0.016   0.000   0.018
   51        0.004   0.074   0.000   0.079
   52        0.004   0.074   0.000   0.079
   53        0.001   0.008   0.000   0.009
   54        0.001   0.008   0.000   0.009
tot           0.00   -0.00    0.00    0.00