 vasp.5.4.4.18Apr17-6-g9f103f2a35 (build May 12 2020 05:39:39) gamma-only

 MD_VERSION_INFO: Compiled 2020-05-12T12:39:39-UTC in devlin.sd.materialsdesign.
 com:/home/medea2/data/build/wwolf/vasp-gpu5.4.4/13047/x86_64/src/src/build/gam
 from svn 13047

 executed on                        Lin64 date 2023.03.07  07:17:00

 INCAR:
 POTCAR:    PAW_PBE Li_sv 10Sep2004
 POTCAR:    PAW_PBE Ni 02Aug2007
 POTCAR:    PAW_PBE O 08Apr2002

 POTCAR:    PAW_PBE Li_sv 10Sep2004

 POTCAR:    PAW_PBE Ni 02Aug2007

 POTCAR:    PAW_PBE O 08Apr2002

 Optimization of the real space projectors (new method)

 maximal supplied QI-value         = 22.11
 optimisation between [QCUT,QGAM] = [ 11.28, 22.77] = [ 35.61,145.23] Ry
 Optimized for a Real-space Cutoff    1.10 Angstroem

   l    n(q)    QCUT    max X(q) W(low)/X(q) W(high)/X(q)  e(spline)
   0      7    11.276    10.506    0.54E-04    0.58E-04    0.16E-07
   0      7    11.276     8.367    0.11E-03    0.14E-03    0.35E-07
   1      7    11.276     8.983    0.23E-03    0.43E-03    0.86E-07
 Optimization of the real space projectors (new method)

[...]

   l    n(q)    QCUT    max X(q) W(low)/X(q) W(high)/X(q)  e(spline)
   2      9    11.376    60.317    0.17E-03    0.16E-04    0.16E-06
   2      9    11.376    55.921    0.17E-03    0.16E-04    0.17E-06
   0     10    11.376    51.690    0.45E-04    0.60E-04    0.21E-06
   0     10    11.376    30.015    0.37E-04    0.55E-04    0.19E-06
   1     10    11.376    18.849    0.83E-04    0.11E-03    0.92E-07
   1     10    11.376    14.624    0.69E-04    0.92E-04    0.82E-07
 Optimization of the real space projectors (new method)

 maximal supplied QI-value         = 24.76
 optimisation between [QCUT,QGAM] = [ 11.39, 22.77] = [ 36.31,145.25] Ry
 Optimized for a Real-space Cutoff    1.10 Angstroem

   l    n(q)    QCUT    max X(q) W(low)/X(q) W(high)/X(q)  e(spline)
   0      7    11.387    20.381    0.22E-03    0.48E-03    0.18E-06
   0      7    11.387    15.268    0.22E-03    0.52E-03    0.19E-06
   1      7    11.387     5.964    0.22E-03    0.73E-03    0.24E-06
   1      7    11.387     5.382    0.19E-03    0.60E-03    0.21E-06

  PAW_PBE Li_sv 10Sep2004               :
  PAW_PBE Ni 02Aug2007                  :
  PAW_PBE O 08Apr2002                   :

 POSCAR: ce1309_1
  positions in direct lattice
 exchange correlation table for  LEXCH =       14
   RHO(1)=    0.500       N(1)  =     2000
   RHO(2)=  100.500       N(2)  =     4000

 ion  position               nearest neighbor table
   1  0.962  0.252  0.251-  49 2.03  37 2.05  28 2.06  42 2.10  46 2.27  21 2.81  14 2.81
   2  0.977  0.749  0.762-  43 2.00  36 2.05  29 2.10  48 2.11  35 2.18  22 2.78  10 2.81
   3  0.248  0.250  0.500-  46 2.12  50 2.14  38 2.15  28 2.15  26 2.15  40 2.15
   4  0.250  0.750  0.501-  41 2.10  47 2.11  27 2.11  39 2.14  29 2.14  51 2.15  12 2.83  20 2.84

   5  0.750  0.750  0.501-  41 2.10  39 2.10  29 2.11  27 2.11  48 2.15  52 2.17
   6  0.253  0.250  1.000-  30 2.11  34 2.14  54 2.15  44 2.15  56 2.17  42 2.17
   7  0.253  0.750  1.000-  31 2.09  35 2.11  55 2.14  57 2.14  43 2.14  45 2.15
   8  0.539  0.250  0.748-  53 2.04  33 2.04  38 2.08  56 2.09  50 2.28  22 2.79  13 2.83
   9  0.523  0.748  0.239-  57 2.00  32 2.04  39 2.11  52 2.12  31 2.16  25 2.80  14 2.81
  10  0.999  0.999  1.000-  37 1.84  36 1.85  35 1.85  34 1.85  45 1.91  44 1.91  15 2.75  15 2.77
                             2 2.81  14 2.84  11 2.85  13 2.85  12 2.86
  11  0.250  0.001  0.250-  28 1.83  57 1.83  45 1.85  40 1.86  34 2.01  51 2.02  14 2.76  14 2.76
                            16 2.84  15 2.85  10 2.85  17 2.86
  12  0.250  0.995  0.747-  56 1.82  29 1.85  44 1.86  41 1.89  35 2.03  50 2.04  13 2.76  13 2.76
                             4 2.83  16 2.85  17 2.85  10 2.86  15 2.86
  13  0.750  0.998  0.750-  56 1.85  29 1.85  44 1.88  41 1.89  53 1.94  36 1.94  12 2.76  12 2.76
                             8 2.83  15 2.84  10 2.85  17 2.86  16 2.86
  14  0.750  0.999  0.249-  28 1.85  57 1.85  45 1.87  40 1.88  37 1.94  52 1.99  11 2.76  11 2.76
                             9 2.81   1 2.81  10 2.84  17 2.84  15 2.85  16 2.85
  15  0.501  0.999  1.000-  36 1.84  37 1.84  34 1.85  35 1.85  57 2.09  56 2.11  10 2.75  10 2.77
                            13 2.84  11 2.85  14 2.85  12 2.86
  16  0.000  0.001  0.499-  53 1.84  50 1.84  51 1.85  52 1.85  28 2.11  29 2.17  17 2.76  17 2.77
                            11 2.84  14 2.85  12 2.85  13 2.86
  17  0.501  0.000  0.499-  50 1.85  52 1.85  51 1.85  53 1.85  40 1.91  41 1.92  16 2.76  16 2.77
                            14 2.84  12 2.85  11 2.86  13 2.86
  18  0.998  0.500  0.501-  46 1.84  47 1.85  48 1.85  49 1.85  26 1.93  27 1.95  23 2.76  23 2.77
                            22 2.84  20 2.85  21 2.86  19 2.86
  19  0.250  0.500  0.750-  38 1.84  43 1.84  55 1.85  26 1.85  30 2.04  47 2.05  22 2.76  22 2.76
                            24 2.85  23 2.85  25 2.86  18 2.86
  20  0.251  0.505  0.253-  42 1.83  54 1.85  39 1.86  27 1.87  31 2.04  46 2.05  21 2.76  21 2.76
                             4 2.84  23 2.85  18 2.85  24 2.86  25 2.86
  21  0.751  0.502  0.250-  42 1.86  54 1.87  39 1.87  27 1.88  32 1.94  49 1.95  20 2.76  20 2.76
                             1 2.81  24 2.84  25 2.84  18 2.86  23 2.86
  22  0.750  0.501  0.751-  38 1.86  43 1.86  55 1.86  26 1.86  33 1.95  48 2.00  19 2.76  19 2.76
                             2 2.78   8 2.79  25 2.84  18 2.84  23 2.85  24 2.86
  23  0.499  0.499  0.500-  49 1.84  46 1.85  47 1.85  48 1.86  38 2.06  39 2.12  18 2.76  18 2.77
                            19 2.85  20 2.85  22 2.85  21 2.86
  24  0.001  0.501  0.001-  32 1.84  30 1.85  33 1.85  31 1.86  43 2.06  42 2.06  25 2.75  25 2.77
                            21 2.84  19 2.85  20 2.86  22 2.86
  25  0.503  0.501  0.000-  33 1.85  32 1.85  30 1.85  31 1.85  55 1.92  54 1.93  24 2.75  24 2.77
                             9 2.80  22 2.84  21 2.84  19 2.86  20 2.86
  26  0.001  0.402  0.635-  19 1.85  22 1.86  18 1.93   3 2.15
  27  0.999  0.604  0.370-  20 1.87  21 1.88  18 1.95   4 2.11   5 2.11
  28  0.002  0.108  0.352-  11 1.83  14 1.85   1 2.06  16 2.11   3 2.15
  29  0.997  0.885  0.646-  12 1.85  13 1.85   2 2.10   5 2.11   4 2.14  16 2.17
  30  0.251  0.396  0.893-  25 1.85  24 1.85  19 2.04   6 2.11
  31  0.254  0.607  0.109-  25 1.85  24 1.86  20 2.04   7 2.09   9 2.16
  32  0.753  0.600  0.114-  24 1.84  25 1.85  21 1.94   9 2.04
  33  0.751  0.402  0.886-  25 1.85  24 1.85  22 1.95   8 2.04
  34  0.250  0.102  0.109-  10 1.85  15 1.85  11 2.01   6 2.14
  35  0.248  0.894  0.891-  10 1.85  15 1.85  12 2.03   7 2.11   2 2.18
  36  0.748  0.900  0.886-  15 1.84  10 1.85  13 1.94   2 2.05
  37  0.750  0.098  0.113-  15 1.84  10 1.84  14 1.94   1 2.05
  38  0.497  0.394  0.644-  19 1.84  22 1.86  23 2.06   8 2.08   3 2.15
  39  0.503  0.613  0.359-  20 1.86  21 1.87   5 2.10   9 2.11  23 2.12   4 2.14
  40  0.499  0.099  0.367-  11 1.86  14 1.88  17 1.91   3 2.15
  41  0.501  0.896  0.627-  12 1.89  13 1.89  17 1.92   5 2.10   4 2.10
  42  0.006  0.397  0.146-  20 1.83  21 1.86  24 2.06   1 2.10   6 2.17
  43  0.004  0.606  0.858-  19 1.84  22 1.86   2 2.00  24 2.06   7 2.14
  44  0.005  0.096  0.867-  12 1.86  13 1.88  10 1.91   6 2.15
  45  0.002  0.901  0.132-  11 1.85  14 1.87  10 1.91   7 2.15
  46  0.247  0.397  0.391-  18 1.84  23 1.85  20 2.05   3 2.12   1 2.27
  47  0.250  0.604  0.609-  18 1.85  23 1.85  19 2.05   4 2.11
  48  0.750  0.603  0.612-  18 1.85  23 1.86  22 2.00   2 2.11   5 2.15
  49  0.748  0.403  0.385-  23 1.84  18 1.85  21 1.95   1 2.03
  50  0.252  0.103  0.609-  16 1.84  17 1.85  12 2.04   3 2.14   8 2.28
  51  0.249  0.897  0.390-  16 1.85  17 1.85  11 2.02   4 2.15
  52  0.750  0.898  0.387-  17 1.85  16 1.85  14 1.99   9 2.12   5 2.17
  53  0.753  0.097  0.615-  16 1.84  17 1.85  13 1.94   8 2.04
  54  0.496  0.404  0.136-  20 1.85  21 1.87  25 1.93   6 2.15
  55  0.498  0.599  0.866-  19 1.85  22 1.86  25 1.92   7 2.14
  56  0.495  0.104  0.851-  12 1.82  13 1.85   8 2.09  15 2.11   6 2.17
  57  0.496  0.893  0.146-  11 1.83  14 1.85   9 2.00  15 2.09   7 2.14

  LATTYP: Found a triclinic cell.
 ALAT       =    10.1686193948
 B/A-ratio  =     0.9812093354
 C/A-ratio  =     0.5430665206
 COS(alpha) =     0.0018056852
 COS(beta)  =     0.0057592172
 COS(gamma) =     0.3462170313

  Lattice vectors:

 A1 = (  -3.6055419365,  -0.0291074938,   9.5078935887)
 A2 = (  -9.9771426097,  -0.0090740071,  -0.0890664668)
 A3 = (  -0.0050849936,  -5.5222135493,   0.0151798487)

Analysis of symmetry for initial positions (statically):
 Subroutine PRICEL returns:
 Original cell was already a primitive cell.

 Routine SETGRP: Setting up the symmetry group for a
 triclinic supercell.

 Subroutine GETGRP returns: Found  1 space group operations
 (whereof  1 operations were pure point group operations)
 out of a pool of  2 trial point group operations.

The static configuration has the point symmetry C_1 .

Analysis of symmetry for dynamics (positions and initial velocities):
 Subroutine PRICEL returns:
 Original cell was already a primitive cell.

[...]

The dynamic configuration has the point symmetry C_1 .

Analysis of structural, dynamic, and magnetic symmetry:
 Subroutine PRICEL returns:
 Original cell was already a primitive cell.

 Routine SETGRP: Setting up the symmetry group for a
 triclinic supercell.

 Subroutine GETGRP returns: Found  1 space group operations
 (whereof  1 operations were pure point group operations)
 out of a pool of  2 trial point group operations.

The magnetic configuration has the point symmetry C_1 .

 Subroutine INISYM returns: Found  1 space group operations
 (whereof  1 operations are pure point group operations),
 and found     1 'primitive' translations

 KPOINTS: Automatic mesh

Automatic generation of k-mesh.
Space group operators:
 irot       det(A)        alpha          n_x          n_y          n_z        tau_x        tau_y        tau_z
    1     1.000000     0.000001     1.000000     0.000000     0.000000     0.000000     0.000000     0.000000

 Subroutine IBZKPT returns following result:

 Found      1 irreducible k-points:

 Following reciprocal coordinates:
            Coordinates               Weight
  0.000000  0.000000  0.000000      1.000000

 Following cartesian coordinates:
            Coordinates               Weight
  0.000000  0.000000  0.000000      1.000000

 SYSTEM =  unknown system
 POSCAR =  ce1309_1

 Startparameter for this run:
   NWRITE =      1    write-flag & timer
   PREC   = accura    normal or accurate (medium, high low for compatibility)
   ISTART =      0    job   : 0-new  1-cont  2-samecut
   ICHARG =      2    charge: 1-file 2-atom 10-const
   ISPIN  =      2    spin polarized calculation?
   LNONCOLLINEAR =      F non collinear calculations
   LSORBIT =      F    spin-orbit coupling
   INIWAV =      1    electr: 0-lowe 1-rand  2-diag
   LASPH  =      F    aspherical Exc in radial PAW
   METAGGA=      F    non-selfconsistent MetaGGA calc.

 Electronic Relaxation 1
   ENCUT  =  500.0 eV  36.75 Ry    6.06 a.u.  10.07 18.54 18.19*2*pi/ulx,y,z
   ENINI  =  500.0     initial cutoff
[...]
   -.262E+02 0.670E+00 -.680E+02   0.269E+02 -.630E+00 0.687E+02   -.374E+00 -.153E+00 -.602E+00   -.259E+00 0.106E+00 -.611E-01
   0.228E+01 0.624E+00 -.227E+02   -.278E+01 -.739E+00 0.229E+02   0.248E+00 -.127E-02 -.241E+00   0.241E+00 0.111E+00 0.385E-01
   0.113E+01 -.244E+02 -.346E+02   -.119E+01 0.246E+02 0.345E+02   -.429E-01 -.201E+00 0.597E-01   0.967E-01 0.694E-01 0.267E-01
   0.112E+02 0.145E+02 -.685E+02   -.115E+02 -.145E+02 0.695E+02   0.438E+00 0.467E-01 -.897E+00   -.114E+00 -.695E-01 -.453E-01
   0.151E+02 -.164E+02 -.690E+02   -.153E+02 0.163E+02 0.697E+02   0.340E+00 -.261E-01 -.713E+00   -.116E+00 0.687E-01 -.448E-01
   -.151E+02 0.168E+02 0.692E+02   0.156E+02 -.168E+02 -.698E+02   -.343E+00 0.218E-01 0.692E+00   -.863E-01 -.190E-02 -.903E-02
   -.112E+02 0.147E+01 0.354E+02   0.113E+02 -.147E+01 -.355E+02   -.749E-01 0.417E-02 0.140E+00   -.197E-01 -.318E-02 -.332E-01
   0.962E+01 0.151E+01 0.270E+02   -.100E+02 -.142E+01 -.275E+02   0.387E+00 -.937E-01 0.493E+00   0.337E-01 -.157E-02 0.509E-01
   0.289E+02 -.277E+00 0.656E+02   -.293E+02 0.138E+00 -.663E+02   0.368E+00 0.130E+00 0.595E+00   0.319E-01 0.897E-02 0.580E-01
   -.412E+01 -.307E+00 0.230E+02   0.441E+01 0.338E+00 -.232E+02   -.273E+00 -.402E-01 0.206E+00   -.213E-01 0.107E-01 -.286E-01
   -.106E+02 -.147E+02 0.686E+02   0.112E+02 0.148E+02 -.695E+02   -.500E+00 -.485E-01 0.926E+00   -.832E-01 0.135E-01 -.106E-01
   -.177E+01 0.243E+02 0.355E+02   0.159E+01 -.244E+02 -.354E+02   0.766E-01 0.192E+00 -.654E-01   0.109E+00 -.922E-02 0.414E-01
   0.311E+01 -.288E+02 0.367E+02   -.326E+01 0.289E+02 -.369E+02   0.403E-01 -.142E+00 0.110E+00   0.113E+00 0.141E-01 0.381E-01
   -.276E+02 0.299E+02 0.371E+03   0.288E+02 -.322E+02 -.392E+03   -.112E+01 0.234E+01 0.209E+02   -.645E-01 -.131E-01 -.999E-01
   0.454E+02 -.175E+01 -.301E+03   -.473E+02 0.174E+01 0.317E+03   0.199E+01 0.411E-01 -.161E+02   -.332E-01 -.269E-01 0.372E-01
   -.435E+02 0.257E+02 -.341E+03   0.489E+02 -.275E+02 0.358E+03   -.557E+01 0.187E+01 -.176E+02   0.112E+00 -.118E+00 -.125E+00
   0.267E+02 -.102E+01 0.275E+03   -.304E+02 0.102E+01 -.289E+03   0.396E+01 0.259E-01 0.145E+02   -.180E+00 -.363E-01 0.526E-01
   0.346E+02 0.377E+02 0.358E+03   -.402E+02 -.396E+02 -.376E+03   0.557E+01 0.190E+01 0.181E+02   0.351E-01 -.104E-01 -.296E-01
   -.290E+02 0.405E+02 -.318E+03   0.342E+02 -.428E+02 0.335E+03   -.533E+01 0.233E+01 -.170E+02   0.572E-01 -.121E-01 0.326E-01
   0.109E+02 -.439E+02 -.326E+03   -.105E+02 0.467E+02 0.346E+03   -.516E+00 -.280E+01 -.203E+02   0.724E-01 0.103E-01 0.337E-01
   0.303E+00 -.391E+02 0.361E+03   -.110E+01 0.416E+02 -.382E+03   0.775E+00 -.255E+01 0.202E+02   0.303E-01 0.104E-01 -.268E-01
   -.342E+02 -.373E+02 -.359E+03   0.395E+02 0.394E+02 0.376E+03   -.546E+01 -.196E+01 -.179E+02   0.115E+00 -.105E+00 0.997E-01
   0.304E+02 -.397E+02 0.318E+03   -.358E+02 0.421E+02 -.335E+03   0.550E+01 -.230E+01 0.168E+02   -.429E-01 -.103E+00 -.787E-01
   -.101E+02 0.436E+02 0.326E+03   0.964E+01 -.465E+02 -.346E+03   0.554E+00 0.280E+01 0.201E+02   -.611E-01 0.107E+00 -.560E-01
   -.218E+01 0.385E+02 -.362E+03   0.288E+01 -.411E+02 0.382E+03   -.932E+00 0.247E+01 -.200E+02   0.228E+00 0.110E+00 0.281E-01
   0.422E+02 -.251E+02 0.340E+03   -.477E+02 0.269E+02 -.357E+03   0.559E+01 -.185E+01 0.173E+02   -.607E-01 0.104E-01 -.964E-01
   -.252E+02 0.132E+01 -.274E+03   0.293E+02 -.131E+01 0.288E+03   -.405E+01 -.225E-01 -.141E+02   -.210E-01 0.220E-01 0.304E-01
   0.270E+02 -.306E+02 -.371E+03   -.281E+02 0.329E+02 0.392E+03   0.107E+01 -.238E+01 -.209E+02   0.335E-01 0.113E+00 -.738E-01
   -.443E+02 0.138E+01 0.299E+03   0.464E+02 -.132E+01 -.315E+03   -.199E+01 -.110E+00 0.160E+02   -.120E+00 0.426E-01 0.516E-02
   0.535E+02 0.220E+02 0.346E+03   -.593E+02 -.232E+02 -.363E+03   0.571E+01 0.126E+01 0.174E+02   0.357E-01 -.231E-01 0.287E-01
   -.555E+02 0.251E+02 -.305E+03   0.615E+02 -.268E+02 0.321E+03   -.607E+01 0.171E+01 -.164E+02   0.343E-01 -.153E-01 0.392E-01
   0.206E+02 0.239E+02 -.376E+03   -.217E+02 -.255E+02 0.397E+03   0.117E+01 0.162E+01 -.205E+02   -.611E-01 -.428E-01 0.355E-02
   -.197E+02 0.300E+02 0.342E+03   0.206E+02 -.319E+02 -.363E+03   -.102E+01 0.207E+01 0.210E+02   0.162E+00 -.114E+00 0.682E-01
   0.488E+02 -.352E+02 0.362E+03   -.552E+02 0.368E+02 -.380E+03   0.641E+01 -.162E+01 0.182E+02   -.162E-01 -.891E-02 -.330E-01
   -.558E+02 -.399E+02 -.314E+03   0.617E+02 0.419E+02 0.331E+03   -.585E+01 -.198E+01 -.177E+02   -.900E-01 -.692E-02 0.278E-01
   -.519E+02 0.407E+02 -.301E+03   0.559E+02 -.431E+02 0.318E+03   -.394E+01 0.240E+01 -.170E+02   -.824E-01 0.170E-02 0.236E-01
   0.747E+01 0.421E+02 0.373E+03   -.828E+01 -.446E+02 -.394E+03   0.844E+00 0.254E+01 0.202E+02   -.314E-01 0.270E-02 -.256E-01
   -.506E+02 0.351E+02 -.362E+03   0.572E+02 -.367E+02 0.380E+03   -.650E+01 0.174E+01 -.179E+02   -.124E+00 -.994E-01 -.107E+00
   0.556E+02 0.394E+02 0.315E+03   -.614E+02 -.414E+02 -.332E+03   0.574E+01 0.205E+01 0.174E+02   0.705E-01 -.982E-01 0.893E-01
   0.535E+02 -.403E+02 0.302E+03   -.575E+02 0.426E+02 -.319E+03   0.403E+01 -.239E+01 0.168E+02   -.309E-01 0.991E-01 0.156E+00
   -.893E+01 -.418E+02 -.374E+03   0.988E+01 0.442E+02 0.394E+03   -.826E+00 -.256E+01 -.199E+02   -.129E+00 0.101E+00 -.127E+00
   -.187E+02 -.233E+02 0.376E+03   0.198E+02 0.248E+02 -.396E+03   -.117E+01 -.151E+01 0.205E+02   0.436E-01 0.232E-01 0.356E-01
   0.175E+02 -.292E+02 -.341E+03   -.185E+02 0.312E+02 0.362E+03   0.975E+00 -.201E+01 -.210E+02   0.380E-01 0.112E-01 0.332E-01
   -.499E+02 -.223E+02 -.348E+03   0.555E+02 0.236E+02 0.366E+03   -.542E+01 -.126E+01 -.178E+02   -.142E+00 0.343E-01 0.519E-01
   0.522E+02 -.257E+02 0.308E+03   -.582E+02 0.273E+02 -.324E+03   0.579E+01 -.172E+01 0.167E+02   0.227E+00 0.118E+00 0.212E-01
   0.125E+00 -.928E-01 -.105E+00   -.156E-12 0.995E-13 -.114E-12   -.128E+00 0.124E+00 0.295E-01   -.131E-01 -.311E-01 0.776E-01

 POSITION                                       TOTAL-FORCE (eV/Angst)
      1.59009      5.25979      2.41716         0.001899     -0.033724      0.004392
      4.91692      5.34967      7.23107         0.004915     -0.015030      0.000898
      4.09011      1.36685      2.43357         0.001770      0.005229      0.000741
      2.28655      1.35711      7.22560        -0.004350      0.002495     -0.002478
      2.28788      4.11260      7.21672        -0.004910     -0.001256     -0.002076
      9.08137      1.37635      2.47701         0.000811     -0.005790     -0.002166
      7.27520      1.36013      7.26813        -0.001468     -0.007032      0.003602
      6.56238      3.00391      2.44463         0.004014      0.029942     -0.004081
     -0.33110      2.88141      7.18954        -0.013490      0.016414     -0.000788
      6.37293      5.47861      9.63973        -0.002896      0.001169     -0.000474
      2.48664      1.37847      0.02105        -0.009042      0.004159     -0.006052
      3.86798      1.34364      9.58910         0.000400      0.004361      0.001649
      3.87988      4.10452      9.60901        -0.000620     -0.005948      0.000214
     -1.12074      4.10746      9.58110        -0.008120     -0.006027     -0.005451
      6.36925      2.72772      9.65029        -0.003785     -0.004286     -0.000439
      4.98196      0.00253      0.04762        -0.005094     -0.000603     -0.003990
      4.98317      2.76539      0.02754        -0.003928     -0.002385     -0.003656
      3.19619      5.49817      4.82331         0.003878      0.004341      0.003676
      5.69190      1.36825      4.84987         0.003963      0.000962      0.001164
      0.70325      1.37058      4.85948         0.004162      0.001413      0.001664
      0.69084      4.12897      4.82140         0.003367      0.001253      0.003517
      5.69057      4.12540      4.85284         0.003909      0.001418      0.001729
      3.19922      2.74138      4.82080         0.004084     -0.000096      0.004410
     -1.80033     -0.01133      4.79826         0.004288      0.002188      0.001390
     -1.80250      2.75673      4.78886         0.004519     -0.001184      0.001484
      4.83711     -0.00811      3.92649         0.004933      0.000057      0.001419
      1.56841      5.50378      5.79014         0.001860      0.004620      0.001484
      3.12341      0.01376      1.03739         0.010147     -0.002443     -0.005176
      3.24711      5.47209      8.54184        -0.014185     -0.002511      0.000876
      7.49400      1.37045      3.87360         0.007637     -0.002541      0.004132
     -1.12531      1.38011      5.81419         0.001113      0.002968     -0.000644
     -1.03096      4.14097      5.73808         0.003173      0.003179     -0.000499
      7.41787      4.13459      3.91315         0.011105     -0.000223     -0.000034
      0.68758      1.37926      0.99145        -0.003200     -0.000649     -0.002432
      5.70224      1.33752      8.63266         0.002112     -0.006010     -0.004117
      5.60224      4.09519      8.68989        -0.005838     -0.001601     -0.001530
      0.75216      4.13313      0.93631         0.002017      0.000703     -0.001027
      5.04788      2.73263      3.82952         0.005677      0.001767      0.001962
      1.32524      2.76187      5.89729         0.000854      0.003509      0.000554
      3.34183      2.75465      0.94692        -0.007512      0.004976     -0.003451
      2.99924      2.72706      8.63931        -0.001375     -0.003790     -0.002977
      0.06956      0.01490      3.82124         0.007529     -0.001936      0.003999
      6.34152      0.00748      5.87793         0.002362      0.002622      0.001463
      8.32846      0.03189      0.97809        -0.007354      0.001169     -0.002979
     -1.96489     -0.02292      8.66006         0.000724     -0.008423      0.001211
      2.50418      1.35504      3.83463         0.007962      0.001921      0.006440
      3.89059      1.36530      5.83916         0.003864      0.004398      0.001286
      3.92359      4.12091      5.81855        -0.001702      0.004715      0.005405
      2.40714      4.11192      3.88590         0.004869     -0.000420      0.005937
      5.67115      1.38920      1.03661        -0.011733      0.000276     -0.003480
      0.67326      1.34383      8.61858        -0.003651     -0.004321      0.000731
      0.64985      4.11016      8.61389        -0.006578     -0.000656     -0.001426
      5.77194      4.15182      0.96362        -0.004670      0.002838     -0.006572
     -0.14599      2.71867      3.89039         0.006928      0.000119      0.003533
      6.53565      2.73637      5.78865         0.003007      0.003047      0.001660
      8.11791      2.73226      1.03382        -0.017014      0.002867     -0.002393
     -1.77447      2.70636      8.58427         0.008667     -0.002210     -0.002237
    total drift:                               -0.015992      0.000298      0.002666

  FREE ENERGIE OF THE ION-ELECTRON SYSTEM (eV)
  free  energy   TOTEN  =      -350.1611180475 eV

  energy  without entropy=     -350.1546573322  energy(sigma->0) =     -350.15788769

 d Force = 0.2104948E-03[ 0.201E-03, 0.220E-03]  d Energy = 0.2682165E-03-0.577E-04
 d Force =-0.6858739E+00[-0.686E+00,-0.686E+00]  d Ewald  =-0.8349644E+00 0.149E+00

 Quasi-Newton relaxation of ions (Broydens 2nd method)
  g(Force)  = 0.281E-03   g(Stress)= 0.867E-04

 retain information from N=  2 steps
 eigenvalues of (default step * inverse Hessian matrix)
  average eigenvalue of G=   2.0674
 eigenvalue spectrum of G is  0.0009  4.1338

volume of typ            1:    13.2 %

[...]

volume of typ            3:     9.8 %

total charge

# of ion       s       p       d       tot
    1        2.075   0.230   0.085   2.390
    2        2.081   0.246   0.093   2.420
    3        2.068   0.208   0.077   2.354
    4        2.077   0.235   0.088   2.400
    5        2.078   0.233   0.087   2.398
    6        2.066   0.204   0.075   2.345
    7        2.074   0.223   0.084   2.381
    8        2.074   0.228   0.084   2.386
    9        2.079   0.243   0.091   2.413
   10        0.304   0.436   7.841   8.581
   11        0.282   0.384   7.867   8.533
   12        0.273   0.365   7.876   8.513
   13        0.279   0.381   7.851   8.510
   14        0.275   0.375   7.849   8.499
   15        0.273   0.367   7.877   8.516
   16        0.272   0.361   7.882   8.515
   17        0.303   0.434   7.845   8.583
   18        0.303   0.435   7.846   8.583
   19        0.281   0.381   7.868   8.530
   20        0.272   0.364   7.874   8.509
   21        0.279   0.381   7.850   8.510
   22        0.275   0.375   7.855   8.505
   23        0.272   0.362   7.874   8.508
   24        0.273   0.364   7.859   8.496
   25        0.303   0.435   7.842   8.581
   26        1.270   2.761   0.007   4.038
   27        1.260   2.788   0.007   4.054
   28        1.265   2.775   0.007   4.047
   29        1.257   2.795   0.006   4.058
   30        1.267   2.768   0.007   4.042
   31        1.265   2.776   0.007   4.047
   32        1.269   2.768   0.007   4.044
   33        1.270   2.763   0.007   4.040
   34        1.268   2.768   0.007   4.042
   35        1.265   2.776   0.007   4.048
   36        1.269   2.767   0.007   4.044
   37        1.270   2.762   0.007   4.039
   38        1.263   2.781   0.007   4.051
   39        1.256   2.799   0.006   4.061
   40        1.270   2.760   0.007   4.037
   41        1.260   2.788   0.007   4.055
   42        1.264   2.777   0.007   4.048
   43        1.261   2.789   0.007   4.058
   44        1.270   2.758   0.007   4.036
   45        1.270   2.762   0.007   4.039
   46        1.267   2.769   0.007   4.043
   47        1.266   2.772   0.007   4.045
   48        1.263   2.781   0.007   4.051
   49        1.268   2.768   0.007   4.043
   50        1.267   2.769   0.007   4.043
   51        1.267   2.771   0.007   4.044
   52        1.263   2.780   0.007   4.050
   53        1.268   2.767   0.007   4.043
   54        1.270   2.758   0.007   4.036
   55        1.269   2.763   0.008   4.040
   56        1.266   2.772   0.007   4.045
   57        1.263   2.785   0.007   4.055
tot          63.70   96.99  126.74  287.43

magnetization (x)

# of ion       s       p       d       tot
    1       -0.001  -0.002  -0.000  -0.003
    2       -0.001  -0.003  -0.001  -0.005
    3        0.002   0.006   0.001   0.009
    4        0.004   0.007   0.000   0.012
    5        0.001   0.003  -0.000   0.004
    6        0.004   0.007   0.001   0.012
    7        0.002   0.007   0.001   0.009
    8        0.000   0.002   0.000   0.003
    9       -0.000   0.002   0.000   0.002
   10       -0.000  -0.000  -0.014  -0.014
   11        0.004   0.000   0.476   0.480
   12        0.003  -0.000   0.492   0.496
   13        0.000  -0.000   0.193   0.193
   14        0.000   0.000  -0.006  -0.005
   15       -0.001  -0.000  -0.088  -0.090
   16       -0.000  -0.000   0.021   0.020
   17       -0.000  -0.000  -0.012  -0.013
   18       -0.000  -0.000  -0.009  -0.010
   19        0.004  -0.000   0.502   0.506
   20        0.003  -0.000   0.482   0.485
   21        0.000  -0.000   0.168   0.169
   22        0.000  -0.000   0.058   0.059
   23        0.005  -0.000   0.520   0.525
   24       -0.005  -0.000  -0.582  -0.587
   25       -0.000   0.000  -0.025  -0.025
   26        0.001   0.010   0.000   0.011
   27        0.002   0.012   0.000   0.015
   28        0.000   0.008   0.000   0.008
   29        0.001   0.004   0.000   0.005
   30        0.004   0.049   0.000   0.053
   31        0.004   0.044   0.000   0.048
   32       -0.000  -0.006   0.000  -0.006
   33       -0.001  -0.018   0.000  -0.019
   34        0.005   0.051   0.000   0.055
   35        0.004   0.055   0.000   0.060
   36        0.001   0.009   0.000   0.010
   37       -0.001  -0.011   0.000  -0.012
   38        0.006   0.089   0.000   0.095
   39        0.005   0.067   0.000   0.072
   40        0.001   0.011   0.000   0.011
   41        0.002   0.015   0.000   0.017
   42       -0.005  -0.082  -0.000  -0.087
   43       -0.006  -0.081  -0.000  -0.086
   44        0.002   0.027   0.000   0.029
   45        0.001   0.010   0.000   0.011
   46        0.005   0.061   0.000   0.066
   47        0.006   0.058   0.000   0.064
   48        0.001   0.002   0.000   0.003
   49        0.002   0.019   0.000   0.022
   50        0.005   0.060   0.000   0.065
   51        0.005   0.050   0.000   0.055
   52       -0.001  -0.013   0.000  -0.014
   53        0.001   0.009   0.000   0.011
   54        0.002   0.027   0.000   0.030
   55        0.001   0.015   0.000   0.016
   56       -0.000  -0.011  -0.000  -0.011
   57       -0.001  -0.007  -0.000  -0.008
tot           0.08    0.56    2.18    2.82