 vasp.5.4.4.18Apr17-6-g9f103f2a35 (build May 12 2020 05:39:39) gamma-only

 MD_VERSION_INFO: Compiled 2020-05-12T12:39:39-UTC in devlin.sd.materialsdesign.
 com:/home/medea2/data/build/wwolf/vasp-gpu5.4.4/13047/x86_64/src/src/build/gam
 from svn 13047

 executed on                        Lin64 date 2023.03.07  07:15:30

 INCAR:
 POTCAR:    PAW_PBE Li_sv 10Sep2004
 POTCAR:    PAW_PBE Ni 02Aug2007
 POTCAR:    PAW_PBE O 08Apr2002

 POTCAR:    PAW_PBE Li_sv 10Sep2004

 POTCAR:    PAW_PBE Ni 02Aug2007

 POTCAR:    PAW_PBE O 08Apr2002

 Optimization of the real space projectors (new method)

 maximal supplied QI-value         = 22.11
 optimisation between [QCUT,QGAM] = [ 11.28, 22.77] = [ 35.61,145.23] Ry
 Optimized for a Real-space Cutoff    1.10 Angstroem

   l    n(q)    QCUT    max X(q) W(low)/X(q) W(high)/X(q)  e(spline)
   0      7    11.276    10.506    0.54E-04    0.58E-04    0.16E-07
   0      7    11.276     8.367    0.11E-03    0.14E-03    0.35E-07
   1      7    11.276     8.983    0.23E-03    0.43E-03    0.86E-07
 Optimization of the real space projectors (new method)

[...]

   l    n(q)    QCUT    max X(q) W(low)/X(q) W(high)/X(q)  e(spline)
   2      9    11.376    60.317    0.17E-03    0.16E-04    0.16E-06
   2      9    11.376    55.921    0.17E-03    0.16E-04    0.17E-06
   0     10    11.376    51.690    0.45E-04    0.60E-04    0.21E-06
   0     10    11.376    30.015    0.37E-04    0.55E-04    0.19E-06
   1     10    11.376    18.849    0.83E-04    0.11E-03    0.92E-07
   1     10    11.376    14.624    0.69E-04    0.92E-04    0.82E-07
 Optimization of the real space projectors (new method)

 maximal supplied QI-value         = 24.76
 optimisation between [QCUT,QGAM] = [ 11.39, 22.77] = [ 36.31,145.25] Ry
 Optimized for a Real-space Cutoff    1.10 Angstroem

   l    n(q)    QCUT    max X(q) W(low)/X(q) W(high)/X(q)  e(spline)
   0      7    11.387    20.381    0.22E-03    0.48E-03    0.18E-06
   0      7    11.387    15.268    0.22E-03    0.52E-03    0.19E-06
   1      7    11.387     5.964    0.22E-03    0.73E-03    0.24E-06
   1      7    11.387     5.382    0.19E-03    0.60E-03    0.21E-06

  PAW_PBE Li_sv 10Sep2004               :
  PAW_PBE Ni 02Aug2007                  :
  PAW_PBE O 08Apr2002                   :

 POSCAR: ce13185_1
  positions in direct lattice
 exchange correlation table for  LEXCH =       14
   RHO(1)=    0.500       N(1)  =     2000
   RHO(2)=  100.500       N(2)  =     4000

 ion  position               nearest neighbor table
   1  0.241  0.250  0.500-  31 2.09  29 2.09  53 2.12  49 2.12  43 2.15  41 2.15  14 2.84  22 2.84

   2  0.241  0.750  0.500-  32 2.09  30 2.09  54 2.12  50 2.12  44 2.15  42 2.15  15 2.84  23 2.84

[...]

   4  0.759  0.250  0.500-  31 2.09  29 2.09  56 2.12  52 2.12  43 2.15  41 2.15  17 2.84  25 2.84

   5  0.500  0.251  0.250-  57 2.07  43 2.07  52 2.13  49 2.13  37 2.14  40 2.14  26 2.84
   6  0.500  0.749  0.750-  58 2.07  44 2.07  51 2.13  50 2.13  38 2.14  39 2.14  26 2.84
   7  0.241  0.250  1.000-  47 2.09  45 2.09  37 2.11  33 2.11  59 2.15  57 2.16
   8  0.241  0.750  0.000-  48 2.09  46 2.09  38 2.11  34 2.11  60 2.15  58 2.16
   9  0.759  0.750  0.000-  48 2.09  46 2.09  39 2.11  35 2.11  60 2.15  58 2.16
  10  0.759  0.250  1.000-  47 2.09  45 2.09  40 2.11  36 2.11  59 2.15  57 2.16
  11  0.500  0.250  0.750-  59 2.07  41 2.07  56 2.13  53 2.13  33 2.14  36 2.14  20 2.84
  12  0.500  0.750  0.250-  60 2.07  42 2.07  55 2.13  54 2.13  34 2.14  35 2.14  20 2.84
  13  0.000  0.000  0.000-  37 1.87  38 1.87  39 1.87  40 1.87  47 1.93  48 1.93  18 2.80  18 2.80
                            14 2.86  15 2.86  16 2.86  17 2.86
  14  0.249  0.000  0.250-  48 1.88  31 1.88  60 1.89  43 1.89  54 2.02  37 2.03  17 2.79  17 2.81
                             1 2.84  19 2.86  13 2.86  20 2.86  18 2.86
  15  0.249  1.000  0.750-  47 1.88  32 1.88  59 1.89  44 1.89  53 2.02  38 2.03  16 2.79  16 2.81
                             2 2.84  19 2.86  13 2.86  20 2.86  18 2.86
  16  0.751  1.000  0.750-  47 1.88  32 1.88  59 1.89  44 1.89  56 2.02  39 2.03  15 2.79  15 2.81
                             3 2.84  19 2.86  13 2.86  20 2.86  18 2.86
  17  0.751  0.000  0.250-  48 1.88  31 1.88  60 1.89  43 1.89  55 2.02  40 2.03  14 2.79  14 2.81
                             4 2.84  19 2.86  13 2.86  20 2.86  18 2.86
  18  0.500  0.000  0.000-  37 1.85  38 1.85  39 1.85  40 1.85  59 2.06  60 2.06  13 2.80  13 2.80
                            17 2.86  14 2.86  15 2.86  16 2.86
  19  0.000  0.000  0.500-  53 1.87  54 1.87  55 1.87  56 1.87  31 1.93  32 1.93  20 2.80  20 2.80
                            14 2.86  15 2.86  16 2.86  17 2.86
  20  0.500  0.000  0.500-  53 1.85  54 1.85  55 1.85  56 1.85  43 2.07  44 2.07  19 2.80  19 2.80
                            11 2.84  12 2.84  14 2.86  15 2.86  16 2.86  17 2.86
  21  0.000  0.500  0.500-  49 1.87  50 1.87  51 1.87  52 1.87  29 1.93  30 1.93  26 2.80  26 2.80
                            22 2.86  23 2.86  24 2.86  25 2.86
  22  0.249  0.499  0.750-  29 1.88  46 1.88  58 1.89  41 1.89  50 2.02  33 2.03  25 2.79  25 2.81
                             1 2.84  27 2.86  21 2.86  28 2.86  26 2.87
  23  0.249  0.501  0.250-  30 1.88  45 1.88  57 1.89  42 1.89  49 2.02  34 2.03  24 2.79  24 2.81
                             2 2.84  27 2.86  21 2.86  28 2.86  26 2.87
  24  0.751  0.501  0.250-  30 1.88  45 1.88  57 1.89  42 1.89  52 2.02  35 2.03  23 2.79  23 2.81
                             3 2.84  27 2.86  21 2.86  28 2.86  26 2.87
  25  0.751  0.499  0.750-  29 1.88  46 1.88  58 1.89  41 1.89  51 2.02  36 2.03  22 2.79  22 2.81
                             4 2.84  27 2.86  21 2.86  28 2.86  26 2.87
  26  0.500  0.500  0.500-  49 1.85  50 1.85  51 1.85  52 1.85  41 2.07  42 2.07  21 2.80  21 2.80
                             5 2.84   6 2.84  25 2.87  22 2.87  23 2.87  24 2.87
  27  0.000  0.500  0.000-  33 1.87  34 1.87  35 1.87  36 1.87  45 1.93  46 1.93  28 2.80  28 2.80
                            22 2.86  23 2.86  24 2.86  25 2.86
  28  0.500  0.500  0.000-  33 1.85  34 1.85  35 1.85  36 1.85  57 2.06  58 2.06  27 2.80  27 2.80
                            22 2.86  23 2.86  24 2.86  25 2.86
  29  0.000  0.398  0.631-  22 1.88  25 1.88  21 1.93   4 2.09   1 2.09
  30  0.000  0.602  0.369-  23 1.88  24 1.88  21 1.93   3 2.09   2 2.09
  31  0.000  0.102  0.369-  14 1.88  17 1.88  19 1.93   4 2.09   1 2.09
  32  0.000  0.898  0.631-  15 1.88  16 1.88  19 1.93   3 2.09   2 2.09
  33  0.253  0.395  0.890-  28 1.85  27 1.87  22 2.03   7 2.11  11 2.14
  34  0.253  0.605  0.110-  28 1.85  27 1.87  23 2.03   8 2.11  12 2.14
  35  0.747  0.605  0.110-  28 1.85  27 1.87  24 2.03   9 2.11  12 2.14
  36  0.747  0.395  0.890-  28 1.85  27 1.87  25 2.03  10 2.11  11 2.14
  37  0.253  0.105  0.110-  18 1.85  13 1.87  14 2.03   7 2.11   5 2.14
  38  0.253  0.895  0.890-  18 1.85  13 1.87  15 2.03   8 2.11   6 2.14
  39  0.747  0.895  0.890-  18 1.85  13 1.87  16 2.03   9 2.11   6 2.14
  40  0.747  0.105  0.110-  18 1.85  13 1.87  17 2.03  10 2.11   5 2.14
  41  0.500  0.389  0.639-  22 1.89  25 1.89  26 2.07  11 2.07   1 2.15   4 2.15
  42  0.500  0.611  0.361-  23 1.89  24 1.89  26 2.07  12 2.07   2 2.15   3 2.15
  43  0.500  0.111  0.361-  14 1.89  17 1.89  20 2.07   5 2.07   1 2.15   4 2.15
  44  0.500  0.889  0.639-  15 1.89  16 1.89  20 2.07   6 2.07   2 2.15   3 2.15
  45  0.000  0.398  0.131-  23 1.88  24 1.88  27 1.93  10 2.09   7 2.09
  46  0.000  0.602  0.869-  22 1.88  25 1.88  27 1.93   9 2.09   8 2.09
  47  0.000  0.102  0.868-  15 1.88  16 1.88  13 1.93  10 2.09   7 2.09
  48  0.000  0.898  0.132-  14 1.88  17 1.88  13 1.93   9 2.09   8 2.09
  49  0.253  0.395  0.390-  26 1.85  21 1.87  23 2.02   1 2.12   5 2.13
  50  0.253  0.605  0.610-  26 1.85  21 1.87  22 2.02   2 2.12   6 2.13
  51  0.747  0.605  0.610-  26 1.85  21 1.87  25 2.02   3 2.12   6 2.13
  52  0.747  0.395  0.390-  26 1.85  21 1.87  24 2.02   4 2.12   5 2.13
  53  0.253  0.105  0.610-  20 1.85  19 1.87  15 2.02   1 2.12  11 2.13
  54  0.253  0.895  0.390-  20 1.85  19 1.87  14 2.02   2 2.12  12 2.13
  55  0.747  0.895  0.390-  20 1.85  19 1.87  17 2.02   3 2.12  12 2.13
  56  0.747  0.105  0.610-  20 1.85  19 1.87  16 2.02   4 2.12  11 2.13
  57  0.500  0.390  0.140-  23 1.89  24 1.89  28 2.06   5 2.07  10 2.16   7 2.16
  58  0.500  0.610  0.860-  22 1.89  25 1.89  28 2.06   6 2.07   9 2.16   8 2.16
  59  0.500  0.110  0.861-  15 1.89  16 1.89  18 2.06  11 2.07   7 2.15  10 2.15
  60  0.500  0.890  0.139-  14 1.89  17 1.89  18 2.06  12 2.07   8 2.15   9 2.15

  LATTYP: Found a simple monoclinic cell.
 ALAT       =    11.3902038944
 B/A-ratio  =     0.4918935659
 C/A-ratio  =     1.6701467582
 COS(beta)  =    -0.9013217615

  Lattice vectors:

 A1 = (  -6.3605883724,   0.0000000000,  -9.4487914736)
 A2 = (   0.0000000000,  -5.6027680100,   0.0000000000)
 A3 = (   2.7393595925,   0.0000000000,  18.8250448244)

Analysis of symmetry for initial positions (statically):
 Subroutine PRICEL returns:
 Original cell was already a primitive cell.

 Routine SETGRP: Setting up the symmetry group for a
 simple monoclinic supercell.

 Subroutine GETGRP returns: Found  4 space group operations
 (whereof  4 operations were pure point group operations)
 out of a pool of  4 trial point group operations.

The static configuration has the point symmetry C_2h.

Analysis of symmetry for dynamics (positions and initial velocities):
 Subroutine PRICEL returns:
 Original cell was already a primitive cell.

[...]

The dynamic configuration has the point symmetry C_2h.

Analysis of structural, dynamic, and magnetic symmetry:
 Subroutine PRICEL returns:
 Original cell was already a primitive cell.

 Routine SETGRP: Setting up the symmetry group for a
 simple monoclinic supercell.

 Subroutine GETGRP returns: Found  4 space group operations
 (whereof  4 operations were pure point group operations)
 out of a pool of  4 trial point group operations.

The magnetic configuration has the point symmetry C_2h.

 Subroutine INISYM returns: Found  4 space group operations
 (whereof  4 operations are pure point group operations),
 and found     1 'primitive' translations

 KPOINTS: Automatic mesh

Automatic generation of k-mesh.
Space group operators:
 irot       det(A)        alpha          n_x          n_y          n_z        tau_x        tau_y        tau_z
    1     1.000000     0.000000     1.000000     0.000000     0.000000     0.000000     0.000000     0.000000
    2    -1.000000     0.000000     1.000000     0.000000     0.000000     0.000000     0.000000     0.000000
    3     1.000000   180.000000     0.000000     1.000000     0.000000     0.000000     0.000000     0.000000
    4    -1.000000   180.000000     0.000000     1.000000     0.000000     0.000000     0.000000     0.000000

 Subroutine IBZKPT returns following result:

 Found      1 irreducible k-points:

 Following reciprocal coordinates:
            Coordinates               Weight
  0.000000  0.000000  0.000000      1.000000

 Following cartesian coordinates:
            Coordinates               Weight
  0.000000  0.000000  0.000000      1.000000

 SYSTEM =  unknown system
 POSCAR =  ce13185_1

[...]
   -.153E-10 0.100E-11 -.114E-11   -.284E-13 0.149E-12 -.568E-13   -.529E-22 0.000E+00 -.471E-22   -.633E-13 -.834E-14 0.200E-13
   -.203E-12 -.331E-13 0.464E-13   -.213E-13 0.227E-12 -.114E-12   0.000E+00 0.000E+00 0.414E-23   -.126E-12 0.144E-13 0.200E-12
   -.446E-12 0.996E-12 -.170E-11   0.284E-13 -.284E-13 0.604E-13   0.106E-21 0.000E+00 -.455E-22   -.153E-12 -.104E-13 0.200E-12
   -.795E-13 -.229E-13 -.702E-13   0.199E-12 0.838E-13 -.222E-15   0.000E+00 0.000E+00 0.827E-24   -.739E-13 0.534E-14 0.353E-14
   -.269E+00 0.303E+02 0.973E+00   0.281E+00 -.306E+02 -.955E+00   0.128E-01 0.241E+00 0.247E-02   -.289E-01 -.179E-01 -.837E-02
   0.269E+00 0.303E+02 -.973E+00   -.281E+00 -.306E+02 0.955E+00   -.128E-01 0.241E+00 -.247E-02   0.289E-01 -.179E-01 0.837E-02
   0.269E+00 -.303E+02 -.973E+00   -.281E+00 0.306E+02 0.955E+00   -.128E-01 -.241E+00 -.247E-02   0.289E-01 0.179E-01 0.837E-02
   -.269E+00 -.303E+02 0.973E+00   0.281E+00 0.306E+02 -.955E+00   0.128E-01 -.241E+00 0.247E-02   -.289E-01 0.179E-01 -.837E-02
   -.301E-11 0.987E-12 0.355E-11   0.231E-13 -.824E-13 0.548E-13   0.000E+00 0.000E+00 -.165E-22   -.850E-13 0.103E-13 0.388E-13
   -.487E-13 -.227E-13 -.622E-13   -.162E-12 0.122E-13 0.284E-13   -.529E-22 0.000E+00 0.480E-22   -.127E-12 0.432E-14 -.455E-13
   -.172E-11 0.990E-12 -.404E-11   0.302E-13 0.105E-12 0.711E-14   0.000E+00 0.000E+00 0.374E-22   -.107E-12 0.105E-13 0.312E-14
   -.276E+02 -.508E-13 0.293E+03   0.297E+02 -.385E-13 -.307E+03   -.207E+01 0.000E+00 0.147E+02   0.384E-02 0.338E-13 -.149E-01
   0.276E+02 0.399E-13 -.293E+03   -.297E+02 -.557E-13 0.307E+03   0.207E+01 0.000E+00 -.147E+02   -.384E-02 -.780E-13 0.149E-01
   0.281E+02 -.250E-13 -.293E+03   -.302E+02 -.829E-13 0.308E+03   0.211E+01 0.000E+00 -.147E+02   0.225E-01 -.392E-13 -.475E-02
   -.281E+02 -.302E-13 0.293E+03   0.302E+02 -.749E-13 -.308E+03   -.211E+01 -.132E-22 0.147E+02   -.225E-01 -.815E-15 0.475E-02
   0.397E+02 0.313E+02 0.307E+03   -.443E+02 -.336E+02 -.323E+03   0.470E+01 0.234E+01 0.161E+02   -.254E-01 -.333E-01 -.361E-01
   -.397E+02 0.313E+02 -.307E+03   0.443E+02 -.336E+02 0.323E+03   -.470E+01 0.234E+01 -.161E+02   0.254E-01 -.333E-01 0.361E-01
   -.397E+02 -.313E+02 -.307E+03   0.443E+02 0.336E+02 0.323E+03   -.470E+01 -.234E+01 -.161E+02   0.254E-01 0.333E-01 0.361E-01
   0.397E+02 -.313E+02 0.307E+03   -.443E+02 0.336E+02 -.323E+03   0.470E+01 -.234E+01 0.161E+02   -.254E-01 0.333E-01 -.361E-01
   -.400E+02 0.312E+02 -.307E+03   0.448E+02 -.336E+02 0.323E+03   -.475E+01 0.234E+01 -.161E+02   -.575E-02 0.195E-01 -.171E-01
   0.400E+02 0.312E+02 0.307E+03   -.448E+02 -.336E+02 -.323E+03   0.475E+01 0.234E+01 0.161E+02   0.575E-02 0.195E-01 0.171E-01
   0.400E+02 -.312E+02 0.307E+03   -.448E+02 0.336E+02 -.323E+03   0.475E+01 -.234E+01 0.161E+02   0.575E-02 -.195E-01 0.171E-01
   -.400E+02 -.312E+02 -.307E+03   0.448E+02 0.336E+02 0.323E+03   -.475E+01 -.234E+01 -.161E+02   -.575E-02 -.195E-01 -.171E-01
   0.106E+02 0.235E-12 0.277E+03   -.132E+02 0.215E-13 -.289E+03   0.266E+01 0.000E+00 0.118E+02   -.533E-02 0.509E-14 -.224E-01
   -.106E+02 0.116E-12 -.277E+03   0.132E+02 0.243E-13 0.289E+03   -.266E+01 0.000E+00 -.118E+02   0.533E-02 0.229E-13 0.224E-01
   -.100E+02 0.196E-12 -.277E+03   0.126E+02 0.922E-13 0.289E+03   -.263E+01 0.000E+00 -.118E+02   0.457E-01 -.155E-13 -.238E-01
   0.100E+02 0.202E-12 0.277E+03   -.126E+02 0.142E-12 -.289E+03   0.263E+01 0.000E+00 0.118E+02   -.457E-01 0.408E-13 0.238E-01
   -.289E+02 0.735E-13 0.294E+03   0.311E+02 -.337E-13 -.308E+03   -.223E+01 0.000E+00 0.147E+02   0.149E-01 -.560E-13 -.731E-02
   0.289E+02 -.830E-13 -.294E+03   -.311E+02 -.222E-13 0.308E+03   0.223E+01 0.000E+00 -.147E+02   -.149E-01 0.780E-14 0.731E-02
   0.286E+02 -.328E-13 -.293E+03   -.308E+02 0.840E-13 0.308E+03   0.222E+01 0.000E+00 -.147E+02   0.719E-03 -.312E-13 -.712E-02
   -.286E+02 -.197E-14 0.293E+03   0.308E+02 0.614E-13 -.308E+03   -.222E+01 0.000E+00 0.147E+02   -.719E-03 -.121E-13 0.712E-02
   0.405E+02 0.316E+02 0.306E+03   -.452E+02 -.340E+02 -.322E+03   0.475E+01 0.238E+01 0.161E+02   -.459E-03 0.957E-03 -.168E-01
   -.405E+02 0.316E+02 -.306E+03   0.452E+02 -.340E+02 0.322E+03   -.475E+01 0.238E+01 -.161E+02   0.459E-03 0.957E-03 0.168E-01
   -.405E+02 -.316E+02 -.306E+03   0.452E+02 0.340E+02 0.322E+03   -.475E+01 -.238E+01 -.161E+02   0.459E-03 -.957E-03 0.168E-01
   0.405E+02 -.316E+02 0.306E+03   -.452E+02 0.340E+02 -.322E+03   0.475E+01 -.238E+01 0.161E+02   -.459E-03 -.957E-03 -.168E-01
   -.405E+02 0.314E+02 -.306E+03   0.453E+02 -.338E+02 0.322E+03   -.473E+01 0.237E+01 -.161E+02   -.306E-01 0.339E-01 -.371E-01
   0.405E+02 0.314E+02 0.306E+03   -.453E+02 -.338E+02 -.322E+03   0.473E+01 0.237E+01 0.161E+02   0.306E-01 0.339E-01 0.371E-01
   0.405E+02 -.314E+02 0.306E+03   -.453E+02 0.338E+02 -.322E+03   0.473E+01 -.237E+01 0.161E+02   0.306E-01 -.339E-01 0.371E-01
   -.405E+02 -.314E+02 -.306E+03   0.453E+02 0.338E+02 0.322E+03   -.473E+01 -.237E+01 -.161E+02   -.306E-01 -.339E-01 -.371E-01
   0.971E+01 0.137E-12 0.278E+03   -.124E+02 -.197E-13 -.290E+03   0.260E+01 0.331E-23 0.118E+02   0.444E-01 0.948E-13 -.267E-01
   -.971E+01 0.243E-12 -.278E+03   0.124E+02 0.191E-13 0.290E+03   -.260E+01 0.000E+00 -.118E+02   -.444E-01 -.636E-13 0.267E-01
   -.993E+01 0.186E-12 -.278E+03   0.125E+02 0.988E-14 0.290E+03   -.260E+01 0.000E+00 -.118E+02   0.740E-02 -.241E-13 -.240E-01
   0.993E+01 0.179E-12 0.278E+03   -.125E+02 0.109E-13 -.290E+03   0.260E+01 0.000E+00 0.118E+02   -.740E-02 0.536E-13 0.240E-01
   -.104E-09 0.128E-10 -.126E-11   -.117E-12 -.105E-14 0.171E-12   0.000E+00 0.331E-23 0.178E-14   -.123E-11 -.119E-12 0.601E-12

 POSITION                                       TOTAL-FORCE (eV/Angst)
      4.08547      1.35145      2.37984        -0.000413      0.006273      0.002660
      2.27512      1.35145      7.06895         0.000413      0.006273     -0.002660
      2.27512      4.25132      7.06895         0.000413     -0.006273     -0.002660
      4.08547      4.25132      2.37984        -0.000413     -0.006273      0.002660
      1.58772      2.80138      2.36694         0.004104      0.000000     -0.005319
      4.77287      2.80138      7.08185        -0.004104      0.000000      0.005319
      9.07700      1.34874      2.41471        -0.000930      0.010359      0.008415
     -2.71641      1.34874      7.03408         0.000930      0.010359     -0.008415
     -2.71641      4.25402      7.03408         0.000930     -0.010359     -0.008415
      9.07700      4.25402      2.41471        -0.000930     -0.010359      0.008415
      6.58308      2.80138      2.39399        -0.001888      0.000000      0.006573
     -0.22249      2.80138      7.05480         0.001888      0.000000     -0.006573
      0.00000      0.00000      0.00000         0.000000      0.000000     -0.000000
      2.49546      1.39473      0.02187        -0.000916      0.002674      0.009376
      3.86513      1.39473      9.42692         0.000916      0.002674     -0.009376
      3.86513      4.20804      9.42692         0.000916     -0.002674     -0.009376
      2.49546      4.20804      0.02187        -0.000916     -0.002674      0.009376
      0.00000      2.80138      0.00000         0.000000      0.000000     -0.000000
      4.99091      0.00000      0.03627         0.000000      0.000000     -0.000000
      4.99091      2.80138      0.03627         0.000000      0.000000     -0.000000
      3.18029      0.00000      4.72440         0.000000      0.000000     -0.000000
      5.67646      1.39476      4.73757        -0.003552      0.000597      0.011376
      0.68413      1.39476      4.71122         0.003552      0.000597     -0.011376
      0.68413      4.20801      4.71122         0.003552     -0.000597     -0.011376
      5.67646      4.20801      4.73757        -0.003552     -0.000597      0.011376
      3.18029      2.80138      4.72440         0.000000      0.000000     -0.000000
     -1.81061      0.00000      4.68813         0.000000      0.000000     -0.000000
     -1.81061      2.80138      4.68813         0.000000      0.000000     -0.000000
      4.86051      0.00000      3.77367        -0.006760      0.000000      0.003949
      1.50008      0.00000      5.67512         0.006760      0.000000     -0.003949
      3.31085      0.00000      0.98729         0.004207      0.000000     -0.015395
      3.04974      0.00000      8.46150        -0.004207      0.000000      0.015395
      7.45544      1.41716      3.76787        -0.003541      0.003981      0.000962
     -1.09485      1.41716      5.68092         0.003541      0.003981     -0.000962
     -1.09485      4.18561      5.68092         0.003541     -0.003981     -0.000962
      7.45544      4.18561      3.76787        -0.003541     -0.003981      0.000962
      0.71597      1.41715      0.99271         0.005276      0.004803     -0.003693
      5.64462      1.41715      8.45608        -0.005276      0.004803      0.003693
      5.64462      4.18562      8.45608        -0.005276     -0.004803      0.003693
      0.71597      4.18562      0.99271         0.005276     -0.004803     -0.003693
      4.97222      2.80138      3.69363        -0.006230      0.000000     -0.000849
      1.38836      2.80138      5.75516         0.006230      0.000000      0.000849
      3.19932      2.80138      1.06677         0.002535      0.000000     -0.008466
      3.16127      2.80138      8.38202        -0.002535      0.000000      0.008466
     -0.13014      0.00000      3.74490        -0.007227      0.000000     -0.000211
      6.49073      0.00000      5.70389         0.007227      0.000000      0.000211
      8.30102      0.00000      1.01585         0.007738      0.000000      0.005977
     -1.94043      0.00000      8.43294        -0.007738      0.000000     -0.005977
      2.45831      1.41754      3.73639         0.007322      0.002080      0.002654
      3.90228      1.41754      5.71241        -0.007322      0.002080     -0.002654
      3.90228      4.18523      5.71241        -0.007322     -0.002080     -0.002654
      2.45831      4.18523      3.73639         0.007322     -0.002080      0.002654
      5.71184      1.41723      1.02445         0.000677      0.005550      0.004108
      0.64875      1.41723      8.42434        -0.000677      0.005550     -0.004108
      0.64875      4.18554      8.42434        -0.000677     -0.005550     -0.004108
      5.71184      4.18554      1.02445         0.000677     -0.005550      0.004108
     -0.02003      2.80138      3.66800        -0.007784      0.000000     -0.012581
      6.38062      2.80138      5.78079         0.007784      0.000000      0.012581
      8.19117      2.80138      1.09353         0.004198      0.000000      0.012826
     -1.83058      2.80138      8.35526        -0.004198      0.000000     -0.012826
    total drift:                               -0.000000      0.000000     -0.000000

  FREE ENERGIE OF THE ION-ELECTRON SYSTEM (eV)
  free  energy   TOTEN  =      -364.3126530335 eV

  energy  without entropy=     -364.3095092352  energy(sigma->0) =     -364.31108113

 Quasi-Newton relaxation of ions (Broydens 2nd method)
  g(Force)  = 0.233E-03   g(Stress)= 0.160E-03

 Reset! Starting new Quasi-Newton update for ions

 reached required accuracy - stopping structural energy minimisation

volume of typ            1:    17.8 %

[...]

volume of typ            3:     9.9 %

total charge

# of ion       s       p       d       tot
    1        2.078   0.252   0.091   2.421
    2        2.078   0.252   0.091   2.421
    3        2.078   0.252   0.091   2.421
    4        2.078   0.252   0.091   2.421
    5        2.079   0.249   0.094   2.422
    6        2.079   0.249   0.094   2.422
    7        2.077   0.252   0.091   2.420
    8        2.077   0.252   0.091   2.420
    9        2.077   0.252   0.091   2.420
   10        2.077   0.252   0.091   2.420
   11        2.079   0.249   0.094   2.422
   12        2.079   0.249   0.094   2.422
   13        0.282   0.388   7.847   8.517
   14        0.262   0.345   7.862   8.469
   15        0.262   0.345   7.862   8.469
   16        0.262   0.345   7.862   8.469
   17        0.262   0.345   7.862   8.469
   18        0.280   0.379   7.870   8.529
   19        0.281   0.387   7.847   8.515
   20        0.280   0.378   7.869   8.528
   21        0.281   0.386   7.848   8.515
   22        0.262   0.345   7.862   8.469
   23        0.262   0.345   7.862   8.469
   24        0.262   0.345   7.862   8.469
   25        0.262   0.345   7.862   8.469
   26        0.280   0.378   7.871   8.530
   27        0.282   0.388   7.847   8.517
   28        0.280   0.379   7.873   8.532
   29        1.261   2.785   0.006   4.053
   30        1.261   2.785   0.006   4.053
   31        1.261   2.785   0.006   4.053
   32        1.261   2.785   0.006   4.053
   33        1.263   2.778   0.006   4.048
   34        1.263   2.778   0.006   4.048
   35        1.263   2.778   0.006   4.048
   36        1.263   2.778   0.006   4.048
   37        1.263   2.778   0.006   4.048
   38        1.263   2.778   0.006   4.048
   39        1.263   2.778   0.006   4.048
   40        1.263   2.778   0.006   4.048
   41        1.257   2.794   0.005   4.056
   42        1.257   2.794   0.005   4.056
   43        1.257   2.793   0.005   4.056
   44        1.257   2.793   0.005   4.056
   45        1.261   2.785   0.006   4.053
   46        1.261   2.785   0.006   4.053
   47        1.261   2.786   0.006   4.053
   48        1.261   2.786   0.006   4.053
   49        1.263   2.778   0.006   4.048
   50        1.263   2.778   0.006   4.048
   51        1.263   2.778   0.006   4.048
   52        1.263   2.778   0.006   4.048
   53        1.263   2.778   0.007   4.048
   54        1.263   2.778   0.007   4.048
   55        1.263   2.778   0.007   4.048
   56        1.263   2.778   0.007   4.048
   57        1.257   2.794   0.006   4.056
   58        1.257   2.794   0.006   4.056
   59        1.257   2.794   0.006   4.056
   60        1.257   2.794   0.006   4.056
tot          69.63   97.92  127.08  294.62

magnetization (x)

# of ion       s       p       d       tot
    1        0.005   0.017  -0.001   0.021
    2        0.005   0.017  -0.001   0.021
    3        0.005   0.017  -0.001   0.021
    4        0.005   0.017  -0.001   0.021
    5        0.006   0.011   0.001   0.017
    6        0.006   0.011   0.001   0.017
    7        0.005   0.017  -0.001   0.021
    8        0.005   0.017  -0.001   0.021
    9        0.005   0.017  -0.001   0.021
   10        0.005   0.017  -0.001   0.021
   11        0.006   0.011   0.001   0.017
   12        0.006   0.011   0.001   0.017
   13       -0.001  -0.000   0.241   0.240
   14        0.001  -0.000   0.676   0.676
   15        0.001  -0.000   0.676   0.676
   16        0.001  -0.000   0.676   0.676
   17        0.001  -0.000   0.676   0.676
   18        0.004  -0.000   0.605   0.609
   19       -0.001  -0.000   0.246   0.245
   20        0.005  -0.000   0.609   0.613
   21       -0.001  -0.000   0.247   0.246
   22        0.001  -0.000   0.675   0.676
   23        0.001  -0.000   0.675   0.676
   24        0.001  -0.000   0.675   0.676
   25        0.001  -0.000   0.675   0.676
   26        0.005  -0.000   0.609   0.613
   27       -0.001  -0.000   0.240   0.239
   28        0.004  -0.000   0.604   0.608
   29        0.009   0.037   0.000   0.046
   30        0.009   0.037   0.000   0.046
   31        0.009   0.037   0.000   0.046
   32        0.009   0.037   0.000   0.046
   33        0.008   0.052   0.000   0.060
   34        0.008   0.052   0.000   0.060
   35        0.008   0.052   0.000   0.060
   36        0.008   0.052   0.000   0.060
   37        0.008   0.052   0.000   0.060
   38        0.008   0.052   0.000   0.060
   39        0.008   0.052   0.000   0.060
   40        0.008   0.052   0.000   0.060
   41        0.012   0.090   0.000   0.102
   42        0.012   0.090   0.000   0.102
   43        0.012   0.089   0.000   0.102
   44        0.012   0.089   0.000   0.102
   45        0.009   0.036   0.000   0.045
   46        0.009   0.036   0.000   0.045
   47        0.009   0.036   0.000   0.045
   48        0.009   0.036   0.000   0.045
   49        0.008   0.052   0.000   0.060
   50        0.008   0.052   0.000   0.060
   51        0.008   0.052   0.000   0.060
   52        0.008   0.052   0.000   0.060
   53        0.008   0.052   0.000   0.060
   54        0.008   0.052   0.000   0.060
   55        0.008   0.052   0.000   0.060
   56        0.008   0.052   0.000   0.060
   57        0.012   0.088   0.000   0.100
   58        0.012   0.088   0.000   0.100
   59        0.012   0.088   0.000   0.100
   60        0.012   0.088   0.000   0.100
tot           0.37    2.01    8.81   11.19