 vasp.5.4.4.18Apr17-6-g9f103f2a35 (build May 12 2020 05:39:39) gamma-only

 MD_VERSION_INFO: Compiled 2020-05-12T12:39:39-UTC in devlin.sd.materialsdesign.
 com:/home/medea2/data/build/wwolf/vasp-gpu5.4.4/13047/x86_64/src/src/build/gam
 from svn 13047

 executed on                        Lin64 date 2023.03.07  07:17:11

 INCAR:
 POTCAR:    PAW_PBE Li_sv 10Sep2004
 POTCAR:    PAW_PBE Ni 02Aug2007
 POTCAR:    PAW_PBE O 08Apr2002

 POTCAR:    PAW_PBE Li_sv 10Sep2004

 POTCAR:    PAW_PBE Ni 02Aug2007

 POTCAR:    PAW_PBE O 08Apr2002

 Optimization of the real space projectors (new method)

 maximal supplied QI-value         = 22.11
 optimisation between [QCUT,QGAM] = [ 11.28, 22.77] = [ 35.61,145.23] Ry
 Optimized for a Real-space Cutoff    1.10 Angstroem

   l    n(q)    QCUT    max X(q) W(low)/X(q) W(high)/X(q)  e(spline)
   0      7    11.276    10.506    0.54E-04    0.58E-04    0.16E-07
   0      7    11.276     8.367    0.11E-03    0.14E-03    0.35E-07
   1      7    11.276     8.983    0.23E-03    0.43E-03    0.86E-07
 Optimization of the real space projectors (new method)

[...]

   l    n(q)    QCUT    max X(q) W(low)/X(q) W(high)/X(q)  e(spline)
   2      9    11.376    60.317    0.17E-03    0.16E-04    0.16E-06
   2      9    11.376    55.921    0.17E-03    0.16E-04    0.17E-06
   0     10    11.376    51.690    0.45E-04    0.60E-04    0.21E-06
   0     10    11.376    30.015    0.37E-04    0.55E-04    0.19E-06
   1     10    11.376    18.849    0.83E-04    0.11E-03    0.92E-07
   1     10    11.376    14.624    0.69E-04    0.92E-04    0.82E-07
 Optimization of the real space projectors (new method)

 maximal supplied QI-value         = 24.76
 optimisation between [QCUT,QGAM] = [ 11.39, 22.77] = [ 36.31,145.25] Ry
 Optimized for a Real-space Cutoff    1.10 Angstroem

   l    n(q)    QCUT    max X(q) W(low)/X(q) W(high)/X(q)  e(spline)
   0      7    11.387    20.381    0.22E-03    0.48E-03    0.18E-06
   0      7    11.387    15.268    0.22E-03    0.52E-03    0.19E-06
   1      7    11.387     5.964    0.22E-03    0.73E-03    0.24E-06
   1      7    11.387     5.382    0.19E-03    0.60E-03    0.21E-06

  PAW_PBE Li_sv 10Sep2004               :
  PAW_PBE Ni 02Aug2007                  :
  PAW_PBE O 08Apr2002                   :

 POSCAR: ce4461_1
  positions in direct lattice
 exchange correlation table for  LEXCH =       14
   RHO(1)=    0.500       N(1)  =     2000
   RHO(2)=  100.500       N(2)  =     4000

 ion  position               nearest neighbor table
   1  0.995  0.253  0.242-  41 2.06  46 2.07  38 2.09  53 2.11  50 2.14  32 2.23  14 2.81
   2  0.252  0.250  0.500-  44 2.09  42 2.10  30 2.11  32 2.11  54 2.12  50 2.15  23 2.84  21 2.84
                            27 2.84  15 2.84
   3  0.242  0.750  0.500-  31 2.09  33 2.09  51 2.09  55 2.12  45 2.15  43 2.15  24 2.80  16 2.80

   4  0.757  0.750  0.500-  31 2.06  33 2.07  45 2.12  43 2.12  56 2.18  52 2.19  25 2.83  17 2.83

[...]

   9  0.254  0.249  0.000-  34 2.04  38 2.05  60 2.13  58 2.13  48 2.16  46 2.17  19 2.83
  10  0.241  0.750  0.000-  49 2.09  47 2.09  39 2.12  35 2.14  61 2.14  59 2.15
  11  0.760  0.750  0.999-  40 2.08  36 2.08  49 2.10  47 2.10  59 2.16  61 2.17  26 2.84
  12  0.504  0.249  0.758-  37 2.07  60 2.07  34 2.11  57 2.12  42 2.13  54 2.14  29 2.77  21 2.84

  13  0.501  0.751  0.249-  43 2.07  61 2.10  56 2.13  35 2.14  55 2.15  36 2.15
  14  0.999  0.002  0.000-  40 1.86  38 1.87  41 1.88  39 1.88  49 1.96  48 2.00  19 2.77  19 2.79
                             1 2.81  17 2.87  16 2.88  18 2.90  15 2.90
  15  0.250  1.000  0.251-  61 1.86  49 1.87  32 1.87  44 1.88  55 2.07  38 2.13  18 2.78  18 2.79
                             2 2.84  20 2.88  19 2.89  21 2.89  14 2.90
  16  0.249  0.994  0.748-  48 1.85  60 1.85  33 1.87  45 1.87  39 2.05  54 2.09  17 2.77  17 2.79
                             3 2.80   7 2.84  14 2.88  21 2.88  20 2.88  19 2.90
  17  0.750  0.997  0.750-  45 1.86  48 1.86  33 1.86  60 1.87  40 2.08  57 2.13  16 2.77  16 2.79
                             4 2.83   8 2.84  14 2.87  19 2.88  21 2.89  20 2.90
  18  0.750  0.999  0.251-  61 1.88  49 1.88  32 1.88  44 1.89  41 1.99  56 2.01  15 2.78  15 2.79
                            20 2.88  19 2.89  21 2.89  14 2.90
  19  0.501  0.004  0.003-  40 1.84  39 1.85  41 1.86  38 1.87  60 2.05  61 2.09  14 2.77   6 2.78
                            14 2.79   9 2.83  17 2.88  18 2.89  15 2.89  16 2.90
  20  0.001  0.002  0.501-  55 1.86  57 1.87  54 1.87  56 1.87  33 1.98  32 2.03  21 2.78  21 2.78
                            15 2.88  18 2.88  16 2.88  17 2.90
  21  0.500  0.005  0.503-  55 1.84  56 1.85  57 1.87  54 1.87  44 2.09  45 2.10  20 2.78  20 2.78
                             5 2.83   2 2.84  12 2.84  16 2.88  17 2.89  18 2.89  15 2.89
  22  0.001  0.498  0.500-  51 1.86  53 1.86  50 1.88  52 1.88  31 1.97  30 2.01  27 2.78  27 2.78
                            23 2.87  26 2.88  24 2.89  25 2.91
  23  0.249  0.500  0.749-  47 1.85  59 1.86  42 1.87  30 1.87  51 2.11  34 2.16  26 2.78  26 2.79
                             2 2.84  22 2.87  29 2.89  27 2.89  28 2.90
  24  0.249  0.506  0.252-  46 1.85  58 1.86  43 1.86  31 1.87  35 2.03  50 2.07  25 2.77  25 2.79
                             3 2.80  28 2.88  27 2.89  22 2.89  29 2.90
  25  0.751  0.504  0.250-  46 1.85  43 1.85  31 1.86  58 1.87  36 2.11  53 2.16  24 2.77  24 2.79
                             4 2.83  28 2.87  29 2.88  27 2.89  22 2.91
  26  0.750  0.500  0.749-  47 1.88  59 1.88  42 1.88  30 1.89  37 1.98  52 2.00  23 2.78  23 2.79
                             5 2.84  11 2.84  22 2.88  29 2.89  27 2.89  28 2.90
  27  0.501  0.496  0.498-  51 1.83  52 1.85  53 1.85  50 1.87  42 2.12  43 2.14  22 2.78  22 2.78
                             6 2.84   2 2.84  24 2.89  26 2.89  23 2.89  25 2.89
  28  0.999  0.498  1.000-  36 1.85  34 1.86  37 1.87  35 1.88  47 1.99  46 2.03  29 2.77  29 2.79
                             8 2.79  25 2.87  24 2.88  26 2.90  23 2.90
  29  0.501  0.495  0.998-  36 1.83  35 1.86  34 1.86  37 1.87  58 2.03  59 2.07  12 2.77  28 2.77
                            28 2.79  25 2.88  26 2.89  23 2.89  24 2.90
  30  0.002  0.393  0.635-  23 1.87  26 1.89  22 2.01   2 2.11   5 2.12   8 2.27
  31  0.996  0.604  0.370-  25 1.86  24 1.87  22 1.97   4 2.06   3 2.09
  32  0.001  0.108  0.364-  15 1.87  18 1.88  20 2.03   2 2.11   5 2.12   1 2.23
  33  0.997  0.896  0.631-  17 1.86  16 1.87  20 1.98   4 2.07   3 2.09
  34  0.248  0.385  0.893-  28 1.86  29 1.86   9 2.04   8 2.09  12 2.11  23 2.16
  35  0.254  0.604  0.109-  29 1.86  28 1.88  24 2.03  10 2.14  13 2.14
  36  0.746  0.606  0.102-  29 1.83  28 1.85  11 2.08  25 2.11  13 2.15
  37  0.752  0.395  0.881-  28 1.87  29 1.87  26 1.98   8 2.05  12 2.07
  38  0.248  0.113  0.110-  19 1.87  14 1.87   9 2.05   1 2.09   6 2.11  15 2.13
  39  0.255  0.895  0.892-  19 1.85  14 1.88  16 2.05  10 2.12   7 2.13
  40  0.745  0.894  0.895-  19 1.84  14 1.86  11 2.08  17 2.08   7 2.15
  41  0.751  0.105  0.119-  19 1.86  14 1.88  18 1.99   1 2.06   6 2.07
  42  0.498  0.387  0.642-  23 1.87  26 1.88   2 2.10   5 2.11  27 2.12  12 2.13
  43  0.503  0.613  0.359-  25 1.85  24 1.86  13 2.07   4 2.12  27 2.14   3 2.15
  44  0.499  0.111  0.361-  15 1.88  18 1.89  21 2.09   2 2.09   5 2.10   6 2.17
  45  0.503  0.889  0.638-  17 1.86  16 1.87  21 2.10   7 2.11   4 2.12   3 2.15
  46  0.003  0.399  0.142-  24 1.85  25 1.85  28 2.03   1 2.07   9 2.17
  47  0.003  0.601  0.865-  23 1.85  26 1.88  28 1.99  10 2.09  11 2.10
  48  0.003  0.100  0.860-  16 1.85  17 1.86  14 2.00   8 2.08   9 2.16
  49  0.002  0.899  0.132-  15 1.87  18 1.88  14 1.96  10 2.09  11 2.10
  50  0.250  0.391  0.384-  27 1.87  22 1.88  24 2.07   1 2.14   6 2.14   2 2.15
  51  0.256  0.605  0.603-  27 1.83  22 1.86   3 2.09  23 2.11   7 2.13
  52  0.744  0.601  0.612-  27 1.85  22 1.88  26 2.00   7 2.13   4 2.19
  53  0.752  0.388  0.392-  27 1.85  22 1.86   5 2.08   1 2.11   6 2.12  25 2.16
  54  0.249  0.111  0.614-  21 1.87  20 1.87  16 2.09   2 2.12  12 2.14   8 2.14
  55  0.255  0.897  0.394-  21 1.84  20 1.86  15 2.07   3 2.12  13 2.15
  56  0.746  0.899  0.389-  21 1.85  20 1.87  18 2.01  13 2.13   4 2.18
  57  0.753  0.112  0.612-  20 1.87  21 1.87   5 2.07   8 2.11  12 2.12  17 2.13
  58  0.497  0.398  0.141-  24 1.86  25 1.87  29 2.03   6 2.07   9 2.13
  59  0.497  0.607  0.861-  23 1.86  26 1.88  29 2.07   7 2.11  10 2.15  11 2.16
  60  0.495  0.102  0.858-  16 1.85  17 1.87  19 2.05  12 2.07   9 2.13
  61  0.498  0.892  0.140-  15 1.86  18 1.88  19 2.09  13 2.10  10 2.14  11 2.17

  LATTYP: Found a triclinic cell.
 ALAT       =    10.0841500920
 B/A-ratio  =     1.0037312521
 C/A-ratio  =     0.5514014586
 COS(alpha) =     0.0002338739
 COS(beta)  =     0.0005701765
 COS(gamma) =     0.3645526077

  Lattice vectors:

 A1 = (  -3.7076072247,  -0.0028652549,   9.3778314944)
 A2 = ( -10.1217198490,  -0.0011879714,  -0.0338732243)
 A3 = (  -0.0006526854,  -5.5604148414,   0.0014522613)

Analysis of symmetry for initial positions (statically):
 Subroutine PRICEL returns:
 Original cell was already a primitive cell.

 Routine SETGRP: Setting up the symmetry group for a
 triclinic supercell.

 Subroutine GETGRP returns: Found  1 space group operations
 (whereof  1 operations were pure point group operations)
 out of a pool of  2 trial point group operations.

The static configuration has the point symmetry C_1 .

Analysis of symmetry for dynamics (positions and initial velocities):
 Subroutine PRICEL returns:
 Original cell was already a primitive cell.

[...]

The dynamic configuration has the point symmetry C_1 .

Analysis of structural, dynamic, and magnetic symmetry:
 Subroutine PRICEL returns:
 Original cell was already a primitive cell.

 Routine SETGRP: Setting up the symmetry group for a
 triclinic supercell.

 Subroutine GETGRP returns: Found  1 space group operations
 (whereof  1 operations were pure point group operations)
 out of a pool of  2 trial point group operations.

The magnetic configuration has the point symmetry C_1 .

 Subroutine INISYM returns: Found  1 space group operations
 (whereof  1 operations are pure point group operations),
 and found     1 'primitive' translations

 KPOINTS: Automatic mesh

Automatic generation of k-mesh.
Space group operators:
 irot       det(A)        alpha          n_x          n_y          n_z        tau_x        tau_y        tau_z
    1     1.000000     0.000000     1.000000     0.000000     0.000000     0.000000     0.000000     0.000000

 Subroutine IBZKPT returns following result:

 Found      1 irreducible k-points:

 Following reciprocal coordinates:
            Coordinates               Weight
  0.000000  0.000000  0.000000      1.000000

 Following cartesian coordinates:
            Coordinates               Weight
  0.000000  0.000000  0.000000      1.000000

 SYSTEM =  unknown system
 POSCAR =  ce4461_1

 Startparameter for this run:
   NWRITE =      1    write-flag & timer
   PREC   = accura    normal or accurate (medium, high low for compatibility)
   ISTART =      0    job   : 0-new  1-cont  2-samecut
   ICHARG =      2    charge: 1-file 2-atom 10-const
[...]
   -.199E+01 0.163E+02 -.576E+02   0.161E+01 -.163E+02 0.582E+02   0.376E+00 0.187E-01 -.553E+00   -.172E-02 0.718E-02 -.214E-02
   0.178E+02 0.171E+02 -.641E+02   -.186E+02 -.171E+02 0.644E+02   0.719E+00 -.139E-01 -.350E+00   0.729E-04 0.115E-01 0.263E-02
   0.380E+02 -.153E+02 -.230E+02   -.388E+02 0.153E+02 0.232E+02   0.768E+00 -.111E-01 -.228E+00   -.364E-02 -.113E-01 0.174E-02
   0.713E+01 -.176E+02 -.680E+02   -.707E+01 0.177E+02 0.683E+02   -.595E-01 -.508E-01 -.309E+00   -.512E-02 -.500E-02 -.911E-03
   0.170E+02 -.276E+01 -.203E+02   -.166E+02 0.279E+01 0.207E+02   -.378E+00 -.276E-01 -.463E+00   0.299E-01 0.396E-02 0.275E-02
   -.471E+02 0.138E+02 -.787E+01   0.473E+02 -.140E+02 0.816E+01   -.243E+00 0.127E+00 -.296E+00   -.319E-01 -.757E-02 -.244E-02
   -.157E+02 -.138E+02 0.248E+02   0.163E+02 0.139E+02 -.248E+02   -.606E+00 -.125E+00 0.404E-01   -.332E-01 0.809E-02 -.411E-02
   0.418E+01 -.307E+01 0.248E+03   -.627E+01 0.259E+01 -.261E+03   0.207E+01 0.477E+00 0.125E+02   0.195E-01 -.125E-02 0.108E-01
   0.197E+02 0.484E+01 -.304E+03   -.192E+02 -.496E+01 0.319E+03   -.535E+00 0.132E+00 -.152E+02   0.410E-02 -.125E-01 0.159E-01
   -.659E+01 -.216E+01 -.249E+03   0.894E+01 0.179E+01 0.260E+03   -.237E+01 0.363E+00 -.119E+02   0.203E-01 0.109E-01 -.638E-02
   -.179E+02 0.461E+01 0.306E+03   0.172E+02 -.491E+01 -.321E+03   0.695E+00 0.305E+00 0.154E+02   -.109E-01 -.901E-02 0.100E-01
   0.185E+02 0.277E+01 0.264E+03   -.231E+02 -.297E+01 -.276E+03   0.468E+01 0.184E+00 0.122E+02   -.250E-01 0.177E-01 0.150E-02
   -.328E+02 0.312E+02 -.309E+03   0.369E+02 -.331E+02 0.325E+03   -.410E+01 0.191E+01 -.153E+02   -.144E-01 0.183E-01 0.913E-02
   -.510E+02 -.305E+02 -.301E+03   0.565E+02 0.325E+02 0.317E+03   -.544E+01 -.194E+01 -.163E+02   -.645E-02 -.186E-01 0.163E-02
   -.311E+02 -.240E+01 0.287E+03   0.304E+02 0.255E+01 -.301E+03   0.791E+00 -.138E+00 0.140E+02   -.275E-01 -.173E-01 0.516E-02
   -.143E+02 0.965E+00 -.266E+03   0.192E+02 -.117E+01 0.278E+03   -.493E+01 0.201E+00 -.118E+02   0.135E-01 0.101E-01 0.317E-02
   0.365E+02 0.302E+02 0.309E+03   -.409E+02 -.323E+02 -.324E+03   0.440E+01 0.209E+01 0.153E+02   -.961E-02 0.104E-01 -.174E-01
   0.483E+02 -.287E+02 0.300E+03   -.537E+02 0.305E+02 -.316E+03   0.544E+01 -.186E+01 0.158E+02   -.163E-01 -.103E-01 -.150E-01
   0.297E+02 -.200E+01 -.289E+03   -.288E+02 0.242E+01 0.303E+03   -.938E+00 -.417E+00 -.139E+02   0.582E-02 -.106E-01 0.815E-02
   0.147E+02 0.318E+01 0.250E+03   -.176E+02 -.290E+01 -.262E+03   0.294E+01 -.282E+00 0.123E+02   0.208E-01 0.160E-02 0.131E-01
   -.231E+02 -.505E+01 -.282E+03   0.281E+02 0.510E+01 0.295E+03   -.507E+01 -.597E-01 -.132E+02   0.153E-02 0.125E-01 0.131E-01
   -.819E+01 0.272E+01 -.252E+03   0.108E+02 -.253E+01 0.264E+03   -.265E+01 -.183E+00 -.117E+02   0.128E-01 -.104E-01 -.490E-02
   0.179E+02 -.404E+01 0.285E+03   -.227E+02 0.410E+01 -.298E+03   0.476E+01 -.669E-01 0.133E+02   -.463E-02 0.853E-02 0.732E-02
   0.437E+02 0.336E+02 0.283E+03   -.485E+02 -.354E+02 -.299E+03   0.475E+01 0.181E+01 0.162E+02   0.377E-02 -.127E-01 -.108E-01
   0.942E+01 -.236E+01 -.311E+03   -.888E+01 0.189E+01 0.326E+03   -.495E+00 0.479E+00 -.144E+02   -.295E-01 -.194E-02 -.160E-01
   -.412E+02 0.328E+02 -.282E+03   0.455E+02 -.345E+02 0.299E+03   -.429E+01 0.178E+01 -.162E+02   -.272E-01 -.872E-02 0.825E-03
   -.145E+02 -.183E+01 0.312E+03   0.144E+02 0.152E+01 -.326E+03   0.411E-01 0.302E+00 0.139E+02   0.193E-01 0.103E-01 -.413E-02
   0.383E+02 0.839E+00 0.260E+03   -.425E+02 -.130E+01 -.273E+03   0.422E+01 0.461E+00 0.125E+02   0.177E-01 0.683E-03 -.119E-01
   -.524E+02 0.281E+02 -.316E+03   0.580E+02 -.300E+02 0.333E+03   -.558E+01 0.187E+01 -.164E+02   0.236E-01 0.156E-03 0.661E-03
   -.332E+02 -.301E+02 -.321E+03   0.370E+02 0.325E+02 0.337E+03   -.379E+01 -.236E+01 -.159E+02   0.242E-01 -.422E-03 -.764E-03
   0.544E+02 0.586E-01 0.255E+03   -.591E+02 0.177E+00 -.268E+03   0.466E+01 -.234E+00 0.127E+02   0.103E-01 -.671E-03 -.558E-02
   -.416E+02 0.206E+01 -.260E+03   0.461E+02 -.234E+01 0.272E+03   -.450E+01 0.282E+00 -.127E+02   -.122E-01 -.535E-02 -.513E-02
   0.479E+02 0.297E+02 0.318E+03   -.535E+02 -.316E+02 -.334E+03   0.559E+01 0.195E+01 0.160E+02   0.452E-02 -.587E-02 0.194E-01
   0.365E+02 -.308E+02 0.321E+03   -.406E+02 0.331E+02 -.337E+03   0.410E+01 -.225E+01 0.159E+02   0.137E-01 0.549E-02 0.131E-01
   -.507E+02 -.148E+01 -.255E+03   0.553E+02 0.167E+01 0.268E+03   -.464E+01 -.193E+00 -.123E+02   -.439E-02 0.562E-02 -.821E-02
   0.384E+02 -.349E+02 0.289E+03   -.431E+02 0.368E+02 -.304E+03   0.471E+01 -.191E+01 0.153E+02   -.139E-01 0.131E-01 -.207E-02
   -.219E+02 0.292E+01 -.292E+03   0.263E+02 -.256E+01 0.304E+03   -.441E+01 -.355E+00 -.123E+02   -.105E-01 0.206E-02 -.245E-01
   -.422E+02 -.342E+02 -.288E+03   0.471E+02 0.362E+02 0.303E+03   -.489E+01 -.199E+01 -.154E+02   -.158E-01 0.870E-02 -.264E-02
   0.230E+02 0.185E+01 0.292E+03   -.274E+02 -.152E+01 -.304E+03   0.439E+01 -.320E+00 0.120E+02   0.757E-02 -.103E-01 -.143E-03
   0.567E+00 0.325E-01 -.396E+00   0.195E-12 -.251E-12 0.568E-12   -.528E+00 -.112E-01 0.406E+00   -.187E-01 0.125E-02 -.793E-02

 POSITION                                       TOTAL-FORCE (eV/Angst)
      1.51321      5.53020      2.37575        -0.006453      0.000051      0.000420
      4.13538      1.40359      2.36169        -0.000075     -0.001706      0.002743
      2.27574      1.34174      7.05373        -0.002220      0.001348     -0.000963
      2.27870      4.20809      7.05070         0.001157     -0.002061     -0.002621
      4.15045      4.16009      2.35466        -0.000069      0.004548      0.002895
      1.51769      2.81602      2.37408         0.000980     -0.000208     -0.007512
      4.81948      2.76798      7.04531        -0.000825     -0.007065     -0.001194
      6.77942      5.53595      2.34382         0.013625     -0.004003      0.003606
     -0.91863      1.41076      2.33699        -0.001868      0.012030      0.003992
     -2.77619      1.33997      7.03376         0.001541      0.006354     -0.002503
      7.32649      4.22430      7.07192        -0.000930     -0.004761     -0.001919
      6.75132      2.80526      2.35661        -0.004192      0.000470      0.005501
     -0.25924      2.78484      7.05290        -0.001686      0.000832     -0.000057
     -0.00509      5.55668      0.01527         0.007788     -0.002085     -0.003319
     -1.16841      1.38544      9.38736         0.004206     -0.002795     -0.008015
      3.88652      1.38360      9.34695         0.006354      0.002312      0.008681
      3.89933      4.17064      9.37223         0.001152      0.007392      0.001671
     -1.16566      4.17067      9.38121        -0.001632      0.000413     -0.009018
      0.01122      2.78335      0.03753         0.006452      0.006016      0.002686
      5.06365      0.00453      0.03780         0.007692     -0.000235      0.002535
      5.07472      2.78330      0.05962         0.000756     -0.001197     -0.001895
      3.21083      0.00355      4.69058        -0.003641      0.001167     -0.006224
      5.73020      1.38662      4.71417        -0.005285     -0.006786      0.002193
      0.67606      1.38514      4.75439        -0.001315     -0.005295      0.001243
      0.66267      4.17249      4.73166         0.002675      0.000219      0.006902
      5.72864      4.17193      4.71829         0.000458     -0.000512      0.003350
      3.19805      2.78261      4.66536        -0.001256      0.004038     -0.000123
      8.27421      5.55641      4.70322        -0.009867     -0.004564     -0.002742
      8.26065      2.78331      4.68089        -0.003865      0.005567      0.001093
      4.96635      0.01004      3.71037        -0.002389      0.001954      0.012886
      1.50419      5.53965      5.67526        -0.010800      0.000190     -0.004159
      3.28615      0.00825      1.02122         0.001202      0.000155     -0.011552
      3.06969      5.54378      8.42333         0.006921     -0.003413      0.001536
      7.61264      1.37704      3.64618        -0.002504      0.001934      0.006322
     -1.13484      1.41131      5.67056        -0.003521      0.005479      0.001348
     -1.21382      4.14561      5.68885         0.000064     -0.002792     -0.002737
      7.44735      4.18132      3.73623        -0.002748     -0.001825      0.008238
      0.69448      1.37837      1.06451         0.005897      0.001931     -0.005622
      5.71344      1.41732      8.42372         0.001812      0.001514      0.006672
      5.74645      4.14334      8.41896        -0.001788     -0.002476      0.006963
      0.81591      4.17444      0.98394         0.002338     -0.000413     -0.006799
      5.05790      2.76848      3.65585        -0.013164      0.000076      0.006749
      1.35731      2.79739      5.76367         0.001354      0.001110     -0.006500
      3.24338      2.77614      1.05716         0.002545     -0.001121     -0.006972
      3.16858      2.79475      8.35629         0.008443     -0.000602      0.000631
     -0.04438      0.01360      3.74911        -0.016071      0.001798      0.006406
      6.53120      0.01648      5.67055         0.010082      0.002353     -0.003400
      8.33594      0.01982      0.96794         0.001655     -0.001501     -0.003529
     -1.99640      0.00866      8.43966         0.007418     -0.001304     -0.002502
      2.43930      1.39062      3.67890        -0.002578     -0.004003     -0.000150
      3.86483      1.42164      5.69298        -0.002902     -0.001395     -0.002393
      3.96825      4.13807      5.65947        -0.006309     -0.002328     -0.001474
      2.52754      4.18151      3.64812        -0.005527     -0.000252      0.004240
      5.81013      1.38686      1.05795         0.001640     -0.003994     -0.007295
      0.66389      1.41455      8.42404        -0.002108      0.003003      0.005221
      0.60928      4.14384      8.44593         0.007782     -0.002838      0.004316
      5.77580      4.18503      1.07301         0.006813     -0.000104     -0.007471
     -0.04305      2.76014      3.73361         0.003046     -0.002150     -0.003179
      6.46675      2.76582      5.72372        -0.012427      0.005283      0.004930
      8.30546      2.75566      0.98993        -0.001866     -0.005905     -0.001605
     -1.89198      2.76688      8.36819         0.008029      0.002151     -0.000527
    total drift:                                0.020204      0.022591      0.001357

  FREE ENERGIE OF THE ION-ELECTRON SYSTEM (eV)
  free  energy   TOTEN  =      -368.9757904750 eV

  energy  without entropy=     -368.9722415809  energy(sigma->0) =     -368.97401603

 d Force = 0.2515761E-03[ 0.838E-04, 0.419E-03]  d Energy = 0.2916897E-03-0.401E-04
 d Force = 0.1473149E+01[ 0.147E+01, 0.148E+01]  d Ewald  =-0.1650281E+01 0.312E+01

 Quasi-Newton relaxation of ions (Broydens 2nd method)
  g(Force)  = 0.208E-03   g(Stress)= 0.146E-03

 retain information from N=  1 steps
 eigenvalues of (default step * inverse Hessian matrix)
  average eigenvalue of G=   0.3267
 eigenvalue spectrum of G is  0.3267

 reached required accuracy - stopping structural energy minimisation

volume of typ            1:    19.2 %

[...]

volume of typ            3:     9.9 %

total charge

# of ion       s       p       d       tot
    1        2.083   0.251   0.094   2.428
    2        2.081   0.260   0.096   2.437
    3        2.081   0.250   0.095   2.426
    4        2.077   0.244   0.091   2.412
    5        2.086   0.271   0.102   2.460
    6        2.083   0.254   0.095   2.432
    7        2.077   0.237   0.088   2.402
    8        2.082   0.251   0.094   2.426
    9        2.083   0.256   0.097   2.436
   10        2.077   0.249   0.090   2.416
   11        2.080   0.253   0.093   2.426
   12        2.085   0.258   0.097   2.440
   13        2.080   0.242   0.091   2.413
   14        0.272   0.369   7.858   8.499
   15        0.263   0.345   7.871   8.479
   16        0.272   0.362   7.869   8.503
   17        0.265   0.348   7.865   8.478
   18        0.267   0.357   7.865   8.489
   19        0.272   0.365   7.874   8.511
   20        0.271   0.367   7.866   8.504
   21        0.271   0.361   7.882   8.514
   22        0.272   0.369   7.863   8.504
   23        0.264   0.344   7.882   8.490
   24        0.272   0.365   7.865   8.502
   25        0.265   0.346   7.879   8.490
   26        0.268   0.359   7.861   8.489
   27        0.272   0.359   7.892   8.523
   28        0.271   0.366   7.864   8.502
   29        0.273   0.366   7.869   8.508
   30        1.258   2.794   0.006   4.057
   31        1.259   2.788   0.007   4.053
   32        1.258   2.794   0.006   4.058
   33        1.258   2.789   0.007   4.054
   34        1.254   2.804   0.006   4.064
   35        1.265   2.772   0.006   4.043
   36        1.264   2.776   0.007   4.046
   37        1.260   2.789   0.006   4.055
   38        1.254   2.803   0.006   4.063
   39        1.264   2.774   0.006   4.044
   40        1.263   2.778   0.006   4.048
   41        1.260   2.789   0.006   4.055
   42        1.256   2.796   0.006   4.058
   43        1.254   2.799   0.006   4.060
   44        1.257   2.794   0.006   4.057
   45        1.254   2.799   0.006   4.059
   46        1.262   2.780   0.007   4.049
   47        1.263   2.779   0.006   4.048
   48        1.261   2.783   0.007   4.051
   49        1.263   2.781   0.006   4.050
   50        1.257   2.794   0.006   4.056
   51        1.262   2.779   0.007   4.048
   52        1.263   2.775   0.007   4.045
   53        1.255   2.800   0.006   4.061
   54        1.256   2.796   0.006   4.058
   55        1.263   2.778   0.006   4.047
   56        1.263   2.777   0.007   4.046
   57        1.254   2.803   0.006   4.063
   58        1.261   2.780   0.006   4.048
   59        1.258   2.791   0.006   4.055
   60        1.261   2.781   0.006   4.049
   61        1.259   2.792   0.006   4.056
tot          71.66   98.23  127.35  297.24

magnetization (x)

# of ion       s       p       d       tot
    1        0.001   0.005  -0.001   0.006
    2        0.006   0.015  -0.000   0.021
    3        0.002   0.007   0.001   0.011
    4        0.004   0.007  -0.001   0.011
    5        0.002   0.009  -0.000   0.010
    6        0.004   0.010   0.000   0.014
    7        0.003   0.009   0.000   0.012
    8        0.002   0.006  -0.001   0.008
    9        0.003   0.007   0.001   0.011
   10        0.005   0.016  -0.000   0.021
   11        0.001   0.008  -0.000   0.010
   12        0.002   0.009   0.000   0.011
   13        0.002   0.009   0.000   0.011
   14       -0.001  -0.001   0.261   0.260
   15        0.003  -0.000   0.736   0.739
   16        0.003  -0.000   0.579   0.582
   17        0.004  -0.000   0.654   0.657
   18        0.000  -0.001   0.567   0.567
   19        0.003  -0.000   0.494   0.496
   20        0.000  -0.001   0.342   0.342
   21        0.004  -0.001   0.551   0.554
   22        0.000  -0.000   0.286   0.286
   23        0.004  -0.000   0.662   0.665
   24        0.003  -0.000   0.494   0.496
   25       -0.005  -0.001  -0.525  -0.531
   26        0.000  -0.001   0.531   0.531
   27        0.005   0.000   0.516   0.522
   28       -0.001   0.000  -0.085  -0.086
   29        0.003   0.000   0.469   0.472
   30        0.008   0.034   0.000   0.042
   31        0.002   0.023   0.000   0.025
   32        0.009   0.039   0.000   0.048
   33        0.006   0.047   0.000   0.053
   34        0.005   0.072   0.000   0.077
   35        0.006   0.070   0.000   0.077
   36       -0.005  -0.087  -0.000  -0.093
   37        0.005   0.048   0.000   0.053
   38        0.007   0.070   0.000   0.077
   39        0.008   0.083   0.000   0.091
   40        0.007   0.090   0.000   0.097
   41        0.007   0.056   0.000   0.063
   42        0.009   0.085   0.000   0.094
   43        0.005   0.065   0.000   0.070
   44        0.010   0.083   0.000   0.093
   45        0.007   0.064   0.000   0.072
   46       -0.001  -0.021   0.000  -0.022
   47        0.004   0.003   0.000   0.008
   48        0.004   0.022   0.000   0.027
   49        0.009   0.046   0.000   0.056
   50        0.007   0.061   0.000   0.069
   51        0.006   0.091   0.000   0.098
   52        0.006   0.045   0.000   0.051
   53       -0.004  -0.072  -0.000  -0.076
   54        0.008   0.065   0.000   0.073
   55        0.008   0.087   0.000   0.095
   56        0.007   0.045   0.000   0.052
   57        0.007   0.077   0.000   0.085
   58        0.005   0.052   0.000   0.057
   59        0.009   0.064   0.000   0.074
   60        0.007   0.068   0.000   0.076
   61        0.010   0.066   0.000   0.076
tot           0.25    1.65    6.54    8.44