 vasp.5.4.4.18Apr17-6-g9f103f2a35 (build May 12 2020 05:39:39) gamma-only

 MD_VERSION_INFO: Compiled 2020-05-12T12:39:39-UTC in devlin.sd.materialsdesign.
 com:/home/medea2/data/build/wwolf/vasp-gpu5.4.4/13047/x86_64/src/src/build/gam
 from svn 13047

 executed on                        Lin64 date 2023.01.19  16:48:47

 INCAR:
 POTCAR:    PAW_PBE Li_sv 10Sep2004
 POTCAR:    PAW_PBE Ni 02Aug2007
 POTCAR:    PAW_PBE O 08Apr2002

 POTCAR:    PAW_PBE Li_sv 10Sep2004

 POTCAR:    PAW_PBE Ni 02Aug2007

 POTCAR:    PAW_PBE O 08Apr2002

 Optimization of the real space projectors (new method)

 maximal supplied QI-value         = 22.11
 optimisation between [QCUT,QGAM] = [ 11.28, 22.77] = [ 35.61,145.23] Ry
 Optimized for a Real-space Cutoff    1.10 Angstroem

   l    n(q)    QCUT    max X(q) W(low)/X(q) W(high)/X(q)  e(spline)
   0      7    11.276    10.506    0.54E-04    0.58E-04    0.16E-07
   0      7    11.276     8.367    0.11E-03    0.14E-03    0.35E-07
   1      7    11.276     8.983    0.23E-03    0.43E-03    0.86E-07
 Optimization of the real space projectors (new method)

[...]

   l    n(q)    QCUT    max X(q) W(low)/X(q) W(high)/X(q)  e(spline)
   2      9    11.376    60.317    0.17E-03    0.16E-04    0.16E-06
   2      9    11.376    55.921    0.17E-03    0.16E-04    0.17E-06
   0     10    11.376    51.690    0.45E-04    0.60E-04    0.21E-06
   0     10    11.376    30.015    0.37E-04    0.55E-04    0.19E-06
   1     10    11.376    18.849    0.83E-04    0.11E-03    0.92E-07
   1     10    11.376    14.624    0.69E-04    0.92E-04    0.82E-07
 Optimization of the real space projectors (new method)

 maximal supplied QI-value         = 24.76
 optimisation between [QCUT,QGAM] = [ 11.39, 22.77] = [ 36.31,145.25] Ry
 Optimized for a Real-space Cutoff    1.10 Angstroem

   l    n(q)    QCUT    max X(q) W(low)/X(q) W(high)/X(q)  e(spline)
   0      7    11.387    20.381    0.22E-03    0.48E-03    0.18E-06
   0      7    11.387    15.268    0.22E-03    0.52E-03    0.19E-06
   1      7    11.387     5.964    0.22E-03    0.73E-03    0.24E-06
   1      7    11.387     5.382    0.19E-03    0.60E-03    0.21E-06

  PAW_PBE Li_sv 10Sep2004               :
  PAW_PBE Ni 02Aug2007                  :
  PAW_PBE O 08Apr2002                   :

 POSCAR: ce425583_1
  positions in direct lattice
 exchange correlation table for  LEXCH =       14
   RHO(1)=    0.500       N(1)  =     2000
   RHO(2)=  100.500       N(2)  =     4000

 ion  position               nearest neighbor table
   1  0.999  0.500  0.998-  49 2.10  37 2.10  84 2.11  72 2.11  36 2.11  85 2.13
   2  0.111  0.833  0.222-  51 2.09  57 2.09  38 2.09  50 2.09  33 2.10  56 2.10
   3  0.555  0.166  0.110-  46 2.10  40 2.10  47 2.11  41 2.11  64 2.12  77 2.13
   4  0.223  0.167  0.446-  58 2.10  52 2.10  59 2.11  53 2.11  35 2.11  76 2.13
   5  0.667  0.501  0.334-  61 2.10  67 2.10  48 2.11  42 2.11  43 2.12  66 2.13
   6  1.000  0.002  0.999-  71 1.86  83 1.86  86 1.86  38 1.88  50 1.88  35 1.90   9 2.79  12 2.79
                            24 2.79  30 2.79  18 2.80  15 2.80
   7  0.111  0.333  0.222-  52 1.86  58 1.86  37 1.86  49 1.86  34 1.88  55 1.88  10 2.78  13 2.78
                            31 2.80  25 2.80  19 2.80  16 2.80
   8  0.223  0.666  0.111-  39 1.87  72 1.87  57 1.87  33 1.87  36 1.88  42 1.88  11 2.78  26 2.79
                            20 2.79  17 2.80  32 2.80  14 2.81
   9  0.333  0.996  1.000-  74 1.86  77 1.87  44 1.87  71 1.87  41 1.88  38 1.88   6 2.79  18 2.79
                            24 2.79  27 2.79  12 2.80  21 2.80
  10  0.443  0.333  0.222-  40 1.87  61 1.87  64 1.88  43 1.88  58 1.89  37 1.89   7 2.78  25 2.79
                            19 2.79  28 2.80  22 2.80  13 2.81
  11  0.555  0.670  0.110-  45 1.86  39 1.86  78 1.87  48 1.87  42 1.87  63 1.87  14 2.78   8 2.78
                            29 2.79  26 2.79  20 2.80  23 2.80
  12  0.667  0.996  1.000-  80 1.86  77 1.87  44 1.87  83 1.87  47 1.88  50 1.88   6 2.79  15 2.79
                            30 2.79  27 2.79   9 2.80  21 2.80
  13  0.779  0.333  0.222-  46 1.87  67 1.87  64 1.88  43 1.88  52 1.89  49 1.89   7 2.78  31 2.79
                            16 2.79  28 2.80  22 2.80  10 2.81
  14  0.888  0.666  0.111-  45 1.87  84 1.87  51 1.87  33 1.87  36 1.88  48 1.88  11 2.78  29 2.79
                            23 2.79  17 2.80  32 2.80   8 2.81
  15  0.999  0.000  0.333-  68 1.87  53 1.87  50 1.87  56 1.87  35 1.88  47 1.88  21 2.78  24 2.79
                            12 2.79   6 2.80  27 2.80  18 2.81
  16  0.110  0.336  0.556-  73 1.86  76 1.87  70 1.87  55 1.87  52 1.87  67 1.88  25 2.78  22 2.79
                            13 2.79  28 2.79   7 2.80  19 2.81
  17  0.223  0.664  0.445-  54 1.86  60 1.86  75 1.86  51 1.88  57 1.88  36 1.90  23 2.79  20 2.79
                            26 2.79  29 2.79  14 2.80   8 2.80
  18  0.334  0.000  0.333-  62 1.87  59 1.87  38 1.87  56 1.87  35 1.88  41 1.88  21 2.78  30 2.79
                             9 2.79   6 2.80  27 2.80  15 2.81
  19  0.445  0.336  0.556-  79 1.86  76 1.87  82 1.87  55 1.87  58 1.87  61 1.88  31 2.78  22 2.79
                            10 2.79  28 2.79   7 2.80  16 2.81
  20  0.555  0.671  0.445-  81 1.86  66 1.87  63 1.87  60 1.87  42 1.88  57 1.88  17 2.79   8 2.79
                            29 2.79  32 2.79  23 2.80  11 2.80
  21  0.667  0.997  0.334-  62 1.86  68 1.86  65 1.87  47 1.87  41 1.87  44 1.87  15 2.78  18 2.78
                            24 2.79  30 2.79  12 2.80   9 2.80
  22  0.778  0.331  0.556-  82 1.87  70 1.87  61 1.88  67 1.88  85 1.90  64 1.90  16 2.79  19 2.79
                            31 2.79  25 2.79  13 2.80  10 2.80
  23  0.890  0.671  0.445-  69 1.86  66 1.87  63 1.87  54 1.87  48 1.88  51 1.88  17 2.79  14 2.79
                            26 2.79  32 2.79  20 2.80  11 2.80
  24  0.000  0.000  0.667-  86 1.86  71 1.87  65 1.87  68 1.87  74 1.87  53 1.89  15 2.79   9 2.79
                            27 2.79  21 2.79   6 2.79  30 2.80
  25  0.112  0.330  0.889-  70 1.86  85 1.87  73 1.87  34 1.87  37 1.87  40 1.88  16 2.78  28 2.79
                            10 2.79  22 2.79   7 2.80  31 2.81
  26  0.222  0.667  0.778-  75 1.86  54 1.87  78 1.87  39 1.87  69 1.87  72 1.89   8 2.79  23 2.79
                            32 2.79  11 2.79  17 2.79  29 2.80
  27  0.334  0.997  0.667-  74 1.86  80 1.86  59 1.88  53 1.88  77 1.90  56 1.90  24 2.79  30 2.79
                             9 2.79  12 2.79  15 2.80  18 2.80
  28  0.444  0.335  0.888-  79 1.87  73 1.87  40 1.88  46 1.88  76 1.90  43 1.90  25 2.79  31 2.79
                            19 2.79  16 2.79  10 2.80  13 2.80
  29  0.556  0.667  0.778-  75 1.86  60 1.87  78 1.87  45 1.87  81 1.87  84 1.89  14 2.79  20 2.79
                            32 2.79  11 2.79  17 2.79  26 2.80
  30  0.666  0.000  0.667-  86 1.86  83 1.87  65 1.87  62 1.87  80 1.87  59 1.89  18 2.79  12 2.79
                            27 2.79  21 2.79   6 2.79  24 2.80
  31  0.777  0.330  0.889-  82 1.86  85 1.87  79 1.87  34 1.87  49 1.87  46 1.88  19 2.78  28 2.79
                            13 2.79  22 2.79   7 2.80  25 2.81
  32  0.888  0.670  0.777-  69 1.86  81 1.86  84 1.88  72 1.88  66 1.90  33 1.90  29 2.79  26 2.79
                            20 2.79  23 2.79  14 2.80   8 2.80
  33  0.003  0.735  0.005-  14 1.87   8 1.87  32 1.90   2 2.10
  34  0.001  0.264  0.002-  31 1.87  25 1.87   7 1.88
  35  0.113  0.069  0.226-  15 1.88  18 1.88   6 1.90   4 2.11
  36  0.109  0.597  0.218-   8 1.88  14 1.88  17 1.90   1 2.11
  37  0.217  0.401  0.107-   7 1.86  25 1.87  10 1.89   1 2.10
  38  0.219  0.932  0.113-  18 1.87   6 1.88   9 1.88   2 2.09
  39  0.332  0.734  0.999-  11 1.86   8 1.87  26 1.87
  40  0.338  0.265  0.002-  10 1.87  28 1.88  25 1.88   3 2.10
  41  0.447  0.066  0.219-  21 1.87   9 1.88  18 1.88   3 2.11
  42  0.450  0.601  0.225-  11 1.87  20 1.88   8 1.88   5 2.11
  43  0.558  0.402  0.115-  13 1.88  10 1.88  28 1.90   5 2.12
  44  0.556  0.930  0.112-  12 1.87   9 1.87  21 1.87
  45  0.667  0.734  0.999-  11 1.86  14 1.87  29 1.87
  46  0.664  0.265  0.002-  13 1.87  28 1.88  31 1.88   3 2.10
  47  0.773  0.066  0.219-  21 1.87  12 1.88  15 1.88   3 2.11
  48  0.776  0.601  0.225-  11 1.87  23 1.88  14 1.88   5 2.11
  49  0.890  0.401  0.107-   7 1.86  31 1.87  13 1.89   1 2.10
  50  0.894  0.932  0.113-  15 1.87   6 1.88  12 1.88   2 2.09
  51  0.003  0.735  0.331-  14 1.87  17 1.88  23 1.88   2 2.09
  52  0.005  0.266  0.337-   7 1.86  16 1.87  13 1.89   4 2.10
  53  0.113  0.067  0.554-  15 1.87  27 1.88  24 1.89   4 2.11
  54  0.109  0.600  0.556-  17 1.86  26 1.87  23 1.87
  55  0.221  0.402  0.443-  19 1.87  16 1.87   7 1.88
  56  0.220  0.931  0.439-  18 1.87  15 1.87  27 1.90   2 2.10
  57  0.328  0.735  0.331-   8 1.87  17 1.88  20 1.88   2 2.09
  58  0.332  0.266  0.337-   7 1.86  19 1.87  10 1.89   4 2.10
  59  0.441  0.067  0.554-  18 1.87  27 1.88  30 1.89   4 2.11
  60  0.447  0.600  0.556-  17 1.86  29 1.87  20 1.87
  61  0.559  0.402  0.442-  10 1.87  22 1.88  19 1.88   5 2.10
  62  0.555  0.932  0.446-  21 1.86  18 1.87  30 1.87
  63  0.666  0.737  0.332-  20 1.87  23 1.87  11 1.87
  64  0.664  0.264  0.329-  13 1.88  10 1.88  22 1.90   3 2.12
  65  0.777  0.066  0.553-  21 1.87  24 1.87  30 1.87
  66  0.776  0.602  0.551-  20 1.87  23 1.87  32 1.90   5 2.13
  67  0.884  0.402  0.442-  13 1.87  22 1.88  16 1.88   5 2.10
  68  0.890  0.932  0.446-  21 1.86  15 1.87  24 1.87
  69  0.001  0.736  0.667-  23 1.86  32 1.86  26 1.87
  70  0.002  0.266  0.666-  25 1.86  22 1.87  16 1.87
  71  0.113  0.066  0.889-   6 1.86  24 1.87   9 1.87
  72  0.109  0.599  0.890-   8 1.87  32 1.88  26 1.89   1 2.11
  73  0.221  0.401  0.778-  16 1.86  28 1.87  25 1.87
  74  0.221  0.931  0.778-   9 1.86  27 1.86  24 1.87
  75  0.333  0.732  0.665-  26 1.86  29 1.86  17 1.86
  76  0.331  0.268  0.663-  19 1.87  16 1.87  28 1.90   4 2.13
  77  0.447  0.064  0.893-   9 1.87  12 1.87  27 1.90   3 2.13
  78  0.446  0.601  0.891-  11 1.87  26 1.87  29 1.87
  79  0.558  0.401  0.778-  19 1.86  28 1.87  31 1.87
  80  0.557  0.931  0.778-  12 1.86  27 1.86  30 1.87
  81  0.666  0.736  0.667-  20 1.86  32 1.86  29 1.87
  82  0.664  0.266  0.666-  31 1.86  22 1.87  19 1.87
  83  0.775  0.066  0.889-   6 1.86  30 1.87  12 1.87
  84  0.781  0.599  0.890-  14 1.87  32 1.88  29 1.89   1 2.11
  85  0.891  0.399  0.782-  31 1.87  25 1.87  22 1.90   1 2.13
  86  0.890  0.935  0.779-  30 1.86  24 1.86   6 1.86

  LATTYP: Found a base centered monoclinic cell.
 ALAT       =    14.5186332613
 B/A-ratio  =     0.5768537275
 C/A-ratio  =     1.3961000958
 COS(beta)  =    -0.6226832458

  Lattice vectors:

 A1 = (   4.1929595690,   7.2561885928,   0.0136540976)
 A2 = (   8.3805234082,   0.0031152209,   0.0136540976)
 A3 = ( -12.5957691294,  -7.2721707353, -14.1178382136)

Analysis of symmetry for initial positions (statically):
 Subroutine PRICEL returns:
 Original cell was already a primitive cell.

 Routine SETGRP: Setting up the symmetry group for a
 base centered monoclinic supercell.

 Subroutine GETGRP returns: Found  4 space group operations
 (whereof  2 operations were pure point group operations)
[...]
   -.398E+02 0.130E+02 -.347E+03   0.425E+02 -.139E+02 0.370E+03   -.275E+01 0.815E+00 -.228E+02   -.217E-01 0.806E-02 0.199E-01
   -.861E+01 -.641E+01 0.374E+03   0.913E+01 0.562E+01 -.401E+03   -.487E+00 0.808E+00 0.271E+02   -.273E-01 -.185E-01 -.119E-01
   -.107E+02 -.616E+01 -.386E+03   0.105E+02 0.604E+01 0.413E+03   0.196E+00 0.113E+00 -.267E+02   0.171E-01 0.987E-02 0.526E-02
   -.385E+02 -.222E+02 0.356E+03   0.412E+02 0.238E+02 -.378E+03   -.273E+01 -.157E+01 0.225E+02   -.148E-01 -.855E-02 0.206E-01
   -.661E+01 -.352E+02 -.346E+03   0.699E+01 0.373E+02 0.369E+03   -.375E+00 -.213E+01 -.229E+02   -.164E-02 -.550E-02 -.319E-01
   0.204E+02 -.232E+02 0.349E+03   -.226E+02 0.253E+02 -.371E+03   0.221E+01 -.215E+01 0.225E+02   0.440E-02 0.184E-01 -.756E-02
   -.860E+01 -.409E+02 -.347E+03   0.927E+01 0.438E+02 0.370E+03   -.667E+00 -.279E+01 -.228E+02   -.387E-02 -.228E-01 0.199E-01
   -.985E+01 -.425E+01 0.374E+03   0.943E+01 0.510E+01 -.401E+03   0.456E+00 -.826E+00 0.271E+02   -.297E-01 -.144E-01 -.119E-01
[...]
   0.315E+01 -.242E+01 -.380E+03   -.232E+01 0.226E+01 0.407E+03   -.823E+00 0.149E+00 -.271E+02   -.217E-03 0.340E-02 -.125E-01
   0.205E+01 0.614E+01 0.378E+03   -.232E+01 -.684E+01 -.405E+03   0.264E+00 0.675E+00 0.274E+02   0.845E-02 0.231E-01 0.260E-01
   -.782E+01 -.451E+01 -.369E+03   0.762E+01 0.440E+01 0.396E+03   0.221E+00 0.128E+00 -.276E+02   -.277E-01 -.160E-01 -.123E-01
   -.297E+02 -.171E+02 0.346E+03   0.323E+02 0.187E+02 -.368E+03   -.268E+01 -.155E+01 0.225E+02   0.527E-02 0.304E-02 0.108E-01
   0.290E+02 0.167E+02 -.344E+03   -.317E+02 -.183E+02 0.367E+03   0.270E+01 0.156E+01 -.226E+02   0.138E-01 0.797E-02 0.559E-02
   0.947E+01 0.547E+01 0.372E+03   -.926E+01 -.535E+01 -.399E+03   -.230E+00 -.133E+00 0.270E+02   0.224E-01 0.129E-01 -.297E-01
   -.520E+00 0.393E+01 -.380E+03   0.798E+00 -.314E+01 0.407E+03   -.283E+00 -.787E+00 -.271E+02   0.284E-02 -.189E-02 -.125E-01
   0.634E+01 -.130E+01 0.378E+03   -.708E+01 0.141E+01 -.405E+03   0.716E+00 -.109E+00 0.274E+02   0.242E-01 -.423E-02 0.260E-01
   -.634E+01 0.130E+01 -.378E+03   0.708E+01 -.141E+01 0.405E+03   -.716E+00 0.109E+00 -.274E+02   -.242E-01 0.423E-02 -.259E-01
   0.520E+00 -.393E+01 0.380E+03   -.798E+00 0.314E+01 -.407E+03   0.283E+00 0.787E+00 0.271E+02   -.284E-02 0.189E-02 0.125E-01
   0.985E+01 0.425E+01 -.374E+03   -.943E+01 -.510E+01 0.401E+03   -.456E+00 0.826E+00 -.271E+02   0.297E-01 0.144E-01 0.119E-01
   0.860E+01 0.409E+02 0.347E+03   -.927E+01 -.438E+02 -.370E+03   0.667E+00 0.279E+01 0.228E+02   0.387E-02 0.228E-01 -.199E-01
   0.297E+02 0.171E+02 -.346E+03   -.323E+02 -.187E+02 0.368E+03   0.268E+01 0.155E+01 -.225E+02   -.527E-02 -.304E-02 -.108E-01
   0.782E+01 0.451E+01 0.369E+03   -.762E+01 -.440E+01 -.396E+03   -.221E+00 -.128E+00 0.276E+02   0.277E-01 0.160E-01 0.123E-01
   0.427E-03 -.133E-02 0.116E-02   -.224E-12 -.271E-12 -.512E-12   0.275E-14 -.916E-15 0.249E-13   -.852E-07 -.861E-07 -.166E-06

 POSITION                                       TOTAL-FORCE (eV/Angst)
      4.19437      7.25700      7.05528        -0.002752     -0.001589      0.011878
      1.41563      0.81731     11.74514         0.000000     -0.000000      0.000000
     -1.39672      4.02898      2.33362        -0.000301     -0.000174      0.004201
      2.80756      1.62094      2.35813         0.002752      0.001589     -0.011878
      0.01812      4.84585      7.06613         0.000301      0.000174     -0.004201
      4.18914      7.25398      0.04521        -0.003132     -0.001808     -0.003682
      1.40448      0.81088      4.69988         0.000000     -0.000000      0.000000
      0.01124      1.62975      9.39282        -0.000093     -0.000065      0.006041
      7.00807      2.42772     14.04963         0.000251      0.000822      0.000274
      0.01435      3.21866      4.69988        -0.000895      0.001550      0.000000
     -1.38566      4.03537      9.43720         0.005537      0.003197     -0.001300
      5.60651      4.85531     14.04963         0.000837     -0.000193      0.000274
     -1.39295      5.65617      4.69988         0.000895     -0.001550      0.000000
     -2.77054      6.44793      9.39282        -0.000102     -0.000048      0.006041
     -1.38984      7.24508      0.00693         0.000093      0.000065     -0.006041
      4.20373      0.80688      4.74514         0.003811     -0.002726      0.000680
      2.81278      1.62396      9.36820         0.003132      0.001808      0.003682
      1.39194      2.42690      0.00693         0.000102      0.000048     -0.006041
      2.80064      3.23709      4.74514        -0.000455      0.004663      0.000680
      1.41770      4.03551      9.45431        -0.000837      0.000193     -0.000274
      0.02935      4.85233     14.05309        -0.005537     -0.003197      0.001300
      1.41060      5.64979      4.67485        -0.007764     -0.004482     -0.014339
      0.01614      6.46309      9.45431        -0.000251     -0.000822     -0.000274
      5.58505      0.00452      0.01029         0.008210      0.003174     -0.005041
      6.98576      0.81799      4.66827        -0.003811      0.002726     -0.000680
      5.60444      1.62035      9.40312        -0.008210     -0.003174      0.005041
      4.21855      2.43558     14.05874        -0.003364     -0.001942     -0.012292
      5.59132      3.22815      4.73856         0.007764      0.004482      0.014339
      4.20549      4.04341      9.40312        -0.006854     -0.005523      0.005041
      2.79644      4.83453      0.01029         0.006854      0.005523     -0.005041
      4.20128      5.64085      4.66827         0.000455     -0.004663     -0.000680
      2.80566      6.45523      9.44520         0.003364      0.001942      0.012292
      0.04830      0.02789     10.36132        -0.003871     -0.002235      0.001428
      0.01806      0.01043      3.72243         0.009839      0.005681     -0.007620
      1.42202      0.82100      0.97911        -0.005310     -0.003066      0.001551
      1.38695      0.80075      8.42064         0.005310      0.003066     -0.001551
     -0.00106      1.57895      5.64929         0.000401      0.003297      0.010469
      0.05276      1.60104     13.12792         0.002386      0.000346     -0.011151
      6.99625      2.41964     10.36215         0.000716     -0.002290      0.015640
     -1.39361      2.45804      3.73397         0.002818     -0.002007     -0.007650
     -0.03170      3.24147      0.93520         0.000355     -0.001348      0.002698
      0.01762      3.26994      8.46456         0.000990     -0.000981     -0.002698
     -1.35885      4.05085      5.66854        -0.005672     -0.003275     -0.000381
     -1.36699      4.04615     13.09876         0.005322      0.003073     -0.013070
      5.59360      4.84911     10.36215        -0.001625      0.001765      0.015640
     -2.75564      4.81715      3.73397        -0.000330      0.003444     -0.007650
     -1.39622      5.60489      0.93520        -0.000990      0.000981      0.002698
     -1.34690      5.63336      8.46456        -0.000355      0.001348     -0.002698
     -2.82068      6.46268      5.64929         0.003056     -0.001301      0.010469
     -2.77464      6.49824     13.12792         0.001493      0.001894     -0.011151
      2.77849      0.03358     10.36237        -0.002386     -0.000346      0.011151
      2.81002      0.04280      3.75046        -0.000401     -0.003297     -0.010469
      4.17093      0.82576      0.95615        -0.001725     -0.002676      0.000817
      4.21562      0.80061      8.46448         0.002844     -0.001490     -0.001349
      2.79091      1.61133      5.67732        -0.009839     -0.005681      0.007620
      2.78295      1.60674     13.12897         0.003871      0.002235     -0.001428
      1.41833      2.38945     10.36237        -0.001493     -0.001894      0.011151
      1.44208      2.41215      3.75046        -0.003056      0.001301     -0.010469
      2.80059      3.19925      0.95615        -0.003180     -0.000156      0.000817
      2.80116      3.25053      8.46448         0.000131      0.003208     -0.001349
[...]
      7.01856      0.79911      8.45725         0.001725      0.002676     -0.000817
      5.60881      1.60694      5.66096         0.000455     -0.002836      0.002906
      5.61211      1.61616     13.13059         0.002756     -0.000774     -0.009872
      4.19950      2.42458     10.32364        -0.003720     -0.002148      0.012355
      4.17147      2.40840      3.78555        -0.003130     -0.001807     -0.011182
      5.61644      3.24265      0.91926         0.003019      0.001743      0.001205
      5.61515      3.24191      8.47424         0.007509      0.004335     -0.005064
      4.19606      4.05390      5.66096        -0.002228      0.001812      0.002906
      4.20569      4.05215     13.13059         0.000708      0.002774     -0.009872
      2.81852      4.83866     10.37335        -0.000708     -0.002774      0.009872
      2.80587      4.82405      3.75245         0.002228     -0.001812     -0.002906
      4.20077      5.62742      0.94893        -0.000131     -0.003208      0.001349
      4.20133      5.67869      8.45725         0.003180      0.000156     -0.000817
      2.83046      6.46955      5.62786         0.003130      0.001807      0.011182
      2.82471      6.46623     13.18030         0.003720      0.002148     -0.012355
    total drift:                                0.000427     -0.001329      0.001159

  FREE ENERGIE OF THE ION-ELECTRON SYSTEM (eV)
  free  energy   TOTEN  =      -534.4945374529 eV

  energy  without entropy=     -534.4417884149  energy(sigma->0) =     -534.46816293

 Quasi-Newton relaxation of ions (Broydens 2nd method)
  g(Force)  = 0.328E-03   g(Stress)= 0.345E-03

 Reset! Starting new Quasi-Newton update for ions

 reached required accuracy - stopping structural energy minimisation

volume of typ            1:     4.5 %

[...]

volume of typ            3:    10.3 %

total charge

# of ion       s       p       d       tot
    1        2.069   0.226   0.089   2.383
    2        2.073   0.238   0.094   2.405
    3        2.069   0.225   0.088   2.382
    4        2.069   0.226   0.089   2.383
    5        2.069   0.225   0.088   2.382
    6        0.297   0.413   7.825   8.535
    7        0.302   0.426   7.832   8.560
    8        0.298   0.416   7.831   8.545
    9        0.298   0.415   7.825   8.538
   10        0.292   0.404   7.835   8.531
   11        0.302   0.423   7.824   8.549
   12        0.298   0.415   7.825   8.538
   13        0.292   0.404   7.835   8.531
   14        0.298   0.416   7.831   8.545
   15        0.298   0.416   7.831   8.545
   16        0.297   0.415   7.826   8.538
   17        0.297   0.413   7.825   8.535
   18        0.298   0.416   7.831   8.545
   19        0.297   0.415   7.826   8.538
   20        0.298   0.415   7.825   8.538
   21        0.302   0.423   7.824   8.549
   22        0.291   0.403   7.828   8.522
   23        0.298   0.415   7.825   8.538
   24        0.297   0.414   7.820   8.532
   25        0.297   0.415   7.826   8.538
   26        0.297   0.414   7.820   8.532
   27        0.291   0.403   7.828   8.522
   28        0.291   0.403   7.828   8.522
   29        0.297   0.414   7.820   8.532
   30        0.297   0.414   7.820   8.532
   31        0.297   0.415   7.826   8.538
   32        0.291   0.403   7.828   8.522
   33        1.278   2.745   0.007   4.030
   34        1.286   2.720   0.008   4.014
   35        1.275   2.750   0.007   4.032
   36        1.275   2.750   0.007   4.032
   37        1.275   2.755   0.007   4.037
   38        1.275   2.755   0.007   4.037
   39        1.286   2.723   0.008   4.017
   40        1.274   2.755   0.007   4.037
   41        1.275   2.755   0.007   4.037
   42        1.275   2.755   0.007   4.037
   43        1.278   2.744   0.007   4.029
   44        1.287   2.718   0.008   4.013
   45        1.286   2.723   0.008   4.017
   46        1.274   2.755   0.007   4.037
   47        1.275   2.755   0.007   4.037
   48        1.275   2.755   0.007   4.037
   49        1.275   2.755   0.007   4.037
   50        1.275   2.755   0.007   4.037
   51        1.275   2.755   0.007   4.037
   52        1.275   2.755   0.007   4.037
   53        1.275   2.753   0.007   4.035
   54        1.286   2.722   0.008   4.016
   55        1.286   2.720   0.008   4.014
   56        1.278   2.745   0.007   4.030
   57        1.275   2.755   0.007   4.037
   58        1.275   2.755   0.007   4.037
   59        1.275   2.753   0.007   4.035
   60        1.286   2.722   0.008   4.016
[...]
   72        1.275   2.753   0.007   4.035
   73        1.286   2.723   0.008   4.017
   74        1.286   2.722   0.008   4.016
   75        1.288   2.716   0.008   4.012
   76        1.277   2.748   0.007   4.032
   77        1.277   2.748   0.007   4.032
   78        1.286   2.722   0.008   4.016
   79        1.286   2.723   0.008   4.017
   80        1.286   2.722   0.008   4.016
   81        1.286   2.722   0.008   4.016
   82        1.286   2.723   0.008   4.017
   83        1.286   2.722   0.008   4.016
   84        1.275   2.753   0.007   4.035
   85        1.277   2.748   0.007   4.032
   86        1.288   2.716   0.008   4.012
tot          87.49  160.17  212.18  459.84

magnetization (x)

# of ion       s       p       d       tot
    1        0.005   0.004  -0.000   0.009
    2        0.005   0.005  -0.000   0.010
    3        0.005   0.005  -0.000   0.010
    4        0.005   0.004  -0.000   0.009
    5        0.005   0.005  -0.000   0.010
    6       -0.000  -0.000   0.114   0.114
    7       -0.000  -0.000   0.102   0.101
    8       -0.000  -0.000   0.133   0.133
    9       -0.000  -0.000   0.112   0.112
   10       -0.000  -0.000   0.223   0.222
   11       -0.000  -0.000   0.076   0.076
   12       -0.000  -0.000   0.112   0.112
   13       -0.000  -0.000   0.223   0.222
   14       -0.000  -0.000   0.133   0.133
   15       -0.000  -0.000   0.133   0.133
   16       -0.000  -0.000   0.115   0.115
   17       -0.000  -0.000   0.114   0.114
   18       -0.000  -0.000   0.133   0.133
   19       -0.000  -0.000   0.115   0.115
   20       -0.000  -0.000   0.112   0.112
   21       -0.000  -0.000   0.076   0.076
   22       -0.000  -0.000   0.200   0.200
   23       -0.000  -0.000   0.112   0.112
   24       -0.000  -0.000   0.084   0.084
   25       -0.000  -0.000   0.115   0.115
   26       -0.000  -0.000   0.084   0.084
   27       -0.000  -0.000   0.202   0.202
   28       -0.000  -0.000   0.200   0.200
   29       -0.000  -0.000   0.084   0.084
   30       -0.000  -0.000   0.084   0.084
   31       -0.000  -0.000   0.115   0.115
   32       -0.000  -0.000   0.202   0.202
   33        0.005   0.028   0.000   0.034
   34        0.002   0.010   0.000   0.012
   35        0.003   0.008   0.000   0.011
   36        0.003   0.008   0.000   0.011
   37        0.004   0.012   0.000   0.016
   38        0.003   0.009   0.000   0.013
   39        0.002   0.009   0.000   0.011
   40        0.004   0.011   0.000   0.015
   41        0.003   0.006   0.000   0.009
   42        0.003   0.006   0.000   0.009
   43        0.007   0.043   0.000   0.050
   44        0.002   0.007   0.000   0.009
   45        0.002   0.009   0.000   0.011
   46        0.004   0.011   0.000   0.015
   47        0.003   0.006   0.000   0.009
   48        0.003   0.006   0.000   0.009
   49        0.004   0.012   0.000   0.016
   50        0.003   0.009   0.000   0.013
   51        0.003   0.009   0.000   0.013
   52        0.004   0.012   0.000   0.016
   53        0.003   0.010   0.000   0.013
   54        0.002   0.009   0.000   0.011
   55        0.002   0.010   0.000   0.012
   56        0.005   0.028   0.000   0.034
   57        0.003   0.009   0.000   0.013
   58        0.004   0.012   0.000   0.016
   59        0.003   0.010   0.000   0.013
   60        0.002   0.009   0.000   0.011
[...]
   72        0.003   0.010   0.000   0.013
   73        0.002   0.012   0.000   0.014
   74        0.002   0.014   0.000   0.016
   75        0.002   0.017   0.000   0.019
   76        0.005   0.027   0.000   0.032
   77        0.005   0.026   0.000   0.032
   78        0.002   0.006   0.000   0.008
   79        0.002   0.012   0.000   0.014
   80        0.002   0.014   0.000   0.016
   81        0.002   0.014   0.000   0.016
   82        0.002   0.012   0.000   0.014
   83        0.002   0.009   0.000   0.011
   84        0.003   0.010   0.000   0.013
   85        0.005   0.027   0.000   0.032
   86        0.002   0.017   0.000   0.019
tot           0.18    0.74    3.52    4.44