 vasp.5.4.4.18Apr17-6-g9f103f2a35 (build May 12 2020 05:39:39) gamma-only

 MD_VERSION_INFO: Compiled 2020-05-12T12:39:39-UTC in devlin.sd.materialsdesign.
 com:/home/medea2/data/build/wwolf/vasp-gpu5.4.4/13047/x86_64/src/src/build/gam
 from svn 13047

 executed on                        Lin64 date 2023.01.19  17:59:42

 INCAR:
 POTCAR:    PAW_PBE Li_sv 10Sep2004
 POTCAR:    PAW_PBE Ni 02Aug2007
 POTCAR:    PAW_PBE O 08Apr2002

 POTCAR:    PAW_PBE Li_sv 10Sep2004

 POTCAR:    PAW_PBE Ni 02Aug2007

 POTCAR:    PAW_PBE O 08Apr2002

 Optimization of the real space projectors (new method)

 maximal supplied QI-value         = 22.11
 optimisation between [QCUT,QGAM] = [ 11.28, 22.77] = [ 35.61,145.23] Ry
 Optimized for a Real-space Cutoff    1.10 Angstroem

   l    n(q)    QCUT    max X(q) W(low)/X(q) W(high)/X(q)  e(spline)
   0      7    11.276    10.506    0.54E-04    0.58E-04    0.16E-07
   0      7    11.276     8.367    0.11E-03    0.14E-03    0.35E-07
   1      7    11.276     8.983    0.23E-03    0.43E-03    0.86E-07
 Optimization of the real space projectors (new method)

[...]

   l    n(q)    QCUT    max X(q) W(low)/X(q) W(high)/X(q)  e(spline)
   2      9    11.376    60.317    0.17E-03    0.16E-04    0.16E-06
   2      9    11.376    55.921    0.17E-03    0.16E-04    0.17E-06
   0     10    11.376    51.690    0.45E-04    0.60E-04    0.21E-06
   0     10    11.376    30.015    0.37E-04    0.55E-04    0.19E-06
   1     10    11.376    18.849    0.83E-04    0.11E-03    0.92E-07
   1     10    11.376    14.624    0.69E-04    0.92E-04    0.82E-07
 Optimization of the real space projectors (new method)

 maximal supplied QI-value         = 24.76
 optimisation between [QCUT,QGAM] = [ 11.39, 22.77] = [ 36.31,145.25] Ry
 Optimized for a Real-space Cutoff    1.10 Angstroem

   l    n(q)    QCUT    max X(q) W(low)/X(q) W(high)/X(q)  e(spline)
   0      7    11.387    20.381    0.22E-03    0.48E-03    0.18E-06
   0      7    11.387    15.268    0.22E-03    0.52E-03    0.19E-06
   1      7    11.387     5.964    0.22E-03    0.73E-03    0.24E-06
   1      7    11.387     5.382    0.19E-03    0.60E-03    0.21E-06

  PAW_PBE Li_sv 10Sep2004               :
  PAW_PBE Ni 02Aug2007                  :
  PAW_PBE O 08Apr2002                   :

 POSCAR: ce373082_1
  positions in direct lattice
 exchange correlation table for  LEXCH =       14
   RHO(1)=    0.500       N(1)  =     2000
   RHO(2)=  100.500       N(2)  =     4000

 ion  position               nearest neighbor table
   1  0.978  0.500  0.998-  90 2.01  55 2.01  91 2.14  42 2.16  43 2.23  78 2.23  37 2.81  20 2.81

   2  0.111  0.833  0.223-  57 2.11  56 2.12  62 2.12  39 2.12  63 2.13  44 2.13
   3  0.223  0.167  0.111-  46 2.10  41 2.10  47 2.11  40 2.11  64 2.12  77 2.12
   4  0.333  0.500  0.000-  43 2.10  84 2.10  78 2.11  49 2.11  79 2.12  48 2.12
   5  0.577  0.167  0.113-  53 2.01  52 2.01  70 2.14  83 2.16  46 2.23  47 2.23  19 2.81  18 2.81

[...]

  10  0.445  0.833  0.888-  86 2.11  51 2.12  81 2.12  50 2.12  80 2.13  45 2.13
  11  0.869  0.167  0.759-  88 2.01  71 2.02  89 2.14  76 2.14  40 2.20  77 2.23  28 2.79  36 2.81

  12  1.000  0.999  0.000-  56 1.86  89 1.87  77 1.88  44 1.88  92 1.91  41 1.92  18 2.79  15 2.80
                            21 2.81  30 2.81  36 2.82  24 2.82
  13  0.110  0.335  0.221-  55 1.86  58 1.87  64 1.87  43 1.91  61 1.93  40 1.95  16 2.79  19 2.80
                            37 2.81  25 2.82  31 2.82  22 2.83
  14  0.224  0.668  0.112-  63 1.86  39 1.88  78 1.88  42 1.88  45 1.90  48 1.91  26 2.78  17 2.80
                            32 2.80  23 2.81  38 2.82  20 2.83
  15  0.331  0.999  0.999-  80 1.86  50 1.88  47 1.88  83 1.88  44 1.90  77 1.91  30 2.78  12 2.80
                            24 2.80  33 2.81  27 2.82  18 2.83
  16  0.444  0.334  0.225-  67 1.87  49 1.87  46 1.88  70 1.88  64 1.90  43 1.92  25 2.78  13 2.79
                            28 2.80  31 2.82  34 2.82  19 2.83
  17  0.556  0.668  0.111-  51 1.86  54 1.87  48 1.88  45 1.88  69 1.91  84 1.92  20 2.79  14 2.80
                            35 2.81  26 2.81  29 2.82  32 2.82
  18  0.668  0.999  1.000-  86 1.87  53 1.88  50 1.88  83 1.88  89 1.90  56 1.90  12 2.79  36 2.79
                            21 2.80   5 2.81  33 2.82  27 2.82  15 2.83
  19  0.779  0.335  0.223-  73 1.87  52 1.87  70 1.89  58 1.90  55 1.90  49 1.92  13 2.80  22 2.80
                            34 2.81  37 2.81   5 2.81  28 2.81  16 2.83
  20  0.887  0.668  0.111-  57 1.87  90 1.88  39 1.88  42 1.88  54 1.90  51 1.90  17 2.79  29 2.79
                            35 2.80   1 2.81  23 2.82  38 2.82  14 2.83
  21  0.999  0.000  0.333-  59 1.87  56 1.87  62 1.89  53 1.90  74 1.92  41 1.94  18 2.80  27 2.81
                            30 2.81  12 2.81  33 2.81  24 2.84
  22  0.110  0.335  0.556-  61 1.88  58 1.88  82 1.88  73 1.90  76 1.90  79 1.91  31 2.78  28 2.80
                            19 2.80   6 2.81  34 2.82  25 2.83  13 2.83
  23  0.222  0.668  0.445-  63 1.87  57 1.87  60 1.87  66 1.88  81 1.91  42 1.91  29 2.79  26 2.80
                             9 2.81  14 2.81  35 2.81  32 2.82  20 2.82
  24  0.336  0.999  0.334-  65 1.87  62 1.87  41 1.88  44 1.88  68 1.89  47 1.91  27 2.77  36 2.79
                            15 2.80  33 2.82  12 2.82  21 2.84
  25  0.446  0.332  0.555-  82 1.88  85 1.88  61 1.88  88 1.90  67 1.90  64 1.91  16 2.78  28 2.80
                            37 2.80   9 2.81  13 2.82  22 2.83  34 2.83
  26  0.554  0.666  0.443-  87 1.87  72 1.88  69 1.88  66 1.90  63 1.90  48 1.91  14 2.78  23 2.80
                            35 2.81  17 2.81  38 2.83  29 2.83
  27  0.666  0.000  0.333-  53 1.86  68 1.87  74 1.87  47 1.91  71 1.93  50 1.93  24 2.77  21 2.81
                            36 2.82  15 2.82  18 2.82  30 2.83
  28  0.778  0.333  0.556-  76 1.87  67 1.87  88 1.88  73 1.88  70 1.90  91 1.90  11 2.79   7 2.79
                            22 2.80  25 2.80  31 2.80  16 2.80  37 2.81  19 2.81
  29  0.890  0.667  0.444-  75 1.87  54 1.87  72 1.88  69 1.88  57 1.90  60 1.90  32 2.79  23 2.79
                            20 2.79   7 2.81  38 2.82  17 2.82  26 2.83
  30  0.002  0.000  0.668-  74 1.87  71 1.88  92 1.88  59 1.90  80 1.90  77 1.91  15 2.78  33 2.80
                            21 2.81  12 2.81  27 2.83  36 2.83
  31  0.112  0.333  0.886-  76 1.87  40 1.87  43 1.88  91 1.88  79 1.90  46 1.92  22 2.78  34 2.79
                            28 2.80  16 2.82  13 2.82  37 2.83
  32  0.219  0.667  0.777-  60 1.87  81 1.87  84 1.88  45 1.88  75 1.89  78 1.91  38 2.77  29 2.79
                            14 2.80  23 2.82  17 2.82  35 2.84
  33  0.333  0.999  0.666-  80 1.87  86 1.87  65 1.87  59 1.88  62 1.91  83 1.91  36 2.79  30 2.80
                             6 2.81  15 2.81  21 2.81  24 2.82  18 2.82
  34  0.445  0.332  0.891-  52 1.86  85 1.87  79 1.87  46 1.91  82 1.93  49 1.95  31 2.79  37 2.80
                            19 2.81  22 2.82  16 2.82  25 2.83
  35  0.557  0.666  0.778-  66 1.87  51 1.87  81 1.89  90 1.90  87 1.92  84 1.94  20 2.80  38 2.81
                            26 2.81  17 2.81  23 2.81  32 2.84
  36  0.665  0.999  0.667-  68 1.87  89 1.87  71 1.88  92 1.88  86 1.90  65 1.90  24 2.79  33 2.79
                            18 2.79  11 2.81  27 2.82  12 2.82  30 2.83
  37  0.777  0.332  0.888-  88 1.87  55 1.87  91 1.89  85 1.90  52 1.90  40 1.92  34 2.80  25 2.80
                            13 2.81  19 2.81   1 2.81  28 2.81  31 2.83
  38  0.890  0.666  0.778-  90 1.86  75 1.87  87 1.87  78 1.91  72 1.93  39 1.93  32 2.77  35 2.81
                            29 2.82  14 2.82  20 2.82  26 2.83
  39  0.003  0.735  0.005-  14 1.88  20 1.88  38 1.93   2 2.12
  40  0.002  0.263  0.995-  31 1.87  37 1.92  13 1.95   3 2.11  11 2.20
  41  0.119  0.070  0.224-  24 1.88  12 1.92  21 1.94   3 2.10   6 2.24
  42  0.109  0.600  0.219-  14 1.88  20 1.88  23 1.91   1 2.16
  43  0.219  0.403  0.104-  31 1.88  13 1.91  16 1.92   4 2.10   1 2.23
  44  0.221  0.932  0.114-  24 1.88  12 1.88  15 1.90   2 2.13
  45  0.334  0.735  0.997-  32 1.88  17 1.88  14 1.90  10 2.13
  46  0.337  0.263  0.008-  16 1.88  34 1.91  31 1.92   3 2.10   5 2.23
  47  0.441  0.069  0.215-  15 1.88  24 1.91  27 1.91   3 2.11   5 2.23
  48  0.447  0.597  0.220-  17 1.88  26 1.91  14 1.91   4 2.12   7 2.23
  49  0.553  0.404  0.116-  16 1.87  19 1.92  34 1.95   4 2.11   7 2.20
  50  0.553  0.932  0.106-  15 1.88  18 1.88  27 1.93  10 2.12
  51  0.661  0.734  0.996-  17 1.86  35 1.87  20 1.90  10 2.12
  52  0.666  0.266  0.005-  34 1.86  19 1.87  37 1.90   5 2.01
  53  0.772  0.067  0.220-  27 1.86  18 1.88  21 1.90   5 2.01
  54  0.776  0.600  0.224-  17 1.87  29 1.87  20 1.90   7 2.14
  55  0.890  0.401  0.106-  13 1.86  37 1.87  19 1.90   1 2.01
  56  0.894  0.932  0.115-  12 1.86  21 1.87  18 1.90   2 2.12
  57  0.002  0.735  0.331-  23 1.87  20 1.87  29 1.90   2 2.11
  58  0.004  0.267  0.335-  13 1.87  22 1.88  19 1.90   6 2.14
  59  0.112  0.067  0.553-  21 1.87  33 1.88  30 1.90   6 2.03
  60  0.115  0.600  0.558-  32 1.87  23 1.87  29 1.90   9 2.14
  61  0.226  0.401  0.450-  22 1.88  25 1.88  13 1.93   9 2.01
  62  0.221  0.932  0.440-  24 1.87  21 1.89  33 1.91   2 2.12
  63  0.330  0.735  0.332-  14 1.86  23 1.87  26 1.90   2 2.13
  64  0.327  0.264  0.330-  13 1.87  16 1.90  25 1.91   3 2.12   6 2.23
  65  0.440  0.067  0.553-  24 1.87  33 1.87  36 1.90   6 2.14
  66  0.443  0.600  0.558-  35 1.87  23 1.88  26 1.90   9 2.03
  67  0.557  0.401  0.443-  16 1.87  28 1.87  25 1.90   7 2.14
  68  0.560  0.932  0.447-  27 1.87  36 1.87  24 1.89   8 2.12
  69  0.668  0.735  0.337-  29 1.88  26 1.88  17 1.91   8 2.13
  70  0.666  0.266  0.331-  16 1.88  19 1.89  28 1.90   5 2.14
  71  0.780  0.068  0.562-  30 1.88  36 1.88  27 1.93  11 2.02
  72  0.775  0.599  0.549-  26 1.88  29 1.88  38 1.93   7 2.02
  73  0.885  0.402  0.443-  19 1.87  28 1.88  22 1.90   7 2.01
  74  0.886  0.933  0.449-  30 1.87  27 1.87  21 1.92   8 2.11
  75  0.995  0.734  0.664-  38 1.87  29 1.87  32 1.89   8 2.12
  76  0.999  0.266  0.668-  31 1.87  28 1.87  22 1.90  11 2.14
  77  0.108  0.069  0.891-  12 1.88  30 1.91  15 1.91   3 2.12  11 2.23
  78  0.115  0.597  0.896-  14 1.88  32 1.91  38 1.91   4 2.11   1 2.23
  79  0.229  0.403  0.781-  34 1.87  31 1.90  22 1.91   4 2.12   9 2.23
  80  0.225  0.932  0.779-  15 1.86  33 1.87  30 1.90  10 2.13
  81  0.334  0.734  0.671-  32 1.87  35 1.89  23 1.91  10 2.12
  82  0.330  0.265  0.661-  25 1.88  22 1.88  34 1.93   6 2.01
  83  0.446  0.067  0.892-  15 1.88  18 1.88  33 1.91   5 2.16
  84  0.437  0.597  0.887-  32 1.88  17 1.92  35 1.94   4 2.10   9 2.24
  85  0.551  0.399  0.776-  34 1.87  25 1.88  37 1.90   9 2.14
  86  0.554  0.932  0.780-  33 1.87  18 1.87  36 1.90  10 2.11
  87  0.669  0.734  0.662-  26 1.87  38 1.87  35 1.92   8 2.11
  88  0.670  0.265  0.668-  37 1.87  28 1.88  25 1.90  11 2.01
  89  0.780  0.067  0.887-  12 1.87  36 1.87  18 1.90  11 2.14
  90  0.783  0.600  0.891-  38 1.86  20 1.88  35 1.90   1 2.01
  91  0.890  0.400  0.780-  31 1.88  37 1.89  28 1.90   1 2.14
  92  0.887  0.932  0.774-  36 1.88  30 1.88  12 1.91   8 2.13

  LATTYP: Found a triclinic cell.
[...]
   0.266E+02 -.223E+02 0.340E+03   -.284E+02 0.233E+02 -.362E+03   0.186E+01 -.102E+01 0.223E+02   0.130E-02 0.240E-01 -.200E-01
   -.276E+02 0.230E+02 -.348E+03   0.298E+02 -.252E+02 0.369E+03   -.218E+01 0.219E+01 -.210E+02   0.653E-03 0.115E-01 -.161E-01
   -.797E+01 0.299E+02 0.359E+03   0.867E+01 -.323E+02 -.381E+03   -.710E+00 0.240E+01 0.225E+02   0.125E-01 -.762E-02 -.102E-01
   -.284E+02 0.145E+02 -.361E+03   0.304E+02 -.159E+02 0.383E+03   -.203E+01 0.133E+01 -.225E+02   0.161E-02 0.340E-01 -.197E-01
   -.271E+01 0.325E+02 0.350E+03   0.239E+01 -.344E+02 -.371E+03   0.330E+00 0.190E+01 0.209E+02   -.124E-01 -.294E-02 0.155E-01
   -.259E+02 0.200E+02 -.336E+03   0.283E+02 -.218E+02 0.357E+03   -.234E+01 0.176E+01 -.210E+02   0.611E-02 0.334E-01 -.476E-03
   0.610E+01 0.327E+02 0.340E+03   -.566E+01 -.351E+02 -.362E+03   -.400E+00 0.236E+01 0.222E+02   -.359E-01 0.810E-02 0.340E-03
[...]
   0.172E+02 0.253E+02 -.331E+03   -.184E+02 -.270E+02 0.350E+03   0.113E+01 0.166E+01 -.190E+02   0.848E-02 0.124E-01 -.207E-01
   0.665E+01 0.355E+02 0.361E+03   -.666E+01 -.384E+02 -.384E+03   0.443E-01 0.295E+01 0.227E+02   -.315E-01 0.157E-01 0.192E-01
   0.371E+02 0.155E+02 -.368E+03   -.405E+02 -.171E+02 0.388E+03   0.349E+01 0.172E+01 -.201E+02   -.337E-01 -.148E-01 -.653E-02
   -.406E+02 -.242E+02 0.358E+03   0.457E+02 0.272E+02 -.377E+03   -.513E+01 -.301E+01 0.189E+02   0.135E-01 0.609E-02 0.107E-02
   0.417E+02 0.153E+02 -.351E+03   -.451E+02 -.175E+02 0.371E+03   0.343E+01 0.222E+01 -.207E+02   -.246E-01 -.130E-01 -.212E-02
   0.745E+01 -.426E+02 0.324E+03   -.691E+01 0.462E+02 -.340E+03   -.535E+00 -.353E+01 0.164E+02   -.267E-01 -.559E-02 -.291E-01
   0.271E+01 -.325E+02 -.350E+03   -.239E+01 0.344E+02 0.371E+03   -.330E+00 -.190E+01 -.209E+02   0.124E-01 0.294E-02 -.155E-01
   0.284E+02 -.145E+02 0.361E+03   -.304E+02 0.159E+02 -.383E+03   0.203E+01 -.133E+01 0.225E+02   -.161E-02 -.340E-01 0.197E-01
   -.259E+02 0.149E+02 -.356E+03   0.279E+02 -.164E+02 0.376E+03   -.198E+01 0.142E+01 -.208E+02   0.347E-02 -.168E-01 -.385E-03
   -.150E+01 0.340E+02 0.349E+03   0.166E+01 -.366E+02 -.370E+03   -.151E+00 0.266E+01 0.210E+02   -.166E-01 0.161E-01 0.186E-01
   -.266E+02 0.223E+02 -.340E+03   0.284E+02 -.233E+02 0.362E+03   -.186E+01 0.102E+01 -.223E+02   -.130E-02 -.240E-01 0.200E-01
   0.235E+01 0.353E+02 0.336E+03   -.214E+01 -.381E+02 -.357E+03   -.210E+00 0.285E+01 0.210E+02   0.487E-02 0.163E-02 -.215E-01
   0.307E+02 0.335E+02 -.364E+03   -.339E+02 -.356E+02 0.384E+03   0.327E+01 0.212E+01 -.199E+02   -.897E-02 -.913E-02 -.253E-01
   -.291E+02 -.180E+02 0.371E+03   0.327E+02 0.204E+02 -.391E+03   -.362E+01 -.245E+01 0.203E+02   -.191E-01 -.988E-02 -.267E-02
   0.173E-02 0.109E-02 -.351E-02   -.412E-12 -.277E-12 0.227E-12   0.133E-14 0.444E-14 -.142E-13   0.119E-06 0.154E-06 0.157E-06

 POSITION                                       TOTAL-FORCE (eV/Angst)
      4.35249      7.13200      7.20559         0.003749     -0.009501     -0.000145
      1.45162      0.83537     11.97420        -0.003102     -0.000065     -0.000684
      0.00934      1.61713      2.39426        -0.001610     -0.002463     -0.000993
     -1.37417      2.43567      7.18252         0.001610      0.002463      0.000993
     -1.46233      4.21282      2.39674        -0.003749      0.009501      0.000145
      3.00408      1.61201      2.39761         0.002005     -0.009787     -0.000506
      0.10686      5.01153      7.18581        -0.010755      0.005520      0.002159
      1.46414      5.68585     11.98074        -0.000000      0.000000      0.000000
      4.07786      2.47733      7.20208        -0.002005      0.009787      0.000506
      5.66843      3.28085     11.98466         0.003102      0.000065      0.000684
      2.78330      6.33328      2.41651         0.010755     -0.005520     -0.002159
     -4.14495      7.28122     14.34302        -0.000494      0.000036     -0.001935
      1.41404      0.81752      4.82294         0.004126      0.001590      0.003162
      0.03710      1.64674      9.59237        -0.003205      0.005083     -0.001546
      7.08295      2.46947     14.36648         0.003205     -0.005083      0.001546
      0.04841      3.23468      4.79721        -0.001328      0.000120      0.001822
     -1.37354      4.05395      9.59556         0.000494     -0.000036      0.001935
      5.67793      4.90983     14.36719        -0.002389     -0.001473     -0.001480
     -1.37282      5.67007      4.82030         0.001076     -0.000145      0.004517
     -2.74966      6.46187      9.59430         0.002389      0.001473      0.001480
     -1.37135      7.25430      0.01864         0.002414      0.005099      0.004732
      4.24989      0.82996      4.82205         0.001957     -0.000010      0.002401
      2.85120      1.64768      9.59596        -0.001086     -0.000360     -0.003959
      1.44909      2.47834     14.35723         0.003679     -0.001013      0.004633
      2.83205      3.25938      4.77765        -0.001957      0.000010     -0.002401
      1.44644      4.04971      9.57248         0.002123     -0.001553     -0.005257
      0.01785      4.83935      0.01613        -0.001469      0.000002      0.002896
      1.44508      5.67241      4.80116        -0.000000      0.000000      0.000000
      0.04310      6.49278      9.59299         0.004642      0.000946     -0.002328
      5.63549      0.03963      0.02721        -0.002123      0.001553      0.005257
      7.03353      0.85465      4.80249         0.001328     -0.000120     -0.001822
      5.67096      1.63788      9.60163        -0.003679      0.001013     -0.004633
      4.26884      2.46854     14.36290         0.001086      0.000360      0.003959
      5.66790      3.27181      4.77675        -0.004126     -0.001590     -0.003162
      4.26152      4.09052      9.58369        -0.002414     -0.005099     -0.004732
      2.88518      4.87891     14.36850        -0.004642     -0.000946      0.002328
      4.26299      5.67475      4.78203        -0.001076      0.000145     -0.004517
      2.87232      6.50547      9.58619         0.001469     -0.000002     -0.002896
      0.10256      0.06114     10.56404         0.004692      0.004886      0.003150
      8.36280      0.04185      3.78229         0.001887     -0.004734     -0.003982
      1.43120      0.87817      1.01631         0.021416      0.003226      0.005913
      1.39809      0.80344      8.61712        -0.003319     -0.002503     -0.002415
     -0.03686      1.59454      5.78951         0.001724     -0.001388     -0.003287
      0.07945      1.63813     13.39418         0.005361     -0.001207      0.004864
      7.04059      2.47808     10.56468        -0.005361      0.001207     -0.004864
     -1.32797      2.45826      3.78727        -0.001724      0.001388      0.003287
     -0.04076      3.20439      0.99266        -0.000389     -0.003209      0.001238
      0.00360      3.26397      8.59674        -0.000316      0.001222      0.002622
     -1.28086      4.04748      5.81741        -0.001887      0.004734      0.003982
     -1.42927      4.01854     13.37190        -0.004692     -0.004886     -0.003150
      5.66193      4.85551     10.55944        -0.004990      0.000989      0.000267
     -2.73083      4.83981      3.82988        -0.002454      0.002643     -0.001585
     -1.39286      5.60575      0.95585        -0.004410      0.001834      0.000056
     -1.33417      5.65707      8.63421         0.000811      0.001923      0.004101
     -2.82577      6.46848      5.74953         0.002454     -0.002643      0.001585
     -2.73366      6.51618     13.40205         0.004990     -0.000989     -0.000267
      2.81708      0.04000     10.55112        -0.000427      0.000741     -0.001864
      2.83634      0.05423      3.87080         0.003142     -0.001877      0.006228
      4.19536      0.83485      0.96970         0.000662      0.002378      0.003090
      4.25842      0.87847      8.63471        -0.001129     -0.002967     -0.002713
[...]
      7.12270      0.88495      8.60703         0.000389      0.003209     -0.001238
      5.65253      1.69447      5.78309         0.000630      0.001357     -0.004304
      5.68053      1.69502     13.41537         0.001760     -0.000607      0.003061
      4.30619      2.49044     10.55514        -0.001099      0.001174     -0.000786
      4.17520      2.39783      3.81670        -0.002830     -0.003072     -0.004321
      5.68385      3.28589      0.98258         0.003319      0.002503      0.002415
      5.65074      3.21116      8.58339        -0.021416     -0.003226     -0.005913
      4.24559      4.03511      5.72889        -0.003142      0.001877     -0.006228
      4.30297      4.07621     13.40774         0.000427     -0.000741      0.001864
      2.81603      4.89575     10.53006         0.008316     -0.006278     -0.008376
      2.85173      4.89520      3.82898        -0.001792     -0.000332     -0.002583
      4.22433      5.68775      0.96812        -0.000811     -0.001923     -0.004101
      4.28303      5.73907      8.64647         0.004410     -0.001834     -0.000056
      2.90253      6.50648      5.76990         0.007171     -0.000175     -0.001994
      2.83146      6.48032     13.40487        -0.016275     -0.007751     -0.002642
    total drift:                                0.001734      0.001088     -0.003511

  FREE ENERGIE OF THE ION-ELECTRON SYSTEM (eV)
  free  energy   TOTEN  =      -566.5058055112 eV

  energy  without entropy=     -566.4636945498  energy(sigma->0) =     -566.48475003

 d Force =-0.1654802E-03[-0.150E-03,-0.181E-03]  d Energy =-0.1772496E-03 0.118E-04
 d Force =-0.2044919E+00[-0.205E+00,-0.204E+00]  d Ewald  = 0.3539360E-01-0.240E+00

 Quasi-Newton relaxation of ions (Broydens 2nd method)
  g(Force)  = 0.227E-03   g(Stress)= 0.146E-03

 retain information from N=  1 steps
 eigenvalues of (default step * inverse Hessian matrix)
  average eigenvalue of G=   0.0143
 eigenvalue spectrum of G is  0.0143

volume of typ            1:     9.7 %

[...]

volume of typ            3:    10.0 %

total charge

# of ion       s       p       d       tot
    1        2.071   0.232   0.088   2.391
    2        2.066   0.220   0.084   2.370
    3        2.070   0.230   0.087   2.387
    4        2.070   0.230   0.087   2.387
    5        2.071   0.232   0.088   2.391
    6        2.071   0.233   0.088   2.392
    7        2.073   0.237   0.090   2.400
    8        2.064   0.216   0.081   2.361
    9        2.071   0.233   0.088   2.392
   10        2.066   0.220   0.084   2.370
   11        2.073   0.237   0.090   2.400
   12        0.284   0.386   7.845   8.514
   13        0.275   0.366   7.851   8.491
   14        0.294   0.407   7.833   8.533
   15        0.294   0.407   7.833   8.533
   16        0.293   0.406   7.838   8.537
   17        0.284   0.386   7.844   8.514
   18        0.294   0.407   7.829   8.530
   19        0.287   0.393   7.832   8.511
   20        0.294   0.407   7.829   8.530
   21        0.285   0.390   7.832   8.507
   22        0.290   0.399   7.831   8.520
   23        0.285   0.389   7.837   8.511
   24        0.292   0.403   7.834   8.529
   25        0.290   0.399   7.831   8.520
   26        0.288   0.395   7.831   8.514
   27        0.277   0.370   7.845   8.492
   28        0.285   0.387   7.840   8.512
   29        0.293   0.406   7.830   8.528
   30        0.288   0.395   7.831   8.514
   31        0.293   0.406   7.838   8.537
   32        0.292   0.403   7.834   8.529
   33        0.285   0.389   7.837   8.511
   34        0.275   0.366   7.851   8.491
   35        0.285   0.390   7.832   8.507
   36        0.293   0.406   7.830   8.528
   37        0.287   0.393   7.832   8.511
   38        0.277   0.370   7.845   8.492
   39        1.278   2.743   0.007   4.028
   40        1.270   2.763   0.006   4.038
   41        1.271   2.759   0.006   4.036
   42        1.279   2.739   0.007   4.025
   43        1.266   2.772   0.006   4.045
   44        1.273   2.754   0.007   4.035
   45        1.273   2.754   0.007   4.035
   46        1.266   2.772   0.006   4.045
   47        1.266   2.773   0.007   4.046
   48        1.267   2.772   0.007   4.045
   49        1.270   2.763   0.006   4.038
   50        1.278   2.743   0.007   4.028
   51        1.273   2.757   0.007   4.037
   52        1.270   2.767   0.007   4.044
   53        1.270   2.767   0.007   4.044
   54        1.273   2.756   0.007   4.037
   55        1.270   2.767   0.007   4.044
   56        1.273   2.757   0.007   4.037
   57        1.273   2.755   0.007   4.036
   58        1.275   2.751   0.007   4.033
   59        1.271   2.764   0.007   4.042
   60        1.274   2.754   0.007   4.035
[...]
   78        1.266   2.773   0.007   4.046
   79        1.266   2.773   0.007   4.047
   80        1.273   2.756   0.007   4.036
   81        1.278   2.743   0.007   4.028
   82        1.276   2.752   0.007   4.035
   83        1.279   2.739   0.007   4.025
   84        1.271   2.759   0.006   4.036
   85        1.275   2.751   0.007   4.033
   86        1.273   2.755   0.007   4.036
   87        1.276   2.749   0.007   4.032
   88        1.271   2.763   0.007   4.041
   89        1.273   2.756   0.007   4.037
   90        1.270   2.767   0.007   4.044
   91        1.278   2.743   0.007   4.028
   92        1.279   2.741   0.007   4.027
tot          99.26  162.00  212.91  474.16

magnetization (x)

# of ion       s       p       d       tot
    1        0.006   0.009   0.000   0.015
    2        0.005   0.009   0.000   0.014
    3        0.005   0.008   0.000   0.013
    4        0.005   0.008   0.000   0.013
    5        0.006   0.009   0.000   0.015
    6        0.006   0.011   0.001   0.018
    7        0.006   0.010   0.001   0.017
    8        0.005   0.012   0.000   0.018
    9        0.006   0.011   0.001   0.018
   10        0.005   0.009   0.000   0.014
   11        0.006   0.010   0.001   0.017
   12        0.000  -0.000   0.424   0.424
   13        0.001  -0.000   0.626   0.627
   14       -0.000  -0.000   0.161   0.160
   15       -0.000  -0.000   0.161   0.160
   16       -0.001  -0.000   0.189   0.188
   17        0.000  -0.000   0.424   0.424
   18       -0.000  -0.000   0.134   0.133
   19       -0.001  -0.001   0.235   0.234
   20       -0.000  -0.000   0.134   0.133
   21       -0.000  -0.001   0.269   0.268
   22       -0.001  -0.001   0.182   0.181
   23        0.000  -0.000   0.354   0.354
   24       -0.000  -0.000   0.193   0.192
   25       -0.001  -0.001   0.182   0.181
   26       -0.001  -0.001   0.226   0.225
   27        0.001  -0.001   0.561   0.561
   28        0.000  -0.001   0.390   0.390
   29       -0.001  -0.000   0.147   0.146
   30       -0.001  -0.001   0.226   0.225
   31       -0.001  -0.000   0.189   0.188
   32       -0.000  -0.000   0.193   0.192
   33        0.000  -0.000   0.354   0.354
   34        0.001  -0.000   0.626   0.627
   35       -0.000  -0.001   0.269   0.268
   36       -0.001  -0.000   0.147   0.146
   37       -0.001  -0.001   0.235   0.234
   38        0.001  -0.001   0.561   0.561
   39        0.009   0.076   0.000   0.085
   40        0.010   0.079   0.000   0.090
   41        0.010   0.069   0.000   0.079
   42        0.008   0.054   0.000   0.062
   43        0.005   0.018   0.000   0.023
   44        0.004   0.013   0.000   0.017
   45        0.004   0.013   0.000   0.017
   46        0.005   0.018   0.000   0.023
   47        0.004   0.014   0.000   0.018
   48        0.005   0.013   0.000   0.018
   49        0.010   0.079   0.000   0.090
   50        0.009   0.076   0.000   0.085
   51        0.003   0.009   0.000   0.012
   52        0.004   0.012   0.000   0.016
   53        0.004   0.012   0.000   0.015
   54        0.003   0.009   0.000   0.012
   55        0.004   0.012   0.000   0.016
   56        0.003   0.009   0.000   0.012
   57        0.003   0.007   0.000   0.010
   58        0.007   0.048   0.000   0.055
   59        0.004   0.017   0.000   0.021
   60        0.003   0.010   0.000   0.014
[...]
   78        0.004   0.014   0.000   0.018
   79        0.004   0.007   0.000   0.011
   80        0.003   0.006   0.000   0.009
   81        0.009   0.068   0.000   0.077
   82        0.010   0.082   0.000   0.092
   83        0.008   0.054   0.000   0.062
   84        0.010   0.069   0.000   0.079
   85        0.007   0.048   0.000   0.055
   86        0.003   0.007   0.000   0.010
   87        0.008   0.056   0.000   0.064
   88        0.004   0.014   0.000   0.018
   89        0.003   0.009   0.000   0.012
   90        0.004   0.012   0.000   0.015
   91        0.009   0.066   0.000   0.076
   92        0.009   0.064   0.000   0.073
tot           0.38    1.93    7.81   10.11