 vasp.5.4.4.18Apr17-6-g9f103f2a35 (build May 12 2020 05:39:39) gamma-only

 MD_VERSION_INFO: Compiled 2020-05-12T12:39:39-UTC in devlin.sd.materialsdesign.
 com:/home/medea2/data/build/wwolf/vasp-gpu5.4.4/13047/x86_64/src/src/build/gam
 from svn 13047

 executed on                        Lin64 date 2023.01.19  23:21:00

 INCAR:
 POTCAR:    PAW_PBE Li_sv 10Sep2004
 POTCAR:    PAW_PBE Ni 02Aug2007
 POTCAR:    PAW_PBE O 08Apr2002

 POTCAR:    PAW_PBE Li_sv 10Sep2004

 POTCAR:    PAW_PBE Ni 02Aug2007

 POTCAR:    PAW_PBE O 08Apr2002

 Optimization of the real space projectors (new method)

 maximal supplied QI-value         = 22.11
 optimisation between [QCUT,QGAM] = [ 11.28, 22.77] = [ 35.61,145.23] Ry
 Optimized for a Real-space Cutoff    1.10 Angstroem

   l    n(q)    QCUT    max X(q) W(low)/X(q) W(high)/X(q)  e(spline)
   0      7    11.276    10.506    0.54E-04    0.58E-04    0.16E-07
   0      7    11.276     8.367    0.11E-03    0.14E-03    0.35E-07
   1      7    11.276     8.983    0.23E-03    0.43E-03    0.86E-07
 Optimization of the real space projectors (new method)

[...]

   l    n(q)    QCUT    max X(q) W(low)/X(q) W(high)/X(q)  e(spline)
   2      9    11.376    60.317    0.17E-03    0.16E-04    0.16E-06
   2      9    11.376    55.921    0.17E-03    0.16E-04    0.17E-06
   0     10    11.376    51.690    0.45E-04    0.60E-04    0.21E-06
   0     10    11.376    30.015    0.37E-04    0.55E-04    0.19E-06
   1     10    11.376    18.849    0.83E-04    0.11E-03    0.92E-07
   1     10    11.376    14.624    0.69E-04    0.92E-04    0.82E-07
 Optimization of the real space projectors (new method)

 maximal supplied QI-value         = 24.76
 optimisation between [QCUT,QGAM] = [ 11.39, 22.77] = [ 36.31,145.25] Ry
 Optimized for a Real-space Cutoff    1.10 Angstroem

   l    n(q)    QCUT    max X(q) W(low)/X(q) W(high)/X(q)  e(spline)
   0      7    11.387    20.381    0.22E-03    0.48E-03    0.18E-06
   0      7    11.387    15.268    0.22E-03    0.52E-03    0.19E-06
   1      7    11.387     5.964    0.22E-03    0.73E-03    0.24E-06
   1      7    11.387     5.382    0.19E-03    0.60E-03    0.21E-06

  PAW_PBE Li_sv 10Sep2004               :
  PAW_PBE Ni 02Aug2007                  :
  PAW_PBE O 08Apr2002                   :

 POSCAR: ce285087_1
  positions in direct lattice
 exchange correlation table for  LEXCH =       14
   RHO(1)=    0.500       N(1)  =     2000
   RHO(2)=  100.500       N(2)  =     4000

 ion  position               nearest neighbor table
   1  0.999  0.500  0.999-  43 2.10  90 2.10  78 2.11  91 2.11  42 2.11  55 2.12
   2  0.112  0.833  0.223-  44 2.10  57 2.10  63 2.11  62 2.11  39 2.11  56 2.12
   3  0.222  0.167  0.111-  40 2.12  41 2.12  64 2.12  77 2.12  46 2.13  47 2.13
   4  0.353  0.500  0.998-  84 2.01  49 2.03  79 2.12  48 2.15  78 2.24  43 2.25  34 2.79  17 2.81

   5  0.467  0.834  0.225-  69 2.01  50 2.03  68 2.12  45 2.15  63 2.24  44 2.25  27 2.79  17 2.81

[...]

  11  0.760  0.833  0.870-  87 2.02  86 2.02  51 2.14  92 2.14  39 2.21  56 2.23  35 2.81  36 2.82

  12  0.000  0.001  1.000-  77 1.86  92 1.87  56 1.87  41 1.88  89 1.91  44 1.92  30 2.79  21 2.80
                            18 2.81  15 2.81  36 2.81  24 2.82
  13  0.112  0.332  0.223-  64 1.86  61 1.87  55 1.87  40 1.88  58 1.91  43 1.92  25 2.79  37 2.80
                            19 2.81  16 2.81  22 2.81  31 2.82
  14  0.222  0.667  0.111-  63 1.87  78 1.87  45 1.88  48 1.88  39 1.92  42 1.92  23 2.80  38 2.80
                            32 2.81  26 2.81  20 2.82  17 2.83
  15  0.333  1.000  0.999-  50 1.87  77 1.87  47 1.89  80 1.90  83 1.92  44 1.94  30 2.80  12 2.81
                            33 2.81  18 2.81  27 2.81  24 2.84
  16  0.445  0.334  0.223-  49 1.87  64 1.87  46 1.89  67 1.90  70 1.92  43 1.94  25 2.80  13 2.81
                            28 2.81  19 2.81  34 2.81  31 2.84
  17  0.558  0.667  0.111-  45 1.88  48 1.88  69 1.88  84 1.88  51 1.90  54 1.90  20 2.78  35 2.79
                            29 2.79   5 2.81   4 2.81  26 2.82  32 2.82  14 2.83
  18  0.668  1.000  0.002-  83 1.87  86 1.87  89 1.88  53 1.90  50 1.90  56 1.90  21 2.78  27 2.80
                            12 2.81  15 2.81  33 2.82  36 2.83
  19  0.777  0.334  0.220-  70 1.87  73 1.87  58 1.88  52 1.90  49 1.90  55 1.90  37 2.78  34 2.80
                            13 2.81  16 2.81  28 2.82  22 2.83
  20  0.887  0.667  0.111-  51 1.86  54 1.86  39 1.88  42 1.88  57 1.92  90 1.92  17 2.78  29 2.80
                            35 2.80  14 2.82  38 2.82  23 2.82
  21  0.998  0.001  0.332-  53 1.86  62 1.87  59 1.88  74 1.88  41 1.90  56 1.91  18 2.78  12 2.80
                            24 2.80  27 2.81  33 2.82  30 2.83
  22  0.113  0.333  0.557-  61 1.87  76 1.87  73 1.88  58 1.88  82 1.90  79 1.90  25 2.79  31 2.79
                            34 2.80  13 2.81  28 2.81   6 2.82  19 2.83
  23  0.224  0.665  0.444-  81 1.87  60 1.88  57 1.88  66 1.89  63 1.91  42 1.91  26 2.79  14 2.80
                            35 2.80  20 2.82  32 2.82  29 2.83
  24  0.334  0.001  0.336-  47 1.87  68 1.88  44 1.88  41 1.88  65 1.89  62 1.91  33 2.78  36 2.79
                            21 2.80  27 2.82  12 2.82  15 2.84
  25  0.443  0.332  0.554-  82 1.87  88 1.88  67 1.88  85 1.88  61 1.90  64 1.90  13 2.79  22 2.79
                            16 2.80  34 2.82  10 2.82  28 2.82  37 2.83
  26  0.555  0.668  0.444-  69 1.87  66 1.87  72 1.87  63 1.91  87 1.91  48 1.91  23 2.79  10 2.80
                            29 2.81  14 2.81  35 2.82  17 2.82  38 2.82
  27  0.666  0.001  0.333-  53 1.87  71 1.87  68 1.87  50 1.88  47 1.91  74 1.91   5 2.79  36 2.80
                            18 2.80  21 2.81  15 2.81  24 2.82  30 2.82
  28  0.779  0.334  0.556-  67 1.87  76 1.87  70 1.87  91 1.91  73 1.93  88 1.93  31 2.78  16 2.81
                            22 2.81  37 2.82  25 2.82  19 2.82
  29  0.888  0.668  0.444-  75 1.87  54 1.87  60 1.88  69 1.90  72 1.91  57 1.93  17 2.79  38 2.80
                            20 2.80  26 2.81   6 2.81  32 2.82  23 2.83
  30  1.000  0.001  0.668-  71 1.87  59 1.88  80 1.88  74 1.88  92 1.90  77 1.90  12 2.79  36 2.79
                            15 2.80  27 2.82   7 2.82  33 2.82  21 2.83
  31  0.108  0.332  0.886-  46 1.87  79 1.88  43 1.88  40 1.88  76 1.89  91 1.91  28 2.78  22 2.79
                            37 2.80  34 2.82  13 2.82  16 2.84
  32  0.222  0.665  0.778-  84 1.87  75 1.87  81 1.87  78 1.91  60 1.91  45 1.91  38 2.79   7 2.80
                            35 2.81  14 2.81  29 2.82  17 2.82  23 2.82
  33  0.333  1.000  0.666-  80 1.87  65 1.87  83 1.87  62 1.91  86 1.93  59 1.93  24 2.78  15 2.81
                            36 2.81  21 2.82  30 2.82  18 2.82
  34  0.444  0.332  0.889-  52 1.87  82 1.87  79 1.87  49 1.88  46 1.91  85 1.91   4 2.79  22 2.80
                            19 2.80  37 2.81  16 2.81  31 2.82  25 2.82
  35  0.555  0.665  0.778-  66 1.87  51 1.87  87 1.88  84 1.90  81 1.91  90 1.93  17 2.79  23 2.80
                            20 2.80  32 2.81  11 2.81  26 2.82  38 2.83
  36  0.667  0.001  0.665-  92 1.87  65 1.87  86 1.88  89 1.88  71 1.90  68 1.90  30 2.79  24 2.79
                            27 2.80  12 2.81  33 2.81  11 2.82  18 2.83
  37  0.778  0.332  0.891-  52 1.86  91 1.87  88 1.88  85 1.88  40 1.90  55 1.91  19 2.78  13 2.80
                            31 2.80  34 2.81  28 2.82  25 2.83
  38  0.891  0.668  0.778-  72 1.87  87 1.88  90 1.88  75 1.89  78 1.91  39 1.91  32 2.79  14 2.80
                            29 2.80  20 2.82  26 2.82  35 2.83
  39  0.998  0.737  0.004-  20 1.88  38 1.91  14 1.92   2 2.11  11 2.21
  40  0.003  0.265  0.002-  13 1.88  31 1.88  37 1.90   3 2.12
  41  0.113  0.069  0.221-  12 1.88  24 1.88  21 1.90   3 2.12
  42  0.105  0.596  0.219-  20 1.88  23 1.91  14 1.92   1 2.11   6 2.21
  43  0.216  0.403  0.103-  31 1.88  13 1.92  16 1.94   1 2.10   4 2.25
  44  0.223  0.930  0.119-  24 1.88  12 1.92  15 1.94   2 2.10   5 2.25
  45  0.336  0.734  0.004-  17 1.88  14 1.88  32 1.91   5 2.15
  46  0.330  0.266  0.001-  31 1.87  16 1.89  34 1.91   3 2.13
  47  0.440  0.068  0.221-  24 1.87  15 1.89  27 1.91   3 2.13
  48  0.443  0.599  0.218-  17 1.88  14 1.88  26 1.91   4 2.15
  49  0.552  0.400  0.109-  16 1.87  34 1.88  19 1.90   4 2.03
  50  0.553  0.933  0.113-  15 1.87  27 1.88  18 1.90   5 2.03
  51  0.668  0.734  0.997-  20 1.86  35 1.87  17 1.90  11 2.14
  52  0.665  0.265  0.997-  37 1.86  34 1.87  19 1.90   9 2.13
  53  0.779  0.068  0.225-  21 1.86  27 1.87  18 1.90   8 2.13
  54  0.782  0.599  0.225-  20 1.86  29 1.87  17 1.90   6 2.14
  55  0.894  0.403  0.114-  13 1.87  19 1.90  37 1.91   1 2.12   6 2.23
  56  0.892  0.931  0.108-  12 1.87  18 1.90  21 1.91   2 2.12  11 2.23
  57  0.007  0.737  0.336-  23 1.88  20 1.92  29 1.93   2 2.10   7 2.24
  58  0.998  0.265  0.335-  22 1.88  19 1.88  13 1.91   8 2.13
  59  0.106  0.068  0.553-  30 1.88  21 1.88  33 1.93   8 2.13
  60  0.108  0.599  0.550-  23 1.88  29 1.88  32 1.91   6 2.02
  61  0.219  0.400  0.443-  22 1.87  13 1.87  25 1.90   6 2.14
  62  0.216  0.931  0.441-  21 1.87  24 1.91  33 1.91   2 2.11   7 2.24
  63  0.330  0.737  0.328-  14 1.87  26 1.91  23 1.91   2 2.11   5 2.24
  64  0.331  0.266  0.328-  13 1.86  16 1.87  25 1.90   3 2.12
  65  0.447  0.068  0.560-  33 1.87  36 1.87  24 1.89   9 2.12
  66  0.449  0.599  0.557-  35 1.87  26 1.87  23 1.89  10 2.02
  67  0.558  0.400  0.449-  28 1.87  25 1.88  16 1.90  10 2.01
  68  0.554  0.933  0.441-  27 1.87  24 1.88  36 1.90   5 2.12
  69  0.663  0.735  0.332-  26 1.87  17 1.88  29 1.90   5 2.01
  70  0.673  0.266  0.336-  19 1.87  28 1.87  16 1.92   8 2.10
  71  0.779  0.068  0.554-  27 1.87  30 1.87  36 1.90   8 2.11
  72  0.775  0.600  0.558-  38 1.87  26 1.87  29 1.91  10 2.12
  73  0.892  0.401  0.441-  19 1.87  22 1.88  28 1.93   6 2.02
  74  0.892  0.933  0.447-  30 1.88  21 1.88  27 1.91   7 2.16
  75  0.003  0.734  0.665-  29 1.87  32 1.87  38 1.89   7 2.02
  76  0.998  0.266  0.662-  28 1.87  22 1.87  31 1.89   8 2.12
  77  0.114  0.068  0.894-  12 1.86  15 1.87  30 1.90   3 2.12
  78  0.113  0.597  0.894-  14 1.87  32 1.91  38 1.91   1 2.11   4 2.24
  79  0.224  0.400  0.782-  34 1.87  31 1.88  22 1.90   4 2.12
  80  0.220  0.933  0.773-  33 1.87  30 1.88  15 1.90   7 2.01
  81  0.328  0.733  0.664-  23 1.87  32 1.87  35 1.91   7 2.12
  82  0.337  0.265  0.668-  34 1.87  25 1.87  22 1.90   9 2.11
  83  0.449  0.067  0.886-  18 1.87  33 1.87  15 1.92   9 2.10
  84  0.442  0.598  0.891-  32 1.87  17 1.88  35 1.90   4 2.01
  85  0.557  0.400  0.775-  25 1.88  37 1.88  34 1.91  10 2.16
  86  0.562  0.932  0.781-  18 1.87  36 1.88  33 1.93  11 2.02
  87  0.668  0.734  0.672-  38 1.88  35 1.88  26 1.91  11 2.02
  88  0.663  0.265  0.669-  25 1.88  37 1.88  28 1.93   9 2.13
  89  0.774  0.068  0.887-  36 1.88  18 1.88  12 1.91   9 2.13
  90  0.782  0.596  0.887-  38 1.88  20 1.92  35 1.93   1 2.10  10 2.24
  91  0.886  0.402  0.781-  37 1.87  31 1.91  28 1.91   1 2.11  10 2.24
  92  0.887  0.933  0.780-  36 1.87  12 1.87  30 1.90  11 2.14

  LATTYP: Found a base centered monoclinic cell.
 ALAT       =    14.5922551466
 B/A-ratio  =     0.5775220297
 C/A-ratio  =     2.2241860070
[...]
   -.139E+02 0.372E+02 0.355E+03   0.142E+02 -.396E+02 -.378E+03   -.375E+00 0.235E+01 0.223E+02   0.146E-01 -.122E-01 -.187E-01
   -.120E+02 0.344E+02 -.320E+03   0.123E+02 -.366E+02 0.339E+03   -.395E+00 0.226E+01 -.189E+02   0.222E-01 0.112E-01 -.212E-01
   -.238E+02 0.275E+02 0.320E+03   0.256E+02 -.290E+02 -.339E+03   -.176E+01 0.147E+01 0.189E+02   -.208E-01 -.136E-01 0.212E-01
   -.138E+02 0.360E+02 -.337E+03   0.137E+02 -.390E+02 0.353E+03   0.160E+00 0.297E+01 -.163E+02   0.227E-02 0.162E-02 0.182E-01
   0.231E+02 -.129E+02 0.369E+03   -.256E+02 0.142E+02 -.390E+03   0.253E+01 -.136E+01 0.209E+02   0.240E-02 -.583E-02 0.241E-01
   -.567E+01 -.465E+02 -.367E+03   0.564E+01 0.513E+02 0.387E+03   0.363E-01 -.484E+01 -.197E+02   -.664E-02 0.145E-01 0.102E-01
   -.436E+02 -.213E+02 0.356E+03   0.478E+02 0.238E+02 -.374E+03   -.428E+01 -.259E+01 0.182E+02   0.193E-01 0.661E-02 -.881E-02
[...]
   0.327E+02 0.111E+02 -.343E+03   -.349E+02 -.126E+02 0.365E+03   0.223E+01 0.159E+01 -.219E+02   -.166E-01 -.308E-01 0.140E-01
   -.316E+02 -.234E+02 0.338E+03   0.346E+02 0.252E+02 -.358E+03   -.304E+01 -.180E+01 0.208E+02   -.162E-01 0.105E-01 -.594E-02
   -.102E+02 -.359E+02 -.351E+03   0.991E+01 0.383E+02 0.371E+03   0.231E+00 -.242E+01 -.205E+02   0.138E-01 -.532E-02 0.676E-02
   -.391E+01 0.309E+02 0.363E+03   0.411E+01 -.336E+02 -.385E+03   -.185E+00 0.270E+01 0.224E+02   -.208E-01 -.240E-01 -.149E-01
   -.300E+02 0.202E+02 -.355E+03   0.326E+02 -.218E+02 0.376E+03   -.255E+01 0.159E+01 -.204E+02   -.289E-01 0.202E-01 -.869E-02
   0.333E+02 -.147E+02 0.349E+03   -.359E+02 0.163E+02 -.370E+03   0.259E+01 -.157E+01 0.211E+02   0.658E-02 -.179E-01 0.452E-02
   -.273E+02 0.258E+02 -.352E+03   0.299E+02 -.271E+02 0.373E+03   -.260E+01 0.124E+01 -.209E+02   -.180E-01 0.128E-01 0.154E-01
   -.401E+01 0.495E+02 0.345E+03   0.455E+01 -.547E+02 -.363E+03   -.548E+00 0.520E+01 0.185E+02   0.217E-02 0.913E-02 0.246E-01
   0.402E+02 0.271E+02 -.356E+03   -.446E+02 -.295E+02 0.374E+03   0.438E+01 0.241E+01 -.182E+02   -.154E-01 -.134E-01 0.881E-02
   0.431E+02 -.183E+02 0.367E+03   -.473E+02 0.208E+02 -.387E+03   0.417E+01 -.245E+01 0.197E+02   -.927E-02 0.130E-01 -.102E-01
   -.393E+00 -.264E+02 -.369E+03   0.483E+00 0.293E+02 0.390E+03   -.923E-01 -.287E+01 -.209E+02   0.385E-02 -.499E-02 -.241E-01
   -.243E+02 0.300E+02 0.337E+03   0.269E+02 -.313E+02 -.353E+03   -.265E+01 0.134E+01 0.163E+02   -.254E-02 -.116E-02 -.182E-01
   0.418E+02 -.578E+01 -.319E+03   -.442E+02 0.645E+01 0.337E+03   0.236E+01 -.667E+00 -.186E+02   -.143E-01 -.323E-02 -.382E-02
   0.346E+02 -.139E+02 0.343E+03   -.366E+02 0.155E+02 -.365E+03   0.199E+01 -.158E+01 0.221E+02   0.236E-01 -.131E-01 0.122E-01
   -.472E-01 0.805E-01 -.180E-02   0.341E-12 0.165E-12 0.114E-12   0.481E-01 -.833E-01 -.382E-11   0.148E-02 -.256E-02 -.139E-05

 POSITION                                       TOTAL-FORCE (eV/Angst)
      4.20404      7.29084      7.18628        -0.009290     -0.000984      0.004250
      1.42142      0.82758     11.98319         0.005497      0.007553     -0.004250
     -0.00393      1.63091      2.39612        -0.008223      0.014243      0.000000
      6.93167      2.60458      7.18269         0.003067      0.017629      0.002239
     -0.09001      3.40732     11.98679        -0.016800      0.006158     -0.002239
      2.98434      0.00751      7.19098         0.003660     -0.002910      0.003965
      4.40619      0.83250     11.97113         0.007850     -0.005226     -0.002989
      0.01732      6.46770      2.40700         0.001382     -0.000996      0.001411
      4.22485      4.04021      2.38681         0.000172     -0.001695     -0.001411
      2.70739      4.70841      7.19835         0.000601     -0.009411      0.002989
      4.13278      5.52727     11.97850         0.000690     -0.004624     -0.003965
      8.42733      0.01341      0.01529         0.000674     -0.000409     -0.002892
      1.40338      0.81485      4.77852         0.000017     -0.000788      0.002892
      0.00864      1.61237      9.58396         0.002109     -0.003654     -0.000000
      7.01272      2.43649     14.36989        -0.002393      0.000391     -0.002358
      0.01503      3.25308      4.79959         0.000858      0.002267      0.002358
     -1.40507      4.06099      9.58396        -0.000091      0.000157      0.000000
     -2.78870      4.87250     14.36455        -0.001355      0.001149     -0.002445
     -1.41604      5.66500      4.80336        -0.000318      0.001748      0.002445
     -2.79530      6.46894      9.58396         0.002711     -0.004696     -0.000000
     -1.40558      7.27540      0.01700        -0.000667     -0.002449     -0.001206
      4.21695      0.82868      4.78435        -0.001091     -0.001282      0.002261
      2.79557      1.63722      9.56235         0.002636      0.001462     -0.000827
      1.43225      2.43342      0.01479        -0.000543     -0.000139     -0.001589
      2.81331      3.22737      4.77729         0.002435     -0.001559      0.000357
      1.40978      4.04624      9.60587        -0.003946      0.000784      0.000932
      0.00903      4.85819      0.01499        -0.000599     -0.001377     -0.000560
      1.42292      5.67566      4.79982         0.001352      0.000567      0.002059
      0.01051      6.46846      9.60280         0.001199      0.003649      0.001928
      1.42702      7.28370      0.01651         0.000132     -0.002888     -0.000357
      7.01116      0.79770      4.77902         0.000392      0.000401      0.001589
      5.62846      1.62518      9.56361         0.001294      0.003809     -0.000932
      4.21076      2.42852     14.36965        -0.001168     -0.000888     -0.002059
      5.62286      3.24263      4.77881         0.001492     -0.000170      0.000560
      4.23038      4.04810      9.56668        -0.003760      0.000786     -0.001928
      2.80253      4.86877      0.00946         0.001656      0.000304     -0.002261
      4.23680      5.67632      4.77681         0.002455     -0.000647      0.001206
      2.81580      6.50561      9.60713        -0.002584     -0.001552      0.000827
     -4.16538      7.27241     10.58390         0.000517     -0.005450     -0.003362
     -0.00112      0.02848      3.81767         0.000199      0.002297      0.001058
      1.38242      0.82726      0.97457        -0.002089      0.000976     -0.001058
      1.39996      0.77214      8.58401         0.004462     -0.003173      0.003362
     -0.04518      1.58432      5.78585         0.003785     -0.001820      0.000094
      0.05984      1.64496     13.38206        -0.000317     -0.004188     -0.000094
     -1.33474      2.46441     10.55658         0.006588      0.001918      0.004313
     -1.36394      2.40537      3.83130        -0.001629      0.003285      0.001862
      0.00538      3.19594      0.96094        -0.002031      0.003053     -0.001862
     -0.05755      3.20180      8.61133        -0.004955     -0.004747     -0.004313
     -1.40115      4.02058      5.74564         0.000094      0.003862      0.002880
     -1.37203      4.03739     13.42227        -0.003391      0.001850     -0.002880
      5.59816      4.88071     10.53807        -0.000973     -0.004062     -0.000922
      5.60314      4.84961      3.82686         0.002486      0.000577     -0.000620
     -1.37279      5.67877      0.96695        -0.001743     -0.001864      0.000620
     -1.39444      5.70024      8.63141         0.004004     -0.001189      0.000922
     -2.81141      6.51550      5.78198        -0.001677     -0.001584      0.003221
     -2.82756      6.50618     13.38593         0.002210      0.000660     -0.003221
      2.82775      0.06812     10.59225         0.025422      0.008618      0.006711
     -1.36617      7.26622      3.82649        -0.003070      0.000919      0.002130
      4.21152      0.73614      0.98316        -0.001574     -0.000771      0.000006
      4.14870      0.76846      8.61270         0.000357      0.000698     -0.004266
[...]
      7.06900      0.83871      8.58938         0.002352     -0.000859     -0.000175
      5.64729      1.64062      5.74268        -0.001130     -0.002333      0.003805
      5.57919      1.59880     13.42473        -0.002010     -0.003174     -0.003278
      4.21360      2.39644     10.52009         0.000237      0.010619     -0.002086
      4.21864      2.45828      3.81870         0.002745     -0.002713     -0.001868
      5.57535      3.27685      0.94424        -0.005525      0.000213     -0.001340
      5.65486      3.22760      8.61834         0.001468      0.002501     -0.002181
      4.18448      4.06786      5.74926         0.006540     -0.005574      0.000561
      4.21488      4.13541     13.40447         0.000512     -0.002163     -0.002469
      2.89160      4.89938     10.55678        -0.000783      0.000040      0.004266
      2.88539      4.82720      3.81065         0.001454      0.000978     -0.000006
      4.22505      5.63760      0.96732         0.000739      0.003118     -0.002130
      4.15859      5.69318      8.57723        -0.020175     -0.017707     -0.006711
      2.86384      6.45126      5.77858        -0.000514     -0.001424      0.001870
      2.84815      6.47626     13.42604         0.001162      0.000325     -0.001902
    total drift:                                0.002313     -0.005368     -0.001803

  FREE ENERGIE OF THE ION-ELECTRON SYSTEM (eV)
  free  energy   TOTEN  =      -566.4667871969 eV

  energy  without entropy=     -566.4047125386  energy(sigma->0) =     -566.43574987

 d Force = 0.1587448E-03[ 0.150E-03, 0.167E-03]  d Energy = 0.1545634E-03 0.418E-05
 d Force = 0.1117164E+01[ 0.112E+01, 0.112E+01]  d Ewald  = 0.1083532E+01 0.336E-01

 Quasi-Newton relaxation of ions (Broydens 2nd method)
  g(Force)  = 0.217E-03   g(Stress)= 0.359E-03

 retain information from N=  1 steps
 eigenvalues of (default step * inverse Hessian matrix)
  average eigenvalue of G=   0.0004
 eigenvalue spectrum of G is  0.0004

volume of typ            1:     9.7 %

[...]

volume of typ            3:    10.0 %

total charge

# of ion       s       p       d       tot
    1        2.071   0.232   0.088   2.391
    2        2.071   0.232   0.088   2.391
    3        2.062   0.210   0.080   2.352
    4        2.069   0.228   0.086   2.383
    5        2.069   0.228   0.086   2.383
    6        2.073   0.238   0.090   2.401
    7        2.068   0.227   0.085   2.380
    8        2.064   0.217   0.082   2.363
    9        2.064   0.217   0.082   2.363
   10        2.068   0.227   0.085   2.380
   11        2.073   0.238   0.090   2.401
   12        0.289   0.397   7.837   8.523
   13        0.289   0.397   7.837   8.523
   14        0.294   0.408   7.839   8.540
   15        0.281   0.380   7.837   8.499
   16        0.281   0.380   7.837   8.499
   17        0.292   0.403   7.833   8.528
   18        0.287   0.393   7.832   8.512
   19        0.287   0.393   7.832   8.512
   20        0.285   0.389   7.849   8.523
   21        0.292   0.404   7.835   8.532
   22        0.292   0.403   7.831   8.526
   23        0.287   0.392   7.838   8.517
   24        0.290   0.400   7.837   8.527
   25        0.292   0.403   7.832   8.527
   26        0.278   0.374   7.844   8.496
   27        0.289   0.396   7.836   8.520
   28        0.280   0.377   7.841   8.498
   29        0.285   0.389   7.834   8.508
   30        0.292   0.403   7.832   8.527
   31        0.290   0.400   7.837   8.527
   32        0.278   0.374   7.844   8.496
   33        0.280   0.377   7.841   8.498
   34        0.289   0.396   7.836   8.520
   35        0.285   0.389   7.834   8.508
   36        0.292   0.403   7.831   8.526
   37        0.292   0.404   7.835   8.532
   38        0.287   0.392   7.838   8.517
   39        1.267   2.771   0.007   4.044
   40        1.274   2.751   0.007   4.033
   41        1.274   2.751   0.007   4.033
   42        1.267   2.771   0.007   4.044
   43        1.272   2.759   0.006   4.037
   44        1.272   2.759   0.006   4.037
   45        1.278   2.744   0.007   4.028
   46        1.277   2.746   0.007   4.030
   47        1.277   2.746   0.007   4.030
   48        1.278   2.744   0.007   4.028
   49        1.271   2.763   0.007   4.042
   50        1.271   2.763   0.007   4.042
   51        1.273   2.757   0.007   4.037
   52        1.274   2.754   0.007   4.035
   53        1.274   2.754   0.007   4.035
   54        1.273   2.757   0.007   4.037
   55        1.267   2.770   0.007   4.044
   56        1.267   2.770   0.007   4.044
   57        1.272   2.760   0.006   4.037
   58        1.278   2.742   0.007   4.027
   59        1.279   2.742   0.007   4.028
   60        1.275   2.755   0.007   4.037
[...]
   78        1.266   2.774   0.007   4.046
   79        1.274   2.753   0.007   4.034
   80        1.270   2.766   0.007   4.043
   81        1.275   2.749   0.007   4.032
   82        1.274   2.754   0.007   4.035
   83        1.276   2.749   0.007   4.032
   84        1.270   2.765   0.007   4.043
   85        1.278   2.741   0.007   4.026
   86        1.276   2.752   0.007   4.035
   87        1.275   2.755   0.007   4.037
   88        1.279   2.742   0.007   4.028
   89        1.278   2.742   0.007   4.027
   90        1.272   2.760   0.006   4.037
   91        1.266   2.773   0.007   4.046
   92        1.274   2.754   0.007   4.035
tot          99.25  161.96  212.91  474.12

magnetization (x)

# of ion       s       p       d       tot
    1        0.005   0.009   0.000   0.015
    2        0.005   0.009   0.000   0.015
    3        0.004   0.008   0.000   0.013
    4        0.005   0.009   0.000   0.014
    5        0.005   0.009   0.000   0.014
    6        0.006   0.012   0.001   0.019
    7        0.005   0.010   0.000   0.016
    8        0.005   0.010   0.000   0.016
    9        0.005   0.010   0.000   0.016
   10        0.005   0.010   0.000   0.016
   11        0.006   0.012   0.001   0.019
   12       -0.000  -0.000   0.284   0.284
   13       -0.000  -0.000   0.284   0.284
   14       -0.001  -0.001   0.182   0.181
   15       -0.000  -0.001   0.381   0.380
   16       -0.000  -0.001   0.381   0.380
   17       -0.001  -0.001   0.167   0.166
   18       -0.001  -0.001   0.252   0.251
   19       -0.001  -0.001   0.252   0.251
   20        0.000  -0.000   0.411   0.411
   21       -0.000  -0.000   0.201   0.200
   22       -0.000  -0.000   0.186   0.185
   23       -0.001  -0.001   0.277   0.275
   24       -0.000  -0.000   0.230   0.229
   25       -0.000  -0.000   0.177   0.176
   26        0.000  -0.001   0.504   0.504
   27       -0.000  -0.000   0.266   0.265
   28        0.000  -0.001   0.469   0.468
   29       -0.001  -0.001   0.270   0.269
   30       -0.000  -0.000   0.177   0.176
   31       -0.000  -0.000   0.230   0.229
   32        0.000  -0.001   0.504   0.504
   33        0.000  -0.001   0.469   0.468
   34       -0.000  -0.000   0.266   0.265
   35       -0.001  -0.001   0.270   0.269
   36       -0.000  -0.000   0.186   0.185
   37       -0.000  -0.000   0.201   0.200
   38       -0.001  -0.001   0.277   0.275
   39        0.004   0.008   0.000   0.013
   40        0.004   0.013   0.000   0.017
   41        0.004   0.013   0.000   0.017
   42        0.004   0.008   0.000   0.013
   43        0.010   0.067   0.000   0.077
   44        0.010   0.067   0.000   0.077
   45        0.009   0.073   0.000   0.082
   46        0.009   0.074   0.000   0.084
   47        0.009   0.074   0.000   0.084
   48        0.009   0.073   0.000   0.082
   49        0.005   0.020   0.000   0.025
   50        0.005   0.020   0.000   0.025
   51        0.004   0.010   0.000   0.014
   52        0.003   0.006   0.000   0.010
   53        0.003   0.006   0.000   0.010
   54        0.004   0.010   0.000   0.014
   55        0.004   0.005   0.000   0.009
   56        0.004   0.005   0.000   0.009
   57        0.011   0.069   0.000   0.080
   58        0.008   0.050   0.000   0.058
   59        0.010   0.077   0.000   0.087
   60        0.011   0.088   0.000   0.099
[...]
   78        0.005   0.015   0.000   0.021
   79        0.004   0.012   0.000   0.016
   80        0.004   0.016   0.000   0.021
   81        0.008   0.056   0.000   0.064
   82        0.003   0.005   0.000   0.008
   83        0.008   0.062   0.000   0.071
   84        0.004   0.007   0.000   0.011
   85        0.007   0.049   0.000   0.056
   86        0.010   0.084   0.000   0.094
   87        0.011   0.088   0.000   0.099
   88        0.010   0.077   0.000   0.087
   89        0.008   0.050   0.000   0.058
   90        0.011   0.069   0.000   0.080
   91        0.005   0.016   0.000   0.021
   92        0.004   0.012   0.000   0.016
tot           0.38    1.95    7.77   10.10