 vasp.5.4.4.18Apr17-6-g9f103f2a35 (build May 12 2020 05:39:39) gamma-only

 MD_VERSION_INFO: Compiled 2020-05-12T12:39:39-UTC in devlin.sd.materialsdesign.
 com:/home/medea2/data/build/wwolf/vasp-gpu5.4.4/13047/x86_64/src/src/build/gam
 from svn 13047

 executed on                        Lin64 date 2023.01.20  01:08:16

 INCAR:
 POTCAR:    PAW_PBE Li_sv 10Sep2004
 POTCAR:    PAW_PBE Ni 02Aug2007
 POTCAR:    PAW_PBE O 08Apr2002

 POTCAR:    PAW_PBE Li_sv 10Sep2004

 POTCAR:    PAW_PBE Ni 02Aug2007

 POTCAR:    PAW_PBE O 08Apr2002

 Optimization of the real space projectors (new method)

 maximal supplied QI-value         = 22.11
 optimisation between [QCUT,QGAM] = [ 11.28, 22.77] = [ 35.61,145.23] Ry
 Optimized for a Real-space Cutoff    1.10 Angstroem

   l    n(q)    QCUT    max X(q) W(low)/X(q) W(high)/X(q)  e(spline)
   0      7    11.276    10.506    0.54E-04    0.58E-04    0.16E-07
   0      7    11.276     8.367    0.11E-03    0.14E-03    0.35E-07
   1      7    11.276     8.983    0.23E-03    0.43E-03    0.86E-07
 Optimization of the real space projectors (new method)

[...]

   l    n(q)    QCUT    max X(q) W(low)/X(q) W(high)/X(q)  e(spline)
   2      9    11.376    60.317    0.17E-03    0.16E-04    0.16E-06
   2      9    11.376    55.921    0.17E-03    0.16E-04    0.17E-06
   0     10    11.376    51.690    0.45E-04    0.60E-04    0.21E-06
   0     10    11.376    30.015    0.37E-04    0.55E-04    0.19E-06
   1     10    11.376    18.849    0.83E-04    0.11E-03    0.92E-07
   1     10    11.376    14.624    0.69E-04    0.92E-04    0.82E-07
 Optimization of the real space projectors (new method)

 maximal supplied QI-value         = 24.76
 optimisation between [QCUT,QGAM] = [ 11.39, 22.77] = [ 36.31,145.25] Ry
 Optimized for a Real-space Cutoff    1.10 Angstroem

   l    n(q)    QCUT    max X(q) W(low)/X(q) W(high)/X(q)  e(spline)
   0      7    11.387    20.381    0.22E-03    0.48E-03    0.18E-06
   0      7    11.387    15.268    0.22E-03    0.52E-03    0.19E-06
   1      7    11.387     5.964    0.22E-03    0.73E-03    0.24E-06
   1      7    11.387     5.382    0.19E-03    0.60E-03    0.21E-06

  PAW_PBE Li_sv 10Sep2004               :
  PAW_PBE Ni 02Aug2007                  :
  PAW_PBE O 08Apr2002                   :

 POSCAR: ce224493_1
  positions in direct lattice
 exchange correlation table for  LEXCH =       14
   RHO(1)=    0.500       N(1)  =     2000
   RHO(2)=  100.500       N(2)  =     4000

 ion  position               nearest neighbor table
   1  0.999  0.501  0.000-  93 2.09  44 2.10  92 2.11  45 2.12  57 2.12  80 2.13
   2  0.088  0.833  0.220-  58 2.01  59 2.01  41 2.13  64 2.17  46 2.24  65 2.25  22 2.80  23 2.83

   3  0.223  0.166  0.112-  48 2.09  43 2.11  49 2.11  42 2.11  66 2.12  79 2.13
   4  0.333  0.500  0.975-  86 2.01  81 2.01  80 2.11  51 2.11  45 2.26  50 2.27  34 2.79  36 2.79

[...]

  12  0.640  0.500  0.666-  87 1.99  68 2.01  69 2.13  92 2.13  74 2.27  37 2.78  27 2.78
  13  0.867  0.166  0.758-  90 1.98  73 2.02  91 2.13  78 2.16  79 2.24  42 2.25  38 2.80  30 2.81

  14  0.001  0.998  0.001-  58 1.86  91 1.87  79 1.87  46 1.91  94 1.94  43 1.96  17 2.79  20 2.80
                            23 2.82  32 2.83  26 2.83  38 2.84
  15  0.110  0.333  0.222-  63 1.87  66 1.87  57 1.87  60 1.88  42 1.91  45 1.92  39 2.79  18 2.80
                            21 2.81  33 2.82  27 2.82  24 2.82
  16  0.224  0.666  0.112-  80 1.87  65 1.87  41 1.88  50 1.91  47 1.92  44 1.93  28 2.79  34 2.81
                            25 2.81  19 2.82  40 2.83  22 2.84
  17  0.330  1.000  0.999-  82 1.86  49 1.88  85 1.88  52 1.88  79 1.91  46 1.92  14 2.79  32 2.79
                            35 2.81  26 2.82  29 2.83  20 2.85
  18  0.443  0.334  0.224-  72 1.87  51 1.88  48 1.88  66 1.90  69 1.91  45 1.91  27 2.78  15 2.80
                            33 2.81  30 2.83  21 2.83  36 2.85
  19  0.559  0.668  0.113-  47 1.87  53 1.87  86 1.88  50 1.88  56 1.89  71 1.91  22 2.78  31 2.79
                            28 2.81  16 2.82  37 2.82  34 2.84
  20  0.669  0.999  0.000-  88 1.87  55 1.87  85 1.89  58 1.90  91 1.91  52 1.93  14 2.80  23 2.81
                            38 2.81  29 2.81   6 2.82  35 2.82  17 2.85
  21  0.776  0.334  0.220-  54 1.87  72 1.87  75 1.88  57 1.90  60 1.92  51 1.93   6 2.78  39 2.79
                            36 2.81  15 2.81  30 2.82  24 2.83  18 2.83
  22  0.886  0.666  0.109-  44 1.88  41 1.88  59 1.89  53 1.89  56 1.91  92 1.92  19 2.78  37 2.79
                             2 2.80  40 2.82  31 2.83  16 2.84  25 2.84
  23  0.999  0.002  0.334-  61 1.87  58 1.87  64 1.89  55 1.90  76 1.91  43 1.92  20 2.81  29 2.81
                            32 2.81  14 2.82  35 2.82   2 2.83  26 2.84
  24  0.109  0.334  0.555-  63 1.87  84 1.87  60 1.88  78 1.90  81 1.90  75 1.92  30 2.77   7 2.79
                             8 2.80  33 2.81  36 2.82  15 2.82  21 2.83  27 2.84
  25  0.223  0.668  0.445-  62 1.87  59 1.88  68 1.90  65 1.91  83 1.92  44 1.95   7 2.79  28 2.79
                            16 2.81  37 2.82  31 2.83  34 2.83  22 2.84
  26  0.337  0.000  0.336-  67 1.87  43 1.87  46 1.88  64 1.88  70 1.89  49 1.92  38 2.78  29 2.80
                            35 2.82  17 2.82  14 2.83  23 2.84
  27  0.445  0.332  0.554-  87 1.86  84 1.87  66 1.90  69 1.92  90 1.94  63 1.96  18 2.78  12 2.78
                            15 2.82  30 2.83  36 2.83  39 2.84  24 2.84
  28  0.553  0.667  0.443-  89 1.87  68 1.87  74 1.88  71 1.88  65 1.90  50 1.91  16 2.79  25 2.79
                            19 2.81  37 2.82  31 2.82  40 2.84
  29  0.666  0.002  0.332-  55 1.86  76 1.87  70 1.88  49 1.91  73 1.92  52 1.93  26 2.80  23 2.81
                            20 2.81  38 2.82  17 2.83  32 2.83
  30  0.781  0.333  0.556-  78 1.86  90 1.87  69 1.87  75 1.91  72 1.94  93 1.96  24 2.77  33 2.81
                            13 2.81  21 2.82  27 2.83  18 2.83  39 2.84
  31  0.887  0.669  0.444-  77 1.87  62 1.87  56 1.88  59 1.91  71 1.91  74 1.92  19 2.79  40 2.80
                            28 2.82  34 2.82  22 2.83  25 2.83
  32  0.001  0.001  0.667-  94 1.87  76 1.87  73 1.88  61 1.89  82 1.90  79 1.91  17 2.79  35 2.80
                            23 2.81  10 2.82  14 2.83  29 2.83  38 2.83
  33  0.112  0.332  0.889-  78 1.87  81 1.87  45 1.88  42 1.88  48 1.90  93 1.90  30 2.81  36 2.81
                            24 2.81  39 2.81  18 2.81  15 2.82
  34  0.222  0.667  0.779-  83 1.86  86 1.89  80 1.90  77 1.91  62 1.92  47 1.94   4 2.79  40 2.79
                            16 2.81  31 2.82  37 2.83  25 2.83  19 2.84
  35  0.334  1.000  0.667-  67 1.88  82 1.88  88 1.88  61 1.88  85 1.91  64 1.91   8 2.78  11 2.79
                            32 2.80  38 2.80  17 2.81  26 2.82  23 2.82  20 2.82
  36  0.444  0.332  0.888-  54 1.86  81 1.86  84 1.92  87 1.94  51 1.95  48 1.95   4 2.79  21 2.81
                            33 2.81  24 2.82  39 2.82  27 2.83  18 2.85
  37  0.556  0.666  0.778-  83 1.87  68 1.87  53 1.88  86 1.91  89 1.91  92 1.91  12 2.78  22 2.79
                            11 2.79  25 2.82  28 2.82  40 2.82  19 2.82  34 2.83
  38  0.665  0.999  0.666-  94 1.87  91 1.88  73 1.88  67 1.90  88 1.90  70 1.91  26 2.78  13 2.80
                            35 2.80  20 2.81  29 2.82  32 2.83  14 2.84
  39  0.780  0.331  0.891-  90 1.87  87 1.87  93 1.88  54 1.89  42 1.91  57 1.91  21 2.79  15 2.79
                            33 2.81  36 2.82  27 2.84  30 2.84
  40  0.890  0.666  0.777-  77 1.86  92 1.87  89 1.89  41 1.92  80 1.93  74 1.94  34 2.79  10 2.80
                            31 2.80  37 2.82  22 2.82  16 2.83  28 2.84
  41  0.003  0.733  0.005-  16 1.88  22 1.88  40 1.92   2 2.13
  42  0.004  0.263  0.000-  33 1.88  15 1.91  39 1.91   3 2.11  13 2.25
  43  0.121  0.071  0.229-  26 1.87  23 1.92  14 1.96   3 2.11   8 2.22
  44  0.103  0.596  0.218-  22 1.88  16 1.93  25 1.95   1 2.10   7 2.12
  45  0.219  0.403  0.107-  33 1.88  18 1.91  15 1.92   1 2.12   4 2.26
  46  0.226  0.930  0.118-  26 1.88  14 1.91  17 1.92   5 2.10   2 2.24
  47  0.342  0.737  0.007-  19 1.87  16 1.92  34 1.94   5 2.09  11 2.24
  48  0.333  0.263  0.008-  18 1.88  33 1.90  36 1.95   3 2.09   6 2.26
  49  0.442  0.070  0.216-  17 1.88  29 1.91  26 1.92   3 2.11   6 2.24
  50  0.449  0.597  0.221-  19 1.88  28 1.91  16 1.91   9 2.11   4 2.27
  51  0.551  0.404  0.115-  18 1.88  21 1.93  36 1.95   9 2.10   4 2.11
  52  0.549  0.930  0.109-  17 1.88  29 1.93  20 1.93   5 2.10  11 2.25
  53  0.664  0.734  0.998-  19 1.87  37 1.88  22 1.89  11 2.14
  54  0.664  0.266  0.001-  36 1.86  21 1.87  39 1.89   6 2.01
  55  0.773  0.067  0.218-  29 1.86  20 1.87  23 1.90   6 2.01
  56  0.779  0.598  0.228-  31 1.88  19 1.89  22 1.91   9 2.12   7 2.25
  57  0.893  0.403  0.113-  15 1.87  21 1.90  39 1.91   1 2.12   7 2.28
  58  0.895  0.933  0.115-  14 1.86  23 1.87  20 1.90   2 2.01
  59  0.001  0.734  0.330-  25 1.88  22 1.89  31 1.91   2 2.01
  60  0.002  0.266  0.335-  15 1.88  24 1.88  21 1.92   8 2.16
  61  0.113  0.068  0.554-  23 1.87  35 1.88  32 1.89   8 2.01
  62  0.107  0.601  0.550-  31 1.87  25 1.87  34 1.92   7 2.00
  63  0.213  0.401  0.440-  15 1.87  24 1.87  27 1.96   7 2.00
  64  0.221  0.933  0.441-  26 1.88  23 1.89  35 1.91   2 2.17
  65  0.331  0.736  0.328-  16 1.87  28 1.90  25 1.91   5 2.13   2 2.25
  66  0.328  0.264  0.331-  15 1.87  27 1.90  18 1.90   3 2.12   8 2.25
  67  0.442  0.067  0.555-  26 1.87  35 1.88  38 1.90   8 2.14
  68  0.447  0.600  0.557-  28 1.87  37 1.87  25 1.90  12 2.01
  69  0.563  0.402  0.448-  30 1.87  18 1.91  27 1.92   9 2.11  12 2.13
  70  0.557  0.931  0.440-  29 1.88  26 1.89  38 1.91   5 2.11  10 2.24
  71  0.663  0.738  0.336-  28 1.88  19 1.91  31 1.91   5 2.11  10 2.23
  72  0.663  0.267  0.325-  21 1.87  18 1.87  30 1.94   6 2.11
  73  0.779  0.068  0.560-  32 1.88  38 1.88  29 1.92  13 2.02
  74  0.770  0.597  0.549-  28 1.88  31 1.92  40 1.94   9 2.10  12 2.27
  75  0.886  0.404  0.437-  21 1.88  30 1.91  24 1.92   9 2.11   7 2.12
  76  0.886  0.935  0.446-  29 1.87  32 1.87  23 1.91  10 2.16
  77  0.995  0.734  0.665-  40 1.86  31 1.87  34 1.91  10 2.02
  78  0.999  0.266  0.669-  30 1.86  33 1.87  24 1.90  13 2.16
  79  0.107  0.069  0.891-  14 1.87  17 1.91  32 1.91   3 2.13  13 2.24
  80  0.117  0.597  0.896-  16 1.87  34 1.90  40 1.93   4 2.11   1 2.13
  81  0.225  0.399  0.782-  36 1.86  33 1.87  24 1.90   4 2.01
  82  0.225  0.933  0.780-  17 1.86  35 1.88  32 1.90  11 2.16
  83  0.336  0.734  0.673-  34 1.86  37 1.87  25 1.92  11 2.01
  84  0.329  0.266  0.659-  27 1.87  24 1.87  36 1.92   8 1.99
  85  0.447  0.067  0.893-  17 1.88  20 1.89  35 1.91   6 2.16
  86  0.444  0.600  0.893-  19 1.88  34 1.89  37 1.91   4 2.01
  87  0.560  0.399  0.772-  27 1.86  39 1.87  36 1.94  12 1.99
  88  0.554  0.932  0.781-  20 1.87  35 1.88  38 1.90  11 2.01
  89  0.667  0.734  0.663-  28 1.87  40 1.89  37 1.91  10 2.14
  90  0.677  0.265  0.671-  30 1.87  39 1.87  27 1.94  13 1.98
  91  0.782  0.065  0.886-  14 1.87  38 1.88  20 1.91  13 2.13
  92  0.780  0.597  0.884-  40 1.87  37 1.91  22 1.92   1 2.11  12 2.13
  93  0.891  0.403  0.787-  39 1.88  33 1.90  30 1.96   1 2.09
[...]
   0.303E+02 -.576E+01 0.359E+03   -.328E+02 0.681E+01 -.380E+03   0.256E+01 -.106E+01 0.214E+02   -.129E-01 0.110E-01 0.233E-01
   0.508E+01 -.370E+02 -.341E+03   -.576E+01 0.403E+02 0.362E+03   0.658E+00 -.328E+01 -.211E+02   0.266E-01 -.156E-01 0.295E-01
   0.276E+02 0.975E+00 0.314E+03   -.298E+02 -.815E+00 -.333E+03   0.215E+01 -.173E+00 0.188E+02   0.321E-02 0.164E-01 -.233E-01
   -.820E+01 0.434E+02 -.314E+03   0.882E+01 -.461E+02 0.333E+03   -.610E+00 0.268E+01 -.191E+02   -.952E-02 0.211E-01 -.297E-01
   -.524E+01 0.384E+02 0.339E+03   0.600E+01 -.417E+02 -.360E+03   -.747E+00 0.325E+01 0.208E+02   -.340E-02 0.221E-02 -.184E-02
   -.374E+02 0.112E+02 -.366E+03   0.407E+02 -.132E+02 0.384E+03   -.331E+01 0.194E+01 -.178E+02   0.289E-02 -.144E-01 -.261E-01
   -.178E+02 0.436E+02 0.371E+03   0.181E+02 -.475E+02 -.391E+03   -.272E+00 0.388E+01 0.195E+02   -.944E-02 0.179E-01 0.422E-01
[...]
   0.502E+02 0.922E+01 -.330E+03   -.534E+02 -.109E+02 0.351E+03   0.319E+01 0.168E+01 -.204E+02   0.404E-02 -.202E-01 -.326E-01
   0.150E+02 0.389E+02 0.349E+03   -.150E+02 -.417E+02 -.371E+03   -.789E-01 0.280E+01 0.224E+02   0.262E-01 -.223E-02 -.591E-02
   0.368E+02 0.255E+02 -.353E+03   -.409E+02 -.280E+02 0.371E+03   0.409E+01 0.255E+01 -.186E+02   -.234E-02 -.930E-02 -.133E-01
   -.409E+02 -.274E+02 0.351E+03   0.447E+02 0.299E+02 -.370E+03   -.388E+01 -.251E+01 0.190E+02   -.154E-01 -.834E-02 0.428E-01
   0.453E+02 0.815E+01 -.356E+03   -.486E+02 -.974E+01 0.376E+03   0.318E+01 0.160E+01 -.197E+02   0.325E-01 0.430E-03 0.469E-01
   0.487E+02 -.629E+01 0.337E+03   -.515E+02 0.766E+01 -.355E+03   0.279E+01 -.136E+01 0.176E+02   -.130E-02 0.134E-02 -.416E-01
   -.370E+02 0.350E+02 -.322E+03   0.407E+02 -.372E+02 0.340E+03   -.366E+01 0.222E+01 -.180E+02   -.164E-01 0.902E-03 -.276E-01
   0.287E+02 -.170E+02 0.341E+03   -.311E+02 0.185E+02 -.362E+03   0.237E+01 -.159E+01 0.209E+02   0.147E-01 0.816E-02 -.206E-01
   -.431E+02 0.117E+02 -.371E+03   0.459E+02 -.127E+02 0.391E+03   -.279E+01 0.106E+01 -.199E+02   -.763E-02 -.951E-02 -.697E-02
   -.926E+00 0.520E+02 0.364E+03   0.899E+00 -.569E+02 -.382E+03   0.210E-01 0.497E+01 0.179E+02   0.849E-02 -.635E-03 0.373E-01
   -.296E+02 0.227E+02 -.340E+03   0.316E+02 -.236E+02 0.360E+03   -.205E+01 0.847E+00 -.204E+02   0.120E-01 0.257E-01 0.537E-01
   -.273E+02 0.279E+02 0.308E+03   0.296E+02 -.290E+02 -.326E+03   -.232E+01 0.106E+01 0.179E+02   0.178E-01 0.268E-02 -.454E-01
   0.428E+02 0.269E+01 -.320E+03   -.465E+02 -.320E+01 0.337E+03   0.371E+01 0.499E+00 -.169E+02   0.101E-01 0.162E-01 -.390E-01
   -.411E+02 -.215E+02 0.350E+03   0.462E+02 0.242E+02 -.368E+03   -.512E+01 -.275E+01 0.185E+02   0.321E-02 0.204E-01 -.444E-02
   -.141E+00 0.192E+00 -.840E+00   -.256E-12 0.462E-13 0.114E-12   0.154E+00 -.182E+00 0.886E+00   0.194E-02 -.265E-02 -.202E-01

 POSITION                                       TOTAL-FORCE (eV/Angst)
     -4.19090      7.28693      7.17670        -0.000213     -0.000260     -0.002144
      1.50394      0.63249     11.96450         0.001813     -0.013214      0.000271
      0.01910      1.63577      2.38569         0.005257      0.005291     -0.001657
      6.81763      2.46426      7.18045        -0.023264      0.007086     -0.001129
      0.00789      3.24024     11.97165        -0.000303     -0.002839      0.000256
     -1.48386      4.21868      2.39951        -0.002769      0.003664      0.001311
      2.94855      0.20052      7.20261         0.010459      0.019637      0.003139
      3.00955      1.62535      2.39697        -0.002082     -0.013122      0.001417
      0.01999      4.85893      7.17122        -0.001513     -0.000969      0.000195
      1.51484      5.84613     11.96243        -0.011073      0.011245     -0.002756
      5.48247      3.26684     11.96958         0.005885      0.003643      0.003160
      2.94348      4.67394      7.18082         0.001160     -0.011901      0.002300
      2.76264      6.34258      2.38084         0.004232     -0.000251      0.003306
      0.02446      0.00499     14.33003         0.000397     -0.001459     -0.001695
      1.40362      0.80926      4.78417        -0.001195      0.001013      0.000687
      0.01722      1.63350      9.55320        -0.000822     -0.000218     -0.003076
      7.06410      2.43002     14.36418        -0.001066      0.001483     -0.000626
      0.04114      3.23087      4.80572        -0.000397     -0.000542      0.002649
     -1.37307      4.08551      9.57873         0.002039      0.001912     -0.000944
     -2.79285      4.87177     14.33337         0.000443     -0.002353     -0.001424
     -1.40558      5.66985      4.80039         0.000595     -0.001193      0.003576
     -2.79823      6.46003      9.55191        -0.001065      0.000808     -0.003485
     -1.38028      7.29874      0.02414        -0.000620     -0.002481      0.001984
      4.23784      0.81364      4.80164        -0.000900     -0.000412      0.001946
      2.82042      1.63904      9.59323         0.002099     -0.000193      0.001439
      1.42073      2.46116      0.00565        -0.003181      0.000587     -0.000239
      2.80947      3.26101      4.77532        -0.000926     -0.000306     -0.000284
      1.43181      4.03952      9.57774         0.001547     -0.001673     -0.001902
      0.00267      4.86534      0.02711         0.000722      0.001176      0.002122
      1.41543      5.70829      4.79125        -0.001102      0.001434      0.003514
      0.03307      6.48613      9.60103         0.001491      0.000186     -0.002152
      5.62996      0.03190      0.02458         0.002806      0.001603      0.001790
      7.04730      0.83527      4.78684        -0.000588     -0.000133      0.002322
      5.65930      1.62993      9.58834         0.001398      0.001742     -0.000057
      4.24922      2.45016     14.36212         0.001071      0.000181     -0.001043
      5.63838      3.25744      4.78435        -0.002122     -0.000090      0.001258
      4.24761      4.07906      9.56858         0.004032     -0.002487     -0.000438
      2.84159      4.86673     14.33672         0.000493     -0.001654     -0.002629
      4.26063      5.70939      4.76138        -0.000549      0.000446      0.001971
      2.83547      6.50953      9.55910        -0.001672      0.001414     -0.004985
      0.03993      0.01899     10.51275        -0.001572      0.001415     -0.006326
     -0.01937      0.02833      3.77453         0.000065     -0.000302      0.002276
      1.46279      0.89883      1.02505         0.004299     -0.001020      0.006930
      1.40361      0.73759      8.54883        -0.011251     -0.000316     -0.005868
     -0.02085      1.59046      5.79060        -0.002622     -0.002617      0.001267
      0.07378      1.65034     13.36123        -0.000148     -0.003322      0.002396
     -1.36011      2.50078     10.57043         0.008053     -0.000070     -0.005500
     -1.31646      2.44059      3.78868        -0.004059     -0.002994      0.007210
     -0.03471      3.21073      0.99790        -0.002358      0.003839     -0.003253
     -0.00581      3.28490      8.57472         0.006215      0.001160     -0.003090
     -1.32418      3.99373      5.81586        -0.001952      0.003144      0.006085
     -1.41596      3.97393     13.34267        -0.010721     -0.003351     -0.004614
      5.65186      4.86635     10.52840         0.004022      0.005089     -0.005285
     -2.76595      4.83517      3.83785         0.000910      0.000732      0.005097
     -1.40423      5.63384      0.95352         0.001586     -0.000221     -0.000306
     -1.33128      5.69973      8.58475         0.002240      0.002583     -0.004683
     -2.80506      6.52427      5.77023        -0.001731      0.001366      0.001142
     -2.77024      6.53406     13.40443         0.002179     -0.003686      0.000396
      2.75868      0.02176     10.53373        -0.003333     -0.001426     -0.005472
      2.82064      0.05065      3.83253        -0.000056     -0.002801      0.004098
[...]
      7.08819      0.87881      8.58032        -0.004117      0.002215     -0.005973
      5.66885      1.66276      5.73893        -0.005539     -0.000379      0.001957
      5.65630      1.66475     13.41157        -0.000877     -0.001359      0.001652
      4.30228      2.47729     10.53080         0.010186      0.005200      0.001890
      4.16868      2.41243      3.83872        -0.005051     -0.000697     -0.000332
      5.69150      3.29402      0.96816         0.005992      0.005941      0.000096
      5.70442      3.25305      8.62726        -0.000267      0.005513      0.000938
      4.17107      4.10787      5.72398        -0.000176     -0.001625      0.000514
      4.27603      4.05913     13.39470         0.000160     -0.004047     -0.003136
      2.79497      4.89523     10.52858         0.006194     -0.005915     -0.002985
      2.83011      4.97200      3.81598         0.001935     -0.004136      0.003202
      4.20187      5.71307      0.92711         0.005365     -0.002318     -0.003950
      4.19660      5.70781      8.56553         0.001490     -0.005513     -0.006251
      2.91088      6.51298      5.78480         0.001609      0.003987      0.000786
      2.76245      6.46876     13.38089        -0.001772     -0.001265     -0.006346
    total drift:                                0.015072      0.007117      0.025427

  FREE ENERGIE OF THE ION-ELECTRON SYSTEM (eV)
  free  energy   TOTEN  =      -576.6859767504 eV

  energy  without entropy=     -576.6327353479  energy(sigma->0) =     -576.65935605

 d Force = 0.4579663E-04[ 0.339E-04, 0.577E-04]  d Energy = 0.3219144E-04 0.136E-04
 d Force = 0.1582210E+00[ 0.158E+00, 0.159E+00]  d Ewald  =-0.1524579E+00 0.311E+00

 Quasi-Newton relaxation of ions (Broydens 2nd method)
  g(Force)  = 0.228E-03   g(Stress)= 0.979E-04

 retain information from N=  3 steps
 eigenvalues of (default step * inverse Hessian matrix)
  average eigenvalue of G=   4.4156
 eigenvalue spectrum of G is  0.0563  6.5952  6.5952

volume of typ            1:    11.4 %

[...]

volume of typ            3:     9.9 %

total charge

# of ion       s       p       d       tot
    1        2.075   0.242   0.092   2.410
    2        2.070   0.233   0.088   2.391
    3        2.072   0.235   0.089   2.396
    4        2.076   0.245   0.093   2.414
    5        2.072   0.235   0.089   2.396
    6        2.069   0.227   0.086   2.382
    7        2.076   0.247   0.093   2.416
    8        2.071   0.234   0.088   2.393
    9        2.074   0.240   0.091   2.404
   10        2.071   0.234   0.089   2.395
   11        2.069   0.227   0.086   2.382
   12        2.074   0.241   0.091   2.406
   13        2.073   0.239   0.090   2.402
   14        0.276   0.368   7.849   8.493
   15        0.292   0.404   7.840   8.536
   16        0.283   0.386   7.843   8.512
   17        0.292   0.404   7.837   8.533
   18        0.288   0.395   7.840   8.523
   19        0.290   0.400   7.842   8.532
   20        0.284   0.387   7.832   8.504
   21        0.281   0.379   7.843   8.502
   22        0.286   0.391   7.839   8.515
   23        0.285   0.390   7.831   8.506
   24        0.285   0.388   7.835   8.508
   25        0.274   0.366   7.843   8.483
   26        0.293   0.405   7.837   8.535
   27        0.275   0.366   7.842   8.483
   28        0.292   0.404   7.840   8.536
   29        0.276   0.369   7.847   8.491
   30        0.279   0.374   7.844   8.497
   31        0.281   0.380   7.842   8.503
   32        0.288   0.395   7.831   8.515
   33        0.291   0.401   7.838   8.530
   34        0.275   0.366   7.841   8.482
   35        0.284   0.386   7.840   8.510
   36        0.269   0.356   7.846   8.471
   37        0.283   0.383   7.837   8.503
   38        0.288   0.394   7.832   8.514
   39        0.287   0.393   7.836   8.516
   40        0.281   0.379   7.843   8.503
   41        1.277   2.745   0.007   4.029
   42        1.267   2.768   0.007   4.042
   43        1.271   2.760   0.006   4.037
   44        1.269   2.766   0.006   4.041
   45        1.268   2.767   0.007   4.042
   46        1.266   2.771   0.006   4.044
   47        1.271   2.762   0.006   4.039
   48        1.270   2.763   0.006   4.039
   49        1.266   2.771   0.006   4.044
   50        1.268   2.769   0.007   4.043
   51        1.268   2.769   0.006   4.042
   52        1.271   2.761   0.006   4.038
   53        1.273   2.757   0.007   4.037
   54        1.269   2.769   0.008   4.045
   55        1.270   2.765   0.007   4.042
   56        1.266   2.772   0.007   4.045
   57        1.267   2.771   0.007   4.045
   58        1.270   2.768   0.007   4.045
   59        1.275   2.756   0.007   4.037
   60        1.278   2.743   0.007   4.028
[...]
   80        1.264   2.778   0.007   4.048
   81        1.269   2.768   0.007   4.044
   82        1.273   2.755   0.007   4.035
   83        1.274   2.756   0.007   4.036
   84        1.273   2.758   0.007   4.038
   85        1.278   2.741   0.007   4.026
   86        1.274   2.757   0.007   4.038
   87        1.272   2.762   0.007   4.041
   88        1.271   2.762   0.007   4.040
   89        1.277   2.745   0.007   4.029
   90        1.274   2.756   0.007   4.037
   91        1.275   2.750   0.007   4.033
   92        1.264   2.777   0.006   4.048
   93        1.272   2.758   0.006   4.036
   94        1.275   2.753   0.007   4.035
tot         103.22  162.63  213.20  479.06

magnetization (x)

# of ion       s       p       d       tot
    1        0.006   0.010   0.000   0.017
    2        0.006   0.012   0.001   0.019
    3        0.005   0.009   0.000   0.015
    4        0.006   0.011   0.001   0.017
    5        0.006   0.009   0.001   0.015
    6        0.006   0.009   0.000   0.015
    7        0.007   0.013   0.001   0.021
    8        0.006   0.012   0.001   0.018
    9        0.006   0.010   0.001   0.017
   10        0.006   0.012   0.001   0.019
   11        0.006   0.010   0.001   0.016
   12        0.006   0.011   0.001   0.018
   13        0.006   0.013   0.001   0.021
   14        0.001  -0.000   0.599   0.599
   15       -0.000  -0.000   0.231   0.230
   16       -0.000  -0.001   0.351   0.350
   17       -0.001  -0.001   0.195   0.194
   18       -0.001  -0.001   0.257   0.255
   19       -0.000  -0.001   0.251   0.250
   20       -0.001  -0.001   0.270   0.269
   21       -0.000  -0.001   0.405   0.404
   22       -0.001  -0.001   0.284   0.283
   23       -0.001  -0.001   0.242   0.241
   24       -0.001  -0.001   0.256   0.255
   25       -0.000  -0.001   0.506   0.506
   26       -0.001  -0.000   0.185   0.184
   27       -0.000  -0.001   0.513   0.512
   28       -0.001  -0.000   0.212   0.211
   29        0.000  -0.000   0.566   0.566
   30        0.000  -0.001   0.454   0.454
   31       -0.000  -0.001   0.400   0.399
   32       -0.001  -0.001   0.200   0.199
   33       -0.000  -0.000   0.225   0.224
   34       -0.000  -0.001   0.489   0.488
   35        0.000  -0.000   0.369   0.368
   36       -0.000  -0.001   0.620   0.619
   37       -0.001  -0.001   0.319   0.318
   38       -0.001  -0.001   0.204   0.203
   39       -0.001  -0.000   0.235   0.234
   40       -0.000  -0.001   0.396   0.395
   41        0.010   0.071   0.000   0.081
   42        0.004   0.004   0.000   0.008
   43        0.011   0.082   0.000   0.093
   44        0.010   0.072   0.000   0.083
   45        0.004   0.004   0.000   0.008
   46        0.005   0.016   0.000   0.021
   47        0.011   0.076   0.000   0.088
   48        0.010   0.063   0.000   0.073
   49        0.005   0.018   0.000   0.023
   50        0.005   0.014   0.000   0.019
   51        0.012   0.092   0.000   0.104
   52        0.011   0.083   0.000   0.095
   53        0.004   0.005   0.000   0.009
   54        0.004  -0.001   0.000   0.003
   55        0.004   0.005   0.000   0.009
   56        0.004   0.008   0.000   0.013
   57        0.004   0.006   0.000   0.011
   58        0.004   0.012   0.000   0.017
   59        0.011   0.082   0.000   0.094
   60        0.010   0.075   0.000   0.085
[...]
   80        0.005   0.010   0.000   0.015
   81        0.004   0.011   0.000   0.015
   82        0.003   0.007   0.000   0.010
   83        0.010   0.065   0.000   0.075
   84        0.009   0.062   0.000   0.071
   85        0.009   0.070   0.000   0.079
   86        0.011   0.079   0.000   0.090
   87        0.010   0.077   0.000   0.087
   88        0.004   0.011   0.000   0.014
   89        0.009   0.071   0.000   0.080
   90        0.011   0.094   0.000   0.105
   91        0.008   0.058   0.000   0.065
   92        0.004   0.009   0.000   0.013
   93        0.010   0.061   0.000   0.071
   94        0.010   0.084   0.000   0.095
tot           0.45    2.31    9.25   12.01