 vasp.5.4.4.18Apr17-6-g9f103f2a35 (build May 12 2020 05:39:39) gamma-only

 MD_VERSION_INFO: Compiled 2020-05-12T12:39:39-UTC in devlin.sd.materialsdesign.
 com:/home/medea2/data/build/wwolf/vasp-gpu5.4.4/13047/x86_64/src/src/build/gam
 from svn 13047

 executed on                        Lin64 date 2023.01.20  07:30:30

 INCAR:
 POTCAR:    PAW_PBE Li_sv 10Sep2004
 POTCAR:    PAW_PBE Ni 02Aug2007
 POTCAR:    PAW_PBE O 08Apr2002

 POTCAR:    PAW_PBE Li_sv 10Sep2004

 POTCAR:    PAW_PBE Ni 02Aug2007

 POTCAR:    PAW_PBE O 08Apr2002

 Optimization of the real space projectors (new method)

 maximal supplied QI-value         = 22.11
 optimisation between [QCUT,QGAM] = [ 11.28, 22.77] = [ 35.61,145.23] Ry
 Optimized for a Real-space Cutoff    1.10 Angstroem

   l    n(q)    QCUT    max X(q) W(low)/X(q) W(high)/X(q)  e(spline)
   0      7    11.276    10.506    0.54E-04    0.58E-04    0.16E-07
   0      7    11.276     8.367    0.11E-03    0.14E-03    0.35E-07
   1      7    11.276     8.983    0.23E-03    0.43E-03    0.86E-07
 Optimization of the real space projectors (new method)

[...]

   l    n(q)    QCUT    max X(q) W(low)/X(q) W(high)/X(q)  e(spline)
   2      9    11.376    60.317    0.17E-03    0.16E-04    0.16E-06
   2      9    11.376    55.921    0.17E-03    0.16E-04    0.17E-06
   0     10    11.376    51.690    0.45E-04    0.60E-04    0.21E-06
   0     10    11.376    30.015    0.37E-04    0.55E-04    0.19E-06
   1     10    11.376    18.849    0.83E-04    0.11E-03    0.92E-07
   1     10    11.376    14.624    0.69E-04    0.92E-04    0.82E-07
 Optimization of the real space projectors (new method)

 maximal supplied QI-value         = 24.76
 optimisation between [QCUT,QGAM] = [ 11.39, 22.77] = [ 36.31,145.25] Ry
 Optimized for a Real-space Cutoff    1.10 Angstroem

   l    n(q)    QCUT    max X(q) W(low)/X(q) W(high)/X(q)  e(spline)
   0      7    11.387    20.381    0.22E-03    0.48E-03    0.18E-06
   0      7    11.387    15.268    0.22E-03    0.52E-03    0.19E-06
   1      7    11.387     5.964    0.22E-03    0.73E-03    0.24E-06
   1      7    11.387     5.382    0.19E-03    0.60E-03    0.21E-06

  PAW_PBE Li_sv 10Sep2004               :
  PAW_PBE Ni 02Aug2007                  :
  PAW_PBE O 08Apr2002                   :

 POSCAR: ce425732_1
  positions in direct lattice
 exchange correlation table for  LEXCH =       14
   RHO(1)=    0.500       N(1)  =     2000
   RHO(2)=  100.500       N(2)  =     4000

 ion  position               nearest neighbor table
   1  0.998  0.500  0.996-  83 2.08  70 2.10  82 2.10  34 2.11  47 2.11  35 2.11
   2  0.111  0.833  0.222-  31 2.08  54 2.08  49 2.11  55 2.11  36 2.11  48 2.11
   3  0.224  0.167  0.448-  74 2.08  57 2.10  51 2.10  33 2.11  56 2.11  50 2.11
   4  1.000  0.003  0.999-  69 1.86  81 1.86  84 1.87  36 1.87  48 1.87  33 1.90  22 2.78  28 2.78
                             7 2.79  10 2.79  16 2.80  13 2.80
   5  0.111  0.333  0.222-  50 1.86  56 1.86  35 1.86  47 1.86  32 1.87  53 1.87   8 2.79  11 2.79
                            23 2.79  29 2.79  14 2.79  17 2.79
   6  0.224  0.667  0.111-  37 1.86  40 1.86  70 1.86  55 1.86  34 1.88  31 1.88   9 2.78  18 2.78
                            24 2.78  30 2.80  15 2.80  12 2.81
   7  0.333  0.999  1.000-  75 1.86  72 1.86  42 1.86  69 1.87  39 1.87  36 1.89  16 2.78  22 2.79
                            25 2.79   4 2.79  19 2.79  10 2.79
   8  0.444  0.333  0.222-  62 1.86  41 1.86  38 1.87  59 1.87  56 1.90  35 1.90  23 2.79  17 2.79
                             5 2.79  26 2.79  20 2.79  11 2.79
   9  0.556  0.667  0.111-  43 1.86  37 1.86  46 1.86  40 1.86  61 1.87  76 1.87  12 2.78   6 2.78
                            21 2.79  18 2.79  27 2.79  24 2.79
  10  0.667  0.999  1.000-  75 1.86  78 1.86  42 1.86  81 1.87  45 1.87  48 1.89  13 2.78  28 2.79
                            25 2.79   4 2.79  19 2.79   7 2.79
  11  0.778  0.333  0.222-  62 1.86  41 1.86  44 1.87  65 1.87  50 1.90  47 1.90  29 2.79  14 2.79
                             5 2.79  26 2.79  20 2.79   8 2.79
  12  0.887  0.667  0.111-  43 1.86  46 1.86  82 1.86  49 1.86  34 1.88  31 1.88   9 2.78  21 2.78
                            27 2.78  30 2.80  15 2.80   6 2.81
  13  0.999  0.000  0.333-  66 1.86  45 1.86  51 1.86  48 1.86  33 1.88  54 1.88  19 2.78  10 2.78
                            22 2.78  25 2.80   4 2.80  16 2.81
  14  0.110  0.336  0.556-  71 1.86  65 1.86  68 1.86  50 1.87  53 1.87  74 1.87  23 2.78  20 2.78
                            11 2.79  26 2.79   5 2.79  17 2.80
  15  0.223  0.664  0.445-  52 1.86  58 1.86  73 1.87  49 1.87  55 1.87  34 1.90  24 2.78  27 2.78
                            21 2.79  18 2.79  12 2.80   6 2.80
  16  0.335  0.000  0.333-  60 1.86  39 1.86  57 1.86  36 1.86  33 1.88  54 1.88  19 2.78   7 2.78
                            28 2.78  25 2.80   4 2.80  13 2.81
  17  0.445  0.336  0.556-  77 1.86  59 1.86  80 1.86  56 1.87  53 1.87  74 1.87  29 2.78  20 2.78
                             8 2.79  26 2.79   5 2.79  14 2.80
  18  0.555  0.668  0.445-  64 1.86  79 1.86  61 1.86  58 1.87  40 1.87  55 1.89   6 2.78  27 2.79
                            30 2.79  15 2.79   9 2.79  21 2.79
  19  0.667  0.000  0.333-  60 1.86  66 1.86  45 1.86  39 1.86  42 1.87  63 1.87  13 2.78  16 2.78
                            10 2.79   7 2.79  28 2.79  22 2.79
  20  0.778  0.334  0.555-  62 1.86  59 1.86  65 1.86  80 1.87  68 1.87  83 1.89  17 2.78  14 2.78
                             8 2.79  11 2.79  29 2.79  23 2.79
  21  0.889  0.668  0.445-  64 1.86  67 1.86  61 1.86  52 1.87  46 1.87  49 1.89  12 2.78  24 2.79
                            30 2.79  15 2.79   9 2.79  18 2.79
  22  0.000  0.001  0.667-  84 1.86  69 1.86  63 1.87  66 1.87  72 1.87  51 1.89  13 2.78   4 2.78
                             7 2.79  25 2.79  19 2.79  28 2.79
  23  0.112  0.331  0.889-  68 1.86  38 1.86  71 1.86  35 1.87  32 1.87  83 1.87  14 2.78  26 2.78
                             8 2.79  20 2.79   5 2.79  29 2.80
  24  0.222  0.666  0.778-  73 1.86  52 1.86  76 1.87  37 1.87  67 1.87  70 1.89   6 2.78  15 2.78
                            21 2.79  30 2.79   9 2.79  27 2.79
  25  0.334  0.997  0.667-  72 1.86  78 1.86  75 1.86  57 1.88  51 1.88  54 1.90   7 2.79  10 2.79
                            28 2.79  22 2.79  16 2.80  13 2.80
  26  0.445  0.332  0.889-  41 1.86  38 1.86  44 1.86  77 1.87  71 1.87  74 1.89  29 2.78  23 2.78
                             8 2.79  11 2.79  17 2.79  14 2.79
  27  0.556  0.666  0.778-  73 1.86  58 1.86  76 1.87  43 1.87  79 1.87  82 1.89  12 2.78  15 2.78
                            18 2.79  30 2.79   9 2.79  24 2.79
  28  0.667  0.001  0.667-  84 1.86  81 1.86  63 1.87  60 1.87  78 1.87  57 1.89  16 2.78   4 2.78
                            10 2.79  25 2.79  19 2.79  22 2.79
  29  0.777  0.331  0.889-  80 1.86  44 1.86  77 1.86  47 1.87  32 1.87  83 1.87  17 2.78  26 2.78
                            11 2.79  20 2.79   5 2.79  23 2.80
  30  0.889  0.670  0.777-  67 1.86  79 1.86  64 1.86  82 1.88  70 1.88  31 1.90  18 2.79  21 2.79
                            27 2.79  24 2.79  12 2.80   6 2.80
  31  0.002  0.736  0.005-  12 1.88   6 1.88  30 1.90   2 2.08
  32  0.001  0.265  0.001-  23 1.87  29 1.87   5 1.87
  33  0.114  0.070  0.227-  16 1.88  13 1.88   4 1.90   3 2.11
  34  0.109  0.597  0.217-  12 1.88   6 1.88  15 1.90   1 2.11
  35  0.218  0.401  0.108-   5 1.86  23 1.87   8 1.90   1 2.11
  36  0.219  0.933  0.112-  16 1.86   4 1.87   7 1.89   2 2.11
  37  0.334  0.733  0.999-   6 1.86   9 1.86  24 1.87
  38  0.334  0.265  0.001-  23 1.86  26 1.86   8 1.87
  39  0.445  0.067  0.222-  16 1.86  19 1.86   7 1.87
  40  0.445  0.600  0.223-   6 1.86   9 1.86  18 1.87
  41  0.555  0.399  0.110-  26 1.86  11 1.86   8 1.86
  42  0.556  0.933  0.111-  10 1.86   7 1.86  19 1.87
  43  0.666  0.733  0.999-  12 1.86   9 1.86  27 1.87
  44  0.666  0.265  0.001-  29 1.86  26 1.86  11 1.87
  45  0.777  0.067  0.222-  13 1.86  19 1.86  10 1.87
  46  0.778  0.600  0.223-  12 1.86   9 1.86  21 1.87
  47  0.890  0.401  0.108-   5 1.86  29 1.87  11 1.90   1 2.11
  48  0.893  0.933  0.112-  13 1.86   4 1.87  10 1.89   2 2.11
  49  0.003  0.734  0.332-  12 1.86  15 1.87  21 1.89   2 2.11
  50  0.004  0.266  0.336-   5 1.86  14 1.87  11 1.90   3 2.11
  51  0.114  0.067  0.555-  13 1.86  25 1.88  22 1.89   3 2.10
  52  0.110  0.599  0.556-  15 1.86  24 1.86  21 1.87
  53  0.222  0.402  0.443-  14 1.87  17 1.87   5 1.87
  54  0.220  0.930  0.440-  16 1.88  13 1.88  25 1.90   2 2.08
  55  0.329  0.734  0.332-   6 1.86  15 1.87  18 1.89   2 2.11
  56  0.332  0.266  0.336-   5 1.86  17 1.87   8 1.90   3 2.11
  57  0.440  0.067  0.555-  16 1.86  25 1.88  28 1.89   3 2.10
  58  0.446  0.599  0.556-  15 1.86  27 1.86  18 1.87
  59  0.556  0.401  0.444-  17 1.86  20 1.86   8 1.87
  60  0.556  0.933  0.445-  16 1.86  19 1.86  28 1.87
  61  0.666  0.734  0.333-  18 1.86  21 1.86   9 1.87
  62  0.667  0.267  0.334-  20 1.86  11 1.86   8 1.86
  63  0.777  0.068  0.555-  28 1.87  22 1.87  19 1.87
  64  0.778  0.602  0.556-  18 1.86  21 1.86  30 1.86
  65  0.888  0.401  0.444-  14 1.86  20 1.86  11 1.87
  66  0.889  0.933  0.445-  13 1.86  19 1.86  22 1.87
  67  0.001  0.735  0.666-  30 1.86  21 1.86  24 1.87
  68  1.000  0.267  0.665-  23 1.86  14 1.86  20 1.87
  69  0.112  0.068  0.888-   4 1.86  22 1.86   7 1.87
  70  0.108  0.599  0.890-   6 1.86  30 1.88  24 1.89   1 2.10
  71  0.223  0.400  0.780-  14 1.86  23 1.86  26 1.87
  72  0.221  0.932  0.778-  25 1.86   7 1.86  22 1.87
  73  0.333  0.732  0.666-  24 1.86  27 1.86  15 1.87
  74  0.331  0.266  0.662-  14 1.87  17 1.87  26 1.89   3 2.08
  75  0.444  0.065  0.888-   7 1.86  10 1.86  25 1.86
  76  0.445  0.599  0.889-  24 1.87  27 1.87   9 1.87
  77  0.557  0.400  0.780-  17 1.86  29 1.86  26 1.87
  78  0.557  0.932  0.778-  25 1.86  10 1.86  28 1.87
  79  0.665  0.735  0.666-  30 1.86  18 1.86  27 1.87
  80  0.665  0.267  0.665-  29 1.86  17 1.86  20 1.87
  81  0.776  0.068  0.888-   4 1.86  28 1.86  10 1.87
  82  0.782  0.599  0.890-  12 1.86  30 1.88  27 1.89   1 2.10
  83  0.891  0.401  0.782-  23 1.87  29 1.87  20 1.89   1 2.08
  84  0.889  0.935  0.778-  22 1.86  28 1.86   4 1.87

  LATTYP: Found a base centered monoclinic cell.
 ALAT       =    14.4926339331
 B/A-ratio  =     0.5773647759
 C/A-ratio  =     2.2232547649
 COS(beta)  =    -0.7794012817

  Lattice vectors:

 A1 = (   4.1836098190,   7.2464076584,   0.0033436071)
 A2 = (   8.3673779610,  -0.0000913981,   0.0033436071)
 A3 = ( -25.1074886242, -14.4958154517, -14.0593892587)

Analysis of symmetry for initial positions (statically):
 Subroutine PRICEL returns:
 Original cell was already a primitive cell.

 Routine SETGRP: Setting up the symmetry group for a
 base centered monoclinic supercell.

 Subroutine GETGRP returns: Found  4 space group operations
 (whereof  2 operations were pure point group operations)
 out of a pool of  4 trial point group operations.

The static configuration has the point symmetry C_1h.
 The point group associated with its full space group is C_2h.

Analysis of symmetry for dynamics (positions and initial velocities):
 Subroutine PRICEL returns:
[...]
   -.530E+01 -.442E+02 -.347E+03   0.594E+01 0.470E+02 0.370E+03   -.658E+00 -.280E+01 -.233E+02   0.117E-01 -.366E-02 -.903E-02
   0.350E+02 -.300E+02 0.347E+03   -.377E+02 0.321E+02 -.371E+03   0.273E+01 -.209E+01 0.234E+02   -.784E-02 0.336E-02 0.544E-02
   -.715E+01 -.429E+02 -.347E+03   0.786E+01 0.457E+02 0.370E+03   -.704E+00 -.278E+01 -.233E+02   -.840E-02 0.103E-01 0.529E-02
   0.234E+00 -.916E+01 0.376E+03   -.610E+00 0.994E+01 -.404E+03   0.373E+00 -.773E+00 0.280E+02   0.472E-02 -.137E-01 0.554E-02
   0.747E+01 -.502E+01 -.379E+03   -.814E+01 0.502E+01 0.407E+03   0.680E+00 -.299E-02 -.277E+02   -.960E-02 -.318E-02 -.181E-02
   -.478E-01 -.176E+02 0.377E+03   0.353E+00 0.182E+02 -.404E+03   -.304E+00 -.554E+00 0.278E+02   0.521E-03 0.566E-02 0.187E-02
[...]
   0.279E+01 -.950E+01 -.375E+03   -.227E+01 0.100E+02 0.403E+03   -.529E+00 -.537E+00 -.278E+02   0.116E-02 0.105E-02 0.243E-02
   -.568E+01 0.315E+01 0.379E+03   0.617E+01 -.382E+01 -.407E+03   -.501E+00 0.686E+00 0.276E+02   0.105E-01 -.903E-02 -.585E-02
   -.927E+01 -.535E+01 -.373E+03   0.910E+01 0.525E+01 0.400E+03   0.176E+00 0.102E+00 -.276E+02   -.739E-02 -.427E-02 -.127E-01
   -.369E+02 -.213E+02 0.344E+03   0.393E+02 0.227E+02 -.367E+03   -.247E+01 -.142E+01 0.227E+02   -.139E-03 -.802E-04 0.251E-02
   -.836E+01 -.483E+01 -.373E+03   0.819E+01 0.473E+01 0.400E+03   0.166E+00 0.958E-01 -.273E+02   0.924E-02 0.533E-02 0.971E-02
   -.811E+00 -.468E+00 0.375E+03   0.856E+00 0.494E+00 -.403E+03   -.394E-01 -.228E-01 0.274E+02   -.454E-02 -.262E-02 0.111E-02
   -.683E+01 0.717E+01 -.375E+03   0.756E+01 -.698E+01 0.403E+03   -.730E+00 -.189E+00 -.278E+02   0.149E-02 0.482E-03 0.243E-02
   -.112E+00 -.649E+01 0.379E+03   -.227E+00 0.725E+01 -.407E+03   0.343E+00 -.777E+00 0.276E+02   -.257E-02 0.136E-01 -.585E-02
   0.112E+00 0.649E+01 -.379E+03   0.227E+00 -.725E+01 0.407E+03   -.343E+00 0.777E+00 -.276E+02   0.257E-02 -.136E-01 0.584E-02
   0.683E+01 -.717E+01 0.375E+03   -.756E+01 0.698E+01 -.403E+03   0.730E+00 0.189E+00 0.278E+02   -.149E-02 -.482E-03 -.243E-02
   -.234E+00 0.916E+01 -.376E+03   0.610E+00 -.994E+01 0.404E+03   -.373E+00 0.773E+00 -.280E+02   -.472E-02 0.137E-01 -.554E-02
   0.715E+01 0.429E+02 0.347E+03   -.786E+01 -.457E+02 -.370E+03   0.704E+00 0.278E+01 0.233E+02   0.840E-02 -.103E-01 -.529E-02
   0.369E+02 0.213E+02 -.344E+03   -.393E+02 -.227E+02 0.367E+03   0.247E+01 0.142E+01 -.227E+02   0.139E-03 0.801E-04 -.251E-02
   0.927E+01 0.535E+01 0.373E+03   -.910E+01 -.525E+01 -.400E+03   -.176E+00 -.102E+00 0.276E+02   0.739E-02 0.427E-02 0.127E-01
   -.890E-03 -.516E-03 -.325E-02   0.940E-12 -.449E-12 0.171E-12   0.158E-14 0.194E-15 0.000E+00   -.341E-07 -.280E-07 0.108E-05

 POSITION                                       TOTAL-FORCE (eV/Angst)
      4.16189      7.23386      7.02726        -0.002146     -0.001239      0.003695
      1.40006      0.80833     11.71346        -0.000000      0.000000     -0.000000
      2.81604      1.62584      2.34845         0.002146      0.001239     -0.003695
      4.17990      7.24426      0.04710         0.008433      0.004869     -0.002503
      1.39684      0.80647      4.68590        -0.000000      0.000000     -0.000000
     -0.00170      1.62193      9.36934         0.001454     -0.004071     -0.001070
      6.98110      2.41687     14.04644         0.005885     -0.000242     -0.000569
      0.00334      3.22009      4.68590         0.004984     -0.008633      0.000000
     -1.39023      4.02835      9.36853        -0.000515     -0.000297     -0.000363
      5.58363      4.83737     14.04644         0.002733      0.005217     -0.000569
     -1.39342      5.63934      4.68590        -0.004984      0.008633     -0.000000
     -2.77998      6.43406      9.36934        -0.002799      0.003295     -0.001070
     -1.38839      7.23750      0.00246        -0.001454      0.004071      0.001070
      4.19080      0.80186      4.71730        -0.004161      0.003621     -0.006277
      2.79803      1.61545      9.32861        -0.008433     -0.004869      0.002503
      1.38990      2.42537      0.00246         0.002799     -0.003295      0.001070
      2.78983      3.22841      4.71730         0.001055     -0.005414     -0.006277
      1.40075      4.02605      9.38437        -0.002733     -0.005217      0.000569
      0.00014      4.83108      0.00328         0.000515      0.000297      0.000363
      1.39536      5.63661      4.70081         0.007252      0.004187      0.000146
      0.00327      6.44655      9.38437        -0.005885      0.000242      0.000569
      5.57881      0.00233      0.01659        -0.004168      0.000255      0.002042
      6.97089      0.81135      4.65841         0.004161     -0.003621      0.006277
      5.58289      1.61088      9.35911         0.004168     -0.000255     -0.002042
      4.19532      2.42217     14.01366        -0.007144     -0.004125      0.003882
      5.58256      3.22310      4.67489        -0.007252     -0.004187     -0.000146
      4.18650      4.02949      9.35911         0.001864      0.003737     -0.002042
      2.79142      4.83022      0.01659        -0.001864     -0.003737      0.002042
      4.18810      5.63130      4.65841        -0.001055      0.005414      0.006277
      2.78905      6.44126      9.41715         0.007144      0.004125     -0.003882
      0.03483      0.02011     10.34783        -0.002038     -0.001176     -0.003589
      0.00855      0.00493      3.71900        -0.000689     -0.000398      0.005752
      1.42674      0.82373      0.97794        -0.000987     -0.000570     -0.002811
      1.36695      0.78921      8.39386         0.000987      0.000570      0.002811
     -0.00454      1.57948      5.63697         0.001150     -0.002536     -0.000018
      0.02966      1.59135     13.10738         0.003156      0.002640      0.000602
      6.97256      2.41979     10.31152         0.001016     -0.001840     -0.001094
     -1.39068      2.42418      3.72910         0.000923     -0.003131      0.006044
     -0.00333      3.22241      0.94397         0.002418     -0.000339      0.000141
      0.00466      3.22702      8.42784        -0.000915     -0.002264     -0.000141
     -1.39621      4.02490      5.61307        -0.001051     -0.000607     -0.002803
     -1.38579      4.03091     13.10833         0.002767      0.001598      0.005465
      5.58188      4.82852     10.31152        -0.001085      0.001799     -0.001094
     -2.77970      4.83004      3.72910        -0.002250      0.002365      0.006044
     -1.39474      5.63241      0.94397         0.000915      0.002264      0.000141
     -1.38675      5.63702      8.42784        -0.002418      0.000339     -0.000141
     -2.81816      6.45282      5.63697        -0.001621      0.002264     -0.000018
     -2.79079      6.47651     13.10738         0.003865      0.001413      0.000602
      2.77046      0.02530     10.31953        -0.003156     -0.002640     -0.000602
      2.79822      0.03345      3.73483        -0.001150      0.002536      0.000018
      4.16356      0.82742      0.95062        -0.001638     -0.001985      0.001012
      4.19587      0.80059      8.41732        -0.000865      0.002953      0.006039
      2.78514      1.60800      5.65281         0.000689      0.000398     -0.005752
      2.76529      1.59654     13.07909         0.002038      0.001176      0.003589
      1.40715      2.38664     10.31953        -0.003865     -0.001413     -0.000602
      1.42808      2.40661      3.73483         0.001621     -0.002264      0.000018
      2.79834      3.19203      0.95062        -0.002538     -0.000426      0.001012
      2.79127      3.23343      8.41732         0.002125     -0.002225      0.006039
      1.38962      4.02939      5.64271         0.002250     -0.002365     -0.006044
      1.40249      4.03491     13.11929         0.001085     -0.001799      0.001094
[...]
      6.99814      0.78579      8.42508         0.001638      0.001985     -0.001012
      5.59434      1.61380      5.62621        -0.004288     -0.001920     -0.000455
      5.59328      1.60692     13.10140         0.000256      0.001988      0.006754
      4.18484      2.41612     10.28580         0.000987      0.000570      0.001667
      4.15749      2.40033      3.74059         0.002439      0.001408     -0.001131
      5.57382      3.21805      0.91588         0.001811      0.001046      0.002641
      5.58672      3.22550      8.41975         0.001133      0.000654      0.003915
      4.19476      4.03795      5.62621        -0.003807     -0.002754     -0.000455
      4.18827      4.04046     13.10140         0.001850     -0.000772      0.006754
      2.79610      4.82297     10.32941        -0.001850      0.000772     -0.006754
      2.78317      4.82176      3.74949         0.003807      0.002754      0.000455
      4.18666      5.62628      0.95839        -0.002125      0.002225     -0.006039
      4.17958      5.66767      8.42508         0.002538      0.000426     -0.001012
      2.82044      6.45938      5.63511        -0.002439     -0.001408      0.001131
      2.79953      6.44731     13.14501        -0.000987     -0.000570     -0.001667
    total drift:                               -0.000890     -0.000516     -0.003254

  FREE ENERGIE OF THE ION-ELECTRON SYSTEM (eV)
  free  energy   TOTEN  =      -523.5280917656 eV

  energy  without entropy=     -523.4652349490  energy(sigma->0) =     -523.49666336

 d Force = 0.5039698E-03[ 0.506E-04, 0.957E-03]  d Energy = 0.8846899E-03-0.381E-03
 d Force =-0.1133857E+02[-0.113E+02,-0.113E+02]  d Ewald  =-0.7526152E+01-0.381E+01

 Quasi-Newton relaxation of ions (Broydens 2nd method)
  g(Force)  = 0.119E-03   g(Stress)= 0.173E-03

 retain information from N=  1 steps
 eigenvalues of (default step * inverse Hessian matrix)
  average eigenvalue of G=   0.3613
 eigenvalue spectrum of G is  0.3613

 reached required accuracy - stopping structural energy minimisation

volume of typ            1:     2.7 %

[...]

volume of typ            3:    10.3 %

total charge

# of ion       s       p       d       tot
    1        2.071   0.232   0.092   2.395
    2        2.072   0.234   0.094   2.400
    3        2.071   0.232   0.092   2.395
    4        0.299   0.416   7.824   8.539
    5        0.304   0.428   7.829   8.561
    6        0.303   0.426   7.830   8.559
    7        0.298   0.416   7.820   8.534
    8        0.294   0.406   7.822   8.522
    9        0.303   0.425   7.818   8.546
   10        0.298   0.416   7.820   8.534
   11        0.294   0.406   7.822   8.522
   12        0.303   0.426   7.830   8.559
   13        0.303   0.426   7.830   8.559
   14        0.302   0.425   7.824   8.551
   15        0.299   0.416   7.824   8.539
   16        0.303   0.426   7.830   8.559
   17        0.302   0.425   7.824   8.551
   18        0.298   0.416   7.820   8.534
   19        0.303   0.425   7.818   8.546
   20        0.298   0.416   7.820   8.535
   21        0.298   0.416   7.820   8.534
   22        0.298   0.416   7.819   8.534
   23        0.302   0.425   7.824   8.551
   24        0.298   0.416   7.819   8.534
   25        0.298   0.416   7.826   8.540
   26        0.298   0.416   7.820   8.535
   27        0.298   0.416   7.819   8.534
   28        0.298   0.416   7.819   8.534
   29        0.302   0.425   7.824   8.551
   30        0.298   0.416   7.826   8.540
   31        1.275   2.752   0.007   4.035
   32        1.286   2.721   0.008   4.014
   33        1.276   2.751   0.007   4.034
   34        1.276   2.751   0.007   4.034
   35        1.275   2.753   0.007   4.036
   36        1.275   2.755   0.007   4.037
   37        1.286   2.723   0.008   4.017
   38        1.286   2.722   0.008   4.016
   39        1.286   2.722   0.008   4.016
   40        1.286   2.722   0.008   4.016
   41        1.289   2.715   0.008   4.012
   42        1.286   2.721   0.008   4.015
   43        1.286   2.723   0.008   4.017
   44        1.286   2.722   0.008   4.016
   45        1.286   2.722   0.008   4.016
   46        1.286   2.722   0.008   4.016
   47        1.275   2.753   0.007   4.036
   48        1.275   2.755   0.007   4.037
   49        1.275   2.755   0.007   4.037
   50        1.275   2.753   0.007   4.036
   51        1.275   2.755   0.007   4.037
   52        1.286   2.722   0.008   4.016
   53        1.286   2.721   0.008   4.014
   54        1.275   2.752   0.007   4.035
   55        1.275   2.755   0.007   4.037
   56        1.275   2.753   0.007   4.036
   57        1.275   2.755   0.007   4.037
   58        1.286   2.722   0.008   4.016
   59        1.286   2.722   0.008   4.016
   60        1.286   2.723   0.008   4.017
[...]
   70        1.275   2.755   0.007   4.037
   71        1.286   2.723   0.008   4.017
   72        1.286   2.721   0.008   4.016
   73        1.288   2.716   0.008   4.013
   74        1.275   2.754   0.007   4.036
   75        1.288   2.716   0.008   4.013
   76        1.287   2.720   0.008   4.014
   77        1.286   2.723   0.008   4.017
   78        1.286   2.721   0.008   4.016
   79        1.286   2.721   0.008   4.016
   80        1.286   2.723   0.008   4.017
   81        1.286   2.722   0.008   4.016
   82        1.275   2.755   0.007   4.037
   83        1.275   2.754   0.007   4.037
   84        1.288   2.716   0.008   4.013
tot          83.57  159.54  211.93  455.03

magnetization (x)

# of ion       s       p       d       tot
    1        0.004   0.003  -0.000   0.006
    2        0.004   0.002  -0.000   0.006
    3        0.004   0.003  -0.000   0.006
    4       -0.000  -0.000   0.082   0.082
    5       -0.000  -0.000   0.060   0.060
    6       -0.000  -0.000   0.086   0.086
    7       -0.000  -0.000   0.076   0.076
    8       -0.000  -0.000   0.130   0.130
    9       -0.000  -0.000   0.037   0.037
   10       -0.000  -0.000   0.076   0.076
   11       -0.000  -0.000   0.130   0.130
   12       -0.000  -0.000   0.086   0.086
   13       -0.000  -0.000   0.086   0.086
   14       -0.000  -0.000   0.059   0.058
   15       -0.000  -0.000   0.082   0.082
   16       -0.000  -0.000   0.086   0.086
   17       -0.000  -0.000   0.059   0.058
   18       -0.000  -0.000   0.076   0.076
   19       -0.000  -0.000   0.037   0.037
   20       -0.000  -0.000   0.074   0.073
   21       -0.000  -0.000   0.076   0.076
   22       -0.000  -0.000   0.071   0.070
   23       -0.000  -0.000   0.059   0.058
   24       -0.000  -0.000   0.071   0.070
   25       -0.000  -0.000   0.106   0.106
   26       -0.000  -0.000   0.074   0.073
   27       -0.000  -0.000   0.071   0.070
   28       -0.000  -0.000   0.071   0.070
   29       -0.000  -0.000   0.059   0.058
   30       -0.000  -0.000   0.106   0.106
   31        0.003   0.011   0.000   0.014
   32        0.001   0.002   0.000   0.002
   33        0.003   0.010   0.000   0.013
   34        0.003   0.010   0.000   0.013
   35        0.002   0.009   0.000   0.011
   36        0.002   0.008   0.000   0.010
   37        0.001   0.003   0.000   0.004
   38        0.001   0.006   0.000   0.007
   39        0.001   0.007   0.000   0.008
   40        0.001   0.007   0.000   0.008
   41        0.004   0.032   0.000   0.036
   42        0.001   0.005   0.000   0.006
   43        0.001   0.003   0.000   0.004
   44        0.001   0.006   0.000   0.007
   45        0.001   0.007   0.000   0.008
   46        0.001   0.007   0.000   0.008
   47        0.002   0.009   0.000   0.011
   48        0.002   0.008   0.000   0.010
   49        0.002   0.008   0.000   0.010
   50        0.002   0.009   0.000   0.011
   51        0.002   0.007   0.000   0.009
   52        0.001   0.002   0.000   0.002
   53        0.001   0.002   0.000   0.002
   54        0.003   0.011   0.000   0.014
   55        0.002   0.008   0.000   0.010
   56        0.002   0.009   0.000   0.011
   57        0.002   0.007   0.000   0.009
   58        0.001   0.002   0.000   0.002
   59        0.001   0.006   0.000   0.007
   60        0.001   0.003   0.000   0.004
[...]
   70        0.002   0.007   0.000   0.009
   71        0.001   0.002   0.000   0.003
   72        0.002   0.008   0.000   0.009
   73        0.003   0.025   0.000   0.028
   74        0.003   0.012   0.000   0.015
   75        0.003   0.030   0.000   0.033
   76        0.001   0.010   0.000   0.012
   77        0.001   0.002   0.000   0.003
   78        0.002   0.008   0.000   0.009
   79        0.002   0.008   0.000   0.009
   80        0.001   0.002   0.000   0.003
   81        0.001   0.002   0.000   0.002
   82        0.002   0.007   0.000   0.009
   83        0.003   0.012   0.000   0.015
   84        0.003   0.025   0.000   0.028
tot           0.11    0.48    2.09    2.67