 vasp.5.4.4.18Apr17-6-g9f103f2a35 (build May 12 2020 04:58:55) complex

 MD_VERSION_INFO: Compiled 2020-05-12T11:58:55-UTC in devlin.sd.materialsdesign.
 com:/home/medea2/data/build/wwolf/vasp-gpu5.4.4/13047/x86_64/src/src/build/std
 from svn 13047

 executed on                        Lin64 date 2023.02.20  11:58:35

 INCAR:
 POTCAR:    PAW_PBE Ni 02Aug2007
 POTCAR:    PAW_PBE O 08Apr2002

 POTCAR:    PAW_PBE Ni 02Aug2007

 POTCAR:    PAW_PBE O 08Apr2002

  PAW_PBE Ni 02Aug2007                  :
  PAW_PBE O 08Apr2002                   :

 POSCAR: ce425834_3
  positions in direct lattice
 exchange correlation table for  LEXCH =       14
   RHO(1)=    0.500       N(1)  =     2000
   RHO(2)=  100.500       N(2)  =     4000

 ion  position               nearest neighbor table
   1  0.002  0.001  0.994-  33 1.78  45 1.81  78 1.84  66 1.84  81 1.96  30 2.01  19 2.77   7 2.79
                             4 2.79  13 2.79  10 2.79  25 2.89
   2  0.227  0.340  0.870-  44 1.80  32 1.83  47 1.88  53 1.88  50 1.91  29 1.91  20 2.73  11 2.76
                             5 2.79  14 2.81   8 2.82  26 2.86
   3  0.100  0.666  0.788-  28 1.79  67 1.82  52 1.84  31 1.88  34 1.93  37 1.96   6 2.70  21 2.74
                            27 2.77   9 2.78  15 2.82  12 2.88
   4  0.994  0.005  0.665-  33 1.78  69 1.83  72 1.84  36 1.87  39 1.90  66 1.91  22 2.64  16 2.72
                             1 2.79   7 2.79  13 2.85  19 2.88
   5  0.246  0.319  0.529-  38 1.69  32 1.82  53 1.83  35 1.83  59 1.86  56 1.91  17 2.72  23 2.77
                             8 2.78   2 2.79  14 2.80  20 2.86
   6  0.105  0.657  0.462-  34 1.69  73 1.86  43 1.87  37 1.88  58 1.88  40 1.90   3 2.70  18 2.75
                            24 2.76  15 2.83  21 2.84   9 2.88
   7  0.986  0.011  0.335-  42 1.83  78 1.84  75 1.86  45 1.86  72 1.87  39 1.89  25 2.70   1 2.79
                            22 2.79   4 2.79  16 2.80  10 2.83
   8  0.223  0.322  0.208-  47 1.76  38 1.82  62 1.89  41 1.91  59 1.92  44 1.95  26 2.74  23 2.75
                             5 2.78  11 2.78   2 2.82  17 2.83
   9  0.109  0.670  0.116-  31 1.79  40 1.83  46 1.86  43 1.88  79 1.90  28 1.96  18 2.74   3 2.78
                            27 2.79  24 2.80  12 2.80   6 2.88
  10  0.330  0.026  0.003-  48 1.71  30 1.83  63 1.85  51 1.87  42 1.90  45 1.93  22 2.76  16 2.78
                             1 2.79  13 2.82   7 2.83  19 2.84
  11  0.554  0.340  0.875-  71 1.77  62 1.78  65 1.84  50 1.84  47 1.89  68 1.94  14 2.70   2 2.76
                            17 2.77   8 2.78  23 2.86  20 2.89
  12  0.446  0.651  0.784-  49 1.75  52 1.84  55 1.88  70 1.90  46 1.91  31 1.95  15 2.72  21 2.75
                            24 2.77   9 2.80  18 2.82   3 2.88
  13  0.335  0.022  0.662-  36 1.76  54 1.80  57 1.81  30 1.84  33 1.90  51 1.97  25 2.71  16 2.77
                             1 2.79  10 2.82   4 2.85  22 2.89
  14  0.571  0.344  0.543-  53 1.69  71 1.87  74 1.87  50 1.90  77 1.92  56 1.92  11 2.70  26 2.70
                             5 2.80   2 2.81  23 2.82  17 2.90
  15  0.445  0.656  0.459-  52 1.82  58 1.83  37 1.85  61 1.85  55 1.88  76 1.89  12 2.72  24 2.77
                            27 2.77   3 2.82  18 2.82   6 2.83
  16  0.320  0.010  0.339-  63 1.80  36 1.82  39 1.86  60 1.89  42 1.94  57 2.00   4 2.72  19 2.76
                            13 2.77  10 2.78   7 2.80  25 2.86
  17  0.567  0.329  0.199-  56 1.75  62 1.86  80 1.86  65 1.87  59 1.91  77 1.96   5 2.72  11 2.77
                            20 2.77  26 2.79   8 2.83  14 2.90
  18  0.431  0.666  0.129-  64 1.78  58 1.80  49 1.87  43 1.89  46 1.91  61 1.94   9 2.74   6 2.75
                            21 2.77  27 2.82  15 2.82  12 2.82
  19  0.659  0.003  0.018-  60 1.74  81 1.87  48 1.88  69 1.89  66 1.91  63 1.92  25 2.71  22 2.76
                            16 2.76   1 2.77  10 2.84   4 2.88
  20  0.901  0.324  0.870-  65 1.82  35 1.85  29 1.86  68 1.88  80 1.90  32 1.98  23 2.68   2 2.73
                            17 2.77   5 2.86  26 2.87  11 2.89
  21  0.766  0.658  0.801-  67 1.75  70 1.80  73 1.81  64 1.89  49 1.89  34 1.91  27 2.71   3 2.74
                            12 2.75  18 2.77   6 2.84  24 2.84
  22  0.669  0.011  0.683-  48 1.82  69 1.83  51 1.87  72 1.88  75 1.92  54 1.93   4 2.64  19 2.76
                            10 2.76   7 2.79  25 2.89  13 2.89
  23  0.905  0.318  0.546-  74 1.82  38 1.87  71 1.89  35 1.89  41 1.91  68 1.93  20 2.68   8 2.75
                             5 2.77  26 2.81  14 2.82  11 2.86
  24  0.779  0.660  0.455-  76 1.79  70 1.83  73 1.85  55 1.87  79 1.89  40 1.91   6 2.76  15 2.77
                            12 2.77   9 2.80  27 2.81  21 2.84
  25  0.660  0.999  0.343-  75 1.78  57 1.80  78 1.82  60 1.91  54 1.93  81 1.95   7 2.70  13 2.71
                            19 2.71  16 2.86  22 2.89   1 2.89
  26  0.891  0.330  0.218-  74 1.79  41 1.82  77 1.84  80 1.88  44 1.89  29 1.94  14 2.70   8 2.74
                            17 2.79  23 2.81   2 2.86  20 2.87
  27  0.771  0.667  0.122-  67 1.79  76 1.83  61 1.83  79 1.86  28 1.89  64 1.94  21 2.71  15 2.77
                             3 2.77   9 2.79  24 2.81  18 2.82
  28  0.994  0.739  0.994-   3 1.79  27 1.89   9 1.96
  29  0.011  0.259  0.985-  20 1.86   2 1.91  26 1.94
  30  0.226  0.089  0.884-  10 1.83  13 1.84   1 2.01
  31  0.198  0.595  0.913-   9 1.79   3 1.88  12 1.95
  32  0.137  0.398  0.733-   5 1.82   2 1.83  20 1.98
  33  0.112  0.949  0.769-   1 1.78   4 1.78  13 1.90
  34  0.992  0.727  0.655-   6 1.69  21 1.91   3 1.93
  35  0.027  0.253  0.654-   5 1.83  20 1.85  23 1.89
  36  0.216  0.075  0.558-  13 1.76  16 1.82   4 1.87
  37  0.226  0.587  0.564-  15 1.85   6 1.88   3 1.96
  38  0.136  0.379  0.434-   5 1.69   8 1.82  23 1.87
  39  0.104  0.936  0.436-  16 1.86   7 1.89   4 1.90
  40  0.006  0.731  0.340-   9 1.83   6 1.90  24 1.91
  41  0.996  0.252  0.317-  26 1.82  23 1.91   8 1.91
  42  0.195  0.087  0.239-   7 1.83  10 1.90  16 1.94
  43  0.207  0.594  0.233-   6 1.87   9 1.88  18 1.89
  44  0.116  0.400  0.091-   2 1.80  26 1.89   8 1.95
  45  0.112  0.944  0.111-   1 1.81   7 1.86  10 1.93
  46  0.335  0.735  0.995-   9 1.86  12 1.91  18 1.91
  47  0.331  0.268  0.987-   8 1.76   2 1.88  11 1.89
  48  0.548  0.073  0.906-  10 1.71  22 1.82  19 1.88
  49  0.535  0.593  0.910-  12 1.75  18 1.87  21 1.89
  50  0.449  0.415  0.769-  11 1.84  14 1.90   2 1.91
  51  0.439  0.948  0.790-  22 1.87  10 1.87  13 1.97
  52  0.333  0.720  0.679-  15 1.82  12 1.84   3 1.84
  53  0.374  0.278  0.641-  14 1.69   5 1.83   2 1.88
  54  0.558  0.080  0.562-  13 1.80  22 1.93  25 1.93
  55  0.566  0.583  0.558-  24 1.87  12 1.88  15 1.88
  56  0.464  0.397  0.405-  17 1.75   5 1.91  14 1.92
  57  0.437  0.940  0.465-  25 1.80  13 1.81  16 2.00
  58  0.334  0.723  0.351-  18 1.80  15 1.83   6 1.88
  59  0.350  0.250  0.308-   5 1.86  17 1.91   8 1.92
  60  0.554  0.071  0.221-  19 1.74  16 1.89  25 1.91
  61  0.559  0.594  0.232-  27 1.83  15 1.85  18 1.94
  62  0.445  0.396  0.098-  11 1.78  17 1.86   8 1.89
  63  0.417  0.946  0.121-  16 1.80  10 1.85  19 1.92
  64  0.639  0.734  0.018-  18 1.78  21 1.89  27 1.94
  65  0.674  0.268  0.968-  20 1.82  11 1.84  17 1.87
  66  0.887  0.073  0.894-   1 1.84   4 1.91  19 1.91
  67  0.879  0.603  0.906-  21 1.75  27 1.79   3 1.82
  68  0.795  0.402  0.761-  20 1.88  23 1.93  11 1.94
  69  0.776  0.937  0.788-   4 1.83  22 1.83  19 1.89
  70  0.671  0.722  0.679-  21 1.80  24 1.83  12 1.90
  71  0.661  0.270  0.670-  11 1.77  14 1.87  23 1.89
  72  0.892  0.081  0.556-   4 1.84   7 1.87  22 1.88
  73  0.876  0.595  0.580-  21 1.81  24 1.85   6 1.86
  74  0.812  0.393  0.433-  26 1.79  23 1.82  14 1.87
  75  0.767  0.940  0.455-  25 1.78   7 1.86  22 1.92
  76  0.670  0.726  0.349-  24 1.79  27 1.83  15 1.89
  77  0.674  0.260  0.330-  26 1.84  14 1.92  17 1.96
  78  0.875  0.067  0.214-  25 1.82   1 1.84   7 1.84
  79  0.888  0.596  0.224-  27 1.86  24 1.89   9 1.90
  80  0.790  0.397  0.093-  17 1.86  26 1.88  20 1.90
  81  0.774  0.924  0.114-  19 1.87  25 1.95   1 1.96

  LATTYP: Found a hexagonal cell.
 ALAT       =     8.3527645270
 C/A-ratio  =     1.6375025413

  Lattice vectors:

 A1 = (   4.1763822500,   0.0000000000,   7.2337062800)
 A2 = (  -8.3527645000,   0.0000000000,   0.0000000000)
 A3 = (   0.0000000000, -13.6776731400,   0.0000000000)

Analysis of symmetry for initial positions (statically):
 Subroutine PRICEL returns:
 Original cell was already a primitive cell.

 Routine SETGRP: Setting up the symmetry group for a
 hexagonal supercell.

 Subroutine GETGRP returns: Found  1 space group operations
 (whereof  1 operations were pure point group operations)
 out of a pool of 24 trial point group operations.

The static configuration has the point symmetry C_1 .

Analysis of symmetry for dynamics (positions and initial velocities):
 Subroutine PRICEL returns:
 Original cell was already a primitive cell.

[...]

The dynamic configuration has the point symmetry C_1 .

Analysis of structural, dynamic, and magnetic symmetry:
 Subroutine PRICEL returns:
 Original cell was already a primitive cell.

 Routine SETGRP: Setting up the symmetry group for a
 hexagonal supercell.

 Subroutine GETGRP returns: Found  1 space group operations
 (whereof  1 operations were pure point group operations)
 out of a pool of 24 trial point group operations.

The magnetic configuration has the point symmetry C_1 .

 Subroutine INISYM returns: Found  1 space group operations
 (whereof  1 operations are pure point group operations),
 and found     1 'primitive' translations

 KPOINTS: Automatic mesh

Automatic generation of k-mesh.
Space group operators:
 irot       det(A)        alpha          n_x          n_y          n_z        tau_x        tau_y        tau_z
    1     1.000000     0.000000     1.000000     0.000000     0.000000     0.000000     0.000000     0.000000

 Subroutine IBZKPT returns following result:

 Found     38 irreducible k-points:

 Following reciprocal coordinates:
            Coordinates               Weight
  0.000000  0.000000  0.000000      1.000000
  0.200000  0.000000 -0.000000      2.000000
  0.400000  0.000000 -0.000000      2.000000
  0.000000  0.333333  0.000000      2.000000
  0.200000  0.333333 -0.000000      2.000000
  0.400000  0.333333 -0.000000      2.000000
 -0.400000  0.333333  0.000000      2.000000
 -0.200000  0.333333  0.000000      2.000000
  0.000000  0.000000  0.200000      2.000000
  0.200000  0.000000  0.200000      2.000000
  0.400000  0.000000  0.200000      2.000000
 -0.400000  0.000000  0.200000      2.000000
 -0.200000  0.000000  0.200000      2.000000
  0.000000  0.333333  0.200000      2.000000
  0.200000  0.333333  0.200000      2.000000
  0.400000  0.333333  0.200000      2.000000
 -0.400000  0.333333  0.200000      2.000000
 -0.200000  0.333333  0.200000      2.000000
  0.000000 -0.333333  0.200000      2.000000
  0.200000 -0.333333  0.200000      2.000000
  0.400000 -0.333333  0.200000      2.000000
 -0.400000 -0.333333  0.200000      2.000000
 -0.200000 -0.333333  0.200000      2.000000
  0.000000  0.000000  0.400000      2.000000
  0.200000  0.000000  0.400000      2.000000
[...]
   0.294E+02 0.464E+03 0.114E+02   -.332E+02 -.490E+03 -.114E+02   0.356E+01 0.266E+02 -.248E+00   -.159E-02 -.726E-02 0.221E-02
   -.712E+01 -.426E+03 0.217E+00   0.897E+01 0.454E+03 0.942E+00   -.169E+01 -.270E+02 -.155E+01   0.265E-02 -.164E-01 0.301E-02
   0.789E+01 0.321E+03 -.300E+02   -.745E+01 -.350E+03 0.343E+02   -.265E+01 0.262E+02 -.243E+01   -.235E-03 0.197E-01 0.578E-02
   -.332E+02 -.259E+03 0.263E+02   0.383E+02 0.286E+03 -.295E+02   -.442E+01 -.264E+02 0.234E+01   0.272E-02 0.207E-01 0.663E-02
   0.669E+00 0.290E+03 0.170E+02   0.669E-01 -.318E+03 -.188E+02   -.992E+00 0.278E+02 0.208E+01   0.364E-04 -.110E-01 0.104E-02
   0.209E+01 -.399E+03 -.343E+01   -.451E+01 0.426E+03 0.624E+01   0.246E+01 -.269E+02 -.127E+01   0.415E-02 0.411E-02 -.901E-03
   0.297E+02 0.469E+03 -.432E+01   -.340E+02 -.497E+03 0.614E+01   0.318E+01 0.279E+02 -.260E+01   0.604E-02 -.175E-01 0.994E-02
   0.160E+01 -.417E+03 -.214E+02   -.188E+01 0.445E+03 0.245E+02   -.392E+00 -.270E+02 -.251E+01   -.177E-02 -.174E-01 -.107E-04
   -.288E+02 0.323E+03 0.282E+02   0.296E+02 -.349E+03 -.310E+02   -.543E+00 0.270E+02 0.230E+01   -.137E-03 0.228E-01 -.199E-02
   -.216E+02 -.266E+03 -.277E+02   0.233E+02 0.294E+03 0.314E+02   -.147E+01 -.280E+02 -.181E+01   0.735E-02 0.272E-01 -.717E-02
[...]
   -.221E+02 -.394E+03 0.841E+01   0.228E+02 0.420E+03 -.103E+02   -.652E+00 -.267E+02 0.153E+01   0.529E-02 -.249E-02 0.387E-02
   0.146E+02 0.459E+03 -.720E+01   -.150E+02 -.488E+03 0.878E+01   -.638E-01 0.283E+02 -.152E+01   -.907E-02 -.150E-01 0.343E-02
   0.349E+02 -.437E+03 0.120E+01   -.367E+02 0.465E+03 -.480E-01   0.263E+00 -.274E+02 -.961E+00   -.197E-02 -.164E-01 0.110E-02
   0.104E+01 0.330E+03 0.117E+02   -.362E+01 -.358E+03 -.127E+02   0.264E+01 0.273E+02 -.301E+00   0.208E-02 0.211E-01 0.256E-03
   0.214E+02 -.262E+03 -.117E+02   -.205E+02 0.289E+03 0.108E+02   -.168E+01 -.284E+02 0.133E+01   -.101E-01 0.261E-01 -.196E-02
   -.141E+02 0.320E+03 0.248E+02   0.136E+02 -.348E+03 -.256E+02   0.933E+00 0.263E+02 -.343E+00   0.106E-03 -.125E-01 -.113E-02
   -.263E+02 -.405E+03 0.612E+01   0.304E+02 0.434E+03 -.481E+01   -.493E+01 -.271E+02 -.852E+00   -.633E-03 -.879E-03 -.838E-02
   -.844E+01 0.454E+03 -.378E+02   0.110E+02 -.482E+03 0.417E+02   -.149E+01 0.276E+02 -.340E+01   0.264E-02 -.127E-01 0.369E-02
   0.172E+02 -.424E+03 -.210E+02   -.190E+02 0.452E+03 0.226E+02   0.795E+00 -.271E+02 -.144E+01   0.176E-02 -.178E-01 -.757E-03
   0.225E+02 0.328E+03 0.689E+01   -.252E+02 -.354E+03 -.396E+01   0.240E+01 0.272E+02 -.312E+01   0.912E-02 0.256E-01 -.667E-02
   0.272E+02 -.260E+03 0.121E+02   -.300E+02 0.288E+03 -.147E+02   0.327E+01 -.271E+02 0.292E+01   0.503E-02 0.213E-01 -.690E-02
   -.161E+02 0.305E+03 0.648E+01   0.172E+02 -.332E+03 -.789E+01   -.655E+00 0.276E+02 0.146E+01   0.501E-02 -.112E-01 -.379E-02
   -.119E+02 -.387E+03 0.155E+02   0.128E+02 0.414E+03 -.174E+02   -.108E+01 -.271E+02 0.180E+01   0.862E-02 -.455E-02 -.397E-02
   -.680E+01 0.432E+03 -.862E+01   0.848E+01 -.458E+03 0.859E+01   -.157E+01 0.270E+02 0.308E+00   0.621E-02 -.152E-01 -.411E-02
   -.159E+01 0.107E+01 0.957E+01   0.924E-12 -.909E-12 -.568E-12   0.159E+01 -.115E+01 -.957E+01   -.339E-03 0.785E-01 0.454E-03

 POSITION                                       TOTAL-FORCE (eV/Angst)
      4.17024      0.01103      7.19037        -0.555849      1.728899      0.905070
      5.52457      4.64823      6.29125         1.056699     -1.179748     -0.372571
      4.12888      9.11294      5.69770         0.835151     -1.309894     -0.848318
     11.07618      0.06299      4.80944         0.836383      1.230222      0.324100
      4.25960      4.36927      3.82571         2.157958      0.028352      0.692811
      2.80938      8.98757      3.34232        -0.456757     -0.924859     -3.059459
      9.63495      0.14923      2.42220         0.929937     -0.657185      0.029110
      2.73537      4.40251      1.50527         0.589140      0.688544      0.047931
      1.39133      9.16645      0.83687        -0.562304     -0.636789      0.683339
      2.76496      0.35199      0.02000        -2.156114     -3.206667      1.427757
      8.28015      4.64775      6.32946         1.366438     -0.129500      0.218411
      6.99727      8.89805      5.67343        -1.405634      1.846037      0.636400
      5.56259      0.30672      4.78852         0.796093     -2.738832      2.375626
      7.04088      4.69832      3.93061         1.144266      0.205955     -1.545090
      5.63504      8.97250      3.31948         0.160318     -0.395859     -0.606497
      4.08519      0.13214      2.45330         0.353144     -0.051944      0.000497
      5.56671      4.50111      1.43986         0.284031     -1.542466     -0.500861
      4.13398      9.10343      0.93124        -0.298354     -1.800347     -0.591209
      5.58194      0.03604      0.13207        -0.666722     -0.923784     -2.502629
     11.15803      4.43334      6.29100         0.739036      1.885742     -0.110661
      9.74136      8.99703      5.79617        -1.368566      1.622887     -1.368488
      8.44016      0.14617      4.94177        -2.128585     -0.166357     -1.584692
      9.84110      4.34781      3.95315        -0.421368      0.834970      0.166248
      8.40243      9.03110      3.28925         0.784069     -0.634520     -0.218519
      6.94129     13.66998      2.48055        -0.495583      1.266509     -0.800031
      8.35507      4.50924      1.57622         0.141698     -0.756911     -2.502610
      6.95265      9.12733      0.88508         0.069301      0.424236      0.202204
     12.44981     10.11106      7.18906         0.471102      0.136134      1.239775
      4.20613      3.54563      7.12882        -0.107840      0.786024     -0.168032
      5.57837      1.21127      6.39330        -1.092106     -0.197155      0.440504
      5.46470      8.13934      6.60349         0.375564      0.007472     -1.274310
      4.20034      5.43743      5.29886        -0.624802     -0.049926      1.560533
      4.14804     12.97394      5.56167         1.392482     -1.784462     -0.318204
     11.02532      9.93739      4.73754         1.179958      1.503679      3.396087
      2.95616      3.45667      4.73276        -1.092821     -0.547811      0.237558
      4.13704      1.02452      4.03961        -1.146759      1.342447     -0.933579
      4.24435      8.02362      4.07682        -0.609190      0.464267      0.885942
      2.94801      5.18119      3.14007        -3.159945      1.658533     -1.169325
      2.69026     12.80073      3.15634        -0.018098      0.991973      0.651427
      1.46764     10.00380      2.45958        -0.441912      0.106618      0.762586
      9.63919      3.44109      2.28959         1.245876      0.335548      0.394462
      2.62341      1.18545      1.72543         1.039341     -0.487976     -0.476900
      2.70299      8.12351      1.68874         0.648868      0.298279     -0.390144
      1.34663      5.47540      0.65600         0.043990     -0.149391      1.578409
      1.39886     12.91751      0.80341         0.321210      0.096001     -0.201228
      6.95587     10.04746      7.19878         0.017130     -0.740613      0.484497
      6.88336      3.66928      7.13635        -0.021030     -0.424691     -1.485308
      8.36390      0.99424      6.55415         2.498109      2.433309     -0.853397
      8.27240      8.10692      6.58245         1.531639     -0.821034      0.672333
      6.96067      5.66997      5.56154        -0.349283     -0.316100     -0.307042
      6.97018     12.97306      5.71487        -0.274013      0.531141     -0.229750
      5.62055      9.84797      4.91276         0.164274      0.740607     -0.389930
      5.79644      3.79785      4.63350        -2.211994     -2.385921      1.867249
      7.01086      1.09798      4.06622         0.645554      0.011020     -0.884952
      7.05729      7.97819      4.04001        -0.255331      0.424262      0.284630
      5.56970      5.42583      2.92876         0.042054      0.682077      1.540121
      5.59385     12.86283      3.36388        -1.141794     -0.093949     -0.774337
      4.25380      9.89079      2.54221        -0.672285      1.035617      0.589131
      4.20767      3.41271      2.22778         0.205295      0.541661     -0.436657
      5.55415      0.96595      1.60203         0.191322      0.424294      1.912314
[...]
     11.12289      8.24761      6.55528         0.582632     -1.559088      0.104286
      9.82047      5.50021      5.50504         0.066176     -1.129798     -0.343836
      9.77393     12.82026      5.70159        -0.421792     -0.114191      0.063100
      8.44158      9.87668      4.91356        -1.584388      0.505573      0.194716
      8.31694      3.68809      4.84553         0.054516     -0.402353     -1.370056
      9.77593      1.10804      4.02419        -0.783845     -0.817058      0.461026
      9.74198      8.14326      4.19592         0.407729     -1.563277     -1.114384
      8.58610      5.37775      3.12917        -0.830731      1.197972      0.442580
      8.30707     12.85656      3.29104         1.030845     -0.341550      0.568668
      7.05230      9.93065      2.52434        -0.961782      0.911179      0.101792
      7.00405      3.56010      2.38421        -0.267053      0.951079     -0.199748
      8.20782      0.91398      1.55117         0.457372      0.679409      0.359359
      8.35052      8.14568      1.62335         0.459192      0.643664      0.045267
      6.98756      5.42694      0.67407        -0.218268     -0.051712     -0.097100
      6.93963     12.63816      0.82646         0.112867      1.128018      0.274440
    total drift:                                0.004779     -0.001334      0.003040

  FREE ENERGIE OF THE ION-ELECTRON SYSTEM (eV)
  free  energy   TOTEN  =      -499.0428912271 eV

  energy  without entropy=     -499.0604566445  energy(sigma->0) =     -499.04874637

volume of typ            1:    20.8 %

volume of typ            2:    10.6 %

total charge

# of ion       s       p       d       tot
    1        0.305   0.424   7.823   8.552
    2        0.304   0.418   7.820   8.543
    3        0.304   0.416   7.826   8.546
    4        0.310   0.436   7.829   8.575
    5        0.331   0.485   7.848   8.664
    6        0.319   0.456   7.835   8.610
    7        0.308   0.430   7.820   8.558
    8        0.302   0.416   7.825   8.543
    9        0.304   0.423   7.818   8.545
   10        0.319   0.453   7.831   8.603
   11        0.319   0.459   7.832   8.610
   12        0.304   0.421   7.823   8.548
   13        0.319   0.449   7.830   8.598
   14        0.311   0.437   7.835   8.584
   15        0.312   0.439   7.824   8.575
   16        0.298   0.405   7.822   8.525
   17        0.306   0.424   7.822   8.552
   18        0.308   0.428   7.823   8.560
   19        0.307   0.425   7.827   8.558
   20        0.298   0.406   7.817   8.521
   21        0.320   0.458   7.840   8.617
   22        0.300   0.410   7.820   8.530
   23        0.295   0.399   7.820   8.514
   24        0.310   0.435   7.825   8.570
   25        0.308   0.429   7.825   8.561
   26        0.310   0.434   7.823   8.566
   27        0.310   0.435   7.826   8.572
   28        1.285   2.719   0.008   4.012
   29        1.289   2.702   0.007   3.998
   30        1.287   2.713   0.008   4.007
   31        1.288   2.716   0.008   4.012
   32        1.289   2.717   0.008   4.014
   33        1.280   2.759   0.010   4.050
   34        1.287   2.743   0.010   4.040
   35        1.284   2.732   0.009   4.025
   36        1.281   2.757   0.010   4.049
   37        1.288   2.710   0.007   4.005
   38        1.283   2.776   0.012   4.070
   39        1.289   2.706   0.008   4.003
   40        1.285   2.720   0.008   4.012
   41        1.289   2.713   0.008   4.009
   42        1.289   2.705   0.007   4.002
   43        1.285   2.720   0.008   4.013
   44        1.288   2.714   0.008   4.009
   45        1.286   2.727   0.008   4.020
   46        1.290   2.698   0.007   3.996
   47        1.285   2.739   0.009   4.034
   48        1.280   2.768   0.011   4.059
   49        1.283   2.745   0.009   4.038
   50        1.287   2.714   0.008   4.009
   51        1.292   2.700   0.007   3.999
   52        1.280   2.753   0.009   4.042
   53        1.279   2.782   0.011   4.073
   54        1.288   2.710   0.008   4.006
   55        1.286   2.719   0.008   4.013
   56        1.286   2.731   0.009   4.026
   57        1.287   2.724   0.009   4.019
   58        1.282   2.745   0.009   4.036
   59        1.289   2.706   0.007   4.002
   60        1.284   2.743   0.009   4.036
[...]
   67        1.279   2.780   0.011   4.070
   68        1.292   2.688   0.007   3.987
   69        1.283   2.735   0.009   4.027
   70        1.287   2.733   0.009   4.029
   71        1.286   2.740   0.009   4.035
   72        1.285   2.726   0.008   4.019
   73        1.283   2.742   0.009   4.035
   74        1.281   2.752   0.010   4.043
   75        1.284   2.733   0.009   4.026
   76        1.281   2.749   0.009   4.039
   77        1.292   2.696   0.007   3.995
   78        1.283   2.746   0.009   4.038
   79        1.289   2.709   0.008   4.006
   80        1.285   2.719   0.008   4.011
   81        1.291   2.685   0.007   3.982
tot          77.76  158.97  211.77  448.50

magnetization (x)

# of ion       s       p       d       tot
    1        0.000   0.000   0.000   0.000
    2       -0.000  -0.000   0.000   0.000
    3       -0.000  -0.000   0.000   0.000
    4        0.000   0.000   0.000   0.000
    5       -0.000  -0.000   0.000   0.000
    6        0.000   0.000   0.000   0.000
    7        0.000   0.000   0.000   0.000
    8       -0.000  -0.000   0.000   0.000
    9       -0.000  -0.000  -0.000  -0.000
   10        0.000   0.000   0.000   0.000
   11       -0.000  -0.000   0.000   0.000
   12       -0.000  -0.000   0.000   0.000
   13        0.000   0.000   0.000   0.000
   14       -0.000  -0.000   0.000   0.000
   15        0.000   0.000   0.000   0.000
   16        0.000   0.000   0.000   0.000
   17       -0.000  -0.000   0.000   0.000
   18       -0.000  -0.000   0.000   0.000
   19        0.000   0.000   0.000   0.000
   20       -0.000  -0.000  -0.000  -0.000
   21        0.000   0.000   0.000   0.000
   22        0.000   0.000   0.000   0.000
   23       -0.000  -0.000   0.000   0.000
   24       -0.000  -0.000   0.000   0.000
   25        0.000   0.000   0.000   0.000
   26       -0.000  -0.000  -0.000  -0.000
   27       -0.000  -0.000   0.000   0.000
   28        0.000   0.000  -0.000   0.000
   29        0.000   0.000  -0.000   0.000
   30        0.000  -0.000   0.000  -0.000
   31        0.000   0.000  -0.000   0.000
   32        0.000   0.000  -0.000   0.000
   33       -0.000  -0.000   0.000  -0.000
   34       -0.000  -0.000   0.000  -0.000
   35        0.000   0.000  -0.000   0.000
   36        0.000  -0.000   0.000  -0.000
   37        0.000  -0.000   0.000  -0.000
   38        0.000  -0.000  -0.000  -0.000
   39       -0.000  -0.000   0.000  -0.000
   40        0.000   0.000  -0.000   0.000
   41        0.000   0.000  -0.000   0.000
   42       -0.000  -0.000   0.000  -0.000
   43        0.000   0.000  -0.000   0.000
   44        0.000   0.000  -0.000   0.000
   45       -0.000  -0.000   0.000  -0.000
   46        0.000   0.000  -0.000   0.000
   47        0.000   0.000  -0.000   0.000
   48        0.000   0.000   0.000   0.000
   49        0.000  -0.000   0.000  -0.000
   50        0.000   0.000  -0.000   0.000
   51       -0.000  -0.000   0.000  -0.000
   52       -0.000  -0.000  -0.000  -0.000
   53        0.000   0.000  -0.000   0.000
   54       -0.000  -0.000   0.000  -0.000
   55        0.000  -0.000   0.000  -0.000
   56        0.000  -0.000  -0.000  -0.000
   57        0.000  -0.000   0.000  -0.000
   58       -0.000  -0.000   0.000  -0.000
   59        0.000  -0.000  -0.000   0.000
   60        0.000  -0.000   0.000  -0.000
[...]
   67        0.000  -0.000   0.000  -0.000
   68       -0.000  -0.000   0.000  -0.000
   69       -0.000  -0.000   0.000  -0.000
   70       -0.000  -0.000   0.000  -0.000
   71        0.000  -0.000  -0.000   0.000
   72        0.000  -0.000   0.000  -0.000
   73        0.000  -0.000   0.000  -0.000
   74        0.000   0.000  -0.000   0.000
   75       -0.000  -0.000   0.000  -0.000
   76       -0.000  -0.000  -0.000  -0.000
   77        0.000  -0.000  -0.000  -0.000
   78       -0.000  -0.000   0.000  -0.000
   79        0.000   0.000  -0.000   0.000
   80        0.000   0.000  -0.000   0.000
   81       -0.000  -0.000   0.000  -0.000
tot           0.00   -0.00    0.00    0.00