 vasp.5.4.4.18Apr17-6-g9f103f2a35 (build May 12 2020 05:39:39) gamma-only

 MD_VERSION_INFO: Compiled 2020-05-12T12:39:39-UTC in devlin.sd.materialsdesign.
 com:/home/medea2/data/build/wwolf/vasp-gpu5.4.4/13047/x86_64/src/src/build/gam
 from svn 13047

 executed on                        Lin64 date 2023.02.09  12:13:59

 INCAR:
 POTCAR:    PAW_PBE Li_sv 10Sep2004
 POTCAR:    PAW_PBE Ni 02Aug2007
 POTCAR:    PAW_PBE O 08Apr2002

 POTCAR:    PAW_PBE Li_sv 10Sep2004

 POTCAR:    PAW_PBE Ni 02Aug2007

 POTCAR:    PAW_PBE O 08Apr2002

 Optimization of the real space projectors (new method)

 maximal supplied QI-value         = 22.11
 optimisation between [QCUT,QGAM] = [ 11.28, 22.77] = [ 35.61,145.23] Ry
 Optimized for a Real-space Cutoff    1.10 Angstroem

   l    n(q)    QCUT    max X(q) W(low)/X(q) W(high)/X(q)  e(spline)
   0      7    11.276    10.506    0.54E-04    0.58E-04    0.16E-07
   0      7    11.276     8.367    0.11E-03    0.14E-03    0.35E-07
   1      7    11.276     8.983    0.23E-03    0.43E-03    0.86E-07
 Optimization of the real space projectors (new method)

[...]

   l    n(q)    QCUT    max X(q) W(low)/X(q) W(high)/X(q)  e(spline)
   2      9    11.376    60.317    0.17E-03    0.16E-04    0.16E-06
   2      9    11.376    55.921    0.17E-03    0.16E-04    0.17E-06
   0     10    11.376    51.690    0.45E-04    0.60E-04    0.21E-06
   0     10    11.376    30.015    0.37E-04    0.55E-04    0.19E-06
   1     10    11.376    18.849    0.83E-04    0.11E-03    0.92E-07
   1     10    11.376    14.624    0.69E-04    0.92E-04    0.82E-07
 Optimization of the real space projectors (new method)

 maximal supplied QI-value         = 24.76
 optimisation between [QCUT,QGAM] = [ 11.39, 22.77] = [ 36.31,145.25] Ry
 Optimized for a Real-space Cutoff    1.10 Angstroem

   l    n(q)    QCUT    max X(q) W(low)/X(q) W(high)/X(q)  e(spline)
   0      7    11.387    20.381    0.22E-03    0.48E-03    0.18E-06
   0      7    11.387    15.268    0.22E-03    0.52E-03    0.19E-06
   1      7    11.387     5.964    0.22E-03    0.73E-03    0.24E-06
   1      7    11.387     5.382    0.19E-03    0.60E-03    0.21E-06

  PAW_PBE Li_sv 10Sep2004               :
  PAW_PBE Ni 02Aug2007                  :
  PAW_PBE O 08Apr2002                   :

 POSCAR: ce1_1
  positions in direct lattice
 exchange correlation table for  LEXCH =       14
   RHO(1)=    0.500       N(1)  =     2000
   RHO(2)=  100.500       N(2)  =     4000

 ion  position               nearest neighbor table
   1  0.750  0.375  0.375-  11 1.98  13 1.98  12 1.98  14 1.98
   2  0.250  0.625  0.625-   7 1.98   9 1.98   8 1.98  10 1.98
   3  0.000  0.000  0.000-  10 1.89  14 1.89  13 1.89   9 1.89   8 1.89  12 1.89   4 2.85   5 2.85
                             6 2.85   4 2.85   5 2.85   6 2.85
   4  0.000  0.000  0.500-  10 1.89  14 1.89   7 1.89  11 1.89  13 1.89   9 1.89   3 2.85   3 2.85
                             5 2.85   6 2.85   5 2.85   6 2.85
   5  0.500  0.000  0.000-   8 1.89  12 1.89  11 1.89   7 1.89  10 1.89  14 1.89   3 2.85   6 2.85
                             4 2.85   6 2.85   3 2.85   4 2.85
   6  0.500  0.500  0.000-   8 1.89  12 1.89   9 1.89  11 1.89   7 1.89  13 1.89   3 2.85   5 2.85
                             4 2.85   5 2.85   3 2.85   4 2.85
   7  0.534  0.767  0.767-   4 1.89   5 1.89   6 1.89   2 1.98
   8  0.534  0.767  0.199-   5 1.89   6 1.89   3 1.89   2 1.98
   9  0.966  0.767  0.767-   3 1.89   4 1.89   6 1.89   2 1.98
  10  0.966  0.199  0.767-   3 1.89   4 1.89   5 1.89   2 1.98
  11  0.466  0.233  0.233-   4 1.89   5 1.89   6 1.89   1 1.98
  12  0.466  0.233  0.801-   5 1.89   6 1.89   3 1.89   1 1.98
  13  0.034  0.233  0.233-   3 1.89   4 1.89   6 1.89   1 1.98
  14  0.034  0.801  0.233-   3 1.89   4 1.89   5 1.89   1 1.98

  LATTYP: Found a face centered cubic cell.
 ALAT       =     8.0514843144

  Lattice vectors:

 A1 = (  -4.0257421572,   0.0000000000,   4.0257421572)
 A2 = (  -4.0257421572,  -4.0257421572,   0.0000000000)
 A3 = (   0.0000000000,  -4.0257421572,   4.0257421572)

Analysis of symmetry for initial positions (statically):
 Subroutine PRICEL returns:
 Original cell was already a primitive cell.

 Routine SETGRP: Setting up the symmetry group for a
 face centered cubic supercell.

 Subroutine GETGRP returns: Found 48 space group operations
 (whereof 12 operations were pure point group operations)
 out of a pool of 48 trial point group operations.

The static configuration has the point symmetry D_3d.
 The point group associated with its full space group is O_h .

Analysis of symmetry for dynamics (positions and initial velocities):
 Subroutine PRICEL returns:
 Original cell was already a primitive cell.

[...]

The dynamic configuration has the point symmetry D_3d.
 The point group associated with its full space group is O_h .

Analysis of structural, dynamic, and magnetic symmetry:
 Subroutine PRICEL returns:
 Original cell was already a primitive cell.

 Routine SETGRP: Setting up the symmetry group for a
 face centered cubic supercell.

 Subroutine GETGRP returns: Found 48 space group operations
 (whereof 12 operations were pure point group operations)
 out of a pool of 48 trial point group operations.

The magnetic configuration has the point symmetry D_3d.
 The point group associated with its full space group is O_h .

 Subroutine INISYM returns: Found 48 space group operations
 (whereof 12 operations are pure point group operations),
 and found     1 'primitive' translations

 KPOINTS: Automatic mesh

Automatic generation of k-mesh.
Space group operators:
 irot       det(A)        alpha          n_x          n_y          n_z        tau_x        tau_y        tau_z
    1     1.000000     0.000000     1.000000     0.000000     0.000000     0.000000     0.000000     0.000000
    2    -1.000000     0.000000     1.000000     0.000000     0.000000     0.000000     0.000000     0.000000
    3     1.000000   180.000000     0.707107     0.000000    -0.707107     0.000000     0.000000     0.000000
    4    -1.000000   180.000000     0.707107     0.000000    -0.707107     0.000000     0.000000     0.000000
    5     1.000000   120.000000     0.577350     0.577350     0.577350     0.000000     0.000000     0.000000
    6    -1.000000   120.000000     0.577350     0.577350     0.577350     0.000000     0.000000     0.000000
    7     1.000000   120.000000    -0.577350    -0.577350    -0.577350     0.000000     0.000000     0.000000
    8    -1.000000   120.000000    -0.577350    -0.577350    -0.577350     0.000000     0.000000     0.000000
    9     1.000000   180.000000     0.000000    -0.707107     0.707107     0.000000     0.000000     0.000000
   10    -1.000000   180.000000     0.000000    -0.707107     0.707107     0.000000     0.000000     0.000000
   11     1.000000   180.000000     0.707107    -0.707107     0.000000     0.000000     0.000000     0.000000
   12    -1.000000   180.000000     0.707107    -0.707107     0.000000     0.000000     0.000000     0.000000
   13     1.000000   120.000000     0.577350     0.577350    -0.577350    -0.500000    -1.000000     0.000000
   14    -1.000000   120.000000     0.577350     0.577350    -0.577350    -0.500000    -1.000000     0.000000
   15     1.000000   120.000000    -0.577350    -0.577350     0.577350    -1.000000    -1.000000     0.500000
   16    -1.000000   120.000000    -0.577350    -0.577350     0.577350    -1.000000    -1.000000     0.500000
   17     1.000000    90.000000     1.000000     0.000000     0.000000    -0.500000    -0.500000     0.000000
   18    -1.000000    90.000000     1.000000     0.000000     0.000000    -0.500000    -0.500000     0.000000
   19     1.000000    90.000000     0.000000     0.000000     1.000000    -0.500000    -1.000000     0.000000
   20    -1.000000    90.000000     0.000000     0.000000     1.000000    -0.500000    -1.000000     0.000000
   21     1.000000   180.000000     1.000000     0.000000     0.000000    -1.000000    -1.000000     0.500000
   22    -1.000000   180.000000     1.000000     0.000000     0.000000    -1.000000    -1.000000     0.500000
   23     1.000000   120.000000    -0.577350     0.577350     0.577350    -0.500000    -0.500000     0.000000
   24    -1.000000   120.000000    -0.577350     0.577350     0.577350    -0.500000    -0.500000     0.000000
   25     1.000000    90.000000    -1.000000     0.000000     0.000000    -0.500000    -1.000000     0.000000
   26    -1.000000    90.000000    -1.000000     0.000000     0.000000    -0.500000    -1.000000     0.000000
   27     1.000000    90.000000     0.000000     1.000000     0.000000    -1.000000    -1.000000     0.500000
   28    -1.000000    90.000000     0.000000     1.000000     0.000000    -1.000000    -1.000000     0.500000
   29     1.000000   180.000000     0.707107     0.707107     0.000000    -0.500000    -0.500000     0.000000
   30    -1.000000   180.000000     0.707107     0.707107     0.000000    -0.500000    -0.500000     0.000000
   31     1.000000   120.000000    -0.577350     0.577350    -0.577350    -0.500000    -0.500000     0.000000
   32    -1.000000   120.000000    -0.577350     0.577350    -0.577350    -0.500000    -0.500000     0.000000
   33     1.000000   180.000000     0.000000     1.000000     0.000000    -0.500000    -1.000000     0.000000
   34    -1.000000   180.000000     0.000000     1.000000     0.000000    -0.500000    -1.000000     0.000000
   35     1.000000    90.000000     0.000000     0.000000    -1.000000    -1.000000    -1.000000     0.500000
   36    -1.000000    90.000000     0.000000     0.000000    -1.000000    -1.000000    -1.000000     0.500000
   37     1.000000    90.000000     0.000000    -1.000000     0.000000    -0.500000    -0.500000     0.000000
   38    -1.000000    90.000000     0.000000    -1.000000     0.000000    -0.500000    -0.500000     0.000000
   39     1.000000   120.000000     0.577350    -0.577350    -0.577350    -0.500000    -1.000000     0.000000
   40    -1.000000   120.000000     0.577350    -0.577350    -0.577350    -0.500000    -1.000000     0.000000
   41     1.000000   180.000000     0.000000     0.000000     1.000000    -0.500000    -0.500000     0.000000
   42    -1.000000   180.000000     0.000000     0.000000     1.000000    -0.500000    -0.500000     0.000000
   43     1.000000   120.000000     0.577350    -0.577350     0.577350    -1.000000    -1.000000     0.500000
   44    -1.000000   120.000000     0.577350    -0.577350     0.577350    -1.000000    -1.000000     0.500000
   45     1.000000   180.000000     0.707107     0.000000     0.707107    -0.500000    -1.000000     0.000000
   46    -1.000000   180.000000     0.707107     0.000000     0.707107    -0.500000    -1.000000     0.000000
   47     1.000000   180.000000     0.000000     0.707107     0.707107    -1.000000    -1.000000     0.500000
   48    -1.000000   180.000000     0.000000     0.707107     0.707107    -1.000000    -1.000000     0.500000

 Subroutine IBZKPT returns following result:

 Found      1 irreducible k-points:

 Following reciprocal coordinates:
            Coordinates               Weight
  0.000000  0.000000  0.000000      1.000000

[...]

 maximum number of plane-waves:      1644
 maximum index in each direction:
   IXMAX=   10   IYMAX=    8   IZMAX=   10
   IXMIN=    0   IYMIN=  -10   IZMIN=   -8

 The following grids will avoid any aliasing or wrap around errors in the Hartre
 e energy
  - symmetry arguments have not been applied
  - exchange correlation energies might require even more grid points
  - we recommend to set PREC=Normal or Accurate and rely on VASP defaults
 NGX is ok and might be reduce to    42
 NGY is ok and might be reduce to    40
 NGZ is ok and might be reduce to    40

 serial   3D FFT for wavefunctions
 parallel 3D FFT for charge:
    minimum data exchange during FFTs selected (reduces bandwidth)

 Broyden mixing: mesh for mixing (old mesh)
   NGX = 21   NGY = 21   NGZ = 21
  (NGX  = 84   NGY  = 84   NGZ  = 84)
  gives a total of   9261 points

 initial charge density was supplied:
 charge density of overlapping atoms calculated
 number of electron      94.0000000 magnetization      10.0000000
 keeping initial charge density in first step

 Maximum index for non-local projection operator         7395
 Maximum index for augmentation-charges         1572 (set IRDMAX)

 First call to EWALD:  gamma=   0.349
 Maximum number of real-space cells 3x 3x 3
 Maximum number of reciprocal cells 3x 3x 3

--------------------------------------- Iteration      1(   1)  ---------------------------------------

 eigenvalue-minimisations  :   272
 total energy-change (2. order) : 0.1152286E+04  (-0.4659484E+04)
 number of electron      94.0000000 magnetization      10.0000000
 augmentation part       94.0000000 magnetization      10.0000000

 Free energy of the ion-electron system (eV)
  alpha Z        PSCENC =       291.47673519
  Ewald energy   TEWEN  =     -5584.15561845
  -Hartree energ DENC   =     -2765.98898539
  -exchange      EXHF   =         0.00000000
  -V(xc)+E(xc)   XCENC  =       382.28533176
  PAW double counting   =      6775.46300624    -7084.83456608
  entropy T*S    EENTRO =        -0.00000000
  eigenvalues    EBANDS =       982.58691187
  atomic energy  EATOM  =      8155.45276952
  Solvation  Ediel_sol  =         0.00000000
  free energy    TOTEN  =      1152.28558465 eV

  energy without entropy =     1152.28558465  energy(sigma->0) =     1152.28558465

[...]

 eigenvalue-minimisations  :   336
 total energy-change (2. order) :-0.1108512E+04  (-0.9509987E+03)
 number of electron      94.0000000 magnetization      10.0000000
 augmentation part       94.0000000 magnetization      10.0000000

[...]

 Broyden mixing:
  rms(total) = 0.57408E+01    rms(broyden)= 0.57402E+01
  rms(prec ) = 0.98647E+01
  weight for this iteration     100.00

[...]

 eigenvalues of (default mixing * dielectric matrix)
  average eigenvalue GAMMA=   0.2913
  0.2913

[...]

 eigenvalue-minimisations  :   320
 total energy-change (2. order) : 0.3647283E+02  (-0.7551966E+01)
 number of electron      93.9999952 magnetization       1.9380291
 augmentation part       31.3501280 magnetization       1.5236766

[...]

 Broyden mixing:
  rms(total) = 0.18925E-02    rms(broyden)= 0.18921E-02
  rms(prec ) = 0.29941E-02
  weight for this iteration     100.00

 eigenvalues of (default mixing * dielectric matrix)
  average eigenvalue GAMMA=   1.1599
  2.5809  2.2346  1.1653  0.9450  0.9450  0.4834  0.8131  0.6357  0.6357

[...]

--------------------------------------- Iteration      1(  15)  ---------------------------------------

 eigenvalue-minimisations  :   272
 total energy-change (2. order) :-0.8766983E-05  (-0.1449463E-05)
 number of electron      93.9999952 magnetization       1.9991513
 augmentation part       31.2769506 magnetization       1.3651600

 Free energy of the ion-electron system (eV)
  alpha Z        PSCENC =       291.47673519
  Ewald energy   TEWEN  =     -5584.15561845
  -Hartree energ DENC   =     -2713.38973580
  -exchange      EXHF   =         0.00000000
  -V(xc)+E(xc)   XCENC  =       380.23212657
  PAW double counting   =      8992.20918019    -9314.84301388
  entropy T*S    EENTRO =        -0.03856558
  eigenvalues    EBANDS =      -293.64010017
  atomic energy  EATOM  =      8155.45276952
  Solvation  Ediel_sol  =         0.00000000
  free energy    TOTEN  =       -86.69622240 eV

  energy without entropy =      -86.65765682  energy(sigma->0) =      -86.67693961

 average (electrostatic) potential at core
  the test charge radii are     0.7079  0.9791  0.7215
  (the norm of the test charge is              1.0000)
       1 -58.1005       2 -58.1005       3 -87.3621       4 -87.3621       5 -87.3621
       6 -87.3621       7 -70.8293       8 -70.8293       9 -70.8293      10 -70.8293
      11 -70.8293      12 -70.8293      13 -70.8293      14 -70.8293

 E-fermi :   5.4995     XC(G=0): -11.3177     alpha+bet :-12.3743

 spin component 1

 k-point     1 :       0.0000    0.0000    0.0000
  band No.  band energies     occupation
      1     -38.7920      1.00000
      2     -38.7892      1.00000
      3     -15.5655      1.00000
      4     -14.1130      1.00000
      5     -13.5621      1.00000
      6     -13.5621      1.00000
      7     -13.5621      1.00000
      8     -13.4491      1.00000
      9     -13.4491      1.00000
     10     -13.4491      1.00000
     11      -2.8307      1.00000
     12      -2.6120      1.00000
     13      -2.6120      1.00000
     14      -2.6120      1.00000
     15      -1.4734      1.00000
     16      -1.4734      1.00000
     17      -1.2551      1.00000
     18      -1.2551      1.00000
     19      -0.9225      1.00000
     20      -0.6486      1.00000
     21      -0.6486      1.00000
     22      -0.6486      1.00000
     23       0.3851      1.00000
     24       0.3851      1.00000
     25       0.3851      1.00000
     26       1.0369      1.00000
     27       1.0369      1.00000
     28       1.0369      1.00000
     29       1.6153      1.00000
     30       1.6153      1.00000
     31       1.6153      1.00000
     32       1.9655      1.00000
     33       1.9655      1.00000
     34       2.5376      1.00000
     35       2.5376      1.00000
     36       2.5376      1.00000
     37       2.7853      1.00000
     38       2.7853      1.00000
     39       2.7853      1.00000
     40       2.7913      1.00000
     41       2.7913      1.00000
     42       2.7913      1.00000
     43       3.2137      1.00000
     44       3.2137      1.00000
     45       3.2137      1.00000
     46       3.5704      1.00000
     47       5.4843      0.66667
     48       5.4843      0.66667
     49       5.4843      0.66666
     50       6.0747      0.00000
     51       6.0747      0.00000
     52       6.0747      0.00000
     53       6.1696      0.00000
     54       6.1696      0.00000
     55      10.2765      0.00000
     56      13.0884      0.00000
     57      13.0885      0.00000
     58      13.0885      0.00000
     59      13.7604      0.00000
     60      13.7604      0.00000
     61      13.7604      0.00000
     62      16.9203      0.00000
     63      17.7760      0.00000
     64      17.9444      0.00000

 spin component 2

 k-point     1 :       0.0000    0.0000    0.0000
  band No.  band energies     occupation
      1     -38.7879      1.00000
      2     -38.7850      1.00000
      3     -15.4192      1.00000
      4     -13.9432      1.00000
      5     -13.3927      1.00000
      6     -13.3927      1.00000
      7     -13.3927      1.00000
      8     -13.2930      1.00000
      9     -13.2930      1.00000
     10     -13.2930      1.00000
     11      -2.6565      1.00000
     12      -2.5354      1.00000
     13      -2.5354      1.00000
     14      -2.5354      1.00000
     15      -1.2282      1.00000
     16      -1.2282      1.00000
     17      -1.2009      1.00000
     18      -1.2009      1.00000
     19      -0.7328      1.00000
     20      -0.3793      1.00000
     21      -0.3793      1.00000
     22      -0.3793      1.00000
     23       0.6901      1.00000
     24       0.6901      1.00000
     25       0.6901      1.00000
     26       1.1969      1.00000
     27       1.1969      1.00000
     28       1.1969      1.00000
     29       1.6906      1.00000
     30       1.6906      1.00000
     31       1.6906      1.00000
     32       2.2134      1.00000
     33       2.2134      1.00000
     34       2.8488      1.00000
     35       2.8488      1.00000
     36       2.8488      1.00000
     37       2.9978      1.00000
     38       2.9978      1.00000
     39       2.9978      1.00000
     40       3.0625      1.00000
     41       3.0626      1.00000
     42       3.0626      1.00000
     43       3.4461      1.00000
     44       3.4461      1.00000
     45       3.4461      1.00000
     46       3.8382      1.00000
     47       5.9640      0.00000
     48       5.9640      0.00000
     49       5.9640      0.00000
     50       6.4062      0.00000
     51       6.4062      0.00000
     52       6.4062      0.00000
     53       6.5135      0.00000
     54       6.5135      0.00000
     55      10.3279      0.00000
     56      13.1200      0.00000
     57      13.1200      0.00000
     58      13.1200      0.00000
     59      13.7799      0.00000
     60      13.7799      0.00000
     61      13.7799      0.00000
     62      16.9561      0.00000
     63      17.9306      0.00000
     64      18.0386      0.00000

 soft charge-density along one line, spin component           1
         0         1         2         3         4         5         6         7         8         9
 total charge-density along one line

 soft charge-density along one line, spin component           2
         0         1         2         3         4         5         6         7         8         9
 total charge-density along one line

------------------------ aborting loop because EDIFF is reached ----------------------------------------

  FORCE on cell =-STRESS in cart. coord.  units (eV):
  Direction    XX          YY          ZZ          XY          YZ          ZX
  Alpha Z   291.47674   291.47674   291.47674
  Ewald   -1861.38908 -1861.38908 -1861.38908    -0.00000     0.00000     0.00000
  Hartree   904.49172   904.49172   904.49172     0.00000    -0.00000     0.00000
  E(xc)    -478.86134  -478.86128  -478.86128    -0.00000     0.00000     0.00003
  Local    -841.88657  -841.88624  -841.88600     0.00000    -0.00000     0.00026
  n-local  -238.51305  -238.51335  -238.51326    -0.00003     0.00027    -0.00016
  augment   789.48628   789.48615   789.48612    -0.00000    -0.00000    -0.00005
  Kinetic  1435.24572  1435.24589  1435.24598     0.00003    -0.00022     0.00016
  Fock        0.00000     0.00000     0.00000     0.00000     0.00000     0.00000
  Total        0.0506275      0.0506275      0.0506275      0.0000000      0.0000000      0.0000000
  in kB        0.6216266      0.6216266      0.6216266      0.0000000      0.0000000      0.0000000

 VOLUME and BASIS-vectors are now :
  energy-cutoff  :      500.00
  volume of cell :      130.49
      direct lattice vectors                 reciprocal lattice vectors
     4.025742157  0.000000000  4.025742157     0.248401403  0.000000000  0.000000000
     0.000000000  4.025742157 -4.025742157     0.124200702  0.124200702 -0.124200702
     0.000000000  4.025742157  4.025742157    -0.124200702  0.124200702  0.124200702

  length of vectors
     5.693259157  5.693259157  5.693259157     0.248401403  0.215121925  0.215121925

 FORCES acting on ions
    electron-ion (+dipol)            ewald-force                    non-local-force                 convergence-correction
   -.143E-06 0.139E-06 0.213E-08   0.711E-14 0.413E-11 -.107E-13   0.635E-21 -.635E-21 0.212E-21   -.318E-13 -.487E-07 -.176E-13
   0.143E-06 -.139E-06 -.213E-08   0.240E-13 -.414E-11 0.111E-13   -.424E-21 0.212E-21 0.212E-21   0.270E-13 0.487E-07 0.178E-13
   -.322E-13 -.346E-13 0.411E-13   -.551E-13 -.103E-12 0.000E+00   0.000E+00 0.000E+00 -.159E-21   -.125E-13 -.155E-13 0.571E-13
   0.748E-13 0.667E-12 0.750E-12   -.302E-13 0.284E-13 0.105E-12   0.000E+00 0.159E-21 -.371E-21   0.450E-13 -.482E-13 0.894E-13
   0.635E-12 -.145E-10 -.138E-10   -.284E-13 0.124E-13 0.178E-13   0.000E+00 0.529E-22 0.159E-21   -.575E-13 0.278E-13 0.259E-13
   0.193E-11 -.833E-11 -.883E-11   -.622E-14 -.702E-13 0.102E-12   0.000E+00 -.212E-21 -.212E-21   0.539E-13 0.564E-14 -.131E-13
   0.187E+03 0.187E+03 0.187E+03   -.194E+03 -.194E+03 -.194E+03   0.714E+01 0.714E+01 0.714E+01   0.243E-02 0.243E-02 0.243E-02
   0.187E+03 -.187E+03 -.187E+03   -.194E+03 0.194E+03 0.194E+03   0.714E+01 -.714E+01 -.714E+01   0.243E-02 -.243E-02 -.243E-02
   -.187E+03 0.187E+03 -.187E+03   0.194E+03 -.194E+03 0.194E+03   -.714E+01 0.714E+01 -.714E+01   -.243E-02 0.243E-02 -.243E-02
   -.187E+03 -.187E+03 0.187E+03   0.194E+03 0.194E+03 -.194E+03   -.714E+01 -.714E+01 0.714E+01   -.243E-02 -.243E-02 0.243E-02
   -.187E+03 -.187E+03 -.187E+03   0.194E+03 0.194E+03 0.194E+03   -.714E+01 -.714E+01 -.714E+01   -.243E-02 -.243E-02 -.243E-02
   -.187E+03 0.187E+03 0.187E+03   0.194E+03 -.194E+03 -.194E+03   -.714E+01 0.714E+01 0.714E+01   -.243E-02 0.243E-02 0.243E-02
   0.187E+03 -.187E+03 0.187E+03   -.194E+03 0.194E+03 -.194E+03   0.714E+01 -.714E+01 0.714E+01   0.243E-02 -.243E-02 0.243E-02
   0.187E+03 0.187E+03 -.187E+03   -.194E+03 -.194E+03 0.194E+03   0.714E+01 0.714E+01 -.714E+01   0.243E-02 0.243E-02 -.243E-02
   0.491E-11 -.706E-11 -.758E-11   0.142E-12 0.000E+00 -.568E-13   -.888E-15 0.000E+00 0.888E-15   0.104E-12 -.286E-13 0.160E-12

 POSITION                                       TOTAL-FORCE (eV/Angst)
      3.01931      3.01931      3.01931        -0.000000      0.000000     -0.000000
      1.00644      5.03218      1.00644        -0.000000      0.000000     -0.000000
      0.00000      0.00000      0.00000        -0.000000      0.000000     -0.000000
      0.00000      2.01287      2.01287        -0.000000      0.000000     -0.000000
      2.01287      0.00000      2.01287        -0.000000      0.000000      0.000000
      2.01287      2.01287      0.00000        -0.000000      0.000000      0.000000
      2.15072      6.17647      2.15072        -0.005822     -0.005822     -0.005822
      2.15072      3.88789     -0.13785        -0.005822      0.005822      0.005822
      3.88789      6.17647      3.88789         0.005822     -0.005822      0.005822
      3.88789      3.88789      6.17647         0.005822      0.005822     -0.005822
      1.87502      1.87502      1.87502         0.005822      0.005822      0.005822
      1.87502      4.16359      4.16359         0.005822     -0.005822     -0.005822
      0.13785      1.87502      0.13785        -0.005822      0.005822     -0.005822
      0.13785      4.16359     -2.15072        -0.005822     -0.005822      0.005822
    total drift:                                0.000000     -0.000000     -0.000000

  FREE ENERGIE OF THE ION-ELECTRON SYSTEM (eV)
  free  energy   TOTEN  =       -86.6962224040 eV

  energy  without entropy=      -86.6576568241  energy(sigma->0) =      -86.67693961

 Quasi-Newton relaxation of ions (Broydens 2nd method)
  g(Force)  = 0.392E-04   g(Stress)= 0.265E-04

 Reset! Starting new Quasi-Newton update for ions

 reached required accuracy - stopping structural energy minimisation

volume of typ            1:    11.9 %

[...]

volume of typ            3:    10.0 %

total charge

# of ion       s       p       d       tot
    1        2.079   0.282   0.101   2.462
    2        2.079   0.282   0.101   2.462
    3        0.268   0.382   7.870   8.520
    4        0.268   0.382   7.870   8.520
    5        0.268   0.382   7.870   8.520
    6        0.268   0.382   7.870   8.520
    7        1.256   2.794   0.006   4.056
    8        1.256   2.794   0.006   4.056
    9        1.256   2.794   0.006   4.056
   10        1.256   2.794   0.006   4.056
   11        1.256   2.794   0.006   4.056
   12        1.256   2.794   0.006   4.056
   13        1.256   2.794   0.006   4.056
   14        1.256   2.794   0.006   4.056
tot          15.28   24.44   31.73   71.46

magnetization (x)

# of ion       s       p       d       tot
    1       -0.000   0.010   0.004   0.014
    2       -0.000   0.010   0.004   0.014
    3       -0.001  -0.002   0.321   0.319
    4       -0.001  -0.002   0.321   0.319
    5       -0.001  -0.002   0.321   0.319
    6       -0.001  -0.002   0.321   0.319
    7        0.008   0.067   0.000   0.076
    8        0.008   0.067   0.000   0.076
    9        0.008   0.067   0.000   0.076
   10        0.008   0.067   0.000   0.076
   11        0.008   0.067   0.000   0.076
   12        0.008   0.067   0.000   0.076
   13        0.008   0.067   0.000   0.076
   14        0.008   0.067   0.000   0.076
tot           0.06    0.55    1.29    1.91