 vasp.5.4.4.18Apr17-6-g9f103f2a35 (build May 12 2020 05:39:39) gamma-only

 MD_VERSION_INFO: Compiled 2020-05-12T12:39:39-UTC in devlin.sd.materialsdesign.
 com:/home/medea2/data/build/wwolf/vasp-gpu5.4.4/13047/x86_64/src/src/build/gam
 from svn 13047

 executed on                        Lin64 date 2023.02.09  12:13:46

 INCAR:
 POTCAR:    PAW_PBE Ni 02Aug2007
 POTCAR:    PAW_PBE O 08Apr2002

 POTCAR:    PAW_PBE Ni 02Aug2007

 POTCAR:    PAW_PBE O 08Apr2002

 Optimization of the real space projectors (new method)

 maximal supplied QI-value         = 16.25
 optimisation between [QCUT,QGAM] = [ 11.38, 22.75] = [ 36.24,144.96] Ry
 Optimized for a Real-space Cutoff    1.47 Angstroem

   l    n(q)    QCUT    max X(q) W(low)/X(q) W(high)/X(q)  e(spline)
   2      9    11.376    60.317    0.17E-03    0.16E-04    0.16E-06
   2      9    11.376    55.921    0.17E-03    0.16E-04    0.17E-06
   0     10    11.376    51.690    0.45E-04    0.60E-04    0.21E-06
   0     10    11.376    30.015    0.37E-04    0.55E-04    0.19E-06
   1     10    11.376    18.849    0.83E-04    0.11E-03    0.92E-07
   1     10    11.376    14.624    0.69E-04    0.92E-04    0.82E-07
 Optimization of the real space projectors (new method)

 maximal supplied QI-value         = 24.76
 optimisation between [QCUT,QGAM] = [ 11.39, 22.77] = [ 36.31,145.25] Ry
 Optimized for a Real-space Cutoff    1.10 Angstroem

   l    n(q)    QCUT    max X(q) W(low)/X(q) W(high)/X(q)  e(spline)
   0      7    11.387    20.381    0.22E-03    0.48E-03    0.18E-06
   0      7    11.387    15.268    0.22E-03    0.52E-03    0.19E-06
   1      7    11.387     5.964    0.22E-03    0.73E-03    0.24E-06
   1      7    11.387     5.382    0.19E-03    0.60E-03    0.21E-06

  PAW_PBE Ni 02Aug2007                  :
  PAW_PBE O 08Apr2002                   :

 POSCAR: ce3_1
  positions in direct lattice
 exchange correlation table for  LEXCH =       14
   RHO(1)=    0.500       N(1)  =     2000
   RHO(2)=  100.500       N(2)  =     4000

 ion  position               nearest neighbor table
   1  0.000  0.000  0.000-   7 1.85   8 1.85  11 1.85  12 1.85   6 1.85  10 1.85   2 2.78   3 2.78
                             4 2.78   2 2.78   3 2.78   4 2.78
   2  0.000  0.000  0.500-   7 1.85   8 1.85  11 1.85  12 1.85   5 1.85   9 1.85   1 2.78   1 2.78
                             3 2.78   4 2.78   3 2.78   4 2.78
   3  0.500  0.000  0.000-   5 1.85   9 1.85   6 1.85  10 1.85   8 1.85  12 1.85   1 2.78   4 2.78
                             2 2.78   4 2.78   1 2.78   2 2.78
   4  0.500  0.500  0.000-   5 1.85   6 1.85   9 1.85  10 1.85   7 1.85  11 1.85   1 2.78   3 2.78
                             2 2.78   3 2.78   1 2.78   2 2.78
   5  0.532  0.766  0.766-   3 1.85   4 1.85   2 1.85
   6  0.532  0.766  0.201-   3 1.85   4 1.85   1 1.85
   7  0.968  0.766  0.766-   1 1.85   2 1.85   4 1.85
   8  0.968  0.201  0.766-   1 1.85   2 1.85   3 1.85
   9  0.468  0.234  0.234-   3 1.85   4 1.85   2 1.85
  10  0.468  0.234  0.799-   3 1.85   4 1.85   1 1.85
  11  0.032  0.234  0.234-   1 1.85   2 1.85   4 1.85
  12  0.032  0.799  0.234-   1 1.85   2 1.85   3 1.85

  LATTYP: Found a face centered cubic cell.
 ALAT       =     7.8665099625

  Lattice vectors:

 A1 = (  -3.9332549812,   0.0000000000,   3.9332549812)
 A2 = (  -3.9332549812,  -3.9332549812,   0.0000000000)
 A3 = (   0.0000000000,  -3.9332549812,   3.9332549812)

Analysis of symmetry for initial positions (statically):
 Subroutine PRICEL returns:
 Original cell was already a primitive cell.

 Routine SETGRP: Setting up the symmetry group for a
 face centered cubic supercell.

 Subroutine GETGRP returns: Found 48 space group operations
 (whereof 12 operations were pure point group operations)
 out of a pool of 48 trial point group operations.

The static configuration has the point symmetry D_3d.
 The point group associated with its full space group is O_h .

Analysis of symmetry for dynamics (positions and initial velocities):
 Subroutine PRICEL returns:
 Original cell was already a primitive cell.

[...]

The dynamic configuration has the point symmetry D_3d.
 The point group associated with its full space group is O_h .

Analysis of structural, dynamic, and magnetic symmetry:
 Subroutine PRICEL returns:
 Original cell was already a primitive cell.

 Routine SETGRP: Setting up the symmetry group for a
 face centered cubic supercell.

 Subroutine GETGRP returns: Found 48 space group operations
 (whereof 12 operations were pure point group operations)
 out of a pool of 48 trial point group operations.

The magnetic configuration has the point symmetry D_3d.
 The point group associated with its full space group is O_h .

 Subroutine INISYM returns: Found 48 space group operations
 (whereof 12 operations are pure point group operations),
 and found     1 'primitive' translations

 KPOINTS: Automatic mesh

Automatic generation of k-mesh.
Space group operators:
 irot       det(A)        alpha          n_x          n_y          n_z        tau_x        tau_y        tau_z
    1     1.000000     0.000001     1.000000     0.000000     0.000000     0.000000     0.000000     0.000000
    2    -1.000000     0.000001     1.000000     0.000000     0.000000     0.000000     0.000000     0.000000
    3     1.000000   180.000000     0.707107     0.000000    -0.707107     0.000000     0.000000     0.000000
    4    -1.000000   180.000000     0.707107     0.000000    -0.707107     0.000000     0.000000     0.000000
    5     1.000000   120.000000     0.577350     0.577350     0.577350     0.000000     0.000000     0.000000
    6    -1.000000   120.000000     0.577350     0.577350     0.577350     0.000000     0.000000     0.000000
    7     1.000000   120.000000    -0.577350    -0.577350    -0.577350     0.000000     0.000000     0.000000
    8    -1.000000   120.000000    -0.577350    -0.577350    -0.577350     0.000000     0.000000     0.000000
    9     1.000000   180.000000     0.000000    -0.707107     0.707107     0.000000     0.000000     0.000000
   10    -1.000000   180.000000     0.000000    -0.707107     0.707107     0.000000     0.000000     0.000000
   11     1.000000   180.000000     0.707107    -0.707107     0.000000     0.000000     0.000000     0.000000
   12    -1.000000   180.000000     0.707107    -0.707107     0.000000     0.000000     0.000000     0.000000
   13     1.000000   120.000000     0.577350     0.577350    -0.577350    -0.500000    -1.000000     0.000000
   14    -1.000000   120.000000     0.577350     0.577350    -0.577350    -0.500000    -1.000000     0.000000
   15     1.000000   120.000000    -0.577350    -0.577350     0.577350    -1.000000    -1.000000     0.500000
   16    -1.000000   120.000000    -0.577350    -0.577350     0.577350    -1.000000    -1.000000     0.500000
   17     1.000000    90.000000     1.000000     0.000000     0.000000    -0.500000    -0.500000     0.000000
   18    -1.000000    90.000000     1.000000     0.000000     0.000000    -0.500000    -0.500000     0.000000
   19     1.000000    90.000000     0.000000     0.000000     1.000000    -0.500000    -1.000000     0.000000
   20    -1.000000    90.000000     0.000000     0.000000     1.000000    -0.500000    -1.000000     0.000000
   21     1.000000   180.000000     1.000000     0.000000     0.000000    -1.000000    -1.000000     0.500000
   22    -1.000000   180.000000     1.000000     0.000000     0.000000    -1.000000    -1.000000     0.500000
   23     1.000000   120.000000    -0.577350     0.577350     0.577350    -0.500000    -0.500000     0.000000
   24    -1.000000   120.000000    -0.577350     0.577350     0.577350    -0.500000    -0.500000     0.000000
   25     1.000000    90.000000    -1.000000     0.000000     0.000000    -0.500000    -1.000000     0.000000
   26    -1.000000    90.000000    -1.000000     0.000000     0.000000    -0.500000    -1.000000     0.000000
   27     1.000000    90.000000     0.000000     1.000000     0.000000    -1.000000    -1.000000     0.500000
   28    -1.000000    90.000000     0.000000     1.000000     0.000000    -1.000000    -1.000000     0.500000
   29     1.000000   180.000000     0.707107     0.707107     0.000000    -0.500000    -0.500000     0.000000
   30    -1.000000   180.000000     0.707107     0.707107     0.000000    -0.500000    -0.500000     0.000000
   31     1.000000   120.000000    -0.577350     0.577350    -0.577350    -0.500000    -0.500000     0.000000
   32    -1.000000   120.000000    -0.577350     0.577350    -0.577350    -0.500000    -0.500000     0.000000
   33     1.000000   180.000000     0.000000     1.000000     0.000000    -0.500000    -1.000000     0.000000
   34    -1.000000   180.000000     0.000000     1.000000     0.000000    -0.500000    -1.000000     0.000000
   35     1.000000    90.000000     0.000000     0.000000    -1.000000    -1.000000    -1.000000     0.500000
   36    -1.000000    90.000000     0.000000     0.000000    -1.000000    -1.000000    -1.000000     0.500000
   37     1.000000    90.000000     0.000000    -1.000000     0.000000    -0.500000    -0.500000     0.000000
   38    -1.000000    90.000000     0.000000    -1.000000     0.000000    -0.500000    -0.500000     0.000000
   39     1.000000   120.000000     0.577350    -0.577350    -0.577350    -0.500000    -1.000000     0.000000
   40    -1.000000   120.000000     0.577350    -0.577350    -0.577350    -0.500000    -1.000000     0.000000
   41     1.000000   180.000000     0.000000     0.000000     1.000000    -0.500000    -0.500000     0.000000
   42    -1.000000   180.000000     0.000000     0.000000     1.000000    -0.500000    -0.500000     0.000000
   43     1.000000   120.000000     0.577350    -0.577350     0.577350    -1.000000    -1.000000     0.500000
   44    -1.000000   120.000000     0.577350    -0.577350     0.577350    -1.000000    -1.000000     0.500000
   45     1.000000   180.000000     0.707107     0.000000     0.707107    -0.500000    -1.000000     0.000000
   46    -1.000000   180.000000     0.707107     0.000000     0.707107    -0.500000    -1.000000     0.000000
   47     1.000000   180.000000     0.000000     0.707107     0.707107    -1.000000    -1.000000     0.500000
   48    -1.000000   180.000000     0.000000     0.707107     0.707107    -1.000000    -1.000000     0.500000

 Subroutine IBZKPT returns following result:

 Found      1 irreducible k-points:

 Following reciprocal coordinates:
            Coordinates               Weight
  0.000000  0.000000  0.000000      1.000000

 Following cartesian coordinates:
            Coordinates               Weight
  0.000000  0.000000  0.000000      1.000000

 SYSTEM =  unknown system
 POSCAR =  ce3_1

 Startparameter for this run:
   NWRITE =      1    write-flag & timer
   PREC   = accura    normal or accurate (medium, high low for compatibility)
   ISTART =      0    job   : 0-new  1-cont  2-samecut
   ICHARG =      2    charge: 1-file 2-atom 10-const
   ISPIN  =      2    spin polarized calculation?
   LNONCOLLINEAR =      F non collinear calculations
   LSORBIT =      F    spin-orbit coupling
   INIWAV =      1    electr: 0-lowe 1-rand  2-diag
   LASPH  =      F    aspherical Exc in radial PAW
[...]
     31       0.7003      1.00000
     32       1.2752      1.00000
     33       1.2752      1.00000
     34       1.2752      1.00000
     35       1.5292      1.00000
     36       1.5292      1.00000
     37       1.5292      1.00000
     38       2.1629      1.00000
     39       2.1629      1.00000
     40       2.1629      1.00000
     41       2.2032      1.00000
     42       2.2032      1.00000
     43       2.2032      1.00000
     44       2.6068      1.00000
     45       4.8333      0.00000
     46       4.8333      0.00000
     47       4.8333      0.00000
     48       5.3374      0.00000
     49       5.3374      0.00000
     50       5.3374      0.00000
     51       5.4262      0.00000
     52       5.4262      0.00000
     53      10.8486      0.00000
     54      14.2962      0.00000
     55      14.2962      0.00000
     56      14.2962      0.00000
     57      15.5658      0.00000
     58      15.5659      0.00000
     59      15.5659      0.00000
     60      16.0906      0.00000
     61      17.5171      0.00000
     62      18.3000      0.00000
     63      18.3000      0.00000
     64      18.3000      0.00000

[...]

 soft charge-density along one line, spin component           1
         0         1         2         3         4         5         6         7         8         9
 total charge-density along one line

[...]

------------------------ aborting loop because EDIFF is reached ----------------------------------------

  FORCE on cell =-STRESS in cart. coord.  units (eV):
  Direction    XX          YY          ZZ          XY          YZ          ZX
  Alpha Z   281.48000   281.48000   281.48000
  Ewald   -1689.01907 -1689.01907 -1689.01907    -0.00000     0.00000    -0.00000
  Hartree   951.55337   951.55337   951.55337     0.00000    -0.00000     0.00000
  E(xc)    -450.45448  -450.45445  -450.45444     0.00000     0.00000     0.00002
  Local    -998.97323  -998.97278  -998.97246     0.00000     0.00000     0.00037
  n-local  -197.24095  -197.24092  -197.24094    -0.00006     0.00004    -0.00003
  augment   749.51479   749.51445   749.51421    -0.00000    -0.00000    -0.00029
  Kinetic  1353.00668  1353.00660  1353.00667     0.00006    -0.00002     0.00002
  Fock        0.00000     0.00000     0.00000     0.00000     0.00000     0.00000
  Total       -0.1327771     -0.1327771     -0.1327771      0.0000000     -0.0000000      0.0000000
  in kB       -1.7480241     -1.7480241     -1.7480241      0.0000000     -0.0000000      0.0000000

 VOLUME and BASIS-vectors are now :
  energy-cutoff  :      500.00
  volume of cell :      121.70
      direct lattice vectors                 reciprocal lattice vectors
     3.933254981  0.000000000  3.933254981     0.254242353  0.000000000  0.000000000
     0.000000000  3.933254981 -3.933254981     0.127121176  0.127121176 -0.127121176
     0.000000000  3.933254981  3.933254981    -0.127121176  0.127121176  0.127121176

[...]

 FORCES acting on ions
    electron-ion (+dipol)            ewald-force                    non-local-force                 convergence-correction
   0.138E-14 0.442E-13 0.101E-12   -.355E-14 -.338E-13 -.171E-12   0.000E+00 0.111E-21 -.313E-21   -.157E-13 -.303E-13 0.104E-12
   0.786E-14 0.605E-12 0.674E-12   0.515E-13 0.171E-12 0.853E-13   0.000E+00 0.529E-22 -.529E-22   0.390E-13 -.666E-13 0.111E-12
   0.546E-12 -.147E-10 -.141E-10   0.284E-13 0.906E-13 -.146E-12   0.000E+00 -.159E-21 0.212E-21   -.490E-13 0.413E-13 0.503E-13
   0.193E-11 -.882E-11 -.930E-11   0.888E-14 -.126E-12 0.737E-13   0.000E+00 -.106E-21 0.424E-21   0.455E-13 0.764E-14 -.302E-15
   0.219E+03 0.219E+03 0.219E+03   -.234E+03 -.234E+03 -.234E+03   0.148E+02 0.148E+02 0.148E+02   0.240E-03 0.240E-03 0.240E-03
   0.219E+03 -.219E+03 -.219E+03   -.234E+03 0.234E+03 0.234E+03   0.148E+02 -.148E+02 -.148E+02   0.240E-03 -.240E-03 -.240E-03
   -.219E+03 0.219E+03 -.219E+03   0.234E+03 -.234E+03 0.234E+03   -.148E+02 0.148E+02 -.148E+02   -.240E-03 0.240E-03 -.240E-03
   -.219E+03 -.219E+03 0.219E+03   0.234E+03 0.234E+03 -.234E+03   -.148E+02 -.148E+02 0.148E+02   -.240E-03 -.240E-03 0.240E-03
   -.219E+03 -.219E+03 -.219E+03   0.234E+03 0.234E+03 0.234E+03   -.148E+02 -.148E+02 -.148E+02   -.240E-03 -.240E-03 -.240E-03
   -.219E+03 0.219E+03 0.219E+03   0.234E+03 -.234E+03 -.234E+03   -.148E+02 0.148E+02 0.148E+02   -.240E-03 0.240E-03 0.240E-03
   0.219E+03 -.219E+03 0.219E+03   -.234E+03 0.234E+03 -.234E+03   0.148E+02 -.148E+02 0.148E+02   0.240E-03 -.240E-03 0.240E-03
   0.219E+03 0.219E+03 -.219E+03   -.234E+03 -.234E+03 0.234E+03   0.148E+02 0.148E+02 -.148E+02   0.240E-03 0.240E-03 -.240E-03
   0.535E-12 -.123E-10 -.202E-10   0.284E-13 0.568E-13 0.568E-13   0.178E-14 -.178E-14 0.000E+00   0.554E-13 -.653E-13 0.292E-12

 POSITION                                       TOTAL-FORCE (eV/Angst)
      0.00000      0.00000      0.00000         0.000000     -0.000000     -0.000000
      0.00000      1.96663      1.96663         0.000000     -0.000000     -0.000000
      1.96663      0.00000      1.96663         0.000000     -0.000000     -0.000000
      1.96663      1.96663      0.00000         0.000000     -0.000000     -0.000000
      2.09436      6.02761      2.09436        -0.021055     -0.021055     -0.021055
      2.09436      3.80553     -0.12773        -0.021055      0.021055      0.021055
      3.80553      6.02761      3.80553         0.021055     -0.021055      0.021055
      3.80553      3.80553      6.02761         0.021055      0.021055     -0.021055
      1.83890      1.83890      1.83890         0.021055      0.021055      0.021055
      1.83890      4.06098      4.06098         0.021055     -0.021055     -0.021055
      0.12773      1.83890      0.12773        -0.021055      0.021055     -0.021055
      0.12773      4.06098     -2.09436        -0.021055     -0.021055      0.021055
    total drift:                                0.000000     -0.000000     -0.000000

  FREE ENERGIE OF THE ION-ELECTRON SYSTEM (eV)
  free  energy   TOTEN  =       -76.8955129311 eV

  energy  without entropy=      -76.8955129311  energy(sigma->0) =      -76.89551293

 Quasi-Newton relaxation of ions (Broydens 2nd method)
  g(Force)  = 0.513E-03   g(Stress)= 0.213E-03

 Reset! Starting new Quasi-Newton update for ions

[...]

 eigenvalue-minimisations  :   256
 total energy-change (2. order) :-0.2511576E-02  (-0.1658616E-01)
 number of electron      88.0000019 magnetization      -0.0000075
 augmentation part       28.9367918 magnetization       0.0000318

  free energy =  -0.768980220163E+02  energy without entropy=  -0.768980220163E+02

[...]

 eigenvalues of (default mixing * dielectric matrix)
  average eigenvalue GAMMA=   1.2181
  0.3410  1.0030  1.2732  2.2551

[...]

--------------------------------------- Iteration      2(   6)  ---------------------------------------

 eigenvalue-minimisations  :   160
 total energy-change (2. order) : 0.2115027E-05  (-0.2731679E-06)
 number of electron      88.0000019 magnetization       0.0000002
 augmentation part       28.9714935 magnetization      -0.0000029

  free energy =  -0.768960996116E+02  energy without entropy=  -0.768960996116E+02

 average (electrostatic) potential at core
  the test charge radii are     0.9791  0.7215
  (the norm of the test charge is              1.0000)
       1 -88.8433       2 -88.8433       3 -88.8433       4 -88.8433       5 -72.1212
       6 -72.1212       7 -72.1212       8 -72.1212       9 -72.1212      10 -72.1212
      11 -72.1212      12 -72.1212

 E-fermi :   2.9117     XC(G=0): -11.1471     alpha+bet :-10.8270

[...]

 spin component 2

 k-point     1 :       0.0000    0.0000    0.0000
  band No.  band energies     occupation
      1     -16.9390      1.00000
      2     -15.3275      1.00000
      3     -14.6727      1.00000
      4     -14.6727      1.00000
      5     -14.6727      1.00000
      6     -14.4435      1.00000
      7     -14.4435      1.00000
      8     -14.4435      1.00000
      9      -3.9356      1.00000
     10      -3.6790      1.00000
     11      -3.6790      1.00000
     12      -3.6790      1.00000
     13      -2.8580      1.00000
     14      -2.8580      1.00000
     15      -2.2681      1.00000
     16      -2.2681      1.00000
     17      -1.9211      1.00000
     18      -1.9211      1.00000
     19      -1.9211      1.00000
     20      -1.6243      1.00000
     21      -0.4965      1.00000
     22      -0.4965      1.00000
     23      -0.4965      1.00000
     24       0.3689      1.00000
     25       0.3689      1.00000
     26       0.3689      1.00000
     27       0.7055      1.00000
     28       0.7055      1.00000
     29       0.7055      1.00000
     30       0.7146      1.00000
     31       0.7146      1.00000
     32       1.2946      1.00000
     33       1.2946      1.00000
     34       1.2946      1.00000
     35       1.5476      1.00000
     36       1.5476      1.00000
     37       1.5476      1.00000
     38       2.1803      1.00000
     39       2.1803      1.00000
     40       2.1803      1.00000
     41       2.2192      1.00000
     42       2.2192      1.00000
     43       2.2192      1.00000
     44       2.6184      1.00000
     45       4.8557      0.00000
     46       4.8557      0.00000
     47       4.8557      0.00000
     48       5.3546      0.00000
     49       5.3546      0.00000
     50       5.3546      0.00000
     51       5.4433      0.00000
     52       5.4433      0.00000
     53      10.8768      0.00000
     54      14.3196      0.00000
     55      14.3196      0.00000
     56      14.3196      0.00000
     57      15.5902      0.00000
     58      15.5902      0.00000
     59      15.5902      0.00000
     60      16.1067      0.00000
     61      17.5579      0.00000
     62      18.3329      0.00000
     63      18.3329      0.00000
     64      18.3329      0.00000

[...]

 soft charge-density along one line, spin component           2
         0         1         2         3         4         5         6         7         8         9
 total charge-density along one line

------------------------ aborting loop because EDIFF is reached ----------------------------------------

  FORCE on cell =-STRESS in cart. coord.  units (eV):
  Direction    XX          YY          ZZ          XY          YZ          ZX
  Alpha Z   281.93124   281.93124   281.93124
  Ewald   -1691.82219 -1691.82219 -1691.82219    -0.00000     0.00000     0.00000
  Hartree   949.34340   949.34340   949.34340     0.00000    -0.00000     0.00000
  E(xc)    -450.47219  -450.47215  -450.47215     0.00000     0.00000     0.00002
  Local    -994.41573  -994.41528  -994.41497     0.00000    -0.00000     0.00037
  n-local  -197.23437  -197.23446  -197.23450    -0.00000     0.00000    -0.00003
  augment   749.49526   749.49491   749.49467    -0.00000    -0.00000    -0.00029
  Kinetic  1353.05916  1353.05914  1353.05927     0.00000    -0.00000    -0.00002
  Fock        0.00000     0.00000     0.00000     0.00000     0.00000     0.00000
  Total       -0.1153463     -0.1153463     -0.1153463     -0.0000000     -0.0000000      0.0000000
  in kB       -1.5209798     -1.5209798     -1.5209798     -0.0000000     -0.0000000      0.0000000

 VOLUME and BASIS-vectors are now :
  energy-cutoff  :      500.00
  volume of cell :      121.50
      direct lattice vectors                 reciprocal lattice vectors
     3.931155436 -0.000000000  3.931155436     0.254378138 -0.000000000  0.000000000
     0.000000000  3.931155436 -3.931155436     0.127189069  0.127189069 -0.127189069
     0.000000000  3.931155436  3.931155436    -0.127189069  0.127189069  0.127189069

  length of vectors
     5.559493334  5.559493334  5.559493334     0.254378138  0.220297930  0.220297930

 FORCES acting on ions
    electron-ion (+dipol)            ewald-force                    non-local-force                 convergence-correction
   0.218E-13 0.594E-13 0.125E-12   -.249E-13 -.693E-13 0.284E-13   -.400E-30 0.132E-22 -.199E-22   -.277E-12 -.168E-12 -.179E-13
   0.404E-13 0.606E-12 0.686E-12   -.107E-13 0.000E+00 0.284E-13   0.211E-32 0.000E+00 -.397E-22   -.125E-12 -.123E-12 0.168E-12
   0.524E-12 -.147E-10 -.140E-10   -.284E-13 0.213E-13 0.195E-13   0.525E-30 0.132E-22 0.132E-22   -.190E-12 -.319E-12 0.525E-12
   0.191E-11 -.880E-11 -.927E-11   0.542E-13 0.462E-13 -.231E-13   0.356E-30 0.000E+00 -.232E-22   -.505E-13 0.409E-12 -.385E-12
   0.219E+03 0.219E+03 0.219E+03   -.234E+03 -.234E+03 -.234E+03   0.148E+02 0.148E+02 0.148E+02   -.195E-02 -.195E-02 -.195E-02
   0.219E+03 -.219E+03 -.219E+03   -.234E+03 0.234E+03 0.234E+03   0.148E+02 -.148E+02 -.148E+02   -.195E-02 0.195E-02 0.195E-02
   -.219E+03 0.219E+03 -.219E+03   0.234E+03 -.234E+03 0.234E+03   -.148E+02 0.148E+02 -.148E+02   0.195E-02 -.195E-02 0.195E-02
   -.219E+03 -.219E+03 0.219E+03   0.234E+03 0.234E+03 -.234E+03   -.148E+02 -.148E+02 0.148E+02   0.195E-02 0.195E-02 -.195E-02
   -.219E+03 -.219E+03 -.219E+03   0.234E+03 0.234E+03 0.234E+03   -.148E+02 -.148E+02 -.148E+02   0.195E-02 0.195E-02 0.195E-02
   -.219E+03 0.219E+03 0.219E+03   0.234E+03 -.234E+03 -.234E+03   -.148E+02 0.148E+02 0.148E+02   0.195E-02 -.195E-02 -.195E-02
   0.219E+03 -.219E+03 0.219E+03   -.234E+03 0.234E+03 -.234E+03   0.148E+02 -.148E+02 0.148E+02   -.195E-02 0.195E-02 -.195E-02
   0.219E+03 0.219E+03 -.219E+03   -.234E+03 -.234E+03 0.234E+03   0.148E+02 0.148E+02 -.148E+02   -.195E-02 -.195E-02 0.195E-02
   0.994E-11 -.334E-10 -.178E-10   0.568E-13 0.000E+00 0.000E+00   0.000E+00 0.000E+00 -.533E-14   -.808E-12 0.100E-12 0.352E-12

 POSITION                                       TOTAL-FORCE (eV/Angst)
     -0.00000     -0.00000     -0.00000        -0.000000      0.000000      0.000000
      0.00000      1.96558      1.96558        -0.000000      0.000000      0.000000
      1.96558     -0.00000      1.96558        -0.000000      0.000000      0.000000
      1.96558      1.96558     -0.00000        -0.000000      0.000000      0.000000
      2.09222      6.02338      2.09222        -0.008786     -0.008786     -0.008786
      2.09222      3.80451     -0.12664        -0.008786      0.008786      0.008786
      3.80451      6.02338      3.80451         0.008786     -0.008786      0.008786
      3.80451      3.80451      6.02338         0.008786      0.008786     -0.008786
      1.83893      1.83893      1.83893         0.008786      0.008786      0.008786
      1.83893      4.05780      4.05780         0.008786     -0.008786     -0.008786
      0.12664      1.83893      0.12664        -0.008786      0.008786     -0.008786
      0.12664      4.05780     -2.09222        -0.008786     -0.008786      0.008786
    total drift:                                0.000000     -0.000000     -0.000000

  FREE ENERGIE OF THE ION-ELECTRON SYSTEM (eV)
  free  energy   TOTEN  =       -76.8960996116 eV

  energy  without entropy=      -76.8960996116  energy(sigma->0) =      -76.89609961

 d Force = 0.3635307E-03[ 0.214E-03, 0.513E-03]  d Energy = 0.5866804E-03-0.223E-03
 d Force = 0.5700161E+01[ 0.570E+01, 0.570E+01]  d Ewald  = 0.8409407E+01-0.271E+01

 Quasi-Newton relaxation of ions (Broydens 2nd method)
  g(Force)  = 0.894E-04   g(Stress)= 0.160E-03

 retain information from N=  1 steps
 eigenvalues of (default step * inverse Hessian matrix)
  average eigenvalue of G=   4.6748
 eigenvalue spectrum of G is  4.6748

 reached required accuracy - stopping structural energy minimisation

volume of typ            1:    21.0 %

volume of typ            2:    10.7 %

total charge

# of ion       s       p       d       tot
    1        0.296   0.436   7.859   8.590
    2        0.296   0.436   7.859   8.590
    3        0.296   0.436   7.859   8.590
    4        0.296   0.436   7.859   8.590
    5        1.276   2.743   0.009   4.027
    6        1.276   2.743   0.009   4.027
    7        1.276   2.743   0.009   4.027
    8        1.276   2.743   0.009   4.027
    9        1.276   2.743   0.009   4.027
   10        1.276   2.743   0.009   4.027
   11        1.276   2.743   0.009   4.027
   12        1.276   2.743   0.009   4.027
tot          11.39   23.69   31.50   66.58

magnetization (x)

# of ion       s       p       d       tot
    1       -0.000  -0.000  -0.000  -0.000
    2       -0.000  -0.000  -0.000  -0.000
    3       -0.000  -0.000  -0.000  -0.000
    4       -0.000  -0.000  -0.000  -0.000
    5        0.000   0.000  -0.000   0.000
    6        0.000   0.000  -0.000   0.000
    7        0.000   0.000  -0.000   0.000
    8        0.000   0.000  -0.000   0.000
    9        0.000   0.000  -0.000   0.000
   10        0.000   0.000  -0.000   0.000
   11        0.000   0.000  -0.000   0.000
   12        0.000   0.000  -0.000   0.000
tot           0.00    0.00   -0.00    0.00