 vasp.5.4.4.18Apr17-6-g9f103f2a35 (build May 12 2020 05:39:39) gamma-only

 MD_VERSION_INFO: Compiled 2020-05-12T12:39:39-UTC in devlin.sd.materialsdesign.
 com:/home/medea2/data/build/wwolf/vasp-gpu5.4.4/13047/x86_64/src/src/build/gam
 from svn 13047

 executed on                        Lin64 date 2023.02.09  12:27:29

 INCAR:
 POTCAR:    PAW_PBE Li_sv 10Sep2004
 POTCAR:    PAW_PBE Ni 02Aug2007
 POTCAR:    PAW_PBE O 08Apr2002

 POTCAR:    PAW_PBE Li_sv 10Sep2004

 POTCAR:    PAW_PBE Ni 02Aug2007

 POTCAR:    PAW_PBE O 08Apr2002

 Optimization of the real space projectors (new method)

 maximal supplied QI-value         = 22.11
 optimisation between [QCUT,QGAM] = [ 11.28, 22.77] = [ 35.61,145.23] Ry
 Optimized for a Real-space Cutoff    1.10 Angstroem

   l    n(q)    QCUT    max X(q) W(low)/X(q) W(high)/X(q)  e(spline)
   0      7    11.276    10.506    0.54E-04    0.58E-04    0.16E-07
   0      7    11.276     8.367    0.11E-03    0.14E-03    0.35E-07
   1      7    11.276     8.983    0.23E-03    0.43E-03    0.86E-07
 Optimization of the real space projectors (new method)

[...]

   l    n(q)    QCUT    max X(q) W(low)/X(q) W(high)/X(q)  e(spline)
   2      9    11.376    60.317    0.17E-03    0.16E-04    0.16E-06
   2      9    11.376    55.921    0.17E-03    0.16E-04    0.17E-06
   0     10    11.376    51.690    0.45E-04    0.60E-04    0.21E-06
   0     10    11.376    30.015    0.37E-04    0.55E-04    0.19E-06
   1     10    11.376    18.849    0.83E-04    0.11E-03    0.92E-07
   1     10    11.376    14.624    0.69E-04    0.92E-04    0.82E-07
 Optimization of the real space projectors (new method)

 maximal supplied QI-value         = 24.76
 optimisation between [QCUT,QGAM] = [ 11.39, 22.77] = [ 36.31,145.25] Ry
 Optimized for a Real-space Cutoff    1.10 Angstroem

   l    n(q)    QCUT    max X(q) W(low)/X(q) W(high)/X(q)  e(spline)
   0      7    11.387    20.381    0.22E-03    0.48E-03    0.18E-06
   0      7    11.387    15.268    0.22E-03    0.52E-03    0.19E-06
   1      7    11.387     5.964    0.22E-03    0.73E-03    0.24E-06
   1      7    11.387     5.382    0.19E-03    0.60E-03    0.21E-06

  PAW_PBE Li_sv 10Sep2004               :
  PAW_PBE Ni 02Aug2007                  :
  PAW_PBE O 08Apr2002                   :

 POSCAR: ce5_1
  positions in direct lattice
 exchange correlation table for  LEXCH =       14
   RHO(1)=    0.500       N(1)  =     2000
   RHO(2)=  100.500       N(2)  =     4000

 ion  position               nearest neighbor table
   1  0.942  0.384  0.174-  21 1.90  23 1.90  19 1.90  26 2.04
   2  0.558  0.616  0.326-  13 1.90  15 1.90  11 1.90  17 2.04
   3  0.001  0.002  0.997-  16 1.85  14 1.85  21 1.87  23 1.87  25 1.87  17 1.88  10 2.76   9 2.80
                             7 2.83   5 2.83   5 2.83   7 2.83
   4  0.499  0.998  0.503-  24 1.85  22 1.85  13 1.87  15 1.87  18 1.87  26 1.88  10 2.76   9 2.80
                             8 2.83   6 2.83   6 2.83   8 2.83
   5  0.501  0.002  0.997-  12 1.85  16 1.85  19 1.87  23 1.87  25 1.87  17 1.88  10 2.76   9 2.80
                             7 2.83   3 2.83   3 2.83   7 2.83
   6  0.999  0.998  0.503-  20 1.85  24 1.85  11 1.87  15 1.87  18 1.87  26 1.88  10 2.76   9 2.80
                             8 2.83   4 2.83   4 2.83   8 2.83
   7  0.501  0.502  0.997-  12 1.85  14 1.85  19 1.87  21 1.87  25 1.87  17 1.88  10 2.76   9 2.80
                             5 2.83   3 2.83   3 2.83   5 2.83
   8  0.999  0.498  0.503-  20 1.85  22 1.85  11 1.87  13 1.87  18 1.87  26 1.88  10 2.76   9 2.80
                             6 2.83   4 2.83   4 2.83   6 2.83
   9  0.250  0.000  0.250-  15 1.91  23 1.91  21 1.91  13 1.91  11 1.91  19 1.91   5 2.80   6 2.80
                             3 2.80   4 2.80   7 2.80   8 2.80
  10  0.750  0.000  0.750-  16 1.89  24 1.89  22 1.89  14 1.89  12 1.89  20 1.89   7 2.76   8 2.76
                             3 2.76   4 2.76   5 2.76   6 2.76
  11  0.907  0.759  0.388-   6 1.87   8 1.87   2 1.90   9 1.91
  12  0.409  0.762  0.885-   7 1.85   5 1.85  10 1.89
  13  0.352  0.759  0.388-   8 1.87   4 1.87   2 1.90   9 1.91
  14  0.853  0.762  0.885-   7 1.85   3 1.85  10 1.89
  15  0.352  0.205  0.388-   6 1.87   4 1.87   2 1.90   9 1.91
  16  0.853  0.206  0.885-   3 1.85   5 1.85  10 1.89
  17  0.633  0.767  0.100-   3 1.88   7 1.88   5 1.88   2 2.04
  18  0.132  0.765  0.603-   4 1.87   6 1.87   8 1.87
  19  0.593  0.241  0.112-   5 1.87   7 1.87   1 1.90   9 1.91
  20  0.091  0.238  0.615-   8 1.85   6 1.85  10 1.89
  21  0.148  0.241  0.112-   7 1.87   3 1.87   1 1.90   9 1.91
  22  0.647  0.238  0.615-   8 1.85   4 1.85  10 1.89
  23  0.148  0.795  0.112-   5 1.87   3 1.87   1 1.90   9 1.91
  24  0.647  0.794  0.615-   4 1.85   6 1.85  10 1.89
  25  0.368  0.235  0.897-   3 1.87   5 1.87   7 1.87
  26  0.867  0.233  0.400-   4 1.88   8 1.88   6 1.88   1 2.04

  LATTYP: Found a trigonal (rhomboedric) cell.
 ALAT       =     9.5742620087
 COS(alpha) =     0.8252550349

  Lattice vectors:

 A1 = (  -3.8616625463,  -7.8639441610,   3.8616625463)
 A2 = (  -3.8616625463,  -3.8616625463,   7.8639441610)
 A3 = (  -7.8639441610,  -3.8616625463,   3.8616625463)

Analysis of symmetry for initial positions (statically):
 Subroutine PRICEL returns:
 Original cell was already a primitive cell.

 Routine SETGRP: Setting up the symmetry group for a
 trigonal (rhombohedral) supercell.

 Subroutine GETGRP returns: Found 12 space group operations
 (whereof  2 operations were pure point group operations)
 out of a pool of 12 trial point group operations.

The static configuration has the point symmetry C_1h.
 The point group associated with its full space group is D_3d.

Analysis of symmetry for dynamics (positions and initial velocities):
 Subroutine PRICEL returns:
 Original cell was already a primitive cell.

[...]

The dynamic configuration has the point symmetry C_1h.
 The point group associated with its full space group is D_3d.

Analysis of structural, dynamic, and magnetic symmetry:
 Subroutine PRICEL returns:
 Original cell was already a primitive cell.

 Routine SETGRP: Setting up the symmetry group for a
 trigonal (rhombohedral) supercell.

 Subroutine GETGRP returns: Found 12 space group operations
 (whereof  2 operations were pure point group operations)
 out of a pool of 12 trial point group operations.

The magnetic configuration has the point symmetry C_1h.
 The point group associated with its full space group is D_3d.

 Subroutine INISYM returns: Found 12 space group operations
 (whereof  2 operations are pure point group operations),
 and found     1 'primitive' translations

 KPOINTS: Automatic mesh

Automatic generation of k-mesh.
Space group operators:
 irot       det(A)        alpha          n_x          n_y          n_z        tau_x        tau_y        tau_z
    1     1.000000     0.000000     1.000000     0.000000     0.000000     0.000000     0.000000     0.000000
    2    -1.000000   180.000000    -0.707107     0.707107     0.000000     0.000000     0.000000     0.000000
    3    -1.000000     0.000000     1.000000     0.000000     0.000000     0.500000     1.000000    -1.500000
    4     1.000000   180.000000     0.707107     0.000000     0.707107    -0.000000     0.500000    -0.500000
    5    -1.000000   180.000000     0.707107     0.000000     0.707107     0.500000     0.500000    -1.000000
    6     1.000000   120.000000     0.577350     0.577350    -0.577350     0.500000     0.500000    -1.000000
    7    -1.000000   120.000000     0.577350     0.577350    -0.577350     0.000000     0.500000    -0.500000
    8     1.000000   180.000000    -0.000000    -0.707107    -0.707107     0.000000     0.000000    -0.500000
    9    -1.000000   180.000000    -0.000000    -0.707107    -0.707107     0.500000     1.000000    -1.000000
   10     1.000000   120.000000    -0.577350    -0.577350     0.577350     0.500000     1.000000    -1.000000
   11    -1.000000   120.000000    -0.577350    -0.577350     0.577350     0.000000    -0.000000    -0.500000
   12     1.000000   180.000000    -0.707107     0.707107     0.000000     0.500000     1.000000    -1.500000

 Subroutine IBZKPT returns following result:

 Found      1 irreducible k-points:

 Following reciprocal coordinates:
            Coordinates               Weight
  0.000000  0.000000  0.000000      1.000000

 Following cartesian coordinates:
            Coordinates               Weight
  0.000000  0.000000  0.000000      1.000000

 SYSTEM =  unknown system
 POSCAR =  ce5_1

 Startparameter for this run:
   NWRITE =      1    write-flag & timer
   PREC   = accura    normal or accurate (medium, high low for compatibility)
   ISTART =      0    job   : 0-new  1-cont  2-samecut
   ICHARG =      2    charge: 1-file 2-atom 10-const
   ISPIN  =      2    spin polarized calculation?
   LNONCOLLINEAR =      F non collinear calculations
   LSORBIT =      F    spin-orbit coupling
   INIWAV =      1    electr: 0-lowe 1-rand  2-diag
   LASPH  =      F    aspherical Exc in radial PAW
   METAGGA=      F    non-selfconsistent MetaGGA calc.

 Electronic Relaxation 1
   ENCUT  =  500.0 eV  36.75 Ry    6.06 a.u.  10.32 10.32 17.46*2*pi/ulx,y,z
   ENINI  =  500.0     initial cutoff
   ENAUG  =  628.9 eV  augmentation charge cutoff
   NELM   =     80;   NELMIN=  2; NELMDL= -5     # of ELM steps
   EDIFF  = 0.1E-04   stopping-criterion for ELM
   LREAL  =      T    real-space projection
   NLSPLINE    = F    spline interpolate recip. space projectors
   LCOMPAT=      F    compatible to vasp.4.4
   GGA_COMPAT  = T    GGA compatible to vasp.4.4-vasp.4.6
   LMAXPAW     = -100 max onsite density
   LMAXMIX     =    2 max onsite mixed and CHGCAR
   VOSKOWN=      1    Vosko Wilk Nusair interpolation
   ROPT   =   -0.00025  -0.00025  -0.00025
 Ionic relaxation
   EDIFFG = -.2E-01   stopping-criterion for IOM
   NSW    =     20    number of steps for IOM
   NBLOCK =      1;   KBLOCK =     20    inner block; outer block
   IBRION =      1    ionic relax: 0-MD 1-quasi-New 2-CG
   NFREE  =      0    steps in history (QN), initial steepest desc. (CG)
   ISIF   =      3    stress and relaxation
   IWAVPR =     11    prediction:  0-non 1-charg 2-wave 3-comb
   ISYM   =      2    0-nonsym 1-usesym 2-fastsym
   LCORR  =      T    Harris-Foulkes like correction to forces

   POTIM  = 0.5000    time-step for ionic-motion
   TEIN   =    0.0    initial temperature
   TEBEG  =    0.0;   TEEND  =   0.0 temperature during run
   SMASS  =  -3.00    Nose mass-parameter (am)
   estimated Nose-frequenzy (Omega)   =  0.10E-29 period in steps =****** mass=  -0.732E-27a.u.
   SCALEE = 1.0000    scale energy and forces
   NPACO  =    256;   APACO  = 16.0  distance and # of slots for P.C.
   PSTRESS=    0.0 pullay stress

  Mass of Ions in am
   POMASS =   7.01 58.69 16.00
  Ionic Valenz
   ZVAL   =   3.00 10.00  6.00
  Atomic Wigner-Seitz radii
  virtual crystal weights
   VCA    =   1.00  1.00  1.00
   NELECT =     182.0000    total number of electrons
   NUPDOWN=      -1.0000    fix difference up-down

 DOS related values:
   EMIN   =  10.00;   EMAX   =-10.00  energy-range for DOS
   EFERMI =   0.00
[...]

  FREE ENERGIE OF THE ION-ELECTRON SYSTEM (eV)
  free  energy   TOTEN  =      -162.6082050416 eV

  energy  without entropy=     -162.5721880814  energy(sigma->0) =     -162.59019656

 Quasi-Newton relaxation of ions (Broydens 2nd method)
  g(Force)  = 0.464E-03   g(Stress)= 0.951E-03

 Reset! Starting new Quasi-Newton update for ions

[...]

  free energy =  -0.162613413076E+03  energy without entropy=  -0.162576745921E+03

[...]

 d Force = 0.3150519E-04[-0.401E-03, 0.464E-03]  d Energy = 0.3227207E-03-0.291E-03
 d Force = 0.3339341E+01[ 0.333E+01, 0.335E+01]  d Ewald  =-0.2408708E+01 0.575E+01

[...]

 retain information from N=  1 steps
 eigenvalues of (default step * inverse Hessian matrix)
  average eigenvalue of G=   0.3717
 eigenvalue spectrum of G is  0.3717

[...]

 d Force = 0.2269447E-03[ 0.809E-04, 0.373E-03]  d Energy = 0.4438037E-03-0.217E-03
 d Force =-0.2391102E+01[-0.239E+01,-0.239E+01]  d Ewald  = 0.6768142E+00-0.307E+01

[...]

 d Force = 0.1134104E-03[ 0.907E-04, 0.136E-03]  d Energy = 0.2234481E-03-0.110E-03
 d Force =-0.3193859E+00[-0.320E+00,-0.319E+00]  d Ewald  =-0.9186857E-02-0.310E+00

[...]

 d Force = 0.9065015E-04[ 0.346E-04, 0.147E-03]  d Energy = 0.1263163E-03-0.357E-04
 d Force =-0.6019096E+00[-0.603E+00,-0.600E+00]  d Ewald  =-0.1279166E+01 0.677E+00

[...]

 d Force = 0.3192786E-04[ 0.163E-04, 0.476E-04]  d Energy = 0.4295734E-04-0.110E-04
 d Force =-0.1705145E+00[-0.171E+00,-0.170E+00]  d Ewald  = 0.6707050E+00-0.841E+00

[...]

 eigenvalue-minimisations  :   736
 total energy-change (2. order) :-0.1088041E-03  (-0.1324828E-03)
 number of electron     181.9999994 magnetization       0.2703587
 augmentation part       60.0384353 magnetization       0.2079336

[...]

 eigenvalues of (default mixing * dielectric matrix)
  average eigenvalue GAMMA=   0.5387
  1.4304  0.0931  0.3589  0.2723

[...]

--------------------------------------- Iteration      8(   6)  ---------------------------------------

 eigenvalue-minimisations  :   480
 total energy-change (2. order) : 0.8496820E-05  (-0.3677538E-05)
 number of electron     181.9999994 magnetization       0.2659637
 augmentation part       60.0228924 magnetization       0.2289976

  free energy =  -0.162609467287E+03  energy without entropy=  -0.162574090022E+03

 average (electrostatic) potential at core
  the test charge radii are     0.7079  0.9791  0.7215
  (the norm of the test charge is              1.0000)
       1 -58.1248       2 -58.1248       3 -88.3287       4 -88.3287       5 -88.3287
       6 -88.3287       7 -88.3287       8 -88.3287       9 -87.6787      10 -88.0090
      11 -71.3609      12 -71.4800      13 -71.3609      14 -71.4800      15 -71.3609
      16 -71.4800      17 -71.6564      18 -71.5586      19 -71.3609      20 -71.4800
      21 -71.3609      22 -71.4800      23 -71.3609      24 -71.4800      25 -71.5586
      26 -71.6564

 E-fermi :   4.7110     XC(G=0): -11.3392     alpha+bet :-11.7278

[...]

 spin component 2

 k-point     1 :       0.0000    0.0000    0.0000
  band No.  band energies     occupation
      1     -38.8236      1.00000
      2     -38.8216      1.00000
      3     -16.1557      1.00000
      4     -15.8164      1.00000
      5     -14.9257      1.00000
      6     -14.6201      1.00000
      7     -14.2017      1.00000
      8     -14.0864      1.00000
      9     -14.0864      1.00000
     10     -14.0377      1.00000
     11     -14.0377      1.00000
     12     -13.9943      1.00000
     13     -13.9810      1.00000
     14     -13.8971      1.00000
     15     -13.8971      1.00000
     16     -13.8673      1.00000
     17     -13.8673      1.00000
     18     -13.8057      1.00000
     19      -3.3269      1.00000
     20      -3.1384      1.00000
     21      -3.1384      1.00000
     22      -3.0418      1.00000
     23      -2.7689      1.00000
     24      -2.5618      1.00000
     25      -2.5618      1.00000
     26      -2.1232      1.00000
     27      -2.1232      1.00000
     28      -2.0910      1.00000
     29      -2.0910      1.00000
     30      -1.7724      1.00000
     31      -1.7723      1.00000
     32      -1.6854      1.00000
     33      -1.6854      1.00000
     34      -1.6499      1.00000
     35      -1.5581      1.00000
     36      -1.4856      1.00000
     37      -1.4564      1.00000
     38      -1.2337      1.00000
     39      -1.0298      1.00000
     40      -1.0298      1.00000
     41      -1.0149      1.00000
     42      -1.0149      1.00000
     43      -0.5223      1.00000
     44      -0.4799      1.00000
     45      -0.4799      1.00000
     46      -0.1170      1.00000
     47      -0.1170      1.00000
     48       0.0511      1.00000
     49       0.1518      1.00000
     50       0.4064      1.00000
     51       0.4064      1.00000
     52       0.4931      1.00000
     53       0.4931      1.00000
     54       0.7568      1.00000
     55       0.7568      1.00000
     56       1.0017      1.00000
     57       1.0208      1.00000
     58       1.0419      1.00000
     59       1.2788      1.00000
     60       1.3195      1.00000
[...]
    114      14.0916      0.00000
    115      14.1676      0.00000
    116      15.6747      0.00000
    117      15.9870      0.00000
    118      15.9870      0.00000
    119      16.5052      0.00000
    120      16.5052      0.00000
    121      16.5517      0.00000
    122      16.6404      0.00000
    123      17.1623      0.00000
    124      17.1623      0.00000
    125      17.5434      0.00000
    126      17.8463      0.00000
    127      18.2637      0.00000
    128      18.2645      0.00000

[...]

 soft charge-density along one line, spin component           2
         0         1         2         3         4         5         6         7         8         9
 total charge-density along one line

------------------------ aborting loop because EDIFF is reached ----------------------------------------

  FORCE on cell =-STRESS in cart. coord.  units (eV):
  Direction    XX          YY          ZZ          XY          YZ          ZX
  Alpha Z   578.28926   578.28926   578.28926
  Ewald   -3601.43068 -3601.43064 -3601.43073  -170.89442   170.89432   170.89433
  Hartree  1806.02513  1806.02515  1806.02515  -104.86135   104.86138   104.86135
  E(xc)    -928.31052  -928.31055  -928.31058    -0.10277     0.10277     0.10276
  Local   -1746.30344 -1746.30354 -1746.30417   265.19898  -265.19873  -265.19957
  n-local  -433.47673  -433.47965  -433.47951    -1.17016     1.15966     1.17001
  augment  1536.75632  1536.75385  1536.75425     4.83628    -4.83759    -4.83595
  Kinetic  2788.47306  2788.47325  2788.47311     6.94470    -6.94463    -6.94463
  Fock        0.00000     0.00000     0.00000     0.00000     0.00000     0.00000
  Total        0.0187627      0.0187627      0.0187627     -0.0447464      0.0447464      0.0447464
  in kB        0.1203151      0.1203151      0.1203151     -0.2869353      0.2869353      0.2869353

 VOLUME and BASIS-vectors are now :
  energy-cutoff  :      500.00
  volume of cell :      249.85
      direct lattice vectors                 reciprocal lattice vectors
     0.000000000  4.006767449  4.006767449     0.061774428  0.061774428  0.187803321
     4.006767449 -4.006767449 -0.000000000     0.123548855 -0.126028894  0.126028894
     7.858885159  3.852117710 -3.852117710     0.064254466  0.064254466 -0.064254466

  length of vectors
     5.666424868  5.666424868  9.562410661     0.207128577  0.216866050  0.111291999

 FORCES acting on ions
    electron-ion (+dipol)            ewald-force                    non-local-force                 convergence-correction
   -.399E+01 -.399E+01 0.399E+01   0.378E+01 0.378E+01 -.378E+01   0.207E+00 0.207E+00 -.207E+00   0.169E-02 0.168E-02 -.168E-02
   0.399E+01 0.399E+01 -.399E+01   -.378E+01 -.378E+01 0.378E+01   -.207E+00 -.207E+00 0.207E+00   -.169E-02 -.168E-02 0.168E-02
   0.213E+02 0.213E+02 -.394E+02   -.215E+02 -.215E+02 0.402E+02   0.921E-01 0.921E-01 -.827E+00   0.404E-01 0.404E-01 -.153E-01
   -.213E+02 -.213E+02 0.394E+02   0.215E+02 0.215E+02 -.402E+02   -.921E-01 -.921E-01 0.827E+00   -.404E-01 -.404E-01 0.153E-01
   0.213E+02 0.394E+02 -.213E+02   -.215E+02 -.402E+02 0.215E+02   0.921E-01 0.827E+00 -.921E-01   0.404E-01 0.153E-01 -.404E-01
   -.213E+02 -.394E+02 0.213E+02   0.215E+02 0.402E+02 -.215E+02   -.921E-01 -.827E+00 0.921E-01   -.404E-01 -.153E-01 0.404E-01
   0.394E+02 0.213E+02 -.213E+02   -.402E+02 -.215E+02 0.215E+02   0.827E+00 0.921E-01 -.921E-01   0.153E-01 0.404E-01 -.404E-01
   -.394E+02 -.213E+02 0.213E+02   0.402E+02 0.215E+02 -.215E+02   -.827E+00 -.921E-01 0.921E-01   -.153E-01 -.404E-01 0.404E-01
   -.105E-04 0.296E-04 0.174E-04   -.142E-13 -.426E-13 0.142E-12   0.159E-21 0.185E-21 -.794E-22   0.181E-08 0.220E-09 -.427E-09
   -.102E-04 0.324E-04 0.203E-04   0.213E-13 0.213E-13 0.355E-13   -.529E-22 0.794E-22 0.344E-21   0.612E-09 -.193E-08 -.158E-08
   0.173E+03 0.173E+03 0.181E+03   -.183E+03 -.183E+03 -.190E+03   0.993E+01 0.993E+01 0.931E+01   -.726E-02 -.726E-02 0.411E-01
   0.223E+03 0.223E+03 0.194E+03   -.238E+03 -.238E+03 -.209E+03   0.158E+02 0.158E+02 0.154E+02   0.108E-01 0.108E-01 -.385E-01
   0.173E+03 -.181E+03 -.173E+03   -.183E+03 0.190E+03 0.183E+03   0.993E+01 -.931E+01 -.993E+01   -.726E-02 -.411E-01 0.726E-02
   0.223E+03 -.194E+03 -.223E+03   -.238E+03 0.209E+03 0.238E+03   0.158E+02 -.154E+02 -.158E+02   0.108E-01 0.385E-01 -.108E-01
   -.181E+03 0.173E+03 -.173E+03   0.190E+03 -.183E+03 0.183E+03   -.931E+01 0.993E+01 -.993E+01   -.411E-01 -.726E-02 0.726E-02
   -.194E+03 0.223E+03 -.223E+03   0.209E+03 -.238E+03 0.238E+03   -.154E+02 0.158E+02 -.158E+02   0.385E-01 0.108E-01 -.108E-01
   -.181E+03 -.181E+03 0.181E+03   0.190E+03 0.190E+03 -.190E+03   -.855E+01 -.855E+01 0.855E+01   0.111E-01 0.111E-01 -.111E-01
   -.221E+03 -.221E+03 0.221E+03   0.234E+03 0.234E+03 -.234E+03   -.134E+02 -.134E+02 0.134E+02   -.148E-01 -.148E-01 0.148E-01
   -.173E+03 -.173E+03 -.181E+03   0.183E+03 0.183E+03 0.190E+03   -.993E+01 -.993E+01 -.931E+01   0.726E-02 0.726E-02 -.411E-01
   -.223E+03 -.223E+03 -.194E+03   0.238E+03 0.238E+03 0.209E+03   -.158E+02 -.158E+02 -.154E+02   -.108E-01 -.108E-01 0.385E-01
   -.173E+03 0.181E+03 0.173E+03   0.183E+03 -.190E+03 -.183E+03   -.993E+01 0.931E+01 0.993E+01   0.726E-02 0.411E-01 -.726E-02
   -.223E+03 0.194E+03 0.223E+03   0.238E+03 -.209E+03 -.238E+03   -.158E+02 0.154E+02 0.158E+02   -.108E-01 -.385E-01 0.108E-01
   0.181E+03 -.173E+03 0.173E+03   -.190E+03 0.183E+03 -.183E+03   0.931E+01 -.993E+01 0.993E+01   0.411E-01 0.726E-02 -.726E-02
   0.194E+03 -.223E+03 0.223E+03   -.209E+03 0.238E+03 -.238E+03   0.154E+02 -.158E+02 0.158E+02   -.385E-01 -.108E-01 0.108E-01
   0.221E+03 0.221E+03 -.221E+03   -.234E+03 -.234E+03 0.234E+03   0.134E+02 0.134E+02 -.134E+02   0.148E-01 0.148E-01 -.148E-01
   0.181E+03 0.181E+03 -.181E+03   -.190E+03 -.190E+03 0.190E+03   0.855E+01 0.855E+01 -.855E+01   -.111E-01 -.111E-01 0.111E-01
   -.775E-04 0.269E-03 0.361E-03   -.114E-12 0.142E-12 -.256E-12   0.000E+00 -.533E-14 -.355E-14   -.249E-08 -.728E-08 -.285E-08

 POSITION                                       TOTAL-FORCE (eV/Angst)
      2.90055      2.90055      3.10960        -0.008646     -0.008646      0.008646
      5.03566      1.02889      0.97449         0.008646      0.008646     -0.008646
      7.84399      3.83722     -3.83882         0.001036      0.001036     -0.005368
      7.95111     -0.06243      0.06403        -0.001036     -0.001036      0.005368
      7.84399      5.84220     -1.83383         0.001036      0.005368     -0.001036
      7.95111      1.93936      2.06581        -0.001036     -0.005368      0.001036
      9.84897      3.83722     -1.83383         0.005368      0.001036     -0.001036
      5.94612      3.94434      2.06581        -0.005368     -0.001036      0.001036
      1.96472      1.96472      0.03866         0.000000     -0.000000      0.000000
      5.89416      5.89416      0.11599         0.000000     -0.000000      0.000000
      6.09340      2.08664      2.14081         0.000560      0.000560      0.003813
     10.00632      1.99278     -1.76863         0.001629      0.001629     -0.002394
      6.09340     -0.13743     -0.08325         0.000560     -0.003813     -0.000560
     10.00632      3.77202      0.01060         0.001629      0.002394     -0.001629
      3.86934      2.08664     -0.08325        -0.003813      0.000560     -0.000560
      7.77878      5.99955      0.01060         0.002394      0.001629     -0.001629
      3.85929     -0.14747      2.15086         0.001528      0.001528     -0.001528
      7.80449     -0.20904     -1.79434         0.001832      0.001832     -0.001832
      1.84281      1.84281      1.94328        -0.000560     -0.000560     -0.003813
      5.78878      1.78201     -2.00616        -0.001629     -0.001629      0.002394
      1.84281      0.06010      0.16058        -0.000560      0.003813      0.000560
      5.78878      4.00955      0.22137        -0.001629     -0.002394      0.001629
      4.06687     -2.16396      0.16058         0.003813     -0.000560      0.000560
      8.01631      1.78201      0.22137        -0.002394     -0.001629      0.001629
      7.99060      3.98383     -1.98045        -0.001832     -0.001832      0.001832
      4.07692      4.07692      1.93323        -0.001528     -0.001528      0.001528
    total drift:                               -0.000078      0.000269      0.000361

  FREE ENERGIE OF THE ION-ELECTRON SYSTEM (eV)
  free  energy   TOTEN  =      -162.6094672875 eV

  energy  without entropy=     -162.5740900218  energy(sigma->0) =     -162.59177865

 d Force = 0.6454734E-04[ 0.426E-04, 0.865E-04]  d Energy = 0.6773455E-04-0.319E-05
 d Force = 0.1085414E+01[ 0.109E+01, 0.109E+01]  d Ewald  = 0.2195817E+01-0.111E+01

 Quasi-Newton relaxation of ions (Broydens 2nd method)
  g(Force)  = 0.398E-04   g(Stress)= 0.243E-04

 retain information from N=  3 steps
 eigenvalues of (default step * inverse Hessian matrix)
  average eigenvalue of G=   3.3384
 eigenvalue spectrum of G is  2.2931  2.2931  5.4290

 reached required accuracy - stopping structural energy minimisation

volume of typ            1:     6.2 %

[...]

volume of typ            3:    10.4 %

total charge

# of ion       s       p       d       tot
    1        2.106   0.328   0.124   2.557
    2        2.106   0.328   0.124   2.557
    3        0.293   0.416   7.839   8.548
    4        0.293   0.416   7.839   8.548
    5        0.293   0.416   7.839   8.548
    6        0.293   0.416   7.839   8.548
    7        0.293   0.416   7.839   8.548
    8        0.293   0.416   7.839   8.548
    9        0.267   0.358   7.858   8.483
   10        0.283   0.388   7.846   8.517
   11        1.260   2.794   0.007   4.061
   12        1.280   2.730   0.008   4.019
   13        1.260   2.794   0.007   4.061
   14        1.280   2.730   0.008   4.019
   15        1.260   2.794   0.007   4.061
   16        1.280   2.730   0.008   4.019
   17        1.269   2.770   0.007   4.046
   18        1.286   2.716   0.008   4.010
   19        1.260   2.794   0.007   4.061
   20        1.280   2.730   0.008   4.019
   21        1.260   2.794   0.007   4.061
   22        1.280   2.730   0.008   4.019
   23        1.260   2.794   0.007   4.061
   24        1.280   2.730   0.008   4.019
   25        1.286   2.716   0.008   4.010
   26        1.269   2.770   0.007   4.046
tot          26.87   48.02   63.10  137.99

magnetization (x)

# of ion       s       p       d       tot
    1       -0.002  -0.001   0.001  -0.002
    2       -0.002  -0.001   0.001  -0.002
    3        0.000   0.000  -0.103  -0.103
    4        0.000   0.000  -0.103  -0.103
    5        0.000   0.000  -0.103  -0.103
    6        0.000   0.000  -0.103  -0.103
    7        0.000   0.000  -0.103  -0.103
    8        0.000   0.000  -0.103  -0.103
    9        0.000  -0.001   0.617   0.617
   10        0.000  -0.000   0.244   0.244
   11        0.003   0.029   0.000   0.032
   12        0.000   0.009   0.000   0.010
   13        0.003   0.029   0.000   0.032
   14        0.000   0.009   0.000   0.010
   15        0.003   0.029   0.000   0.032
   16        0.000   0.009   0.000   0.010
   17       -0.006  -0.037  -0.000  -0.042
   18       -0.005  -0.073  -0.000  -0.078
   19        0.003   0.029   0.000   0.032
   20        0.000   0.009   0.000   0.010
   21        0.003   0.029   0.000   0.032
   22        0.000   0.009   0.000   0.010
   23        0.003   0.029   0.000   0.032
   24        0.000   0.009   0.000   0.010
   25       -0.005  -0.073  -0.000  -0.078
   26       -0.006  -0.037  -0.000  -0.042
tot          -0.01    0.01    0.24    0.25