 vasp.5.4.4.18Apr17-6-g9f103f2a35 (build May 12 2020 05:39:39) gamma-only

 MD_VERSION_INFO: Compiled 2020-05-12T12:39:39-UTC in devlin.sd.materialsdesign.
 com:/home/medea2/data/build/wwolf/vasp-gpu5.4.4/13047/x86_64/src/src/build/gam
 from svn 13047

 executed on                        Lin64 date 2023.02.09  12:29:34

 INCAR:
 POTCAR:    PAW_PBE Li_sv 10Sep2004
 POTCAR:    PAW_PBE Ni 02Aug2007
 POTCAR:    PAW_PBE O 08Apr2002

 POTCAR:    PAW_PBE Li_sv 10Sep2004

 POTCAR:    PAW_PBE Ni 02Aug2007

 POTCAR:    PAW_PBE O 08Apr2002

 Optimization of the real space projectors (new method)

 maximal supplied QI-value         = 22.11
 optimisation between [QCUT,QGAM] = [ 11.28, 22.77] = [ 35.61,145.23] Ry
 Optimized for a Real-space Cutoff    1.10 Angstroem

   l    n(q)    QCUT    max X(q) W(low)/X(q) W(high)/X(q)  e(spline)
   0      7    11.276    10.506    0.54E-04    0.58E-04    0.16E-07
   0      7    11.276     8.367    0.11E-03    0.14E-03    0.35E-07
   1      7    11.276     8.983    0.23E-03    0.43E-03    0.86E-07
 Optimization of the real space projectors (new method)

[...]

   l    n(q)    QCUT    max X(q) W(low)/X(q) W(high)/X(q)  e(spline)
   2      9    11.376    60.317    0.17E-03    0.16E-04    0.16E-06
   2      9    11.376    55.921    0.17E-03    0.16E-04    0.17E-06
   0     10    11.376    51.690    0.45E-04    0.60E-04    0.21E-06
   0     10    11.376    30.015    0.37E-04    0.55E-04    0.19E-06
   1     10    11.376    18.849    0.83E-04    0.11E-03    0.92E-07
   1     10    11.376    14.624    0.69E-04    0.92E-04    0.82E-07
 Optimization of the real space projectors (new method)

 maximal supplied QI-value         = 24.76
 optimisation between [QCUT,QGAM] = [ 11.39, 22.77] = [ 36.31,145.25] Ry
 Optimized for a Real-space Cutoff    1.10 Angstroem

   l    n(q)    QCUT    max X(q) W(low)/X(q) W(high)/X(q)  e(spline)
   0      7    11.387    20.381    0.22E-03    0.48E-03    0.18E-06
   0      7    11.387    15.268    0.22E-03    0.52E-03    0.19E-06
   1      7    11.387     5.964    0.22E-03    0.73E-03    0.24E-06
   1      7    11.387     5.382    0.19E-03    0.60E-03    0.21E-06

  PAW_PBE Li_sv 10Sep2004               :
  PAW_PBE Ni 02Aug2007                  :
  PAW_PBE O 08Apr2002                   :

 POSCAR: ce15_1
  positions in direct lattice
 exchange correlation table for  LEXCH =       14
   RHO(1)=    0.500       N(1)  =     2000
   RHO(2)=  100.500       N(2)  =     4000

 ion  position               nearest neighbor table
   1  0.000  0.500  0.120-  32 1.92  35 1.92  29 1.92  39 2.03
   2  0.667  0.833  0.461-  37 1.91  33 1.92  36 1.92  30 1.92
   3  0.667  0.833  0.212-  17 1.92  23 1.92  20 1.92  26 1.98
   4  0.332  0.666  0.668-  25 1.86  31 1.86  34 1.86  24 1.87  21 1.87  37 1.87  13 2.77  15 2.77
                             7 2.82  10 2.82  10 2.84   7 2.84
   5  1.000  1.000  0.997-  22 1.85  19 1.85  38 1.87  32 1.87  35 1.87  26 1.88  13 2.76  14 2.78
                             8 2.83  11 2.83  11 2.84   8 2.84
   6  0.666  0.333  0.335-  27 1.85  39 1.87  20 1.89  23 1.89  36 1.89  33 1.89  15 2.80  12 2.82
                             9 2.82   9 2.84  12 2.84  14 2.85
   7  0.834  0.666  0.668-  25 1.86  28 1.86  34 1.86  24 1.87  18 1.87  37 1.87  13 2.77  15 2.77
                             4 2.82  10 2.82  10 2.84   4 2.84
   8  0.500  1.000  0.997-  16 1.85  22 1.85  38 1.87  35 1.87  29 1.87  26 1.88  13 2.76  14 2.78
                             5 2.83  11 2.83  11 2.84   5 2.84
   9  0.167  0.333  0.335-  27 1.85  39 1.87  17 1.89  23 1.89  36 1.89  30 1.89  15 2.80  12 2.82
                             6 2.82  12 2.84   6 2.84  14 2.85
  10  0.834  0.168  0.668-  25 1.86  31 1.86  28 1.86  18 1.87  21 1.87  37 1.87  13 2.77  15 2.77
                             4 2.82   7 2.82   7 2.84   4 2.84
  11  0.500  0.500  0.997-  16 1.85  19 1.85  38 1.87  32 1.87  29 1.87  26 1.88  13 2.76  14 2.78
                             5 2.83   8 2.83   8 2.84   5 2.84
  12  0.167  0.834  0.335-  27 1.85  39 1.87  20 1.89  17 1.89  30 1.89  33 1.89  15 2.80   9 2.82
                             6 2.82   9 2.84   6 2.84  14 2.85
  13  0.667  0.833  0.833-  31 1.87  28 1.87  34 1.87  22 1.88  16 1.88  19 1.88   5 2.76  11 2.76
                             8 2.76   7 2.77  10 2.77   4 2.77
  14  0.333  0.167  0.163-  32 1.89  29 1.89  35 1.89  20 1.90  23 1.90  17 1.90   8 2.78   5 2.78
                            11 2.78   9 2.85   6 2.85  12 2.85
  15  0.000  0.500  0.503-  21 1.86  18 1.86  24 1.86  30 1.88  33 1.88  36 1.88   4 2.77  10 2.77
                             7 2.77   6 2.80  12 2.80   9 2.80
  16  0.373  0.686  0.922-  11 1.85   8 1.85  13 1.88
  17  0.040  0.020  0.254-   9 1.89  12 1.89  14 1.90   3 1.92
  18  0.708  0.354  0.591-  15 1.86  10 1.87   7 1.87
  19  0.814  0.686  0.922-   5 1.85  11 1.85  13 1.88
  20  0.480  0.020  0.254-   6 1.89  12 1.89  14 1.90   3 1.92
  21  0.146  0.354  0.591-  15 1.86  10 1.87   4 1.87
  22  0.814  0.127  0.922-   5 1.85   8 1.85  13 1.88
  23  0.480  0.460  0.254-   9 1.89   6 1.89  14 1.90   3 1.92
  24  0.146  0.792  0.591-  15 1.86   4 1.87   7 1.87
  25  0.000  0.500  0.734-   4 1.86  10 1.86   7 1.86
  26  0.667  0.833  0.065-   5 1.88  11 1.88   8 1.88   3 1.98
  27  0.333  0.167  0.399-   9 1.85   6 1.85  12 1.85
  28  0.960  0.980  0.745-   7 1.86  10 1.86  13 1.87
  29  0.631  0.315  0.074-   8 1.87  11 1.87  14 1.89   1 1.92
  30  0.296  0.648  0.415-  15 1.88  12 1.89   9 1.89   2 1.92
  31  0.520  0.980  0.745-   4 1.86  10 1.86  13 1.87
  32  0.185  0.315  0.074-   5 1.87  11 1.87  14 1.89   1 1.92
  33  0.852  0.648  0.415-  15 1.88   6 1.89  12 1.89   2 1.92
  34  0.520  0.540  0.745-   7 1.86   4 1.86  13 1.87
  35  0.185  0.869  0.074-   8 1.87   5 1.87  14 1.89   1 1.92
  36  0.852  0.204  0.415-  15 1.88   6 1.89   9 1.89   2 1.92
  37  0.667  0.833  0.602-   7 1.87   4 1.87  10 1.87   2 1.91
  38  0.333  0.167  0.930-   8 1.87   5 1.87  11 1.87
  39  0.000  0.500  0.269-   6 1.87  12 1.87   9 1.87   1 2.03

  LATTYP: Found a hexagonal cell.
 ALAT       =     5.6670375041
 C/A-ratio  =     2.3895507342

  Lattice vectors:

 A1 = (   0.0000000000,   4.0072006484,   4.0072006484)
 A2 = (   4.0072006484,  -4.0072006484,   0.0000000000)
 A3 = (   7.8182889149,   7.8182889149,  -7.8182889149)

Analysis of symmetry for initial positions (statically):
 Subroutine PRICEL returns:
 Original cell was already a primitive cell.

 Routine SETGRP: Setting up the symmetry group for a
 hexagonal supercell.

 Subroutine GETGRP returns: Found  6 space group operations
 (whereof  2 operations were pure point group operations)
 out of a pool of 24 trial point group operations.

The static configuration has the point symmetry C_1h.
 The point group associated with its full space group is C_3v.

Analysis of symmetry for dynamics (positions and initial velocities):
 Subroutine PRICEL returns:
 Original cell was already a primitive cell.

[...]

The dynamic configuration has the point symmetry C_1h.
 The point group associated with its full space group is C_3v.

Analysis of structural, dynamic, and magnetic symmetry:
 Subroutine PRICEL returns:
 Original cell was already a primitive cell.

 Routine SETGRP: Setting up the symmetry group for a
 hexagonal supercell.

 Subroutine GETGRP returns: Found  6 space group operations
 (whereof  2 operations were pure point group operations)
 out of a pool of 24 trial point group operations.

The magnetic configuration has the point symmetry C_1h.
 The point group associated with its full space group is C_3v.

 Subroutine INISYM returns: Found  6 space group operations
 (whereof  2 operations are pure point group operations),
 and found     1 'primitive' translations

 KPOINTS: Automatic mesh

Automatic generation of k-mesh.
Space group operators:
 irot       det(A)        alpha          n_x          n_y          n_z        tau_x        tau_y        tau_z
    1     1.000000     0.000000     1.000000     0.000000     0.000000     0.000000     0.000000     0.000000
    2    -1.000000   180.000000     0.707107    -0.707107     0.000000     0.000000     0.000000     0.000000
    3     1.000000   120.000000    -0.577350    -0.577350     0.577350     0.500000     0.000000     0.000000
    4     1.000000   120.000000     0.577350     0.577350    -0.577350     0.500000     0.500000     0.000000
    5    -1.000000   180.000000     0.000000     0.707107     0.707107     0.500000     0.000000     0.000000
    6    -1.000000   180.000000     0.707107     0.000000     0.707107     0.500000     0.500000     0.000000

 Subroutine IBZKPT returns following result:

 Found      1 irreducible k-points:

 Following reciprocal coordinates:
            Coordinates               Weight
  0.000000  0.000000  0.000000      1.000000

 Following cartesian coordinates:
            Coordinates               Weight
  0.000000  0.000000  0.000000      1.000000

 SYSTEM =  unknown system
 POSCAR =  ce15_1

 Startparameter for this run:
   NWRITE =      1    write-flag & timer
   PREC   = accura    normal or accurate (medium, high low for compatibility)
   ISTART =      0    job   : 0-new  1-cont  2-samecut
   ICHARG =      2    charge: 1-file 2-atom 10-const
   ISPIN  =      2    spin polarized calculation?
   LNONCOLLINEAR =      F non collinear calculations
   LSORBIT =      F    spin-orbit coupling
   INIWAV =      1    electr: 0-lowe 1-rand  2-diag
   LASPH  =      F    aspherical Exc in radial PAW
   METAGGA=      F    non-selfconsistent MetaGGA calc.

 Electronic Relaxation 1
   ENCUT  =  500.0 eV  36.75 Ry    6.06 a.u.  10.33 10.33 24.69*2*pi/ulx,y,z
   ENINI  =  500.0     initial cutoff
   ENAUG  =  628.9 eV  augmentation charge cutoff
   NELM   =     80;   NELMIN=  2; NELMDL= -5     # of ELM steps
   EDIFF  = 0.1E-04   stopping-criterion for ELM
   LREAL  =      T    real-space projection
   NLSPLINE    = F    spline interpolate recip. space projectors
   LCOMPAT=      F    compatible to vasp.4.4
   GGA_COMPAT  = T    GGA compatible to vasp.4.4-vasp.4.6
   LMAXPAW     = -100 max onsite density
   LMAXMIX     =    2 max onsite mixed and CHGCAR
   VOSKOWN=      1    Vosko Wilk Nusair interpolation
   ROPT   =   -0.00025  -0.00025  -0.00025
 Ionic relaxation
   EDIFFG = -.2E-01   stopping-criterion for IOM
   NSW    =     20    number of steps for IOM
   NBLOCK =      1;   KBLOCK =     20    inner block; outer block
   IBRION =      1    ionic relax: 0-MD 1-quasi-New 2-CG
   NFREE  =      0    steps in history (QN), initial steepest desc. (CG)
   ISIF   =      3    stress and relaxation
   IWAVPR =     11    prediction:  0-non 1-charg 2-wave 3-comb
   ISYM   =      2    0-nonsym 1-usesym 2-fastsym
   LCORR  =      T    Harris-Foulkes like correction to forces

   POTIM  = 0.5000    time-step for ionic-motion
   TEIN   =    0.0    initial temperature
   TEBEG  =    0.0;   TEEND  =   0.0 temperature during run
   SMASS  =  -3.00    Nose mass-parameter (am)
   estimated Nose-frequenzy (Omega)   =  0.10E-29 period in steps =****** mass=  -0.734E-27a.u.
   SCALEE = 1.0000    scale energy and forces
   NPACO  =    256;   APACO  = 16.0  distance and # of slots for P.C.
[...]
     24     -13.8569      1.00000
     25     -13.7758      1.00000
     26     -13.7758      1.00000
     27     -13.7170      1.00000
     28      -3.2996      1.00000
     29      -3.1600      1.00000
     30      -3.1600      1.00000
     31      -3.0772      1.00000
     32      -2.9421      1.00000
     33      -2.8152      1.00000
     34      -2.7637      1.00000
     35      -2.7637      1.00000
     36      -2.6997      1.00000
     37      -2.6997      1.00000
     38      -2.2160      1.00000
     39      -2.1580      1.00000
     40      -2.1580      1.00000
     41      -2.1325      1.00000
     42      -2.0906      1.00000
     43      -2.0906      1.00000
     44      -1.9354      1.00000
     45      -1.9354      1.00000
     46      -1.8514      1.00000
     47      -1.8514      1.00000
     48      -1.8105      1.00000
     49      -1.8105      1.00000
     50      -1.7212      1.00000
     51      -1.7212      1.00000
     52      -1.5072      1.00000
     53      -1.4794      1.00000
     54      -1.3903      1.00000
     55      -1.3811      1.00000
     56      -1.2273      1.00000
     57      -1.2273      1.00000
     58      -1.1770      1.00000
     59      -1.1340      1.00000
     60      -1.1340      1.00000
[...]
    178      15.9756      0.00000
    179      16.1763      0.00000
    180      16.1763      0.00000
    181      16.5143      0.00000
    182      16.7482      0.00000
    183      17.0600      0.00000
    184      17.3309      0.00000
    185      17.3904      0.00000
    186      17.3904      0.00000
    187      17.6368      0.00000
    188      17.6369      0.00000
    189      17.6800      0.00000
    190      17.9578      0.00000
    191      18.1788      0.00000
    192      18.1788      0.00000

[...]

 soft charge-density along one line, spin component           2
         0         1         2         3         4         5         6         7         8         9
 total charge-density along one line

------------------------ aborting loop because EDIFF is reached ----------------------------------------

  FORCE on cell =-STRESS in cart. coord.  units (eV):
  Direction    XX          YY          ZZ          XY          YZ          ZX
  Alpha Z   863.27324   863.27324   863.27324
  Ewald   -5373.29526 -5373.29528 -5373.29526  -114.43947   114.43947   114.43946
  Hartree  2733.06994  2733.06994  2733.06994   -60.60267    60.60267    60.60267
  E(xc)   -1392.36417 -1392.36414 -1392.36417    -0.10080     0.10080     0.10076
  Local   -2667.86722 -2667.86622 -2667.86722   164.31198  -164.31198  -164.31296
  n-local  -650.22486  -650.22498  -650.22487    -1.44473     1.44473     1.44480
  augment  2305.34147  2305.34088  2305.34147     5.73864    -5.73864    -5.73805
  Kinetic  4181.96986  4181.96985  4181.96986     6.53243    -6.53244    -6.53245
  Fock        0.00000     0.00000     0.00000     0.00000     0.00000     0.00000
  Total       -0.0969126     -0.0969126     -0.0969126     -0.0044792      0.0044792      0.0044792
  in kB       -0.4123126     -0.4123126     -0.4123126     -0.0190568      0.0190568      0.0190568

 VOLUME and BASIS-vectors are now :
  energy-cutoff  :      500.00
  volume of cell :      376.59
      direct lattice vectors                 reciprocal lattice vectors
     0.000000000  4.008492161  4.008492161     0.083156788  0.083156788  0.166313576
     4.008492161 -4.008492161 -0.000000000     0.166313576 -0.083156788  0.083156788
     7.812337402  7.812337402 -7.812337402     0.042667555  0.042667555 -0.042667555

  length of vectors
     5.668863978  5.668863978 13.531365307     0.203691700  0.203691700  0.073902373

 FORCES acting on ions
    electron-ion (+dipol)            ewald-force                    non-local-force                 convergence-correction
   -.905E+00 -.905E+00 0.905E+00   0.681E+00 0.681E+00 -.681E+00   0.249E+00 0.249E+00 -.249E+00   -.224E-01 -.224E-01 0.224E-01
   -.523E+01 -.523E+01 0.523E+01   0.545E+01 0.545E+01 -.545E+01   -.224E+00 -.224E+00 0.224E+00   0.101E-01 0.101E-01 -.101E-01
   0.151E+01 0.151E+01 -.151E+01   -.154E+01 -.154E+01 0.154E+01   0.464E-01 0.464E-01 -.464E-01   -.214E-01 -.214E-01 0.214E-01
   -.184E+02 -.184E+02 0.259E+02   0.187E+02 0.187E+02 -.262E+02   -.328E+00 -.328E+00 0.300E+00   0.611E-01 0.611E-01 -.428E-01
   0.330E+02 0.330E+02 -.528E+02   -.332E+02 -.332E+02 0.536E+02   0.219E+00 0.219E+00 -.841E+00   -.274E-01 -.274E-01 0.338E-01
   -.183E+02 -.183E+02 0.217E+02   0.182E+02 0.182E+02 -.219E+02   0.890E-01 0.890E-01 0.175E+00   -.726E-02 -.726E-02 0.166E-01
   -.184E+02 -.259E+02 0.184E+02   0.187E+02 0.262E+02 -.187E+02   -.328E+00 -.300E+00 0.328E+00   0.611E-01 0.428E-01 -.611E-01
   0.330E+02 0.528E+02 -.330E+02   -.332E+02 -.536E+02 0.332E+02   0.219E+00 0.841E+00 -.219E+00   -.274E-01 -.338E-01 0.274E-01
   -.183E+02 -.217E+02 0.183E+02   0.182E+02 0.219E+02 -.182E+02   0.890E-01 -.175E+00 -.890E-01   -.726E-02 -.166E-01 0.726E-02
   -.259E+02 -.184E+02 0.184E+02   0.262E+02 0.187E+02 -.187E+02   -.300E+00 -.328E+00 0.328E+00   0.428E-01 0.611E-01 -.611E-01
   0.528E+02 0.330E+02 -.330E+02   -.536E+02 -.332E+02 0.332E+02   0.841E+00 0.219E+00 -.219E+00   -.338E-01 -.274E-01 0.274E-01
   -.217E+02 -.183E+02 0.183E+02   0.219E+02 0.182E+02 -.182E+02   -.175E+00 0.890E-01 -.890E-01   -.166E-01 -.726E-02 0.726E-02
   0.146E+02 0.146E+02 -.146E+02   -.148E+02 -.148E+02 0.148E+02   0.120E+00 0.120E+00 -.120E+00   0.239E-01 0.239E-01 -.239E-01
   -.163E+01 -.163E+01 0.163E+01   0.249E+01 0.249E+01 -.249E+01   -.767E+00 -.767E+00 0.767E+00   -.963E-01 -.963E-01 0.963E-01
   -.150E+02 -.150E+02 0.150E+02   0.146E+02 0.146E+02 -.146E+02   0.392E+00 0.392E+00 -.392E+00   0.476E-01 0.476E-01 -.476E-01
   0.231E+03 0.231E+03 0.191E+03   -.247E+03 -.247E+03 -.207E+03   0.155E+02 0.155E+02 0.155E+02   0.145E-01 0.145E-01 0.685E-02
   0.176E+03 0.176E+03 0.180E+03   -.184E+03 -.184E+03 -.187E+03   0.774E+01 0.774E+01 0.693E+01   -.495E-01 -.495E-01 0.728E-02
   0.195E+03 0.195E+03 0.240E+03   -.209E+03 -.209E+03 -.256E+03   0.147E+02 0.147E+02 0.162E+02   0.302E-01 0.302E-01 -.388E-01
   0.231E+03 -.191E+03 -.231E+03   -.247E+03 0.207E+03 0.247E+03   0.155E+02 -.155E+02 -.155E+02   0.145E-01 -.685E-02 -.145E-01
   0.176E+03 -.180E+03 -.176E+03   -.184E+03 0.187E+03 0.184E+03   0.774E+01 -.693E+01 -.774E+01   -.495E-01 -.728E-02 0.495E-01
   0.195E+03 -.240E+03 -.195E+03   -.209E+03 0.256E+03 0.209E+03   0.147E+02 -.162E+02 -.147E+02   0.302E-01 0.388E-01 -.302E-01
   -.191E+03 0.231E+03 -.231E+03   0.207E+03 -.247E+03 0.247E+03   -.155E+02 0.155E+02 -.155E+02   -.685E-02 0.145E-01 -.145E-01
   -.180E+03 0.176E+03 -.176E+03   0.187E+03 -.184E+03 0.184E+03   -.693E+01 0.774E+01 -.774E+01   -.728E-02 -.495E-01 0.495E-01
   -.240E+03 0.195E+03 -.195E+03   0.256E+03 -.209E+03 0.209E+03   -.162E+02 0.147E+02 -.147E+02   0.388E-01 0.302E-01 -.302E-01
   -.214E+03 -.214E+03 0.214E+03   0.228E+03 0.228E+03 -.228E+03   -.139E+02 -.139E+02 0.139E+02   0.262E-01 0.262E-01 -.262E-01
   -.174E+03 -.174E+03 0.174E+03   0.182E+03 0.182E+03 -.182E+03   -.778E+01 -.778E+01 0.778E+01   -.495E-01 -.495E-01 0.495E-01
   -.222E+03 -.222E+03 0.222E+03   0.236E+03 0.236E+03 -.236E+03   -.136E+02 -.136E+02 0.136E+02   0.222E-01 0.222E-01 -.222E-01
   -.211E+03 -.211E+03 -.222E+03   0.226E+03 0.226E+03 0.238E+03   -.151E+02 -.151E+02 -.159E+02   0.257E-01 0.257E-01 -.315E-01
   -.169E+03 -.169E+03 -.195E+03   0.179E+03 0.179E+03 0.206E+03   -.989E+01 -.989E+01 -.108E+02   -.530E-01 -.530E-01 0.447E-01
   -.192E+03 -.192E+03 -.168E+03   0.201E+03 0.201E+03 0.179E+03   -.912E+01 -.912E+01 -.101E+02   0.254E-01 0.254E-01 -.514E-02
   -.211E+03 0.222E+03 0.211E+03   0.226E+03 -.238E+03 -.226E+03   -.151E+02 0.159E+02 0.151E+02   0.257E-01 0.315E-01 -.257E-01
   -.169E+03 0.195E+03 0.169E+03   0.179E+03 -.206E+03 -.179E+03   -.989E+01 0.108E+02 0.989E+01   -.530E-01 -.447E-01 0.530E-01
   -.192E+03 0.168E+03 0.192E+03   0.201E+03 -.179E+03 -.201E+03   -.912E+01 0.101E+02 0.912E+01   0.254E-01 0.514E-02 -.254E-01
   0.222E+03 -.211E+03 0.211E+03   -.238E+03 0.226E+03 -.226E+03   0.159E+02 -.151E+02 0.151E+02   0.315E-01 0.257E-01 -.257E-01
   0.195E+03 -.169E+03 0.169E+03   -.206E+03 0.179E+03 -.179E+03   0.108E+02 -.989E+01 0.989E+01   -.447E-01 -.530E-01 0.530E-01
   0.168E+03 -.192E+03 0.192E+03   -.179E+03 0.201E+03 -.201E+03   0.101E+02 -.912E+01 0.912E+01   0.514E-02 0.254E-01 -.254E-01
   0.171E+03 0.171E+03 -.171E+03   -.180E+03 -.180E+03 0.180E+03   0.871E+01 0.871E+01 -.871E+01   0.338E-01 0.338E-01 -.338E-01
   0.230E+03 0.230E+03 -.230E+03   -.244E+03 -.244E+03 0.244E+03   0.130E+02 0.130E+02 -.130E+02   0.134E-01 0.134E-01 -.134E-01
   0.181E+03 0.181E+03 -.181E+03   -.189E+03 -.189E+03 0.189E+03   0.881E+01 0.881E+01 -.881E+01   -.378E-01 -.378E-01 0.378E-01
   -.127E+01 -.127E+01 0.127E+01   -.227E-12 0.853E-13 0.256E-12   0.126E+01 0.126E+01 -.126E+01   -.180E-02 -.180E-02 0.180E-02

 POSITION                                       TOTAL-FORCE (eV/Angst)
      2.93793     -1.07056     -0.93368         0.002190      0.002190     -0.002190
      6.94162      2.93312     -0.92888        -0.000988     -0.000988      0.000988
      4.99334      0.98484      1.01940        -0.002986     -0.002986      0.002986
      7.89069      3.88220     -3.88840         0.009636      0.009636      0.004035
     11.79763      7.78914     -3.78213        -0.009205     -0.009205      0.000102
      3.95215      3.95215      0.04984        -0.001510     -0.001510     -0.009156
      7.89069      5.89264     -1.87796         0.009636     -0.004035     -0.009636
     11.79763      5.78638     -5.78489        -0.009205     -0.000102      0.009205
      3.95215      1.95441     -1.94790        -0.001510      0.009156      0.001510
      5.89264      7.89069     -1.87796        -0.004035      0.009636     -0.009636
      9.79487      7.78914     -5.78489        -0.000102     -0.009205      0.009205
      5.96290     -0.05634     -1.94790         0.009156     -0.001510      0.001510
      9.84570      5.83721     -3.83296        -0.006053     -0.006053      0.006053
      1.93914      1.93914      0.06510         0.003180      0.003180     -0.003180
      5.93287      1.92438     -3.92863         0.004802      0.004802     -0.004802
      9.95145      5.94296     -5.70652         0.006698      0.006698      0.003990
      2.06801      2.06801     -1.82691         0.000602      0.000602      0.014070
      6.03287      6.03287     -1.77516         0.005656      0.005656      0.009048
      9.95145      7.71076     -3.93872         0.006698     -0.003990     -0.006698
      2.06801      3.83116     -0.06377         0.000602     -0.014070     -0.000602
      6.03287      3.77940     -4.02862         0.005656     -0.009048     -0.005656
      7.71076      9.95145     -3.93872        -0.003990      0.006698     -0.006698
      3.83116      2.06801     -0.06377        -0.014070      0.000602     -0.000602
      7.78790      2.02437     -4.02862        -0.009048      0.005656     -0.005656
      7.74259      3.73410     -5.73834         0.002516      0.002516     -0.002516
      3.85104     -0.15745      2.16170        -0.001295     -0.001295      0.001295
      3.78820      3.78820     -1.78396         0.002414      0.002414     -0.002414
      9.74615      5.73765     -1.97136        -0.004302     -0.004302     -0.010051
      1.83906      1.83906      1.95500        -0.006069     -0.006069     -0.005518
      5.83802      1.82953     -2.05142        -0.001465     -0.001465     -0.004009
      9.74615      3.97560     -3.73341        -0.004302      0.010051      0.004302
      1.83906      0.04925      0.16518        -0.006069      0.005518      0.006069
      5.83802      4.05566      0.17472        -0.001465      0.004009      0.001465
      7.98410      5.73765     -3.73341         0.010051     -0.004302      0.004302
      4.05774     -2.16943      0.16518         0.005518     -0.006069      0.006069
      4.05566      5.83802      0.17472         0.004009     -0.001465      0.001465
      8.04379      4.03530     -2.03105         0.003458      0.003458     -0.003458
      7.93724      7.93724     -5.93299        -0.002834     -0.002834      0.002834
      4.10852      0.10002     -2.10427        -0.001975     -0.001975      0.001975
    total drift:                               -0.006761     -0.007210      0.006763

  FREE ENERGIE OF THE ION-ELECTRON SYSTEM (eV)
  free  energy   TOTEN  =      -243.8924136348 eV

  energy  without entropy=     -243.8516664839  energy(sigma->0) =     -243.87204006

 d Force = 0.9470802E-04[-0.103E-03, 0.292E-03]  d Energy = 0.1684302E-03-0.737E-04
 d Force = 0.3946689E+01[ 0.394E+01, 0.395E+01]  d Ewald  =-0.3006632E+00 0.425E+01

 Quasi-Newton relaxation of ions (Broydens 2nd method)
  g(Force)  = 0.187E-03   g(Stress)= 0.350E-04

 retain information from N=  2 steps
 eigenvalues of (default step * inverse Hessian matrix)
  average eigenvalue of G=   0.2955
 eigenvalue spectrum of G is  0.4762  0.1148

 reached required accuracy - stopping structural energy minimisation

volume of typ            1:     6.2 %

[...]

volume of typ            3:    10.4 %

total charge

# of ion       s       p       d       tot
    1        2.101   0.310   0.116   2.527
    2        2.107   0.335   0.127   2.569
    3        2.103   0.329   0.121   2.553
    4        0.294   0.413   7.838   8.544
    5        0.292   0.412   7.841   8.545
    6        0.281   0.392   7.853   8.526
    7        0.294   0.413   7.838   8.544
    8        0.292   0.412   7.841   8.545
    9        0.281   0.392   7.853   8.526
   10        0.294   0.413   7.838   8.544
   11        0.292   0.412   7.841   8.545
   12        0.281   0.392   7.853   8.526
   13        0.294   0.408   7.836   8.539
   14        0.274   0.373   7.854   8.502
   15        0.293   0.411   7.831   8.535
   16        1.281   2.730   0.008   4.019
   17        1.264   2.785   0.006   4.055
   18        1.280   2.732   0.008   4.021
   19        1.281   2.730   0.008   4.019
   20        1.264   2.785   0.006   4.055
   21        1.280   2.732   0.008   4.021
   22        1.281   2.730   0.008   4.019
   23        1.264   2.785   0.006   4.055
   24        1.280   2.732   0.008   4.021
   25        1.285   2.720   0.008   4.014
   26        1.269   2.777   0.007   4.053
   27        1.279   2.737   0.009   4.025
   28        1.281   2.728   0.008   4.017
   29        1.259   2.792   0.007   4.059
   30        1.261   2.785   0.006   4.053
   31        1.281   2.728   0.008   4.017
   32        1.259   2.792   0.007   4.059
   33        1.261   2.785   0.006   4.053
   34        1.281   2.728   0.008   4.017
   35        1.259   2.792   0.007   4.059
   36        1.261   2.785   0.006   4.053
   37        1.268   2.779   0.007   4.054
   38        1.286   2.720   0.008   4.013
   39        1.265   2.779   0.007   4.051
tot          40.30   71.99   94.66  206.95

magnetization (x)

# of ion       s       p       d       tot
    1        0.002   0.000   0.001   0.003
    2        0.001   0.007   0.003   0.011
    3        0.001   0.014   0.005   0.021
    4       -0.000  -0.000   0.083   0.082
    5       -0.001  -0.001   0.121   0.120
    6       -0.001  -0.001   0.298   0.296
    7       -0.000  -0.000   0.083   0.082
    8       -0.001  -0.001   0.121   0.120
    9       -0.001  -0.001   0.298   0.296
   10       -0.000  -0.000   0.083   0.082
   11       -0.001  -0.001   0.121   0.120
   12       -0.001  -0.001   0.298   0.296
   13       -0.000  -0.000   0.024   0.024
   14       -0.001  -0.001   0.393   0.392
   15       -0.000  -0.001  -0.008  -0.009
   16        0.001   0.002   0.000   0.002
   17        0.011   0.081   0.000   0.092
   18        0.001   0.000   0.000   0.001
   19        0.001   0.002   0.000   0.002
   20        0.011   0.081   0.000   0.092
   21        0.001   0.000   0.000   0.001
   22        0.001   0.002   0.000   0.002
   23        0.011   0.081   0.000   0.092
   24        0.001   0.000   0.000   0.001
   25        0.004   0.055   0.000   0.059
   26        0.007   0.052   0.000   0.059
   27        0.003   0.027   0.000   0.030
   28        0.001   0.014   0.000   0.014
   29        0.002   0.028   0.000   0.030
   30        0.004   0.042   0.000   0.046
   31        0.001   0.014   0.000   0.014
   32        0.002   0.028   0.000   0.030
   33        0.004   0.042   0.000   0.046
   34        0.001   0.014   0.000   0.014
   35        0.002   0.028   0.000   0.030
   36        0.004   0.042   0.000   0.046
   37        0.004   0.031   0.000   0.035
   38        0.006   0.094   0.000   0.100
   39        0.004   0.022  -0.000   0.026
tot           0.08    0.79    1.93    2.80