 vasp.5.4.4.18Apr17-6-g9f103f2a35 (build May 12 2020 05:39:39) gamma-only

 MD_VERSION_INFO: Compiled 2020-05-12T12:39:39-UTC in devlin.sd.materialsdesign.
 com:/home/medea2/data/build/wwolf/vasp-gpu5.4.4/13047/x86_64/src/src/build/gam
 from svn 13047

 executed on                        Lin64 date 2023.02.09  12:32:04

 INCAR:
 POTCAR:    PAW_PBE Li_sv 10Sep2004
 POTCAR:    PAW_PBE Ni 02Aug2007
 POTCAR:    PAW_PBE O 08Apr2002

 POTCAR:    PAW_PBE Li_sv 10Sep2004

 POTCAR:    PAW_PBE Ni 02Aug2007

 POTCAR:    PAW_PBE O 08Apr2002

 Optimization of the real space projectors (new method)

 maximal supplied QI-value         = 22.11
 optimisation between [QCUT,QGAM] = [ 11.28, 22.77] = [ 35.61,145.23] Ry
 Optimized for a Real-space Cutoff    1.10 Angstroem

   l    n(q)    QCUT    max X(q) W(low)/X(q) W(high)/X(q)  e(spline)
   0      7    11.276    10.506    0.54E-04    0.58E-04    0.16E-07
   0      7    11.276     8.367    0.11E-03    0.14E-03    0.35E-07
   1      7    11.276     8.983    0.23E-03    0.43E-03    0.86E-07
 Optimization of the real space projectors (new method)

[...]

   l    n(q)    QCUT    max X(q) W(low)/X(q) W(high)/X(q)  e(spline)
   2      9    11.376    60.317    0.17E-03    0.16E-04    0.16E-06
   2      9    11.376    55.921    0.17E-03    0.16E-04    0.17E-06
   0     10    11.376    51.690    0.45E-04    0.60E-04    0.21E-06
   0     10    11.376    30.015    0.37E-04    0.55E-04    0.19E-06
   1     10    11.376    18.849    0.83E-04    0.11E-03    0.92E-07
   1     10    11.376    14.624    0.69E-04    0.92E-04    0.82E-07
 Optimization of the real space projectors (new method)

 maximal supplied QI-value         = 24.76
 optimisation between [QCUT,QGAM] = [ 11.39, 22.77] = [ 36.31,145.25] Ry
 Optimized for a Real-space Cutoff    1.10 Angstroem

   l    n(q)    QCUT    max X(q) W(low)/X(q) W(high)/X(q)  e(spline)
   0      7    11.387    20.381    0.22E-03    0.48E-03    0.18E-06
   0      7    11.387    15.268    0.22E-03    0.52E-03    0.19E-06
   1      7    11.387     5.964    0.22E-03    0.73E-03    0.24E-06
   1      7    11.387     5.382    0.19E-03    0.60E-03    0.21E-06

  PAW_PBE Li_sv 10Sep2004               :
  PAW_PBE Ni 02Aug2007                  :
  PAW_PBE O 08Apr2002                   :

 POSCAR: ce137_1
  positions in direct lattice
 exchange correlation table for  LEXCH =       14
   RHO(1)=    0.500       N(1)  =     2000
   RHO(2)=  100.500       N(2)  =     4000

 ion  position               nearest neighbor table
   1  0.844  0.277  0.187-  40 1.90  36 1.90  49 1.91  46 1.95
   2  0.345  0.779  0.189-  51 1.90  42 1.91  38 1.91  44 1.95
   3  0.156  0.722  0.811-  33 1.89  25 1.91  21 1.91  29 1.95
   4  0.999  0.001  0.999-  34 1.83  48 1.84  31 1.85  44 1.87  40 1.89  25 1.89   8 2.79   8 2.81
                            12 2.81  19 2.81  14 2.82  16 2.84
   5  0.750  0.250  0.501-  35 1.84  49 1.85  28 1.85  45 1.86  41 1.88  26 1.88   9 2.79  17 2.79
                            15 2.79  16 2.80   9 2.81  13 2.81
   6  0.499  0.498  0.998-  50 1.83  32 1.84  46 1.86  29 1.87  27 1.88  42 1.91  12 2.79  10 2.79
                            10 2.80  17 2.81  14 2.82  18 2.85
   7  0.250  0.751  0.501-  33 1.84  51 1.84  30 1.85  47 1.85  43 1.88  24 1.89  11 2.80  19 2.80
                            11 2.80  18 2.80  15 2.82  13 2.82
   8  0.500  0.001  0.999-  34 1.83  48 1.84  31 1.85  44 1.87  36 1.89  21 1.89   4 2.79   4 2.81
                            12 2.81  19 2.81  14 2.82  16 2.84
   9  0.251  0.250  0.501-  35 1.84  49 1.85  28 1.85  45 1.86  37 1.88  22 1.88   5 2.79  17 2.79
                            15 2.79  16 2.80   5 2.81  13 2.81
  10  0.999  0.498  0.998-  50 1.83  32 1.84  46 1.86  29 1.87  23 1.88  38 1.91  12 2.79   6 2.79
                             6 2.80  17 2.81  14 2.82  18 2.85
  11  0.750  0.751  0.501-  33 1.84  51 1.84  30 1.85  47 1.85  39 1.88  20 1.88   7 2.80  19 2.80
                             7 2.80  18 2.80  15 2.82  13 2.82
  12  0.249  0.250  0.998-  23 1.85  27 1.85  36 1.88  40 1.88  32 1.93  48 1.94  17 2.76  10 2.79
                             6 2.79  16 2.80   8 2.81   4 2.81
  13  0.000  0.500  0.500-  37 1.87  41 1.87  20 1.88  24 1.88  49 1.95  33 1.96  18 2.76  17 2.76
                             9 2.81   5 2.81   7 2.82  11 2.82
  14  0.750  0.750  1.000-  38 1.86  42 1.86  21 1.87  25 1.87  50 1.97  34 1.97  19 2.78  18 2.78
                             8 2.82   4 2.82   6 2.82  10 2.82
  15  0.501  0.002  0.502-  22 1.87  26 1.87  39 1.87  43 1.87  35 1.93  51 1.95  19 2.75  16 2.76
                             9 2.79   5 2.79  11 2.82   7 2.82
  16  0.376  0.126  0.252-  26 1.86  22 1.86  28 1.88  40 1.88  36 1.88  44 1.91  15 2.76   5 2.80
                             9 2.80  12 2.80   8 2.84   4 2.84
  17  0.124  0.373  0.748-  41 1.86  37 1.86  45 1.86  27 1.87  23 1.87  29 1.89  12 2.76  13 2.76
                             5 2.79   9 2.79  10 2.81   6 2.81
  18  0.876  0.626  0.252-  24 1.85  20 1.85  42 1.89  38 1.89  30 1.89  46 1.91  13 2.76  14 2.78
                             7 2.80  11 2.80   6 2.85  10 2.85
  19  0.624  0.875  0.749-  43 1.85  39 1.85  47 1.88  25 1.88  21 1.88  31 1.89  15 2.75  14 2.78
                            11 2.80   7 2.80   8 2.81   4 2.81
  20  0.718  0.576  0.383-  18 1.85  13 1.88  11 1.88
  21  0.468  0.824  0.883-  14 1.87  19 1.88   8 1.89   3 1.91
  22  0.220  0.075  0.384-  16 1.86  15 1.87   9 1.88
  23  0.968  0.323  0.882-  12 1.85  17 1.87  10 1.88
  24  0.165  0.576  0.383-  18 1.85  13 1.88   7 1.89
  25  0.915  0.824  0.883-  14 1.87  19 1.88   4 1.89   3 1.91
  26  0.664  0.075  0.384-  16 1.86  15 1.87   5 1.88
  27  0.414  0.323  0.882-  12 1.85  17 1.87   6 1.88
  28  0.442  0.293  0.384-   9 1.85   5 1.85  16 1.88
  29  0.190  0.542  0.880-   6 1.87  10 1.87  17 1.89   3 1.95
  30  0.942  0.794  0.384-   7 1.85  11 1.85  18 1.89
  31  0.691  0.043  0.881-   8 1.85   4 1.85  19 1.89
  32  0.301  0.438  0.101-   6 1.84  10 1.84  12 1.93
  33  0.052  0.691  0.604-   7 1.84  11 1.84   3 1.89  13 1.96
  34  0.802  0.942  0.103-   4 1.83   8 1.83  14 1.97
  35  0.552  0.190  0.605-   5 1.84   9 1.84  15 1.93
  36  0.531  0.176  0.117-  12 1.88  16 1.88   8 1.89   1 1.90
  37  0.281  0.425  0.617-  17 1.86  13 1.87   9 1.88
  38  0.031  0.676  0.116-  14 1.86  18 1.89  10 1.91   2 1.91
  39  0.783  0.926  0.619-  19 1.85  15 1.87  11 1.88
  40  0.086  0.176  0.117-  12 1.88  16 1.88   4 1.89   1 1.90
  41  0.836  0.425  0.617-  17 1.86  13 1.87   5 1.88
  42  0.585  0.676  0.116-  14 1.86  18 1.89   6 1.91   2 1.91
  43  0.336  0.926  0.619-  19 1.85  15 1.87   7 1.88
  44  0.309  0.957  0.117-   4 1.87   8 1.87  16 1.91   2 1.95
  45  0.059  0.207  0.619-   5 1.86   9 1.86  17 1.86
  46  0.809  0.456  0.117-   6 1.86  10 1.86  18 1.91   1 1.95
  47  0.559  0.708  0.618-   7 1.85  11 1.85  19 1.88
  48  0.198  0.061  0.896-   4 1.84   8 1.84  12 1.94
  49  0.948  0.309  0.397-   9 1.85   5 1.85   1 1.91  13 1.95
  50  0.698  0.558  0.895-   6 1.83  10 1.83  14 1.97
  51  0.449  0.812  0.397-  11 1.84   7 1.84   2 1.90  15 1.95

  LATTYP: Found a base centered monoclinic cell.
 ALAT       =    18.4649835529
 B/A-ratio  =     0.3029263888
 C/A-ratio  =     1.0572053654
 COS(beta)  =    -0.8322676881

  Lattice vectors:

 A1 = (   4.0194769329,   7.8548011370,  -3.8995775866)
 A2 = (   4.0194769329,   3.8995775866,  -7.8548011370)
 A3 = ( -16.0675714990,  -7.8394357786,   7.8394357786)

Analysis of symmetry for initial positions (statically):
 Subroutine PRICEL returns:
 Original cell was already a primitive cell.

 Routine SETGRP: Setting up the symmetry group for a
 base centered monoclinic supercell.

 Subroutine GETGRP returns: Found  2 space group operations
 (whereof  1 operations were pure point group operations)
 out of a pool of  4 trial point group operations.

The static configuration has the point symmetry C_1 .
 The point group associated with its full space group is C_1h.

Analysis of symmetry for dynamics (positions and initial velocities):
 Subroutine PRICEL returns:
 Original cell was already a primitive cell.

[...]

The dynamic configuration has the point symmetry C_1 .
 The point group associated with its full space group is C_1h.

Analysis of structural, dynamic, and magnetic symmetry:
 Subroutine PRICEL returns:
 Original cell was already a primitive cell.

 Routine SETGRP: Setting up the symmetry group for a
 base centered monoclinic supercell.

 Subroutine GETGRP returns: Found  2 space group operations
 (whereof  1 operations were pure point group operations)
 out of a pool of  4 trial point group operations.

The magnetic configuration has the point symmetry C_1 .
 The point group associated with its full space group is C_1h.

 Subroutine INISYM returns: Found  2 space group operations
 (whereof  1 operations are pure point group operations),
 and found     1 'primitive' translations

 KPOINTS: Automatic mesh

Automatic generation of k-mesh.
Space group operators:
 irot       det(A)        alpha          n_x          n_y          n_z        tau_x        tau_y        tau_z
    1     1.000000     0.000001     1.000000     0.000000     0.000000     0.000000     0.000000     0.000000
    2    -1.000000   180.000000     0.000000    -0.707107    -0.707107     0.500000    -0.000000     1.000000

 Subroutine IBZKPT returns following result:

 Found      1 irreducible k-points:

 Following reciprocal coordinates:
            Coordinates               Weight
  0.000000  0.000000  0.000000      1.000000

 Following cartesian coordinates:
            Coordinates               Weight
  0.000000  0.000000  0.000000      1.000000

 SYSTEM =  unknown system
 POSCAR =  ce137_1

 Startparameter for this run:
   NWRITE =      1    write-flag & timer
   PREC   = accura    normal or accurate (medium, high low for compatibility)
   ISTART =      0    job   : 0-new  1-cont  2-samecut
   ICHARG =      2    charge: 1-file 2-atom 10-const
   ISPIN  =      2    spin polarized calculation?
   LNONCOLLINEAR =      F non collinear calculations
   LSORBIT =      F    spin-orbit coupling
   INIWAV =      1    electr: 0-lowe 1-rand  2-diag
   LASPH  =      F    aspherical Exc in radial PAW
   METAGGA=      F    non-selfconsistent MetaGGA calc.

 Electronic Relaxation 1
   ENCUT  =  500.0 eV  36.75 Ry    6.06 a.u.  10.20 17.78 17.59*2*pi/ulx,y,z
   ENINI  =  500.0     initial cutoff
   ENAUG  =  628.9 eV  augmentation charge cutoff
   NELM   =     80;   NELMIN=  2; NELMDL= -5     # of ELM steps
   EDIFF  = 0.1E-04   stopping-criterion for ELM
   LREAL  =      T    real-space projection
   NLSPLINE    = F    spline interpolate recip. space projectors
   LCOMPAT=      F    compatible to vasp.4.4
   GGA_COMPAT  = T    GGA compatible to vasp.4.4-vasp.4.6
   LMAXPAW     = -100 max onsite density
   LMAXMIX     =    2 max onsite mixed and CHGCAR
   VOSKOWN=      1    Vosko Wilk Nusair interpolation
   ROPT   =   -0.00025  -0.00025  -0.00025
 Ionic relaxation
   EDIFFG = -.2E-01   stopping-criterion for IOM
   NSW    =     20    number of steps for IOM
   NBLOCK =      1;   KBLOCK =     20    inner block; outer block
[...]

 FORCES acting on ions
    electron-ion (+dipol)            ewald-force                    non-local-force                 convergence-correction
   -.813E+01 0.170E+01 -.170E+01   0.795E+01 -.162E+01 0.162E+01   0.175E+00 -.833E-01 0.833E-01   0.989E-02 0.329E-02 -.329E-02
   -.684E+01 -.123E+01 0.124E+01   0.671E+01 0.131E+01 -.131E+01   0.136E+00 -.764E-01 0.764E-01   -.572E-02 0.296E-02 -.296E-02
   0.841E+01 -.938E+00 0.938E+00   -.832E+01 0.710E+00 -.710E+00   -.779E-01 0.232E+00 -.232E+00   -.111E-01 -.260E-02 0.260E-02
   -.115E+02 0.161E+02 -.136E+02   0.117E+02 -.162E+02 0.138E+02   -.263E+00 0.119E+00 -.163E+00   0.200E-01 0.275E-02 0.321E-02
   -.122E+02 -.108E+02 0.150E+02   0.125E+02 0.110E+02 -.151E+02   -.345E+00 -.217E+00 0.296E-01   0.410E-01 -.153E-01 0.525E-01
   0.151E+02 -.111E+02 -.652E+01   -.153E+02 0.114E+02 0.680E+01   0.196E+00 -.343E+00 -.275E+00   -.996E-02 -.559E-03 -.943E-02
   0.312E+01 0.379E+00 -.114E+01   -.316E+01 -.435E+00 0.117E+01   0.945E-01 0.537E-01 0.174E-01   -.487E-01 0.319E-02 -.456E-01
   -.115E+02 0.136E+02 -.161E+02   0.117E+02 -.138E+02 0.162E+02   -.263E+00 0.163E+00 -.119E+00   0.200E-01 -.321E-02 -.275E-02
   -.122E+02 -.150E+02 0.108E+02   0.125E+02 0.151E+02 -.110E+02   -.345E+00 -.296E-01 0.217E+00   0.410E-01 -.525E-01 0.153E-01
   0.151E+02 0.652E+01 0.111E+02   -.153E+02 -.680E+01 -.114E+02   0.196E+00 0.275E+00 0.343E+00   -.996E-02 0.943E-02 0.562E-03
   0.312E+01 0.114E+01 -.379E+00   -.316E+01 -.117E+01 0.435E+00   0.945E-01 -.174E-01 -.537E-01   -.487E-01 0.456E-01 -.319E-02
   0.167E+02 0.547E+01 -.547E+01   -.171E+02 -.550E+01 0.550E+01   0.433E+00 0.260E-01 -.260E-01   0.133E-01 0.174E-02 -.174E-02
   0.554E+01 0.603E+00 -.603E+00   -.580E+01 -.526E+00 0.526E+00   0.259E+00 -.713E-01 0.713E-01   -.228E-02 -.521E-02 0.522E-02
   0.105E+01 -.428E+00 0.428E+00   -.996E+00 0.492E+00 -.492E+00   -.368E-01 -.796E-01 0.796E-01   -.177E-01 0.122E-01 -.122E-01
   -.185E+02 -.102E+02 0.102E+02   0.189E+02 0.104E+02 -.104E+02   -.384E+00 -.198E+00 0.198E+00   0.785E-02 -.103E-01 0.103E-01
   -.243E+01 0.197E+01 -.197E+01   0.205E+01 -.225E+01 0.225E+01   0.350E+00 0.292E+00 -.292E+00   0.270E-01 -.156E-01 0.156E-01
   0.163E+02 -.575E+01 0.575E+01   -.165E+02 0.598E+01 -.598E+01   0.120E+00 -.199E+00 0.199E+00   0.172E-02 -.254E-01 0.254E-01
   0.953E+01 -.379E+00 0.379E+00   -.995E+01 0.130E+00 -.130E+00   0.426E+00 0.214E+00 -.214E+00   -.532E-02 0.334E-01 -.334E-01
   -.166E+02 0.822E+01 -.822E+01   0.173E+02 -.820E+01 0.820E+01   -.626E+00 -.266E-01 0.266E-01   -.166E-01 0.872E-02 -.872E-02
   0.205E+03 0.195E+03 0.225E+03   -.219E+03 -.210E+03 -.241E+03   0.145E+02 0.154E+02 0.166E+02   -.133E-01 0.349E-01 0.580E-02
   0.177E+03 0.182E+03 0.170E+03   -.186E+03 -.193E+03 -.181E+03   0.975E+01 0.111E+02 0.105E+02   -.135E-01 -.145E-01 0.553E-02
   0.198E+03 0.197E+03 0.223E+03   -.213E+03 -.213E+03 -.239E+03   0.149E+02 0.158E+02 0.164E+02   0.126E-01 -.464E-01 0.245E-01
   0.213E+03 0.216E+03 0.202E+03   -.228E+03 -.232E+03 -.218E+03   0.150E+02 0.165E+02 0.154E+02   0.880E-02 -.625E-02 0.175E-01
   0.205E+03 -.225E+03 -.195E+03   -.219E+03 0.241E+03 0.210E+03   0.145E+02 -.166E+02 -.154E+02   -.133E-01 -.580E-02 -.349E-01
   0.177E+03 -.170E+03 -.182E+03   -.186E+03 0.181E+03 0.193E+03   0.975E+01 -.105E+02 -.111E+02   -.135E-01 -.553E-02 0.145E-01
   0.198E+03 -.223E+03 -.197E+03   -.213E+03 0.239E+03 0.213E+03   0.149E+02 -.164E+02 -.158E+02   0.126E-01 -.245E-01 0.464E-01
   0.213E+03 -.202E+03 -.216E+03   -.228E+03 0.218E+03 0.232E+03   0.150E+02 -.154E+02 -.165E+02   0.880E-02 -.175E-01 0.625E-02
   -.217E+03 0.210E+03 -.210E+03   0.232E+03 -.225E+03 0.225E+03   -.151E+02 0.150E+02 -.150E+02   0.277E-02 -.969E-02 0.969E-02
   -.159E+03 0.191E+03 -.191E+03   0.168E+03 -.202E+03 0.202E+03   -.932E+01 0.106E+02 -.106E+02   -.224E-01 -.543E-02 0.543E-02
   -.210E+03 0.212E+03 -.212E+03   0.225E+03 -.227E+03 0.227E+03   -.146E+02 0.151E+02 -.151E+02   -.339E-01 0.987E-02 -.987E-02
   -.198E+03 0.226E+03 -.226E+03   0.212E+03 -.241E+03 0.241E+03   -.140E+02 0.153E+02 -.153E+02   -.390E-04 -.459E-02 0.459E-02
   -.192E+03 -.220E+03 0.220E+03   0.205E+03 0.236E+03 -.236E+03   -.133E+02 -.154E+02 0.154E+02   0.109E-01 0.581E-02 -.581E-02
   -.151E+03 -.188E+03 0.188E+03   0.159E+03 0.199E+03 -.199E+03   -.806E+01 -.117E+02 0.117E+02   -.467E-01 0.576E-02 -.576E-02
   -.191E+03 -.220E+03 0.220E+03   0.203E+03 0.235E+03 -.235E+03   -.122E+02 -.155E+02 0.155E+02   0.208E-01 0.411E-02 -.411E-02
   -.197E+03 -.219E+03 0.219E+03   0.212E+03 0.235E+03 -.235E+03   -.146E+02 -.164E+02 0.164E+02   0.478E-01 -.119E-01 0.119E-01
   -.181E+03 -.174E+03 -.180E+03   0.191E+03 0.185E+03 0.190E+03   -.103E+02 -.108E+02 -.106E+02   0.204E-01 0.306E-02 -.145E-01
   -.197E+03 -.207E+03 -.219E+03   0.212E+03 0.223E+03 0.235E+03   -.148E+02 -.159E+02 -.163E+02   0.245E-02 -.340E-01 -.622E-02
   -.173E+03 -.185E+03 -.168E+03   0.182E+03 0.196E+03 0.179E+03   -.903E+01 -.115E+02 -.102E+02   -.542E-02 0.205E-01 -.201E-01
   -.212E+03 -.193E+03 -.224E+03   0.227E+03 0.209E+03 0.240E+03   -.149E+02 -.156E+02 -.167E+02   -.972E-02 0.434E-01 -.977E-02
   -.181E+03 0.180E+03 0.174E+03   0.191E+03 -.190E+03 -.185E+03   -.103E+02 0.106E+02 0.108E+02   0.204E-01 0.145E-01 -.306E-02
   -.197E+03 0.219E+03 0.207E+03   0.212E+03 -.235E+03 -.223E+03   -.148E+02 0.163E+02 0.159E+02   0.245E-02 0.622E-02 0.340E-01
   -.173E+03 0.168E+03 0.185E+03   0.182E+03 -.179E+03 -.196E+03   -.903E+01 0.102E+02 0.115E+02   -.542E-02 0.201E-01 -.205E-01
   -.212E+03 0.224E+03 0.193E+03   0.227E+03 -.240E+03 -.209E+03   -.149E+02 0.167E+02 0.156E+02   -.972E-02 0.977E-02 -.434E-01
   0.160E+03 -.191E+03 0.191E+03   -.169E+03 0.201E+03 -.201E+03   0.876E+01 -.100E+02 0.100E+02   0.206E-01 0.328E-02 -.328E-02
   0.209E+03 -.215E+03 0.215E+03   -.225E+03 0.231E+03 -.231E+03   0.159E+02 -.154E+02 0.154E+02   0.335E-01 -.132E-01 0.132E-01
   0.168E+03 -.193E+03 0.193E+03   -.177E+03 0.203E+03 -.203E+03   0.824E+01 -.103E+02 0.103E+02   0.184E-01 0.120E-01 -.120E-01
   0.217E+03 -.211E+03 0.211E+03   -.232E+03 0.226E+03 -.226E+03   0.152E+02 -.151E+02 0.151E+02   -.164E-01 0.829E-02 -.829E-02
   0.186E+03 0.226E+03 -.226E+03   -.200E+03 -.242E+03 0.242E+03   0.136E+02 0.157E+02 -.157E+02   0.156E-02 -.444E-02 0.444E-02
   0.157E+03 0.187E+03 -.187E+03   -.165E+03 -.198E+03 0.198E+03   0.821E+01 0.110E+02 -.110E+02   0.374E-01 -.583E-02 0.583E-02
   0.203E+03 0.217E+03 -.217E+03   -.216E+03 -.232E+03 0.232E+03   0.131E+02 0.156E+02 -.156E+02   -.249E-01 -.299E-03 0.299E-03
   0.157E+03 0.188E+03 -.188E+03   -.165E+03 -.199E+03 0.199E+03   0.808E+01 0.117E+02 -.117E+02   -.518E-01 0.551E-02 -.551E-02
   -.376E+00 0.828E-02 -.789E-02   0.256E-12 -.284E-13 0.256E-12   0.371E+00 0.545E-02 -.545E-02   0.812E-02 -.102E-01 0.102E-01

 POSITION                                       TOTAL-FORCE (eV/Angst)
      2.97901      2.98126      2.95026         0.003686      0.001745     -0.001745
      7.01443     -0.94611      2.92328        -0.001452      0.006154     -0.006154
      9.05842      0.95405     -2.93122         0.000807      0.000281     -0.000281
      4.02397      7.84207     -3.89442        -0.005645      0.000929     -0.005821
      4.02009      3.94176      0.00602         0.002717      0.001962      0.003502
      8.01381      3.91638     -3.91481        -0.007935     -0.001756     -0.005543
      8.04573      0.00188     -0.00264         0.007590      0.001020      0.001550
      4.02397      5.87159     -5.86490        -0.005645      0.005821     -0.000929
      4.02009      1.97116     -1.96459         0.002717     -0.003502     -0.001962
      8.01381      5.89198     -1.93921        -0.007935      0.005543      0.001756
      8.04573      1.97981      1.97529         0.007590     -0.001550     -0.001020
      6.01548      3.89614     -5.87331        -0.002566     -0.000726      0.000726
      6.02823     -0.00637     -1.97080         0.003924      0.000676     -0.000676
     10.03456      3.92983     -1.95266        -0.001294     -0.003302      0.003302
      2.03747      3.93037     -1.95319         0.004222      0.000150     -0.000150
      2.02387      1.97842     -0.00125        -0.003294     -0.000036      0.000036
      6.00468      1.94621     -3.92338        -0.003268     -0.000248      0.000248
      6.04015      1.99837      3.93315        -0.001839     -0.002081      0.002081
     10.04134      1.96038      0.01679         0.001607      0.003617     -0.003617
      6.16699      2.07638      2.08875         0.004892     -0.003857     -0.001281
     10.16896      2.07119     -1.85859        -0.000367      0.000472     -0.000525
      2.14570      2.06895     -1.85034        -0.001265     -0.004255     -0.001097
      6.13626      6.00525     -1.83562        -0.008164     -0.000971     -0.000460
      6.16699     -0.11158     -0.09920         0.004892      0.001281      0.003857
     10.16896      3.83576     -0.09402        -0.000367      0.000525     -0.000472
      2.14570      3.82752     -0.09178        -0.001265      0.001097      0.004255
      6.13626      3.81279     -4.02808        -0.008164      0.000460      0.000971
      3.89440      2.09665     -0.11948        -0.002886     -0.003299      0.003299
      7.89164      2.05948     -4.03665        -0.004650     -0.003392      0.003392
      7.92178      2.11100      3.82052         0.006128     -0.003111      0.003111
      3.89296      5.99798     -4.02081         0.005085     -0.000062      0.000062
      3.92038     -0.13060      2.10778        -0.019461      0.000159     -0.000159
      7.98136     -0.14223     -1.83494         0.004161     -0.000243      0.000243
      7.97501     -0.11343      6.04495        -0.016033      0.004407     -0.004407
      3.95628      3.80109     -1.82392         0.003593     -0.000870      0.000870
      1.88393      1.86804      1.87170         0.003591      0.006308     -0.003054
      5.89223      1.85273     -2.06879        -0.001123     -0.003379      0.003102
      5.89460     -2.06738      1.85767        -0.000620      0.006334     -0.001386
      9.92502      1.88168      1.86002         0.004723      0.000509      0.003432
      1.88393      0.10548      0.10913         0.003591      0.003054     -0.006308
      5.89223      4.04596      0.12444        -0.001123     -0.003102      0.003379
      5.89460      0.11950      4.04455        -0.000620      0.001386     -0.006334
      9.92502      0.11715      0.09549         0.004723     -0.003432     -0.000509
      8.15358     -2.06505      4.04223         0.000656      0.001809     -0.001809
      4.15019      1.83576     -3.81293        -0.002475      0.000062     -0.000062
      4.13160      1.87243      4.05908        -0.002142     -0.000999      0.000999
      8.17013      1.84786      0.12931         0.000801      0.001213     -0.001213
      4.09311      4.03664     -6.01381         0.009940     -0.002021      0.002021
      4.07821      4.08595      1.84556         0.003430     -0.001762      0.001762
      8.08622      4.06359     -2.08642         0.011896     -0.007081      0.007081
      8.12103      0.14573      1.83145         0.004638     -0.001935      0.001935
    total drift:                                0.002517      0.003503     -0.003103

  FREE ENERGIE OF THE ION-ELECTRON SYSTEM (eV)
  free  energy   TOTEN  =      -317.8507438598 eV

  energy  without entropy=     -317.8401745284  energy(sigma->0) =     -317.84545919

 d Force = 0.1077656E-03[ 0.838E-04, 0.132E-03]  d Energy = 0.1068747E-03 0.891E-06
 d Force =-0.2049494E+00[-0.205E+00,-0.204E+00]  d Ewald  = 0.1394473E+01-0.160E+01

 Quasi-Newton relaxation of ions (Broydens 2nd method)
  g(Force)  = 0.125E-03   g(Stress)= 0.110E-03

 retain information from N=  1 steps
 eigenvalues of (default step * inverse Hessian matrix)
  average eigenvalue of G=   0.2391
 eigenvalue spectrum of G is  0.2391

 reached required accuracy - stopping structural energy minimisation

volume of typ            1:     4.7 %

[...]

volume of typ            3:    10.5 %

total charge

# of ion       s       p       d       tot
    1        2.112   0.336   0.129   2.577
    2        2.111   0.333   0.127   2.571
    3        2.113   0.337   0.130   2.580
    4        0.299   0.422   7.826   8.548
    5        0.303   0.427   7.823   8.553
    6        0.297   0.418   7.828   8.544
    7        0.302   0.426   7.823   8.551
    8        0.299   0.422   7.826   8.548
    9        0.303   0.427   7.823   8.553
   10        0.297   0.418   7.828   8.544
   11        0.302   0.426   7.823   8.551
   12        0.289   0.394   7.834   8.518
   13        0.281   0.376   7.840   8.497
   14        0.284   0.383   7.841   8.508
   15        0.285   0.385   7.840   8.510
   16        0.294   0.403   7.827   8.524
   17        0.298   0.412   7.824   8.534
   18        0.292   0.399   7.829   8.520
   19        0.297   0.410   7.827   8.534
   20        1.282   2.728   0.008   4.018
   21        1.263   2.785   0.007   4.055
   22        1.282   2.729   0.008   4.019
   23        1.284   2.724   0.008   4.016
   24        1.282   2.728   0.008   4.018
   25        1.263   2.785   0.007   4.055
   26        1.282   2.729   0.008   4.019
   27        1.284   2.724   0.008   4.016
   28        1.284   2.726   0.008   4.018
   29        1.267   2.775   0.007   4.050
   30        1.284   2.725   0.008   4.017
   31        1.285   2.721   0.008   4.015
   32        1.283   2.732   0.008   4.022
   33        1.265   2.782   0.007   4.055
   34        1.283   2.730   0.008   4.021
   35        1.285   2.720   0.008   4.014
   36        1.264   2.783   0.007   4.054
   37        1.283   2.727   0.008   4.018
   38        1.263   2.784   0.007   4.054
   39        1.283   2.725   0.008   4.017
   40        1.264   2.783   0.007   4.054
   41        1.283   2.727   0.008   4.018
   42        1.263   2.784   0.007   4.054
   43        1.283   2.725   0.008   4.017
   44        1.268   2.774   0.007   4.049
   45        1.285   2.722   0.008   4.015
   46        1.269   2.770   0.007   4.046
   47        1.283   2.727   0.008   4.019
   48        1.284   2.725   0.008   4.018
   49        1.267   2.779   0.007   4.053
   50        1.283   2.728   0.008   4.019
   51        1.266   2.781   0.007   4.054
tot          51.91   95.45  125.89  273.25

magnetization (x)

# of ion       s       p       d       tot
    1        0.002   0.003   0.001   0.006
    2        0.003   0.003   0.000   0.006
    3        0.003   0.002   0.001   0.005
    4       -0.000   0.000   0.075   0.075
    5       -0.000   0.000   0.006   0.006
    6       -0.000   0.000   0.093   0.093
    7       -0.000   0.000   0.011   0.010
    8       -0.000   0.000   0.075   0.075
    9       -0.000   0.000   0.006   0.006
   10       -0.000   0.000   0.093   0.093
   11       -0.000   0.000   0.011   0.010
   12        0.000   0.000   0.253   0.253
   13        0.001  -0.000   0.432   0.432
   14        0.000  -0.000   0.357   0.357
   15        0.000   0.000   0.313   0.314
   16       -0.000  -0.000   0.108   0.107
   17       -0.000  -0.000   0.038   0.037
   18       -0.000  -0.000   0.139   0.138
   19       -0.000  -0.000   0.056   0.056
   20        0.002   0.011   0.000   0.013
   21        0.003   0.013   0.000   0.016
   22        0.002   0.007   0.000   0.009
   23        0.002   0.011   0.000   0.013
   24        0.002   0.011   0.000   0.013
   25        0.003   0.013   0.000   0.016
   26        0.002   0.007   0.000   0.009
   27        0.002   0.011   0.000   0.013
   28        0.001   0.019   0.000   0.021
   29        0.003   0.017   0.000   0.021
   30        0.002   0.025   0.000   0.026
   31        0.002   0.026   0.000   0.028
   32        0.003   0.024   0.000   0.027
   33        0.004   0.041   0.000   0.046
   34        0.004   0.044   0.000   0.048
   35        0.003   0.032   0.000   0.035
   36        0.002   0.009   0.000   0.012
   37        0.002   0.006   0.000   0.008
   38        0.003   0.014   0.000   0.017
   39        0.002   0.004   0.000   0.005
   40        0.002   0.009   0.000   0.012
   41        0.002   0.006   0.000   0.008
   42        0.003   0.014   0.000   0.017
   43        0.002   0.004   0.000   0.005
   44        0.004   0.020   0.000   0.023
   45        0.000   0.003   0.000   0.003
   46        0.005   0.029   0.000   0.035
   47        0.000   0.004   0.000   0.004
   48        0.003   0.017   0.000   0.020
   49        0.005   0.044   0.000   0.049
   50        0.003   0.040   0.000   0.043
   51        0.003   0.026   0.000   0.030
tot           0.08    0.57    2.07    2.73