 vasp.5.4.4.18Apr17-6-g9f103f2a35 (build May 12 2020 05:39:39) gamma-only

 MD_VERSION_INFO: Compiled 2020-05-12T12:39:39-UTC in devlin.sd.materialsdesign.
 com:/home/medea2/data/build/wwolf/vasp-gpu5.4.4/13047/x86_64/src/src/build/gam
 from svn 13047

 executed on                        Lin64 date 2023.02.09  12:34:10

 INCAR:
 POTCAR:    PAW_PBE Li_sv 10Sep2004
 POTCAR:    PAW_PBE Ni 02Aug2007
 POTCAR:    PAW_PBE O 08Apr2002

 POTCAR:    PAW_PBE Li_sv 10Sep2004

 POTCAR:    PAW_PBE Ni 02Aug2007

 POTCAR:    PAW_PBE O 08Apr2002

 Optimization of the real space projectors (new method)

 maximal supplied QI-value         = 22.11
 optimisation between [QCUT,QGAM] = [ 11.28, 22.77] = [ 35.61,145.23] Ry
 Optimized for a Real-space Cutoff    1.10 Angstroem

   l    n(q)    QCUT    max X(q) W(low)/X(q) W(high)/X(q)  e(spline)
   0      7    11.276    10.506    0.54E-04    0.58E-04    0.16E-07
   0      7    11.276     8.367    0.11E-03    0.14E-03    0.35E-07
   1      7    11.276     8.983    0.23E-03    0.43E-03    0.86E-07
 Optimization of the real space projectors (new method)

[...]

   l    n(q)    QCUT    max X(q) W(low)/X(q) W(high)/X(q)  e(spline)
   2      9    11.376    60.317    0.17E-03    0.16E-04    0.16E-06
   2      9    11.376    55.921    0.17E-03    0.16E-04    0.17E-06
   0     10    11.376    51.690    0.45E-04    0.60E-04    0.21E-06
   0     10    11.376    30.015    0.37E-04    0.55E-04    0.19E-06
   1     10    11.376    18.849    0.83E-04    0.11E-03    0.92E-07
   1     10    11.376    14.624    0.69E-04    0.92E-04    0.82E-07
 Optimization of the real space projectors (new method)

 maximal supplied QI-value         = 24.76
 optimisation between [QCUT,QGAM] = [ 11.39, 22.77] = [ 36.31,145.25] Ry
 Optimized for a Real-space Cutoff    1.10 Angstroem

   l    n(q)    QCUT    max X(q) W(low)/X(q) W(high)/X(q)  e(spline)
   0      7    11.387    20.381    0.22E-03    0.48E-03    0.18E-06
   0      7    11.387    15.268    0.22E-03    0.52E-03    0.19E-06
   1      7    11.387     5.964    0.22E-03    0.73E-03    0.24E-06
   1      7    11.387     5.382    0.19E-03    0.60E-03    0.21E-06

  PAW_PBE Li_sv 10Sep2004               :
  PAW_PBE Ni 02Aug2007                  :
  PAW_PBE O 08Apr2002                   :

 POSCAR: ce97_1
  positions in direct lattice
 exchange correlation table for  LEXCH =       14
   RHO(1)=    0.500       N(1)  =     2000
   RHO(2)=  100.500       N(2)  =     4000

 ion  position               nearest neighbor table
   1  0.750  0.368  1.000-  36 1.88  40 1.88  47 1.95  49 1.95
   2  0.250  0.876  0.253-  50 1.90  41 1.91  37 1.91  44 1.93
   3  0.250  0.629  0.997-  20 1.90  24 1.90  32 1.92  28 1.95
   4  0.999  0.000  0.999-  33 1.84  31 1.85  48 1.85  44 1.86  40 1.89  24 1.90   8 2.79   8 2.80
                            12 2.81  13 2.81  19 2.82  16 2.83
   5  0.500  0.499  0.252-  34 1.85  45 1.85  49 1.85  28 1.86  25 1.88  41 1.91   9 2.79   9 2.80
                            14 2.80  16 2.81  17 2.83  13 2.83
   6  0.999  0.000  0.501-  35 1.84  29 1.85  46 1.85  50 1.86  42 1.89  26 1.89  10 2.78  15 2.80
                            18 2.80  10 2.81  17 2.81  14 2.82
   7  0.500  0.500  0.748-  51 1.85  30 1.85  32 1.85  47 1.86  27 1.89  43 1.89  11 2.79  11 2.80
                            15 2.80  18 2.81  12 2.81  19 2.82
   8  0.501  0.000  0.999-  33 1.84  31 1.85  48 1.85  44 1.86  36 1.89  20 1.90   4 2.79   4 2.80
                            12 2.81  13 2.81  19 2.82  16 2.83
   9  1.000  0.499  0.252-  34 1.85  45 1.85  49 1.85  28 1.86  21 1.88  37 1.91   5 2.79   5 2.80
                            14 2.80  16 2.81  17 2.83  13 2.83
  10  0.501  0.000  0.501-  35 1.84  29 1.85  46 1.85  50 1.86  38 1.89  22 1.89   6 2.78  15 2.80
                            18 2.80   6 2.81  17 2.81  14 2.82
  11  1.000  0.500  0.748-  51 1.85  30 1.85  32 1.85  47 1.86  23 1.89  39 1.89   7 2.79   7 2.80
                            15 2.80  18 2.81  12 2.81  19 2.82
  12  0.250  0.249  0.873-  27 1.85  23 1.85  36 1.88  40 1.88  48 1.90  32 1.91  18 2.75  16 2.80
                             4 2.81   8 2.81   7 2.81  11 2.81
  13  0.750  0.751  0.125-  37 1.86  41 1.86  24 1.87  20 1.87  33 1.91  49 1.93  17 2.78  19 2.79
                             4 2.81   8 2.81   5 2.83   9 2.83
  14  0.250  0.251  0.376-  38 1.86  42 1.86  21 1.88  25 1.88  34 1.89  50 1.90  18 2.74  16 2.76
                             5 2.80   9 2.80   6 2.82  10 2.82
  15  0.750  0.750  0.625-  22 1.87  26 1.87  39 1.87  43 1.87  35 1.89  51 1.90  17 2.74  19 2.74
                             6 2.80  10 2.80   7 2.80  11 2.80
  16  0.250  0.250  0.126-  21 1.86  25 1.86  36 1.88  40 1.88  28 1.92  44 1.93  14 2.76  12 2.80
                             5 2.81   9 2.81   8 2.83   4 2.83
  17  0.750  0.751  0.377-  22 1.85  26 1.85  37 1.89  41 1.89  29 1.89  45 1.91  15 2.74  13 2.78
                             6 2.81  10 2.81   9 2.83   5 2.83
  18  0.250  0.250  0.625-  38 1.86  42 1.86  23 1.87  27 1.87  46 1.89  30 1.90  14 2.74  12 2.75
                             6 2.80  10 2.80   7 2.81  11 2.81
  19  0.750  0.750  0.873-  39 1.85  43 1.85  20 1.89  24 1.89  31 1.91  47 1.92  15 2.74  13 2.79
                             4 2.82   8 2.82   7 2.82  11 2.82
  20  0.526  0.765  0.000-  13 1.87  19 1.89   8 1.90   3 1.90
  21  0.026  0.266  0.250-  16 1.86  14 1.88   9 1.88
  22  0.526  0.766  0.500-  17 1.85  15 1.87  10 1.89
  23  0.026  0.265  0.750-  12 1.85  18 1.87  11 1.89
  24  0.974  0.765  0.000-  13 1.87  19 1.89   4 1.90   3 1.90
  25  0.474  0.266  0.250-  16 1.86  14 1.88   5 1.88
  26  0.974  0.766  0.500-  17 1.85  15 1.87   6 1.89
  27  0.474  0.265  0.750-  12 1.85  18 1.87   7 1.89
  28  0.250  0.488  0.141-   5 1.86   9 1.86  16 1.92   3 1.95
  29  0.750  0.985  0.392-   6 1.85  10 1.85  17 1.89
  30  0.250  0.484  0.640-   7 1.85  11 1.85  18 1.90
  31  0.750  0.987  0.890-   4 1.85   8 1.85  19 1.91
  32  0.250  0.486  0.858-   7 1.85  11 1.85  12 1.91   3 1.92
  33  0.750  0.988  0.108-   4 1.84   8 1.84  13 1.91
  34  0.250  0.485  0.360-   5 1.85   9 1.85  14 1.89
  35  0.750  0.985  0.610-   6 1.84  10 1.84  15 1.89
  36  0.473  0.235  1.000-  12 1.88  16 1.88   1 1.88   8 1.89
  37  0.974  0.735  0.250-  13 1.86  17 1.89   9 1.91   2 1.91
  38  0.474  0.234  0.501-  18 1.86  14 1.86  10 1.89
  39  0.974  0.734  0.750-  19 1.85  15 1.87  11 1.89
  40  0.027  0.235  1.000-  12 1.88  16 1.88   1 1.88   4 1.89
  41  0.526  0.735  0.250-  13 1.86  17 1.89   5 1.91   2 1.91
  42  0.026  0.234  0.501-  18 1.86  14 1.86   6 1.89
  43  0.526  0.734  0.750-  19 1.85  15 1.87   7 1.89
  44  0.250  0.012  0.109-   4 1.86   8 1.86  16 1.93   2 1.93
  45  0.750  0.514  0.360-   5 1.85   9 1.85  17 1.91
  46  0.250  0.016  0.610-   6 1.85  10 1.85  18 1.89
  47  0.750  0.513  0.858-   7 1.86  11 1.86  19 1.92   1 1.95
  48  0.250  0.014  0.890-   4 1.85   8 1.85  12 1.90
  49  0.750  0.512  0.142-   5 1.85   9 1.85  13 1.93   1 1.95
  50  0.250  0.016  0.392-   6 1.86  10 1.86  14 1.90   2 1.90
  51  0.750  0.515  0.640-   7 1.85  11 1.85  15 1.90

  LATTYP: Found a simple monoclinic cell.
 ALAT       =    13.6823198409
 B/A-ratio  =     0.4085641368
 C/A-ratio  =     1.4278618904
 COS(beta)  =    -0.9430515043

  Lattice vectors:

 A1 = (  -8.0546279070,  -7.8207686806,   7.8207686806)
 A2 = (   0.0000000000,  -3.9528012909,  -3.9528012909)
 A3 = (  16.0992583311,   7.8258312846,  -7.8258312846)

Analysis of symmetry for initial positions (statically):
 Subroutine PRICEL returns:
 Original cell was already a primitive cell.

 Routine SETGRP: Setting up the symmetry group for a
 simple monoclinic supercell.

 Subroutine GETGRP returns: Found  2 space group operations
 (whereof  1 operations were pure point group operations)
 out of a pool of  4 trial point group operations.

The static configuration has the point symmetry C_1 .
 The point group associated with its full space group is C_1h.

Analysis of symmetry for dynamics (positions and initial velocities):
 Subroutine PRICEL returns:
 Original cell was already a primitive cell.

[...]

The dynamic configuration has the point symmetry C_1 .
 The point group associated with its full space group is C_1h.

Analysis of structural, dynamic, and magnetic symmetry:
 Subroutine PRICEL returns:
 Original cell was already a primitive cell.

 Routine SETGRP: Setting up the symmetry group for a
 simple monoclinic supercell.

 Subroutine GETGRP returns: Found  2 space group operations
 (whereof  1 operations were pure point group operations)
 out of a pool of  4 trial point group operations.

The magnetic configuration has the point symmetry C_1 .
 The point group associated with its full space group is C_1h.

 Subroutine INISYM returns: Found  2 space group operations
 (whereof  1 operations are pure point group operations),
 and found     1 'primitive' translations

 KPOINTS: Automatic mesh

Automatic generation of k-mesh.
Space group operators:
 irot       det(A)        alpha          n_x          n_y          n_z        tau_x        tau_y        tau_z
    1     1.000000     0.000000     1.000000     0.000000     0.000000     0.000000     0.000000     0.000000
    2    -1.000000   180.000000     0.000000     0.707107     0.707107    -0.500000     0.000000     0.000000

 Subroutine IBZKPT returns following result:

 Found      1 irreducible k-points:

 Following reciprocal coordinates:
            Coordinates               Weight
  0.000000  0.000000  0.000000      1.000000

 Following cartesian coordinates:
            Coordinates               Weight
  0.000000  0.000000  0.000000      1.000000

 SYSTEM =  unknown system
 POSCAR =  ce97_1

 Startparameter for this run:
   NWRITE =      1    write-flag & timer
   PREC   = accura    normal or accurate (medium, high low for compatibility)
   ISTART =      0    job   : 0-new  1-cont  2-samecut
   ICHARG =      2    charge: 1-file 2-atom 10-const
   ISPIN  =      2    spin polarized calculation?
   LNONCOLLINEAR =      F non collinear calculations
   LSORBIT =      F    spin-orbit coupling
   INIWAV =      1    electr: 0-lowe 1-rand  2-diag
   LASPH  =      F    aspherical Exc in radial PAW
   METAGGA=      F    non-selfconsistent MetaGGA calc.

 Electronic Relaxation 1
   ENCUT  =  500.0 eV  36.75 Ry    6.06 a.u.  10.19 14.67 20.15*2*pi/ulx,y,z
   ENINI  =  500.0     initial cutoff
   ENAUG  =  628.9 eV  augmentation charge cutoff
   NELM   =     80;   NELMIN=  2; NELMDL= -5     # of ELM steps
   EDIFF  = 0.1E-04   stopping-criterion for ELM
   LREAL  =      T    real-space projection
   NLSPLINE    = F    spline interpolate recip. space projectors
   LCOMPAT=      F    compatible to vasp.4.4
   GGA_COMPAT  = T    GGA compatible to vasp.4.4-vasp.4.6
   LMAXPAW     = -100 max onsite density
   LMAXMIX     =    2 max onsite mixed and CHGCAR
   VOSKOWN=      1    Vosko Wilk Nusair interpolation
   ROPT   =   -0.00025  -0.00025  -0.00025
 Ionic relaxation
   EDIFFG = -.2E-01   stopping-criterion for IOM
   NSW    =     20    number of steps for IOM
   NBLOCK =      1;   KBLOCK =     20    inner block; outer block
[...]
     0.000000000  3.952801291  3.952801291     0.000000000  0.126492572  0.126492572
     8.044630424  0.005062604 -0.005062604     0.124306618 -0.000079504  0.000079504
     0.009997483  7.815706076 -7.815706076    -0.000080519  0.063973798 -0.063973798

  length of vectors
     5.590105195  8.044633610 11.053082054     0.178887510  0.124306669  0.090472649

 FORCES acting on ions
    electron-ion (+dipol)            ewald-force                    non-local-force                 convergence-correction
   -.183E+01 0.194E+01 -.194E+01   0.133E+01 -.194E+01 0.194E+01   0.495E+00 0.297E-02 -.297E-02   -.898E-03 -.125E-02 0.125E-02
   -.534E+01 -.744E+01 0.744E+01   0.526E+01 0.748E+01 -.748E+01   0.777E-01 -.365E-01 0.365E-01   -.278E-04 0.127E-02 -.127E-02
   0.254E+01 0.415E+01 -.415E+01   -.220E+01 -.420E+01 0.420E+01   -.335E+00 0.493E-01 -.493E-01   0.233E-03 -.124E-02 0.124E-02
   -.101E+02 0.237E+02 -.208E+02   0.104E+02 -.239E+02 0.211E+02   -.331E+00 0.161E+00 -.299E+00   0.170E-02 -.631E-02 0.756E-02
   0.136E+02 -.558E+02 0.386E+02   -.138E+02 0.566E+02 -.388E+02   0.221E+00 -.805E+00 0.207E+00   -.301E-02 0.826E-02 -.104E-01
   -.105E+02 -.193E+02 0.242E+02   0.108E+02 0.197E+02 -.245E+02   -.340E+00 -.313E+00 0.275E+00   0.338E-02 0.222E-02 -.990E-03
   -.667E+00 0.465E+02 -.477E+02   0.587E+00 -.470E+02 0.483E+02   0.798E-01 0.551E+00 -.585E+00   -.189E-02 -.540E-02 0.423E-02
   -.101E+02 0.208E+02 -.237E+02   0.104E+02 -.211E+02 0.239E+02   -.331E+00 0.299E+00 -.161E+00   0.170E-02 -.756E-02 0.631E-02
   0.136E+02 -.386E+02 0.558E+02   -.138E+02 0.388E+02 -.566E+02   0.221E+00 -.207E+00 0.805E+00   -.301E-02 0.104E-01 -.826E-02
   -.105E+02 -.242E+02 0.193E+02   0.108E+02 0.245E+02 -.197E+02   -.340E+00 -.275E+00 0.313E+00   0.338E-02 0.990E-03 -.222E-02
   -.667E+00 0.477E+02 -.465E+02   0.587E+00 -.483E+02 0.470E+02   0.798E-01 0.585E+00 -.551E+00   -.189E-02 -.423E-02 0.540E-02
   0.348E+02 0.288E+02 -.288E+02   -.355E+02 -.290E+02 0.290E+02   0.760E+00 0.216E+00 -.216E+00   -.199E-02 -.457E-02 0.457E-02
   -.145E+02 -.164E+02 0.164E+02   0.148E+02 0.167E+02 -.167E+02   -.249E+00 -.244E+00 0.244E+00   0.122E-03 0.319E-03 -.319E-03
   -.128E+02 -.230E+02 0.230E+02   0.130E+02 0.233E+02 -.233E+02   -.127E+00 -.295E+00 0.295E+00   0.530E-02 0.448E-02 -.448E-02
   -.687E+00 0.668E+01 -.668E+01   0.740E+00 -.668E+01 0.668E+01   -.508E-01 -.263E-02 0.263E-02   -.365E-02 0.515E-04 -.515E-04
   0.234E+02 -.123E+02 0.123E+02   -.240E+02 0.122E+02 -.122E+02   0.556E+00 0.449E-01 -.449E-01   -.449E-03 0.171E-02 -.171E-02
   0.213E+02 -.193E+02 0.193E+02   -.217E+02 0.193E+02 -.193E+02   0.384E+00 -.629E-01 0.629E-01   -.508E-02 0.407E-02 -.407E-02
   -.124E+01 0.677E+01 -.677E+01   0.114E+01 -.680E+01 0.680E+01   0.957E-01 0.339E-01 -.339E-01   0.412E-02 -.141E-02 0.141E-02
   -.356E+02 0.290E+02 -.290E+02   0.363E+02 -.293E+02 0.293E+02   -.681E+00 0.315E+00 -.315E+00   0.270E-02 -.435E-02 0.435E-02
   0.164E+03 0.192E+03 0.165E+03   -.174E+03 -.203E+03 -.175E+03   0.937E+01 0.108E+02 0.999E+01   0.330E-02 -.749E-02 0.287E-02
   0.205E+03 0.190E+03 0.233E+03   -.220E+03 -.206E+03 -.249E+03   0.147E+02 0.152E+02 0.160E+02   0.274E-02 0.513E-02 -.392E-02
   0.206E+03 0.199E+03 0.225E+03   -.220E+03 -.215E+03 -.241E+03   0.146E+02 0.156E+02 0.164E+02   -.342E-02 -.133E-02 0.467E-03
   0.210E+03 0.233E+03 0.189E+03   -.225E+03 -.249E+03 -.205E+03   0.147E+02 0.162E+02 0.154E+02   0.140E-02 -.314E-02 0.338E-02
   0.164E+03 -.165E+03 -.192E+03   -.174E+03 0.175E+03 0.203E+03   0.937E+01 -.999E+01 -.108E+02   0.330E-02 -.287E-02 0.749E-02
   0.205E+03 -.233E+03 -.190E+03   -.220E+03 0.249E+03 0.206E+03   0.147E+02 -.160E+02 -.152E+02   0.274E-02 0.392E-02 -.513E-02
   0.206E+03 -.225E+03 -.199E+03   -.220E+03 0.241E+03 0.215E+03   0.146E+02 -.164E+02 -.156E+02   -.342E-02 -.467E-03 0.133E-02
   0.210E+03 -.189E+03 -.233E+03   -.225E+03 0.205E+03 0.249E+03   0.147E+02 -.154E+02 -.162E+02   0.140E-02 -.338E-02 0.314E-02
   -.163E+03 0.178E+03 -.178E+03   0.172E+03 -.188E+03 0.188E+03   -.923E+01 0.104E+02 -.104E+02   0.772E-03 0.348E-02 -.348E-02
   -.210E+03 0.202E+03 -.202E+03   0.224E+03 -.217E+03 0.217E+03   -.144E+02 0.150E+02 -.150E+02   -.108E-03 0.571E-03 -.571E-03
   -.200E+03 0.227E+03 -.227E+03   0.214E+03 -.242E+03 0.242E+03   -.144E+02 0.157E+02 -.157E+02   -.259E-02 -.114E-03 0.114E-03
   -.193E+03 0.234E+03 -.234E+03   0.207E+03 -.249E+03 0.249E+03   -.138E+02 0.155E+02 -.155E+02   0.113E-02 -.544E-03 0.544E-03
   -.173E+03 -.168E+03 0.168E+03   0.182E+03 0.178E+03 -.178E+03   -.910E+01 -.103E+02 0.103E+02   0.109E-02 -.447E-02 0.447E-02
   -.202E+03 -.219E+03 0.219E+03   0.215E+03 0.234E+03 -.234E+03   -.137E+02 -.149E+02 0.149E+02   0.645E-02 -.312E-02 0.312E-02
   -.191E+03 -.235E+03 0.235E+03   0.206E+03 0.250E+03 -.250E+03   -.144E+02 -.156E+02 0.156E+02   -.242E-02 0.160E-02 -.160E-02
   -.202E+03 -.216E+03 0.216E+03   0.216E+03 0.232E+03 -.232E+03   -.145E+02 -.159E+02 0.159E+02   0.288E-02 0.158E-02 -.158E-02
   -.163E+03 -.176E+03 -.184E+03   0.172E+03 0.187E+03 0.194E+03   -.949E+01 -.103E+02 -.100E+02   -.288E-02 -.170E-02 0.298E-02
   -.175E+03 -.200E+03 -.156E+03   0.184E+03 0.211E+03 0.166E+03   -.918E+01 -.111E+02 -.103E+02   -.310E-02 0.828E-02 -.439E-02
   -.205E+03 -.219E+03 -.210E+03   0.220E+03 0.235E+03 0.226E+03   -.148E+02 -.160E+02 -.161E+02   0.401E-02 -.838E-03 -.283E-02
   -.209E+03 -.191E+03 -.232E+03   0.224E+03 0.206E+03 0.249E+03   -.145E+02 -.156E+02 -.163E+02   -.187E-02 0.974E-03 0.160E-02
   -.163E+03 0.184E+03 0.176E+03   0.172E+03 -.194E+03 -.187E+03   -.949E+01 0.100E+02 0.103E+02   -.288E-02 -.298E-02 0.170E-02
   -.175E+03 0.156E+03 0.200E+03   0.184E+03 -.166E+03 -.211E+03   -.918E+01 0.103E+02 0.111E+02   -.310E-02 0.439E-02 -.828E-02
   -.205E+03 0.210E+03 0.219E+03   0.220E+03 -.226E+03 -.235E+03   -.148E+02 0.161E+02 0.160E+02   0.401E-02 0.283E-02 0.838E-03
   -.209E+03 0.232E+03 0.191E+03   0.224E+03 -.249E+03 -.206E+03   -.145E+02 0.163E+02 0.156E+02   -.187E-02 -.160E-02 -.974E-03
   0.158E+03 -.193E+03 0.193E+03   -.167E+03 0.203E+03 -.203E+03   0.881E+01 -.102E+02 0.102E+02   -.777E-03 -.264E-02 0.264E-02
   0.201E+03 -.233E+03 0.233E+03   -.215E+03 0.249E+03 -.249E+03   0.139E+02 -.156E+02 0.156E+02   -.417E-03 0.154E-02 -.154E-02
   0.202E+03 -.215E+03 0.215E+03   -.217E+03 0.231E+03 -.231E+03   0.147E+02 -.153E+02 0.153E+02   0.357E-02 0.167E-02 -.167E-02
   0.173E+03 -.169E+03 0.169E+03   -.182E+03 0.180E+03 -.180E+03   0.930E+01 -.104E+02 0.104E+02   -.154E-02 -.435E-02 0.435E-02
   0.195E+03 0.233E+03 -.233E+03   -.209E+03 -.248E+03 0.248E+03   0.141E+02 0.151E+02 -.151E+02   -.108E-02 -.443E-03 0.443E-03
   0.175E+03 0.175E+03 -.175E+03   -.184E+03 -.186E+03 0.186E+03   0.869E+01 0.104E+02 -.104E+02   -.674E-02 0.371E-02 -.371E-02
   0.167E+03 0.175E+03 -.175E+03   -.176E+03 -.185E+03 0.185E+03   0.944E+01 0.104E+02 -.104E+02   0.325E-02 0.696E-03 -.696E-03
   0.200E+03 0.227E+03 -.227E+03   -.214E+03 -.243E+03 0.243E+03   0.144E+02 0.158E+02 -.158E+02   -.352E-02 0.462E-03 -.462E-03
   -.832E+00 -.750E-03 0.750E-03   0.568E-13 0.625E-12 -.284E-13   0.841E+00 0.128E-02 -.128E-02   0.106E-02 -.319E-02 0.319E-02

 POSITION                                       TOTAL-FORCE (eV/Angst)
      2.97110     10.78116     -4.85196        -0.003030      0.002033     -0.002033
      7.05191      2.96976     -0.99336        -0.002486      0.000172     -0.000172
      5.06666      8.78419     -6.80779         0.001619     -0.000573      0.000573
      0.01097     11.75592     -3.85643        -0.002368     -0.001784      0.002377
      4.01744      3.94553      0.00759         0.004988     -0.000540      0.000371
      0.00878      7.86807      0.03016        -0.001368     -0.000270     -0.003246
      4.02664      7.82647     -3.87314        -0.001857      0.002622     -0.001801
      0.01097      9.78563     -5.82672        -0.002368     -0.002377      0.001784
      4.01744      5.92161      1.98367         0.004988     -0.000371      0.000540
      0.00878      5.89904     -1.93887        -0.001368      0.003246      0.000270
      4.02664      9.80234     -1.89727        -0.001857      0.001801     -0.002622
      2.01170      7.81232     -5.83592        -0.004787      0.010092     -0.010092
      6.04390      3.94742      1.98178         0.002194     -0.005953      0.005953
      2.02114      3.93038     -1.95398         0.007278     -0.006827      0.006827
      6.04052      7.85177     -1.92256        -0.001854      0.000100     -0.000100
      2.01448      1.97785     -0.00145        -0.000991     -0.006117      0.006117
      6.04285      5.91513      0.01408        -0.002614     -0.008560      0.008560
      2.01468      5.87079     -3.89439         0.003884      0.005275     -0.005275
      6.04505      9.79020     -3.86100         0.000339      0.011826     -0.011826
      6.15547      2.08682      2.07408        -0.003966     -0.009883     -0.002884
      2.13941      2.05938     -1.85077        -0.000763     -0.003601     -0.011028
      6.16967      5.99053     -1.83072         0.002643     -0.005409     -0.011901
      2.14281      5.96593     -5.76085        -0.002877     -0.012155     -0.004635
      6.15547      3.85512      3.84239        -0.003966      0.002884      0.009883
      2.13941      3.82717     -0.08298        -0.000763      0.011028      0.003601
      6.16967      7.75992     -0.06133         0.002643      0.011901      0.005409
      2.14281      7.73725     -3.98953        -0.002877      0.004635      0.012155
      3.92750      2.09638     -0.11998        -0.000910     -0.002026      0.002026
      7.92921      6.03435     -0.10515         0.006796     -0.001301      0.001301
      3.90363      5.98935     -4.01295         0.003742     -0.001804      0.001804
      7.94518      9.92347     -3.99427        -0.003789     -0.005611      0.005611
      3.91708      7.69617     -5.71977        -0.001401     -0.001598      0.001598
      7.94681      3.81012      2.11909        -0.000493      0.003450     -0.003450
      3.90349      3.80653     -1.83013         0.003876      0.002731     -0.002731
      7.92824      7.73832     -1.80912         0.004089      0.001909     -0.001909
      1.89805      9.68480     -5.94349         0.001041      0.006033      0.008900
      5.91779      5.80594      1.89476         0.003909      0.010368      0.002499
      1.89031      5.78776     -2.03935         0.003357      0.008986      0.006971
      5.91314      9.71453     -2.01611         0.000469      0.006062      0.014235
      1.89805      7.91989     -7.70840         0.001041     -0.008900     -0.006033
      5.91779      4.03444      0.12326         0.003909     -0.002499     -0.010368
      1.89031      4.01575     -3.81136         0.003357     -0.006971     -0.008986
      5.91314      7.94531     -3.78532         0.000469     -0.014235     -0.006062
      0.09916      1.83764      0.13876        -0.002782      0.000619     -0.000619
      4.13997      5.78300      0.14620         0.001381      0.002105     -0.002105
      0.13642      5.75612     -3.77971        -0.005626      0.000277     -0.000277
      4.13528      9.67607     -3.74687        -0.004500      0.000379     -0.000379
      0.12287      7.94564     -5.96924        -0.001695     -0.003300      0.003300
      4.11739      4.07493      1.85427         0.001305     -0.000753      0.000753
      0.12984      4.05166     -2.07526        -0.000765      0.004877     -0.004877
      4.15092      7.96684     -2.03764        -0.005195     -0.001990      0.001990
    total drift:                                0.009445     -0.002656      0.002656

  FREE ENERGIE OF THE ION-ELECTRON SYSTEM (eV)
  free  energy   TOTEN  =      -317.9048100623 eV

  energy  without entropy=     -317.8894555582  energy(sigma->0) =     -317.89713281

 Quasi-Newton relaxation of ions (Broydens 2nd method)
  g(Force)  = 0.197E-03   g(Stress)= 0.111E-03

 Reset! Starting new Quasi-Newton update for ions

 reached required accuracy - stopping structural energy minimisation

volume of typ            1:     4.7 %

[...]

volume of typ            3:    10.5 %

total charge

# of ion       s       p       d       tot
    1        2.114   0.338   0.129   2.581
    2        2.112   0.333   0.127   2.572
    3        2.114   0.337   0.128   2.578
    4        0.297   0.420   7.828   8.545
    5        0.297   0.418   7.828   8.543
    6        0.300   0.422   7.825   8.548
    7        0.299   0.419   7.827   8.545
    8        0.297   0.420   7.828   8.545
    9        0.297   0.418   7.828   8.543
   10        0.300   0.422   7.825   8.548
   11        0.299   0.419   7.827   8.545
   12        0.292   0.401   7.834   8.528
   13        0.288   0.394   7.838   8.520
   14        0.293   0.402   7.831   8.526
   15        0.294   0.404   7.830   8.527
   16        0.287   0.392   7.838   8.518
   17        0.292   0.400   7.833   8.524
   18        0.295   0.408   7.828   8.531
   19        0.289   0.395   7.837   8.521
   20        1.264   2.785   0.007   4.056
   21        1.283   2.725   0.008   4.017
   22        1.283   2.726   0.008   4.017
   23        1.284   2.725   0.008   4.016
   24        1.264   2.785   0.007   4.056
   25        1.283   2.725   0.008   4.017
   26        1.283   2.726   0.008   4.017
   27        1.284   2.725   0.008   4.016
   28        1.266   2.779   0.007   4.052
   29        1.283   2.730   0.008   4.021
   30        1.285   2.721   0.008   4.014
   31        1.286   2.719   0.008   4.013
   32        1.265   2.784   0.007   4.056
   33        1.283   2.729   0.008   4.021
   34        1.285   2.722   0.008   4.015
   35        1.285   2.722   0.008   4.015
   36        1.264   2.785   0.007   4.056
   37        1.265   2.781   0.007   4.052
   38        1.284   2.723   0.008   4.015
   39        1.283   2.725   0.008   4.016
   40        1.264   2.785   0.007   4.056
   41        1.265   2.781   0.007   4.052
   42        1.284   2.723   0.008   4.015
   43        1.283   2.725   0.008   4.016
   44        1.268   2.775   0.007   4.050
   45        1.285   2.718   0.008   4.012
   46        1.284   2.724   0.008   4.016
   47        1.266   2.779   0.007   4.052
   48        1.285   2.723   0.008   4.016
   49        1.267   2.778   0.007   4.052
   50        1.266   2.783   0.007   4.056
   51        1.285   2.721   0.008   4.014
tot          51.92   95.42  125.92  273.26

magnetization (x)

# of ion       s       p       d       tot
    1        0.001  -0.000   0.000   0.001
    2        0.002   0.001  -0.000   0.002
    3        0.002   0.000   0.000   0.002
    4        0.000  -0.000   0.117   0.117
    5        0.000  -0.000   0.101   0.101
    6        0.000   0.000   0.059   0.059
    7        0.000  -0.000   0.071   0.071
    8        0.000  -0.000   0.117   0.117
    9        0.000  -0.000   0.101   0.101
   10        0.000   0.000   0.059   0.059
   11        0.000  -0.000   0.071   0.071
   12       -0.000   0.000   0.061   0.061
   13       -0.000   0.000   0.123   0.123
   14       -0.000   0.000   0.031   0.031
   15       -0.000   0.000   0.014   0.014
   16       -0.000   0.001  -0.152  -0.152
   17       -0.000   0.000  -0.041  -0.041
   18       -0.000   0.000  -0.021  -0.021
   19       -0.000   0.000  -0.085  -0.085
   20        0.001   0.009   0.000   0.010
   21        0.001   0.004   0.000   0.005
   22        0.000   0.001   0.000   0.002
   23        0.001   0.006   0.000   0.006
   24        0.001   0.009   0.000   0.010
   25        0.001   0.004   0.000   0.005
   26        0.000   0.001   0.000   0.002
   27        0.001   0.006   0.000   0.006
   28        0.000  -0.017  -0.000  -0.017
   29        0.000  -0.008  -0.000  -0.008
   30        0.001   0.003   0.000   0.003
   31        0.001   0.002  -0.000   0.003
   32        0.002   0.006   0.000   0.008
   33        0.002   0.014   0.000   0.016
   34        0.002   0.003   0.000   0.005
   35        0.001   0.001   0.000   0.003
   36        0.001   0.006   0.000   0.007
   37        0.001   0.008   0.000   0.010
   38        0.001   0.003   0.000   0.004
   39        0.000   0.002   0.000   0.002
   40        0.001   0.006   0.000   0.007
   41        0.001   0.008   0.000   0.010
   42        0.001   0.003   0.000   0.004
   43        0.000   0.002   0.000   0.002
   44        0.000  -0.010  -0.000  -0.010
   45        0.001   0.005  -0.000   0.006
   46        0.001  -0.002  -0.000  -0.001
   47        0.000  -0.012  -0.000  -0.011
   48        0.002   0.004   0.000   0.006
   49        0.003   0.012   0.000   0.015
   50        0.002   0.003   0.000   0.005
   51        0.001   0.001   0.000   0.002
tot           0.04    0.09    0.63    0.75