 vasp.5.4.4.18Apr17-6-g9f103f2a35 (build May 12 2020 05:39:39) gamma-only

 MD_VERSION_INFO: Compiled 2020-05-12T12:39:39-UTC in devlin.sd.materialsdesign.
 com:/home/medea2/data/build/wwolf/vasp-gpu5.4.4/13047/x86_64/src/src/build/gam
 from svn 13047

 executed on                        Lin64 date 2023.02.09  12:47:28

 INCAR:
 POTCAR:    PAW_PBE Li_sv 10Sep2004
 POTCAR:    PAW_PBE Ni 02Aug2007
 POTCAR:    PAW_PBE O 08Apr2002

 POTCAR:    PAW_PBE Li_sv 10Sep2004

 POTCAR:    PAW_PBE Ni 02Aug2007

 POTCAR:    PAW_PBE O 08Apr2002

 Optimization of the real space projectors (new method)

 maximal supplied QI-value         = 22.11
 optimisation between [QCUT,QGAM] = [ 11.28, 22.77] = [ 35.61,145.23] Ry
 Optimized for a Real-space Cutoff    1.10 Angstroem

   l    n(q)    QCUT    max X(q) W(low)/X(q) W(high)/X(q)  e(spline)
   0      7    11.276    10.506    0.54E-04    0.58E-04    0.16E-07
   0      7    11.276     8.367    0.11E-03    0.14E-03    0.35E-07
   1      7    11.276     8.983    0.23E-03    0.43E-03    0.86E-07
 Optimization of the real space projectors (new method)

[...]

   l    n(q)    QCUT    max X(q) W(low)/X(q) W(high)/X(q)  e(spline)
   2      9    11.376    60.317    0.17E-03    0.16E-04    0.16E-06
   2      9    11.376    55.921    0.17E-03    0.16E-04    0.17E-06
   0     10    11.376    51.690    0.45E-04    0.60E-04    0.21E-06
   0     10    11.376    30.015    0.37E-04    0.55E-04    0.19E-06
   1     10    11.376    18.849    0.83E-04    0.11E-03    0.92E-07
   1     10    11.376    14.624    0.69E-04    0.92E-04    0.82E-07
 Optimization of the real space projectors (new method)

 maximal supplied QI-value         = 24.76
 optimisation between [QCUT,QGAM] = [ 11.39, 22.77] = [ 36.31,145.25] Ry
 Optimized for a Real-space Cutoff    1.10 Angstroem

   l    n(q)    QCUT    max X(q) W(low)/X(q) W(high)/X(q)  e(spline)
   0      7    11.387    20.381    0.22E-03    0.48E-03    0.18E-06
   0      7    11.387    15.268    0.22E-03    0.52E-03    0.19E-06
   1      7    11.387     5.964    0.22E-03    0.73E-03    0.24E-06
   1      7    11.387     5.382    0.19E-03    0.60E-03    0.21E-06

  PAW_PBE Li_sv 10Sep2004               :
  PAW_PBE Ni 02Aug2007                  :
  PAW_PBE O 08Apr2002                   :

 POSCAR: ce24_1
  positions in direct lattice
 exchange correlation table for  LEXCH =       14
   RHO(1)=    0.500       N(1)  =     2000
   RHO(2)=  100.500       N(2)  =     4000

 ion  position               nearest neighbor table
   1  0.752  0.366  0.996-  30 1.90  33 1.90  38 1.95  40 1.97
   2  0.081  0.695  0.337-  34 1.90  31 1.90  41 1.95  36 1.97
   3  0.417  0.040  0.667-  39 1.91  37 1.91  32 1.93  35 1.93
   4  0.250  0.633  0.001-  18 1.91  21 1.91  24 1.93  27 1.94
   5  0.584  0.967  0.333-  19 1.91  22 1.91  28 1.93  25 1.94
   6  0.999  0.999  0.000-  26 1.84  28 1.85  39 1.85  36 1.85  33 1.90  21 1.91   9 2.80   9 2.81
                            17 2.83  15 2.84  13 2.85  12 2.87
   7  0.333  0.333  0.333-  29 1.84  24 1.85  37 1.85  40 1.85  34 1.90  22 1.91  10 2.80  10 2.81
                            14 2.83  13 2.84  15 2.85  16 2.87
   8  0.666  0.668  0.667-  27 1.85  25 1.85  41 1.85  38 1.85  23 1.89  35 1.92  11 2.79  11 2.81
                            16 2.84  12 2.84  17 2.85  14 2.85
   9  0.500  0.999  0.000-  26 1.84  28 1.85  39 1.85  36 1.85  30 1.90  18 1.91   6 2.80   6 2.81
                            17 2.83  15 2.84  13 2.85  12 2.87
  10  0.834  0.333  0.333-  29 1.84  24 1.85  37 1.85  40 1.85  31 1.90  19 1.91   7 2.80   7 2.81
                            14 2.83  13 2.84  15 2.85  16 2.87
  11  0.167  0.668  0.667-  27 1.85  25 1.85  41 1.85  38 1.85  20 1.89  32 1.92   8 2.79   8 2.81
                            16 2.84  12 2.84  17 2.85  14 2.85
  12  0.334  0.335  0.832-  20 1.86  23 1.86  33 1.89  30 1.89  39 2.01  27 2.01  16 2.73  15 2.77
                            11 2.84   8 2.84   6 2.87   9 2.87
  13  0.666  0.665  0.167-  31 1.86  34 1.86  21 1.87  18 1.87  40 2.00  28 2.00  17 2.76  16 2.77
                            10 2.84   7 2.84   6 2.85   9 2.85
  14  0.000  0.002  0.500-  22 1.87  19 1.87  32 1.87  35 1.87  29 1.96  41 1.99  17 2.76  15 2.76
                             7 2.83  10 2.83  11 2.85   8 2.85
  15  0.167  0.165  0.166-  30 1.86  33 1.86  22 1.87  19 1.87  36 2.00  24 2.00  14 2.76  12 2.77
                             9 2.84   6 2.84   7 2.85  10 2.85
  16  0.499  0.500  0.502-  23 1.86  20 1.86  31 1.89  34 1.89  37 2.01  25 2.01  12 2.73  13 2.77
                             8 2.84  11 2.84  10 2.87   7 2.87
  17  0.833  0.835  0.833-  18 1.87  21 1.87  35 1.87  32 1.87  26 1.96  38 1.99  14 2.76  13 2.76
                             9 2.83   6 2.83   8 2.85  11 2.85
  18  0.526  0.768  0.000-  17 1.87  13 1.87   9 1.91   4 1.91
  19  0.860  0.102  0.333-  14 1.87  15 1.87  10 1.91   5 1.91
  20  0.193  0.440  0.667-  12 1.86  16 1.86  11 1.89
  21  0.973  0.768  0.000-  17 1.87  13 1.87   6 1.91   4 1.91
  22  0.307  0.102  0.333-  14 1.87  15 1.87   7 1.91   5 1.91
  23  0.640  0.440  0.667-  16 1.86  12 1.86   8 1.89
  24  0.157  0.397  0.186-   7 1.85  10 1.85   4 1.93  15 2.00
  25  0.489  0.733  0.521-  11 1.85   8 1.85   5 1.94  16 2.01
  26  0.822  0.061  0.856-   9 1.84   6 1.84  17 1.96
  27  0.344  0.587  0.812-   8 1.85  11 1.85   4 1.94  12 2.01
  28  0.677  0.917  0.147-   6 1.85   9 1.85   5 1.93  13 2.00
  29  0.011  0.250  0.477-   7 1.84  10 1.84  14 1.96
  30  0.473  0.229  0.001-  15 1.86  12 1.89   1 1.90   9 1.90
  31  0.807  0.563  0.333-  13 1.86  16 1.89   2 1.90  10 1.90
  32  0.141  0.900  0.667-  17 1.87  14 1.87  11 1.92   3 1.93
  33  0.026  0.229  0.001-  15 1.86  12 1.89   1 1.90   6 1.90
  34  0.360  0.563  0.333-  13 1.86  16 1.89   2 1.90   7 1.90
  35  0.692  0.900  0.667-  17 1.87  14 1.87   8 1.92   3 1.93
  36  0.177  0.934  0.146-   6 1.85   9 1.85   2 1.97  15 2.00
  37  0.511  0.269  0.479-  10 1.85   7 1.85   3 1.91  16 2.01
  38  0.844  0.605  0.812-  11 1.85   8 1.85   1 1.95  17 1.99
  39  0.323  0.081  0.855-   6 1.85   9 1.85   3 1.91  12 2.01
  40  0.657  0.414  0.187-  10 1.85   7 1.85   1 1.97  13 2.00
  41  0.990  0.751  0.521-   8 1.85  11 1.85   2 1.95  14 1.99

  LATTYP: Found a body centered orthorhombic cell.
 ALAT       =     5.6042006976
 B/A-ratio  =     1.4707385708
 C/A-ratio  =     2.9548704102

  Lattice vectors:

 A1 = (  -4.1211570624,   7.8361175786,  -3.8733492622)
 A2 = (   4.1211570624,   3.8733492622,  -7.8361175786)
 A3 = (  -4.1211570624,  -7.8361175786,   3.8733492622)

Analysis of symmetry for initial positions (statically):
 Subroutine PRICEL returns:
 Original cell was already a primitive cell.

 Routine SETGRP: Setting up the symmetry group for a
 body centered orthorhombic supercell.

 Subroutine GETGRP returns: Found  4 space group operations
 (whereof  1 operations were pure point group operations)
 out of a pool of  8 trial point group operations.

The static configuration has the point symmetry C_1 .
 The point group associated with its full space group is C_2v.

Analysis of symmetry for dynamics (positions and initial velocities):
 Subroutine PRICEL returns:
 Original cell was already a primitive cell.

[...]

The dynamic configuration has the point symmetry C_1 .
 The point group associated with its full space group is C_2v.

Analysis of structural, dynamic, and magnetic symmetry:
 Subroutine PRICEL returns:
 Original cell was already a primitive cell.

 Routine SETGRP: Setting up the symmetry group for a
 body centered orthorhombic supercell.

 Subroutine GETGRP returns: Found  4 space group operations
 (whereof  1 operations were pure point group operations)
 out of a pool of  8 trial point group operations.

The magnetic configuration has the point symmetry C_1 .
 The point group associated with its full space group is C_2v.

 Subroutine INISYM returns: Found  4 space group operations
 (whereof  1 operations are pure point group operations),
 and found     1 'primitive' translations

 KPOINTS: Automatic mesh

Automatic generation of k-mesh.
Space group operators:
 irot       det(A)        alpha          n_x          n_y          n_z        tau_x        tau_y        tau_z
    1     1.000000     0.000000     1.000000     0.000000     0.000000     0.000000     0.000000     0.000000
    2    -1.000000   180.000000     0.000000    -0.707107     0.707107    -0.666667    -0.666667     1.333333
    3     1.000000   180.000000     1.000000     0.000000     0.000000    -0.166667    -0.666667     0.333333
    4    -1.000000   180.000000     0.000000     0.707107     0.707107    -0.500000    -0.000000     0.000000

 Subroutine IBZKPT returns following result:

 Found      1 irreducible k-points:

 Following reciprocal coordinates:
            Coordinates               Weight
  0.000000  0.000000  0.000000      1.000000

 Following cartesian coordinates:
            Coordinates               Weight
  0.000000  0.000000  0.000000      1.000000

 SYSTEM =  unknown system
 POSCAR =  ce24_1

 Startparameter for this run:
   NWRITE =      1    write-flag & timer
   PREC   = accura    normal or accurate (medium, high low for compatibility)
   ISTART =      0    job   : 0-new  1-cont  2-samecut
   ICHARG =      2    charge: 1-file 2-atom 10-const
   ISPIN  =      2    spin polarized calculation?
   LNONCOLLINEAR =      F non collinear calculations
   LSORBIT =      F    spin-orbit coupling
   INIWAV =      1    electr: 0-lowe 1-rand  2-diag
   LASPH  =      F    aspherical Exc in radial PAW
   METAGGA=      F    non-selfconsistent MetaGGA calc.

 Electronic Relaxation 1
   ENCUT  =  500.0 eV  36.75 Ry    6.06 a.u.  10.22 15.03 17.62*2*pi/ulx,y,z
   ENINI  =  500.0     initial cutoff
   ENAUG  =  628.9 eV  augmentation charge cutoff
   NELM   =     80;   NELMIN=  2; NELMDL= -5     # of ELM steps
   EDIFF  = 0.1E-04   stopping-criterion for ELM
   LREAL  =      T    real-space projection
   NLSPLINE    = F    spline interpolate recip. space projectors
   LCOMPAT=      F    compatible to vasp.4.4
   GGA_COMPAT  = T    GGA compatible to vasp.4.4-vasp.4.6
   LMAXPAW     = -100 max onsite density
   LMAXMIX     =    2 max onsite mixed and CHGCAR
   VOSKOWN=      1    Vosko Wilk Nusair interpolation
   ROPT   =   -0.00025  -0.00025  -0.00025
 Ionic relaxation
   EDIFFG = -.2E-01   stopping-criterion for IOM
   NSW    =     20    number of steps for IOM
   NBLOCK =      1;   KBLOCK =     20    inner block; outer block
   IBRION =      1    ionic relax: 0-MD 1-quasi-New 2-CG
   NFREE  =      0    steps in history (QN), initial steepest desc. (CG)
   ISIF   =      3    stress and relaxation
   IWAVPR =     11    prediction:  0-non 1-charg 2-wave 3-comb
   ISYM   =      2    0-nonsym 1-usesym 2-fastsym
   LCORR  =      T    Harris-Foulkes like correction to forces

   POTIM  = 0.5000    time-step for ionic-motion
   TEIN   =    0.0    initial temperature
   TEBEG  =    0.0;   TEEND  =   0.0 temperature during run
   SMASS  =  -3.00    Nose mass-parameter (am)
   estimated Nose-frequenzy (Omega)   =  0.10E-29 period in steps =****** mass=  -0.718E-27a.u.
   SCALEE = 1.0000    scale energy and forces
[...]
     41      -1.8309      1.00000
     42      -1.7745      1.00000
     43      -1.6914      1.00000
     44      -1.6630      1.00000
     45      -1.6611      1.00000
     46      -1.6378      1.00000
     47      -1.6147      1.00000
     48      -1.5995      1.00000
     49      -1.5484      1.00000
     50      -1.5278      1.00000
     51      -1.4950      1.00000
     52      -1.4578      1.00000
     53      -1.3645      1.00000
     54      -1.2786      1.00000
     55      -1.1911      1.00000
     56      -1.0964      1.00000
     57      -1.0796      1.00000
     58      -1.0569      1.00000
     59      -1.0544      1.00000
     60      -1.0524      1.00000
[...]
    178      15.5146      0.00000
    179      15.7215      0.00000
    180      16.0009      0.00000
    181      16.7148      0.00000
    182      16.8706      0.00000
    183      16.9574      0.00000
    184      17.1786      0.00000
    185      17.2133      0.00000
    186      17.3292      0.00000
    187      17.3670      0.00000
    188      17.4762      0.00000
    189      17.5036      0.00000
    190      17.5432      0.00000
    191      17.5664      0.00000
    192      17.6653      0.00000

[...]

 soft charge-density along one line, spin component           2
         0         1         2         3         4         5         6         7         8         9
 total charge-density along one line

------------------------ aborting loop because EDIFF is reached ----------------------------------------

  FORCE on cell =-STRESS in cart. coord.  units (eV):
  Direction    XX          YY          ZZ          XY          YZ          ZX
  Alpha Z   878.81310   878.81310   878.81310
  Ewald   -5967.24685 -5419.70996 -5419.70996     0.00002   379.62196    -0.00003
  Hartree  2540.29951  2673.85297  2673.85305     0.00002   264.28970    -0.00001
  E(xc)   -1419.99348 -1420.35168 -1420.35173     0.00002     0.13784    -0.00002
  Local   -2024.48575 -2594.75510 -2594.75634     0.00056  -632.34172    -0.00023
  n-local  -705.19991  -683.74178  -683.76108    -0.00304     1.35937    -0.00050
  augment  2379.94742  2324.30676  2324.31281     0.00024    -6.39405    -0.00142
  Kinetic  4317.70856  4241.40706  4241.40696     0.00022    -6.61601     0.00006
  Fock        0.00000     0.00000     0.00000     0.00000     0.00000     0.00000
  Total       -0.1573926     -0.1859148     -0.1859148      0.0000000      0.0571125      0.0000000
  in kB       -0.6585309     -0.7778677     -0.7778677      0.0000000      0.2389589      0.0000000

 VOLUME and BASIS-vectors are now :
  energy-cutoff  :      500.00
  volume of cell :      382.93
      direct lattice vectors                 reciprocal lattice vectors
    -0.000000000  3.964231274  3.964231274    -0.000000000  0.083423710  0.168832006
     8.250111759  0.000000000  0.000000000     0.121210479 -0.042704148  0.042704148
     4.125055880  7.836347865 -3.872116591     0.000000000  0.085408296 -0.085408296

  length of vectors
     5.606269632  8.250111759  9.665284309     0.188318246  0.135422556  0.120785571

 FORCES acting on ions
    electron-ion (+dipol)            ewald-force                    non-local-force                 convergence-correction
   -.481E+01 0.497E+01 -.497E+01   0.448E+01 -.497E+01 0.497E+01   0.332E+00 -.111E-01 0.111E-01   -.212E-02 0.834E-02 -.834E-02
   -.481E+01 -.497E+01 0.497E+01   0.448E+01 0.497E+01 -.497E+01   0.332E+00 0.111E-01 -.111E-01   -.212E-02 -.834E-02 0.834E-02
   -.132E+02 -.219E-04 -.557E-06   0.133E+02 -.675E-05 0.484E-05   -.112E+00 0.000E+00 0.000E+00   0.128E-02 0.141E-05 -.699E-07
   0.825E+01 0.861E+00 -.861E+00   -.810E+01 -.841E+00 0.841E+00   -.153E+00 -.303E-01 0.303E-01   0.898E-03 0.961E-02 -.961E-02
   0.825E+01 -.861E+00 0.861E+00   -.810E+01 0.841E+00 -.841E+00   -.153E+00 0.303E-01 -.303E-01   0.899E-03 -.961E-02 0.961E-02
   -.164E+02 0.217E+02 -.185E+02   0.167E+02 -.219E+02 0.189E+02   -.317E+00 0.107E+00 -.342E+00   0.986E-03 0.361E-01 -.374E-01
   -.164E+02 -.185E+02 0.217E+02   0.167E+02 0.189E+02 -.219E+02   -.317E+00 -.342E+00 0.107E+00   0.988E-03 -.374E-01 0.361E-01
   0.221E+02 -.966E+01 -.966E+01   -.223E+02 0.985E+01 0.985E+01   0.219E+00 -.196E+00 -.196E+00   -.113E-01 -.327E-03 -.328E-03
   -.164E+02 0.185E+02 -.217E+02   0.167E+02 -.189E+02 0.219E+02   -.317E+00 0.342E+00 -.107E+00   0.986E-03 0.374E-01 -.361E-01
   -.164E+02 -.217E+02 0.185E+02   0.167E+02 0.219E+02 -.189E+02   -.317E+00 -.107E+00 0.342E+00   0.989E-03 -.361E-01 0.374E-01
   0.221E+02 0.966E+01 0.966E+01   -.223E+02 -.985E+01 -.985E+01   0.219E+00 0.196E+00 0.196E+00   -.113E-01 0.326E-03 0.330E-03
   0.268E+02 0.118E+02 -.118E+02   -.274E+02 -.119E+02 0.119E+02   0.653E+00 -.414E-02 0.414E-02   -.465E-02 0.274E-01 -.274E-01
   -.103E+01 -.360E+01 0.360E+01   0.101E+01 0.373E+01 -.373E+01   0.157E-01 -.124E+00 0.124E+00   0.185E-02 0.299E-02 -.299E-02
   -.151E+02 -.130E+02 0.130E+02   0.155E+02 0.132E+02 -.132E+02   -.375E+00 -.143E+00 0.143E+00   0.890E-02 -.415E-01 0.415E-01
   -.103E+01 0.360E+01 -.360E+01   0.101E+01 -.373E+01 0.373E+01   0.157E-01 0.124E+00 -.124E+00   0.185E-02 -.299E-02 0.299E-02
   0.268E+02 -.118E+02 0.118E+02   -.274E+02 0.119E+02 -.119E+02   0.653E+00 0.414E-02 -.414E-02   -.464E-02 -.274E-01 0.274E-01
   -.151E+02 0.130E+02 -.130E+02   0.155E+02 -.132E+02 0.132E+02   -.375E+00 0.143E+00 -.143E+00   0.890E-02 0.415E-01 -.415E-01
   0.164E+03 0.177E+03 0.172E+03   -.173E+03 -.188E+03 -.183E+03   0.834E+01 0.108E+02 0.109E+02   0.733E-02 0.366E-01 -.368E-01
   0.164E+03 0.172E+03 0.177E+03   -.173E+03 -.183E+03 -.188E+03   0.834E+01 0.109E+02 0.108E+02   0.733E-02 -.368E-01 0.366E-01
   0.210E+03 0.206E+03 0.206E+03   -.223E+03 -.222E+03 -.222E+03   0.137E+02 0.159E+02 0.159E+02   -.203E-02 -.140E-01 -.140E-01
   0.164E+03 -.172E+03 -.177E+03   -.173E+03 0.183E+03 0.188E+03   0.834E+01 -.109E+02 -.108E+02   0.733E-02 0.368E-01 -.366E-01
   0.164E+03 -.177E+03 -.172E+03   -.173E+03 0.188E+03 0.183E+03   0.834E+01 -.108E+02 -.109E+02   0.733E-02 -.366E-01 0.368E-01
   0.210E+03 -.206E+03 -.206E+03   -.223E+03 0.222E+03 0.222E+03   0.137E+02 -.159E+02 -.159E+02   -.203E-02 0.140E-01 0.140E-01
   -.150E+03 0.190E+03 -.190E+03   0.156E+03 -.200E+03 0.200E+03   -.585E+01 0.108E+02 -.108E+02   -.190E-01 0.384E-02 -.384E-02
   -.138E+03 0.192E+03 -.192E+03   0.144E+03 -.203E+03 0.203E+03   -.612E+01 0.111E+02 -.111E+02   0.617E-02 -.109E-01 0.109E-01
   -.195E+03 0.228E+03 -.228E+03   0.207E+03 -.244E+03 0.244E+03   -.121E+02 0.152E+02 -.152E+02   0.227E-01 0.242E-01 -.242E-01
   -.138E+03 -.192E+03 0.192E+03   0.144E+03 0.203E+03 -.203E+03   -.612E+01 -.111E+02 0.111E+02   0.617E-02 0.109E-01 -.109E-01
   -.150E+03 -.190E+03 0.190E+03   0.156E+03 0.200E+03 -.200E+03   -.585E+01 -.108E+02 0.108E+02   -.190E-01 -.384E-02 0.384E-02
   -.195E+03 -.228E+03 0.228E+03   0.207E+03 0.244E+03 -.244E+03   -.121E+02 -.152E+02 0.152E+02   0.227E-01 -.242E-01 0.242E-01
   -.163E+03 -.160E+03 -.194E+03   0.171E+03 0.171E+03 0.205E+03   -.826E+01 -.101E+02 -.114E+02   -.521E-02 0.294E-01 -.356E-01
   -.163E+03 -.194E+03 -.160E+03   0.171E+03 0.205E+03 0.171E+03   -.826E+01 -.114E+02 -.101E+02   -.521E-02 -.356E-01 0.294E-01
   -.177E+03 -.174E+03 -.174E+03   0.186E+03 0.185E+03 0.185E+03   -.835E+01 -.112E+02 -.112E+02   0.545E-03 0.230E-01 0.230E-01
   -.163E+03 0.194E+03 0.160E+03   0.171E+03 -.205E+03 -.171E+03   -.826E+01 0.114E+02 0.101E+02   -.521E-02 0.356E-01 -.294E-01
   -.163E+03 0.160E+03 0.194E+03   0.171E+03 -.171E+03 -.205E+03   -.826E+01 0.101E+02 0.114E+02   -.521E-02 -.294E-01 0.356E-01
   -.177E+03 0.174E+03 0.174E+03   0.186E+03 -.185E+03 -.185E+03   -.835E+01 0.112E+02 0.112E+02   0.545E-03 -.230E-01 -.230E-01
   0.151E+03 -.191E+03 0.191E+03   -.158E+03 0.202E+03 -.202E+03   0.664E+01 -.107E+02 0.107E+02   0.184E-01 -.384E-02 0.384E-02
   0.133E+03 -.204E+03 0.204E+03   -.138E+03 0.215E+03 -.215E+03   0.556E+01 -.108E+02 0.108E+02   -.633E-02 -.209E-01 0.209E-01
   0.167E+03 -.187E+03 0.187E+03   -.173E+03 0.198E+03 -.198E+03   0.652E+01 -.109E+02 0.109E+02   -.253E-01 0.126E-01 -.126E-01
   0.133E+03 0.204E+03 -.204E+03   -.138E+03 -.215E+03 0.215E+03   0.556E+01 0.108E+02 -.108E+02   -.633E-02 0.209E-01 -.209E-01
   0.151E+03 0.191E+03 -.191E+03   -.158E+03 -.202E+03 0.202E+03   0.664E+01 0.107E+02 -.107E+02   0.184E-01 0.384E-02 -.384E-02
   0.167E+03 0.187E+03 -.187E+03   -.173E+03 -.198E+03 0.198E+03   0.652E+01 0.109E+02 -.109E+02   -.253E-01 -.126E-01 0.126E-01
   -.317E+00 -.117E-02 0.238E-04   -.455E-12 -.256E-12 0.114E-12   0.324E+00 0.000E+00 -.533E-14   -.871E-02 -.629E-06 0.122E-05

 POSITION                                       TOTAL-FORCE (eV/Angst)
      7.12944     10.78592     -0.87534         0.000965     -0.008108      0.008108
      7.12944      2.96607     -0.98396         0.000965      0.008108     -0.008108
      3.08212      6.87599     -0.92965        -0.007257      0.000000      0.000000
      5.22164      0.99533      0.98678         0.000849     -0.000774      0.000774
      9.34669      4.92031      1.02604         0.000849      0.000774     -0.000774
      8.24331      3.96470      3.95913        -0.001369     -0.002605     -0.002559
      4.11826      3.92842      0.03117        -0.001369     -0.002559     -0.002605
      8.26032      7.86495      0.05931        -0.000339     -0.004231     -0.004231
      8.24331      1.98722      1.98165        -0.001369      0.002559      0.002605
      4.11826      5.91517      2.01792        -0.001369      0.002605      0.002559
      8.26032      5.88704     -1.91861        -0.000339      0.004231      0.004231
      6.19537      7.84185     -1.89550         0.002969     -0.006256      0.006256
      6.17511      3.95275      1.99360        -0.001027      0.004562     -0.004562
      2.07776      3.91773     -1.93561         0.002110     -0.002150      0.002150
      2.05005      1.96290      0.01922        -0.001027     -0.004562      0.004562
      6.19537      5.91014      0.03620         0.002969      0.006256     -0.006256
     10.32787      9.83426      0.07632         0.002110      0.002150     -0.002150
      6.34023      2.08953      2.08372         0.004180      0.003689     -0.001674
      2.21518      6.01725      2.12023         0.004180     -0.001674      0.003689
      6.37821      5.98977     -1.81587         0.005572      0.001716      0.001716
      6.34023      3.86262      3.85682         0.004180      0.001674     -0.003689
      2.21518      3.82612     -0.07090         0.004180     -0.003689      0.001674
      6.37821      7.76222     -0.04343         0.005572     -0.001716     -0.001716
      4.04935      2.08253     -0.10041         0.003454     -0.000616      0.000616
      8.19776      6.02367     -0.07732         0.006279      0.000405     -0.000405
      4.03245      9.96554     -0.05496        -0.004852      0.000653     -0.000653
      8.19776      7.72832     -1.78198         0.006279     -0.000405      0.000405
      8.17440      3.83311      2.11324         0.003454      0.000616     -0.000616
      4.03245      3.78645     -1.80434        -0.004852     -0.000653      0.000653
      1.89369      1.88047      1.87503        -0.005908     -0.001347      0.002534
      6.01874      5.80855      1.91117        -0.005908      0.002534     -0.001347
     10.17425      5.78226     -2.02338         0.001613     -0.001371     -0.001371
      1.89369      0.10709      0.10165        -0.005908     -0.002534      0.001347
      6.01874      4.03518      0.13779        -0.005908      0.001347     -0.002534
     10.17425      7.96973      0.16409         0.001613      0.001371      0.001371
      8.30780      1.84903      0.13308        -0.004535      0.004363     -0.004363
      4.19578      5.77442      0.17192        -0.005837     -0.000777      0.000777
      8.34529      9.71125      0.19933         0.002601      0.002153     -0.002153
      4.19578      7.97757     -2.03122        -0.005837      0.000777     -0.000777
      4.18274      4.06661      1.87974        -0.004535     -0.004363      0.004363
      8.34529      8.00497      1.90560         0.002601     -0.002153      0.002153
    total drift:                               -0.001207     -0.001175      0.000025

  FREE ENERGIE OF THE ION-ELECTRON SYSTEM (eV)
  free  energy   TOTEN  =      -253.5975934190 eV

  energy  without entropy=     -253.5556737974  energy(sigma->0) =     -253.57663361

 d Force = 0.6921852E-04[ 0.379E-04, 0.101E-03]  d Energy = 0.6952584E-04-0.307E-06
 d Force =-0.4797119E+00[-0.480E+00,-0.479E+00]  d Ewald  =-0.2629361E+01 0.215E+01

 Quasi-Newton relaxation of ions (Broydens 2nd method)
  g(Force)  = 0.728E-04   g(Stress)= 0.118E-03

 retain information from N=  1 steps
 eigenvalues of (default step * inverse Hessian matrix)
  average eigenvalue of G=   0.2594
 eigenvalue spectrum of G is  0.2594

 reached required accuracy - stopping structural energy minimisation

volume of typ            1:    10.2 %

[...]

volume of typ            3:    10.2 %

total charge

# of ion       s       p       d       tot
    1        2.107   0.322   0.120   2.549
    2        2.107   0.322   0.120   2.549
    3        2.110   0.329   0.124   2.563
    4        2.111   0.333   0.124   2.568
    5        2.111   0.333   0.124   2.568
    6        0.293   0.413   7.824   8.531
    7        0.293   0.413   7.824   8.531
    8        0.295   0.415   7.823   8.533
    9        0.293   0.413   7.824   8.531
   10        0.293   0.413   7.824   8.531
   11        0.295   0.415   7.823   8.533
   12        0.273   0.358   7.847   8.478
   13        0.275   0.366   7.846   8.487
   14        0.277   0.370   7.844   8.491
   15        0.275   0.366   7.846   8.487
   16        0.273   0.358   7.847   8.478
   17        0.277   0.370   7.844   8.491
   18        1.262   2.786   0.007   4.054
   19        1.262   2.786   0.007   4.054
   20        1.279   2.731   0.008   4.019
   21        1.262   2.786   0.007   4.054
   22        1.262   2.786   0.007   4.054
   23        1.279   2.731   0.008   4.019
   24        1.266   2.774   0.007   4.047
   25        1.266   2.774   0.007   4.047
   26        1.283   2.723   0.008   4.014
   27        1.266   2.774   0.007   4.047
   28        1.266   2.774   0.007   4.047
   29        1.283   2.723   0.008   4.014
   30        1.262   2.786   0.007   4.054
   31        1.262   2.786   0.007   4.054
   32        1.262   2.782   0.007   4.051
   33        1.262   2.786   0.007   4.054
   34        1.262   2.786   0.007   4.054
   35        1.262   2.782   0.007   4.051
   36        1.266   2.772   0.007   4.045
   37        1.267   2.772   0.007   4.045
   38        1.267   2.772   0.007   4.045
   39        1.267   2.772   0.007   4.045
   40        1.266   2.772   0.007   4.045
   41        1.267   2.772   0.007   4.045
tot          44.37   72.80   94.80  211.96

magnetization (x)

# of ion       s       p       d       tot
    1       -0.003  -0.004  -0.001  -0.008
    2       -0.003  -0.004  -0.001  -0.008
    3       -0.003  -0.005  -0.001  -0.009
    4       -0.003  -0.006  -0.001  -0.010
    5       -0.003  -0.006  -0.001  -0.010
    6        0.001   0.000  -0.132  -0.131
    7        0.001   0.000  -0.132  -0.131
    8        0.001  -0.000  -0.084  -0.083
    9        0.001   0.000  -0.132  -0.131
   10        0.001   0.000  -0.132  -0.131
   11        0.001  -0.000  -0.084  -0.083
   12       -0.001  -0.000  -0.506  -0.508
   13       -0.001  -0.000  -0.487  -0.488
   14       -0.000  -0.000  -0.389  -0.390
   15       -0.001  -0.000  -0.487  -0.488
   16       -0.001  -0.000  -0.506  -0.508
   17       -0.000  -0.000  -0.389  -0.390
   18       -0.004  -0.024  -0.000  -0.029
   19       -0.004  -0.024  -0.000  -0.029
   20       -0.003  -0.022  -0.000  -0.025
   21       -0.004  -0.024  -0.000  -0.029
   22       -0.004  -0.024  -0.000  -0.029
   23       -0.003  -0.022  -0.000  -0.025
   24       -0.007  -0.061  -0.000  -0.068
   25       -0.006  -0.059  -0.000  -0.066
   26       -0.004  -0.060  -0.000  -0.065
   27       -0.006  -0.059  -0.000  -0.066
   28       -0.007  -0.061  -0.000  -0.068
   29       -0.004  -0.060  -0.000  -0.065
   30       -0.004  -0.026  -0.000  -0.030
   31       -0.004  -0.026  -0.000  -0.030
   32       -0.003  -0.016  -0.000  -0.019
   33       -0.004  -0.026  -0.000  -0.030
   34       -0.004  -0.026  -0.000  -0.030
   35       -0.003  -0.016  -0.000  -0.019
   36       -0.006  -0.055  -0.000  -0.061
   37       -0.007  -0.068  -0.000  -0.075
   38       -0.005  -0.040  -0.000  -0.045
   39       -0.007  -0.068  -0.000  -0.075
   40       -0.006  -0.055  -0.000  -0.061
   41       -0.005  -0.040  -0.000  -0.045
tot          -0.13   -0.99   -3.47   -4.59