 vasp.5.4.4.18Apr17-6-g9f103f2a35 (build May 12 2020 05:39:39) gamma-only

 MD_VERSION_INFO: Compiled 2020-05-12T12:39:39-UTC in devlin.sd.materialsdesign.
 com:/home/medea2/data/build/wwolf/vasp-gpu5.4.4/13047/x86_64/src/src/build/gam
 from svn 13047

 executed on                        Lin64 date 2023.02.09  12:50:07

 INCAR:
 POTCAR:    PAW_PBE Li_sv 10Sep2004
 POTCAR:    PAW_PBE Ni 02Aug2007
 POTCAR:    PAW_PBE O 08Apr2002

 POTCAR:    PAW_PBE Li_sv 10Sep2004

 POTCAR:    PAW_PBE Ni 02Aug2007

 POTCAR:    PAW_PBE O 08Apr2002

 Optimization of the real space projectors (new method)

 maximal supplied QI-value         = 22.11
 optimisation between [QCUT,QGAM] = [ 11.28, 22.77] = [ 35.61,145.23] Ry
 Optimized for a Real-space Cutoff    1.10 Angstroem

   l    n(q)    QCUT    max X(q) W(low)/X(q) W(high)/X(q)  e(spline)
   0      7    11.276    10.506    0.54E-04    0.58E-04    0.16E-07
   0      7    11.276     8.367    0.11E-03    0.14E-03    0.35E-07
   1      7    11.276     8.983    0.23E-03    0.43E-03    0.86E-07
 Optimization of the real space projectors (new method)

[...]

   l    n(q)    QCUT    max X(q) W(low)/X(q) W(high)/X(q)  e(spline)
   2      9    11.376    60.317    0.17E-03    0.16E-04    0.16E-06
   2      9    11.376    55.921    0.17E-03    0.16E-04    0.17E-06
   0     10    11.376    51.690    0.45E-04    0.60E-04    0.21E-06
   0     10    11.376    30.015    0.37E-04    0.55E-04    0.19E-06
   1     10    11.376    18.849    0.83E-04    0.11E-03    0.92E-07
   1     10    11.376    14.624    0.69E-04    0.92E-04    0.82E-07
 Optimization of the real space projectors (new method)

 maximal supplied QI-value         = 24.76
 optimisation between [QCUT,QGAM] = [ 11.39, 22.77] = [ 36.31,145.25] Ry
 Optimized for a Real-space Cutoff    1.10 Angstroem

   l    n(q)    QCUT    max X(q) W(low)/X(q) W(high)/X(q)  e(spline)
   0      7    11.387    20.381    0.22E-03    0.48E-03    0.18E-06
   0      7    11.387    15.268    0.22E-03    0.52E-03    0.19E-06
   1      7    11.387     5.964    0.22E-03    0.73E-03    0.24E-06
   1      7    11.387     5.382    0.19E-03    0.60E-03    0.21E-06

  PAW_PBE Li_sv 10Sep2004               :
  PAW_PBE Ni 02Aug2007                  :
  PAW_PBE O 08Apr2002                   :

 POSCAR: ce155_1
  positions in direct lattice
 exchange correlation table for  LEXCH =       14
   RHO(1)=    0.500       N(1)  =     2000
   RHO(2)=  100.500       N(2)  =     4000

 ion  position               nearest neighbor table
   1  0.750  0.181  0.000-  37 1.90  41 1.90  46 1.95  50 1.95
   2  0.250  0.439  0.500-  47 1.93  51 1.93  38 1.93  42 1.93
   3  0.250  0.311  0.000-  29 1.93  33 1.93  21 1.93  25 1.93
   4  0.750  0.569  0.500-  22 1.90  26 1.90  30 1.95  34 1.95
   5  0.000  0.997  0.000-  32 1.85  36 1.85  49 1.85  45 1.85  27 1.88  41 1.91  16 2.78  20 2.78
                            17 2.80  13 2.80   9 2.81   9 2.81
   6  0.500  0.247  0.500-  46 1.85  50 1.85  29 1.86  33 1.86  28 1.93  42 1.96  10 2.81  13 2.81
                            17 2.81  10 2.81  18 2.84  14 2.84
   7  1.000  0.503  0.000-  30 1.85  34 1.85  47 1.86  51 1.86  43 1.93  25 1.96  11 2.81  15 2.81
                            19 2.81  11 2.81  18 2.84  14 2.84
   8  0.500  0.753  0.500-  52 1.85  48 1.85  35 1.85  31 1.85  44 1.88  26 1.91  16 2.78  20 2.78
                            19 2.80  15 2.80  12 2.81  12 2.81
   9  0.500  0.997  0.000-  32 1.85  36 1.85  45 1.85  49 1.85  23 1.88  37 1.91  16 2.78  20 2.78
                            17 2.80  13 2.80   5 2.81   5 2.81
  10  1.000  0.247  0.500-  46 1.85  50 1.85  29 1.86  33 1.86  24 1.93  38 1.96   6 2.81  13 2.81
                            17 2.81   6 2.81  14 2.84  18 2.84
  11  0.500  0.503  0.000-  30 1.85  34 1.85  47 1.86  51 1.86  39 1.93  21 1.96   7 2.81  15 2.81
                            19 2.81   7 2.81  14 2.84  18 2.84
  12  0.000  0.753  0.500-  52 1.85  48 1.85  31 1.85  35 1.85  40 1.88  22 1.91  16 2.78  20 2.78
                            19 2.80  15 2.80   8 2.81   8 2.81
  13  0.250  0.121  0.748-  24 1.84  28 1.84  41 1.86  37 1.86  49 1.90  33 1.94  17 2.78   9 2.80
                             5 2.80  10 2.81   6 2.81  17 2.83
  14  0.750  0.375  0.250-  21 1.85  25 1.85  38 1.85  42 1.85  34 1.96  50 1.96  18 2.80  18 2.80
                             6 2.84   7 2.84  10 2.84  11 2.84
  15  0.250  0.629  0.752-  39 1.84  43 1.84  26 1.86  22 1.86  35 1.90  51 1.94  19 2.78  12 2.80
                             8 2.80   7 2.81  11 2.81  19 2.83
  16  0.750  0.875  0.250-  27 1.85  44 1.85  40 1.85  23 1.85  36 1.89  52 1.89   9 2.78  12 2.78
                             5 2.78   8 2.78  20 2.80  20 2.80
  17  0.250  0.121  0.252-  28 1.84  24 1.84  37 1.86  41 1.86  45 1.90  29 1.94  13 2.78   9 2.80
                             5 2.80  10 2.81   6 2.81  13 2.83
  18  0.750  0.375  0.750-  21 1.85  25 1.85  38 1.85  42 1.85  30 1.96  46 1.96  14 2.80  14 2.80
                             6 2.84   7 2.84  10 2.84  11 2.84
  19  0.250  0.629  0.248-  43 1.84  39 1.84  22 1.86  26 1.86  31 1.90  47 1.94  15 2.78  12 2.80
                             8 2.80   7 2.81  11 2.81  15 2.83
  20  0.750  0.875  0.750-  23 1.85  40 1.85  27 1.85  44 1.85  32 1.89  48 1.89   9 2.78  12 2.78
                             5 2.78   8 2.78  16 2.80  16 2.80
  21  0.535  0.380  0.000-  14 1.85  18 1.85   3 1.93  11 1.96
  22  0.036  0.633  0.500-  19 1.86  15 1.86   4 1.90  12 1.91
  23  0.536  0.880  0.000-  20 1.85  16 1.85   9 1.88
  24  0.036  0.126  0.500-  13 1.84  17 1.84  10 1.93
  25  0.965  0.380  0.000-  14 1.85  18 1.85   3 1.93   7 1.96
  26  0.464  0.633  0.500-  15 1.86  19 1.86   4 1.90   8 1.91
  27  0.964  0.880  0.000-  16 1.85  20 1.85   5 1.88
  28  0.464  0.126  0.500-  17 1.84  13 1.84   6 1.93
  29  0.250  0.243  0.285-   6 1.86  10 1.86   3 1.93  17 1.94
  30  0.750  0.498  0.785-   7 1.85  11 1.85   4 1.95  18 1.96
  31  0.250  0.748  0.286-  12 1.85   8 1.85  19 1.90
  32  0.750  0.994  0.787-   5 1.85   9 1.85  20 1.89
  33  0.250  0.243  0.715-   6 1.86  10 1.86   3 1.93  13 1.94
  34  0.750  0.498  0.215-   7 1.85  11 1.85   4 1.95  14 1.96
  35  0.250  0.748  0.714-   8 1.85  12 1.85  15 1.90
  36  0.750  0.994  0.213-   5 1.85   9 1.85  16 1.89
  37  0.464  0.117  0.000-  17 1.86  13 1.86   1 1.90   9 1.91
  38  0.965  0.370  0.500-  14 1.85  18 1.85   2 1.93  10 1.96
  39  0.464  0.624  0.000-  15 1.84  19 1.84  11 1.93
  40  0.964  0.870  0.500-  20 1.85  16 1.85  12 1.88
  41  0.036  0.117  0.000-  13 1.86  17 1.86   1 1.90   5 1.91
  42  0.535  0.370  0.500-  14 1.85  18 1.85   2 1.93   6 1.96
  43  0.036  0.624  0.000-  19 1.84  15 1.84   7 1.93
  44  0.536  0.870  0.500-  16 1.85  20 1.85   8 1.88
  45  0.250  0.002  0.214-   9 1.85   5 1.85  17 1.90
  46  0.750  0.252  0.715-   6 1.85  10 1.85   1 1.95  18 1.96
  47  0.250  0.507  0.215-   7 1.86  11 1.86   2 1.93  19 1.94
  48  0.750  0.756  0.713-   8 1.85  12 1.85  20 1.89
  49  0.250  0.002  0.786-   5 1.85   9 1.85  13 1.90
  50  0.750  0.252  0.285-   6 1.85  10 1.85   1 1.95  14 1.96
  51  0.250  0.507  0.785-   7 1.86  11 1.86   2 1.93  15 1.94
  52  0.750  0.756  0.287-   8 1.85  12 1.85  16 1.89

  LATTYP: Found a simple orthorhombic cell.
 ALAT       =     5.6093105462
 B/A-ratio  =     1.0019244171
 C/A-ratio  =     2.8298518824

  Lattice vectors:

 A1 = (   0.0000000000,   3.9663815250,  -3.9663815250)
 A2 = (   0.0000000000,  -3.9740144973,  -3.9740144973)
 A3 = ( -15.8735180080,   0.0000000000,   0.0000000000)

Analysis of symmetry for initial positions (statically):
 Subroutine PRICEL returns:
 Original cell was already a primitive cell.

 Routine SETGRP: Setting up the symmetry group for a
 simple orthorhombic supercell.

 Subroutine GETGRP returns: Found  8 space group operations
 (whereof  2 operations were pure point group operations)
 out of a pool of  8 trial point group operations.

The static configuration has the point symmetry C_1h.
 The point group associated with its full space group is D_2h.

Analysis of symmetry for dynamics (positions and initial velocities):
 Subroutine PRICEL returns:
 Original cell was already a primitive cell.

[...]

The dynamic configuration has the point symmetry C_1h.
 The point group associated with its full space group is D_2h.

Analysis of structural, dynamic, and magnetic symmetry:
 Subroutine PRICEL returns:
 Original cell was already a primitive cell.

 Routine SETGRP: Setting up the symmetry group for a
 simple orthorhombic supercell.

 Subroutine GETGRP returns: Found  8 space group operations
 (whereof  2 operations were pure point group operations)
 out of a pool of  8 trial point group operations.

The magnetic configuration has the point symmetry C_1h.
 The point group associated with its full space group is D_2h.

 Subroutine INISYM returns: Found  8 space group operations
 (whereof  2 operations are pure point group operations),
 and found     1 'primitive' translations

 KPOINTS: Automatic mesh

Automatic generation of k-mesh.
Space group operators:
 irot       det(A)        alpha          n_x          n_y          n_z        tau_x        tau_y        tau_z
    1     1.000000     0.000000     1.000000     0.000000     0.000000     0.000000     0.000000     0.000000
    2    -1.000000   180.000000     0.000000    -0.707107     0.707107     0.000000     0.000000     0.000000
    3    -1.000000     0.000000     1.000000     0.000000     0.000000    -0.500000    -0.250000     0.500000
    4     1.000000   179.999999     1.000000     0.000000     0.000000    -0.500000     0.000000     0.000000
    5    -1.000000   179.999999     1.000000     0.000000     0.000000     0.000000    -0.250000     0.500000
    6     1.000000   180.000000     0.000000     0.707107     0.707107     0.000000    -0.250000     0.500000
    7    -1.000000   180.000000     0.000000     0.707107     0.707107    -0.500000     0.000000     0.000000
    8     1.000000   180.000000     0.000000    -0.707107     0.707107    -0.500000    -0.250000     0.500000

 Subroutine IBZKPT returns following result:

 Found      1 irreducible k-points:

 Following reciprocal coordinates:
            Coordinates               Weight
  0.000000  0.000000  0.000000      1.000000

 Following cartesian coordinates:
            Coordinates               Weight
  0.000000  0.000000  0.000000      1.000000

 SYSTEM =  unknown system
 POSCAR =  ce155_1

 Startparameter for this run:
   NWRITE =      1    write-flag & timer
   PREC   = accura    normal or accurate (medium, high low for compatibility)
   ISTART =      0    job   : 0-new  1-cont  2-samecut
   ICHARG =      2    charge: 1-file 2-atom 10-const
   ISPIN  =      2    spin polarized calculation?
   LNONCOLLINEAR =      F non collinear calculations
   LSORBIT =      F    spin-orbit coupling
   INIWAV =      1    electr: 0-lowe 1-rand  2-diag
   LASPH  =      F    aspherical Exc in radial PAW
   METAGGA=      F    non-selfconsistent MetaGGA calc.

 Electronic Relaxation 1
   ENCUT  =  500.0 eV  36.75 Ry    6.06 a.u.  10.25 28.94 10.23*2*pi/ulx,y,z
   ENINI  =  500.0     initial cutoff
   ENAUG  =  628.9 eV  augmentation charge cutoff
[...]

 FORCES acting on ions
    electron-ion (+dipol)            ewald-force                    non-local-force                 convergence-correction
   0.922E+01 0.205E-06 -.205E-06   -.949E+01 0.673E-08 -.673E-08   0.239E+00 -.662E-23 0.662E-23   0.215E-01 0.991E-11 -.983E-11
   -.343E+01 -.875E-06 0.875E-06   0.344E+01 0.359E-07 -.359E-07   -.629E-03 0.306E-22 0.223E-22   -.413E-02 0.364E-10 -.364E-10
   0.343E+01 0.872E-06 -.872E-06   -.344E+01 -.366E-08 0.366E-08   0.629E-03 -.662E-23 0.199E-22   0.413E-02 -.631E-11 0.624E-11
   -.922E+01 -.277E-06 0.277E-06   0.949E+01 0.719E-06 -.719E-06   -.239E+00 -.331E-23 0.662E-23   -.215E-01 0.574E-10 -.574E-10
   0.426E+02 -.105E+02 -.105E+02   -.433E+02 0.107E+02 0.107E+02   0.620E+00 -.217E+00 -.217E+00   0.897E-01 0.172E-01 0.172E-01
   0.373E+02 -.897E+01 -.897E+01   -.378E+02 0.920E+01 0.920E+01   0.517E+00 -.213E+00 -.213E+00   0.146E-01 -.147E-01 -.147E-01
   -.373E+02 0.897E+01 0.897E+01   0.378E+02 -.920E+01 -.920E+01   -.517E+00 0.213E+00 0.213E+00   -.146E-01 0.147E-01 0.147E-01
   -.426E+02 0.105E+02 0.105E+02   0.433E+02 -.107E+02 -.107E+02   -.620E+00 0.217E+00 0.217E+00   -.897E-01 -.172E-01 -.172E-01
   0.426E+02 0.105E+02 0.105E+02   -.433E+02 -.107E+02 -.107E+02   0.620E+00 0.217E+00 0.217E+00   0.897E-01 -.172E-01 -.172E-01
   0.373E+02 0.897E+01 0.897E+01   -.378E+02 -.920E+01 -.920E+01   0.517E+00 0.213E+00 0.213E+00   0.146E-01 0.147E-01 0.147E-01
   -.373E+02 -.897E+01 -.897E+01   0.378E+02 0.920E+01 0.920E+01   -.517E+00 -.213E+00 -.213E+00   -.146E-01 -.147E-01 -.147E-01
   -.426E+02 -.105E+02 -.105E+02   0.433E+02 0.107E+02 0.107E+02   -.620E+00 -.217E+00 -.217E+00   -.897E-01 0.172E-01 0.172E-01
   0.660E+02 0.128E+02 -.128E+02   -.673E+02 -.128E+02 0.128E+02   0.120E+01 0.481E-01 -.481E-01   0.109E+00 -.321E-01 0.321E-01
   0.356E-06 0.121E-08 -.121E-08   -.360E-05 -.124E-07 0.124E-07   -.662E-23 -.132E-22 0.132E-22   0.105E-06 -.654E-10 0.656E-10
   -.660E+02 -.128E+02 0.128E+02   0.673E+02 0.128E+02 -.128E+02   -.120E+01 -.481E-01 0.481E-01   -.109E+00 0.321E-01 -.321E-01
   0.372E-05 -.437E-06 0.437E-06   -.377E-04 0.449E-05 -.449E-05   0.106E-21 0.000E+00 0.000E+00   -.103E-06 -.119E-09 0.119E-09
   0.660E+02 -.128E+02 0.128E+02   -.673E+02 0.128E+02 -.128E+02   0.120E+01 -.481E-01 0.481E-01   0.109E+00 0.321E-01 -.321E-01
   0.340E-06 -.120E-08 0.120E-08   -.344E-05 0.123E-07 -.123E-07   0.000E+00 -.165E-22 0.331E-23   0.105E-06 0.658E-10 -.656E-10
   -.660E+02 0.128E+02 -.128E+02   0.673E+02 -.128E+02 0.128E+02   -.120E+01 0.481E-01 -.481E-01   -.109E+00 -.321E-01 0.321E-01
   -.154E-06 0.125E-06 -.125E-06   0.157E-05 -.128E-05 0.128E-05   0.000E+00 0.000E+00 0.000E+00   -.106E-06 -.608E-10 0.609E-10
   0.164E+03 0.185E+03 0.185E+03   -.172E+03 -.195E+03 -.195E+03   0.721E+01 0.987E+01 0.987E+01   0.365E-02 -.690E-02 -.690E-02
   0.144E+03 0.185E+03 0.185E+03   -.153E+03 -.195E+03 -.195E+03   0.902E+01 0.969E+01 0.969E+01   -.766E-01 0.512E-02 0.512E-02
   0.216E+03 0.214E+03 0.214E+03   -.232E+03 -.229E+03 -.229E+03   0.157E+02 0.150E+02 0.150E+02   -.186E-01 -.627E-02 -.627E-02
   0.234E+03 0.213E+03 0.213E+03   -.248E+03 -.229E+03 -.229E+03   0.137E+02 0.152E+02 0.152E+02   0.576E-01 0.662E-02 0.662E-02
   0.164E+03 -.185E+03 -.185E+03   -.172E+03 0.195E+03 0.195E+03   0.721E+01 -.987E+01 -.987E+01   0.365E-02 0.690E-02 0.690E-02
   0.144E+03 -.185E+03 -.185E+03   -.153E+03 0.195E+03 0.195E+03   0.902E+01 -.969E+01 -.969E+01   -.766E-01 -.512E-02 -.512E-02
   0.216E+03 -.214E+03 -.214E+03   -.232E+03 0.229E+03 0.229E+03   0.157E+02 -.150E+02 -.150E+02   -.186E-01 0.627E-02 0.627E-02
   0.234E+03 -.213E+03 -.213E+03   -.248E+03 0.229E+03 0.229E+03   0.137E+02 -.152E+02 -.152E+02   0.576E-01 -.662E-02 -.662E-02
   -.153E+03 0.183E+03 -.183E+03   0.161E+03 -.193E+03 0.193E+03   -.801E+01 0.998E+01 -.998E+01   0.151E-01 0.799E-02 -.799E-02
   -.191E+03 0.183E+03 -.183E+03   0.199E+03 -.193E+03 0.193E+03   -.799E+01 0.102E+02 -.102E+02   -.119E-01 0.653E-02 -.653E-02
   -.232E+03 0.214E+03 -.214E+03   0.247E+03 -.229E+03 0.229E+03   -.150E+02 0.149E+02 -.149E+02   -.600E-01 -.225E-01 0.225E-01
   -.185E+03 0.217E+03 -.217E+03   0.200E+03 -.232E+03 0.232E+03   -.146E+02 0.149E+02 -.149E+02   0.554E-01 -.225E-01 0.225E-01
   -.153E+03 -.183E+03 0.183E+03   0.161E+03 0.193E+03 -.193E+03   -.801E+01 -.998E+01 0.998E+01   0.151E-01 -.799E-02 0.799E-02
   -.191E+03 -.183E+03 0.183E+03   0.199E+03 0.193E+03 -.193E+03   -.799E+01 -.102E+02 0.102E+02   -.119E-01 -.653E-02 0.653E-02
   -.232E+03 -.214E+03 0.214E+03   0.247E+03 0.229E+03 -.229E+03   -.150E+02 -.149E+02 0.149E+02   -.600E-01 0.225E-01 -.225E-01
   -.185E+03 -.217E+03 0.217E+03   0.200E+03 0.232E+03 -.232E+03   -.146E+02 -.149E+02 0.149E+02   0.554E-01 0.225E-01 -.225E-01
   -.144E+03 -.185E+03 -.185E+03   0.153E+03 0.195E+03 0.195E+03   -.902E+01 -.969E+01 -.969E+01   0.766E-01 -.512E-02 -.512E-02
   -.164E+03 -.185E+03 -.185E+03   0.172E+03 0.195E+03 0.195E+03   -.721E+01 -.987E+01 -.987E+01   -.365E-02 0.690E-02 0.690E-02
   -.234E+03 -.213E+03 -.213E+03   0.248E+03 0.229E+03 0.229E+03   -.137E+02 -.152E+02 -.152E+02   -.576E-01 -.662E-02 -.662E-02
   -.216E+03 -.214E+03 -.214E+03   0.232E+03 0.229E+03 0.229E+03   -.157E+02 -.150E+02 -.150E+02   0.186E-01 0.627E-02 0.627E-02
   -.144E+03 0.185E+03 0.185E+03   0.153E+03 -.195E+03 -.195E+03   -.902E+01 0.969E+01 0.969E+01   0.766E-01 0.512E-02 0.512E-02
   -.164E+03 0.185E+03 0.185E+03   0.172E+03 -.195E+03 -.195E+03   -.721E+01 0.987E+01 0.987E+01   -.365E-02 -.690E-02 -.690E-02
   -.234E+03 0.213E+03 0.213E+03   0.248E+03 -.229E+03 -.229E+03   -.137E+02 0.152E+02 0.152E+02   -.576E-01 0.662E-02 0.662E-02
   -.216E+03 0.214E+03 0.214E+03   0.232E+03 -.229E+03 -.229E+03   -.157E+02 0.150E+02 0.150E+02   0.186E-01 -.627E-02 -.627E-02
   0.232E+03 -.214E+03 0.214E+03   -.247E+03 0.229E+03 -.229E+03   0.150E+02 -.149E+02 0.149E+02   0.600E-01 0.225E-01 -.225E-01
   0.191E+03 -.183E+03 0.183E+03   -.199E+03 0.193E+03 -.193E+03   0.799E+01 -.102E+02 0.102E+02   0.119E-01 -.653E-02 0.653E-02
   0.153E+03 -.183E+03 0.183E+03   -.161E+03 0.193E+03 -.193E+03   0.801E+01 -.998E+01 0.998E+01   -.151E-01 -.799E-02 0.799E-02
   0.185E+03 -.217E+03 0.217E+03   -.200E+03 0.232E+03 -.232E+03   0.146E+02 -.149E+02 0.149E+02   -.554E-01 0.225E-01 -.225E-01
   0.232E+03 0.214E+03 -.214E+03   -.247E+03 -.229E+03 0.229E+03   0.150E+02 0.149E+02 -.149E+02   0.600E-01 -.225E-01 0.225E-01
   0.191E+03 0.183E+03 -.183E+03   -.199E+03 -.193E+03 0.193E+03   0.799E+01 0.102E+02 -.102E+02   0.119E-01 0.653E-02 -.653E-02
   0.153E+03 0.183E+03 -.183E+03   -.161E+03 -.193E+03 0.193E+03   0.801E+01 0.998E+01 -.998E+01   -.151E-01 0.799E-02 -.799E-02
   0.185E+03 0.217E+03 -.217E+03   -.200E+03 -.232E+03 0.232E+03   0.146E+02 0.149E+02 -.149E+02   -.554E-01 -.225E-01 0.225E-01
   0.180E-03 0.352E-05 -.352E-05   0.199E-12 -.568E-13 0.199E-12   -.355E-14 0.178E-14 -.178E-14   0.272E-07 -.652E-09 0.652E-09

 POSITION                                       TOTAL-FORCE (eV/Angst)
      2.87698      2.98051      2.98051        -0.012179     -0.000000      0.000000
      6.96072      2.97669     -0.98969         0.007895      0.000000      0.000000
      4.94441      0.99350      0.99350        -0.007895      0.000000      0.000000
      9.02816      4.96370      0.99732         0.012179     -0.000000      0.000000
     15.83179      0.00117      0.00117         0.003371     -0.002331     -0.002331
      3.92521      3.97163      0.00525        -0.002381     -0.003449     -0.003449
      7.97993      3.97258      3.97258         0.002381      0.003449      0.003449
     11.94687      3.96903      0.00265        -0.003371      0.002331      0.002331
     15.83179      1.98584      1.98584         0.003371      0.002331      0.002331
      3.92521      5.95577      1.98939        -0.002381      0.003449      0.003449
      7.97993      1.98844      1.98844         0.002381     -0.003449     -0.003449
     11.94687      1.98436     -1.98202        -0.003371     -0.002331     -0.002331
      1.92625      3.95947     -1.97246         0.002396     -0.000520      0.000520
      5.95257      3.97211      1.98892        -0.000000      0.000000      0.000000
      9.97889      3.97711     -1.99010        -0.002396      0.000520     -0.000520
     13.88933      3.97211      1.98892        -0.000000     -0.000000      0.000000
      1.92625      1.99392     -0.00691         0.002396      0.000520     -0.000520
      5.95257      5.95530      0.00572        -0.000000      0.000000      0.000000
      9.97889      1.97628      0.01073        -0.002396     -0.000520      0.000520
     13.88933      5.95530      0.00572        -0.000000      0.000000      0.000000
      6.02915      2.12562      2.12562         0.006123     -0.001174     -0.001174
     10.04289      2.12612     -1.84027        -0.000369      0.003366      0.003366
     13.96307      2.13034      2.13034         0.007481      0.001202      0.001202
      2.00539      2.12685     -1.83953        -0.007261     -0.006700     -0.006700
      6.02915      3.83540      3.83540         0.006123      0.001174      0.001174
     10.04289      3.82727     -0.13911        -0.000369     -0.003366     -0.003366
     13.96307      3.83069      3.83069         0.007481     -0.001202     -0.001202
      2.00539      3.82654     -0.13984        -0.007261      0.006700      0.006700
      3.85635      2.12296     -0.13595        -0.008905      0.001556     -0.001556
      7.90110      6.09223     -0.13121         0.004814     -0.002280      0.002280
     11.86726      2.12602     -0.13901        -0.001180     -0.002916      0.002916
     15.77262      6.10012     -0.13909        -0.004918      0.002774     -0.002774
      3.85635      3.83043     -1.84343        -0.008905     -0.001556      0.001556
      7.90110      3.83517      2.12585         0.004814      0.002280     -0.002280
     11.86726      3.82737     -1.84036        -0.001180      0.002916     -0.002916
     15.77262      3.82729      2.13373        -0.004918     -0.002774      0.002774
      1.86225      1.84408      1.84408         0.000369     -0.003366     -0.003366
      5.87599      5.81859      1.85221        -0.006123      0.001174      0.001174
      9.89975      1.84335      1.84335         0.007261      0.006700      0.006700
     13.81558      5.81388      1.84750        -0.007481     -0.001202     -0.001202
      1.86225      0.14292      0.14292         0.000369      0.003366      0.003366
      5.87599      4.10881      0.14243        -0.006123     -0.001174     -0.001174
      9.89975      0.14366      0.14366         0.007261     -0.006700     -0.006700
     13.81558      4.11353      0.14715        -0.007481      0.001202      0.001202
      0.03787      1.84418      0.14283         0.001180      0.002916     -0.002916
      4.00404      5.81836      0.14266        -0.004814      0.002280     -0.002280
      8.04879      1.84724      0.13977         0.008905     -0.001556      0.001556
     12.00603      5.81048      0.15054         0.004918     -0.002774      0.002774
      0.03787      4.10921     -2.12221         0.001180     -0.002916      0.002916
      4.00404      4.10904      1.85198        -0.004814     -0.002280      0.002280
      8.04879      4.10615     -2.11914         0.008905      0.001556     -0.001556
     12.00603      4.11693      1.84410         0.004918      0.002774     -0.002774
    total drift:                                0.000180      0.000004     -0.000004

  FREE ENERGIE OF THE ION-ELECTRON SYSTEM (eV)
  free  energy   TOTEN  =      -324.8638519712 eV

  energy  without entropy=     -324.8638258092  energy(sigma->0) =     -324.86383889

 Quasi-Newton relaxation of ions (Broydens 2nd method)
  g(Force)  = 0.116E-03   g(Stress)= 0.999E-04

 Reset! Starting new Quasi-Newton update for ions

 reached required accuracy - stopping structural energy minimisation

volume of typ            1:     6.2 %

[...]

volume of typ            3:    10.4 %

total charge

# of ion       s       p       d       tot
    1        2.108   0.326   0.122   2.555
    2        2.108   0.323   0.118   2.548
    3        2.108   0.323   0.118   2.548
    4        2.108   0.326   0.122   2.555
    5        0.297   0.418   7.835   8.550
    6        0.283   0.393   7.849   8.525
    7        0.283   0.393   7.849   8.525
    8        0.297   0.418   7.835   8.550
    9        0.297   0.418   7.835   8.550
   10        0.283   0.393   7.849   8.525
   11        0.283   0.393   7.849   8.525
   12        0.297   0.418   7.835   8.550
   13        0.292   0.408   7.840   8.540
   14        0.281   0.390   7.853   8.523
   15        0.292   0.408   7.840   8.540
   16        0.298   0.419   7.833   8.550
   17        0.292   0.408   7.840   8.540
   18        0.281   0.390   7.853   8.523
   19        0.292   0.408   7.840   8.540
   20        0.298   0.419   7.833   8.550
   21        1.265   2.779   0.007   4.051
   22        1.264   2.787   0.007   4.058
   23        1.283   2.728   0.008   4.019
   24        1.283   2.724   0.008   4.015
   25        1.265   2.779   0.007   4.051
   26        1.264   2.787   0.007   4.058
   27        1.283   2.728   0.008   4.019
   28        1.283   2.724   0.008   4.015
   29        1.264   2.781   0.007   4.052
   30        1.266   2.773   0.007   4.046
   31        1.284   2.723   0.008   4.015
   32        1.281   2.731   0.008   4.021
   33        1.264   2.781   0.007   4.052
   34        1.266   2.773   0.007   4.046
   35        1.284   2.723   0.008   4.015
   36        1.281   2.731   0.008   4.021
   37        1.264   2.787   0.007   4.058
   38        1.265   2.779   0.007   4.051
   39        1.283   2.724   0.008   4.015
   40        1.283   2.728   0.008   4.019
   41        1.264   2.787   0.007   4.058
   42        1.265   2.779   0.007   4.051
   43        1.283   2.724   0.008   4.015
   44        1.283   2.728   0.008   4.019
   45        1.284   2.723   0.008   4.015
   46        1.266   2.773   0.007   4.046
   47        1.264   2.781   0.007   4.052
   48        1.281   2.731   0.008   4.021
   49        1.284   2.723   0.008   4.015
   50        1.266   2.773   0.007   4.046
   51        1.264   2.781   0.007   4.052
   52        1.281   2.731   0.008   4.021
tot          53.84   95.90  126.18  275.92

magnetization (x)

# of ion       s       p       d       tot
    1        0.000  -0.000   0.000  -0.000
    2        0.000   0.000  -0.000   0.000
    3        0.000   0.000  -0.000   0.000
    4        0.000  -0.000   0.000  -0.000
    5        0.000   0.000   0.000   0.000
    6        0.000   0.000  -0.000  -0.000
    7        0.000   0.000  -0.000  -0.000
    8        0.000   0.000   0.000   0.000
    9        0.000   0.000   0.000   0.000
   10        0.000   0.000  -0.000  -0.000
   11        0.000   0.000  -0.000  -0.000
   12        0.000   0.000   0.000   0.000
   13       -0.000   0.000  -0.000  -0.000
   14        0.000   0.000   0.001   0.001
   15       -0.000   0.000  -0.000  -0.000
   16       -0.000  -0.000  -0.000  -0.000
   17       -0.000   0.000  -0.000  -0.000
   18        0.000   0.000   0.001   0.001
   19       -0.000   0.000  -0.000  -0.000
   20       -0.000  -0.000  -0.000  -0.000
   21        0.000  -0.000   0.000  -0.000
   22       -0.000  -0.000  -0.000  -0.000
   23        0.000   0.000  -0.000   0.000
   24       -0.000  -0.000  -0.000  -0.000
   25        0.000  -0.000   0.000  -0.000
   26       -0.000  -0.000  -0.000  -0.000
   27        0.000   0.000  -0.000   0.000
   28       -0.000  -0.000  -0.000  -0.000
   29       -0.000  -0.000  -0.000  -0.000
   30        0.000   0.000   0.000   0.000
   31       -0.000  -0.000  -0.000  -0.000
   32        0.000  -0.000  -0.000  -0.000
   33       -0.000  -0.000  -0.000  -0.000
   34        0.000   0.000   0.000   0.000
   35       -0.000  -0.000  -0.000  -0.000
   36        0.000  -0.000  -0.000  -0.000
   37       -0.000  -0.000  -0.000  -0.000
   38        0.000  -0.000   0.000  -0.000
   39       -0.000  -0.000  -0.000  -0.000
   40        0.000   0.000  -0.000   0.000
   41       -0.000  -0.000  -0.000  -0.000
   42        0.000  -0.000   0.000  -0.000
   43       -0.000  -0.000  -0.000  -0.000
   44        0.000   0.000  -0.000   0.000
   45       -0.000  -0.000  -0.000  -0.000
   46        0.000   0.000   0.000   0.000
   47       -0.000  -0.000  -0.000  -0.000
   48        0.000  -0.000  -0.000  -0.000
   49       -0.000  -0.000  -0.000  -0.000
   50        0.000   0.000   0.000   0.000
   51       -0.000  -0.000  -0.000  -0.000
   52        0.000  -0.000  -0.000  -0.000
tot           0.00   -0.00    0.00    0.00