 vasp.5.4.4.18Apr17-6-g9f103f2a35 (build May 12 2020 05:39:39) gamma-only

 MD_VERSION_INFO: Compiled 2020-05-12T12:39:39-UTC in devlin.sd.materialsdesign.
 com:/home/medea2/data/build/wwolf/vasp-gpu5.4.4/13047/x86_64/src/src/build/gam
 from svn 13047

 executed on                        Lin64 date 2023.02.09  12:52:37

 INCAR:
 POTCAR:    PAW_PBE Li_sv 10Sep2004
 POTCAR:    PAW_PBE Ni 02Aug2007
 POTCAR:    PAW_PBE O 08Apr2002

 POTCAR:    PAW_PBE Li_sv 10Sep2004

 POTCAR:    PAW_PBE Ni 02Aug2007

 POTCAR:    PAW_PBE O 08Apr2002

 Optimization of the real space projectors (new method)

 maximal supplied QI-value         = 22.11
 optimisation between [QCUT,QGAM] = [ 11.28, 22.77] = [ 35.61,145.23] Ry
 Optimized for a Real-space Cutoff    1.10 Angstroem

   l    n(q)    QCUT    max X(q) W(low)/X(q) W(high)/X(q)  e(spline)
   0      7    11.276    10.506    0.54E-04    0.58E-04    0.16E-07
   0      7    11.276     8.367    0.11E-03    0.14E-03    0.35E-07
   1      7    11.276     8.983    0.23E-03    0.43E-03    0.86E-07
 Optimization of the real space projectors (new method)

[...]

   l    n(q)    QCUT    max X(q) W(low)/X(q) W(high)/X(q)  e(spline)
   2      9    11.376    60.317    0.17E-03    0.16E-04    0.16E-06
   2      9    11.376    55.921    0.17E-03    0.16E-04    0.17E-06
   0     10    11.376    51.690    0.45E-04    0.60E-04    0.21E-06
   0     10    11.376    30.015    0.37E-04    0.55E-04    0.19E-06
   1     10    11.376    18.849    0.83E-04    0.11E-03    0.92E-07
   1     10    11.376    14.624    0.69E-04    0.92E-04    0.82E-07
 Optimization of the real space projectors (new method)

 maximal supplied QI-value         = 24.76
 optimisation between [QCUT,QGAM] = [ 11.39, 22.77] = [ 36.31,145.25] Ry
 Optimized for a Real-space Cutoff    1.10 Angstroem

   l    n(q)    QCUT    max X(q) W(low)/X(q) W(high)/X(q)  e(spline)
   0      7    11.387    20.381    0.22E-03    0.48E-03    0.18E-06
   0      7    11.387    15.268    0.22E-03    0.52E-03    0.19E-06
   1      7    11.387     5.964    0.22E-03    0.73E-03    0.24E-06
   1      7    11.387     5.382    0.19E-03    0.60E-03    0.21E-06

  PAW_PBE Li_sv 10Sep2004               :
  PAW_PBE Ni 02Aug2007                  :
  PAW_PBE O 08Apr2002                   :

 POSCAR: ce184_1
  positions in direct lattice
 exchange correlation table for  LEXCH =       14
   RHO(1)=    0.500       N(1)  =     2000
   RHO(2)=  100.500       N(2)  =     4000

 ion  position               nearest neighbor table
   1  0.750  0.187  0.187-  43 1.91  39 1.91  52 1.92  49 1.92
   2  0.250  0.184  0.687-  44 1.90  40 1.90  51 1.92  50 1.96
   3  0.250  0.687  0.184-  45 1.90  41 1.90  47 1.92  54 1.96
   4  0.250  0.313  0.313-  27 1.91  23 1.91  35 1.92  31 1.92
   5  0.750  0.316  0.813-  28 1.90  24 1.90  36 1.92  32 1.96
   6  0.750  0.813  0.316-  29 1.90  25 1.90  33 1.92  37 1.96
   7  1.000  0.999  0.999-  51 1.86  47 1.86  37 1.86  32 1.86  30 1.93  43 1.95  11 2.80  11 2.81
                            17 2.82  20 2.82  19 2.84  15 2.84
   8  0.500  0.998  0.502-  38 1.85  48 1.85  52 1.86  31 1.86  44 1.93  29 1.93  12 2.81  12 2.81
                            20 2.81  18 2.81  16 2.84  19 2.84
   9  0.500  0.502  0.998-  53 1.85  34 1.85  35 1.86  49 1.86  28 1.93  45 1.93  13 2.81  13 2.81
                            22 2.81  17 2.81  15 2.84  21 2.84
  10  0.000  0.501  0.501-  36 1.86  33 1.86  54 1.86  50 1.86  46 1.93  27 1.95  14 2.80  14 2.81
                            22 2.82  18 2.82  16 2.84  21 2.84
  11  0.500  0.999  0.999-  51 1.86  47 1.86  37 1.86  32 1.86  26 1.93  39 1.95   7 2.80   7 2.81
                            20 2.82  17 2.82  15 2.84  19 2.84
  12  0.000  0.998  0.502-  38 1.85  48 1.85  52 1.86  31 1.86  40 1.93  25 1.93   8 2.81   8 2.81
                            20 2.81  18 2.81  19 2.84  16 2.84
  13  0.000  0.502  0.998-  53 1.85  34 1.85  35 1.86  49 1.86  24 1.93  41 1.93   9 2.81   9 2.81
                            22 2.81  17 2.81  21 2.84  15 2.84
  14  0.500  0.501  0.501-  36 1.86  33 1.86  54 1.86  50 1.86  42 1.93  23 1.95  10 2.80  10 2.81
                            18 2.82  22 2.82  16 2.84  21 2.84
  15  0.250  0.250  1.000-  24 1.86  28 1.86  39 1.87  43 1.87  51 1.95  35 1.95  19 2.77  22 2.78
                             9 2.84  13 2.84  11 2.84   7 2.84
  16  0.750  0.250  0.500-  40 1.86  44 1.86  23 1.87  27 1.87  36 1.95  52 1.95  21 2.77  20 2.78
                             8 2.84  12 2.84  14 2.84  10 2.84
  17  0.750  0.750  0.998-  26 1.85  30 1.85  41 1.88  45 1.88  53 1.91  37 1.93  20 2.75  21 2.78
                             9 2.81  13 2.81  11 2.82   7 2.82
  18  0.250  0.750  0.502-  42 1.85  46 1.85  25 1.88  29 1.88  38 1.91  54 1.93  22 2.75  19 2.78
                             8 2.81  12 2.81  10 2.82  14 2.82
  19  0.250  1.000  0.250-  29 1.86  25 1.86  43 1.87  39 1.87  47 1.95  31 1.95  15 2.77  18 2.78
                            12 2.84   8 2.84  11 2.84   7 2.84
  20  0.750  0.998  0.750-  30 1.85  26 1.85  44 1.88  40 1.88  48 1.91  32 1.93  17 2.75  16 2.78
                             8 2.81  12 2.81  11 2.82   7 2.82
  21  0.750  0.500  0.250-  45 1.86  41 1.86  27 1.87  23 1.87  33 1.95  49 1.95  16 2.77  17 2.78
                            13 2.84   9 2.84  10 2.84  14 2.84
  22  0.250  0.502  0.750-  46 1.85  42 1.85  28 1.88  24 1.88  34 1.91  50 1.93  18 2.75  15 2.78
                             9 2.81  13 2.81  10 2.82  14 2.82
  23  0.527  0.381  0.381-  16 1.87  21 1.87   4 1.91  14 1.95
  24  0.028  0.381  0.882-  15 1.86  22 1.88   5 1.90  13 1.93
  25  0.028  0.882  0.381-  19 1.86  18 1.88   6 1.90  12 1.93
  26  0.529  0.880  0.880-  17 1.85  20 1.85  11 1.93
  27  0.973  0.381  0.381-  21 1.87  16 1.87   4 1.91  10 1.95
  28  0.472  0.381  0.882-  15 1.86  22 1.88   5 1.90   9 1.93
  29  0.472  0.882  0.381-  19 1.86  18 1.88   6 1.90   8 1.93
  30  0.971  0.880  0.880-  20 1.85  17 1.85   7 1.93
  31  0.250  0.102  0.386-   8 1.86  12 1.86   4 1.92  19 1.95
  32  0.750  0.102  0.883-   7 1.86  11 1.86  20 1.93   5 1.96
  33  0.750  0.604  0.385-  10 1.86  14 1.86   6 1.92  21 1.95
  34  0.250  0.604  0.883-   9 1.85  13 1.85  22 1.91
  35  0.250  0.386  0.102-   9 1.86  13 1.86   4 1.92  15 1.95
  36  0.750  0.385  0.604-  10 1.86  14 1.86   5 1.92  16 1.95
  37  0.750  0.883  0.102-   7 1.86  11 1.86  17 1.93   6 1.96
  38  0.250  0.883  0.604-   8 1.85  12 1.85  18 1.91
  39  0.473  0.119  0.119-  15 1.87  19 1.87   1 1.91  11 1.95
  40  0.972  0.119  0.618-  16 1.86  20 1.88   2 1.90  12 1.93
  41  0.972  0.618  0.119-  21 1.86  17 1.88   3 1.90  13 1.93
  42  0.471  0.620  0.620-  18 1.85  22 1.85  14 1.93
  43  0.027  0.119  0.119-  19 1.87  15 1.87   1 1.91   7 1.95
  44  0.528  0.119  0.618-  16 1.86  20 1.88   2 1.90   8 1.93
  45  0.528  0.618  0.119-  21 1.86  17 1.88   3 1.90   9 1.93
  46  0.029  0.620  0.620-  22 1.85  18 1.85  10 1.93
  47  0.250  0.896  0.115-   7 1.86  11 1.86   3 1.92  19 1.95
  48  0.750  0.896  0.617-   8 1.85  12 1.85  20 1.91
  49  0.750  0.398  0.114-   9 1.86  13 1.86   1 1.92  21 1.95
  50  0.250  0.398  0.617-  10 1.86  14 1.86  22 1.93   2 1.96
  51  0.250  0.115  0.896-   7 1.86  11 1.86   2 1.92  15 1.95
  52  0.750  0.114  0.398-   8 1.86  12 1.86   1 1.92  16 1.95
  53  0.750  0.617  0.896-   9 1.85  13 1.85  17 1.91
  54  0.250  0.617  0.398-  10 1.86  14 1.86  18 1.93   3 1.96

  LATTYP: Found a base centered orthorhombic cell.
 ALAT       =    11.0784341215
 B/A-ratio  =     1.4644600805
 C/A-ratio  =     0.5065682170

  Lattice vectors:

 A1 = (   8.1119622625,  -3.9168179461,   3.9168179461)
 A2 = (  -8.1119622625,  -3.9168179461,   3.9168179461)
 A3 = (   0.0000000000,  -3.9682709666,  -3.9682709666)

Analysis of symmetry for initial positions (statically):
 Subroutine PRICEL returns:
 Original cell was already a primitive cell.

 Routine SETGRP: Setting up the symmetry group for a
 base centered orthorhombic supercell.

 Subroutine GETGRP returns: Found  8 space group operations
 (whereof  2 operations were pure point group operations)
 out of a pool of  8 trial point group operations.

The static configuration has the point symmetry C_1h.
 The point group associated with its full space group is D_2h.

Analysis of symmetry for dynamics (positions and initial velocities):
 Subroutine PRICEL returns:
 Original cell was already a primitive cell.

[...]

The dynamic configuration has the point symmetry C_1h.
 The point group associated with its full space group is D_2h.

Analysis of structural, dynamic, and magnetic symmetry:
 Subroutine PRICEL returns:
 Original cell was already a primitive cell.

 Routine SETGRP: Setting up the symmetry group for a
 base centered orthorhombic supercell.

 Subroutine GETGRP returns: Found  8 space group operations
 (whereof  2 operations were pure point group operations)
 out of a pool of  8 trial point group operations.

The magnetic configuration has the point symmetry C_1h.
 The point group associated with its full space group is D_2h.

 Subroutine INISYM returns: Found  8 space group operations
 (whereof  2 operations are pure point group operations),
 and found     1 'primitive' translations

 KPOINTS: Automatic mesh

Automatic generation of k-mesh.
Space group operators:
 irot       det(A)        alpha          n_x          n_y          n_z        tau_x        tau_y        tau_z
    1     1.000000     0.000000     1.000000     0.000000     0.000000     0.000000     0.000000     0.000000
    2    -1.000000   180.000000     0.000000    -0.707107     0.707107     0.000000     0.000000     0.000000
    3    -1.000000     0.000000     1.000000     0.000000     0.000000     0.000000     0.500000    -0.500000
    4     1.000000   180.000000     0.000000     0.707107     0.707107    -0.500000     0.500000    -0.500000
    5    -1.000000   180.000000     0.000000     0.707107     0.707107    -0.500000     0.000000     0.000000
    6     1.000000   179.999999     1.000000     0.000000     0.000000    -0.500000     0.000000     0.000000
    7    -1.000000   179.999999     1.000000     0.000000     0.000000    -0.500000     0.500000    -0.500000
    8     1.000000   180.000000     0.000000    -0.707107     0.707107     0.000000     0.500000    -0.500000

 Subroutine IBZKPT returns following result:

 Found      1 irreducible k-points:

 Following reciprocal coordinates:
            Coordinates               Weight
  0.000000  0.000000  0.000000      1.000000

 Following cartesian coordinates:
            Coordinates               Weight
  0.000000  0.000000  0.000000      1.000000

 SYSTEM =  unknown system
 POSCAR =  ce184_1

 Startparameter for this run:
   NWRITE =      1    write-flag & timer
   PREC   = accura    normal or accurate (medium, high low for compatibility)
   ISTART =      0    job   : 0-new  1-cont  2-samecut
   ICHARG =      2    charge: 1-file 2-atom 10-const
   ISPIN  =      2    spin polarized calculation?
   LNONCOLLINEAR =      F non collinear calculations
   LSORBIT =      F    spin-orbit coupling
   INIWAV =      1    electr: 0-lowe 1-rand  2-diag
   LASPH  =      F    aspherical Exc in radial PAW
[...]
   0.484E+00 -.126E-05 0.541E-06   -.403E+00 0.691E-05 0.695E-07   -.702E-01 0.000E+00 0.000E+00   -.107E-02 -.140E-07 0.443E-08
   0.353E+00 0.195E+01 -.195E+01   -.158E+00 -.211E+01 0.211E+01   -.197E+00 0.166E+00 -.166E+00   0.602E-04 0.355E-03 -.355E-03
   0.353E+00 -.195E+01 0.195E+01   -.158E+00 0.211E+01 -.211E+01   -.197E+00 -.166E+00 0.166E+00   0.601E-04 -.355E-03 0.355E-03
   0.213E+02 -.801E+01 -.801E+01   -.216E+02 0.823E+01 0.823E+01   0.260E+00 -.219E+00 -.219E+00   -.308E-02 -.251E-02 -.251E-02
   -.554E-06 -.378E+02 0.378E+02   -.453E-06 0.382E+02 -.382E+02   0.000E+00 -.413E+00 0.413E+00   -.398E-08 -.543E-02 0.543E-02
   0.554E-06 0.378E+02 -.378E+02   0.453E-06 -.382E+02 0.382E+02   0.000E+00 0.413E+00 -.413E+00   0.398E-08 0.543E-02 -.543E-02
   -.213E+02 0.801E+01 0.801E+01   0.216E+02 -.823E+01 -.823E+01   -.260E+00 0.219E+00 0.219E+00   0.308E-02 0.251E-02 0.251E-02
   0.213E+02 0.801E+01 0.801E+01   -.216E+02 -.823E+01 -.823E+01   0.260E+00 0.219E+00 0.219E+00   -.308E-02 0.251E-02 0.251E-02
   -.595E-06 -.378E+02 0.378E+02   -.114E-06 0.382E+02 -.382E+02   0.000E+00 -.413E+00 0.413E+00   -.394E-08 -.543E-02 0.543E-02
   0.595E-06 0.378E+02 -.378E+02   0.114E-06 -.382E+02 0.382E+02   0.000E+00 0.413E+00 -.413E+00   0.394E-08 0.543E-02 -.543E-02
   -.213E+02 -.801E+01 -.801E+01   0.216E+02 0.823E+01 0.823E+01   -.260E+00 -.219E+00 -.219E+00   0.308E-02 -.251E-02 -.251E-02
   0.372E+01 0.406E+01 -.406E+01   -.361E+01 -.407E+01 0.407E+01   -.117E+00 -.324E-02 0.324E-02   0.238E-02 0.318E-02 -.318E-02
   -.372E+01 -.406E+01 0.406E+01   0.361E+01 0.407E+01 -.407E+01   0.117E+00 0.324E-02 -.324E-02   -.238E-02 -.318E-02 0.318E-02
   0.364E+02 0.170E+02 -.170E+02   -.373E+02 -.172E+02 0.172E+02   0.836E+00 0.194E+00 -.194E+00   0.559E-02 -.568E-02 0.568E-02
   -.364E+02 -.170E+02 0.170E+02   0.373E+02 0.172E+02 -.172E+02   -.836E+00 -.194E+00 0.194E+00   -.559E-02 0.568E-02 -.568E-02
   0.372E+01 -.406E+01 0.406E+01   -.361E+01 0.407E+01 -.407E+01   -.117E+00 0.324E-02 -.324E-02   0.238E-02 -.318E-02 0.318E-02
   0.364E+02 -.170E+02 0.170E+02   -.373E+02 0.172E+02 -.172E+02   0.836E+00 -.194E+00 0.194E+00   0.559E-02 0.568E-02 -.568E-02
   -.372E+01 0.406E+01 -.406E+01   0.361E+01 -.407E+01 0.407E+01   0.117E+00 -.324E-02 0.324E-02   -.238E-02 0.318E-02 -.318E-02
   -.364E+02 0.170E+02 -.170E+02   0.373E+02 -.172E+02 0.172E+02   -.836E+00 0.194E+00 -.194E+00   -.559E-02 -.568E-02 0.568E-02
   0.156E+03 0.180E+03 0.180E+03   -.164E+03 -.191E+03 -.191E+03   0.778E+01 0.112E+02 0.112E+02   -.523E-02 0.357E-03 0.357E-03
   0.158E+03 0.194E+03 0.169E+03   -.167E+03 -.206E+03 -.179E+03   0.856E+01 0.113E+02 0.107E+02   -.853E-02 0.462E-03 -.376E-02
   0.158E+03 0.169E+03 0.194E+03   -.167E+03 -.179E+03 -.206E+03   0.856E+01 0.107E+02 0.113E+02   -.853E-02 -.376E-02 0.462E-03
   0.212E+03 0.211E+03 0.211E+03   -.226E+03 -.227E+03 -.227E+03   0.139E+02 0.161E+02 0.161E+02   -.671E-03 -.563E-03 -.563E-03
   0.156E+03 -.180E+03 -.180E+03   -.164E+03 0.191E+03 0.191E+03   0.778E+01 -.112E+02 -.112E+02   -.523E-02 -.357E-03 -.357E-03
   0.158E+03 -.169E+03 -.194E+03   -.167E+03 0.179E+03 0.206E+03   0.856E+01 -.107E+02 -.113E+02   -.853E-02 0.376E-02 -.462E-03
   0.158E+03 -.194E+03 -.169E+03   -.167E+03 0.206E+03 0.179E+03   0.856E+01 -.113E+02 -.107E+02   -.853E-02 -.462E-03 0.376E-02
   0.212E+03 -.211E+03 -.211E+03   -.226E+03 0.227E+03 0.227E+03   0.139E+02 -.161E+02 -.161E+02   -.671E-03 0.563E-03 0.563E-03
   -.163E+03 0.175E+03 -.175E+03   0.171E+03 -.185E+03 0.185E+03   -.800E+01 0.103E+02 -.103E+02   -.117E-02 -.100E-01 0.100E-01
   -.158E+03 0.183E+03 -.183E+03   0.167E+03 -.194E+03 0.194E+03   -.848E+01 0.111E+02 -.111E+02   0.105E-03 -.268E-02 0.268E-02
   -.174E+03 0.180E+03 -.180E+03   0.182E+03 -.191E+03 0.191E+03   -.776E+01 0.107E+02 -.107E+02   -.108E-02 -.328E-02 0.328E-02
   -.194E+03 0.225E+03 -.225E+03   0.208E+03 -.241E+03 0.241E+03   -.138E+02 0.157E+02 -.157E+02   0.156E-03 -.710E-02 0.710E-02
   -.163E+03 -.175E+03 0.175E+03   0.171E+03 0.185E+03 -.185E+03   -.800E+01 -.103E+02 0.103E+02   -.117E-02 0.100E-01 -.100E-01
   -.174E+03 -.180E+03 0.180E+03   0.182E+03 0.191E+03 -.191E+03   -.776E+01 -.107E+02 0.107E+02   -.108E-02 0.328E-02 -.328E-02
   -.158E+03 -.183E+03 0.183E+03   0.167E+03 0.194E+03 -.194E+03   -.848E+01 -.111E+02 0.111E+02   0.105E-03 0.268E-02 -.268E-02
   -.194E+03 -.225E+03 0.225E+03   0.208E+03 0.241E+03 -.241E+03   -.138E+02 -.157E+02 0.157E+02   0.156E-03 0.710E-02 -.710E-02
   -.156E+03 -.180E+03 -.180E+03   0.164E+03 0.191E+03 0.191E+03   -.778E+01 -.112E+02 -.112E+02   0.523E-02 -.357E-03 -.357E-03
   -.158E+03 -.194E+03 -.169E+03   0.167E+03 0.206E+03 0.179E+03   -.856E+01 -.113E+02 -.107E+02   0.853E-02 -.462E-03 0.376E-02
   -.158E+03 -.169E+03 -.194E+03   0.167E+03 0.179E+03 0.206E+03   -.856E+01 -.107E+02 -.113E+02   0.853E-02 0.376E-02 -.462E-03
   -.212E+03 -.211E+03 -.211E+03   0.226E+03 0.227E+03 0.227E+03   -.139E+02 -.161E+02 -.161E+02   0.671E-03 0.563E-03 0.563E-03
   -.156E+03 0.180E+03 0.180E+03   0.164E+03 -.191E+03 -.191E+03   -.778E+01 0.112E+02 0.112E+02   0.523E-02 0.357E-03 0.357E-03
   -.158E+03 0.169E+03 0.194E+03   0.167E+03 -.179E+03 -.206E+03   -.856E+01 0.107E+02 0.113E+02   0.853E-02 -.376E-02 0.462E-03
   -.158E+03 0.194E+03 0.169E+03   0.167E+03 -.206E+03 -.179E+03   -.856E+01 0.113E+02 0.107E+02   0.853E-02 0.462E-03 -.376E-02
   -.212E+03 0.211E+03 0.211E+03   0.226E+03 -.227E+03 -.227E+03   -.139E+02 0.161E+02 0.161E+02   0.671E-03 -.563E-03 -.563E-03
   0.174E+03 -.180E+03 0.180E+03   -.182E+03 0.191E+03 -.191E+03   0.776E+01 -.107E+02 0.107E+02   0.108E-02 0.328E-02 -.328E-02
   0.194E+03 -.225E+03 0.225E+03   -.208E+03 0.241E+03 -.241E+03   0.138E+02 -.157E+02 0.157E+02   -.156E-03 0.710E-02 -.710E-02
   0.163E+03 -.175E+03 0.175E+03   -.171E+03 0.185E+03 -.185E+03   0.800E+01 -.103E+02 0.103E+02   0.117E-02 0.100E-01 -.100E-01
   0.158E+03 -.183E+03 0.183E+03   -.167E+03 0.194E+03 -.194E+03   0.848E+01 -.111E+02 0.111E+02   -.105E-03 0.268E-02 -.268E-02
   0.174E+03 0.180E+03 -.180E+03   -.182E+03 -.191E+03 0.191E+03   0.776E+01 0.107E+02 -.107E+02   0.108E-02 -.328E-02 0.328E-02
   0.163E+03 0.175E+03 -.175E+03   -.171E+03 -.185E+03 0.185E+03   0.800E+01 0.103E+02 -.103E+02   0.117E-02 -.100E-01 0.100E-01
   0.194E+03 0.225E+03 -.225E+03   -.208E+03 -.241E+03 0.241E+03   0.138E+02 0.157E+02 -.157E+02   -.156E-03 -.710E-02 0.710E-02
   0.158E+03 0.183E+03 -.183E+03   -.167E+03 -.194E+03 0.194E+03   0.848E+01 0.111E+02 -.111E+02   -.105E-03 -.268E-02 0.268E-02
   -.144E-08 0.492E-09 -.442E-09   -.455E-12 0.853E-13 -.284E-13   0.107E-13 -.533E-14 0.195E-13   0.102E-12 -.130E-11 0.129E-12

 POSITION                                       TOTAL-FORCE (eV/Angst)
      3.04169      2.97620      2.97620        -0.008973      0.000000      0.000000
      7.06060      2.96199     -0.97786         0.001399     -0.006449      0.006449
      7.06060     -0.97786      2.96199         0.001399      0.006449     -0.006449
      5.07027      0.99207      0.99207         0.008973      0.000000      0.000000
      9.16333      4.92309      1.02931        -0.001399      0.006449     -0.006449
      9.16333      1.02931      4.92309        -0.001399     -0.006449      0.006449
     16.20234      3.96778      3.96778        -0.002622      0.000671      0.000671
     12.16794      0.03922      3.92905         0.000000      0.000983     -0.000983
     12.16794      3.92905      0.03922         0.000000     -0.000983      0.000983
      8.13354      0.00049      0.00049         0.002622     -0.000671     -0.000671
     16.20234      1.98463      1.98463        -0.002622     -0.000671     -0.000671
     12.16794     -1.94492      1.94492         0.000000      0.000983     -0.000983
     12.16794      1.94492     -1.94492         0.000000     -0.000983      0.000983
      8.13354      1.98364      1.98364         0.002622      0.000671      0.000671
     10.13817      3.92871     -1.94457        -0.003257     -0.004948      0.004948
      6.08575      3.95638      1.99603         0.003257      0.004948     -0.004948
     14.17899      3.94717      2.00524        -0.007261     -0.007179      0.007179
     10.15690      0.02110      1.96303         0.007261      0.007179     -0.007179
     10.13817     -1.94457      3.92871        -0.003257      0.004948     -0.004948
     14.17899      2.00524      3.94717        -0.007261      0.007179     -0.007179
      6.08575      1.99603      3.95638         0.003257     -0.004948      0.004948
     10.15690      1.96303      0.02110         0.007261     -0.007179      0.007179
      6.18689      2.09092      2.09092         0.006778     -0.009361     -0.009361
     10.24655      2.07110     -1.85151         0.006687     -0.009859     -0.006737
     10.24655     -1.85151      2.07110         0.006687     -0.006737     -0.009859
     14.28327      2.09801      2.09801         0.008399     -0.010193     -0.010193
      6.18689      3.86148      3.86148         0.006778      0.009361      0.009361
     10.24655      3.83565     -0.08696         0.006687      0.006737      0.009859
     10.24655     -0.08696      3.83565         0.006687      0.009859      0.006737
     14.28327      3.85439      3.85439         0.008399      0.010193      0.010193
      3.96422      2.10401     -0.11988        -0.000408     -0.008144      0.008144
      7.99345      6.03398     -0.08157         0.003976      0.003828     -0.003828
      8.02333      2.12072      3.83169         0.009055      0.001194     -0.001194
     12.05794      2.08590     -0.10177         0.010665      0.000046     -0.000046
      3.96422     -0.11988      2.10401        -0.000408      0.008144     -0.008144
      8.02333      3.83169      2.12072         0.009055     -0.001194      0.001194
      7.99345     -0.08157      6.03398         0.003976     -0.003828      0.003828
     12.05794     -0.10177      2.08590         0.010665     -0.000046      0.000046
      1.92507      1.87735      1.87735        -0.006778      0.009361      0.009361
      5.97737      5.81399      1.90297        -0.006687      0.009859      0.006737
      5.97737      1.90297      5.81399        -0.006687      0.006737      0.009859
     10.05262      1.87026      1.87026        -0.008399      0.010193      0.010193
      1.92507      0.10679      0.10679        -0.006778     -0.009361     -0.009361
      5.97737      4.04944      0.13841        -0.006687     -0.006737     -0.009859
      5.97737      0.13841      4.04944        -0.006687     -0.009859     -0.006737
     10.05262      0.11388      0.11388        -0.008399     -0.010193     -0.010193
      8.20059     -2.06926      4.05340        -0.009055     -0.001194      0.001194
     12.27795      1.88237      4.07004        -0.010665     -0.000046      0.000046
      4.14774      1.86426      4.08815         0.000408      0.008144     -0.008144
      8.23048      1.85111      0.13302        -0.003976     -0.003828      0.003828
      8.20059      4.05340     -2.06926        -0.009055      0.001194     -0.001194
      4.14774      4.08815      1.86426         0.000408     -0.008144      0.008144
     12.27795      4.07004      1.88237        -0.010665      0.000046     -0.000046
      8.23048      0.13302      1.85111        -0.003976      0.003828     -0.003828
    total drift:                               -0.000000      0.000000     -0.000000

  FREE ENERGIE OF THE ION-ELECTRON SYSTEM (eV)
  free  energy   TOTEN  =      -335.0143372252 eV

  energy  without entropy=     -334.9965172642  energy(sigma->0) =     -335.00542724

 Quasi-Newton relaxation of ions (Broydens 2nd method)
  g(Force)  = 0.309E-03   g(Stress)= 0.545E-03

 Reset! Starting new Quasi-Newton update for ions

 reached required accuracy - stopping structural energy minimisation

volume of typ            1:     9.3 %

[...]

volume of typ            3:    10.3 %

total charge

# of ion       s       p       d       tot
    1        2.114   0.339   0.126   2.579
    2        2.114   0.336   0.126   2.576
    3        2.114   0.336   0.126   2.576
    4        2.114   0.339   0.126   2.579
    5        2.114   0.336   0.126   2.576
    6        2.114   0.336   0.126   2.576
    7        0.287   0.395   7.840   8.521
    8        0.289   0.401   7.837   8.526
    9        0.289   0.401   7.837   8.526
   10        0.287   0.395   7.840   8.521
   11        0.287   0.395   7.840   8.521
   12        0.289   0.401   7.837   8.526
   13        0.289   0.401   7.837   8.526
   14        0.287   0.395   7.840   8.521
   15        0.283   0.386   7.839   8.508
   16        0.283   0.386   7.839   8.508
   17        0.289   0.396   7.833   8.518
   18        0.289   0.396   7.833   8.518
   19        0.283   0.386   7.839   8.508
   20        0.289   0.396   7.833   8.518
   21        0.283   0.386   7.839   8.508
   22        0.289   0.396   7.833   8.518
   23        1.265   2.778   0.007   4.049
   24        1.265   2.780   0.007   4.051
   25        1.265   2.780   0.007   4.051
   26        1.285   2.719   0.008   4.012
   27        1.265   2.778   0.007   4.049
   28        1.265   2.780   0.007   4.051
   29        1.265   2.780   0.007   4.051
   30        1.285   2.719   0.008   4.012
   31        1.267   2.776   0.007   4.050
   32        1.267   2.773   0.007   4.047
   33        1.268   2.773   0.007   4.048
   34        1.286   2.716   0.008   4.010
   35        1.267   2.776   0.007   4.050
   36        1.268   2.773   0.007   4.048
   37        1.267   2.773   0.007   4.047
   38        1.286   2.716   0.008   4.010
   39        1.265   2.778   0.007   4.049
   40        1.265   2.780   0.007   4.051
   41        1.265   2.780   0.007   4.051
   42        1.285   2.719   0.008   4.012
   43        1.265   2.778   0.007   4.049
   44        1.265   2.780   0.007   4.051
   45        1.265   2.780   0.007   4.051
   46        1.285   2.719   0.008   4.012
   47        1.268   2.773   0.007   4.048
   48        1.286   2.716   0.008   4.010
   49        1.267   2.776   0.007   4.050
   50        1.267   2.773   0.007   4.047
   51        1.268   2.773   0.007   4.048
   52        1.267   2.776   0.007   4.050
   53        1.286   2.716   0.008   4.010
   54        1.267   2.773   0.007   4.047
tot          57.94   96.71  126.38  281.03

magnetization (x)

# of ion       s       p       d       tot
    1        0.000   0.003  -0.000   0.004
    2        0.000   0.002  -0.000   0.002
    3        0.000   0.002  -0.000   0.002
    4        0.000   0.003  -0.000   0.004
    5        0.000   0.002  -0.000   0.002
    6        0.000   0.002  -0.000   0.002
    7       -0.000   0.000   0.078   0.078
    8       -0.000   0.000   0.080   0.080
    9       -0.000   0.000   0.080   0.080
   10       -0.000   0.000   0.078   0.078
   11       -0.000   0.000   0.078   0.078
   12       -0.000   0.000   0.080   0.080
   13       -0.000   0.000   0.080   0.080
   14       -0.000   0.000   0.078   0.078
   15       -0.000  -0.000   0.156   0.156
   16       -0.000  -0.000   0.156   0.156
   17       -0.000   0.000   0.006   0.006
   18       -0.000   0.000   0.006   0.006
   19       -0.000  -0.000   0.156   0.156
   20       -0.000   0.000   0.006   0.006
   21       -0.000  -0.000   0.156   0.156
   22       -0.000   0.000   0.006   0.006
   23        0.001   0.011   0.000   0.012
   24        0.001   0.008   0.000   0.009
   25        0.001   0.008   0.000   0.009
   26        0.001   0.011   0.000   0.011
   27        0.001   0.011   0.000   0.012
   28        0.001   0.008   0.000   0.009
   29        0.001   0.008   0.000   0.009
   30        0.001   0.011   0.000   0.011
   31        0.002   0.018   0.000   0.021
   32       -0.000   0.001   0.000   0.001
   33        0.002   0.016   0.000   0.018
   34        0.000  -0.001   0.000  -0.000
   35        0.002   0.018   0.000   0.021
   36        0.002   0.016   0.000   0.018
   37       -0.000   0.001   0.000   0.001
   38        0.000  -0.001   0.000  -0.000
   39        0.001   0.011   0.000   0.012
   40        0.001   0.008   0.000   0.009
   41        0.001   0.008   0.000   0.009
   42        0.001   0.011   0.000   0.011
   43        0.001   0.011   0.000   0.012
   44        0.001   0.008   0.000   0.009
   45        0.001   0.008   0.000   0.009
   46        0.001   0.011   0.000   0.011
   47        0.002   0.016   0.000   0.018
   48        0.000  -0.001   0.000  -0.000
   49        0.002   0.018   0.000   0.021
   50       -0.000   0.001   0.000   0.001
   51        0.002   0.016   0.000   0.018
   52        0.002   0.018   0.000   0.021
   53        0.000  -0.001   0.000  -0.000
   54       -0.000   0.001   0.000   0.001
tot           0.03    0.30    1.28    1.62