 vasp.5.4.4.18Apr17-6-g9f103f2a35 (build May 12 2020 05:39:39) gamma-only

 MD_VERSION_INFO: Compiled 2020-05-12T12:39:39-UTC in devlin.sd.materialsdesign.
 com:/home/medea2/data/build/wwolf/vasp-gpu5.4.4/13047/x86_64/src/src/build/gam
 from svn 13047

 executed on                        Lin64 date 2023.02.09  12:55:17

 INCAR:
 POTCAR:    PAW_PBE Li_sv 10Sep2004
 POTCAR:    PAW_PBE Ni 02Aug2007
 POTCAR:    PAW_PBE O 08Apr2002

 POTCAR:    PAW_PBE Li_sv 10Sep2004

 POTCAR:    PAW_PBE Ni 02Aug2007

 POTCAR:    PAW_PBE O 08Apr2002

 Optimization of the real space projectors (new method)

 maximal supplied QI-value         = 22.11
 optimisation between [QCUT,QGAM] = [ 11.28, 22.77] = [ 35.61,145.23] Ry
 Optimized for a Real-space Cutoff    1.10 Angstroem

   l    n(q)    QCUT    max X(q) W(low)/X(q) W(high)/X(q)  e(spline)
   0      7    11.276    10.506    0.54E-04    0.58E-04    0.16E-07
   0      7    11.276     8.367    0.11E-03    0.14E-03    0.35E-07
   1      7    11.276     8.983    0.23E-03    0.43E-03    0.86E-07
 Optimization of the real space projectors (new method)

[...]

   l    n(q)    QCUT    max X(q) W(low)/X(q) W(high)/X(q)  e(spline)
   2      9    11.376    60.317    0.17E-03    0.16E-04    0.16E-06
   2      9    11.376    55.921    0.17E-03    0.16E-04    0.17E-06
   0     10    11.376    51.690    0.45E-04    0.60E-04    0.21E-06
   0     10    11.376    30.015    0.37E-04    0.55E-04    0.19E-06
   1     10    11.376    18.849    0.83E-04    0.11E-03    0.92E-07
   1     10    11.376    14.624    0.69E-04    0.92E-04    0.82E-07
 Optimization of the real space projectors (new method)

 maximal supplied QI-value         = 24.76
 optimisation between [QCUT,QGAM] = [ 11.39, 22.77] = [ 36.31,145.25] Ry
 Optimized for a Real-space Cutoff    1.10 Angstroem

   l    n(q)    QCUT    max X(q) W(low)/X(q) W(high)/X(q)  e(spline)
   0      7    11.387    20.381    0.22E-03    0.48E-03    0.18E-06
   0      7    11.387    15.268    0.22E-03    0.52E-03    0.19E-06
   1      7    11.387     5.964    0.22E-03    0.73E-03    0.24E-06
   1      7    11.387     5.382    0.19E-03    0.60E-03    0.21E-06

  PAW_PBE Li_sv 10Sep2004               :
  PAW_PBE Ni 02Aug2007                  :
  PAW_PBE O 08Apr2002                   :

 POSCAR: ce171_1
  positions in direct lattice
 exchange correlation table for  LEXCH =       14
   RHO(1)=    0.500       N(1)  =     2000
   RHO(2)=  100.500       N(2)  =     4000

 ion  position               nearest neighbor table
   1  0.184  0.439  0.375-  38 1.90  45 1.91  48 1.94  51 1.94
   2  0.438  0.194  0.875-  52 1.91  39 1.91  42 1.93  49 1.93
   3  0.691  0.939  0.375-  53 1.90  46 1.91  43 1.94  40 1.94
   4  0.309  0.057  0.628-  22 1.91  34 1.91  30 1.91  26 1.93
   5  0.566  0.810  0.122-  35 1.91  23 1.91  27 1.91  31 1.93
   6  0.001  0.000  0.000-  50 1.87  37 1.87  42 1.88  27 1.88  46 1.91  30 1.91  11 2.81  10 2.82
                            14 2.82  16 2.83  18 2.83  21 2.83
   7  0.248  0.749  0.502-  28 1.86  34 1.87  43 1.87  51 1.87  47 1.90  31 1.91  11 2.80  18 2.81
                            19 2.82  12 2.82  17 2.82  15 2.84
   8  0.501  0.502  0.999-  29 1.87  44 1.87  35 1.88  52 1.88  32 1.90  48 1.91  13 2.81  19 2.81
                            20 2.82  14 2.83  16 2.83  12 2.83
   9  0.749  0.251  0.498-  36 1.85  26 1.86  53 1.87  45 1.87  33 1.90  49 1.92  10 2.80  20 2.81
                            15 2.81  13 2.82  21 2.83  17 2.85
  10  0.875  0.624  0.249-  33 1.87  36 1.89  50 1.89  46 1.89  23 1.90  38 1.90   9 2.80  14 2.80
                            15 2.81  20 2.82   6 2.82  18 2.85
  11  0.124  0.375  0.751-  24 1.86  47 1.86  30 1.88  39 1.88  37 1.88  51 1.90  16 2.78   7 2.80
                             6 2.81  15 2.82  21 2.83  19 2.83
  12  0.375  0.124  0.250-  25 1.87  34 1.89  40 1.89  52 1.89  31 1.91  48 1.91  17 2.81  18 2.81
                             7 2.82  16 2.82   8 2.83  20 2.84
  13  0.625  0.876  0.750-  41 1.86  32 1.87  22 1.88  49 1.88  53 1.88  35 1.89  17 2.80  14 2.81
                             8 2.81   9 2.82  21 2.82  19 2.83
  14  0.250  0.750  0.000-  50 1.86  29 1.87  35 1.88  42 1.88  38 1.88  22 1.89  10 2.80  13 2.81
                            19 2.81  18 2.82   6 2.82   8 2.83
  15  0.500  0.499  0.500-  36 1.87  23 1.89  51 1.89  39 1.89  26 1.91  43 1.91  10 2.81   9 2.81
                            20 2.82  11 2.82  19 2.83   7 2.84
  16  0.751  0.251  0.999-  37 1.86  44 1.86  27 1.88  52 1.88  24 1.88  40 1.90  11 2.78  20 2.80
                            21 2.81  12 2.82   6 2.83   8 2.83
  17  1.000  0.998  0.501-  28 1.87  25 1.89  41 1.89  45 1.89  34 1.90  53 1.90  18 2.80  13 2.80
                            12 2.81   7 2.82  21 2.82   9 2.85
  18  0.126  0.874  0.252-  25 1.85  31 1.86  38 1.87  46 1.87  28 1.90  42 1.92  17 2.80   7 2.81
                            12 2.81  14 2.82   6 2.83  10 2.85
  19  0.374  0.625  0.751-  32 1.87  47 1.87  22 1.88  39 1.88  29 1.90  43 1.91  14 2.81   8 2.81
                             7 2.82  13 2.83  11 2.83  15 2.83
  20  0.627  0.376  0.248-  33 1.86  23 1.87  48 1.87  40 1.87  44 1.90  26 1.91  16 2.80   9 2.81
                             8 2.82  15 2.82  10 2.82  12 2.84
  21  0.874  0.126  0.750-  41 1.87  24 1.87  49 1.88  30 1.88  45 1.91  27 1.91  16 2.81  17 2.82
                            13 2.82  11 2.83   9 2.83   6 2.83
  22  0.384  0.854  0.762-  19 1.88  13 1.88  14 1.89   4 1.91
  23  0.632  0.601  0.262-  20 1.87  15 1.89  10 1.90   5 1.91
  24  0.886  0.352  0.762-  11 1.86  21 1.87  16 1.88
  25  0.136  0.099  0.263-  18 1.85  12 1.87  17 1.89
  26  0.521  0.266  0.489-   9 1.86  15 1.91  20 1.91   4 1.93
  27  0.771  0.021  0.990-  16 1.88   6 1.88  21 1.91   5 1.91
  28  0.023  0.770  0.490-   7 1.86  17 1.87  18 1.90
  29  0.273  0.523  0.990-  14 1.87   8 1.87  19 1.90
  30  0.104  0.136  0.760-  11 1.88  21 1.88   6 1.91   4 1.91
  31  0.354  0.881  0.261-  18 1.86  12 1.91   7 1.91   5 1.93
  32  0.602  0.638  0.760-  13 1.87  19 1.87   8 1.90
  33  0.852  0.386  0.260-  20 1.86  10 1.87   9 1.90
  34  0.243  0.988  0.488-   7 1.87  12 1.89  17 1.90   4 1.91
  35  0.491  0.741  0.988-   8 1.88  14 1.88  13 1.89   5 1.91
  36  0.739  0.487  0.487-   9 1.85  15 1.87  10 1.89
  37  0.989  0.239  0.988-  16 1.86   6 1.87  11 1.88
  38  0.117  0.648  0.238-  18 1.87  14 1.88  10 1.90   1 1.90
  39  0.365  0.398  0.738-  19 1.88  11 1.88  15 1.89   2 1.91
  40  0.616  0.148  0.238-  20 1.87  12 1.89  16 1.90   3 1.94
  41  0.863  0.899  0.738-  13 1.86  21 1.87  17 1.89
  42  0.230  0.980  0.010-   6 1.88  14 1.88  18 1.92   2 1.93
  43  0.477  0.732  0.511-   7 1.87  19 1.91  15 1.91   3 1.94
  44  0.729  0.478  0.009-  16 1.86   8 1.87  20 1.90
  45  0.977  0.230  0.510-   9 1.87  17 1.89  21 1.91   1 1.91
  46  0.898  0.864  0.240-  18 1.87  10 1.89   6 1.91   3 1.91
  47  0.146  0.612  0.741-  11 1.86  19 1.87   7 1.90
  48  0.398  0.368  0.239-  20 1.87   8 1.91  12 1.91   1 1.94
  49  0.645  0.115  0.740-  21 1.88  13 1.88   9 1.92   2 1.93
  50  0.012  0.762  0.012-  14 1.86   6 1.87  10 1.89
  51  0.259  0.511  0.512-   7 1.87  15 1.89  11 1.90   1 1.94
  52  0.510  0.261  0.012-   8 1.88  16 1.88  12 1.89   2 1.91
  53  0.758  0.011  0.512-   9 1.87  13 1.88  17 1.90   3 1.90

  LATTYP: Found a base centered monoclinic cell.
 ALAT       =    17.7557882249
 B/A-ratio  =     0.4506059880
 C/A-ratio  =     0.8907837034
 COS(beta)  =    -0.8140318382

  Lattice vectors:

 A1 = (   4.0164941304,   7.9173719612,  -4.0004322476)
 A2 = (   4.0164941304,   7.9173719612,   4.0004322476)
 A3 = (  -0.0368176026, -15.8165239408,  -0.0000000000)

Analysis of symmetry for initial positions (statically):
 Subroutine PRICEL returns:
 Original cell was already a primitive cell.

 Routine SETGRP: Setting up the symmetry group for a
 base centered monoclinic supercell.

 Subroutine GETGRP returns: Found  2 space group operations
 (whereof  1 operations were pure point group operations)
 out of a pool of  4 trial point group operations.

The static configuration has the point symmetry C_1 .
 The point group associated with its full space group is C_2 .

Analysis of symmetry for dynamics (positions and initial velocities):
 Subroutine PRICEL returns:
 Original cell was already a primitive cell.

[...]

The dynamic configuration has the point symmetry C_1 .
 The point group associated with its full space group is C_2 .

Analysis of structural, dynamic, and magnetic symmetry:
 Subroutine PRICEL returns:
 Original cell was already a primitive cell.

 Routine SETGRP: Setting up the symmetry group for a
 base centered monoclinic supercell.

 Subroutine GETGRP returns: Found  2 space group operations
 (whereof  1 operations were pure point group operations)
 out of a pool of  4 trial point group operations.

The magnetic configuration has the point symmetry C_1 .
 The point group associated with its full space group is C_2 .

 Subroutine INISYM returns: Found  2 space group operations
 (whereof  1 operations are pure point group operations),
 and found     1 'primitive' translations

 KPOINTS: Automatic mesh

Automatic generation of k-mesh.
Space group operators:
 irot       det(A)        alpha          n_x          n_y          n_z        tau_x        tau_y        tau_z
    1     1.000000     0.000000     1.000000     0.000000     0.000000     0.000000     0.000000     0.000000
    2     1.000000   179.999999     0.000000     0.000000     1.000000     0.875000     0.125000    -0.250000

 Subroutine IBZKPT returns following result:

 Found      1 irreducible k-points:

 Following reciprocal coordinates:
            Coordinates               Weight
  0.000000  0.000000  0.000000      1.000000

 Following cartesian coordinates:
            Coordinates               Weight
  0.000000  0.000000  0.000000      1.000000

 SYSTEM =  unknown system
 POSCAR =  ce171_1

 Startparameter for this run:
   NWRITE =      1    write-flag & timer
   PREC   = accura    normal or accurate (medium, high low for compatibility)
   ISTART =      0    job   : 0-new  1-cont  2-samecut
   ICHARG =      2    charge: 1-file 2-atom 10-const
   ISPIN  =      2    spin polarized calculation?
   LNONCOLLINEAR =      F non collinear calculations
   LSORBIT =      F    spin-orbit coupling
   INIWAV =      1    electr: 0-lowe 1-rand  2-diag
   LASPH  =      F    aspherical Exc in radial PAW
   METAGGA=      F    non-selfconsistent MetaGGA calc.

 Electronic Relaxation 1
   ENCUT  =  500.0 eV  36.75 Ry    6.06 a.u.  14.58 14.59 17.75*2*pi/ulx,y,z
   ENINI  =  500.0     initial cutoff
   ENAUG  =  628.9 eV  augmentation charge cutoff
   NELM   =     80;   NELMIN=  2; NELMDL= -5     # of ELM steps
   EDIFF  = 0.1E-04   stopping-criterion for ELM
   LREAL  =      T    real-space projection
   NLSPLINE    = F    spline interpolate recip. space projectors
   LCOMPAT=      F    compatible to vasp.4.4
   GGA_COMPAT  = T    GGA compatible to vasp.4.4-vasp.4.6
   LMAXPAW     = -100 max onsite density
   LMAXMIX     =    2 max onsite mixed and CHGCAR
   VOSKOWN=      1    Vosko Wilk Nusair interpolation
   ROPT   =   -0.00025  -0.00025  -0.00025
[...]
   0.459E-05 0.763E-05 0.780E+01   -.236E-05 -.453E-05 -.780E+01   -.136E-19 0.000E+00 -.341E-02   0.262E-05 0.371E-05 0.989E-03
   -.567E+01 0.144E+01 -.288E+01   0.576E+01 -.138E+01 0.286E+01   -.990E-01 -.635E-01 0.285E-01   0.137E-02 0.228E-02 -.191E-02
   0.585E+01 -.347E+01 -.155E+01   -.580E+01 0.343E+01 0.157E+01   -.568E-01 0.316E-01 -.291E-01   0.308E-02 0.155E-02 0.424E-02
   -.585E+01 0.347E+01 -.155E+01   0.580E+01 -.343E+01 0.157E+01   0.568E-01 -.316E-01 -.291E-01   -.308E-02 -.155E-02 0.423E-02
   0.327E+01 -.231E+01 0.168E+01   -.324E+01 0.247E+01 -.167E+01   -.405E-01 -.155E+00 -.883E-02   0.785E-02 0.339E-02 -.780E-02
   0.289E+02 -.386E+02 0.199E+01   -.291E+02 0.391E+02 -.185E+01   0.178E+00 -.468E+00 -.141E+00   -.134E-01 0.950E-02 -.687E-02
   -.108E+02 0.246E+02 -.175E+02   0.110E+02 -.247E+02 0.177E+02   -.200E+00 0.178E+00 -.230E+00   -.296E-02 -.145E-01 -.223E-01
   -.307E+02 0.108E+02 0.582E+01   0.311E+02 -.109E+02 -.569E+01   -.430E+00 0.137E+00 -.122E+00   -.265E-02 -.891E-02 0.186E-02
   -.948E+01 0.126E+02 -.124E+02   0.978E+01 -.128E+02 0.125E+02   -.301E+00 0.201E+00 -.114E+00   0.255E-02 0.433E-02 0.147E-01
   0.123E+02 -.229E+02 0.360E+02   -.125E+02 0.231E+02 -.366E+02   0.217E+00 -.210E+00 0.611E+00   -.127E-01 0.105E-01 -.177E-01
   0.182E+02 0.148E+02 0.150E+02   -.183E+02 -.150E+02 -.153E+02   0.954E-01 0.180E+00 0.323E+00   -.797E-02 0.802E-02 0.243E-02
   -.288E+02 0.280E+01 -.304E+02   0.293E+02 -.298E+01 0.307E+02   -.450E+00 0.166E+00 -.375E+00   -.177E-01 0.118E-01 0.124E-01
   0.288E+02 -.280E+01 -.304E+02   -.293E+02 0.298E+01 0.307E+02   0.450E+00 -.166E+00 -.375E+00   0.177E-01 -.118E-01 0.124E-01
   -.182E+02 -.148E+02 0.150E+02   0.183E+02 0.150E+02 -.153E+02   -.954E-01 -.180E+00 0.323E+00   0.797E-02 -.802E-02 0.243E-02
   -.123E+02 0.229E+02 0.360E+02   0.125E+02 -.231E+02 -.366E+02   -.217E+00 0.210E+00 0.611E+00   0.127E-01 -.105E-01 -.177E-01
   0.948E+01 -.126E+02 -.124E+02   -.978E+01 0.128E+02 0.125E+02   0.301E+00 -.201E+00 -.114E+00   -.255E-02 -.433E-02 0.147E-01
   0.307E+02 -.108E+02 0.582E+01   -.311E+02 0.109E+02 -.569E+01   0.430E+00 -.137E+00 -.122E+00   0.265E-02 0.892E-02 0.186E-02
   0.108E+02 -.246E+02 -.175E+02   -.110E+02 0.247E+02 0.177E+02   0.200E+00 -.178E+00 -.230E+00   0.296E-02 0.145E-01 -.223E-01
   -.289E+02 0.386E+02 0.199E+01   0.291E+02 -.391E+02 -.185E+01   -.178E+00 0.468E+00 -.141E+00   0.134E-01 -.949E-02 -.687E-02
   -.327E+01 0.231E+01 0.168E+01   0.324E+01 -.247E+01 -.167E+01   0.405E-01 0.155E+00 -.883E-02   -.786E-02 -.339E-02 -.780E-02
   0.187E+03 0.172E+03 0.162E+03   -.197E+03 -.181E+03 -.172E+03   0.101E+02 0.985E+01 0.982E+01   0.284E-02 0.284E-02 0.152E-01
   0.159E+03 0.190E+03 0.174E+03   -.169E+03 -.200E+03 -.185E+03   0.945E+01 0.100E+02 0.103E+02   0.528E-02 -.217E-01 0.194E-01
   0.208E+03 0.206E+03 0.221E+03   -.223E+03 -.221E+03 -.236E+03   0.150E+02 0.148E+02 0.152E+02   -.195E-02 -.218E-02 -.148E-01
   0.213E+03 0.207E+03 0.215E+03   -.228E+03 -.221E+03 -.230E+03   0.147E+02 0.142E+02 0.153E+02   -.215E-01 0.562E-02 0.764E-02
   0.176E+03 -.174E+03 -.169E+03   -.187E+03 0.183E+03 0.178E+03   0.108E+02 -.900E+01 -.937E+01   0.111E-01 -.147E-01 0.225E-01
   0.167E+03 -.169E+03 -.182E+03   -.176E+03 0.179E+03 0.192E+03   0.961E+01 -.925E+01 -.102E+02   -.822E-02 0.707E-02 0.120E-02
   0.215E+03 -.223E+03 -.203E+03   -.231E+03 0.238E+03 0.217E+03   0.155E+02 -.145E+02 -.147E+02   0.124E-01 -.189E-02 -.110E-02
   0.218E+03 -.203E+03 -.215E+03   -.233E+03 0.217E+03 0.230E+03   0.152E+02 -.141E+02 -.149E+02   0.902E-02 -.139E-01 -.389E-02
   -.167E+03 0.169E+03 -.182E+03   0.176E+03 -.179E+03 0.192E+03   -.961E+01 0.925E+01 -.102E+02   0.822E-02 -.707E-02 0.120E-02
   -.176E+03 0.174E+03 -.169E+03   0.187E+03 -.183E+03 0.178E+03   -.108E+02 0.900E+01 -.937E+01   -.111E-01 0.147E-01 0.225E-01
   -.218E+03 0.203E+03 -.215E+03   0.233E+03 -.217E+03 0.230E+03   -.152E+02 0.141E+02 -.149E+02   -.902E-02 0.139E-01 -.388E-02
   -.215E+03 0.223E+03 -.203E+03   0.231E+03 -.238E+03 0.217E+03   -.155E+02 0.145E+02 -.147E+02   -.124E-01 0.189E-02 -.110E-02
   -.159E+03 -.190E+03 0.174E+03   0.169E+03 0.200E+03 -.185E+03   -.945E+01 -.100E+02 0.103E+02   -.528E-02 0.217E-01 0.194E-01
   -.187E+03 -.172E+03 0.162E+03   0.197E+03 0.181E+03 -.172E+03   -.101E+02 -.985E+01 0.982E+01   -.284E-02 -.284E-02 0.152E-01
   -.213E+03 -.207E+03 0.215E+03   0.228E+03 0.221E+03 -.230E+03   -.147E+02 -.142E+02 0.153E+02   0.215E-01 -.562E-02 0.764E-02
   -.208E+03 -.206E+03 0.221E+03   0.223E+03 0.221E+03 -.236E+03   -.150E+02 -.148E+02 0.152E+02   0.195E-02 0.218E-02 -.148E-01
   -.157E+03 -.187E+03 -.186E+03   0.165E+03 0.197E+03 0.197E+03   -.889E+01 -.105E+02 -.102E+02   -.227E-02 -.176E-04 -.350E-02
   -.181E+03 -.189E+03 -.161E+03   0.191E+03 0.198E+03 0.170E+03   -.101E+02 -.978E+01 -.967E+01   0.370E-02 0.233E-01 -.162E-01
   -.187E+03 -.167E+03 -.173E+03   0.197E+03 0.176E+03 0.183E+03   -.966E+01 -.986E+01 -.100E+02   0.240E-01 0.329E-02 -.188E-01
   -.212E+03 -.205E+03 -.220E+03   0.227E+03 0.219E+03 0.235E+03   -.150E+02 -.142E+02 -.152E+02   -.497E-02 -.312E-02 0.148E-01
   -.166E+03 0.171E+03 0.189E+03   0.176E+03 -.179E+03 -.199E+03   -.995E+01 0.877E+01 0.104E+02   0.109E-01 0.472E-02 0.344E-02
   -.190E+03 0.167E+03 0.167E+03   0.201E+03 -.176E+03 -.175E+03   -.106E+02 0.918E+01 0.859E+01   -.122E-01 0.138E-01 -.263E-01
   -.216E+03 0.222E+03 0.205E+03   0.231E+03 -.236E+03 -.220E+03   -.154E+02 0.146E+02 0.151E+02   -.607E-02 0.886E-02 -.796E-02
   -.171E+03 0.183E+03 0.176E+03   0.181E+03 -.193E+03 -.185E+03   -.965E+01 0.995E+01 0.938E+01   -.107E-01 -.109E-01 0.253E-02
   0.171E+03 -.183E+03 0.176E+03   -.181E+03 0.193E+03 -.185E+03   0.965E+01 -.995E+01 0.938E+01   0.107E-01 0.109E-01 0.253E-02
   0.216E+03 -.222E+03 0.205E+03   -.231E+03 0.236E+03 -.220E+03   0.154E+02 -.146E+02 0.151E+02   0.607E-02 -.886E-02 -.796E-02
   0.190E+03 -.167E+03 0.167E+03   -.201E+03 0.176E+03 -.175E+03   0.106E+02 -.918E+01 0.859E+01   0.122E-01 -.138E-01 -.263E-01
   0.166E+03 -.171E+03 0.189E+03   -.176E+03 0.179E+03 -.199E+03   0.995E+01 -.877E+01 0.104E+02   -.109E-01 -.472E-02 0.344E-02
   0.212E+03 0.205E+03 -.220E+03   -.227E+03 -.219E+03 0.235E+03   0.150E+02 0.142E+02 -.152E+02   0.497E-02 0.312E-02 0.148E-01
   0.187E+03 0.167E+03 -.173E+03   -.197E+03 -.176E+03 0.183E+03   0.966E+01 0.986E+01 -.100E+02   -.240E-01 -.329E-02 -.188E-01
   0.181E+03 0.189E+03 -.161E+03   -.191E+03 -.198E+03 0.170E+03   0.101E+02 0.978E+01 -.967E+01   -.370E-02 -.233E-01 -.162E-01
   0.157E+03 0.187E+03 -.186E+03   -.165E+03 -.197E+03 0.197E+03   0.889E+01 0.105E+02 -.102E+02   0.227E-02 0.184E-04 -.350E-02
   0.113E-03 0.272E-03 0.225E+00   0.142E-12 -.483E-12 -.284E-13   0.213E-13 -.178E-14 -.168E+00   0.105E-05 0.221E-05 -.524E-01

 POSITION                                       TOTAL-FORCE (eV/Angst)
      2.97477      2.97283     -5.01053         0.003875      0.003973      0.006265
      7.01276      6.93567     -5.05066        -0.000000     -0.000000     -0.003238
      7.03424      2.98114     -9.01096        -0.003875     -0.003973      0.006265
      4.99061      4.97469     -2.96923        -0.005709     -0.000163     -0.004128
      5.01841      0.97928     -6.96966         0.005709      0.000163     -0.004128
      0.00654      0.00302     -0.00387         0.001027      0.004735     -0.007200
      4.00175      3.97754     -7.99853        -0.005813     -0.011462     -0.004096
      8.01988      7.91627     -8.00789         0.004619      0.006924      0.005176
      7.99202      3.95986     -4.00028         0.003664     -0.007613      0.007253
      7.99919      1.99095     -5.99011        -0.001581      0.007060      0.000469
      4.00588      5.95007     -6.00560         0.003882     -0.002933     -0.001771
      4.00381      1.98815     -1.99093         0.004455      0.005331      0.004868
      8.00708      5.94600    -10.00633        -0.006663     -0.001858     -0.004040
      2.00194      0.00797     -6.00590         0.006663      0.001858     -0.004040
      6.00521      3.96582     -5.99136        -0.004455     -0.005331      0.004868
     10.01963      7.92127     -6.00560        -0.003882      0.002933     -0.001771
     10.00600      3.98125     -9.99054         0.001581     -0.007060      0.000469
      2.01700      1.99411     -8.00071        -0.003664      0.007613      0.007253
      6.00564      5.95507     -8.00789        -0.004619     -0.006924      0.005176
      6.00727      1.97643     -3.99809         0.005813      0.011462     -0.004096
     10.00248      5.95095     -4.00431        -0.001027     -0.004735     -0.007200
      6.13398      6.04326     -9.87892         0.010240     -0.007764      0.008509
      6.10893      2.08637     -5.86020         0.005039      0.002777      0.007046
     10.14729      6.04800     -5.86473         0.004044     -0.003681      0.006848
      2.14326      2.08540     -1.84473         0.000236     -0.002309      0.003797
      6.13110      3.88444     -4.08762         0.004086     -0.008370     -0.001735
     10.14377      7.85444     -4.12990         0.009475      0.002282     -0.006448
      2.15311      3.88091     -8.12528         0.008956     -0.002044      0.002708
      6.15860      7.84264     -8.14687         0.006821     -0.002187     -0.001677
      3.88175      6.01691     -4.12990        -0.009475     -0.002282     -0.006448
      3.87792      2.06954     -8.08805        -0.004086      0.008370     -0.001735
      7.86691      6.02870     -8.14687        -0.006821      0.002187     -0.001677
      7.85591      2.07306     -4.12485        -0.008956      0.002044      0.002708
      3.90009      3.86760     -9.86063        -0.005039     -0.002777      0.007046
      7.89153      7.82808     -9.87892        -0.010240      0.007764      0.008509
      7.86576      3.86857     -5.84516        -0.000236      0.002309      0.003797
     11.87440      7.84156     -5.86473        -0.004044      0.003681      0.006848
      1.89285      1.88439     -6.13693         0.006159      0.006604     -0.007101
      5.88025      5.84830     -6.13596        -0.002020      0.004642     -0.007602
      5.88417      1.89441     -2.13358         0.000684      0.004956     -0.005531
      9.86176      5.85831    -10.14509        -0.009783      0.010032     -0.008975
      1.88033      0.08043     -7.88211        -0.008545     -0.005648      0.006307
      5.86607      4.05388     -7.89743        -0.005089      0.000387      0.000932
      5.86509      0.08823     -3.86165        -0.004373      0.005057      0.003949
      9.86003      4.05474     -3.87665        -0.005031     -0.001384     -0.002204
      8.14516      1.91745     -7.87708         0.005031      0.001384     -0.002204
      4.14393      5.86575     -7.86209         0.004373     -0.005057      0.003949
      4.14295      1.90010     -3.89699         0.005089     -0.000387      0.000932
      8.12869      5.87354     -3.88167         0.008545      0.005648      0.006307
      0.14726      0.09567     -6.14466         0.009783     -0.010032     -0.008975
      4.12485      4.05956     -6.13401        -0.000684     -0.004956     -0.005531
      4.12877      0.10567     -2.13552         0.002020     -0.004642     -0.007602
      8.11617      4.06958     -2.13650        -0.006159     -0.006604     -0.007101
    total drift:                                0.000114      0.000274      0.004685

  FREE ENERGIE OF THE ION-ELECTRON SYSTEM (eV)
  free  energy   TOTEN  =      -327.3764957037 eV

  energy  without entropy=     -327.3514855614  energy(sigma->0) =     -327.36399063

 Quasi-Newton relaxation of ions (Broydens 2nd method)
  g(Force)  = 0.233E-03   g(Stress)= 0.862E-04

 Reset! Starting new Quasi-Newton update for ions

 reached required accuracy - stopping structural energy minimisation

volume of typ            1:     7.7 %

[...]

volume of typ            3:    10.3 %

total charge

# of ion       s       p       d       tot
    1        2.113   0.328   0.124   2.565
    2        2.113   0.331   0.125   2.569
    3        2.113   0.328   0.124   2.565
    4        2.116   0.337   0.128   2.581
    5        2.116   0.337   0.128   2.581
    6        0.289   0.393   7.826   8.508
    7        0.293   0.402   7.822   8.517
    8        0.290   0.395   7.823   8.509
    9        0.292   0.401   7.824   8.517
   10        0.286   0.386   7.828   8.501
   11        0.294   0.402   7.822   8.518
   12        0.284   0.383   7.833   8.500
   13        0.293   0.403   7.823   8.520
   14        0.293   0.403   7.823   8.520
   15        0.284   0.383   7.833   8.500
   16        0.294   0.402   7.822   8.518
   17        0.286   0.386   7.828   8.501
   18        0.292   0.401   7.824   8.517
   19        0.290   0.395   7.823   8.509
   20        0.293   0.402   7.822   8.517
   21        0.289   0.393   7.826   8.508
   22        1.267   2.778   0.007   4.052
   23        1.266   2.777   0.007   4.050
   24        1.283   2.725   0.008   4.016
   25        1.282   2.728   0.008   4.019
   26        1.268   2.771   0.007   4.045
   27        1.267   2.775   0.007   4.048
   28        1.284   2.721   0.008   4.013
   29        1.283   2.722   0.008   4.013
   30        1.267   2.775   0.007   4.048
   31        1.268   2.771   0.007   4.045
   32        1.283   2.722   0.008   4.013
   33        1.284   2.721   0.008   4.013
   34        1.266   2.777   0.007   4.050
   35        1.267   2.778   0.007   4.052
   36        1.282   2.728   0.008   4.019
   37        1.283   2.725   0.008   4.016
   38        1.266   2.778   0.007   4.052
   39        1.266   2.778   0.007   4.050
   40        1.268   2.775   0.007   4.049
   41        1.283   2.726   0.008   4.016
   42        1.268   2.771   0.007   4.046
   43        1.268   2.771   0.006   4.045
   44        1.284   2.719   0.008   4.011
   45        1.266   2.775   0.007   4.048
   46        1.266   2.775   0.007   4.048
   47        1.284   2.719   0.008   4.011
   48        1.268   2.771   0.006   4.045
   49        1.268   2.771   0.007   4.046
   50        1.283   2.726   0.008   4.016
   51        1.268   2.775   0.007   4.049
   52        1.266   2.778   0.007   4.050
   53        1.266   2.778   0.007   4.052
tot          55.95   96.18  126.06  278.19

magnetization (x)

# of ion       s       p       d       tot
    1        0.002   0.001   0.000   0.003
    2       -0.000  -0.001   0.000  -0.001
    3        0.002   0.001   0.000   0.003
    4        0.001   0.000   0.000   0.001
    5        0.001   0.000   0.000   0.001
    6       -0.000  -0.000  -0.086  -0.086
    7       -0.000   0.001  -0.048  -0.048
    8       -0.000   0.000  -0.041  -0.041
    9       -0.000   0.000  -0.047  -0.047
   10        0.000  -0.000   0.201   0.201
   11       -0.000   0.000   0.043   0.043
   12        0.000  -0.000   0.268   0.268
   13       -0.000   0.000   0.060   0.060
   14       -0.000   0.000   0.060   0.060
   15        0.000  -0.000   0.268   0.268
   16       -0.000   0.000   0.043   0.043
   17        0.000  -0.000   0.201   0.201
   18       -0.000   0.000  -0.047  -0.047
   19       -0.000   0.000  -0.041  -0.041
   20       -0.000   0.001  -0.048  -0.048
   21       -0.000  -0.000  -0.086  -0.086
   22        0.001   0.001   0.000   0.001
   23        0.003   0.016   0.000   0.019
   24        0.001   0.014   0.000   0.015
   25        0.001   0.004   0.000   0.006
   26        0.001   0.016   0.000   0.017
   27       -0.001  -0.007  -0.000  -0.008
   28        0.001  -0.001   0.000  -0.000
   29        0.000  -0.001  -0.000  -0.001
   30       -0.001  -0.007  -0.000  -0.008
   31        0.001   0.016   0.000   0.017
   32        0.000  -0.001  -0.000  -0.001
   33        0.001  -0.001   0.000  -0.000
   34        0.003   0.016   0.000   0.019
   35        0.001   0.001   0.000   0.001
   36        0.001   0.004   0.000   0.006
   37        0.001   0.014   0.000   0.015
   38        0.003   0.024   0.000   0.028
   39        0.001   0.004   0.000   0.004
   40        0.002   0.005   0.000   0.007
   41        0.001   0.004   0.000   0.004
   42       -0.001  -0.003  -0.000  -0.004
   43        0.003   0.017   0.000   0.020
   44       -0.000  -0.008   0.000  -0.008
   45        0.000  -0.001   0.000  -0.001
   46        0.000  -0.001   0.000  -0.001
   47       -0.000  -0.008   0.000  -0.008
   48        0.003   0.017   0.000   0.020
   49       -0.001  -0.003  -0.000  -0.004
   50        0.001   0.004   0.000   0.004
   51        0.002   0.005   0.000   0.007
   52        0.001   0.004   0.000   0.004
   53        0.003   0.024   0.000   0.028
tot           0.03    0.17    0.70    0.91