 vasp.5.4.4.18Apr17-6-g9f103f2a35 (build May 12 2020 05:39:39) gamma-only

 MD_VERSION_INFO: Compiled 2020-05-12T12:39:39-UTC in devlin.sd.materialsdesign.
 com:/home/medea2/data/build/wwolf/vasp-gpu5.4.4/13047/x86_64/src/src/build/gam
 from svn 13047

 executed on                        Lin64 date 2023.02.09  13:08:29

 INCAR:
 POTCAR:    PAW_PBE Li_sv 10Sep2004
 POTCAR:    PAW_PBE Ni 02Aug2007
 POTCAR:    PAW_PBE O 08Apr2002

 POTCAR:    PAW_PBE Li_sv 10Sep2004

 POTCAR:    PAW_PBE Ni 02Aug2007

 POTCAR:    PAW_PBE O 08Apr2002

 Optimization of the real space projectors (new method)

 maximal supplied QI-value         = 22.11
 optimisation between [QCUT,QGAM] = [ 11.28, 22.77] = [ 35.61,145.23] Ry
 Optimized for a Real-space Cutoff    1.10 Angstroem

   l    n(q)    QCUT    max X(q) W(low)/X(q) W(high)/X(q)  e(spline)
   0      7    11.276    10.506    0.54E-04    0.58E-04    0.16E-07
   0      7    11.276     8.367    0.11E-03    0.14E-03    0.35E-07
   1      7    11.276     8.983    0.23E-03    0.43E-03    0.86E-07
 Optimization of the real space projectors (new method)

[...]

   l    n(q)    QCUT    max X(q) W(low)/X(q) W(high)/X(q)  e(spline)
   2      9    11.376    60.317    0.17E-03    0.16E-04    0.16E-06
   2      9    11.376    55.921    0.17E-03    0.16E-04    0.17E-06
   0     10    11.376    51.690    0.45E-04    0.60E-04    0.21E-06
   0     10    11.376    30.015    0.37E-04    0.55E-04    0.19E-06
   1     10    11.376    18.849    0.83E-04    0.11E-03    0.92E-07
   1     10    11.376    14.624    0.69E-04    0.92E-04    0.82E-07
 Optimization of the real space projectors (new method)

 maximal supplied QI-value         = 24.76
 optimisation between [QCUT,QGAM] = [ 11.39, 22.77] = [ 36.31,145.25] Ry
 Optimized for a Real-space Cutoff    1.10 Angstroem

   l    n(q)    QCUT    max X(q) W(low)/X(q) W(high)/X(q)  e(spline)
   0      7    11.387    20.381    0.22E-03    0.48E-03    0.18E-06
   0      7    11.387    15.268    0.22E-03    0.52E-03    0.19E-06
   1      7    11.387     5.964    0.22E-03    0.73E-03    0.24E-06
   1      7    11.387     5.382    0.19E-03    0.60E-03    0.21E-06

  PAW_PBE Li_sv 10Sep2004               :
  PAW_PBE Ni 02Aug2007                  :
  PAW_PBE O 08Apr2002                   :

 POSCAR: ce125_1
  positions in direct lattice
 exchange correlation table for  LEXCH =       14
   RHO(1)=    0.500       N(1)  =     2000
   RHO(2)=  100.500       N(2)  =     4000

 ion  position               nearest neighbor table
   1  0.842  0.271  0.185-  41 1.89  37 1.89  50 1.92  47 1.98
   2  0.594  0.523  0.687-  42 1.90  38 1.90  51 1.92  48 1.99
   3  0.406  0.477  0.313-  25 1.90  21 1.90  33 1.92  29 1.99
   4  0.158  0.729  0.815-  26 1.89  22 1.89  34 1.92  30 1.98
   5  0.000  0.000  0.000-  35 1.84  49 1.84  45 1.86  32 1.86  26 1.88  41 1.88  13 2.81  15 2.81
                             9 2.81   9 2.81  17 2.81  20 2.81
   6  0.750  0.246  0.499-  36 1.84  50 1.84  46 1.86  29 1.87  27 1.88  42 1.91  16 2.78  10 2.80
                            10 2.81  17 2.82  18 2.83  14 2.84
   7  0.500  0.500  0.000-  33 1.84  51 1.84  47 1.87  30 1.87  28 1.91  43 1.91  11 2.81  11 2.81
                            15 2.82  13 2.82  19 2.84  18 2.84
   8  0.250  0.754  0.501-  52 1.84  34 1.84  31 1.86  48 1.87  44 1.88  25 1.91  16 2.78  12 2.80
                            12 2.81  20 2.82  19 2.83  14 2.84
   9  0.500  0.000  0.000-  35 1.84  49 1.84  45 1.86  32 1.86  22 1.88  37 1.88  13 2.81  15 2.81
                             5 2.81   5 2.81  17 2.81  20 2.81
  10  0.249  0.246  0.499-  36 1.84  50 1.84  46 1.86  29 1.87  23 1.88  38 1.91  16 2.78   6 2.80
                             6 2.81  17 2.82  18 2.83  14 2.84
  11  0.000  0.500  0.000-  33 1.84  51 1.84  47 1.87  30 1.87  24 1.91  39 1.91   7 2.81   7 2.81
                            15 2.82  13 2.82  19 2.84  18 2.84
  12  0.751  0.754  0.501-  52 1.84  34 1.84  31 1.86  48 1.87  40 1.88  21 1.91  16 2.78   8 2.80
                             8 2.81  20 2.82  19 2.83  14 2.84
  13  0.248  0.249  0.996-  24 1.86  28 1.86  37 1.87  41 1.87  49 1.95  33 1.98  18 2.74  17 2.79
                             5 2.81   9 2.81   7 2.82  11 2.82
  14  0.000  0.500  0.500-  21 1.87  38 1.87  25 1.87  42 1.87  34 2.01  50 2.01  18 2.77  19 2.77
                             6 2.84   8 2.84  10 2.84  12 2.84
  15  0.752  0.751  0.004-  39 1.86  43 1.86  22 1.87  26 1.87  35 1.95  51 1.98  19 2.74  20 2.79
                             5 2.81   9 2.81   7 2.82  11 2.82
  16  0.500  0.000  0.500-  23 1.87  40 1.87  27 1.87  44 1.87  36 1.91  52 1.91  17 2.75  20 2.75
                             6 2.78   8 2.78  10 2.78  12 2.78
  17  0.375  0.122  0.249-  27 1.86  23 1.86  41 1.88  37 1.88  45 1.89  29 1.91  16 2.75  13 2.79
                             9 2.81   5 2.81   6 2.82  10 2.82
  18  0.125  0.372  0.749-  28 1.85  24 1.85  42 1.88  38 1.88  46 1.90  30 1.93  13 2.74  14 2.77
                            10 2.83   6 2.83   7 2.84  11 2.84
  19  0.875  0.628  0.251-  43 1.85  39 1.85  25 1.88  21 1.88  31 1.90  47 1.93  15 2.74  14 2.77
                            12 2.83   8 2.83   7 2.84  11 2.84
  20  0.625  0.878  0.751-  44 1.86  40 1.86  26 1.88  22 1.88  32 1.89  48 1.91  16 2.75  15 2.79
                             9 2.81   5 2.81   8 2.82  12 2.82
  21  0.719  0.576  0.385-  14 1.87  19 1.88   3 1.90  12 1.91
  22  0.470  0.826  0.885-  15 1.87  20 1.88   9 1.88   4 1.89
  23  0.219  0.073  0.381-  17 1.86  16 1.87  10 1.88
  24  0.968  0.324  0.881-  18 1.85  13 1.86  11 1.91
  25  0.166  0.576  0.385-  14 1.87  19 1.88   3 1.90   8 1.91
  26  0.914  0.826  0.885-  15 1.87  20 1.88   5 1.88   4 1.89
  27  0.663  0.073  0.381-  17 1.86  16 1.87   6 1.88
  28  0.413  0.324  0.881-  18 1.85  13 1.86   7 1.91
  29  0.441  0.292  0.381-   6 1.87  10 1.87  17 1.91   3 1.99
  30  0.191  0.544  0.881-   7 1.87  11 1.87  18 1.93   4 1.98
  31  0.942  0.796  0.383-   8 1.86  12 1.86  19 1.90
  32  0.691  0.044  0.883-   5 1.86   9 1.86  20 1.89
  33  0.301  0.439  0.103-   7 1.84  11 1.84   3 1.92  13 1.98
  34  0.053  0.695  0.606-   8 1.84  12 1.84   4 1.92  14 2.01
  35  0.802  0.941  0.104-   5 1.84   9 1.84  15 1.95
  36  0.551  0.185  0.602-   6 1.84  10 1.84  16 1.91
  37  0.530  0.174  0.115-  13 1.87  17 1.88   9 1.88   1 1.89
  38  0.281  0.424  0.615-  14 1.87  18 1.88   2 1.90  10 1.91
  39  0.032  0.676  0.119-  19 1.85  15 1.86  11 1.91
  40  0.781  0.927  0.619-  20 1.86  16 1.87  12 1.88
  41  0.086  0.174  0.115-  13 1.87  17 1.88   5 1.88   1 1.89
  42  0.834  0.424  0.615-  14 1.87  18 1.88   2 1.90   6 1.91
  43  0.587  0.676  0.119-  19 1.85  15 1.86   7 1.91
  44  0.337  0.927  0.619-  20 1.86  16 1.87   8 1.88
  45  0.309  0.956  0.117-   5 1.86   9 1.86  17 1.89
  46  0.058  0.204  0.617-   6 1.86  10 1.86  18 1.90
  47  0.809  0.456  0.119-   7 1.87  11 1.87  19 1.93   1 1.98
  48  0.559  0.708  0.619-   8 1.87  12 1.87  20 1.91   2 1.99
  49  0.198  0.059  0.896-   5 1.84   9 1.84  13 1.95
  50  0.947  0.305  0.394-   6 1.84  10 1.84   1 1.92  14 2.01
  51  0.699  0.561  0.897-   7 1.84  11 1.84   2 1.92  15 1.98
  52  0.449  0.815  0.398-  12 1.84   8 1.84  16 1.91

  LATTYP: Found a base centered monoclinic cell.
 ALAT       =    18.4896110181
 B/A-ratio  =     0.3035078292
 C/A-ratio  =     1.0617615367
 COS(beta)  =    -0.8332307074

  Lattice vectors:

 A1 = (   4.0661307846,   7.8548683645,  -3.8867677517)
 A2 = (   4.0661307846,   3.8867677517,  -7.8548683645)
 A3 = ( -16.1877162404,  -7.8535312078,   7.8535312078)

Analysis of symmetry for initial positions (statically):
 Subroutine PRICEL returns:
 Original cell was already a primitive cell.

 Routine SETGRP: Setting up the symmetry group for a
 base centered monoclinic supercell.

 Subroutine GETGRP returns: Found  4 space group operations
 (whereof  2 operations were pure point group operations)
 out of a pool of  4 trial point group operations.

The static configuration has the point symmetry S_2 .
 The point group associated with its full space group is C_2h.

Analysis of symmetry for dynamics (positions and initial velocities):
 Subroutine PRICEL returns:
 Original cell was already a primitive cell.

[...]

The dynamic configuration has the point symmetry S_2 .
 The point group associated with its full space group is C_2h.

Analysis of structural, dynamic, and magnetic symmetry:
 Subroutine PRICEL returns:
 Original cell was already a primitive cell.

 Routine SETGRP: Setting up the symmetry group for a
 base centered monoclinic supercell.

 Subroutine GETGRP returns: Found  4 space group operations
 (whereof  2 operations were pure point group operations)
 out of a pool of  4 trial point group operations.

The magnetic configuration has the point symmetry S_2 .
 The point group associated with its full space group is C_2h.

 Subroutine INISYM returns: Found  4 space group operations
 (whereof  2 operations are pure point group operations),
 and found     1 'primitive' translations

 KPOINTS: Automatic mesh

Automatic generation of k-mesh.
Space group operators:
 irot       det(A)        alpha          n_x          n_y          n_z        tau_x        tau_y        tau_z
    1     1.000000     0.000000     1.000000     0.000000     0.000000     0.000000     0.000000     0.000000
    2    -1.000000     0.000000     1.000000     0.000000     0.000000     0.000000     0.000000     0.000000
    3     1.000000   179.999999    -0.000000     0.707107     0.707107     0.500000     0.000000     1.000000
    4    -1.000000   179.999999    -0.000000     0.707107     0.707107     0.500000     0.000000     1.000000

 Subroutine IBZKPT returns following result:

 Found      1 irreducible k-points:

 Following reciprocal coordinates:
            Coordinates               Weight
  0.000000  0.000000  0.000000      1.000000

 Following cartesian coordinates:
            Coordinates               Weight
  0.000000  0.000000  0.000000      1.000000

 SYSTEM =  unknown system
 POSCAR =  ce125_1

 Startparameter for this run:
   NWRITE =      1    write-flag & timer
   PREC   = accura    normal or accurate (medium, high low for compatibility)
   ISTART =      0    job   : 0-new  1-cont  2-samecut
   ICHARG =      2    charge: 1-file 2-atom 10-const
   ISPIN  =      2    spin polarized calculation?
   LNONCOLLINEAR =      F non collinear calculations
   LSORBIT =      F    spin-orbit coupling
   INIWAV =      1    electr: 0-lowe 1-rand  2-diag
   LASPH  =      F    aspherical Exc in radial PAW
   METAGGA=      F    non-selfconsistent MetaGGA calc.

 Electronic Relaxation 1
   ENCUT  =  500.0 eV  36.75 Ry    6.06 a.u.  10.23 17.78 17.61*2*pi/ulx,y,z
   ENINI  =  500.0     initial cutoff
   ENAUG  =  628.9 eV  augmentation charge cutoff
   NELM   =     80;   NELMIN=  2; NELMDL= -5     # of ELM steps
   EDIFF  = 0.1E-04   stopping-criterion for ELM
   LREAL  =      T    real-space projection
   NLSPLINE    = F    spline interpolate recip. space projectors
   LCOMPAT=      F    compatible to vasp.4.4
   GGA_COMPAT  = T    GGA compatible to vasp.4.4-vasp.4.6
   LMAXPAW     = -100 max onsite density
[...]
   -.356E+01 0.586E+00 -.586E+00   0.323E+01 -.430E+00 0.430E+00   0.321E+00 -.153E+00 0.153E+00   0.171E-02 -.157E-03 0.158E-03
   0.356E+01 -.586E+00 0.586E+00   -.323E+01 0.430E+00 -.430E+00   -.321E+00 0.153E+00 -.153E+00   -.171E-02 0.157E-03 -.158E-03
   0.305E+01 -.426E+01 0.426E+01   -.276E+01 0.405E+01 -.405E+01   -.288E+00 0.217E+00 -.217E+00   0.398E-02 0.126E-02 -.126E-02
   0.544E-05 0.215E-07 0.839E-06   -.527E-06 -.184E-05 0.130E-05   -.199E-22 -.331E-22 0.265E-22   -.281E-09 -.436E-09 -.824E-10
   0.126E+02 -.383E+02 0.230E+02   -.127E+02 0.390E+02 -.229E+02   0.103E+00 -.701E+00 -.850E-01   -.158E-01 0.318E-02 -.748E-02
   0.790E-05 -.145E-05 0.138E-05   -.148E-05 -.310E-06 0.646E-06   0.529E-22 -.132E-22 0.000E+00   0.492E-09 -.227E-10 -.127E-08
   -.126E+02 0.383E+02 -.230E+02   0.127E+02 -.390E+02 0.229E+02   -.103E+00 0.701E+00 0.850E-01   0.158E-01 -.318E-02 0.748E-02
   0.995E-05 -.335E-06 0.891E-06   -.566E-06 -.147E-05 0.201E-05   -.132E-22 -.265E-22 -.265E-22   0.453E-09 0.108E-09 -.209E-08
   0.126E+02 -.230E+02 0.383E+02   -.127E+02 0.229E+02 -.390E+02   0.103E+00 0.850E-01 0.701E+00   -.158E-01 0.749E-02 -.318E-02
   0.958E-05 0.833E-06 0.634E-06   -.131E-05 -.589E-06 0.258E-06   -.463E-22 0.529E-22 0.265E-22   0.445E-09 -.359E-10 -.392E-09
   -.126E+02 0.230E+02 -.383E+02   0.127E+02 -.229E+02 0.390E+02   -.103E+00 -.850E-01 -.701E+00   0.158E-01 -.749E-02 0.318E-02
   0.329E+02 0.156E+02 -.156E+02   -.338E+02 -.158E+02 0.158E+02   0.906E+00 0.238E+00 -.238E+00   -.130E-01 0.408E-02 -.408E-02
   -.155E-06 0.353E-05 0.197E-05   0.142E-05 0.420E-06 0.153E-07   0.000E+00 0.000E+00 0.000E+00   -.642E-09 0.900E-10 0.869E-09
   -.329E+02 -.156E+02 0.156E+02   0.338E+02 0.158E+02 -.158E+02   -.906E+00 -.238E+00 0.238E+00   0.130E-01 -.408E-02 0.408E-02
   0.107E-05 0.450E-05 0.505E-05   -.713E-05 0.587E-05 -.101E-04   -.159E-21 -.529E-22 -.106E-21   -.293E-09 -.125E-09 0.883E-09
   0.318E+02 -.151E+02 0.151E+02   -.325E+02 0.152E+02 -.152E+02   0.686E+00 -.158E+00 0.158E+00   -.164E-01 0.314E-02 -.314E-02
   0.317E+02 -.147E+02 0.147E+02   -.324E+02 0.149E+02 -.149E+02   0.688E+00 -.199E+00 0.199E+00   -.694E-02 0.506E-02 -.506E-02
   -.317E+02 0.147E+02 -.147E+02   0.324E+02 -.149E+02 0.149E+02   -.688E+00 0.199E+00 -.199E+00   0.694E-02 -.506E-02 0.506E-02
   -.318E+02 0.151E+02 -.151E+02   0.325E+02 -.152E+02 0.152E+02   -.686E+00 0.158E+00 -.158E+00   0.164E-01 -.314E-02 0.314E-02
   0.160E+03 0.188E+03 0.172E+03   -.169E+03 -.199E+03 -.182E+03   0.852E+01 0.110E+02 0.107E+02   -.498E-02 0.103E-01 -.394E-02
   0.165E+03 0.176E+03 0.182E+03   -.175E+03 -.186E+03 -.193E+03   0.102E+02 0.107E+02 0.107E+02   0.673E-02 0.878E-02 0.175E-02
   0.213E+03 0.197E+03 0.222E+03   -.228E+03 -.213E+03 -.238E+03   0.151E+02 0.160E+02 0.162E+02   -.101E-01 0.167E-01 0.432E-03
   0.210E+03 0.207E+03 0.210E+03   -.223E+03 -.223E+03 -.226E+03   0.136E+02 0.161E+02 0.160E+02   -.904E-02 0.122E-01 -.897E-02
   0.160E+03 -.172E+03 -.188E+03   -.169E+03 0.182E+03 0.199E+03   0.852E+01 -.107E+02 -.110E+02   -.498E-02 0.394E-02 -.103E-01
   0.165E+03 -.182E+03 -.176E+03   -.175E+03 0.193E+03 0.186E+03   0.102E+02 -.107E+02 -.107E+02   0.673E-02 -.175E-02 -.878E-02
   0.213E+03 -.222E+03 -.197E+03   -.228E+03 0.238E+03 0.213E+03   0.151E+02 -.162E+02 -.160E+02   -.101E-01 -.432E-03 -.167E-01
   0.210E+03 -.210E+03 -.207E+03   -.223E+03 0.226E+03 0.223E+03   0.136E+02 -.160E+02 -.161E+02   -.904E-02 0.897E-02 -.122E-01
   -.168E+03 0.182E+03 -.182E+03   0.177E+03 -.192E+03 0.192E+03   -.879E+01 0.991E+01 -.991E+01   -.785E-02 -.207E-02 0.207E-02
   -.171E+03 0.184E+03 -.184E+03   0.178E+03 -.194E+03 0.194E+03   -.781E+01 0.103E+02 -.103E+02   0.822E-02 -.294E-02 0.294E-02
   -.203E+03 0.222E+03 -.222E+03   0.216E+03 -.238E+03 0.238E+03   -.136E+02 0.151E+02 -.151E+02   0.119E-01 -.994E-02 0.994E-02
   -.200E+03 0.221E+03 -.221E+03   0.214E+03 -.236E+03 0.236E+03   -.143E+02 0.148E+02 -.148E+02   -.159E-02 0.221E-02 -.221E-02
   -.160E+03 -.184E+03 0.184E+03   0.167E+03 0.196E+03 -.196E+03   -.715E+01 -.114E+02 0.114E+02   -.117E-01 0.354E-02 -.354E-02
   -.162E+03 -.182E+03 0.182E+03   0.168E+03 0.193E+03 -.193E+03   -.658E+01 -.110E+02 0.110E+02   -.518E-02 0.468E-02 -.468E-02
   -.188E+03 -.224E+03 0.224E+03   0.201E+03 0.239E+03 -.239E+03   -.133E+02 -.156E+02 0.156E+02   -.874E-02 -.269E-02 0.269E-02
   -.191E+03 -.224E+03 0.224E+03   0.205E+03 0.240E+03 -.240E+03   -.143E+02 -.161E+02 0.161E+02   -.209E-01 0.958E-02 -.958E-02
   -.165E+03 -.176E+03 -.182E+03   0.175E+03 0.186E+03 0.193E+03   -.102E+02 -.107E+02 -.107E+02   -.673E-02 -.878E-02 -.175E-02
   -.160E+03 -.188E+03 -.172E+03   0.169E+03 0.199E+03 0.182E+03   -.852E+01 -.110E+02 -.107E+02   0.498E-02 -.103E-01 0.394E-02
   -.210E+03 -.207E+03 -.210E+03   0.223E+03 0.223E+03 0.226E+03   -.136E+02 -.161E+02 -.160E+02   0.904E-02 -.122E-01 0.897E-02
   -.213E+03 -.197E+03 -.222E+03   0.228E+03 0.213E+03 0.238E+03   -.151E+02 -.160E+02 -.162E+02   0.101E-01 -.167E-01 -.432E-03
   -.165E+03 0.182E+03 0.176E+03   0.175E+03 -.193E+03 -.186E+03   -.102E+02 0.107E+02 0.107E+02   -.673E-02 0.175E-02 0.878E-02
   -.160E+03 0.172E+03 0.188E+03   0.169E+03 -.182E+03 -.199E+03   -.852E+01 0.107E+02 0.110E+02   0.498E-02 -.394E-02 0.103E-01
   -.210E+03 0.210E+03 0.207E+03   0.223E+03 -.226E+03 -.223E+03   -.136E+02 0.160E+02 0.161E+02   0.904E-02 -.897E-02 0.122E-01
   -.213E+03 0.222E+03 0.197E+03   0.228E+03 -.238E+03 -.213E+03   -.151E+02 0.162E+02 0.160E+02   0.101E-01 0.432E-03 0.167E-01
   0.200E+03 -.221E+03 0.221E+03   -.214E+03 0.236E+03 -.236E+03   0.143E+02 -.148E+02 0.148E+02   0.159E-02 -.221E-02 0.221E-02
   0.203E+03 -.222E+03 0.222E+03   -.216E+03 0.238E+03 -.238E+03   0.136E+02 -.151E+02 0.151E+02   -.119E-01 0.994E-02 -.994E-02
   0.171E+03 -.184E+03 0.184E+03   -.178E+03 0.194E+03 -.194E+03   0.781E+01 -.103E+02 0.103E+02   -.822E-02 0.294E-02 -.294E-02
   0.168E+03 -.182E+03 0.182E+03   -.177E+03 0.192E+03 -.192E+03   0.879E+01 -.991E+01 0.991E+01   0.785E-02 0.207E-02 -.207E-02
   0.188E+03 0.224E+03 -.224E+03   -.201E+03 -.239E+03 0.239E+03   0.133E+02 0.156E+02 -.156E+02   0.874E-02 0.269E-02 -.269E-02
   0.162E+03 0.182E+03 -.182E+03   -.168E+03 -.193E+03 0.193E+03   0.658E+01 0.110E+02 -.110E+02   0.518E-02 -.468E-02 0.468E-02
   0.160E+03 0.184E+03 -.184E+03   -.167E+03 -.196E+03 0.196E+03   0.715E+01 0.114E+02 -.114E+02   0.117E-01 -.354E-02 0.354E-02
   0.191E+03 0.224E+03 -.224E+03   -.205E+03 -.240E+03 0.240E+03   0.143E+02 0.161E+02 -.161E+02   0.209E-01 -.958E-02 0.958E-02
   -.559E-04 0.552E-03 0.356E-03   0.568E-12 0.000E+00 -.568E-13   -.249E-13 0.711E-14 0.711E-14   -.111E-08 -.210E-08 -.470E-08

 POSITION                                       TOTAL-FORCE (eV/Angst)
      2.93566      3.00304      2.94939         0.001344     -0.009944      0.009944
      7.01279      2.99000     -1.00586        -0.001443      0.003628     -0.003628
      5.11231      0.97189      1.01225         0.001443     -0.003628      0.003628
      9.18944      0.95885     -2.94299        -0.001344      0.009944     -0.009944
     -0.00000      0.00000     -0.00000         0.000000     -0.000000     -0.000000
      4.01167      3.95487      0.01627        -0.003610     -0.007170     -0.000270
      4.03062      0.03967      3.92861         0.000000     -0.000000     -0.000000
      8.11343      0.00702     -0.00988         0.003610      0.007170      0.000270
     -0.00000      1.98414      1.98414        -0.000000     -0.000000     -0.000000
      4.01167      1.96787     -1.97073        -0.003610      0.000270      0.007170
      4.03062     -1.94447      1.94447        -0.000000     -0.000000     -0.000000
      8.11343      1.99402      1.97712         0.003610     -0.000270     -0.007170
      6.05173      3.88741     -5.87155        -0.007941     -0.002632      0.002632
      6.06255     -0.00320     -1.98094        -0.000000     -0.000000     -0.000000
      6.07336      0.07448      5.87794         0.007941      0.002632     -0.002632
      2.03192      3.92542     -1.94128        -0.000000     -0.000000     -0.000000
      1.99850      1.97961      0.00454        -0.003108     -0.000316      0.000316
      6.04501      1.95377     -3.93791        -0.002350      0.000350     -0.000350
      6.08008      2.00812      3.94431         0.002350     -0.000350      0.000350
     10.12659      1.98228      0.00186         0.003108      0.000316     -0.000316
      6.21111      2.10769      2.07233         0.002929      0.002464     -0.002349
     10.25223      2.08908     -1.86954         0.005258      0.000587     -0.002005
      2.13452      2.06590     -1.84319        -0.002756      0.000525      0.001645
      6.19235      6.00551     -1.81685         0.000155      0.001884      0.001187
      6.21111     -0.08819     -0.12355         0.002929      0.002349     -0.002464
     10.25223      3.85368     -0.10494         0.005258      0.002005     -0.000587
      2.13452      3.82733     -0.08176        -0.002756     -0.001645     -0.000525
      6.19235      3.80099     -4.02137         0.000155     -0.001187     -0.001884
      3.90511      2.09032     -0.10618        -0.016112     -0.004655      0.004655
      7.97058      2.06153     -4.04568        -0.006046      0.001441     -0.001441
      7.97563      2.12645      3.82598        -0.009470      0.004064     -0.004064
      3.94566      5.99879     -4.01465        -0.004547     -0.001354      0.001354
      3.96050     -0.11177      2.09591        -0.005155      0.000116     -0.000116
      8.06660     -0.13896     -1.84518         0.003871      0.004807     -0.004807
      8.01127     -0.07217      6.02460         0.007702     -0.001327      0.001327
      3.93557      3.80160     -1.81745        -0.002818     -0.005227      0.005227
      1.87286      1.87281      1.87593        -0.005258     -0.000587      0.002005
      5.91399      1.85420     -2.06594        -0.002929     -0.002464      0.002349
      5.93275     -2.04362      1.82324        -0.000155     -0.001884     -0.001187
      9.99057      1.89599      1.84958         0.002756     -0.000525     -0.001645
      1.87286      0.10821      0.11134        -0.005258     -0.002005      0.000587
      5.91399      4.05008      0.12994        -0.002929     -0.002349      0.002464
      5.93275      0.16090      4.02776        -0.000155      0.001187      0.001884
      9.99057      0.13456      0.08815         0.002756      0.001645      0.000525
      8.17943     -2.03690      4.02104         0.004547      0.001354     -0.001354
      4.14947      1.83544     -3.81958         0.009470     -0.004064      0.004064
      4.15452      1.90035      4.05207         0.006046     -0.001441      0.001441
      8.21999      1.87156      0.11258         0.016112      0.004655     -0.004655
      4.11383      4.03406     -6.01820        -0.007702      0.001327     -0.001327
      4.05850      4.10085      1.85158        -0.003871     -0.004807      0.004807
      8.16460      4.07366     -2.08952         0.005155     -0.000116      0.000116
      8.18953      0.16029      1.82385         0.002818      0.005227     -0.005227
    total drift:                               -0.000056      0.000552      0.000356

  FREE ENERGIE OF THE ION-ELECTRON SYSTEM (eV)
  free  energy   TOTEN  =      -323.4118145005 eV

  energy  without entropy=     -323.4094944770  energy(sigma->0) =     -323.41065449

 d Force = 0.1513760E-03[ 0.103E-03, 0.200E-03]  d Energy = 0.1596224E-03-0.825E-05
 d Force = 0.8914146E+00[ 0.890E+00, 0.893E+00]  d Ewald  =-0.6430569E+00 0.153E+01

 Quasi-Newton relaxation of ions (Broydens 2nd method)
  g(Force)  = 0.124E-03   g(Stress)= 0.140E-03

 retain information from N=  1 steps
 eigenvalues of (default step * inverse Hessian matrix)
  average eigenvalue of G=   0.2457
 eigenvalue spectrum of G is  0.2457

 reached required accuracy - stopping structural energy minimisation

volume of typ            1:     6.2 %

[...]

volume of typ            3:    10.4 %

total charge

# of ion       s       p       d       tot
    1        2.112   0.338   0.128   2.579
    2        2.109   0.328   0.122   2.559
    3        2.109   0.328   0.122   2.559
    4        2.112   0.338   0.128   2.579
    5        0.301   0.426   7.823   8.550
    6        0.297   0.415   7.827   8.539
    7        0.294   0.409   7.830   8.532
    8        0.297   0.415   7.827   8.539
    9        0.301   0.426   7.823   8.550
   10        0.297   0.415   7.827   8.539
   11        0.294   0.409   7.830   8.532
   12        0.297   0.415   7.827   8.539
   13        0.283   0.381   7.841   8.505
   14        0.277   0.367   7.848   8.491
   15        0.283   0.381   7.841   8.505
   16        0.293   0.402   7.831   8.526
   17        0.293   0.402   7.829   8.523
   18        0.290   0.395   7.830   8.515
   19        0.290   0.395   7.830   8.515
   20        0.293   0.402   7.829   8.523
   21        1.262   2.787   0.007   4.056
   22        1.263   2.788   0.007   4.058
   23        1.284   2.724   0.008   4.016
   24        1.282   2.727   0.008   4.017
   25        1.262   2.787   0.007   4.056
   26        1.263   2.788   0.007   4.058
   27        1.284   2.724   0.008   4.016
   28        1.282   2.727   0.008   4.017
   29        1.268   2.772   0.007   4.047
   30        1.268   2.768   0.007   4.043
   31        1.287   2.713   0.008   4.008
   32        1.285   2.720   0.008   4.013
   33        1.265   2.781   0.007   4.053
   34        1.266   2.781   0.007   4.053
   35        1.285   2.723   0.008   4.016
   36        1.284   2.724   0.008   4.017
   37        1.263   2.788   0.007   4.058
   38        1.262   2.787   0.007   4.056
   39        1.282   2.727   0.008   4.017
   40        1.284   2.724   0.008   4.016
   41        1.263   2.788   0.007   4.058
   42        1.262   2.787   0.007   4.056
   43        1.282   2.727   0.008   4.017
   44        1.284   2.724   0.008   4.016
   45        1.285   2.720   0.008   4.013
   46        1.287   2.713   0.008   4.008
   47        1.268   2.768   0.007   4.043
   48        1.268   2.772   0.007   4.047
   49        1.285   2.723   0.008   4.016
   50        1.266   2.781   0.007   4.053
   51        1.265   2.781   0.007   4.053
   52        1.284   2.724   0.008   4.017
tot          53.90   95.85  126.03  275.78

magnetization (x)

# of ion       s       p       d       tot
    1       -0.001  -0.003   0.000  -0.004
    2       -0.002  -0.003  -0.000  -0.005
    3       -0.002  -0.003  -0.000  -0.005
    4       -0.001  -0.003   0.000  -0.004
    5        0.000   0.000  -0.031  -0.030
    6       -0.000   0.001  -0.110  -0.109
    7        0.000   0.000  -0.123  -0.123
    8       -0.000   0.001  -0.110  -0.109
    9        0.000   0.000  -0.031  -0.030
   10       -0.000   0.001  -0.110  -0.109
   11        0.000   0.000  -0.123  -0.123
   12       -0.000   0.001  -0.110  -0.109
   13       -0.000   0.000  -0.383  -0.383
   14        0.002  -0.001   0.589   0.590
   15       -0.000   0.000  -0.383  -0.383
   16        0.000  -0.000   0.156   0.156
   17        0.000   0.000  -0.130  -0.130
   18        0.000   0.000  -0.155  -0.155
   19        0.000   0.000  -0.155  -0.155
   20        0.000   0.000  -0.130  -0.130
   21        0.000  -0.004  -0.000  -0.004
   22       -0.002  -0.008  -0.000  -0.010
   23       -0.001  -0.012  -0.000  -0.013
   24       -0.003  -0.016  -0.000  -0.019
   25        0.000  -0.004  -0.000  -0.004
   26       -0.002  -0.008  -0.000  -0.010
   27       -0.001  -0.012  -0.000  -0.013
   28       -0.003  -0.016  -0.000  -0.019
   29       -0.004  -0.024  -0.000  -0.029
   30       -0.005  -0.031  -0.000  -0.036
   31       -0.003  -0.045  -0.000  -0.048
   32       -0.002  -0.025  -0.000  -0.028
   33       -0.005  -0.035  -0.000  -0.040
   34        0.005   0.073   0.000   0.078
   35       -0.003  -0.040  -0.000  -0.043
   36        0.000   0.007   0.000   0.008
   37       -0.002  -0.008  -0.000  -0.010
   38        0.000  -0.004  -0.000  -0.004
   39       -0.003  -0.016  -0.000  -0.019
   40       -0.001  -0.012  -0.000  -0.013
   41       -0.002  -0.008  -0.000  -0.010
   42        0.000  -0.004  -0.000  -0.004
   43       -0.003  -0.016  -0.000  -0.019
   44       -0.001  -0.012  -0.000  -0.013
   45       -0.002  -0.025  -0.000  -0.028
   46       -0.003  -0.045  -0.000  -0.048
   47       -0.005  -0.031  -0.000  -0.036
   48       -0.004  -0.024  -0.000  -0.029
   49       -0.003  -0.040  -0.000  -0.043
   50        0.005   0.073   0.000   0.078
   51       -0.005  -0.035  -0.000  -0.040
   52        0.000   0.007   0.000   0.008
tot          -0.06   -0.41   -1.34   -1.81