 vasp.5.4.4.18Apr17-6-g9f103f2a35 (build May 12 2020 05:39:39) gamma-only

 MD_VERSION_INFO: Compiled 2020-05-12T12:39:39-UTC in devlin.sd.materialsdesign.
 com:/home/medea2/data/build/wwolf/vasp-gpu5.4.4/13047/x86_64/src/src/build/gam
 from svn 13047

 executed on                        Lin64 date 2023.02.09  14:01:57

 INCAR:
 POTCAR:    PAW_PBE Li_sv 10Sep2004
 POTCAR:    PAW_PBE Ni 02Aug2007
 POTCAR:    PAW_PBE O 08Apr2002

 POTCAR:    PAW_PBE Li_sv 10Sep2004

 POTCAR:    PAW_PBE Ni 02Aug2007

 POTCAR:    PAW_PBE O 08Apr2002

 Optimization of the real space projectors (new method)

 maximal supplied QI-value         = 22.11
 optimisation between [QCUT,QGAM] = [ 11.28, 22.77] = [ 35.61,145.23] Ry
 Optimized for a Real-space Cutoff    1.10 Angstroem

   l    n(q)    QCUT    max X(q) W(low)/X(q) W(high)/X(q)  e(spline)
   0      7    11.276    10.506    0.54E-04    0.58E-04    0.16E-07
   0      7    11.276     8.367    0.11E-03    0.14E-03    0.35E-07
   1      7    11.276     8.983    0.23E-03    0.43E-03    0.86E-07
 Optimization of the real space projectors (new method)

[...]

   l    n(q)    QCUT    max X(q) W(low)/X(q) W(high)/X(q)  e(spline)
   2      9    11.376    60.317    0.17E-03    0.16E-04    0.16E-06
   2      9    11.376    55.921    0.17E-03    0.16E-04    0.17E-06
   0     10    11.376    51.690    0.45E-04    0.60E-04    0.21E-06
   0     10    11.376    30.015    0.37E-04    0.55E-04    0.19E-06
   1     10    11.376    18.849    0.83E-04    0.11E-03    0.92E-07
   1     10    11.376    14.624    0.69E-04    0.92E-04    0.82E-07
 Optimization of the real space projectors (new method)

 maximal supplied QI-value         = 24.76
 optimisation between [QCUT,QGAM] = [ 11.39, 22.77] = [ 36.31,145.25] Ry
 Optimized for a Real-space Cutoff    1.10 Angstroem

   l    n(q)    QCUT    max X(q) W(low)/X(q) W(high)/X(q)  e(spline)
   0      7    11.387    20.381    0.22E-03    0.48E-03    0.18E-06
   0      7    11.387    15.268    0.22E-03    0.52E-03    0.19E-06
   1      7    11.387     5.964    0.22E-03    0.73E-03    0.24E-06
   1      7    11.387     5.382    0.19E-03    0.60E-03    0.21E-06

  PAW_PBE Li_sv 10Sep2004               :
  PAW_PBE Ni 02Aug2007                  :
  PAW_PBE O 08Apr2002                   :

 POSCAR: ce203_1
  positions in direct lattice
 exchange correlation table for  LEXCH =       14
   RHO(1)=    0.500       N(1)  =     2000
   RHO(2)=  100.500       N(2)  =     4000

 ion  position               nearest neighbor table
   1  0.750  0.187  0.187-  39 1.90  35 1.90  48 1.92  45 1.92
   2  0.250  0.813  0.813-  26 1.90  22 1.90  34 1.92  30 1.92
   3  0.000  0.000  0.000-  33 1.85  47 1.85  43 1.85  28 1.85  26 1.89  39 1.89   7 2.80   7 2.80
                            16 2.81  11 2.81  13 2.81  15 2.81
   4  0.500  0.000  0.500-  27 1.85  44 1.85  34 1.85  48 1.85  25 1.89  40 1.89  15 2.79  16 2.79
                             8 2.80   8 2.80  14 2.81  12 2.81
   5  0.500  0.500  0.000-  31 1.85  49 1.85  45 1.85  30 1.85  24 1.89  41 1.89  11 2.79  13 2.79
                             9 2.80   9 2.80  18 2.81  17 2.81
   6  0.000  0.500  0.500-  32 1.85  50 1.85  46 1.85  29 1.85  23 1.89  42 1.89  12 2.79  14 2.79
                            17 2.79  18 2.79  10 2.80  10 2.80
   7  0.500  0.000  0.000-  33 1.85  47 1.85  43 1.85  28 1.85  22 1.89  35 1.89   3 2.80   3 2.80
                            16 2.81  11 2.81  13 2.81  15 2.81
   8  0.000  0.000  0.500-  27 1.85  44 1.85  34 1.85  48 1.85  21 1.89  36 1.89  15 2.79  16 2.79
                             4 2.80   4 2.80  14 2.81  12 2.81
   9  0.000  0.500  0.000-  31 1.85  49 1.85  45 1.85  30 1.85  20 1.89  37 1.89  11 2.79  13 2.79
                             5 2.80   5 2.80  18 2.81  17 2.81
  10  0.500  0.500  0.500-  32 1.85  50 1.85  46 1.85  29 1.85  19 1.89  38 1.89  12 2.79  14 2.79
                            17 2.79  18 2.79   6 2.80   6 2.80
  11  0.250  0.251  0.999-  20 1.85  24 1.85  35 1.88  39 1.88  31 1.89  47 1.90  18 2.76   9 2.79
                             5 2.79  15 2.80   7 2.81   3 2.81
  12  0.750  0.251  0.501-  19 1.86  23 1.86  32 1.87  36 1.88  40 1.88  48 1.90  16 2.76  17 2.77
                             6 2.79  10 2.79   4 2.81   8 2.81
  13  0.750  0.749  0.001-  37 1.85  41 1.85  22 1.88  26 1.88  49 1.89  33 1.90  17 2.76   9 2.79
                             5 2.79  16 2.80   7 2.81   3 2.81
  14  0.250  0.749  0.499-  38 1.86  42 1.86  50 1.87  21 1.88  25 1.88  34 1.90  15 2.76  18 2.77
                             6 2.79  10 2.79   4 2.81   8 2.81
  15  0.250  0.999  0.251-  25 1.85  21 1.85  39 1.88  35 1.88  27 1.89  43 1.90  14 2.76   8 2.79
                             4 2.79  11 2.80   7 2.81   3 2.81
  16  0.750  0.001  0.749-  40 1.85  36 1.85  26 1.88  22 1.88  44 1.89  28 1.90  12 2.76   8 2.79
                             4 2.79  13 2.80   7 2.81   3 2.81
  17  0.750  0.501  0.251-  23 1.86  19 1.86  29 1.87  41 1.88  37 1.88  45 1.90  13 2.76  12 2.77
                             6 2.79  10 2.79   9 2.81   5 2.81
  18  0.250  0.499  0.749-  42 1.86  38 1.86  46 1.87  24 1.88  20 1.88  30 1.90  11 2.76  14 2.77
                             6 2.79  10 2.79   9 2.81   5 2.81
  19  0.528  0.382  0.382-  12 1.86  17 1.86  10 1.89
  20  0.028  0.381  0.882-  11 1.85  18 1.88   9 1.89
  21  0.028  0.882  0.381-  15 1.85  14 1.88   8 1.89
  22  0.527  0.882  0.882-  13 1.88  16 1.88   7 1.89   2 1.90
  23  0.972  0.382  0.382-  17 1.86  12 1.86   6 1.89
  24  0.472  0.381  0.882-  11 1.85  18 1.88   5 1.89
  25  0.472  0.882  0.381-  15 1.85  14 1.88   4 1.89
  26  0.973  0.882  0.882-  16 1.88  13 1.88   3 1.89   2 1.90
  27  0.250  0.101  0.385-   8 1.85   4 1.85  15 1.89
  28  0.750  0.102  0.885-   3 1.85   7 1.85  16 1.90
  29  0.750  0.602  0.384-   6 1.85  10 1.85  17 1.87
  30  0.250  0.602  0.884-   5 1.85   9 1.85  18 1.90   2 1.92
  31  0.250  0.385  0.101-   5 1.85   9 1.85  11 1.89
  32  0.750  0.384  0.602-   6 1.85  10 1.85  12 1.87
  33  0.750  0.885  0.102-   3 1.85   7 1.85  13 1.90
  34  0.250  0.884  0.602-   4 1.85   8 1.85  14 1.90   2 1.92
  35  0.473  0.118  0.118-  11 1.88  15 1.88   7 1.89   1 1.90
  36  0.972  0.118  0.619-  16 1.85  12 1.88   8 1.89
  37  0.972  0.619  0.118-  13 1.85  17 1.88   9 1.89
  38  0.472  0.618  0.618-  14 1.86  18 1.86  10 1.89
  39  0.027  0.118  0.118-  15 1.88  11 1.88   3 1.89   1 1.90
  40  0.528  0.118  0.619-  16 1.85  12 1.88   4 1.89
  41  0.528  0.619  0.118-  13 1.85  17 1.88   5 1.89
  42  0.028  0.618  0.618-  18 1.86  14 1.86   6 1.89
  43  0.250  0.898  0.115-   3 1.85   7 1.85  15 1.90
  44  0.750  0.899  0.615-   8 1.85   4 1.85  16 1.89
  45  0.750  0.398  0.116-   5 1.85   9 1.85  17 1.90   1 1.92
  46  0.250  0.398  0.616-   6 1.85  10 1.85  18 1.87
  47  0.250  0.115  0.898-   3 1.85   7 1.85  11 1.90
  48  0.750  0.116  0.398-   4 1.85   8 1.85  12 1.90   1 1.92
  49  0.750  0.615  0.899-   5 1.85   9 1.85  13 1.89
  50  0.250  0.616  0.398-   6 1.85  10 1.85  14 1.87

  LATTYP: Found a base centered orthorhombic cell.
 ALAT       =    11.1019507249
 B/A-ratio  =     1.4339027792
 C/A-ratio  =     0.5040705985

  Lattice vectors:

 A1 = (   7.9595589996,  -3.9251323210,   3.9251323210)
 A2 = (  -7.9595589996,  -3.9251323210,   3.9251323210)
 A3 = (   0.0000000000,  -3.9570875967,  -3.9570875967)

Analysis of symmetry for initial positions (statically):
 Subroutine PRICEL returns:
 Original cell was already a primitive cell.

 Routine SETGRP: Setting up the symmetry group for a
 base centered orthorhombic supercell.

 Subroutine GETGRP returns: Found  8 space group operations
 (whereof  4 operations were pure point group operations)
 out of a pool of  8 trial point group operations.

The static configuration has the point symmetry C_2h.
 The point group associated with its full space group is D_2h.

Analysis of symmetry for dynamics (positions and initial velocities):
 Subroutine PRICEL returns:
 Original cell was already a primitive cell.

[...]

The dynamic configuration has the point symmetry C_2h.
 The point group associated with its full space group is D_2h.

Analysis of structural, dynamic, and magnetic symmetry:
 Subroutine PRICEL returns:
 Original cell was already a primitive cell.

 Routine SETGRP: Setting up the symmetry group for a
 base centered orthorhombic supercell.

 Subroutine GETGRP returns: Found  8 space group operations
 (whereof  4 operations were pure point group operations)
 out of a pool of  8 trial point group operations.

The magnetic configuration has the point symmetry C_2h.
 The point group associated with its full space group is D_2h.

 Subroutine INISYM returns: Found  8 space group operations
 (whereof  4 operations are pure point group operations),
 and found     1 'primitive' translations

 KPOINTS: Automatic mesh

Automatic generation of k-mesh.
Space group operators:
 irot       det(A)        alpha          n_x          n_y          n_z        tau_x        tau_y        tau_z
    1     1.000000     0.000000     1.000000     0.000000     0.000000     0.000000     0.000000     0.000000
    2    -1.000000     0.000000     1.000000     0.000000     0.000000     0.000000     0.000000     0.000000
    3     1.000000   180.000000     0.000000    -0.707107     0.707107     0.000000     0.000000     0.000000
    4    -1.000000   180.000000     0.000000    -0.707107     0.707107     0.000000     0.000000     0.000000
    5     1.000000   180.000000     0.000000     0.707107     0.707107    -0.500000     0.000000     0.000000
    6    -1.000000   180.000000     0.000000     0.707107     0.707107    -0.500000     0.000000     0.000000
    7     1.000000   180.000000     1.000000     0.000000     0.000000    -0.500000     0.000000     0.000000
    8    -1.000000   180.000000     1.000000     0.000000     0.000000    -0.500000     0.000000     0.000000

 Subroutine IBZKPT returns following result:

 Found      1 irreducible k-points:

 Following reciprocal coordinates:
            Coordinates               Weight
  0.000000  0.000000  0.000000      1.000000

 Following cartesian coordinates:
            Coordinates               Weight
  0.000000  0.000000  0.000000      1.000000

 SYSTEM =  unknown system
 POSCAR =  ce203_1

 Startparameter for this run:
   NWRITE =      1    write-flag & timer
   PREC   = accura    normal or accurate (medium, high low for compatibility)
   ISTART =      0    job   : 0-new  1-cont  2-samecut
   ICHARG =      2    charge: 1-file 2-atom 10-const
   ISPIN  =      2    spin polarized calculation?
   LNONCOLLINEAR =      F non collinear calculations
   LSORBIT =      F    spin-orbit coupling
   INIWAV =      1    electr: 0-lowe 1-rand  2-diag
   LASPH  =      F    aspherical Exc in radial PAW
   METAGGA=      F    non-selfconsistent MetaGGA calc.

 Electronic Relaxation 1
   ENCUT  =  500.0 eV  36.75 Ry    6.06 a.u.  10.20 17.69 17.69*2*pi/ulx,y,z
   ENINI  =  500.0     initial cutoff
   ENAUG  =  628.9 eV  augmentation charge cutoff
   NELM   =     80;   NELMIN=  2; NELMDL= -5     # of ELM steps
   EDIFF  = 0.1E-04   stopping-criterion for ELM
   LREAL  =      T    real-space projection
[...]
     0.000000000  3.956391436  3.956391436     0.000000000  0.126377788  0.126377788
     7.959521945 -3.925689136  3.925689136     0.062817843 -0.063683086  0.063683086
     7.959521945  3.925689136 -3.925689136     0.062817843  0.063683086 -0.063683086

  length of vectors
     5.595182427  9.704435067  9.704435067     0.178725182  0.109805065  0.109805065

 FORCES acting on ions
    electron-ion (+dipol)            ewald-force                    non-local-force                 convergence-correction
   -.482E+01 0.952E-06 -.237E-06   0.464E+01 -.697E-05 -.395E-08   0.170E+00 0.000E+00 0.000E+00   -.152E-02 0.143E-08 -.617E-09
   0.482E+01 -.952E-06 0.237E-06   -.464E+01 0.697E-05 0.395E-08   -.170E+00 0.000E+00 0.000E+00   0.152E-02 -.143E-08 0.617E-09
   -.757E-11 0.129E-11 0.212E-11   -.182E-13 0.995E-13 -.213E-13   -.129E-23 -.478E-23 0.478E-23   -.194E-11 0.776E-12 -.792E-12
   -.590E-11 -.351E-11 0.482E-11   0.284E-13 -.112E-12 -.968E-13   0.132E-22 0.331E-23 -.331E-23   -.101E-12 0.153E-12 0.109E-13
   -.820E-11 -.413E-11 0.704E-11   0.213E-13 -.888E-15 -.355E-13   0.000E+00 0.000E+00 0.132E-22   0.421E-12 -.280E-12 -.293E-12
   -.499E-11 -.218E-11 0.249E-11   -.112E-12 -.124E-12 -.853E-13   0.000E+00 -.331E-23 0.232E-22   -.158E-11 -.384E-12 0.913E-12
   -.192E-10 -.124E-11 0.160E-10   0.602E-13 0.107E-12 -.711E-14   0.000E+00 -.993E-23 0.993E-23   -.207E-11 0.313E-12 -.247E-12
   -.409E-11 0.139E-10 0.102E-10   0.249E-13 0.977E-14 0.888E-15   -.132E-22 0.000E+00 0.000E+00   -.796E-12 -.646E-12 0.424E-12
   -.436E-11 0.140E-10 0.111E-10   0.639E-13 0.799E-14 -.112E-12   0.414E-23 -.455E-23 0.124E-23   0.463E-12 0.707E-12 -.221E-12
   -.468E-11 0.895E-11 0.157E-10   0.137E-12 0.284E-13 -.114E-12   0.000E+00 0.132E-22 -.132E-22   -.134E-11 -.504E-12 0.864E-14
   0.175E+02 0.712E+01 -.712E+01   -.181E+02 -.713E+01 0.713E+01   0.629E+00 0.455E-02 -.455E-02   0.317E-03 0.343E-02 -.343E-02
   -.187E+02 -.675E+01 0.675E+01   0.191E+02 0.697E+01 -.697E+01   -.381E+00 -.232E+00 0.232E+00   -.405E-02 0.826E-02 -.826E-02
   -.175E+02 -.712E+01 0.712E+01   0.181E+02 0.713E+01 -.713E+01   -.629E+00 -.455E-02 0.455E-02   -.317E-03 -.343E-02 0.343E-02
   0.187E+02 0.675E+01 -.675E+01   -.191E+02 -.697E+01 0.697E+01   0.381E+00 0.232E+00 -.232E+00   0.405E-02 -.826E-02 0.826E-02
   0.175E+02 -.712E+01 0.712E+01   -.181E+02 0.713E+01 -.713E+01   0.629E+00 -.455E-02 0.455E-02   0.317E-03 -.343E-02 0.343E-02
   -.175E+02 0.712E+01 -.712E+01   0.181E+02 -.713E+01 0.713E+01   -.629E+00 0.455E-02 -.455E-02   -.317E-03 0.343E-02 -.343E-02
   -.187E+02 0.675E+01 -.675E+01   0.191E+02 -.697E+01 0.697E+01   -.381E+00 0.232E+00 -.232E+00   -.405E-02 -.826E-02 0.826E-02
   0.187E+02 -.675E+01 0.675E+01   -.191E+02 0.697E+01 -.697E+01   0.381E+00 -.232E+00 0.232E+00   0.405E-02 0.826E-02 -.826E-02
   0.192E+03 0.216E+03 0.216E+03   -.207E+03 -.232E+03 -.232E+03   0.151E+02 0.161E+02 0.161E+02   -.829E-02 -.897E-02 -.897E-02
   0.212E+03 0.222E+03 0.198E+03   -.227E+03 -.239E+03 -.213E+03   0.151E+02 0.166E+02 0.155E+02   -.980E-02 0.741E-02 -.896E-02
   0.212E+03 0.198E+03 0.222E+03   -.227E+03 -.213E+03 -.239E+03   0.151E+02 0.155E+02 0.166E+02   -.980E-02 -.896E-02 0.741E-02
   0.176E+03 0.178E+03 0.178E+03   -.187E+03 -.189E+03 -.189E+03   0.106E+02 0.107E+02 0.107E+02   -.113E-01 0.449E-02 0.449E-02
   0.192E+03 -.216E+03 -.216E+03   -.207E+03 0.232E+03 0.232E+03   0.151E+02 -.161E+02 -.161E+02   -.829E-02 0.897E-02 0.897E-02
   0.212E+03 -.198E+03 -.222E+03   -.227E+03 0.213E+03 0.239E+03   0.151E+02 -.155E+02 -.166E+02   -.980E-02 0.896E-02 -.741E-02
   0.212E+03 -.222E+03 -.198E+03   -.227E+03 0.239E+03 0.213E+03   0.151E+02 -.166E+02 -.155E+02   -.980E-02 -.741E-02 0.896E-02
   0.176E+03 -.178E+03 -.178E+03   -.187E+03 0.189E+03 0.189E+03   0.106E+02 -.107E+02 -.107E+02   -.113E-01 -.449E-02 -.449E-02
   -.214E+03 0.210E+03 -.210E+03   0.229E+03 -.226E+03 0.226E+03   -.151E+02 0.153E+02 -.153E+02   -.967E-02 -.663E-02 0.663E-02
   -.197E+03 0.221E+03 -.221E+03   0.212E+03 -.237E+03 0.237E+03   -.146E+02 0.154E+02 -.154E+02   -.644E-02 -.655E-02 0.655E-02
   -.210E+03 0.211E+03 -.211E+03   0.226E+03 -.226E+03 0.226E+03   -.159E+02 0.154E+02 -.154E+02   0.805E-02 -.716E-02 0.716E-02
   -.167E+03 0.185E+03 -.185E+03   0.177E+03 -.196E+03 0.196E+03   -.982E+01 0.111E+02 -.111E+02   0.644E-02 -.531E-02 0.531E-02
   -.214E+03 -.210E+03 0.210E+03   0.229E+03 0.226E+03 -.226E+03   -.151E+02 -.153E+02 0.153E+02   -.967E-02 0.663E-02 -.663E-02
   -.210E+03 -.211E+03 0.211E+03   0.226E+03 0.226E+03 -.226E+03   -.159E+02 -.154E+02 0.154E+02   0.805E-02 0.716E-02 -.716E-02
   -.197E+03 -.221E+03 0.221E+03   0.212E+03 0.237E+03 -.237E+03   -.146E+02 -.154E+02 0.154E+02   -.644E-02 0.655E-02 -.655E-02
   -.167E+03 -.185E+03 0.185E+03   0.177E+03 0.196E+03 -.196E+03   -.982E+01 -.111E+02 0.111E+02   0.644E-02 0.531E-02 -.531E-02
   -.176E+03 -.178E+03 -.178E+03   0.187E+03 0.189E+03 0.189E+03   -.106E+02 -.107E+02 -.107E+02   0.113E-01 -.449E-02 -.449E-02
   -.212E+03 -.198E+03 -.222E+03   0.227E+03 0.213E+03 0.239E+03   -.151E+02 -.155E+02 -.166E+02   0.980E-02 0.896E-02 -.741E-02
   -.212E+03 -.222E+03 -.198E+03   0.227E+03 0.239E+03 0.213E+03   -.151E+02 -.166E+02 -.155E+02   0.980E-02 -.741E-02 0.896E-02
   -.192E+03 -.216E+03 -.216E+03   0.207E+03 0.232E+03 0.232E+03   -.151E+02 -.161E+02 -.161E+02   0.829E-02 0.897E-02 0.897E-02
   -.176E+03 0.178E+03 0.178E+03   0.187E+03 -.189E+03 -.189E+03   -.106E+02 0.107E+02 0.107E+02   0.113E-01 0.449E-02 0.449E-02
   -.212E+03 0.222E+03 0.198E+03   0.227E+03 -.239E+03 -.213E+03   -.151E+02 0.166E+02 0.155E+02   0.980E-02 0.741E-02 -.896E-02
   -.212E+03 0.198E+03 0.222E+03   0.227E+03 -.213E+03 -.239E+03   -.151E+02 0.155E+02 0.166E+02   0.980E-02 -.896E-02 0.741E-02
   -.192E+03 0.216E+03 0.216E+03   0.207E+03 -.232E+03 -.232E+03   -.151E+02 0.161E+02 0.161E+02   0.829E-02 -.897E-02 -.897E-02
   0.197E+03 -.221E+03 0.221E+03   -.212E+03 0.237E+03 -.237E+03   0.146E+02 -.154E+02 0.154E+02   0.644E-02 0.655E-02 -.655E-02
   0.214E+03 -.210E+03 0.210E+03   -.229E+03 0.226E+03 -.226E+03   0.151E+02 -.153E+02 0.153E+02   0.967E-02 0.663E-02 -.663E-02
   0.167E+03 -.185E+03 0.185E+03   -.177E+03 0.196E+03 -.196E+03   0.982E+01 -.111E+02 0.111E+02   -.644E-02 0.531E-02 -.531E-02
   0.210E+03 -.211E+03 0.211E+03   -.226E+03 0.226E+03 -.226E+03   0.159E+02 -.154E+02 0.154E+02   -.805E-02 0.716E-02 -.716E-02
   0.197E+03 0.221E+03 -.221E+03   -.212E+03 -.237E+03 0.237E+03   0.146E+02 0.154E+02 -.154E+02   0.644E-02 -.655E-02 0.655E-02
   0.167E+03 0.185E+03 -.185E+03   -.177E+03 -.196E+03 0.196E+03   0.982E+01 0.111E+02 -.111E+02   -.644E-02 -.531E-02 0.531E-02
   0.214E+03 0.210E+03 -.210E+03   -.229E+03 -.226E+03 0.226E+03   0.151E+02 0.153E+02 -.153E+02   0.967E-02 -.663E-02 0.663E-02
   0.210E+03 0.211E+03 -.211E+03   -.226E+03 -.226E+03 0.226E+03   0.159E+02 0.154E+02 -.154E+02   -.805E-02 -.716E-02 0.716E-02
   0.140E-08 0.226E-09 0.335E-09   0.426E-12 -.284E-12 -.171E-12   0.124E-13 -.124E-13 -.533E-14   -.276E-11 0.481E-12 0.302E-12

 POSITION                                       TOTAL-FORCE (eV/Angst)
      2.96830      2.96729      2.96729        -0.012090      0.000000      0.000000
     12.95075      0.98910      0.98910         0.012090      0.000000      0.000000
     -0.00000     -0.00000     -0.00000         0.000000      0.000000      0.000000
      3.97976      3.94104      0.01535         0.000000     -0.000000      0.000000
      3.97976      0.01535      3.94104         0.000000      0.000000      0.000000
      7.95952      0.00000      0.00000         0.000000      0.000000      0.000000
     -0.00000      1.97820      1.97820         0.000000      0.000000      0.000000
      3.97976      1.96284     -1.96284         0.000000     -0.000000      0.000000
      3.97976     -1.96284      1.96284         0.000000     -0.000000      0.000000
      7.95952      1.97820      1.97820         0.000000     -0.000000      0.000000
      9.94864      3.92388     -1.94569        -0.007847     -0.005668      0.005668
      5.98499      3.94681      1.98778        -0.000058      0.001375     -0.001375
      5.97040      0.03251      5.90208         0.007847      0.005668     -0.005668
      9.93405      0.00958      1.96862         0.000058     -0.001375      0.001375
      9.94864     -1.94569      3.92388        -0.007847      0.005668     -0.005668
      5.97040      5.90208      0.03251         0.007847     -0.005668      0.005668
      5.98499      1.98778      3.94681        -0.000058     -0.001375      0.001375
      9.93405      1.96862      0.00958         0.000058      0.001375     -0.001375
      6.07924      2.09085      2.09085        -0.004835      0.000707      0.000707
     10.04974      2.07969     -1.85844        -0.016070      0.000628      0.004105
     10.04974     -1.85844      2.07969        -0.016070      0.004105      0.000628
     14.03827      2.08675      2.08675        -0.011016      0.000988      0.000988
      6.07924      3.84373      3.84373        -0.004835     -0.000707     -0.000707
     10.04974      3.83664     -0.10149        -0.016070     -0.004105     -0.000628
     10.04974     -0.10149      3.83664        -0.016070     -0.000628     -0.004105
     14.03827      3.84783      3.84783        -0.011016     -0.000988     -0.000988
      3.86693      2.10060     -0.12241        -0.010259      0.003592     -0.003592
      7.85494      6.03856     -0.10397        -0.012144      0.001388     -0.001388
      7.84646      2.11208      3.82251        -0.004415      0.004911     -0.004911
     11.82792      2.09397     -0.11578        -0.012267     -0.000407      0.000407
      3.86693     -0.12241      2.10060        -0.010259     -0.003592      0.003592
      7.84646      3.82251      2.11208        -0.004415     -0.004911      0.004911
      7.85494     -0.10397      6.03856        -0.012144     -0.001388      0.001388
     11.82792     -0.11578      2.09397        -0.012267      0.000407     -0.000407
      1.88077      1.86964      1.86964         0.011016     -0.000988     -0.000988
      5.86930      5.81483      1.87671         0.016070     -0.004105     -0.000628
      5.86930      1.87671      5.81483         0.016070     -0.000628     -0.004105
      9.83980      1.86554      1.86554         0.004835     -0.000707     -0.000707
      1.88077      0.10856      0.10856         0.011016      0.000988      0.000988
      5.86930      4.05788      0.11975         0.016070      0.000628      0.004105
      5.86930      0.11976      4.05788         0.016070      0.004105      0.000628
      9.83980      0.11266      0.11266         0.004835      0.000707      0.000707
      8.06410     -2.08217      4.06037         0.012144     -0.001388      0.001388
     12.05211      1.85579      4.07880         0.010259     -0.003592      0.003592
      4.09113      1.86242      4.07217         0.012267      0.000407     -0.000407
      8.07258      1.84431      0.13388         0.004415     -0.004911      0.004911
      8.06410      4.06037     -2.08217         0.012144      0.001388     -0.001388
      4.09113      4.07217      1.86242         0.012267     -0.000407      0.000407
     12.05211      4.07880      1.85579         0.010259      0.003592     -0.003592
      8.07258      0.13388      1.84431         0.004415      0.004911     -0.004911
    total drift:                                0.000000      0.000000      0.000000

  FREE ENERGIE OF THE ION-ELECTRON SYSTEM (eV)
  free  energy   TOTEN  =      -312.2489907097 eV

  energy  without entropy=     -312.2451661779  energy(sigma->0) =     -312.24707844

 d Force = 0.1326959E-02[ 0.483E-03, 0.217E-02]  d Energy = 0.1319371E-02 0.759E-05
 d Force = 0.4823764E+01[ 0.480E+01, 0.485E+01]  d Ewald  = 0.5040855E+01-0.217E+00

 Quasi-Newton relaxation of ions (Broydens 2nd method)
  g(Force)  = 0.271E-03   g(Stress)= 0.105E-03

 retain information from N=  1 steps
 eigenvalues of (default step * inverse Hessian matrix)
  average eigenvalue of G=   0.2590
 eigenvalue spectrum of G is  0.2590

 reached required accuracy - stopping structural energy minimisation

volume of typ            1:     3.2 %

[...]

volume of typ            3:    10.5 %

total charge

# of ion       s       p       d       tot
    1        2.113   0.338   0.130   2.581
    2        2.113   0.338   0.130   2.581
    3        0.299   0.422   7.826   8.548
    4        0.298   0.417   7.828   8.544
    5        0.298   0.417   7.828   8.544
    6        0.300   0.421   7.826   8.547
    7        0.299   0.422   7.826   8.548
    8        0.298   0.417   7.828   8.544
    9        0.298   0.417   7.828   8.544
   10        0.300   0.421   7.826   8.547
   11        0.297   0.412   7.825   8.534
   12        0.296   0.410   7.825   8.531
   13        0.297   0.412   7.825   8.534
   14        0.296   0.410   7.825   8.531
   15        0.297   0.412   7.825   8.534
   16        0.297   0.412   7.825   8.534
   17        0.296   0.410   7.825   8.531
   18        0.296   0.410   7.825   8.531
   19        1.283   2.726   0.008   4.017
   20        1.284   2.724   0.008   4.015
   21        1.284   2.724   0.008   4.015
   22        1.264   2.784   0.007   4.055
   23        1.283   2.726   0.008   4.017
   24        1.284   2.724   0.008   4.015
   25        1.284   2.724   0.008   4.015
   26        1.264   2.784   0.007   4.055
   27        1.283   2.730   0.008   4.021
   28        1.284   2.725   0.008   4.018
   29        1.285   2.724   0.008   4.017
   30        1.266   2.779   0.007   4.052
   31        1.283   2.730   0.008   4.021
   32        1.285   2.724   0.008   4.017
   33        1.284   2.725   0.008   4.018
   34        1.266   2.779   0.007   4.052
   35        1.264   2.784   0.007   4.055
   36        1.284   2.724   0.008   4.015
   37        1.284   2.724   0.008   4.015
   38        1.283   2.726   0.008   4.017
   39        1.264   2.784   0.007   4.055
   40        1.284   2.724   0.008   4.015
   41        1.284   2.724   0.008   4.015
   42        1.283   2.726   0.008   4.017
   43        1.284   2.725   0.008   4.018
   44        1.283   2.730   0.008   4.021
   45        1.266   2.779   0.007   4.052
   46        1.285   2.724   0.008   4.017
   47        1.284   2.725   0.008   4.018
   48        1.266   2.779   0.007   4.052
   49        1.283   2.730   0.008   4.021
   50        1.285   2.724   0.008   4.017
tot          49.92   94.98  125.73  270.63

magnetization (x)

# of ion       s       p       d       tot
    1       -0.003  -0.001  -0.000  -0.005
    2       -0.003  -0.001  -0.000  -0.005
    3       -0.000  -0.001  -0.090  -0.091
    4        0.000  -0.000  -0.100  -0.100
    5        0.000  -0.000  -0.100  -0.100
    6        0.000  -0.000  -0.075  -0.075
    7       -0.000  -0.001  -0.090  -0.091
    8        0.000  -0.000  -0.100  -0.100
    9        0.000  -0.000  -0.100  -0.100
   10        0.000  -0.000  -0.075  -0.075
   11        0.000  -0.000  -0.095  -0.095
   12        0.000  -0.001  -0.092  -0.092
   13        0.000  -0.000  -0.095  -0.095
   14        0.000  -0.001  -0.092  -0.092
   15        0.000  -0.000  -0.095  -0.095
   16        0.000  -0.000  -0.095  -0.095
   17        0.000  -0.001  -0.092  -0.092
   18        0.000  -0.001  -0.092  -0.092
   19       -0.002  -0.004  -0.000  -0.006
   20       -0.002  -0.007  -0.000  -0.010
   21       -0.002  -0.007  -0.000  -0.010
   22       -0.002  -0.005  -0.000  -0.008
   23       -0.002  -0.004  -0.000  -0.006
   24       -0.002  -0.007  -0.000  -0.010
   25       -0.002  -0.007  -0.000  -0.010
   26       -0.002  -0.005  -0.000  -0.008
   27       -0.002  -0.003  -0.000  -0.005
   28       -0.002  -0.006  -0.000  -0.008
   29       -0.002  -0.004  -0.000  -0.007
   30       -0.003  -0.007  -0.000  -0.010
   31       -0.002  -0.003  -0.000  -0.005
   32       -0.002  -0.004  -0.000  -0.007
   33       -0.002  -0.006  -0.000  -0.008
   34       -0.003  -0.007  -0.000  -0.010
   35       -0.002  -0.005  -0.000  -0.008
   36       -0.002  -0.007  -0.000  -0.010
   37       -0.002  -0.007  -0.000  -0.010
   38       -0.002  -0.004  -0.000  -0.006
   39       -0.002  -0.005  -0.000  -0.008
   40       -0.002  -0.007  -0.000  -0.010
   41       -0.002  -0.007  -0.000  -0.010
   42       -0.002  -0.004  -0.000  -0.006
   43       -0.002  -0.006  -0.000  -0.008
   44       -0.002  -0.003  -0.000  -0.005
   45       -0.003  -0.007  -0.000  -0.010
   46       -0.002  -0.004  -0.000  -0.007
   47       -0.002  -0.006  -0.000  -0.008
   48       -0.003  -0.007  -0.000  -0.010
   49       -0.002  -0.003  -0.000  -0.005
   50       -0.002  -0.004  -0.000  -0.007
tot          -0.08   -0.19   -1.48   -1.74