 vasp.5.4.4.18Apr17-6-g9f103f2a35 (build May 12 2020 05:39:39) gamma-only

 MD_VERSION_INFO: Compiled 2020-05-12T12:39:39-UTC in devlin.sd.materialsdesign.
 com:/home/medea2/data/build/wwolf/vasp-gpu5.4.4/13047/x86_64/src/src/build/gam
 from svn 13047

 executed on                        Lin64 date 2023.02.09  13:58:30

 INCAR:
 POTCAR:    PAW_PBE Li_sv 10Sep2004
 POTCAR:    PAW_PBE Ni 02Aug2007
 POTCAR:    PAW_PBE O 08Apr2002

 POTCAR:    PAW_PBE Li_sv 10Sep2004

 POTCAR:    PAW_PBE Ni 02Aug2007

 POTCAR:    PAW_PBE O 08Apr2002

 Optimization of the real space projectors (new method)

 maximal supplied QI-value         = 22.11
 optimisation between [QCUT,QGAM] = [ 11.28, 22.77] = [ 35.61,145.23] Ry
 Optimized for a Real-space Cutoff    1.10 Angstroem

   l    n(q)    QCUT    max X(q) W(low)/X(q) W(high)/X(q)  e(spline)
   0      7    11.276    10.506    0.54E-04    0.58E-04    0.16E-07
   0      7    11.276     8.367    0.11E-03    0.14E-03    0.35E-07
   1      7    11.276     8.983    0.23E-03    0.43E-03    0.86E-07
 Optimization of the real space projectors (new method)

[...]

   l    n(q)    QCUT    max X(q) W(low)/X(q) W(high)/X(q)  e(spline)
   2      9    11.376    60.317    0.17E-03    0.16E-04    0.16E-06
   2      9    11.376    55.921    0.17E-03    0.16E-04    0.17E-06
   0     10    11.376    51.690    0.45E-04    0.60E-04    0.21E-06
   0     10    11.376    30.015    0.37E-04    0.55E-04    0.19E-06
   1     10    11.376    18.849    0.83E-04    0.11E-03    0.92E-07
   1     10    11.376    14.624    0.69E-04    0.92E-04    0.82E-07
 Optimization of the real space projectors (new method)

 maximal supplied QI-value         = 24.76
 optimisation between [QCUT,QGAM] = [ 11.39, 22.77] = [ 36.31,145.25] Ry
 Optimized for a Real-space Cutoff    1.10 Angstroem

   l    n(q)    QCUT    max X(q) W(low)/X(q) W(high)/X(q)  e(spline)
   0      7    11.387    20.381    0.22E-03    0.48E-03    0.18E-06
   0      7    11.387    15.268    0.22E-03    0.52E-03    0.19E-06
   1      7    11.387     5.964    0.22E-03    0.73E-03    0.24E-06
   1      7    11.387     5.382    0.19E-03    0.60E-03    0.21E-06

  PAW_PBE Li_sv 10Sep2004               :
  PAW_PBE Ni 02Aug2007                  :
  PAW_PBE O 08Apr2002                   :

 POSCAR: ce12_1
  positions in direct lattice
 exchange correlation table for  LEXCH =       14
   RHO(1)=    0.500       N(1)  =     2000
   RHO(2)=  100.500       N(2)  =     4000

 ion  position               nearest neighbor table
   1  0.000  0.500  0.119-  33 1.92  30 1.92  36 1.92  40 2.04
   2  0.667  0.833  0.460-  38 1.91  37 1.94  31 1.94  34 1.94
   3  0.333  0.167  0.786-  35 1.93  29 1.93  32 1.93  39 1.95
   4  0.667  0.833  0.213-  18 1.93  24 1.93  21 1.93  27 1.97
   5  0.331  0.666  0.667-  25 1.86  22 1.86  26 1.87  32 1.88  35 1.88  38 1.88  16 2.76  14 2.81
                             8 2.83  11 2.83  11 2.87   8 2.87
   6  0.999  0.999  0.999-  23 1.85  20 1.85  36 1.87  33 1.87  27 1.89  39 1.89  14 2.76  15 2.78
                             9 2.84  12 2.84  12 2.86   9 2.86
   7  0.666  0.333  0.335-  28 1.86  40 1.87  21 1.89  24 1.89  37 1.90  34 1.90  16 2.81  15 2.84
                            10 2.84  13 2.84  13 2.86  10 2.86
   8  0.834  0.666  0.667-  19 1.86  25 1.86  26 1.87  29 1.88  35 1.88  38 1.88  16 2.76  14 2.81
                             5 2.83  11 2.83  11 2.87   5 2.87
   9  0.501  0.999  0.999-  17 1.85  23 1.85  30 1.87  36 1.87  27 1.89  39 1.89  14 2.76  15 2.78
                             6 2.84  12 2.84  12 2.86   6 2.86
  10  0.167  0.333  0.335-  28 1.86  40 1.87  18 1.89  24 1.89  37 1.90  31 1.90  16 2.81  15 2.84
                             7 2.84  13 2.84  13 2.86   7 2.86
  11  0.834  0.169  0.667-  19 1.86  22 1.86  26 1.87  32 1.88  29 1.88  38 1.88  16 2.76  14 2.81
                             5 2.83   8 2.83   8 2.87   5 2.87
  12  0.501  0.501  0.999-  17 1.85  20 1.85  30 1.87  33 1.87  27 1.89  39 1.89  14 2.76  15 2.78
                             6 2.84   9 2.84   9 2.86   6 2.86
  13  0.167  0.834  0.335-  28 1.86  40 1.87  21 1.89  18 1.89  34 1.90  31 1.90  16 2.81  15 2.84
                             7 2.84  10 2.84  10 2.86   7 2.86
  14  0.667  0.833  0.834-  20 1.88  17 1.88  23 1.88  29 1.90  35 1.90  32 1.90   6 2.76  12 2.76
                             9 2.76   8 2.81  11 2.81   5 2.81
  15  0.333  0.167  0.164-  30 1.90  36 1.90  33 1.90  18 1.90  21 1.90  24 1.90   6 2.78  12 2.78
                             9 2.78  10 2.84   7 2.84  13 2.84
  16  0.000  0.500  0.503-  25 1.87  19 1.87  22 1.87  34 1.89  31 1.89  37 1.89   5 2.76  11 2.76
                             8 2.76   7 2.81  13 2.81  10 2.81
  17  0.375  0.687  0.924-  12 1.85   9 1.85  14 1.88
  18  0.040  0.020  0.255-  10 1.89  13 1.89  15 1.90   4 1.93
  19  0.707  0.354  0.591-  11 1.86   8 1.86  16 1.87
  20  0.813  0.687  0.924-   6 1.85  12 1.85  14 1.88
  21  0.480  0.020  0.255-   7 1.89  13 1.89  15 1.90   4 1.93
  22  0.146  0.354  0.591-   5 1.86  11 1.86  16 1.87
  23  0.813  0.125  0.924-   6 1.85   9 1.85  14 1.88
  24  0.480  0.460  0.255-  10 1.89   7 1.89  15 1.90   4 1.93
  25  0.146  0.793  0.591-   5 1.86   8 1.86  16 1.87
  26  0.000  0.500  0.734-   5 1.87  11 1.87   8 1.87
  27  0.667  0.833  0.068-   6 1.89  12 1.89   9 1.89   4 1.97
  28  0.333  0.167  0.399-  10 1.86   7 1.86  13 1.86
  29  0.960  0.980  0.744-   8 1.88  11 1.88  14 1.90   3 1.93
  30  0.629  0.315  0.074-  12 1.87   9 1.87  15 1.90   1 1.92
  31  0.294  0.647  0.414-  16 1.89  13 1.90  10 1.90   2 1.94
  32  0.520  0.980  0.744-   5 1.88  11 1.88  14 1.90   3 1.93
  33  0.185  0.315  0.074-   6 1.87  12 1.87  15 1.90   1 1.92
  34  0.853  0.647  0.414-  16 1.89  13 1.90   7 1.90   2 1.94
  35  0.520  0.540  0.744-   8 1.88   5 1.88  14 1.90   3 1.93
  36  0.185  0.871  0.074-   6 1.87   9 1.87  15 1.90   1 1.92
  37  0.853  0.206  0.414-  16 1.89  10 1.90   7 1.90   2 1.94
  38  0.667  0.833  0.601-   8 1.88   5 1.88  11 1.88   2 1.91
  39  0.333  0.167  0.931-   6 1.89  12 1.89   9 1.89   3 1.95
  40  0.000  0.500  0.269-   7 1.87  13 1.87  10 1.87   1 2.04

  LATTYP: Found a hexagonal cell.
 ALAT       =     5.6987256787
 C/A-ratio  =     2.3782472412

  Lattice vectors:

 A1 = (   0.0000000000,   4.0296075715,   4.0296075715)
 A2 = (   4.0296075715,  -4.0296075715,   0.0000000000)
 A3 = (   7.8248158569,   7.8248158569,  -7.8248158569)

Analysis of symmetry for initial positions (statically):
 Subroutine PRICEL returns:
 Original cell was already a primitive cell.

 Routine SETGRP: Setting up the symmetry group for a
 hexagonal supercell.

 Subroutine GETGRP returns: Found  6 space group operations
 (whereof  2 operations were pure point group operations)
 out of a pool of 24 trial point group operations.

The static configuration has the point symmetry C_1h.
 The point group associated with its full space group is C_3v.

Analysis of symmetry for dynamics (positions and initial velocities):
 Subroutine PRICEL returns:
 Original cell was already a primitive cell.

[...]

The dynamic configuration has the point symmetry C_1h.
 The point group associated with its full space group is C_3v.

Analysis of structural, dynamic, and magnetic symmetry:
 Subroutine PRICEL returns:
 Original cell was already a primitive cell.

 Routine SETGRP: Setting up the symmetry group for a
 hexagonal supercell.

 Subroutine GETGRP returns: Found  6 space group operations
 (whereof  2 operations were pure point group operations)
 out of a pool of 24 trial point group operations.

The magnetic configuration has the point symmetry C_1h.
 The point group associated with its full space group is C_3v.

 Subroutine INISYM returns: Found  6 space group operations
 (whereof  2 operations are pure point group operations),
 and found     1 'primitive' translations

 KPOINTS: Automatic mesh

Automatic generation of k-mesh.
Space group operators:
 irot       det(A)        alpha          n_x          n_y          n_z        tau_x        tau_y        tau_z
    1     1.000000     0.000000     1.000000     0.000000     0.000000     0.000000     0.000000     0.000000
    2    -1.000000   180.000000     0.707107    -0.707107     0.000000     0.000000     0.000000     0.000000
    3     1.000000   120.000000    -0.577350    -0.577350     0.577350     0.500000     0.000000     0.000000
    4     1.000000   120.000000     0.577350     0.577350    -0.577350     0.500000     0.500000     0.000000
    5    -1.000000   180.000000     0.000000     0.707107     0.707107     0.500000     0.000000     0.000000
    6    -1.000000   180.000000     0.707107     0.000000     0.707107     0.500000     0.500000     0.000000

 Subroutine IBZKPT returns following result:

 Found      1 irreducible k-points:

 Following reciprocal coordinates:
            Coordinates               Weight
  0.000000  0.000000  0.000000      1.000000

 Following cartesian coordinates:
            Coordinates               Weight
  0.000000  0.000000  0.000000      1.000000

 SYSTEM =  unknown system
 POSCAR =  ce12_1

 Startparameter for this run:
   NWRITE =      1    write-flag & timer
   PREC   = accura    normal or accurate (medium, high low for compatibility)
   ISTART =      0    job   : 0-new  1-cont  2-samecut
   ICHARG =      2    charge: 1-file 2-atom 10-const
   ISPIN  =      2    spin polarized calculation?
   LNONCOLLINEAR =      F non collinear calculations
   LSORBIT =      F    spin-orbit coupling
   INIWAV =      1    electr: 0-lowe 1-rand  2-diag
   LASPH  =      F    aspherical Exc in radial PAW
   METAGGA=      F    non-selfconsistent MetaGGA calc.

 Electronic Relaxation 1
   ENCUT  =  500.0 eV  36.75 Ry    6.06 a.u.  10.39 10.39 24.71*2*pi/ulx,y,z
   ENINI  =  500.0     initial cutoff
   ENAUG  =  628.9 eV  augmentation charge cutoff
   NELM   =     80;   NELMIN=  2; NELMDL= -5     # of ELM steps
   EDIFF  = 0.1E-04   stopping-criterion for ELM
   LREAL  =      T    real-space projection
   NLSPLINE    = F    spline interpolate recip. space projectors
   LCOMPAT=      F    compatible to vasp.4.4
   GGA_COMPAT  = T    GGA compatible to vasp.4.4-vasp.4.6
   LMAXPAW     = -100 max onsite density
   LMAXMIX     =    2 max onsite mixed and CHGCAR
   VOSKOWN=      1    Vosko Wilk Nusair interpolation
   ROPT   =   -0.00025  -0.00025  -0.00025
 Ionic relaxation
   EDIFFG = -.2E-01   stopping-criterion for IOM
   NSW    =     20    number of steps for IOM
   NBLOCK =      1;   KBLOCK =     20    inner block; outer block
   IBRION =      1    ionic relax: 0-MD 1-quasi-New 2-CG
   NFREE  =      0    steps in history (QN), initial steepest desc. (CG)
   ISIF   =      3    stress and relaxation
   IWAVPR =     11    prediction:  0-non 1-charg 2-wave 3-comb
   ISYM   =      2    0-nonsym 1-usesym 2-fastsym
   LCORR  =      T    Harris-Foulkes like correction to forces

   POTIM  = 0.5000    time-step for ionic-motion
   TEIN   =    0.0    initial temperature
   TEBEG  =    0.0;   TEEND  =   0.0 temperature during run
   SMASS  =  -3.00    Nose mass-parameter (am)
   estimated Nose-frequenzy (Omega)   =  0.10E-29 period in steps =****** mass=  -0.742E-27a.u.
[...]
     33      -2.7556      1.00000
     34      -2.6747      1.00000
     35      -2.5414      1.00000
     36      -2.5414      1.00000
     37      -2.4907      1.00000
     38      -2.4907      1.00000
     39      -2.0338      1.00000
     40      -1.9298      1.00000
     41      -1.9008      1.00000
     42      -1.9008      1.00000
     43      -1.8515      1.00000
     44      -1.8515      1.00000
     45      -1.7237      1.00000
     46      -1.7237      1.00000
     47      -1.6706      1.00000
     48      -1.6706      1.00000
     49      -1.5957      1.00000
     50      -1.5957      1.00000
     51      -1.5489      1.00000
     52      -1.5489      1.00000
     53      -1.3209      1.00000
     54      -1.2691      1.00000
     55      -1.2434      1.00000
     56      -1.1861      1.00000
     57      -1.0387      1.00000
     58      -0.9595      1.00000
     59      -0.9595      1.00000
     60      -0.8536      1.00000
[...]
    178      15.5305      0.00000
    179      15.5305      0.00000
    180      15.7640      0.00000
    181      15.7640      0.00000
    182      16.6517      0.00000
    183      16.8011      0.00000
    184      17.0604      0.00000
    185      17.4090      0.00000
    186      17.4486      0.00000
    187      17.4486      0.00000
    188      17.6513      0.00000
    189      17.6513      0.00000
    190      17.7189      0.00000
    191      17.9451      0.00000
    192      17.9461      0.00000

[...]

 soft charge-density along one line, spin component           2
         0         1         2         3         4         5         6         7         8         9
 total charge-density along one line

------------------------ aborting loop because EDIFF is reached ----------------------------------------

  FORCE on cell =-STRESS in cart. coord.  units (eV):
  Direction    XX          YY          ZZ          XY          YZ          ZX
  Alpha Z   868.75636   868.75636   868.75636
  Ewald   -5461.29539 -5461.29538 -5461.29539  -130.87649   130.87649   130.87651
  Hartree  2707.49435  2707.49434  2707.49435   -68.10668    68.10668    68.10669
  E(xc)   -1406.64958 -1406.64955 -1406.64958    -0.11286     0.11286     0.11282
  Local   -2586.18885 -2586.18792 -2586.18885   186.98381  -186.98381  -186.98478
  n-local  -671.29209  -671.29205  -671.29212    -1.74452     1.74454     1.74454
  augment  2324.86000  2324.85952  2324.86000     6.02424    -6.02424    -6.02375
  Kinetic  4224.46867  4224.46870  4224.46869     7.81692    -7.81692    -7.81701
  Fock        0.00000     0.00000     0.00000     0.00000     0.00000     0.00000
  Total        0.1536588      0.1536588      0.1536588     -0.0154044      0.0154044      0.0154044
  in kB        0.6465727      0.6465727      0.6465727     -0.0648195      0.0648195      0.0648195

 VOLUME and BASIS-vectors are now :
  energy-cutoff  :      500.00
  volume of cell :      380.76
      direct lattice vectors                 reciprocal lattice vectors
     0.000000000  4.030659285  4.030659285     0.082699457  0.082699457  0.165398914
     4.030659285 -4.030659285 -0.000000000     0.165398914 -0.082699457  0.082699457
     7.812266812  7.812266812 -7.812266812     0.042667940  0.042667940 -0.042667940

  length of vectors
     5.700213026  5.700213026 13.531243041     0.202571471  0.202571471  0.073903040

 FORCES acting on ions
    electron-ion (+dipol)            ewald-force                    non-local-force                 convergence-correction
   -.291E+01 -.291E+01 0.291E+01   0.277E+01 0.277E+01 -.277E+01   0.144E+00 0.144E+00 -.144E+00   -.332E-02 -.332E-02 0.332E-02
   -.127E+01 -.127E+01 0.127E+01   0.161E+01 0.161E+01 -.161E+01   -.362E+00 -.362E+00 0.362E+00   0.197E-01 0.197E-01 -.197E-01
   0.294E+01 0.294E+01 -.294E+01   -.268E+01 -.268E+01 0.268E+01   -.249E+00 -.249E+00 0.249E+00   -.152E-01 -.152E-01 0.152E-01
   -.380E+00 -.380E+00 0.380E+00   0.245E+00 0.245E+00 -.245E+00   0.142E+00 0.142E+00 -.142E+00   0.105E-02 0.105E-02 -.105E-02
   -.824E+01 -.824E+01 -.193E+01   0.876E+01 0.876E+01 0.224E+01   -.454E+00 -.454E+00 -.312E+00   -.607E-01 -.607E-01 0.138E-01
   0.114E+02 0.114E+02 -.274E+02   -.113E+02 -.113E+02 0.280E+02   -.108E+00 -.108E+00 -.568E+00   -.117E-01 -.117E-01 0.240E-01
   -.153E+02 -.153E+02 0.175E+02   0.152E+02 0.152E+02 -.177E+02   0.538E-01 0.538E-01 0.199E+00   0.668E-01 0.668E-01 -.496E-01
   -.824E+01 0.193E+01 0.824E+01   0.876E+01 -.224E+01 -.876E+01   -.454E+00 0.312E+00 0.454E+00   -.607E-01 -.138E-01 0.607E-01
   0.114E+02 0.274E+02 -.114E+02   -.113E+02 -.280E+02 0.113E+02   -.108E+00 0.568E+00 0.108E+00   -.117E-01 -.240E-01 0.117E-01
   -.153E+02 -.175E+02 0.153E+02   0.152E+02 0.177E+02 -.152E+02   0.538E-01 -.199E+00 -.538E-01   0.668E-01 0.496E-01 -.668E-01
   0.193E+01 -.824E+01 0.824E+01   -.224E+01 0.876E+01 -.876E+01   0.312E+00 -.454E+00 0.454E+00   -.138E-01 -.607E-01 0.607E-01
   0.274E+02 0.114E+02 -.114E+02   -.280E+02 -.113E+02 0.113E+02   0.568E+00 -.108E+00 0.108E+00   -.240E-01 -.117E-01 0.117E-01
   -.175E+02 -.153E+02 0.153E+02   0.177E+02 0.152E+02 -.152E+02   -.199E+00 0.538E-01 -.538E-01   0.496E-01 0.668E-01 -.668E-01
   0.187E+02 0.187E+02 -.187E+02   -.191E+02 -.191E+02 0.191E+02   0.499E+00 0.499E+00 -.499E+00   -.504E-01 -.504E-01 0.504E-01
   -.770E+01 -.770E+01 0.770E+01   0.827E+01 0.827E+01 -.827E+01   -.555E+00 -.555E+00 0.555E+00   -.786E-02 -.786E-02 0.786E-02
   -.160E+01 -.160E+01 0.160E+01   0.107E+01 0.107E+01 -.107E+01   0.473E+00 0.473E+00 -.473E+00   0.632E-01 0.632E-01 -.632E-01
   0.221E+03 0.221E+03 0.204E+03   -.236E+03 -.236E+03 -.219E+03   0.149E+02 0.149E+02 0.154E+02   -.152E-01 -.152E-01 -.303E-01
   0.175E+03 0.175E+03 0.181E+03   -.184E+03 -.184E+03 -.188E+03   0.828E+01 0.828E+01 0.715E+01   0.438E-03 0.438E-03 -.341E-01
   0.206E+03 0.206E+03 0.222E+03   -.221E+03 -.221E+03 -.238E+03   0.147E+02 0.147E+02 0.156E+02   0.317E-01 0.317E-01 0.441E-02
   0.221E+03 -.204E+03 -.221E+03   -.236E+03 0.219E+03 0.236E+03   0.149E+02 -.154E+02 -.149E+02   -.152E-01 0.303E-01 0.152E-01
   0.175E+03 -.181E+03 -.175E+03   -.184E+03 0.188E+03 0.184E+03   0.828E+01 -.715E+01 -.828E+01   0.438E-03 0.341E-01 -.438E-03
   0.206E+03 -.222E+03 -.206E+03   -.221E+03 0.238E+03 0.221E+03   0.147E+02 -.156E+02 -.147E+02   0.317E-01 -.441E-02 -.317E-01
   -.204E+03 0.221E+03 -.221E+03   0.219E+03 -.236E+03 0.236E+03   -.154E+02 0.149E+02 -.149E+02   0.303E-01 -.152E-01 0.152E-01
   -.181E+03 0.175E+03 -.175E+03   0.188E+03 -.184E+03 0.184E+03   -.715E+01 0.828E+01 -.828E+01   0.341E-01 0.438E-03 -.438E-03
   -.222E+03 0.206E+03 -.206E+03   0.238E+03 -.221E+03 0.221E+03   -.156E+02 0.147E+02 -.147E+02   -.441E-02 0.317E-01 -.317E-01
   -.212E+03 -.212E+03 0.212E+03   0.224E+03 0.224E+03 -.224E+03   -.127E+02 -.127E+02 0.127E+02   -.491E-01 -.491E-01 0.491E-01
   -.182E+03 -.182E+03 0.182E+03   0.189E+03 0.189E+03 -.189E+03   -.710E+01 -.710E+01 0.710E+01   -.645E-02 -.645E-02 0.645E-02
   -.217E+03 -.217E+03 0.217E+03   0.230E+03 0.230E+03 -.230E+03   -.129E+02 -.129E+02 0.129E+02   0.455E-01 0.455E-01 -.455E-01
   -.179E+03 -.179E+03 -.188E+03   0.189E+03 0.189E+03 0.197E+03   -.947E+01 -.947E+01 -.944E+01   -.471E-01 -.471E-01 0.794E-01
   -.177E+03 -.177E+03 -.188E+03   0.186E+03 0.186E+03 0.198E+03   -.958E+01 -.958E+01 -.101E+02   -.145E-01 -.145E-01 0.272E-01
   -.188E+03 -.188E+03 -.175E+03   0.197E+03 0.197E+03 0.185E+03   -.917E+01 -.917E+01 -.976E+01   0.453E-01 0.453E-01 -.490E-01
   -.179E+03 0.188E+03 0.179E+03   0.189E+03 -.197E+03 -.189E+03   -.947E+01 0.944E+01 0.947E+01   -.471E-01 -.794E-01 0.471E-01
   -.177E+03 0.188E+03 0.177E+03   0.186E+03 -.198E+03 -.186E+03   -.958E+01 0.101E+02 0.958E+01   -.145E-01 -.272E-01 0.145E-01
   -.188E+03 0.175E+03 0.188E+03   0.197E+03 -.185E+03 -.197E+03   -.917E+01 0.976E+01 0.917E+01   0.453E-01 0.490E-01 -.453E-01
   0.188E+03 -.179E+03 0.179E+03   -.197E+03 0.189E+03 -.189E+03   0.944E+01 -.947E+01 0.947E+01   -.794E-01 -.471E-01 0.471E-01
   0.188E+03 -.177E+03 0.177E+03   -.198E+03 0.186E+03 -.186E+03   0.101E+02 -.958E+01 0.958E+01   -.272E-01 -.145E-01 0.145E-01
   0.175E+03 -.188E+03 0.188E+03   -.185E+03 0.197E+03 -.197E+03   0.976E+01 -.917E+01 0.917E+01   0.490E-01 0.453E-01 -.453E-01
   0.179E+03 0.179E+03 -.179E+03   -.186E+03 -.186E+03 0.186E+03   0.758E+01 0.758E+01 -.758E+01   0.147E-01 0.147E-01 -.147E-01
   0.194E+03 0.194E+03 -.194E+03   -.201E+03 -.201E+03 0.201E+03   0.728E+01 0.728E+01 -.728E+01   -.152E-01 -.152E-01 0.152E-01
   0.180E+03 0.180E+03 -.180E+03   -.188E+03 -.188E+03 0.188E+03   0.819E+01 0.819E+01 -.819E+01   0.847E-02 0.847E-02 -.847E-02
   -.706E+00 -.706E+00 0.706E+00   0.568E-13 -.114E-12 -.568E-13   0.704E+00 0.704E+00 -.704E+00   0.990E-02 0.990E-02 -.990E-02

 POSITION                                       TOTAL-FORCE (eV/Angst)
      2.94067     -1.08998     -0.92534        -0.004399     -0.004399      0.004399
      6.94702      2.91636     -0.90103        -0.003499     -0.003499      0.003499
      6.81363      6.81363     -4.79830        -0.003757     -0.003757      0.003757
      5.02441      0.99375      1.02158         0.008173      0.008173     -0.008173
      7.89320      3.86254     -3.87474        -0.001804     -0.001804      0.007125
     11.82922      7.79856     -3.77477         0.001572      0.001572      0.005131
      3.95740      3.95740      0.06680         0.002453      0.002453     -0.005405
      7.89320      5.89007     -1.84721        -0.001804     -0.007125      0.001804
     11.82922      5.79010     -5.78323         0.001572     -0.005131     -0.001572
      3.95740      1.94853     -1.94207         0.002453      0.005405     -0.002453
      5.89007      7.89320     -1.84721        -0.007125     -0.001804      0.001804
      9.82076      7.79856     -5.78323        -0.005131      0.001572     -0.001572
      5.97918     -0.07326     -1.94207         0.005405      0.002453     -0.002453
      9.87980      5.84914     -3.83381        -0.004720     -0.004720      0.004720
      1.95310      1.95310      0.06223         0.005266      0.005266     -0.005266
      5.93967      1.90901     -3.92434         0.000533      0.000533     -0.000533
      9.98430      5.95364     -5.70664        -0.000432     -0.000432     -0.005900
      2.07913      2.07913     -1.83736         0.009929      0.009929     -0.011875
      6.03717      6.03717     -1.75699        -0.004590     -0.004590      0.002395
      9.98430      7.72197     -3.93831        -0.000432      0.005900      0.000432
      2.07913      3.85269     -0.06380         0.009929      0.011875     -0.009929
      6.03717      3.77232     -4.02184        -0.004590     -0.002395      0.004590
      7.72197      9.98430     -3.93831         0.005900     -0.000432      0.000432
      3.85269      2.07913     -0.06380         0.011875      0.009929     -0.009929
      7.80298      2.00651     -4.02184        -0.002395     -0.004590      0.004590
      7.74411      3.71345     -5.72878        -0.003162     -0.003162      0.003162
      3.88689     -0.14377      2.15910         0.002335      0.002335     -0.002335
      3.79512      3.79512     -1.77979         0.010482      0.010482     -0.010482
      9.76211      5.73145     -1.94504        -0.002941     -0.002941      0.005478
      1.84719      1.84719      1.95771        -0.000990     -0.000990      0.004083
      5.84007      1.80942     -2.04423        -0.000774     -0.000774      0.006900
      9.76211      3.96037     -3.71612        -0.002941     -0.005478      0.002941
      1.84719      0.05762      0.16814        -0.000990     -0.004083      0.000990
      5.84007      4.05956      0.20591        -0.000774     -0.006900      0.000774
      7.99103      5.73145     -3.71612        -0.005478     -0.002941      0.002941
      4.08828     -2.18347      0.16814        -0.004083     -0.000990      0.000990
      4.05956      5.84007      0.20591        -0.006900     -0.000774      0.000774
      8.05115      4.02049     -2.00516        -0.000908     -0.000908      0.000908
      7.94145      7.94145     -5.92612        -0.001448     -0.001448      0.001448
      4.11290      0.08224     -2.09757        -0.001811     -0.001811      0.001811
    total drift:                                0.007785      0.007899     -0.007782

  FREE ENERGIE OF THE ION-ELECTRON SYSTEM (eV)
  free  energy   TOTEN  =      -249.4050794299 eV

  energy  without entropy=     -249.3749922167  energy(sigma->0) =     -249.39003582

 d Force = 0.1835992E-03[ 0.156E-03, 0.211E-03]  d Energy = 0.1315719E-03 0.520E-04
 d Force =-0.1795899E+00[-0.183E+00,-0.177E+00]  d Ewald  = 0.1032268E+00-0.283E+00

 Quasi-Newton relaxation of ions (Broydens 2nd method)
  g(Force)  = 0.139E-03   g(Stress)= 0.871E-04

 retain information from N=  2 steps
 eigenvalues of (default step * inverse Hessian matrix)
  average eigenvalue of G=   1.5646
 eigenvalue spectrum of G is  0.7782  2.3511

 reached required accuracy - stopping structural energy minimisation

volume of typ            1:     8.2 %

[...]

volume of typ            3:    10.3 %

total charge

# of ion       s       p       d       tot
    1        2.098   0.303   0.112   2.513
    2        2.103   0.322   0.120   2.546
    3        2.100   0.315   0.118   2.533
    4        2.102   0.323   0.118   2.543
    5        0.289   0.403   7.841   8.532
    6        0.289   0.406   7.843   8.538
    7        0.281   0.390   7.849   8.519
    8        0.289   0.403   7.841   8.532
    9        0.289   0.406   7.843   8.538
   10        0.281   0.390   7.849   8.519
   11        0.289   0.403   7.841   8.532
   12        0.289   0.406   7.843   8.538
   13        0.281   0.390   7.849   8.519
   14        0.284   0.388   7.846   8.518
   15        0.271   0.364   7.857   8.492
   16        0.289   0.402   7.833   8.525
   17        1.279   2.736   0.008   4.023
   18        1.262   2.785   0.006   4.054
   19        1.279   2.733   0.008   4.020
   20        1.279   2.736   0.008   4.023
   21        1.262   2.785   0.006   4.054
   22        1.279   2.733   0.008   4.020
   23        1.279   2.736   0.008   4.023
   24        1.262   2.785   0.006   4.054
   25        1.279   2.733   0.008   4.020
   26        1.282   2.730   0.008   4.020
   27        1.270   2.772   0.007   4.049
   28        1.281   2.731   0.008   4.020
   29        1.263   2.783   0.007   4.052
   30        1.260   2.790   0.007   4.057
   31        1.262   2.782   0.007   4.050
   32        1.263   2.783   0.007   4.052
   33        1.260   2.790   0.007   4.057
   34        1.262   2.782   0.007   4.050
   35        1.263   2.783   0.007   4.052
   36        1.260   2.790   0.007   4.057
   37        1.262   2.782   0.007   4.050
   38        1.269   2.775   0.007   4.050
   39        1.271   2.767   0.006   4.045
   40        1.266   2.774   0.007   4.047
tot          42.28   72.39   94.77  209.44

magnetization (x)

# of ion       s       p       d       tot
    1        0.002   0.001   0.001   0.005
    2        0.002   0.008   0.002   0.012
    3        0.002   0.008   0.002   0.012
    4        0.002   0.014   0.005   0.021
    5       -0.001  -0.001   0.166   0.165
    6       -0.001  -0.001   0.186   0.184
    7       -0.001  -0.001   0.280   0.278
    8       -0.001  -0.001   0.166   0.165
    9       -0.001  -0.001   0.186   0.184
   10       -0.001  -0.001   0.280   0.278
   11       -0.001  -0.001   0.166   0.165
   12       -0.001  -0.001   0.186   0.184
   13       -0.001  -0.001   0.280   0.278
   14       -0.000  -0.001   0.191   0.189
   15       -0.001  -0.001   0.453   0.451
   16       -0.001  -0.001   0.043   0.042
   17        0.002   0.018   0.000   0.019
   18        0.010   0.077   0.000   0.087
   19        0.001   0.015   0.000   0.017
   20        0.002   0.018   0.000   0.019
   21        0.010   0.077   0.000   0.087
   22        0.001   0.015   0.000   0.017
   23        0.002   0.018   0.000   0.019
   24        0.010   0.077   0.000   0.087
   25        0.001   0.015   0.000   0.017
   26        0.006   0.089   0.000   0.095
   27        0.012   0.090   0.000   0.101
   28        0.005   0.050   0.000   0.055
   29        0.003   0.030   0.000   0.034
   30        0.003   0.030   0.000   0.033
   31        0.004   0.034   0.000   0.039
   32        0.003   0.030   0.000   0.034
   33        0.003   0.030   0.000   0.033
   34        0.004   0.034   0.000   0.039
   35        0.003   0.030   0.000   0.034
   36        0.003   0.030   0.000   0.033
   37        0.004   0.034   0.000   0.039
   38        0.007   0.047   0.000   0.054
   39        0.011   0.090   0.000   0.101
   40        0.005   0.036  -0.000   0.041
tot           0.12    1.03    2.59    3.74