 vasp.5.4.4.18Apr17-6-g9f103f2a35 (build May 12 2020 05:39:39) gamma-only

 MD_VERSION_INFO: Compiled 2020-05-12T12:39:39-UTC in devlin.sd.materialsdesign.
 com:/home/medea2/data/build/wwolf/vasp-gpu5.4.4/13047/x86_64/src/src/build/gam
 from svn 13047

 executed on                        Lin64 date 2023.02.09  13:43:55

 INCAR:
 POTCAR:    PAW_PBE Li_sv 10Sep2004
 POTCAR:    PAW_PBE Ni 02Aug2007
 POTCAR:    PAW_PBE O 08Apr2002

 POTCAR:    PAW_PBE Li_sv 10Sep2004

 POTCAR:    PAW_PBE Ni 02Aug2007

 POTCAR:    PAW_PBE O 08Apr2002

 Optimization of the real space projectors (new method)

 maximal supplied QI-value         = 22.11
 optimisation between [QCUT,QGAM] = [ 11.28, 22.77] = [ 35.61,145.23] Ry
 Optimized for a Real-space Cutoff    1.10 Angstroem

   l    n(q)    QCUT    max X(q) W(low)/X(q) W(high)/X(q)  e(spline)
   0      7    11.276    10.506    0.54E-04    0.58E-04    0.16E-07
   0      7    11.276     8.367    0.11E-03    0.14E-03    0.35E-07
   1      7    11.276     8.983    0.23E-03    0.43E-03    0.86E-07
 Optimization of the real space projectors (new method)

[...]

   l    n(q)    QCUT    max X(q) W(low)/X(q) W(high)/X(q)  e(spline)
   2      9    11.376    60.317    0.17E-03    0.16E-04    0.16E-06
   2      9    11.376    55.921    0.17E-03    0.16E-04    0.17E-06
   0     10    11.376    51.690    0.45E-04    0.60E-04    0.21E-06
   0     10    11.376    30.015    0.37E-04    0.55E-04    0.19E-06
   1     10    11.376    18.849    0.83E-04    0.11E-03    0.92E-07
   1     10    11.376    14.624    0.69E-04    0.92E-04    0.82E-07
 Optimization of the real space projectors (new method)

 maximal supplied QI-value         = 24.76
 optimisation between [QCUT,QGAM] = [ 11.39, 22.77] = [ 36.31,145.25] Ry
 Optimized for a Real-space Cutoff    1.10 Angstroem

   l    n(q)    QCUT    max X(q) W(low)/X(q) W(high)/X(q)  e(spline)
   0      7    11.387    20.381    0.22E-03    0.48E-03    0.18E-06
   0      7    11.387    15.268    0.22E-03    0.52E-03    0.19E-06
   1      7    11.387     5.964    0.22E-03    0.73E-03    0.24E-06
   1      7    11.387     5.382    0.19E-03    0.60E-03    0.21E-06

  PAW_PBE Li_sv 10Sep2004               :
  PAW_PBE Ni 02Aug2007                  :
  PAW_PBE O 08Apr2002                   :

 POSCAR: ce46_1
  positions in direct lattice
 exchange correlation table for  LEXCH =       14
   RHO(1)=    0.500       N(1)  =     2000
   RHO(2)=  100.500       N(2)  =     4000

 ion  position               nearest neighbor table
   1  0.942  0.471  0.087-  42 1.91  46 1.91  38 1.91  51 2.04
   2  0.438  0.719  0.343-  52 1.93  43 1.93  47 1.93  39 1.93
   3  0.940  0.970  0.590-  44 1.92  48 1.92  40 1.92  53 1.97
   4  0.441  0.220  0.839-  45 1.92  49 1.92  41 1.92  50 1.96
   5  0.560  0.780  0.160-  26 1.91  30 1.91  22 1.91  34 1.97
   6  1.000  1.000  0.999-  29 1.85  33 1.85  42 1.87  46 1.87  34 1.88  50 1.89  21 2.75  18 2.80
                            10 2.83  14 2.83  14 2.85  10 2.85
   7  0.499  0.249  0.251-  35 1.86  30 1.87  26 1.87  43 1.88  47 1.88  51 1.88  18 2.80  19 2.81
                            15 2.83  11 2.83  11 2.85  15 2.85
   8  0.997  0.499  0.501-  27 1.86  31 1.86  36 1.86  48 1.88  44 1.88  52 1.88  19 2.75  20 2.81
                            16 2.82  12 2.82  12 2.86  16 2.86
   9  0.498  0.749  0.750-  32 1.86  28 1.86  37 1.86  45 1.87  49 1.87  53 1.88  20 2.75  21 2.81
                            13 2.83  17 2.83  17 2.86  13 2.86
  10  0.501  1.000  0.999-  33 1.85  25 1.85  38 1.87  46 1.87  34 1.88  50 1.89  21 2.75  18 2.80
                             6 2.83  14 2.83  14 2.85   6 2.85
  11  1.000  0.249  0.251-  35 1.86  22 1.87  30 1.87  39 1.88  47 1.88  51 1.88  18 2.80  19 2.81
                            15 2.83   7 2.83   7 2.85  15 2.85
  12  0.501  0.499  0.501-  23 1.86  31 1.86  36 1.86  40 1.88  48 1.88  52 1.88  19 2.75  20 2.81
                            16 2.82   8 2.82   8 2.86  16 2.86
  13  0.001  0.749  0.750-  24 1.86  32 1.86  37 1.86  41 1.87  49 1.87  53 1.88  20 2.75  21 2.81
                             9 2.83  17 2.83  17 2.86   9 2.86
  14  0.501  0.501  0.999-  25 1.85  29 1.85  38 1.87  42 1.87  34 1.88  50 1.89  21 2.75  18 2.80
                             6 2.83  10 2.83  10 2.85   6 2.85
  15  1.000  0.751  0.251-  35 1.86  22 1.87  26 1.87  43 1.88  39 1.88  51 1.88  18 2.80  19 2.81
                            11 2.83   7 2.83   7 2.85  11 2.85
  16  0.501  0.002  0.501-  23 1.86  27 1.86  36 1.86  44 1.88  40 1.88  52 1.88  19 2.75  20 2.81
                            12 2.82   8 2.82   8 2.86  12 2.86
  17  0.001  0.252  0.750-  28 1.86  24 1.86  37 1.86  41 1.87  45 1.87  53 1.88  20 2.75  21 2.81
                             9 2.83  13 2.83  13 2.86   9 2.86
  18  0.250  0.125  0.125-  38 1.91  42 1.91  46 1.91  22 1.91  30 1.91  26 1.91   7 2.80  15 2.80
                            11 2.80  14 2.80  10 2.80   6 2.80
  19  0.748  0.374  0.377-  23 1.88  31 1.88  27 1.88  39 1.91  43 1.91  47 1.91  12 2.75   8 2.75
                            16 2.75  15 2.81   7 2.81  11 2.81
  20  0.249  0.624  0.627-  24 1.88  32 1.88  28 1.88  40 1.90  44 1.90  48 1.90  13 2.75   9 2.75
                            17 2.75  16 2.81   8 2.81  12 2.81
  21  0.749  0.875  0.876-  25 1.88  33 1.88  29 1.88  41 1.90  45 1.90  49 1.90  10 2.75   6 2.75
                            14 2.75   9 2.81  17 2.81  13 2.81
  22  0.907  0.953  0.193-  15 1.87  11 1.87   5 1.91  18 1.91
  23  0.409  0.204  0.444-  12 1.86  16 1.86  19 1.88
  24  0.909  0.455  0.693-  13 1.86  17 1.86  20 1.88
  25  0.410  0.705  0.943-  14 1.85  10 1.85  21 1.88
  26  0.353  0.953  0.193-   7 1.87  15 1.87   5 1.91  18 1.91
  27  0.852  0.204  0.444-   8 1.86  16 1.86  19 1.88
  28  0.352  0.455  0.693-   9 1.86  17 1.86  20 1.88
  29  0.853  0.705  0.943-   6 1.85  14 1.85  21 1.88
  30  0.353  0.400  0.193-   7 1.87  11 1.87   5 1.91  18 1.91
  31  0.852  0.648  0.444-   8 1.86  12 1.86  19 1.88
  32  0.352  0.898  0.693-   9 1.86  13 1.86  20 1.88
  33  0.853  0.148  0.943-  10 1.85   6 1.85  21 1.88
  34  0.633  0.817  0.050-   6 1.88  10 1.88  14 1.88   5 1.97
  35  0.133  0.067  0.300-   7 1.86  11 1.86  15 1.86
  36  0.633  0.317  0.550-   8 1.86  12 1.86  16 1.86
  37  0.133  0.567  0.800-   9 1.86  17 1.86  13 1.86
  38  0.592  0.296  0.056-  10 1.87  14 1.87   1 1.91  18 1.91
  39  0.089  0.545  0.309-  11 1.88  15 1.88  19 1.91   2 1.93
  40  0.588  0.794  0.559-  12 1.88  16 1.88  20 1.90   3 1.92
  41  0.089  0.044  0.807-  13 1.87  17 1.87  21 1.90   4 1.92
  42  0.148  0.296  0.056-   6 1.87  14 1.87   1 1.91  18 1.91
  43  0.646  0.545  0.309-   7 1.88  15 1.88  19 1.91   2 1.93
  44  0.147  0.794  0.559-   8 1.88  16 1.88  20 1.90   3 1.92
  45  0.648  0.044  0.807-   9 1.87  17 1.87  21 1.90   4 1.92
  46  0.148  0.853  0.056-   6 1.87  10 1.87   1 1.91  18 1.91
  47  0.646  0.102  0.309-   7 1.88  11 1.88  19 1.91   2 1.93
  48  0.147  0.353  0.559-   8 1.88  12 1.88  20 1.90   3 1.92
  49  0.648  0.604  0.807-   9 1.87  13 1.87  21 1.90   4 1.92
  50  0.368  0.184  0.948-   6 1.89  14 1.89  10 1.89   4 1.96
  51  0.866  0.433  0.200-   7 1.88  11 1.88  15 1.88   1 2.04
  52  0.366  0.683  0.451-   8 1.88  12 1.88  16 1.88   2 1.93
  53  0.867  0.934  0.699-   9 1.88  13 1.88  17 1.88   3 1.97

  LATTYP: Found a trigonal (rhomboedric) cell.
 ALAT       =    18.3075276204
 COS(alpha) =     0.9517772619

  Lattice vectors:

 A1 = ( -11.7386568711, -11.7386568711,   7.7183830751)
 A2 = (  -7.7183830751, -11.7386568711,  11.7386568711)
 A3 = ( -11.7386568711,  -7.7183830751,  11.7386568711)

Analysis of symmetry for initial positions (statically):
 Subroutine PRICEL returns:
 Original cell was already a primitive cell.

 Routine SETGRP: Setting up the symmetry group for a
 trigonal (rhombohedral) supercell.

 Subroutine GETGRP returns: Found  6 space group operations
 (whereof  2 operations were pure point group operations)
 out of a pool of 12 trial point group operations.

The static configuration has the point symmetry C_1h.
 The point group associated with its full space group is C_3v.

Analysis of symmetry for dynamics (positions and initial velocities):
 Subroutine PRICEL returns:
 Original cell was already a primitive cell.

[...]

The dynamic configuration has the point symmetry C_1h.
 The point group associated with its full space group is C_3v.

Analysis of structural, dynamic, and magnetic symmetry:
 Subroutine PRICEL returns:
 Original cell was already a primitive cell.

 Routine SETGRP: Setting up the symmetry group for a
 trigonal (rhombohedral) supercell.

 Subroutine GETGRP returns: Found  6 space group operations
 (whereof  2 operations were pure point group operations)
 out of a pool of 12 trial point group operations.

The magnetic configuration has the point symmetry C_1h.
 The point group associated with its full space group is C_3v.

 Subroutine INISYM returns: Found  6 space group operations
 (whereof  2 operations are pure point group operations),
 and found     1 'primitive' translations

 KPOINTS: Automatic mesh

Automatic generation of k-mesh.
Space group operators:
 irot       det(A)        alpha          n_x          n_y          n_z        tau_x        tau_y        tau_z
    1     1.000000     0.000000     1.000000     0.000000     0.000000     0.000000     0.000000     0.000000
    2    -1.000000   180.000000     0.707107    -0.707107     0.000000     0.000000     0.000000     0.000000
    3     1.000000   120.000000     0.577350     0.577350    -0.577350     0.500000     0.500000    -1.000000
    4    -1.000000   180.000000     0.707107     0.000000     0.707107     0.500000     0.500000    -1.000000
    5     1.000000   120.000000    -0.577350    -0.577350     0.577350     0.500000     0.000000    -1.000000
    6    -1.000000   180.000000     0.000000     0.707107     0.707107     0.500000     0.000000    -1.000000

 Subroutine IBZKPT returns following result:

 Found      1 irreducible k-points:

 Following reciprocal coordinates:
            Coordinates               Weight
  0.000000  0.000000  0.000000      1.000000

 Following cartesian coordinates:
            Coordinates               Weight
  0.000000  0.000000  0.000000      1.000000

 SYSTEM =  unknown system
 POSCAR =  ce46_1

 Startparameter for this run:
   NWRITE =      1    write-flag & timer
   PREC   = accura    normal or accurate (medium, high low for compatibility)
   ISTART =      0    job   : 0-new  1-cont  2-samecut
   ICHARG =      2    charge: 1-file 2-atom 10-const
   ISPIN  =      2    spin polarized calculation?
   LNONCOLLINEAR =      F non collinear calculations
   LSORBIT =      F    spin-orbit coupling
   INIWAV =      1    electr: 0-lowe 1-rand  2-diag
   LASPH  =      F    aspherical Exc in radial PAW
   METAGGA=      F    non-selfconsistent MetaGGA calc.

 Electronic Relaxation 1
   ENCUT  =  500.0 eV  36.75 Ry    6.06 a.u.  10.37 10.37 33.38*2*pi/ulx,y,z
   ENINI  =  500.0     initial cutoff
   ENAUG  =  628.9 eV  augmentation charge cutoff
   NELM   =     80;   NELMIN=  2; NELMDL= -5     # of ELM steps
   EDIFF  = 0.1E-04   stopping-criterion for ELM
[...]
   0.269E+01 0.269E+01 -.269E+01   -.254E+01 -.254E+01 0.254E+01   -.140E+00 -.140E+00 0.140E+00   -.744E-02 -.744E-02 0.744E-02
   0.242E+01 0.242E+01 -.242E+01   -.244E+01 -.244E+01 0.244E+01   0.206E-01 0.206E-01 -.206E-01   0.943E-03 0.943E-03 -.943E-03
   0.161E+02 0.161E+02 -.324E+02   -.159E+02 -.159E+02 0.330E+02   -.221E+00 -.221E+00 -.583E+00   0.125E-01 0.125E-01 0.120E-02
   -.220E+02 -.220E+02 0.231E+02   0.222E+02 0.222E+02 -.233E+02   -.227E+00 -.227E+00 0.199E+00   0.631E-02 0.631E-02 -.168E-01
   -.151E+02 -.151E+02 0.339E+01   0.155E+02 0.155E+02 -.303E+01   -.449E+00 -.449E+00 -.346E+00   0.633E-03 0.636E-03 -.124E-01
   0.895E+00 0.895E+00 -.131E+02   -.391E+00 -.391E+00 0.134E+02   -.488E+00 -.488E+00 -.359E+00   -.146E-01 -.146E-01 0.133E-01
   0.161E+02 0.324E+02 -.161E+02   -.159E+02 -.330E+02 0.159E+02   -.221E+00 0.583E+00 0.221E+00   0.125E-01 -.121E-02 -.125E-01
   -.220E+02 -.231E+02 0.220E+02   0.222E+02 0.233E+02 -.222E+02   -.227E+00 -.199E+00 0.227E+00   0.631E-02 0.168E-01 -.631E-02
   -.151E+02 -.339E+01 0.151E+02   0.155E+02 0.303E+01 -.155E+02   -.449E+00 0.346E+00 0.449E+00   0.635E-03 0.124E-01 -.636E-03
   0.895E+00 0.131E+02 -.895E+00   -.391E+00 -.134E+02 0.391E+00   -.488E+00 0.359E+00 0.488E+00   -.146E-01 -.133E-01 0.146E-01
   0.324E+02 0.161E+02 -.161E+02   -.330E+02 -.159E+02 0.159E+02   0.583E+00 -.221E+00 0.221E+00   -.121E-02 0.125E-01 -.125E-01
   -.231E+02 -.220E+02 0.220E+02   0.233E+02 0.222E+02 -.222E+02   -.199E+00 -.227E+00 0.227E+00   0.168E-01 0.631E-02 -.631E-02
   -.339E+01 -.151E+02 0.151E+02   0.303E+01 0.155E+02 -.155E+02   0.346E+00 -.449E+00 0.449E+00   0.124E-01 0.635E-03 -.632E-03
   0.131E+02 0.895E+00 -.895E+00   -.134E+02 -.391E+00 0.391E+00   0.359E+00 -.488E+00 0.488E+00   -.133E-01 -.146E-01 0.146E-01
   0.115E+01 0.115E+01 -.115E+01   -.126E+01 -.126E+01 0.126E+01   0.110E+00 0.110E+00 -.110E+00   -.302E-02 -.302E-02 0.302E-02
   -.801E+01 -.801E+01 0.801E+01   0.749E+01 0.749E+01 -.749E+01   0.479E+00 0.479E+00 -.479E+00   0.367E-01 0.367E-01 -.367E-01
   0.835E+01 0.835E+01 -.835E+01   -.893E+01 -.893E+01 0.893E+01   0.592E+00 0.592E+00 -.592E+00   -.122E-01 -.122E-01 0.122E-01
   0.248E+02 0.248E+02 -.248E+02   -.253E+02 -.253E+02 0.253E+02   0.460E+00 0.460E+00 -.460E+00   -.271E-01 -.271E-01 0.271E-01
   0.176E+03 0.176E+03 0.175E+03   -.185E+03 -.185E+03 -.184E+03   0.948E+01 0.948E+01 0.868E+01   -.393E-02 -.393E-02 0.273E-02
   0.204E+03 0.204E+03 0.218E+03   -.219E+03 -.219E+03 -.234E+03   0.151E+02 0.151E+02 0.155E+02   0.195E-01 0.195E-01 -.184E-01
   0.214E+03 0.214E+03 0.208E+03   -.229E+03 -.229E+03 -.224E+03   0.153E+02 0.153E+02 0.157E+02   -.450E-03 -.450E-03 -.110E-01
   0.224E+03 0.224E+03 0.197E+03   -.239E+03 -.239E+03 -.213E+03   0.151E+02 0.151E+02 0.155E+02   -.817E-02 -.817E-02 -.132E-01
   0.176E+03 -.175E+03 -.176E+03   -.185E+03 0.184E+03 0.185E+03   0.948E+01 -.868E+01 -.948E+01   -.393E-02 -.273E-02 0.393E-02
   0.204E+03 -.218E+03 -.204E+03   -.219E+03 0.234E+03 0.219E+03   0.151E+02 -.155E+02 -.151E+02   0.195E-01 0.184E-01 -.195E-01
   0.214E+03 -.208E+03 -.214E+03   -.229E+03 0.224E+03 0.229E+03   0.153E+02 -.157E+02 -.153E+02   -.450E-03 0.110E-01 0.450E-03
   0.224E+03 -.197E+03 -.224E+03   -.239E+03 0.213E+03 0.239E+03   0.151E+02 -.155E+02 -.151E+02   -.817E-02 0.132E-01 0.817E-02
   -.175E+03 0.176E+03 -.176E+03   0.184E+03 -.185E+03 0.185E+03   -.868E+01 0.948E+01 -.948E+01   -.273E-02 -.393E-02 0.393E-02
   -.218E+03 0.204E+03 -.204E+03   0.234E+03 -.219E+03 0.219E+03   -.155E+02 0.151E+02 -.151E+02   0.184E-01 0.195E-01 -.195E-01
   -.208E+03 0.214E+03 -.214E+03   0.224E+03 -.229E+03 0.229E+03   -.157E+02 0.153E+02 -.153E+02   0.110E-01 -.450E-03 0.450E-03
   -.197E+03 0.224E+03 -.224E+03   0.213E+03 -.239E+03 0.239E+03   -.155E+02 0.151E+02 -.151E+02   0.132E-01 -.817E-02 0.817E-02
   -.178E+03 -.178E+03 0.178E+03   0.186E+03 0.186E+03 -.186E+03   -.765E+01 -.765E+01 0.765E+01   0.778E-02 0.778E-02 -.778E-02
   -.223E+03 -.223E+03 0.223E+03   0.236E+03 0.236E+03 -.236E+03   -.131E+02 -.131E+02 0.131E+02   0.166E-01 0.166E-01 -.166E-01
   -.216E+03 -.216E+03 0.216E+03   0.230E+03 0.230E+03 -.230E+03   -.132E+02 -.132E+02 0.132E+02   -.100E-01 -.100E-01 0.100E-01
   -.207E+03 -.207E+03 0.207E+03   0.220E+03 0.220E+03 -.220E+03   -.131E+02 -.131E+02 0.131E+02   -.171E-01 -.171E-01 0.171E-01
   -.173E+03 -.173E+03 -.185E+03   0.183E+03 0.183E+03 0.194E+03   -.940E+01 -.940E+01 -.910E+01   0.298E-02 0.298E-02 -.116E-01
   -.195E+03 -.195E+03 -.159E+03   0.205E+03 0.205E+03 0.168E+03   -.955E+01 -.955E+01 -.894E+01   0.175E-01 0.175E-01 -.693E-02
   -.184E+03 -.184E+03 -.178E+03   0.194E+03 0.194E+03 0.187E+03   -.956E+01 -.956E+01 -.942E+01   -.133E-01 -.133E-01 0.200E-01
   -.175E+03 -.175E+03 -.185E+03   0.185E+03 0.185E+03 0.194E+03   -.986E+01 -.986E+01 -.928E+01   -.219E-01 -.219E-01 0.280E-01
   -.173E+03 0.185E+03 0.173E+03   0.183E+03 -.194E+03 -.183E+03   -.940E+01 0.910E+01 0.940E+01   0.298E-02 0.116E-01 -.298E-02
   -.195E+03 0.159E+03 0.195E+03   0.205E+03 -.168E+03 -.205E+03   -.955E+01 0.894E+01 0.955E+01   0.175E-01 0.693E-02 -.175E-01
   -.184E+03 0.178E+03 0.184E+03   0.194E+03 -.187E+03 -.194E+03   -.956E+01 0.942E+01 0.956E+01   -.133E-01 -.200E-01 0.133E-01
   -.175E+03 0.185E+03 0.175E+03   0.185E+03 -.194E+03 -.185E+03   -.986E+01 0.928E+01 0.986E+01   -.219E-01 -.280E-01 0.219E-01
   0.185E+03 -.173E+03 0.173E+03   -.194E+03 0.183E+03 -.183E+03   0.910E+01 -.940E+01 0.940E+01   0.116E-01 0.298E-02 -.298E-02
   0.159E+03 -.195E+03 0.195E+03   -.168E+03 0.205E+03 -.205E+03   0.894E+01 -.955E+01 0.955E+01   0.693E-02 0.175E-01 -.175E-01
   0.178E+03 -.184E+03 0.184E+03   -.187E+03 0.194E+03 -.194E+03   0.942E+01 -.956E+01 0.956E+01   -.200E-01 -.133E-01 0.133E-01
   0.185E+03 -.175E+03 0.175E+03   -.194E+03 0.185E+03 -.185E+03   0.928E+01 -.986E+01 0.986E+01   -.280E-01 -.219E-01 0.219E-01
   0.197E+03 0.197E+03 -.197E+03   -.205E+03 -.205E+03 0.205E+03   0.789E+01 0.789E+01 -.789E+01   -.384E-02 -.384E-02 0.384E-02
   0.180E+03 0.180E+03 -.180E+03   -.189E+03 -.189E+03 0.189E+03   0.847E+01 0.847E+01 -.847E+01   -.216E-02 -.216E-02 0.216E-02
   0.176E+03 0.176E+03 -.176E+03   -.184E+03 -.184E+03 0.184E+03   0.815E+01 0.815E+01 -.815E+01   0.190E-01 0.190E-01 -.190E-01
   0.188E+03 0.188E+03 -.188E+03   -.196E+03 -.196E+03 0.196E+03   0.834E+01 0.834E+01 -.834E+01   -.241E-03 -.241E-03 0.241E-03
   -.388E-01 -.390E-01 0.407E-01   -.171E-12 -.227E-12 -.114E-12   0.130E-01 0.130E-01 -.130E-01   0.233E-01 0.233E-01 -.233E-01

 POSITION                                       TOTAL-FORCE (eV/Angst)
      2.91488      2.91488      3.11620        -0.004177     -0.004177      0.004177
      6.92139      2.90067     -0.89031        -0.002229     -0.002229      0.002229
     10.82396      6.80324     -0.77215         0.004349      0.004349     -0.004349
     10.73025     10.73025     -4.69917         0.000832      0.000832     -0.000832
      5.00959      0.98887      1.02149        -0.002614     -0.002614      0.002614
     15.74293     11.72220     -3.68672         0.000869      0.000869      0.003595
      3.94625      3.94625      0.06903         0.003166      0.003166      0.000533
      7.88028      7.88028      0.14842         0.005082      0.005082      0.003995
     11.81164      7.79092     -3.78124         0.001579      0.001579      0.004110
     15.74293      9.71780     -5.69112         0.000869     -0.003595     -0.000869
      3.94625      5.96206      2.08483         0.003166     -0.000533     -0.003166
      7.88028      5.88266     -1.84919         0.005082     -0.003995     -0.005082
     11.81164      5.79160     -5.78056         0.001579     -0.004110     -0.001579
     13.73853     11.72220     -5.69112        -0.003595      0.000869     -0.000869
      5.96206      3.94625      2.08483        -0.000533      0.003166     -0.003166
      5.88266      7.88028     -1.84919        -0.003995      0.005082     -0.005082
      9.81232      7.79092     -5.78056        -0.004110      0.001579     -0.001579
      1.96669      1.96669      0.04367        -0.003611     -0.003611      0.003611
      5.93365      5.93365      0.09744         0.001607      0.001607     -0.001607
      9.86773      5.84700     -3.83664        -0.005228     -0.005228      0.005228
     13.79880      9.77808     -3.74699        -0.004292     -0.004292      0.004292
      6.09971      2.07899      2.15630         0.000530      0.000530      0.003130
      6.02855      6.02855     -1.78029         0.002771      0.002771      0.000170
      9.96261      9.96261     -1.69317         0.000437      0.000437      0.001171
     13.89684      9.87612     -5.62593        -0.000190     -0.000190     -0.001438
      6.09971     -0.14594     -0.06863         0.000530     -0.003130     -0.000530
      6.02855      7.81138      0.00253         0.002771     -0.000170     -0.002771
      9.96261      7.72425     -3.93153         0.000437     -0.001171     -0.000437
     13.89684     11.65702     -3.84504        -0.000190      0.001438      0.000190
      3.87479      2.07899     -0.06863        -0.003130      0.000530     -0.000530
      7.81138      6.02855      0.00253        -0.000170      0.002771     -0.002771
     11.74498      5.94189     -3.93153        -0.001171      0.000437     -0.000437
     11.65702     13.89684     -3.84504         0.001438     -0.000190      0.000190
      3.87484     -0.14588      2.15624         0.000107      0.000107     -0.000107
      3.79227      3.79227     -1.78191         0.003582      0.003582     -0.003582
      7.73337      7.73337     -1.70229         0.005270      0.005270     -0.005270
     11.66629      7.64557     -5.63521        -0.000956     -0.000956      0.000956
      1.84571      1.84571      1.94748        -0.002933     -0.002933      0.003518
      5.81669      1.79597     -2.02476         0.002181      0.002181     -0.003089
      9.74811      5.72739     -1.94484         0.001194      0.001194     -0.003439
      9.65416      9.65416     -5.87077        -0.003587     -0.003587      0.007464
      1.84571      0.06288      0.16465        -0.002933     -0.003518      0.002933
      5.81669      4.03512      0.21439         0.002181      0.003089     -0.002181
      9.74811      3.95520     -3.71703         0.001194      0.003439     -0.001194
      9.65416     11.90185     -3.62307        -0.003587     -0.007464      0.003587
      4.08361     -2.17501      0.16465        -0.003518     -0.002933      0.002933
      4.03512      5.81669      0.21439         0.003089      0.002181     -0.002181
      7.97592      5.72739     -3.71703         0.003439      0.001194     -0.001194
     11.90185      9.65416     -3.62307        -0.007464     -0.003587      0.003587
     11.86365     11.86365     -5.83257        -0.001717     -0.001717      0.001717
      4.09362      4.09362      1.93746         0.002908      0.002908     -0.002908
      8.03596      4.01524     -2.00488         0.000700      0.000700     -0.000700
     11.96134      7.94062     -1.90953         0.002989      0.002989     -0.002989
    total drift:                               -0.002427     -0.002642      0.004336

  FREE ENERGIE OF THE ION-ELECTRON SYSTEM (eV)
  free  energy   TOTEN  =      -330.9462079191 eV

  energy  without entropy=     -330.8902964199  energy(sigma->0) =     -330.91825217

 d Force = 0.1686264E-03[-0.205E-04, 0.358E-03]  d Energy = 0.1721334E-03-0.351E-05
 d Force =-0.5189374E+00[-0.523E+00,-0.515E+00]  d Ewald  = 0.3499531E+00-0.869E+00

 Quasi-Newton relaxation of ions (Broydens 2nd method)
  g(Force)  = 0.682E-04   g(Stress)= 0.253E-04

 retain information from N=  2 steps
 eigenvalues of (default step * inverse Hessian matrix)
  average eigenvalue of G=   1.2078
 eigenvalue spectrum of G is  1.2078  1.2078

 reached required accuracy - stopping structural energy minimisation

volume of typ            1:     7.7 %

[...]

volume of typ            3:    10.3 %

total charge

# of ion       s       p       d       tot
    1        2.101   0.315   0.118   2.534
    2        2.103   0.322   0.120   2.545
    3        2.101   0.317   0.119   2.537
    4        2.102   0.319   0.120   2.541
    5        2.107   0.332   0.124   2.563
    6        0.289   0.408   7.844   8.541
    7        0.285   0.400   7.845   8.530
    8        0.290   0.408   7.840   8.539
    9        0.291   0.410   7.838   8.540
   10        0.289   0.408   7.844   8.541
   11        0.285   0.400   7.845   8.530
   12        0.290   0.408   7.840   8.539
   13        0.291   0.410   7.838   8.540
   14        0.289   0.408   7.844   8.541
   15        0.285   0.400   7.845   8.530
   16        0.290   0.408   7.840   8.539
   17        0.291   0.410   7.838   8.540
   18        0.266   0.355   7.862   8.483
   19        0.279   0.380   7.849   8.508
   20        0.282   0.385   7.848   8.514
   21        0.279   0.379   7.851   8.510
   22        1.260   2.789   0.007   4.057
   23        1.279   2.734   0.008   4.020
   24        1.279   2.734   0.008   4.021
   25        1.278   2.736   0.008   4.022
   26        1.260   2.789   0.007   4.057
   27        1.279   2.734   0.008   4.020
   28        1.279   2.734   0.008   4.021
   29        1.278   2.736   0.008   4.022
   30        1.260   2.789   0.007   4.057
   31        1.279   2.734   0.008   4.020
   32        1.279   2.734   0.008   4.021
   33        1.278   2.736   0.008   4.022
   34        1.269   2.774   0.007   4.050
   35        1.282   2.729   0.008   4.019
   36        1.283   2.729   0.008   4.020
   37        1.283   2.727   0.008   4.018
   38        1.261   2.790   0.007   4.058
   39        1.263   2.782   0.007   4.052
   40        1.263   2.783   0.007   4.053
   41        1.263   2.784   0.007   4.053
   42        1.261   2.790   0.007   4.058
   43        1.263   2.782   0.007   4.052
   44        1.263   2.783   0.007   4.053
   45        1.263   2.784   0.007   4.053
   46        1.261   2.790   0.007   4.058
   47        1.263   2.782   0.007   4.052
   48        1.263   2.783   0.007   4.053
   49        1.263   2.784   0.007   4.053
   50        1.270   2.767   0.007   4.044
   51        1.268   2.770   0.007   4.045
   52        1.269   2.773   0.007   4.048
   53        1.270   2.767   0.007   4.044
tot          55.72   96.42  126.34  278.48

magnetization (x)

# of ion       s       p       d       tot
    1        0.002   0.003   0.002   0.006
    2        0.001   0.006   0.002   0.009
    3        0.001   0.004   0.001   0.007
    4        0.002   0.005   0.002   0.009
    5        0.002   0.008   0.003   0.013
    6       -0.001  -0.001   0.173   0.171
    7       -0.001  -0.001   0.215   0.213
    8       -0.001  -0.001   0.136   0.135
    9       -0.001  -0.001   0.116   0.114
   10       -0.001  -0.001   0.173   0.171
   11       -0.001  -0.001   0.215   0.213
   12       -0.001  -0.001   0.136   0.135
   13       -0.001  -0.001   0.116   0.114
   14       -0.001  -0.001   0.173   0.171
   15       -0.001  -0.001   0.215   0.213
   16       -0.001  -0.001   0.136   0.135
   17       -0.001  -0.001   0.116   0.114
   18       -0.000  -0.001   0.566   0.565
   19       -0.000  -0.000   0.275   0.274
   20       -0.000  -0.000   0.256   0.256
   21       -0.000  -0.000   0.300   0.299
   22        0.006   0.057   0.000   0.063
   23        0.002   0.022   0.000   0.023
   24        0.001   0.016   0.000   0.018
   25        0.002   0.017   0.000   0.019
   26        0.006   0.057   0.000   0.063
   27        0.002   0.022   0.000   0.023
   28        0.001   0.016   0.000   0.018
   29        0.002   0.017   0.000   0.019
   30        0.006   0.057   0.000   0.063
   31        0.002   0.022   0.000   0.023
   32        0.001   0.016   0.000   0.018
   33        0.002   0.017   0.000   0.019
   34        0.010   0.073   0.000   0.083
   35        0.005   0.055   0.000   0.060
   36        0.005   0.066   0.000   0.072
   37        0.005   0.070   0.000   0.076
   38        0.005   0.040   0.000   0.044
   39        0.005   0.037   0.000   0.043
   40        0.004   0.027   0.000   0.031
   41        0.004   0.025   0.000   0.029
   42        0.005   0.040   0.000   0.044
   43        0.005   0.037   0.000   0.043
   44        0.004   0.027   0.000   0.031
   45        0.004   0.025   0.000   0.029
   46        0.005   0.040   0.000   0.044
   47        0.005   0.037   0.000   0.043
   48        0.004   0.027   0.000   0.031
   49        0.004   0.025   0.000   0.029
   50        0.010   0.072   0.000   0.082
   51        0.005   0.035   0.000   0.040
   52        0.005   0.036   0.000   0.042
   53        0.006   0.039   0.000   0.045
tot           0.13    1.19    3.33    4.65