 vasp.5.4.4.18Apr17-6-g9f103f2a35 (build May 12 2020 05:39:39) gamma-only

 MD_VERSION_INFO: Compiled 2020-05-12T12:39:39-UTC in devlin.sd.materialsdesign.
 com:/home/medea2/data/build/wwolf/vasp-gpu5.4.4/13047/x86_64/src/src/build/gam
 from svn 13047

 executed on                        Lin64 date 2023.02.09  13:42:39

 INCAR:
 POTCAR:    PAW_PBE Li_sv 10Sep2004
 POTCAR:    PAW_PBE Ni 02Aug2007
 POTCAR:    PAW_PBE O 08Apr2002

 POTCAR:    PAW_PBE Li_sv 10Sep2004

 POTCAR:    PAW_PBE Ni 02Aug2007

 POTCAR:    PAW_PBE O 08Apr2002

 Optimization of the real space projectors (new method)

 maximal supplied QI-value         = 22.11
 optimisation between [QCUT,QGAM] = [ 11.28, 22.77] = [ 35.61,145.23] Ry
 Optimized for a Real-space Cutoff    1.10 Angstroem

   l    n(q)    QCUT    max X(q) W(low)/X(q) W(high)/X(q)  e(spline)
   0      7    11.276    10.506    0.54E-04    0.58E-04    0.16E-07
   0      7    11.276     8.367    0.11E-03    0.14E-03    0.35E-07
   1      7    11.276     8.983    0.23E-03    0.43E-03    0.86E-07
 Optimization of the real space projectors (new method)

[...]

   l    n(q)    QCUT    max X(q) W(low)/X(q) W(high)/X(q)  e(spline)
   2      9    11.376    60.317    0.17E-03    0.16E-04    0.16E-06
   2      9    11.376    55.921    0.17E-03    0.16E-04    0.17E-06
   0     10    11.376    51.690    0.45E-04    0.60E-04    0.21E-06
   0     10    11.376    30.015    0.37E-04    0.55E-04    0.19E-06
   1     10    11.376    18.849    0.83E-04    0.11E-03    0.92E-07
   1     10    11.376    14.624    0.69E-04    0.92E-04    0.82E-07
 Optimization of the real space projectors (new method)

 maximal supplied QI-value         = 24.76
 optimisation between [QCUT,QGAM] = [ 11.39, 22.77] = [ 36.31,145.25] Ry
 Optimized for a Real-space Cutoff    1.10 Angstroem

   l    n(q)    QCUT    max X(q) W(low)/X(q) W(high)/X(q)  e(spline)
   0      7    11.387    20.381    0.22E-03    0.48E-03    0.18E-06
   0      7    11.387    15.268    0.22E-03    0.52E-03    0.19E-06
   1      7    11.387     5.964    0.22E-03    0.73E-03    0.24E-06
   1      7    11.387     5.382    0.19E-03    0.60E-03    0.21E-06

  PAW_PBE Li_sv 10Sep2004               :
  PAW_PBE Ni 02Aug2007                  :
  PAW_PBE O 08Apr2002                   :

 POSCAR: ce19_1
  positions in direct lattice
 exchange correlation table for  LEXCH =       14
   RHO(1)=    0.500       N(1)  =     2000
   RHO(2)=  100.500       N(2)  =     4000

 ion  position               nearest neighbor table
   1  0.000  0.500  0.121-  31 1.91  28 1.91  34 1.91  38 1.95
   2  0.667  0.833  0.455-  32 1.91  29 1.91  35 1.91  36 1.96
   3  0.332  0.666  0.668-  24 1.86  23 1.86  20 1.86  30 1.86  33 1.86  36 1.87  12 2.76  14 2.77
                             6 2.81   9 2.81   9 2.83   6 2.83
   4  0.999  1.000  0.999-  25 1.85  37 1.86  21 1.86  18 1.86  34 1.87  31 1.87  12 2.76  10 2.81
                             7 2.81  13 2.82  10 2.83   7 2.83
   5  0.665  0.332  0.333-  19 1.85  22 1.85  26 1.86  35 1.87  32 1.87  38 1.88  13 2.75  14 2.80
                             8 2.81  11 2.81  11 2.84   8 2.84
   6  0.834  0.666  0.668-  24 1.86  23 1.86  17 1.86  27 1.86  33 1.86  36 1.87  12 2.76  14 2.77
                             3 2.81   9 2.81   9 2.83   3 2.83
   7  0.500  1.000  0.999-  25 1.85  37 1.86  15 1.86  21 1.86  34 1.87  28 1.87  12 2.76  10 2.81
                             4 2.81  13 2.82  10 2.83   4 2.83
   8  0.168  0.332  0.333-  16 1.85  22 1.85  26 1.86  29 1.87  35 1.87  38 1.88  13 2.75  14 2.80
                             5 2.81  11 2.81  11 2.84   5 2.84
   9  0.834  0.168  0.668-  24 1.86  17 1.86  20 1.86  30 1.86  27 1.86  36 1.87  12 2.76  14 2.77
                             3 2.81   6 2.81   6 2.83   3 2.83
  10  0.500  0.501  0.999-  25 1.85  37 1.86  15 1.86  18 1.86  28 1.87  31 1.87  12 2.76   7 2.81
                             4 2.81  13 2.82   7 2.83   4 2.83
  11  0.168  0.835  0.333-  19 1.85  16 1.85  26 1.86  29 1.87  32 1.87  38 1.88  13 2.75  14 2.80
                             5 2.81   8 2.81   8 2.84   5 2.84
  12  0.667  0.833  0.833-  30 1.86  27 1.86  33 1.86  18 1.87  21 1.87  15 1.87   6 2.76   3 2.76
                             9 2.76   4 2.76  10 2.76   7 2.76
  13  0.333  0.167  0.169-  19 1.88  16 1.88  22 1.88  28 1.90  34 1.90  31 1.90   8 2.75   5 2.75
                            11 2.75  10 2.82   4 2.82   7 2.82
  14  0.000  0.500  0.502-  17 1.87  23 1.87  20 1.87  29 1.90  35 1.90  32 1.90   3 2.77   9 2.77
                             6 2.77   5 2.80  11 2.80   8 2.80
  15  0.371  0.686  0.921-  10 1.86   7 1.86  12 1.87
  16  0.036  0.018  0.257-   8 1.85  11 1.85  13 1.88
  17  0.706  0.353  0.590-   9 1.86   6 1.86  14 1.87
  18  0.814  0.686  0.921-   4 1.86  10 1.86  12 1.87
  19  0.482  0.018  0.257-   5 1.85  11 1.85  13 1.88
  20  0.147  0.353  0.590-   3 1.86   9 1.86  14 1.87
  21  0.814  0.129  0.921-   4 1.86   7 1.86  12 1.87
  22  0.482  0.464  0.257-   8 1.85   5 1.85  13 1.88
  23  0.147  0.794  0.590-   3 1.86   6 1.86  14 1.87
  24  0.000  0.500  0.734-   3 1.86   9 1.86   6 1.86
  25  0.667  0.833  0.065-   4 1.85  10 1.85   7 1.85
  26  0.333  0.167  0.401-   8 1.86   5 1.86  11 1.86
  27  0.961  0.980  0.745-   6 1.86   9 1.86  12 1.86
  28  0.628  0.314  0.077-  10 1.87   7 1.87  13 1.90   1 1.91
  29  0.295  0.647  0.411-  11 1.87   8 1.87  14 1.90   2 1.91
  30  0.520  0.980  0.745-   3 1.86   9 1.86  12 1.86
  31  0.186  0.314  0.077-   4 1.87  10 1.87  13 1.90   1 1.91
  32  0.853  0.647  0.411-   5 1.87  11 1.87  14 1.90   2 1.91
  33  0.520  0.539  0.745-   6 1.86   3 1.86  12 1.86
  34  0.186  0.872  0.077-   4 1.87   7 1.87  13 1.90   1 1.91
  35  0.853  0.205  0.411-   5 1.87   8 1.87  14 1.90   2 1.91
  36  0.667  0.833  0.600-   6 1.87   3 1.87   9 1.87   2 1.96
  37  0.333  0.167  0.933-   4 1.86  10 1.86   7 1.86
  38  0.000  0.500  0.266-   5 1.88  11 1.88   8 1.88   1 1.95

  LATTYP: Found a hexagonal cell.
 ALAT       =     5.6441344274
 C/A-ratio  =     2.3902602902

  Lattice vectors:

 A1 = (   0.0000000000,   3.9910057275,   3.9910057275)
 A2 = (   3.9910057275,  -3.9910057275,   0.0000000000)
 A3 = (   7.7890038419,   7.7890038419,  -7.7890038419)

Analysis of symmetry for initial positions (statically):
 Subroutine PRICEL returns:
 Original cell was already a primitive cell.

 Routine SETGRP: Setting up the symmetry group for a
 hexagonal supercell.

 Subroutine GETGRP returns: Found  6 space group operations
 (whereof  2 operations were pure point group operations)
 out of a pool of 24 trial point group operations.

The static configuration has the point symmetry C_1h.
 The point group associated with its full space group is C_3v.

Analysis of symmetry for dynamics (positions and initial velocities):
 Subroutine PRICEL returns:
 Original cell was already a primitive cell.

[...]

The dynamic configuration has the point symmetry C_1h.
 The point group associated with its full space group is C_3v.

Analysis of structural, dynamic, and magnetic symmetry:
 Subroutine PRICEL returns:
 Original cell was already a primitive cell.

 Routine SETGRP: Setting up the symmetry group for a
 hexagonal supercell.

 Subroutine GETGRP returns: Found  6 space group operations
 (whereof  2 operations were pure point group operations)
 out of a pool of 24 trial point group operations.

The magnetic configuration has the point symmetry C_1h.
 The point group associated with its full space group is C_3v.

 Subroutine INISYM returns: Found  6 space group operations
 (whereof  2 operations are pure point group operations),
 and found     1 'primitive' translations

 KPOINTS: Automatic mesh

Automatic generation of k-mesh.
Space group operators:
 irot       det(A)        alpha          n_x          n_y          n_z        tau_x        tau_y        tau_z
    1     1.000000     0.000000     1.000000     0.000000     0.000000     0.000000     0.000000     0.000000
    2    -1.000000   180.000000     0.707107    -0.707107     0.000000     0.000000     0.000000     0.000000
    3     1.000000   120.000000    -0.577350    -0.577350     0.577350     0.500000     0.000000     0.000000
    4     1.000000   120.000000     0.577350     0.577350    -0.577350     0.500000     0.500000     0.000000
    5    -1.000000   180.000000     0.000000     0.707107     0.707107     0.500000     0.000000     0.000000
    6    -1.000000   180.000000     0.707107     0.000000     0.707107     0.500000     0.500000     0.000000

 Subroutine IBZKPT returns following result:

 Found      1 irreducible k-points:

 Following reciprocal coordinates:
            Coordinates               Weight
  0.000000  0.000000  0.000000      1.000000

 Following cartesian coordinates:
            Coordinates               Weight
  0.000000  0.000000  0.000000      1.000000

 SYSTEM =  unknown system
 POSCAR =  ce19_1

 Startparameter for this run:
   NWRITE =      1    write-flag & timer
   PREC   = accura    normal or accurate (medium, high low for compatibility)
   ISTART =      0    job   : 0-new  1-cont  2-samecut
   ICHARG =      2    charge: 1-file 2-atom 10-const
   ISPIN  =      2    spin polarized calculation?
   LNONCOLLINEAR =      F non collinear calculations
   LSORBIT =      F    spin-orbit coupling
   INIWAV =      1    electr: 0-lowe 1-rand  2-diag
   LASPH  =      F    aspherical Exc in radial PAW
   METAGGA=      F    non-selfconsistent MetaGGA calc.

 Electronic Relaxation 1
   ENCUT  =  500.0 eV  36.75 Ry    6.06 a.u.  10.29 10.29 24.60*2*pi/ulx,y,z
   ENINI  =  500.0     initial cutoff
   ENAUG  =  628.9 eV  augmentation charge cutoff
   NELM   =     80;   NELMIN=  2; NELMDL= -5     # of ELM steps
   EDIFF  = 0.1E-04   stopping-criterion for ELM
   LREAL  =      T    real-space projection
   NLSPLINE    = F    spline interpolate recip. space projectors
   LCOMPAT=      F    compatible to vasp.4.4
   GGA_COMPAT  = T    GGA compatible to vasp.4.4-vasp.4.6
   LMAXPAW     = -100 max onsite density
   LMAXMIX     =    2 max onsite mixed and CHGCAR
   VOSKOWN=      1    Vosko Wilk Nusair interpolation
   ROPT   =   -0.00025  -0.00025  -0.00025
 Ionic relaxation
   EDIFFG = -.2E-01   stopping-criterion for IOM
   NSW    =     20    number of steps for IOM
   NBLOCK =      1;   KBLOCK =     20    inner block; outer block
   IBRION =      1    ionic relax: 0-MD 1-quasi-New 2-CG
   NFREE  =      0    steps in history (QN), initial steepest desc. (CG)
   ISIF   =      3    stress and relaxation
   IWAVPR =     11    prediction:  0-non 1-charg 2-wave 3-comb
   ISYM   =      2    0-nonsym 1-usesym 2-fastsym
   LCORR  =      T    Harris-Foulkes like correction to forces

   POTIM  = 0.5000    time-step for ionic-motion
   TEIN   =    0.0    initial temperature
   TEBEG  =    0.0;   TEEND  =   0.0 temperature during run
   SMASS  =  -3.00    Nose mass-parameter (am)
   estimated Nose-frequenzy (Omega)   =  0.10E-29 period in steps =****** mass=  -0.728E-27a.u.
   SCALEE = 1.0000    scale energy and forces
   NPACO  =    256;   APACO  = 16.0  distance and # of slots for P.C.
   PSTRESS=    0.0 pullay stress

  Mass of Ions in am
   POMASS =   7.01 58.69 16.00
  Ionic Valenz
[...]
     12     -14.2546      1.00000
     13     -14.2546      1.00000
     14     -14.2171      1.00000
     15     -14.2171      1.00000
     16     -14.1816      1.00000
     17     -14.1780      1.00000
     18     -14.1780      1.00000
     19     -14.1594      1.00000
     20     -14.0990      1.00000
     21     -14.0843      1.00000
     22     -14.0843      1.00000
     23     -14.0298      1.00000
     24     -14.0211      1.00000
     25     -14.0211      1.00000
     26     -13.9626      1.00000
     27      -3.5057      1.00000
     28      -3.3218      1.00000
     29      -3.3218      1.00000
     30      -3.2598      1.00000
     31      -3.1436      1.00000
     32      -3.0085      1.00000
     33      -2.9297      1.00000
     34      -2.9297      1.00000
     35      -2.8727      1.00000
     36      -2.8727      1.00000
     37      -2.3830      1.00000
     38      -2.3407      1.00000
     39      -2.3113      1.00000
     40      -2.3113      1.00000
     41      -2.2859      1.00000
     42      -2.2859      1.00000
     43      -2.2567      1.00000
     44      -2.2567      1.00000
     45      -2.0723      1.00000
     46      -2.0723      1.00000
     47      -2.0491      1.00000
     48      -2.0491      1.00000
     49      -1.8805      1.00000
     50      -1.8805      1.00000
     51      -1.6602      1.00000
     52      -1.6072      1.00000
     53      -1.5800      1.00000
     54      -1.5084      1.00000
     55      -1.5053      1.00000
     56      -1.3945      1.00000
     57      -1.3945      1.00000
     58      -1.2989      1.00000
     59      -1.2989      1.00000
     60      -1.2985      1.00000
[...]
    178      16.1779      0.00000
    179      16.1779      0.00000
    180      16.3431      0.00000
    181      16.7089      0.00000
    182      17.0139      0.00000
    183      17.5365      0.00000
    184      17.5993      0.00000
    185      17.5993      0.00000
    186      17.7426      0.00000
    187      17.7426      0.00000
    188      17.7627      0.00000
    189      17.9625      0.00000
    190      18.1638      0.00000
    191      18.1638      0.00000
    192      18.1912      0.00000

 soft charge-density along one line, spin component           1
         0         1         2         3         4         5         6         7         8         9
 total charge-density along one line

 soft charge-density along one line, spin component           2
         0         1         2         3         4         5         6         7         8         9
 total charge-density along one line

------------------------ aborting loop because EDIFF is reached ----------------------------------------

  FORCE on cell =-STRESS in cart. coord.  units (eV):
  Direction    XX          YY          ZZ          XY          YZ          ZX
  Alpha Z   858.29849   858.29849   858.29849
  Ewald   -5292.89131 -5292.89128 -5292.89131  -127.40106   127.40106   127.40104
  Hartree  2752.27470  2752.27471  2752.27470   -70.50320    70.50320    70.50320
  E(xc)   -1378.16840 -1378.16836 -1378.16840    -0.10344     0.10344     0.10340
  Local   -2736.47664 -2736.47563 -2736.47664   186.54512  -186.54512  -186.54615
  n-local  -628.14139  -628.14147  -628.14138    -1.66860     1.66860     1.66849
  augment  2285.76401  2285.76325  2285.76401     5.95494    -5.95493    -5.95417
  Kinetic  4139.28233  4139.28230  4139.28232     7.14393    -7.14394    -7.14390
  Fock        0.00000     0.00000     0.00000     0.00000     0.00000     0.00000
  Total       -0.0581429     -0.0581429     -0.0581429     -0.0321724      0.0321724      0.0321724
  in kB       -0.2502877     -0.2502877     -0.2502877     -0.1384923      0.1384923      0.1384923

 VOLUME and BASIS-vectors are now :
  energy-cutoff  :      500.00
  volume of cell :      372.19
      direct lattice vectors                 reciprocal lattice vectors
     0.000000000  3.991005728  3.991005728     0.083521136  0.083521136  0.167042273
     3.991005728 -3.991005728  0.000000000     0.167042273 -0.083521136  0.083521136
     7.789003842  7.789003842 -7.789003842     0.042795374  0.042795374 -0.042795374

  length of vectors
     5.644134427  5.644134427 13.490950395     0.204584167  0.204584167  0.074123762

 FORCES acting on ions
    electron-ion (+dipol)            ewald-force                    non-local-force                 convergence-correction
   0.307E+01 0.307E+01 -.307E+01   -.293E+01 -.293E+01 0.293E+01   -.104E+00 -.104E+00 0.104E+00   -.250E-01 -.250E-01 0.250E-01
   -.649E+01 -.649E+01 0.649E+01   0.649E+01 0.649E+01 -.649E+01   -.295E-01 -.295E-01 0.295E-01   0.329E-01 0.329E-01 -.329E-01
   -.189E+02 -.189E+02 0.232E+02   0.191E+02 0.191E+02 -.234E+02   -.247E+00 -.247E+00 0.231E+00   0.798E-01 0.798E-01 -.825E-01
   0.153E+02 0.153E+02 -.314E+02   -.150E+02 -.150E+02 0.319E+02   -.144E+00 -.144E+00 -.589E+00   -.118E+00 -.118E+00 0.892E-01
   -.806E+01 -.806E+01 -.321E+01   0.846E+01 0.846E+01 0.356E+01   -.430E+00 -.430E+00 -.327E+00   0.267E-01 0.267E-01 -.250E-01
   -.189E+02 -.232E+02 0.189E+02   0.191E+02 0.234E+02 -.191E+02   -.247E+00 -.231E+00 0.247E+00   0.798E-01 0.825E-01 -.798E-01
   0.153E+02 0.314E+02 -.153E+02   -.150E+02 -.319E+02 0.150E+02   -.144E+00 0.589E+00 0.144E+00   -.118E+00 -.892E-01 0.118E+00
   -.806E+01 0.321E+01 0.806E+01   0.846E+01 -.356E+01 -.846E+01   -.430E+00 0.327E+00 0.430E+00   0.267E-01 0.250E-01 -.267E-01
   -.232E+02 -.189E+02 0.189E+02   0.234E+02 0.191E+02 -.191E+02   -.231E+00 -.247E+00 0.247E+00   0.825E-01 0.798E-01 -.798E-01
   0.314E+02 0.153E+02 -.153E+02   -.319E+02 -.150E+02 0.150E+02   0.589E+00 -.144E+00 0.144E+00   -.892E-01 -.118E+00 0.118E+00
   0.321E+01 -.806E+01 0.806E+01   -.356E+01 0.846E+01 -.846E+01   0.327E+00 -.430E+00 0.430E+00   0.250E-01 0.267E-01 -.267E-01
   0.266E+01 0.266E+01 -.266E+01   -.264E+01 -.264E+01 0.264E+01   0.341E-01 0.341E-01 -.341E-01   -.481E-01 -.481E-01 0.481E-01
   0.205E+02 0.205E+02 -.205E+02   -.211E+02 -.211E+02 0.211E+02   0.651E+00 0.651E+00 -.651E+00   -.680E-01 -.680E-01 0.680E-01
   -.908E+01 -.908E+01 0.908E+01   0.871E+01 0.871E+01 -.871E+01   0.237E+00 0.237E+00 -.237E+00   0.130E+00 0.130E+00 -.130E+00
   0.222E+03 0.222E+03 0.201E+03   -.237E+03 -.237E+03 -.217E+03   0.155E+02 0.155E+02 0.154E+02   -.482E-01 -.482E-01 0.834E-01
   0.217E+03 0.217E+03 0.204E+03   -.232E+03 -.232E+03 -.220E+03   0.154E+02 0.154E+02 0.158E+02   -.357E-01 -.357E-01 0.203E-01
   0.198E+03 0.198E+03 0.231E+03   -.213E+03 -.213E+03 -.247E+03   0.148E+02 0.148E+02 0.160E+02   0.819E-01 0.819E-01 -.686E-01
   0.222E+03 -.201E+03 -.222E+03   -.237E+03 0.217E+03 0.237E+03   0.155E+02 -.154E+02 -.155E+02   -.482E-01 -.834E-01 0.482E-01
   0.217E+03 -.204E+03 -.217E+03   -.232E+03 0.220E+03 0.232E+03   0.154E+02 -.158E+02 -.154E+02   -.357E-01 -.203E-01 0.357E-01
   0.198E+03 -.231E+03 -.198E+03   -.213E+03 0.247E+03 0.213E+03   0.148E+02 -.160E+02 -.148E+02   0.819E-01 0.686E-01 -.819E-01
   -.201E+03 0.222E+03 -.222E+03   0.217E+03 -.237E+03 0.237E+03   -.154E+02 0.155E+02 -.155E+02   -.834E-01 -.482E-01 0.482E-01
   -.204E+03 0.217E+03 -.217E+03   0.220E+03 -.232E+03 0.232E+03   -.158E+02 0.154E+02 -.154E+02   -.203E-01 -.357E-01 0.357E-01
   -.231E+03 0.198E+03 -.198E+03   0.247E+03 -.213E+03 0.213E+03   -.160E+02 0.148E+02 -.148E+02   0.686E-01 0.819E-01 -.819E-01
   -.218E+03 -.218E+03 0.218E+03   0.232E+03 0.232E+03 -.232E+03   -.142E+02 -.142E+02 0.142E+02   -.126E-01 -.126E-01 0.126E-01
   -.204E+03 -.204E+03 0.204E+03   0.218E+03 0.218E+03 -.218E+03   -.137E+02 -.137E+02 0.137E+02   -.631E-01 -.631E-01 0.631E-01
   -.221E+03 -.221E+03 0.221E+03   0.234E+03 0.234E+03 -.234E+03   -.128E+02 -.128E+02 0.128E+02   0.688E-01 0.688E-01 -.688E-01
   -.215E+03 -.215E+03 -.216E+03   0.231E+03 0.231E+03 0.233E+03   -.152E+02 -.152E+02 -.162E+02   -.663E-02 -.663E-02 -.421E-01
   -.173E+03 -.173E+03 -.188E+03   0.183E+03 0.183E+03 0.197E+03   -.969E+01 -.969E+01 -.913E+01   -.523E-01 -.523E-01 0.552E-01
   -.190E+03 -.190E+03 -.172E+03   0.200E+03 0.200E+03 0.182E+03   -.985E+01 -.985E+01 -.991E+01   0.697E-01 0.697E-01 -.359E-01
   -.215E+03 0.216E+03 0.215E+03   0.231E+03 -.233E+03 -.231E+03   -.152E+02 0.162E+02 0.152E+02   -.663E-02 0.421E-01 0.663E-02
   -.173E+03 0.188E+03 0.173E+03   0.183E+03 -.197E+03 -.183E+03   -.969E+01 0.913E+01 0.969E+01   -.523E-01 -.552E-01 0.523E-01
   -.190E+03 0.172E+03 0.190E+03   0.200E+03 -.182E+03 -.200E+03   -.985E+01 0.991E+01 0.985E+01   0.697E-01 0.359E-01 -.697E-01
   0.216E+03 -.215E+03 0.215E+03   -.233E+03 0.231E+03 -.231E+03   0.162E+02 -.152E+02 0.152E+02   0.421E-01 -.663E-02 0.663E-02
   0.188E+03 -.173E+03 0.173E+03   -.197E+03 0.183E+03 -.183E+03   0.913E+01 -.969E+01 0.969E+01   -.552E-01 -.523E-01 0.523E-01
   0.172E+03 -.190E+03 0.190E+03   -.182E+03 0.200E+03 -.200E+03   0.991E+01 -.985E+01 0.985E+01   0.359E-01 0.697E-01 -.697E-01
   0.176E+03 0.176E+03 -.176E+03   -.185E+03 -.185E+03 0.185E+03   0.900E+01 0.900E+01 -.900E+01   0.869E-01 0.869E-01 -.869E-01
   0.221E+03 0.221E+03 -.221E+03   -.235E+03 -.235E+03 0.235E+03   0.141E+02 0.141E+02 -.141E+02   -.490E-01 -.490E-01 0.490E-01
   0.189E+03 0.189E+03 -.189E+03   -.197E+03 -.197E+03 0.197E+03   0.799E+01 0.799E+01 -.799E+01   -.375E-01 -.375E-01 0.375E-01
   -.142E+00 -.142E+00 0.142E+00   0.455E-12 -.227E-12 0.000E+00   0.107E+00 0.107E+00 -.107E+00   0.161E-01 0.161E-01 -.161E-01

 POSITION                                       TOTAL-FORCE (eV/Angst)
      2.93774     -1.05327     -0.94224         0.004493      0.004493     -0.004493
      6.87086      2.87985     -0.88435         0.002976      0.002976     -0.002976
      7.86065      3.86964     -3.87534         0.001259      0.001259     -0.001295
     11.76665      7.77564     -3.78983        -0.002296     -0.002296      0.000259
      3.92257      3.92257      0.05713        -0.002547     -0.002547     -0.004029
      7.86065      5.87085     -1.87414         0.001259      0.001295     -0.001259
     11.76665      5.78533     -5.78014        -0.002296     -0.000259      0.002296
      3.92257      1.93837     -1.92707        -0.002547      0.004029      0.002547
      5.87085      7.86065     -1.87414         0.001295      0.001259     -0.001259
      9.77634      7.77564     -5.78014        -0.000259     -0.002296      0.002296
      5.92938     -0.06843     -1.92707         0.004029     -0.002547      0.002547
      9.81293      5.82192     -3.82642        -0.001814     -0.001814      0.001814
      1.97959      1.97959      0.01591        -0.006739     -0.006739      0.006739
      5.90526      1.91425     -3.90975         0.003316      0.003316     -0.003316
      9.91428      5.92327     -5.69510        -0.000840     -0.000840      0.003008
      2.07703      2.07703     -1.85952         0.000758      0.000758      0.001790
      6.00767      6.00767     -1.78027         0.004970      0.004970      0.002998
      9.91428      7.69060     -3.92777        -0.000840     -0.003008      0.000840
      2.07703      3.85502     -0.08153         0.000758     -0.001790     -0.000758
      6.00767      3.77578     -4.01217         0.004970     -0.002998     -0.004970
      7.69060      9.91428     -3.92777        -0.003008     -0.000840      0.000840
      3.85502      2.07703     -0.08153        -0.001790      0.000758     -0.000758
      7.76678      2.01666     -4.01217        -0.002998      0.004970     -0.004970
      7.71626      3.72525     -5.72076         0.002795      0.002795     -0.002795
      3.82850     -0.16250      2.15801        -0.004308     -0.004308      0.004308
      3.78648      3.78648     -1.79098         0.001995      0.001995     -0.001995
      9.71372      5.72272     -1.96782        -0.000787     -0.000787      0.003983
      1.85348      1.85348      1.90458        -0.003618     -0.003618     -0.007226
      5.78363      1.79262     -2.02253        -0.003402     -0.003402     -0.005788
      9.71372      3.96333     -3.72722        -0.000787     -0.003983      0.000787
      1.85348      0.09092      0.14202        -0.003618      0.007226      0.003618
      5.78363      4.01803      0.20288        -0.003402      0.005788      0.003402
      7.95433      5.72272     -3.72722        -0.003983     -0.000787      0.000787
      4.08193     -2.13753      0.14202         0.007226     -0.003618      0.003618
      4.01803      5.78363      0.20288         0.005788     -0.003402      0.003402
      8.00294      4.01194     -2.01643         0.003606      0.003606     -0.003606
      7.93222      7.93222     -5.93671        -0.007616     -0.007616      0.007616
      4.06421      0.07321     -2.06871         0.008000      0.008000     -0.008000
    total drift:                               -0.019181     -0.019059      0.019182

  FREE ENERGIE OF THE ION-ELECTRON SYSTEM (eV)
  free  energy   TOTEN  =      -238.7441122222 eV

  energy  without entropy=     -238.6940399853  energy(sigma->0) =     -238.71907610

 Quasi-Newton relaxation of ions (Broydens 2nd method)
  g(Force)  = 0.759E-04   g(Stress)= 0.208E-04

 Reset! Starting new Quasi-Newton update for ions

 reached required accuracy - stopping structural energy minimisation

volume of typ            1:     4.2 %

[...]

volume of typ            3:    10.5 %

total charge

# of ion       s       p       d       tot
    1        2.105   0.330   0.125   2.560
    2        2.105   0.324   0.123   2.552
    3        0.296   0.419   7.838   8.553
    4        0.294   0.417   7.839   8.550
    5        0.293   0.417   7.846   8.556
    6        0.296   0.419   7.838   8.553
    7        0.294   0.417   7.839   8.550
    8        0.293   0.417   7.846   8.556
    9        0.296   0.419   7.838   8.553
   10        0.294   0.417   7.839   8.550
   11        0.293   0.417   7.846   8.556
   12        0.296   0.414   7.834   8.544
   13        0.282   0.386   7.847   8.515
   14        0.288   0.396   7.844   8.528
   15        1.280   2.731   0.008   4.019
   16        1.278   2.737   0.008   4.024
   17        1.279   2.735   0.008   4.022
   18        1.280   2.731   0.008   4.019
   19        1.278   2.737   0.008   4.024
   20        1.279   2.735   0.008   4.022
   21        1.280   2.731   0.008   4.019
   22        1.278   2.737   0.008   4.024
   23        1.279   2.735   0.008   4.022
   24        1.284   2.723   0.008   4.015
   25        1.281   2.735   0.009   4.025
   26        1.283   2.736   0.008   4.027
   27        1.281   2.729   0.008   4.019
   28        1.263   2.786   0.007   4.055
   29        1.262   2.788   0.007   4.057
   30        1.281   2.729   0.008   4.019
   31        1.263   2.786   0.007   4.055
   32        1.262   2.788   0.007   4.057
   33        1.281   2.729   0.008   4.019
   34        1.263   2.786   0.007   4.055
   35        1.262   2.788   0.007   4.057
   36        1.268   2.775   0.007   4.051
   37        1.284   2.725   0.008   4.017
   38        1.269   2.777   0.007   4.053
tot          38.33   71.59   94.53  204.45

magnetization (x)

# of ion       s       p       d       tot
    1        0.001   0.006   0.002   0.010
    2        0.002   0.002   0.001   0.005
    3       -0.000  -0.001   0.070   0.070
    4       -0.000  -0.000   0.084   0.083
    5       -0.001  -0.001   0.140   0.139
    6       -0.000  -0.001   0.070   0.070
    7       -0.000  -0.000   0.084   0.083
    8       -0.001  -0.001   0.140   0.139
    9       -0.000  -0.001   0.070   0.070
   10       -0.000  -0.000   0.084   0.083
   11       -0.001  -0.001   0.140   0.139
   12       -0.000  -0.000  -0.006  -0.007
   13       -0.000  -0.000   0.220   0.219
   14       -0.000  -0.000   0.131   0.131
   15        0.001   0.018   0.000   0.018
   16        0.001   0.016   0.000   0.017
   17        0.001   0.022   0.000   0.023
   18        0.001   0.018   0.000   0.018
   19        0.001   0.016   0.000   0.017
   20        0.001   0.022   0.000   0.023
   21        0.001   0.018   0.000   0.018
   22        0.001   0.016   0.000   0.017
   23        0.001   0.022   0.000   0.023
   24        0.003   0.053   0.000   0.057
   25        0.002   0.023   0.000   0.025
   26        0.007   0.093   0.000   0.100
   27        0.000  -0.002   0.000  -0.001
   28        0.004   0.028   0.000   0.032
   29        0.002   0.014   0.000   0.016
   30        0.000  -0.002   0.000  -0.001
   31        0.004   0.028   0.000   0.032
   32        0.002   0.014   0.000   0.016
   33        0.000  -0.002   0.000  -0.001
   34        0.004   0.028   0.000   0.032
   35        0.002   0.014   0.000   0.016
   36        0.004   0.029   0.000   0.034
   37        0.002   0.022   0.000   0.023
   38        0.007   0.055   0.000   0.062
tot           0.05    0.57    1.23    1.85