 vasp.5.4.4.18Apr17-6-g9f103f2a35 (build May 12 2020 05:39:39) gamma-only

 MD_VERSION_INFO: Compiled 2020-05-12T12:39:39-UTC in devlin.sd.materialsdesign.
 com:/home/medea2/data/build/wwolf/vasp-gpu5.4.4/13047/x86_64/src/src/build/gam
 from svn 13047

 executed on                        Lin64 date 2023.02.09  13:51:24

 INCAR:
 POTCAR:    PAW_PBE Li_sv 10Sep2004
 POTCAR:    PAW_PBE Ni 02Aug2007
 POTCAR:    PAW_PBE O 08Apr2002

 POTCAR:    PAW_PBE Li_sv 10Sep2004

 POTCAR:    PAW_PBE Ni 02Aug2007

 POTCAR:    PAW_PBE O 08Apr2002

 Optimization of the real space projectors (new method)

 maximal supplied QI-value         = 22.11
 optimisation between [QCUT,QGAM] = [ 11.28, 22.77] = [ 35.61,145.23] Ry
 Optimized for a Real-space Cutoff    1.10 Angstroem

   l    n(q)    QCUT    max X(q) W(low)/X(q) W(high)/X(q)  e(spline)
   0      7    11.276    10.506    0.54E-04    0.58E-04    0.16E-07
   0      7    11.276     8.367    0.11E-03    0.14E-03    0.35E-07
   1      7    11.276     8.983    0.23E-03    0.43E-03    0.86E-07
 Optimization of the real space projectors (new method)

[...]

   l    n(q)    QCUT    max X(q) W(low)/X(q) W(high)/X(q)  e(spline)
   2      9    11.376    60.317    0.17E-03    0.16E-04    0.16E-06
   2      9    11.376    55.921    0.17E-03    0.16E-04    0.17E-06
   0     10    11.376    51.690    0.45E-04    0.60E-04    0.21E-06
   0     10    11.376    30.015    0.37E-04    0.55E-04    0.19E-06
   1     10    11.376    18.849    0.83E-04    0.11E-03    0.92E-07
   1     10    11.376    14.624    0.69E-04    0.92E-04    0.82E-07
 Optimization of the real space projectors (new method)

 maximal supplied QI-value         = 24.76
 optimisation between [QCUT,QGAM] = [ 11.39, 22.77] = [ 36.31,145.25] Ry
 Optimized for a Real-space Cutoff    1.10 Angstroem

   l    n(q)    QCUT    max X(q) W(low)/X(q) W(high)/X(q)  e(spline)
   0      7    11.387    20.381    0.22E-03    0.48E-03    0.18E-06
   0      7    11.387    15.268    0.22E-03    0.52E-03    0.19E-06
   1      7    11.387     5.964    0.22E-03    0.73E-03    0.24E-06
   1      7    11.387     5.382    0.19E-03    0.60E-03    0.21E-06

  PAW_PBE Li_sv 10Sep2004               :
  PAW_PBE Ni 02Aug2007                  :
  PAW_PBE O 08Apr2002                   :

 POSCAR: ce189_1
  positions in direct lattice
 exchange correlation table for  LEXCH =       14
   RHO(1)=    0.500       N(1)  =     2000
   RHO(2)=  100.500       N(2)  =     4000

 ion  position               nearest neighbor table
   1  0.750  0.187  0.187-  52 1.91  49 1.91  43 1.93  39 1.93
   2  0.250  0.185  0.681-  44 1.90  40 1.90  50 1.93  51 1.96
   3  0.250  0.681  0.185-  45 1.90  41 1.90  54 1.93  47 1.96
   4  0.750  0.319  0.815-  28 1.90  24 1.90  36 1.93  32 1.96
   5  0.750  0.815  0.319-  29 1.90  25 1.90  33 1.93  37 1.96
   6  0.250  0.813  0.813-  38 1.91  34 1.91  30 1.93  26 1.93
   7  0.000  0.000  0.000-  37 1.85  51 1.85  47 1.85  32 1.85  30 1.92  43 1.92  11 2.81  11 2.81
                            20 2.84  15 2.84  17 2.84  19 2.84
   8  0.500  0.000  0.500-  31 1.84  48 1.84  38 1.85  52 1.85  29 1.91  44 1.91  12 2.81  12 2.81
                            20 2.82  19 2.82  18 2.84  16 2.84
   9  0.500  0.500  0.000-  35 1.84  53 1.84  49 1.85  34 1.85  28 1.91  45 1.91  13 2.81  13 2.81
                            17 2.82  15 2.82  22 2.84  21 2.84
  10  0.000  0.500  0.500-  36 1.85  54 1.85  50 1.85  33 1.85  27 1.91  46 1.91  14 2.81  14 2.81
                            22 2.83  16 2.83  18 2.83  21 2.83
  11  0.500  0.000  0.000-  37 1.85  51 1.85  47 1.85  32 1.85  26 1.92  39 1.92   7 2.81   7 2.81
                            20 2.84  15 2.84  17 2.84  19 2.84
  12  0.000  0.000  0.500-  31 1.84  48 1.84  38 1.85  52 1.85  25 1.91  40 1.91   8 2.81   8 2.81
                            20 2.82  19 2.82  18 2.84  16 2.84
  13  0.000  0.500  0.000-  35 1.84  53 1.84  49 1.85  34 1.85  24 1.91  41 1.91   9 2.81   9 2.81
                            17 2.82  15 2.82  22 2.84  21 2.84
  14  0.500  0.500  0.500-  36 1.85  54 1.85  50 1.85  33 1.85  23 1.91  42 1.91  10 2.81  10 2.81
                            22 2.83  16 2.83  18 2.83  21 2.83
  15  0.250  0.251  0.001-  24 1.86  28 1.86  39 1.87  43 1.87  35 1.95  51 1.98  19 2.77  22 2.78
                             9 2.82  13 2.82  11 2.84   7 2.84
  16  0.750  0.251  0.499-  23 1.86  27 1.86  40 1.88  44 1.88  36 1.96  52 1.96  21 2.75  20 2.78
                            10 2.83  14 2.83  12 2.84   8 2.84
  17  0.750  0.749  0.999-  41 1.86  45 1.86  26 1.87  30 1.87  53 1.95  37 1.98  20 2.77  21 2.78
                             9 2.82  13 2.82  11 2.84   7 2.84
  18  0.250  0.749  0.501-  42 1.86  46 1.86  25 1.88  29 1.88  54 1.96  38 1.96  22 2.75  19 2.78
                            10 2.83  14 2.83  12 2.84   8 2.84
  19  0.250  0.001  0.251-  29 1.86  25 1.86  43 1.87  39 1.87  31 1.95  47 1.98  15 2.77  18 2.78
                             8 2.82  12 2.82  11 2.84   7 2.84
  20  0.750  0.999  0.749-  44 1.86  40 1.86  30 1.87  26 1.87  48 1.95  32 1.98  17 2.77  16 2.78
                             8 2.82  12 2.82  11 2.84   7 2.84
  21  0.750  0.499  0.251-  27 1.86  23 1.86  45 1.88  41 1.88  33 1.96  49 1.96  16 2.75  17 2.78
                            10 2.83  14 2.83  13 2.84   9 2.84
  22  0.250  0.501  0.749-  46 1.86  42 1.86  28 1.88  24 1.88  50 1.96  34 1.96  18 2.75  15 2.78
                            10 2.83  14 2.83  13 2.84   9 2.84
  23  0.528  0.383  0.383-  16 1.86  21 1.86  14 1.91
  24  0.028  0.382  0.884-  15 1.86  22 1.88   4 1.90  13 1.91
  25  0.028  0.884  0.382-  19 1.86  18 1.88   5 1.90  12 1.91
  26  0.527  0.882  0.882-  17 1.87  20 1.87  11 1.92   6 1.93
  27  0.972  0.383  0.383-  21 1.86  16 1.86  10 1.91
  28  0.472  0.382  0.884-  15 1.86  22 1.88   4 1.90   9 1.91
  29  0.472  0.884  0.382-  19 1.86  18 1.88   5 1.90   8 1.91
  30  0.973  0.882  0.882-  20 1.87  17 1.87   7 1.92   6 1.93
  31  0.250  0.103  0.387-   8 1.84  12 1.84  19 1.95
  32  0.750  0.105  0.886-   7 1.85  11 1.85   4 1.96  20 1.98
  33  0.750  0.604  0.386-  10 1.85  14 1.85   5 1.93  21 1.96
  34  0.250  0.604  0.885-   9 1.85  13 1.85   6 1.91  22 1.96
  35  0.250  0.387  0.103-   9 1.84  13 1.84  15 1.95
  36  0.750  0.386  0.604-  14 1.85  10 1.85   4 1.93  16 1.96
  37  0.750  0.886  0.105-   7 1.85  11 1.85   5 1.96  17 1.98
  38  0.250  0.885  0.604-   8 1.85  12 1.85   6 1.91  18 1.96
  39  0.473  0.118  0.118-  15 1.87  19 1.87  11 1.92   1 1.93
  40  0.972  0.116  0.618-  20 1.86  16 1.88   2 1.90  12 1.91
  41  0.972  0.618  0.116-  17 1.86  21 1.88   3 1.90  13 1.91
  42  0.472  0.617  0.617-  18 1.86  22 1.86  14 1.91
  43  0.027  0.118  0.118-  19 1.87  15 1.87   7 1.92   1 1.93
  44  0.528  0.116  0.618-  20 1.86  16 1.88   2 1.90   8 1.91
  45  0.528  0.618  0.116-  17 1.86  21 1.88   3 1.90   9 1.91
  46  0.028  0.617  0.617-  22 1.86  18 1.86  10 1.91
  47  0.250  0.895  0.114-   7 1.85  11 1.85   3 1.96  19 1.98
  48  0.750  0.897  0.613-   8 1.84  12 1.84  20 1.95
  49  0.750  0.396  0.115-   9 1.85  13 1.85   1 1.91  21 1.96
  50  0.250  0.396  0.614-  10 1.85  14 1.85   2 1.93  22 1.96
  51  0.250  0.114  0.895-   7 1.85  11 1.85   2 1.96  15 1.98
  52  0.750  0.115  0.396-   8 1.85  12 1.85   1 1.91  16 1.96
  53  0.750  0.613  0.897-   9 1.84  13 1.84  17 1.95
  54  0.250  0.614  0.396-  14 1.85  10 1.85   3 1.93  18 1.96

  LATTYP: Found a base centered orthorhombic cell.
 ALAT       =    11.0793172794
 B/A-ratio  =     1.4694327058
 C/A-ratio  =     0.5065640358

  Lattice vectors:

 A1 = (   8.1401555844,  -3.9171301896,   3.9171301896)
 A2 = (  -8.1401555844,  -3.9171301896,   3.9171301896)
 A3 = (   0.0000000000,  -3.9685545551,  -3.9685545551)

Analysis of symmetry for initial positions (statically):
 Subroutine PRICEL returns:
 Original cell was already a primitive cell.

 Routine SETGRP: Setting up the symmetry group for a
 base centered orthorhombic supercell.

 Subroutine GETGRP returns: Found  8 space group operations
 (whereof  4 operations were pure point group operations)
 out of a pool of  8 trial point group operations.

The static configuration has the point symmetry C_2h.
 The point group associated with its full space group is D_2h.

Analysis of symmetry for dynamics (positions and initial velocities):
 Subroutine PRICEL returns:
 Original cell was already a primitive cell.

[...]

The dynamic configuration has the point symmetry C_2h.
 The point group associated with its full space group is D_2h.

Analysis of structural, dynamic, and magnetic symmetry:
 Subroutine PRICEL returns:
 Original cell was already a primitive cell.

 Routine SETGRP: Setting up the symmetry group for a
 base centered orthorhombic supercell.

 Subroutine GETGRP returns: Found  8 space group operations
 (whereof  4 operations were pure point group operations)
 out of a pool of  8 trial point group operations.

The magnetic configuration has the point symmetry C_2h.
 The point group associated with its full space group is D_2h.

 Subroutine INISYM returns: Found  8 space group operations
 (whereof  4 operations are pure point group operations),
 and found     1 'primitive' translations

 KPOINTS: Automatic mesh

Automatic generation of k-mesh.
Space group operators:
 irot       det(A)        alpha          n_x          n_y          n_z        tau_x        tau_y        tau_z
    1     1.000000     0.000000     1.000000     0.000000     0.000000     0.000000     0.000000     0.000000
    2    -1.000000     0.000000     1.000000     0.000000     0.000000     0.000000     0.000000     0.000000
    3     1.000000   180.000000     0.000000    -0.707107     0.707107     0.000000     0.000000     0.000000
    4    -1.000000   180.000000     0.000000    -0.707107     0.707107     0.000000     0.000000     0.000000
    5     1.000000   180.000000     0.000000     0.707107     0.707107    -0.500000     0.000000     0.000000
    6    -1.000000   180.000000     0.000000     0.707107     0.707107    -0.500000     0.000000     0.000000
    7     1.000000   179.999999     1.000000     0.000000     0.000000    -0.500000     0.000000     0.000000
    8    -1.000000   179.999999     1.000000     0.000000     0.000000    -0.500000     0.000000     0.000000

 Subroutine IBZKPT returns following result:

 Found      1 irreducible k-points:

 Following reciprocal coordinates:
            Coordinates               Weight
  0.000000  0.000000  0.000000      1.000000

 Following cartesian coordinates:
            Coordinates               Weight
  0.000000  0.000000  0.000000      1.000000

 SYSTEM =  unknown system
 POSCAR =  ce189_1

 Startparameter for this run:
   NWRITE =      1    write-flag & timer
   PREC   = accura    normal or accurate (medium, high low for compatibility)
   ISTART =      0    job   : 0-new  1-cont  2-samecut
   ICHARG =      2    charge: 1-file 2-atom 10-const
   ISPIN  =      2    spin polarized calculation?
   LNONCOLLINEAR =      F non collinear calculations
   LSORBIT =      F    spin-orbit coupling
   INIWAV =      1    electr: 0-lowe 1-rand  2-diag
   LASPH  =      F    aspherical Exc in radial PAW
[...]
   -.445E-13 0.505E-13 0.119E-12   -.194E-13 -.462E-13 -.746E-13   0.000E+00 0.103E-24 -.103E-24   0.197E-11 -.324E-11 -.755E-12
   0.881E-12 -.751E-12 0.125E-11   -.156E-12 0.173E-12 0.666E-13   -.103E-24 -.517E-25 0.517E-25   -.708E-12 0.465E-12 -.210E-11
   -.134E-11 -.446E-11 0.564E-11   0.711E-13 0.483E-13 0.617E-13   0.000E+00 0.000E+00 0.000E+00   -.103E-11 -.909E-12 -.789E-12
   0.257E-11 -.288E-12 -.858E-13   0.124E-12 0.870E-13 -.568E-13   0.000E+00 0.103E-24 -.103E-24   0.163E-12 -.570E-12 -.750E-12
   -.132E-10 -.119E-10 0.490E-11   -.133E-12 -.604E-13 -.711E-14   0.000E+00 -.207E-24 0.207E-24   0.242E-11 0.837E-12 0.299E-11
   0.128E-11 0.751E-12 -.680E-12   -.121E-12 0.204E-13 0.190E-13   0.103E-24 0.000E+00 0.000E+00   -.134E-11 0.239E-11 -.706E-12
   0.136E-11 -.829E-12 0.874E-12   -.888E-13 -.324E-13 0.892E-13   0.000E+00 0.000E+00 0.000E+00   -.102E-11 0.101E-11 0.842E-12
   0.119E-11 -.583E-11 0.495E-11   -.551E-13 0.142E-12 -.888E-14   0.000E+00 -.103E-24 0.103E-24   0.118E-11 0.293E-12 0.529E-12
   -.164E+02 -.721E+01 0.721E+01   0.169E+02 0.731E+01 -.731E+01   -.459E+00 -.105E+00 0.105E+00   -.443E-02 0.430E-02 -.430E-02
   0.176E+02 0.611E+01 -.611E+01   -.182E+02 -.619E+01 0.619E+01   0.536E+00 0.823E-01 -.823E-01   -.103E-01 0.712E-03 -.712E-03
   0.164E+02 0.721E+01 -.721E+01   -.169E+02 -.731E+01 0.731E+01   0.459E+00 0.105E+00 -.105E+00   0.443E-02 -.430E-02 0.430E-02
   -.176E+02 -.611E+01 0.611E+01   0.182E+02 0.619E+01 -.619E+01   -.536E+00 -.823E-01 0.823E-01   0.103E-01 -.712E-03 0.712E-03
   -.164E+02 0.721E+01 -.721E+01   0.169E+02 -.731E+01 0.731E+01   -.459E+00 0.105E+00 -.105E+00   -.443E-02 -.430E-02 0.430E-02
   0.164E+02 -.721E+01 0.721E+01   -.169E+02 0.731E+01 -.731E+01   0.459E+00 -.105E+00 0.105E+00   0.443E-02 0.430E-02 -.430E-02
   0.176E+02 -.611E+01 0.611E+01   -.182E+02 0.619E+01 -.619E+01   0.536E+00 -.823E-01 0.823E-01   -.103E-01 -.712E-03 0.712E-03
   -.176E+02 0.611E+01 -.611E+01   0.182E+02 -.619E+01 0.619E+01   -.536E+00 0.823E-01 -.823E-01   0.103E-01 0.712E-03 -.712E-03
   0.202E+03 0.209E+03 0.209E+03   -.215E+03 -.225E+03 -.225E+03   0.136E+02 0.161E+02 0.161E+02   -.129E-01 -.477E-02 -.477E-02
   0.163E+03 0.188E+03 0.168E+03   -.172E+03 -.200E+03 -.178E+03   0.893E+01 0.114E+02 0.103E+02   0.598E-02 -.864E-03 -.637E-02
   0.163E+03 0.168E+03 0.188E+03   -.172E+03 -.178E+03 -.200E+03   0.893E+01 0.103E+02 0.114E+02   0.598E-02 -.637E-02 -.864E-03
   0.180E+03 0.174E+03 0.174E+03   -.189E+03 -.185E+03 -.185E+03   0.894E+01 0.111E+02 0.111E+02   0.114E-01 -.357E-02 -.357E-02
   0.202E+03 -.209E+03 -.209E+03   -.215E+03 0.225E+03 0.225E+03   0.136E+02 -.161E+02 -.161E+02   -.129E-01 0.477E-02 0.477E-02
   0.163E+03 -.168E+03 -.188E+03   -.172E+03 0.178E+03 0.200E+03   0.893E+01 -.103E+02 -.114E+02   0.598E-02 0.637E-02 0.864E-03
   0.163E+03 -.188E+03 -.168E+03   -.172E+03 0.200E+03 0.178E+03   0.893E+01 -.114E+02 -.103E+02   0.598E-02 0.864E-03 0.637E-02
   0.180E+03 -.174E+03 -.174E+03   -.189E+03 0.185E+03 0.185E+03   0.894E+01 -.111E+02 -.111E+02   0.114E-01 0.357E-02 0.357E-02
   -.194E+03 0.220E+03 -.220E+03   0.207E+03 -.235E+03 0.235E+03   -.127E+02 0.151E+02 -.151E+02   0.222E-02 0.462E-02 -.462E-02
   -.154E+03 0.192E+03 -.192E+03   0.161E+03 -.203E+03 0.203E+03   -.696E+01 0.110E+02 -.110E+02   0.362E-02 0.129E-01 -.129E-01
   -.165E+03 0.183E+03 -.183E+03   0.173E+03 -.194E+03 0.194E+03   -.803E+01 0.110E+02 -.110E+02   0.316E-02 -.828E-02 0.828E-02
   -.149E+03 0.193E+03 -.193E+03   0.157E+03 -.204E+03 0.204E+03   -.747E+01 0.109E+02 -.109E+02   0.556E-02 0.524E-02 -.524E-02
   -.194E+03 -.220E+03 0.220E+03   0.207E+03 0.235E+03 -.235E+03   -.127E+02 -.151E+02 0.151E+02   0.222E-02 -.462E-02 0.462E-02
   -.165E+03 -.183E+03 0.183E+03   0.173E+03 0.194E+03 -.194E+03   -.803E+01 -.110E+02 0.110E+02   0.316E-02 0.828E-02 -.828E-02
   -.154E+03 -.192E+03 0.192E+03   0.161E+03 0.203E+03 -.203E+03   -.696E+01 -.110E+02 0.110E+02   0.362E-02 -.129E-01 0.129E-01
   -.149E+03 -.193E+03 0.193E+03   0.157E+03 0.204E+03 -.204E+03   -.747E+01 -.109E+02 0.109E+02   0.556E-02 -.524E-02 0.524E-02
   -.180E+03 -.174E+03 -.174E+03   0.189E+03 0.185E+03 0.185E+03   -.894E+01 -.111E+02 -.111E+02   -.114E-01 0.357E-02 0.357E-02
   -.163E+03 -.168E+03 -.188E+03   0.172E+03 0.178E+03 0.200E+03   -.893E+01 -.103E+02 -.114E+02   -.598E-02 0.637E-02 0.864E-03
   -.163E+03 -.188E+03 -.168E+03   0.172E+03 0.200E+03 0.178E+03   -.893E+01 -.114E+02 -.103E+02   -.598E-02 0.864E-03 0.637E-02
   -.202E+03 -.209E+03 -.209E+03   0.215E+03 0.225E+03 0.225E+03   -.136E+02 -.161E+02 -.161E+02   0.129E-01 0.477E-02 0.477E-02
   -.180E+03 0.174E+03 0.174E+03   0.189E+03 -.185E+03 -.185E+03   -.894E+01 0.111E+02 0.111E+02   -.114E-01 -.357E-02 -.357E-02
   -.163E+03 0.188E+03 0.168E+03   0.172E+03 -.200E+03 -.178E+03   -.893E+01 0.114E+02 0.103E+02   -.598E-02 -.864E-03 -.637E-02
   -.163E+03 0.168E+03 0.188E+03   0.172E+03 -.178E+03 -.200E+03   -.893E+01 0.103E+02 0.114E+02   -.598E-02 -.637E-02 -.864E-03
   -.202E+03 0.209E+03 0.209E+03   0.215E+03 -.225E+03 -.225E+03   -.136E+02 0.161E+02 0.161E+02   0.129E-01 -.477E-02 -.477E-02
   0.154E+03 -.192E+03 0.192E+03   -.161E+03 0.203E+03 -.203E+03   0.696E+01 -.110E+02 0.110E+02   -.362E-02 -.129E-01 0.129E-01
   0.194E+03 -.220E+03 0.220E+03   -.207E+03 0.235E+03 -.235E+03   0.127E+02 -.151E+02 0.151E+02   -.222E-02 -.462E-02 0.462E-02
   0.149E+03 -.193E+03 0.193E+03   -.157E+03 0.204E+03 -.204E+03   0.747E+01 -.109E+02 0.109E+02   -.556E-02 -.524E-02 0.524E-02
   0.165E+03 -.183E+03 0.183E+03   -.173E+03 0.194E+03 -.194E+03   0.803E+01 -.110E+02 0.110E+02   -.316E-02 0.828E-02 -.828E-02
   0.154E+03 0.192E+03 -.192E+03   -.161E+03 -.203E+03 0.203E+03   0.696E+01 0.110E+02 -.110E+02   -.362E-02 0.129E-01 -.129E-01
   0.149E+03 0.193E+03 -.193E+03   -.157E+03 -.204E+03 0.204E+03   0.747E+01 0.109E+02 -.109E+02   -.556E-02 0.524E-02 -.524E-02
   0.194E+03 0.220E+03 -.220E+03   -.207E+03 -.235E+03 0.235E+03   0.127E+02 0.151E+02 -.151E+02   -.222E-02 0.462E-02 -.462E-02
   0.165E+03 0.183E+03 -.183E+03   -.173E+03 -.194E+03 0.194E+03   0.803E+01 0.110E+02 -.110E+02   -.316E-02 -.828E-02 0.828E-02
   -.134E-10 -.271E-10 0.508E-10   -.540E-12 0.199E-12 0.284E-12   0.355E-14 0.107E-13 0.533E-14   0.864E-11 -.326E-12 -.124E-11

 POSITION                                       TOTAL-FORCE (eV/Angst)
      3.05082      2.97560      2.97560        -0.012406     -0.000000     -0.000000
      7.05645      2.93525     -0.95151        -0.004646     -0.004743      0.004743
      7.05645     -0.95151      2.93525        -0.004646      0.004743     -0.004743
      9.22933      4.91899      1.03222         0.004646     -0.004743      0.004743
      9.22933      1.03222      4.91899         0.004646      0.004743     -0.004743
     13.23497      0.99187      0.99187         0.012406     -0.000000     -0.000000
     -0.00000     -0.00000     -0.00000        -0.000000     -0.000000     -0.000000
      4.07145      3.94208      0.02539        -0.000000     -0.000000     -0.000000
      4.07145      0.02539      3.94208        -0.000000     -0.000000     -0.000000
      8.14289      0.00000      0.00000        -0.000000     -0.000000     -0.000000
     -0.00000      1.98374      1.98374        -0.000000     -0.000000     -0.000000
      4.07145      1.95835     -1.95835        -0.000000     -0.000000     -0.000000
      4.07145     -1.95835      1.95835        -0.000000     -0.000000     -0.000000
      8.14289      1.98374      1.98374        -0.000000     -0.000000     -0.000000
      2.05069      0.01244      1.97130        -0.001777     -0.001000      0.001000
      6.11085      3.94641      2.00480        -0.001078      0.000980     -0.000980
     14.23509      3.95504      1.99617         0.001777      0.001000     -0.001000
     10.17494      0.02106      1.96268         0.001078     -0.000980      0.000980
      2.05069      1.97130      0.01244        -0.001777      0.001000     -0.001000
     14.23509      1.99617      3.95504         0.001777     -0.001000      0.001000
      6.11085      2.00480      3.94641        -0.001078     -0.000980      0.000980
     10.17494      1.96268      0.02106         0.001078      0.000980     -0.000980
      6.24050      2.09521      2.09521         0.003330     -0.000642     -0.000642
     10.31247      2.07385     -1.85546         0.002017     -0.003641      0.002377
     10.31247     -1.85546      2.07385         0.002017      0.002377     -0.003641
     14.37213      2.09022      2.09022        -0.000172      0.000734      0.000734
      6.24050      3.85600      3.85600         0.003330      0.000642      0.000642
     10.31247      3.83920     -0.09012         0.002017     -0.002377      0.003641
     10.31247     -0.09012      3.83920         0.002017      0.003641     -0.002377
     14.37213      3.86099      3.86099        -0.000172     -0.000734     -0.000734
      3.99131      2.10489     -0.12115        -0.009322     -0.001153      0.001153
      8.06919      6.03618     -0.08498        -0.005461     -0.003163      0.003163
      8.06075      2.12087      3.83034        -0.004444     -0.001736      0.001736
     12.12778      2.09471     -0.11097        -0.001644     -0.002491      0.002491
      3.99131     -0.12115      2.10489        -0.009322      0.001153     -0.001153
      8.06075      3.83034      2.12087        -0.004444      0.001736     -0.001736
      8.06919     -0.08498      6.03618        -0.005461      0.003163     -0.003163
     12.12778     -0.11097      2.09471        -0.001644      0.002491     -0.002491
      1.91365      1.87725      1.87725         0.000172     -0.000734     -0.000734
      5.97331      5.82293      1.89362        -0.002017     -0.002377      0.003641
      5.97331      1.89362      5.82293        -0.002017      0.003641     -0.002377
     10.04528      1.87227      1.87227        -0.003330      0.000642      0.000642
      1.91365      0.10648      0.10648         0.000172      0.000734      0.000734
      5.97331      4.05759      0.12828        -0.002017     -0.003641      0.002377
      5.97331      0.12828      4.05759        -0.002017      0.002377     -0.003641
     10.04528      0.11147      0.11147        -0.003330     -0.000642     -0.000642
      8.21659     -2.06871      4.05245         0.005461      0.003163     -0.003163
     12.29447      1.86258      4.08863         0.009322      0.001153     -0.001153
      4.15800      1.87277      4.07844         0.001644      0.002491     -0.002491
      8.22503      1.84660      0.13713         0.004444      0.001736     -0.001736
      8.21659      4.05245     -2.06871         0.005461     -0.003163      0.003163
      4.15800      4.07844      1.87277         0.001644     -0.002491      0.002491
     12.29447      4.08863      1.86258         0.009322     -0.001153      0.001153
      8.22503      0.13713      1.84660         0.004444     -0.001736      0.001736
    total drift:                               -0.000000     -0.000000      0.000000

  FREE ENERGIE OF THE ION-ELECTRON SYSTEM (eV)
  free  energy   TOTEN  =      -335.2316494791 eV

  energy  without entropy=     -335.2314050031  energy(sigma->0) =     -335.23152724

 d Force = 0.2951139E-03[ 0.203E-04, 0.570E-03]  d Energy = 0.4794154E-03-0.184E-03
 d Force = 0.3482089E+01[ 0.348E+01, 0.349E+01]  d Ewald  =-0.1508883E+01 0.499E+01

 Quasi-Newton relaxation of ions (Broydens 2nd method)
  g(Force)  = 0.755E-04   g(Stress)= 0.238E-04

 retain information from N=  2 steps
 eigenvalues of (default step * inverse Hessian matrix)
  average eigenvalue of G=   1.2286
 eigenvalue spectrum of G is  1.2286  1.2286

 reached required accuracy - stopping structural energy minimisation

volume of typ            1:     9.2 %

[...]

volume of typ            3:    10.3 %

total charge

# of ion       s       p       d       tot
    1        2.113   0.331   0.126   2.569
    2        2.112   0.331   0.125   2.568
    3        2.112   0.331   0.125   2.568
    4        2.112   0.331   0.125   2.568
    5        2.112   0.331   0.125   2.568
    6        2.113   0.331   0.126   2.569
    7        0.290   0.405   7.830   8.526
    8        0.294   0.414   7.828   8.537
    9        0.294   0.414   7.828   8.537
   10        0.293   0.410   7.830   8.534
   11        0.290   0.405   7.830   8.526
   12        0.294   0.414   7.828   8.537
   13        0.294   0.414   7.828   8.537
   14        0.293   0.410   7.830   8.534
   15        0.281   0.379   7.840   8.500
   16        0.280   0.377   7.840   8.498
   17        0.281   0.379   7.840   8.500
   18        0.280   0.377   7.840   8.498
   19        0.281   0.379   7.840   8.500
   20        0.281   0.379   7.840   8.500
   21        0.280   0.377   7.840   8.498
   22        0.280   0.377   7.840   8.498
   23        1.282   2.726   0.008   4.017
   24        1.264   2.783   0.007   4.053
   25        1.264   2.783   0.007   4.053
   26        1.264   2.778   0.007   4.049
   27        1.282   2.726   0.008   4.017
   28        1.264   2.783   0.007   4.053
   29        1.264   2.783   0.007   4.053
   30        1.264   2.778   0.007   4.049
   31        1.284   2.724   0.008   4.016
   32        1.268   2.770   0.007   4.045
   33        1.268   2.773   0.007   4.047
   34        1.269   2.772   0.007   4.047
   35        1.284   2.724   0.008   4.016
   36        1.268   2.773   0.007   4.047
   37        1.268   2.770   0.007   4.045
   38        1.269   2.772   0.007   4.047
   39        1.264   2.778   0.007   4.049
   40        1.264   2.783   0.007   4.053
   41        1.264   2.783   0.007   4.053
   42        1.282   2.726   0.008   4.017
   43        1.264   2.778   0.007   4.049
   44        1.264   2.783   0.007   4.053
   45        1.264   2.783   0.007   4.053
   46        1.282   2.726   0.008   4.017
   47        1.268   2.770   0.007   4.045
   48        1.284   2.724   0.008   4.016
   49        1.269   2.772   0.007   4.047
   50        1.268   2.773   0.007   4.047
   51        1.268   2.770   0.007   4.045
   52        1.269   2.772   0.007   4.047
   53        1.284   2.724   0.008   4.016
   54        1.268   2.773   0.007   4.047
tot          57.91   96.73  126.34  280.98

magnetization (x)

# of ion       s       p       d       tot
    1       -0.000   0.000   0.000   0.000
    2       -0.000  -0.000   0.000  -0.000
    3       -0.000  -0.000   0.000  -0.000
    4       -0.000  -0.000   0.000  -0.000
    5       -0.000  -0.000   0.000  -0.000
    6       -0.000   0.000   0.000   0.000
    7        0.000  -0.000   0.016   0.016
    8       -0.000   0.000   0.007   0.007
    9       -0.000   0.000   0.007   0.007
   10       -0.000   0.000  -0.022  -0.022
   11        0.000  -0.000   0.016   0.016
   12       -0.000   0.000   0.007   0.007
   13       -0.000   0.000   0.007   0.007
   14       -0.000   0.000  -0.022  -0.022
   15       -0.000   0.000  -0.323  -0.323
   16        0.001  -0.000   0.326   0.327
   17       -0.000   0.000  -0.323  -0.323
   18        0.001  -0.000   0.326   0.327
   19       -0.000   0.000  -0.323  -0.323
   20       -0.000   0.000  -0.323  -0.323
   21        0.001  -0.000   0.326   0.327
   22        0.001  -0.000   0.326   0.327
   23        0.001   0.003   0.000   0.005
   24       -0.000  -0.000  -0.000  -0.000
   25       -0.000  -0.000  -0.000  -0.000
   26       -0.001  -0.003  -0.000  -0.005
   27        0.001   0.003   0.000   0.005
   28       -0.000  -0.000  -0.000  -0.000
   29       -0.000  -0.000  -0.000  -0.000
   30       -0.001  -0.003  -0.000  -0.005
   31       -0.003  -0.037  -0.000  -0.040
   32       -0.003  -0.029  -0.000  -0.032
   33        0.003   0.031   0.000   0.035
   34        0.003   0.030   0.000   0.033
   35       -0.003  -0.037  -0.000  -0.040
   36        0.003   0.031   0.000   0.035
   37       -0.003  -0.029  -0.000  -0.032
   38        0.003   0.030   0.000   0.033
   39       -0.001  -0.003  -0.000  -0.005
   40       -0.000  -0.000  -0.000  -0.000
   41       -0.000  -0.000  -0.000  -0.000
   42        0.001   0.003   0.000   0.005
   43       -0.001  -0.003  -0.000  -0.005
   44       -0.000  -0.000  -0.000  -0.000
   45       -0.000  -0.000  -0.000  -0.000
   46        0.001   0.003   0.000   0.005
   47       -0.003  -0.029  -0.000  -0.032
   48       -0.003  -0.037  -0.000  -0.040
   49        0.003   0.030   0.000   0.033
   50        0.003   0.031   0.000   0.035
   51       -0.003  -0.029  -0.000  -0.032
   52        0.003   0.030   0.000   0.033
   53       -0.003  -0.037  -0.000  -0.040
   54        0.003   0.031   0.000   0.035
tot           0.00   -0.02    0.03    0.01