 vasp.5.4.4.18Apr17-6-g9f103f2a35 (build May 12 2020 05:39:39) gamma-only

 MD_VERSION_INFO: Compiled 2020-05-12T12:39:39-UTC in devlin.sd.materialsdesign.
 com:/home/medea2/data/build/wwolf/vasp-gpu5.4.4/13047/x86_64/src/src/build/gam
 from svn 13047

 executed on                        Lin64 date 2023.03.06  23:08:53

 INCAR:
 POTCAR:    PAW_PBE Li_sv 10Sep2004
 POTCAR:    PAW_PBE Ni 02Aug2007
 POTCAR:    PAW_PBE O 08Apr2002

 POTCAR:    PAW_PBE Li_sv 10Sep2004

 POTCAR:    PAW_PBE Ni 02Aug2007

 POTCAR:    PAW_PBE O 08Apr2002

 Optimization of the real space projectors (new method)

 maximal supplied QI-value         = 22.11
 optimisation between [QCUT,QGAM] = [ 11.28, 22.77] = [ 35.61,145.23] Ry
 Optimized for a Real-space Cutoff    1.10 Angstroem

   l    n(q)    QCUT    max X(q) W(low)/X(q) W(high)/X(q)  e(spline)
   0      7    11.276    10.506    0.54E-04    0.58E-04    0.16E-07
   0      7    11.276     8.367    0.11E-03    0.14E-03    0.35E-07
   1      7    11.276     8.983    0.23E-03    0.43E-03    0.86E-07
 Optimization of the real space projectors (new method)

[...]

   l    n(q)    QCUT    max X(q) W(low)/X(q) W(high)/X(q)  e(spline)
   2      9    11.376    60.317    0.17E-03    0.16E-04    0.16E-06
   2      9    11.376    55.921    0.17E-03    0.16E-04    0.17E-06
   0     10    11.376    51.690    0.45E-04    0.60E-04    0.21E-06
   0     10    11.376    30.015    0.37E-04    0.55E-04    0.19E-06
   1     10    11.376    18.849    0.83E-04    0.11E-03    0.92E-07
   1     10    11.376    14.624    0.69E-04    0.92E-04    0.82E-07
 Optimization of the real space projectors (new method)

 maximal supplied QI-value         = 24.76
 optimisation between [QCUT,QGAM] = [ 11.39, 22.77] = [ 36.31,145.25] Ry
 Optimized for a Real-space Cutoff    1.10 Angstroem

   l    n(q)    QCUT    max X(q) W(low)/X(q) W(high)/X(q)  e(spline)
   0      7    11.387    20.381    0.22E-03    0.48E-03    0.18E-06
   0      7    11.387    15.268    0.22E-03    0.52E-03    0.19E-06
   1      7    11.387     5.964    0.22E-03    0.73E-03    0.24E-06
   1      7    11.387     5.382    0.19E-03    0.60E-03    0.21E-06

  PAW_PBE Li_sv 10Sep2004               :
  PAW_PBE Ni 02Aug2007                  :
  PAW_PBE O 08Apr2002                   :

 POSCAR: ce1_1
  positions in direct lattice
 exchange correlation table for  LEXCH =       14
   RHO(1)=    0.500       N(1)  =     2000
   RHO(2)=  100.500       N(2)  =     4000

 ion  position               nearest neighbor table
   1  0.000  0.250  0.251-  49 2.08  44 2.11  41 2.11  53 2.11  56 2.11  35 2.13  25 2.81  17 2.82

   2  0.000  0.750  0.749-  50 2.08  43 2.11  42 2.11  54 2.11  55 2.11  36 2.13  25 2.81  17 2.82

[...]

  16  0.500  0.751  0.251-  46 2.06  58 2.10  59 2.10  39 2.12  38 2.12  64 2.15  24 2.81  32 2.82

  17  0.000  0.000  0.000-  41 1.89  42 1.89  43 1.89  44 1.89  51 2.04  52 2.04   1 2.82   2 2.82
                            22 2.82  22 2.82  18 2.90  19 2.90  20 2.90  21 2.90
  18  0.250  0.000  0.250-  64 1.89  52 1.89  35 1.89  47 1.90  58 2.03  41 2.04  21 2.82   3 2.82
                            21 2.82  12 2.83  22 2.90  17 2.90  24 2.90  23 2.90
  19  0.250  1.000  0.750-  63 1.89  51 1.89  36 1.89  48 1.90  57 2.03  42 2.04  20 2.82   4 2.82
                            20 2.82  11 2.83  22 2.90  17 2.90  24 2.90  23 2.90
  20  0.750  1.000  0.750-  63 1.89  51 1.89  36 1.89  48 1.90  60 2.03  43 2.04  19 2.82   5 2.82
                            19 2.82  14 2.83  22 2.90  17 2.90  24 2.90  23 2.90
  21  0.750  0.000  0.250-  64 1.89  52 1.89  35 1.89  47 1.90  59 2.03  44 2.04  18 2.82   6 2.82
                            18 2.82  13 2.83  22 2.90  17 2.90  24 2.90  23 2.90
  22  0.500  0.000  0.000-  41 1.89  42 1.89  43 1.89  44 1.89  63 2.04  64 2.04  17 2.82  17 2.82
                             7 2.83   8 2.83  21 2.90  18 2.90  19 2.90  20 2.90
  23  0.000  0.000  0.500-  57 1.89  58 1.89  59 1.89  60 1.89  35 2.05  36 2.05   9 2.81  10 2.81
                            24 2.82  24 2.82  18 2.90  19 2.90  20 2.90  21 2.90
  24  0.500  0.000  0.500-  57 1.89  58 1.89  59 1.89  60 1.89  47 2.05  48 2.05  15 2.81  16 2.81
                            23 2.82  23 2.82  18 2.90  19 2.90  20 2.90  21 2.90
  25  0.000  0.500  0.500-  53 1.88  54 1.88  55 1.88  56 1.88  33 2.12  34 2.12   1 2.81   2 2.81
                            30 2.82  30 2.82  26 2.90  27 2.90  28 2.90  29 2.90
  26  0.250  0.499  0.749-  45 1.88  33 1.89  62 1.89  50 1.89  54 2.05  37 2.07   3 2.80  12 2.81
                            29 2.82  29 2.82  30 2.90  25 2.90  32 2.91  31 2.91
  27  0.250  0.501  0.251-  46 1.88  34 1.89  61 1.89  49 1.89  53 2.05  38 2.07   4 2.80  11 2.81
                            28 2.82  28 2.82  30 2.90  25 2.90  32 2.91  31 2.91
  28  0.750  0.501  0.251-  46 1.88  34 1.89  61 1.89  49 1.89  56 2.05  39 2.07   5 2.80  14 2.81
                            27 2.82  27 2.82  30 2.90  25 2.90  32 2.91  31 2.91
  29  0.750  0.499  0.749-  45 1.88  33 1.89  62 1.89  50 1.89  55 2.05  40 2.07   6 2.80  13 2.81
                            26 2.82  26 2.82  30 2.90  25 2.90  32 2.91  31 2.91
  30  0.500  0.500  0.500-  53 1.88  54 1.88  55 1.88  56 1.88  45 2.12  46 2.12   7 2.81   8 2.81
                            25 2.82  25 2.82  29 2.90  26 2.90  27 2.90  28 2.90
  31  0.000  0.500  0.000-  38 1.88  39 1.88  37 1.88  40 1.88  49 2.11  50 2.11  32 2.82  32 2.82
                             9 2.82  10 2.82  26 2.91  27 2.91  28 2.91  29 2.91
  32  0.500  0.500  0.000-  38 1.88  39 1.88  37 1.88  40 1.88  61 2.11  62 2.11  15 2.82  16 2.82
                            31 2.82  31 2.82  26 2.91  27 2.91  28 2.91  29 2.91
  33  0.000  0.387  0.640-  26 1.89  29 1.89   9 2.06   6 2.10   3 2.10  25 2.12
  34  0.000  0.613  0.360-  27 1.89  28 1.89  10 2.06   5 2.10   4 2.10  25 2.12
  35  0.000  0.110  0.365-  18 1.89  21 1.89  23 2.05   6 2.10   3 2.10   1 2.13
  36  0.000  0.890  0.635-  19 1.89  20 1.89  23 2.05   5 2.10   4 2.10   2 2.13
  37  0.250  0.392  0.888-  32 1.88  31 1.88  26 2.07  15 2.12   9 2.12  11 2.13
  38  0.250  0.608  0.112-  32 1.88  31 1.88  27 2.07  16 2.12  10 2.12  12 2.13
  39  0.750  0.608  0.112-  32 1.88  31 1.88  28 2.07  16 2.12  10 2.12  13 2.13
  40  0.750  0.392  0.888-  32 1.88  31 1.88  29 2.07  15 2.12   9 2.12  14 2.13
  41  0.250  0.109  0.115-  22 1.89  17 1.89  18 2.04   1 2.11   7 2.11  11 2.12
  42  0.250  0.891  0.885-  22 1.89  17 1.89  19 2.04   2 2.11   8 2.11  12 2.12
  43  0.750  0.891  0.885-  22 1.89  17 1.89  20 2.04   2 2.11   8 2.11  13 2.12
  44  0.750  0.109  0.115-  22 1.89  17 1.89  21 2.04   1 2.11   7 2.11  14 2.12
  45  0.500  0.387  0.640-  26 1.88  29 1.88  15 2.06   6 2.10   3 2.10  30 2.12
  46  0.500  0.613  0.360-  27 1.88  28 1.88  16 2.06   5 2.10   4 2.10  30 2.12
  47  0.500  0.110  0.365-  18 1.90  21 1.90  24 2.05   6 2.10   3 2.10   7 2.13
  48  0.500  0.890  0.635-  19 1.90  20 1.90  24 2.05   5 2.10   4 2.10   8 2.13
  49  0.000  0.389  0.141-  27 1.89  28 1.89   1 2.08  11 2.10  14 2.10  31 2.11
  50  0.000  0.611  0.859-  26 1.89  29 1.89   2 2.08  12 2.10  13 2.10  31 2.11
  51  0.000  0.108  0.865-  19 1.89  20 1.89  17 2.04  14 2.11  11 2.11   9 2.15
  52  0.000  0.892  0.135-  18 1.89  21 1.89  17 2.04  13 2.11  12 2.11  10 2.15
  53  0.250  0.392  0.387-  25 1.88  30 1.88  27 2.05   7 2.10   1 2.11   3 2.13
  54  0.250  0.608  0.613-  25 1.88  30 1.88  26 2.05   8 2.10   2 2.11   4 2.13
  55  0.750  0.608  0.613-  25 1.88  30 1.88  29 2.05   8 2.10   2 2.11   5 2.13
  56  0.750  0.392  0.387-  25 1.88  30 1.88  28 2.05   7 2.10   1 2.11   6 2.13
  57  0.250  0.107  0.615-  24 1.89  23 1.89  19 2.03   9 2.10  15 2.10   3 2.16
  58  0.250  0.893  0.385-  24 1.89  23 1.89  18 2.03  10 2.10  16 2.10   4 2.16
  59  0.750  0.893  0.385-  24 1.89  23 1.89  21 2.03  10 2.10  16 2.10   5 2.16
  60  0.750  0.107  0.615-  24 1.89  23 1.89  20 2.03   9 2.10  15 2.10   6 2.16
  61  0.500  0.389  0.141-  27 1.89  28 1.89   7 2.08  11 2.10  14 2.10  32 2.11
  62  0.500  0.611  0.859-  26 1.89  29 1.89   8 2.08  12 2.10  13 2.10  32 2.11
  63  0.500  0.108  0.865-  19 1.89  20 1.89  22 2.04  14 2.12  11 2.12  15 2.15
  64  0.500  0.892  0.135-  18 1.89  21 1.89  22 2.04  13 2.12  12 2.12  16 2.15

  LATTYP: Found a simple monoclinic cell.
 ALAT       =    11.2631914230
 B/A-ratio  =     0.5013528642
 C/A-ratio  =     1.6636277311
 COS(beta)  =    -0.8952977594

  Lattice vectors:

 A1 = (  -6.3909233413,   0.0000000000,  -9.2744584681)
 A2 = (   0.0000000000,  -5.6468332794,   0.0000000000)
 A3 = (   2.6456721366,   0.0000000000,  18.5500398522)

Analysis of symmetry for initial positions (statically):
 Subroutine PRICEL returns:
 Original cell was already a primitive cell.

 Routine SETGRP: Setting up the symmetry group for a
 simple monoclinic supercell.

 Subroutine GETGRP returns: Found  4 space group operations
 (whereof  4 operations were pure point group operations)
 out of a pool of  4 trial point group operations.

The static configuration has the point symmetry C_2h.

Analysis of symmetry for dynamics (positions and initial velocities):
 Subroutine PRICEL returns:
 Original cell was already a primitive cell.

[...]

The dynamic configuration has the point symmetry C_2h.

Analysis of structural, dynamic, and magnetic symmetry:
 Subroutine PRICEL returns:
 Original cell was already a primitive cell.

 Routine SETGRP: Setting up the symmetry group for a
 simple monoclinic supercell.

 Subroutine GETGRP returns: Found  4 space group operations
 (whereof  4 operations were pure point group operations)
 out of a pool of  4 trial point group operations.

The magnetic configuration has the point symmetry C_2h.

 Subroutine INISYM returns: Found  4 space group operations
 (whereof  4 operations are pure point group operations),
 and found     1 'primitive' translations

 KPOINTS: Automatic mesh

Automatic generation of k-mesh.
Space group operators:
 irot       det(A)        alpha          n_x          n_y          n_z        tau_x        tau_y        tau_z
    1     1.000000     0.000000     1.000000     0.000000     0.000000     0.000000     0.000000     0.000000
    2    -1.000000     0.000000     1.000000     0.000000     0.000000     0.000000     0.000000     0.000000
    3     1.000000   179.999999     0.000000     1.000000     0.000000     0.000000     0.000000     0.000000
    4    -1.000000   179.999999     0.000000     1.000000     0.000000     0.000000     0.000000     0.000000

 Subroutine IBZKPT returns following result:

 Found      1 irreducible k-points:

 Following reciprocal coordinates:
            Coordinates               Weight
  0.000000  0.000000  0.000000      1.000000

 Following cartesian coordinates:
            Coordinates               Weight
  0.000000  0.000000  0.000000      1.000000

 SYSTEM =  unknown system
 POSCAR =  ce1_1

 Startparameter for this run:
   NWRITE =      1    write-flag & timer
   PREC   = accura    normal or accurate (medium, high low for compatibility)
   ISTART =      0    job   : 0-new  1-cont  2-samecut
   ICHARG =      2    charge: 1-file 2-atom 10-const
[...]
   -.884E+00 0.429E+00 0.132E+01   0.860E+00 -.445E+00 -.132E+01   -.514E-02 -.802E-03 0.902E-03   0.240E-01 -.144E-02 0.804E-03
   -.214E-11 0.939E-12 0.345E-11   -.119E-11 0.561E-13 -.321E-11   0.331E-23 0.000E+00 0.100E-23   0.373E-12 0.252E-12 0.237E-12
   0.212E-12 0.178E-13 0.532E-12   0.239E-10 -.173E-12 -.801E-11   0.000E+00 0.000E+00 0.189E-23   -.437E-12 0.191E-12 0.879E-13
   -.141E-11 0.102E-11 -.332E-11   0.240E-10 0.393E-13 -.774E-11   0.000E+00 0.000E+00 -.165E-23   -.431E-12 -.157E-12 -.245E-13
   0.279E+02 -.593E-13 0.253E+03   -.308E+02 0.102E-12 -.263E+03   0.285E+01 -.517E-25 0.107E+02   0.143E-01 -.123E-12 -.762E-03
   -.279E+02 -.817E-13 -.253E+03   0.308E+02 0.434E-13 0.263E+03   -.285E+01 0.000E+00 -.107E+02   -.143E-01 0.172E-13 0.762E-03
   -.228E+02 0.351E-13 -.256E+03   0.255E+02 -.950E-13 0.266E+03   -.276E+01 0.000E+00 -.103E+02   0.113E-02 -.131E-13 0.101E-01
   0.228E+02 -.182E-13 0.256E+03   -.255E+02 -.884E-13 -.266E+03   0.276E+01 0.000E+00 0.103E+02   -.113E-02 0.624E-13 -.101E-01
   0.119E+02 -.770E-01 0.253E+03   -.144E+02 0.773E-01 -.264E+03   0.249E+01 -.270E-02 0.114E+02   0.122E-01 0.128E-02 0.968E-02
   -.119E+02 -.770E-01 -.253E+03   0.144E+02 0.773E-01 0.264E+03   -.249E+01 -.270E-02 -.114E+02   -.122E-01 0.128E-02 -.968E-02
   -.119E+02 0.770E-01 -.253E+03   0.144E+02 -.773E-01 0.264E+03   -.249E+01 0.270E-02 -.114E+02   -.122E-01 -.128E-02 -.968E-02
   0.119E+02 0.770E-01 0.253E+03   -.144E+02 -.773E-01 -.264E+03   0.249E+01 0.270E-02 0.114E+02   0.122E-01 -.128E-02 0.968E-02
   -.146E+02 -.130E+00 -.254E+03   0.171E+02 0.156E+00 0.265E+03   -.241E+01 -.170E-01 -.111E+02   -.260E-01 -.892E-02 -.105E-01
   0.146E+02 -.130E+00 0.254E+03   -.171E+02 0.156E+00 -.265E+03   0.241E+01 -.170E-01 0.111E+02   0.260E-01 -.892E-02 0.105E-01
   0.146E+02 0.130E+00 0.254E+03   -.171E+02 -.156E+00 -.265E+03   0.241E+01 0.170E-01 0.111E+02   0.260E-01 0.892E-02 0.105E-01
   -.146E+02 0.130E+00 -.254E+03   0.171E+02 -.156E+00 0.265E+03   -.241E+01 0.170E-01 -.111E+02   -.260E-01 0.892E-02 -.105E-01
   0.277E+02 0.159E-12 0.252E+03   -.306E+02 0.442E-14 -.263E+03   0.284E+01 0.000E+00 0.107E+02   0.132E-01 0.971E-13 -.150E-02
   -.277E+02 0.153E-12 -.252E+03   0.306E+02 0.388E-13 0.263E+03   -.284E+01 0.000E+00 -.107E+02   -.132E-01 0.270E-13 0.150E-02
   -.229E+02 0.120E-12 -.255E+03   0.256E+02 -.454E-13 0.266E+03   -.276E+01 0.000E+00 -.103E+02   0.108E-01 0.587E-13 0.661E-02
   0.229E+02 0.201E-12 0.255E+03   -.256E+02 -.684E-13 -.266E+03   0.276E+01 0.000E+00 0.103E+02   -.108E-01 -.827E-13 -.661E-02
   0.286E+02 -.437E-13 0.253E+03   -.314E+02 0.412E-13 -.263E+03   0.280E+01 0.000E+00 0.107E+02   -.114E-01 0.240E-12 -.597E-04
   -.286E+02 -.855E-13 -.253E+03   0.314E+02 0.150E-13 0.263E+03   -.280E+01 0.000E+00 -.107E+02   0.114E-01 -.996E-13 0.597E-04
   -.214E+02 -.881E-14 -.258E+03   0.240E+02 -.916E-13 0.268E+03   -.268E+01 0.000E+00 -.104E+02   0.287E-01 0.163E-12 0.920E-02
   0.214E+02 0.698E-13 0.258E+03   -.240E+02 -.121E-12 -.268E+03   0.268E+01 0.000E+00 0.104E+02   -.287E-01 -.157E-12 -.920E-02
   0.131E+02 -.464E-01 0.252E+03   -.157E+02 0.467E-01 -.263E+03   0.256E+01 -.375E-02 0.113E+02   -.906E-02 0.204E-02 -.108E-01
   -.131E+02 -.464E-01 -.252E+03   0.157E+02 0.467E-01 0.263E+03   -.256E+01 -.375E-02 -.113E+02   0.906E-02 0.204E-02 0.108E-01
   -.131E+02 0.464E-01 -.252E+03   0.157E+02 -.467E-01 0.263E+03   -.256E+01 0.375E-02 -.113E+02   0.906E-02 -.204E-02 0.108E-01
   0.131E+02 0.464E-01 0.252E+03   -.157E+02 -.467E-01 -.263E+03   0.256E+01 0.375E-02 0.113E+02   -.906E-02 -.204E-02 -.108E-01
   -.151E+02 -.672E-01 -.253E+03   0.176E+02 0.519E-01 0.265E+03   -.243E+01 0.320E-02 -.111E+02   -.891E-02 0.114E-01 0.539E-02
   0.151E+02 -.672E-01 0.253E+03   -.176E+02 0.519E-01 -.265E+03   0.243E+01 0.320E-02 0.111E+02   0.891E-02 0.114E-01 -.539E-02
   0.151E+02 0.672E-01 0.253E+03   -.176E+02 -.519E-01 -.265E+03   0.243E+01 -.320E-02 0.111E+02   0.891E-02 -.114E-01 -.539E-02
   -.151E+02 0.672E-01 -.253E+03   0.176E+02 -.519E-01 0.265E+03   -.243E+01 -.320E-02 -.111E+02   -.891E-02 -.114E-01 0.539E-02
   0.284E+02 0.191E-12 0.252E+03   -.312E+02 -.704E-13 -.263E+03   0.280E+01 0.000E+00 0.107E+02   -.119E-01 -.264E-12 0.192E-02
   -.284E+02 0.164E-12 -.252E+03   0.312E+02 -.546E-13 0.263E+03   -.280E+01 0.517E-25 -.107E+02   0.119E-01 0.145E-12 -.192E-02
   -.212E+02 0.219E-12 -.258E+03   0.238E+02 0.355E-13 0.268E+03   -.267E+01 0.000E+00 -.104E+02   0.202E-01 -.118E-12 0.120E-01
   0.212E+02 0.150E-12 0.258E+03   -.238E+02 0.483E-13 -.268E+03   0.267E+01 0.000E+00 0.104E+02   -.202E-01 0.141E-12 -.120E-01
   0.904E-10 0.348E-10 0.638E-10   -.185E-12 -.233E-12 0.682E-12   -.444E-15 -.607E-17 -.533E-14   -.153E-11 -.683E-13 -.111E-11

 POSITION                                       TOTAL-FORCE (eV/Angst)
      1.59807     -0.00000      2.32538         0.000013     -0.000000     -0.010278
      4.78776     -0.00000      6.94831        -0.000013     -0.000000      0.010278
      4.13316      1.41376      2.32100         0.004079      0.001685     -0.011488
      2.25267      1.41376      6.95269        -0.004079      0.001685      0.011488
      2.25267      4.24282      6.95269        -0.004079     -0.001685      0.011488
      4.13316      4.24282      2.32100         0.004079     -0.001685     -0.011488
      1.59871      2.82829      2.32581        -0.001736     -0.000000     -0.012345
      4.78712      2.82829      6.94788         0.001736     -0.000000      0.012345
      6.66232     -0.00000      2.31730         0.006609     -0.000000     -0.001734
     -0.27649     -0.00000      6.95640        -0.006609     -0.000000      0.001734
     -0.92177      1.41357      2.32189        -0.012985      0.002492     -0.010235
      7.30760      1.41357      6.95181         0.012985      0.002492      0.010235
      7.30760      4.24301      6.95181         0.012985     -0.002492      0.010235
     -0.92177      4.24301      2.32189        -0.012985     -0.002492     -0.010235
      6.66226      2.82829      2.31770         0.006752     -0.000000     -0.002191
     -0.27643      2.82829      6.95600        -0.006752     -0.000000      0.002191
     -0.00000     -0.00000     -0.00000         0.000000     -0.000000     -0.000000
      2.53045      1.41390      0.00228         0.021546      0.010276      0.015859
      3.85538      1.41390      9.27141        -0.021546      0.010276     -0.015859
      3.85538      4.24268      9.27141        -0.021546     -0.010276     -0.015859
      2.53045      4.24268      0.00228         0.021546     -0.010276      0.015859
     -0.00000      2.82829     -0.00000         0.000000     -0.000000     -0.000000
      5.06482     -0.00000     -0.00109         0.000000     -0.000000     -0.000000
      5.06482      2.82829     -0.00109         0.000000     -0.000000     -0.000000
      3.19291     -0.00000      4.63685         0.000000     -0.000000     -0.000000
      5.72546      1.41375      4.63194        -0.005371      0.017606      0.001989
      0.66037      1.41375      4.64176         0.005371      0.017606     -0.001989
      0.66037      4.24283      4.64176         0.005371     -0.017606     -0.001989
      5.72546      4.24283      4.63194        -0.005371     -0.017606      0.001989
      3.19291      2.82829      4.63685         0.000000     -0.000000     -0.000000
     -1.87190     -0.00000      4.63794         0.000000     -0.000000     -0.000000
     -1.87190      2.82829      4.63794         0.000000     -0.000000     -0.000000
      5.02086     -0.00000      3.59158        -0.022239     -0.000000     -0.012453
      1.36497     -0.00000      5.68211         0.022239     -0.000000      0.012453
      3.26559     -0.00000      1.02591        -0.042164     -0.000000      0.047765
      3.12024     -0.00000      8.24778         0.042164     -0.000000     -0.047765
      7.50216      1.41419      3.64183        -0.050325     -0.001135      0.036613
     -1.11633      1.41419      5.63187         0.050325     -0.001135     -0.036613
     -1.11633      4.24240      5.63187         0.050325      0.001135     -0.036613
      7.50216      4.24240      3.64183        -0.050325      0.001135      0.036613
      0.76073      1.41384      0.99723         0.030004      0.000533     -0.037364
      5.62510      1.41384      8.27646        -0.030004      0.000533      0.037364
      5.62510      4.24274      8.27646        -0.030004     -0.000533      0.037364
      0.76073      4.24274      0.99723         0.030004     -0.000533     -0.037364
      5.02062      2.82829      3.59142        -0.018160     -0.000000     -0.006061
      1.36521      2.82829      5.68227         0.018160     -0.000000      0.006061
      3.26462      2.82829      1.02630        -0.041946     -0.000000      0.044712
      3.12121      2.82829      8.24739         0.041946     -0.000000     -0.044712
     -0.04245     -0.00000      3.60120        -0.030390     -0.000000     -0.029880
      6.42828     -0.00000      5.67250         0.030390     -0.000000      0.029880
      8.33191     -0.00000      1.01781        -0.034651     -0.000000      0.075136
     -1.94608     -0.00000      8.25589         0.034651     -0.000000     -0.075136
      2.43364      1.41414      3.64639        -0.047204     -0.001412      0.037431
      3.95219      1.41414      5.62731         0.047204     -0.001412     -0.037431
      3.95219      4.24244      5.62731         0.047204      0.001412     -0.037431
      2.43364      4.24244      3.64639        -0.047204      0.001412      0.037431
      5.83105      1.41436      0.98995         0.023848     -0.000752     -0.024850
      0.55478      1.41436      8.28374        -0.023848     -0.000752      0.024850
      0.55478      4.24222      8.28374        -0.023848      0.000752      0.024850
      5.83105      4.24222      0.98995         0.023848      0.000752     -0.024850
     -0.04253      2.82829      3.60124        -0.027250     -0.000000     -0.025196
      6.42836      2.82829      5.67246         0.027250     -0.000000      0.025196
      8.33308      2.82829      1.01722        -0.038235     -0.000000      0.073253
     -1.94725      2.82829      8.25648         0.038235     -0.000000     -0.073253
    total drift:                                0.000000      0.000000      0.000000

  FREE ENERGIE OF THE ION-ELECTRON SYSTEM (eV)
  free  energy   TOTEN  =      -382.5187807701 eV

  energy  without entropy=     -382.4895415196  energy(sigma->0) =     -382.50416114

 d Force = 0.3944230E-02[ 0.414E-02, 0.375E-02]  d Energy = 0.4662159E-02-0.718E-03
 d Force = 0.6215348E+00[ 0.603E+00, 0.641E+00]  d Ewald  = 0.2492249E+01-0.187E+01

 Quasi-Newton relaxation of ions (Broydens 2nd method)
  g(Force)  = 0.494E-02   g(Stress)= 0.200E-02

 retain information from N=  2 steps
 eigenvalues of (default step * inverse Hessian matrix)
  average eigenvalue of G=   0.4851
 eigenvalue spectrum of G is  0.1118  0.8583

volume of typ            1:    23.5 %

[...]

volume of typ            3:     9.8 %

total charge

# of ion       s       p       d       tot
    1        2.083   0.268   0.101   2.452
    2        2.083   0.268   0.101   2.452
    3        2.081   0.258   0.095   2.434
    4        2.081   0.258   0.095   2.434
    5        2.081   0.258   0.095   2.434
    6        2.081   0.258   0.095   2.434
    7        2.083   0.268   0.101   2.452
    8        2.083   0.268   0.101   2.452
    9        2.083   0.267   0.101   2.451
   10        2.083   0.267   0.101   2.451
   11        2.081   0.257   0.094   2.432
   12        2.081   0.257   0.094   2.432
   13        2.081   0.257   0.094   2.432
   14        2.081   0.257   0.094   2.432
   15        2.083   0.267   0.101   2.451
   16        2.083   0.267   0.101   2.451
   17        0.258   0.334   7.874   8.465
   18        0.259   0.339   7.872   8.471
   19        0.259   0.339   7.872   8.471
   20        0.259   0.339   7.872   8.471
   21        0.259   0.339   7.872   8.471
   22        0.258   0.334   7.874   8.466
   23        0.258   0.333   7.875   8.466
   24        0.258   0.333   7.874   8.465
   25        0.257   0.329   7.878   8.465
   26        0.260   0.340   7.871   8.471
   27        0.260   0.340   7.871   8.471
   28        0.260   0.340   7.871   8.471
   29        0.260   0.340   7.871   8.471
   30        0.257   0.329   7.877   8.464
   31        0.257   0.330   7.877   8.464
   32        0.257   0.330   7.876   8.463
   33        1.255   2.798   0.005   4.058
   34        1.255   2.798   0.005   4.058
   35        1.256   2.796   0.005   4.057
   36        1.256   2.796   0.005   4.057
   37        1.256   2.795   0.006   4.056
   38        1.256   2.795   0.006   4.056
   39        1.256   2.795   0.006   4.056
   40        1.256   2.795   0.006   4.056
   41        1.256   2.795   0.006   4.056
   42        1.256   2.795   0.006   4.056
   43        1.256   2.795   0.006   4.056
   44        1.256   2.795   0.006   4.056
   45        1.255   2.798   0.005   4.058
   46        1.255   2.798   0.005   4.058
   47        1.256   2.796   0.005   4.057
   48        1.256   2.796   0.005   4.057
   49        1.255   2.799   0.005   4.058
   50        1.255   2.799   0.005   4.058
   51        1.256   2.796   0.005   4.057
   52        1.256   2.796   0.005   4.057
   53        1.256   2.796   0.006   4.057
   54        1.256   2.796   0.006   4.057
   55        1.256   2.796   0.006   4.057
   56        1.256   2.796   0.006   4.057
   57        1.256   2.795   0.006   4.056
   58        1.256   2.795   0.006   4.056
   59        1.256   2.795   0.006   4.056
   60        1.256   2.795   0.006   4.056
   61        1.255   2.798   0.005   4.058
   62        1.255   2.798   0.005   4.058
   63        1.256   2.796   0.005   4.057
   64        1.256   2.796   0.005   4.057
tot          77.63   99.05  127.72  304.39

magnetization (x)

# of ion       s       p       d       tot
    1        0.005   0.015   0.001   0.021
    2        0.005   0.015   0.001   0.021
    3        0.004   0.014  -0.001   0.017
    4        0.004   0.014  -0.001   0.017
    5        0.004   0.014  -0.001   0.017
    6        0.004   0.014  -0.001   0.017
    7        0.005   0.015   0.001   0.021
    8        0.005   0.015   0.001   0.021
    9        0.005   0.015   0.001   0.021
   10        0.005   0.015   0.001   0.021
   11        0.004   0.014  -0.001   0.017
   12        0.004   0.014  -0.001   0.017
   13        0.004   0.014  -0.001   0.017
   14        0.004   0.014  -0.001   0.017
   15        0.005   0.015   0.001   0.021
   16        0.005   0.015   0.001   0.021
   17        0.002  -0.001   0.783   0.784
   18        0.001  -0.001   0.614   0.614
   19        0.001  -0.001   0.614   0.614
   20        0.001  -0.001   0.614   0.614
   21        0.001  -0.001   0.614   0.614
   22        0.002  -0.001   0.782   0.784
   23        0.002  -0.000   0.784   0.786
   24        0.002  -0.000   0.785   0.787
   25        0.003  -0.000   0.819   0.822
   26        0.001  -0.001   0.580   0.579
   27        0.001  -0.001   0.580   0.579
   28        0.001  -0.001   0.580   0.579
   29        0.001  -0.001   0.580   0.579
   30        0.003  -0.000   0.819   0.822
   31        0.003  -0.000   0.817   0.820
   32        0.003  -0.000   0.816   0.819
   33        0.011   0.103   0.000   0.114
   34        0.011   0.103   0.000   0.114
   35        0.012   0.093   0.000   0.105
   36        0.012   0.093   0.000   0.105
   37        0.010   0.054   0.000   0.064
   38        0.010   0.054   0.000   0.064
   39        0.010   0.054   0.000   0.064
   40        0.010   0.054   0.000   0.064
   41        0.010   0.057   0.000   0.068
   42        0.010   0.057   0.000   0.068
   43        0.010   0.057   0.000   0.068
   44        0.010   0.057   0.000   0.068
   45        0.011   0.103   0.000   0.114
   46        0.011   0.103   0.000   0.114
   47        0.012   0.093   0.000   0.105
   48        0.012   0.093   0.000   0.105
   49        0.011   0.103   0.000   0.114
   50        0.011   0.103   0.000   0.114
   51        0.012   0.092   0.000   0.104
   52        0.012   0.092   0.000   0.104
   53        0.010   0.054   0.000   0.064
   54        0.010   0.054   0.000   0.064
   55        0.010   0.054   0.000   0.064
   56        0.010   0.054   0.000   0.064
   57        0.010   0.057   0.000   0.068
   58        0.010   0.057   0.000   0.068
   59        0.010   0.057   0.000   0.068
   60        0.010   0.057   0.000   0.068
   61        0.011   0.102   0.000   0.114
   62        0.011   0.102   0.000   0.114
   63        0.012   0.091   0.000   0.103
   64        0.012   0.091   0.000   0.103
tot           0.44    2.67   11.19   14.30