 vasp.5.4.4.18Apr17-6-g9f103f2a35 (build May 12 2020 05:39:39) gamma-only

 MD_VERSION_INFO: Compiled 2020-05-12T12:39:39-UTC in devlin.sd.materialsdesign.
 com:/home/medea2/data/build/wwolf/vasp-gpu5.4.4/13047/x86_64/src/src/build/gam
 from svn 13047

 executed on                        Lin64 date 2023.03.06  23:04:32

 INCAR:
 POTCAR:    PAW_PBE Ni 02Aug2007
 POTCAR:    PAW_PBE O 08Apr2002

 POTCAR:    PAW_PBE Ni 02Aug2007

 POTCAR:    PAW_PBE O 08Apr2002

 Optimization of the real space projectors (new method)

 maximal supplied QI-value         = 16.25
 optimisation between [QCUT,QGAM] = [ 11.38, 22.75] = [ 36.24,144.96] Ry
 Optimized for a Real-space Cutoff    1.47 Angstroem

   l    n(q)    QCUT    max X(q) W(low)/X(q) W(high)/X(q)  e(spline)
   2      9    11.376    60.317    0.17E-03    0.16E-04    0.16E-06
   2      9    11.376    55.921    0.17E-03    0.16E-04    0.17E-06
   0     10    11.376    51.690    0.45E-04    0.60E-04    0.21E-06
   0     10    11.376    30.015    0.37E-04    0.55E-04    0.19E-06
   1     10    11.376    18.849    0.83E-04    0.11E-03    0.92E-07
   1     10    11.376    14.624    0.69E-04    0.92E-04    0.82E-07
 Optimization of the real space projectors (new method)

 maximal supplied QI-value         = 24.76
 optimisation between [QCUT,QGAM] = [ 11.39, 22.77] = [ 36.31,145.25] Ry
 Optimized for a Real-space Cutoff    1.10 Angstroem

   l    n(q)    QCUT    max X(q) W(low)/X(q) W(high)/X(q)  e(spline)
   0      7    11.387    20.381    0.22E-03    0.48E-03    0.18E-06
   0      7    11.387    15.268    0.22E-03    0.52E-03    0.19E-06
   1      7    11.387     5.964    0.22E-03    0.73E-03    0.24E-06
   1      7    11.387     5.382    0.19E-03    0.60E-03    0.21E-06

  PAW_PBE Ni 02Aug2007                  :
  PAW_PBE O 08Apr2002                   :

 POSCAR: ce17536_1
  positions in direct lattice
 exchange correlation table for  LEXCH =       14
   RHO(1)=    0.500       N(1)  =     2000
   RHO(2)=  100.500       N(2)  =     4000

 ion  position               nearest neighbor table
   1  0.000  0.000  0.000-  25 1.85  26 1.85  27 1.85  28 1.85  35 1.88  36 1.88   6 2.79   6 2.79
                             2 2.79   3 2.79   4 2.79   5 2.79
   2  0.250  1.000  0.250-  19 1.84  48 1.84  31 1.85  36 1.85  25 1.88  42 1.88   7 2.79   8 2.79
                             5 2.79   1 2.79   6 2.79   5 2.79
   3  0.250  0.000  0.750-  20 1.84  47 1.84  32 1.85  35 1.85  26 1.88  41 1.88   7 2.79   8 2.79
                             4 2.79   1 2.79   6 2.79   4 2.79
   4  0.750  0.000  0.750-  20 1.84  47 1.84  32 1.85  35 1.85  27 1.88  44 1.88   7 2.79   8 2.79
                             3 2.79   1 2.79   6 2.79   3 2.79
   5  0.750  1.000  0.250-  19 1.84  48 1.84  31 1.85  36 1.85  28 1.88  43 1.88   7 2.79   8 2.79
                             2 2.79   1 2.79   6 2.79   2 2.79
   6  0.500  0.000  0.000-  25 1.84  26 1.84  27 1.84  28 1.84  47 1.87  48 1.87   1 2.79   1 2.79
                             5 2.79   2 2.79   3 2.79   4 2.79
   7  0.000  0.000  0.500-  41 1.85  42 1.85  43 1.85  44 1.85  19 1.87  20 1.87   4 2.79   5 2.79
                             2 2.79   3 2.79   8 2.79   8 2.79
   8  0.500  0.000  0.500-  41 1.85  42 1.85  43 1.85  44 1.85  31 1.87  32 1.87   4 2.79   5 2.79
                             2 2.79   3 2.79   7 2.79   7 2.79
   9  0.000  0.500  0.500-  37 1.85  38 1.85  39 1.85  40 1.85  17 1.88  18 1.88  12 2.79  13 2.79
                            10 2.79  11 2.79  14 2.79  14 2.79
  10  0.250  0.500  0.750-  34 1.84  46 1.84  29 1.85  17 1.85  21 1.88  38 1.88   9 2.79  14 2.79
                            15 2.79  16 2.79  13 2.79  13 2.79
  11  0.250  0.500  0.250-  33 1.84  45 1.84  30 1.85  18 1.85  22 1.88  37 1.88   9 2.79  14 2.79
                            15 2.79  16 2.79  12 2.79  12 2.79
  12  0.750  0.500  0.250-  33 1.84  45 1.84  30 1.85  18 1.85  23 1.88  40 1.88   9 2.79  14 2.79
                            15 2.79  16 2.79  11 2.79  11 2.79
  13  0.750  0.500  0.750-  34 1.84  46 1.84  29 1.85  17 1.85  24 1.88  39 1.88   9 2.79  14 2.79
                            15 2.79  16 2.79  10 2.79  10 2.79
  14  0.500  0.500  0.500-  37 1.85  38 1.85  39 1.85  40 1.85  29 1.88  30 1.88  12 2.79  13 2.79
                            10 2.79  11 2.79   9 2.79   9 2.79
  15  0.000  0.500  0.000-  21 1.85  22 1.85  23 1.85  24 1.85  33 1.88  34 1.88  12 2.79  13 2.79
                            10 2.79  11 2.79  16 2.79  16 2.79
  16  0.500  0.500  0.000-  21 1.85  22 1.85  23 1.85  24 1.85  45 1.88  46 1.88  12 2.79  13 2.79
                            10 2.79  11 2.79  15 2.79  15 2.79
  17  0.000  0.402  0.636-  10 1.85  13 1.85   9 1.88
  18  0.000  0.598  0.364-  11 1.85  12 1.85   9 1.88
  19  0.000  0.097  0.364-   2 1.84   5 1.84   7 1.87
  20  0.000  0.903  0.636-   3 1.84   4 1.84   7 1.87
  21  0.250  0.403  0.886-  16 1.85  15 1.85  10 1.88
  22  0.250  0.597  0.114-  16 1.85  15 1.85  11 1.88
  23  0.750  0.597  0.114-  16 1.85  15 1.85  12 1.88
  24  0.750  0.403  0.886-  16 1.85  15 1.85  13 1.88
  25  0.250  0.097  0.114-   6 1.84   1 1.85   2 1.88
  26  0.250  0.903  0.886-   6 1.84   1 1.85   3 1.88
  27  0.750  0.903  0.886-   6 1.84   1 1.85   4 1.88
  28  0.750  0.097  0.114-   6 1.84   1 1.85   5 1.88
  29  0.500  0.402  0.636-  10 1.85  13 1.85  14 1.88
  30  0.500  0.598  0.364-  11 1.85  12 1.85  14 1.88
  31  0.500  0.097  0.364-   2 1.85   5 1.85   8 1.87
  32  0.500  0.903  0.636-   3 1.85   4 1.85   8 1.87
  33  0.000  0.403  0.136-  11 1.84  12 1.84  15 1.88
  34  0.000  0.597  0.864-  10 1.84  13 1.84  15 1.88
  35  0.000  0.098  0.864-   3 1.85   4 1.85   1 1.88
  36  0.000  0.902  0.136-   2 1.85   5 1.85   1 1.88
  37  0.250  0.402  0.386-  14 1.85   9 1.85  11 1.88
  38  0.250  0.598  0.614-  14 1.85   9 1.85  10 1.88
  39  0.750  0.598  0.614-  14 1.85   9 1.85  13 1.88
  40  0.750  0.402  0.386-  14 1.85   9 1.85  12 1.88
  41  0.250  0.098  0.614-   7 1.85   8 1.85   3 1.88
  42  0.250  0.902  0.386-   7 1.85   8 1.85   2 1.88
  43  0.750  0.902  0.386-   7 1.85   8 1.85   5 1.88
  44  0.750  0.098  0.614-   7 1.85   8 1.85   4 1.88
  45  0.500  0.403  0.136-  11 1.84  12 1.84  16 1.88
  46  0.500  0.597  0.864-  10 1.84  13 1.84  16 1.88
  47  0.500  0.097  0.864-   3 1.84   4 1.84   6 1.87
  48  0.500  0.903  0.136-   2 1.84   5 1.84   6 1.87

  LATTYP: Found a simple monoclinic cell.
 ALAT       =    11.4180360145
 B/A-ratio  =     0.4887000206
 C/A-ratio  =     1.6820421669
 COS(beta)  =    -0.9087014453

  Lattice vectors:

 A1 = (  -6.2164215180,   0.0000000000,  -9.5774552956)
 A2 = (   0.0000000000,  -5.5799944359,   0.0000000000)
 A3 = (   2.7767065360,   0.0000000000,  19.0038329054)

Analysis of symmetry for initial positions (statically):
 Subroutine PRICEL returns:
 Original cell was already a primitive cell.

 Routine SETGRP: Setting up the symmetry group for a
 simple monoclinic supercell.

 Subroutine GETGRP returns: Found  4 space group operations
 (whereof  4 operations were pure point group operations)
 out of a pool of  4 trial point group operations.

The static configuration has the point symmetry C_2h.

Analysis of symmetry for dynamics (positions and initial velocities):
 Subroutine PRICEL returns:
 Original cell was already a primitive cell.

[...]

The dynamic configuration has the point symmetry C_2h.

Analysis of structural, dynamic, and magnetic symmetry:
 Subroutine PRICEL returns:
 Original cell was already a primitive cell.

 Routine SETGRP: Setting up the symmetry group for a
 simple monoclinic supercell.

 Subroutine GETGRP returns: Found  4 space group operations
 (whereof  4 operations were pure point group operations)
 out of a pool of  4 trial point group operations.

The magnetic configuration has the point symmetry C_2h.

 Subroutine INISYM returns: Found  4 space group operations
 (whereof  4 operations are pure point group operations),
 and found     1 'primitive' translations

 KPOINTS: Automatic mesh

Automatic generation of k-mesh.
Space group operators:
 irot       det(A)        alpha          n_x          n_y          n_z        tau_x        tau_y        tau_z
    1     1.000000     0.000001     1.000000     0.000000     0.000000     0.000000     0.000000     0.000000
    2    -1.000000     0.000001     1.000000     0.000000     0.000000     0.000000     0.000000     0.000000
    3     1.000000   179.999999     0.000000     1.000000     0.000000     0.000000     0.000000     0.000000
    4    -1.000000   179.999999     0.000000     1.000000     0.000000     0.000000     0.000000     0.000000

 Subroutine IBZKPT returns following result:

 Found      1 irreducible k-points:

 Following reciprocal coordinates:
            Coordinates               Weight
  0.000000  0.000000  0.000000      1.000000

 Following cartesian coordinates:
            Coordinates               Weight
  0.000000  0.000000  0.000000      1.000000

 SYSTEM =  unknown system
 POSCAR =  ce17536_1

 Startparameter for this run:
   NWRITE =      1    write-flag & timer
   PREC   = accura    normal or accurate (medium, high low for compatibility)
   ISTART =      0    job   : 0-new  1-cont  2-samecut
   ICHARG =      2    charge: 1-file 2-atom 10-const
   ISPIN  =      2    spin polarized calculation?
   LNONCOLLINEAR =      F non collinear calculations
   LSORBIT =      F    spin-orbit coupling
   INIWAV =      1    electr: 0-lowe 1-rand  2-diag
   LASPH  =      F    aspherical Exc in radial PAW
   METAGGA=      F    non-selfconsistent MetaGGA calc.

 Electronic Relaxation 1
   ENCUT  =  500.0 eV  36.75 Ry    6.06 a.u.  10.17 18.29 17.61*2*pi/ulx,y,z
   ENINI  =  500.0     initial cutoff
   ENAUG  =  605.4 eV  augmentation charge cutoff
   NELM   =     80;   NELMIN=  2; NELMDL= -5     # of ELM steps
   EDIFF  = 0.1E-04   stopping-criterion for ELM
   LREAL  =      T    real-space projection
   NLSPLINE    = F    spline interpolate recip. space projectors
   LCOMPAT=      F    compatible to vasp.4.4
   GGA_COMPAT  = T    GGA compatible to vasp.4.4-vasp.4.6
   LMAXPAW     = -100 max onsite density
   LMAXMIX     =    2 max onsite mixed and CHGCAR
   VOSKOWN=      1    Vosko Wilk Nusair interpolation
   ROPT   =   -0.00025  -0.00025
 Ionic relaxation
   EDIFFG = -.2E-01   stopping-criterion for IOM
   NSW    =     20    number of steps for IOM
   NBLOCK =      1;   KBLOCK =     20    inner block; outer block
   IBRION =      1    ionic relax: 0-MD 1-quasi-New 2-CG
   NFREE  =      0    steps in history (QN), initial steepest desc. (CG)
   ISIF   =      3    stress and relaxation
   IWAVPR =     11    prediction:  0-non 1-charg 2-wave 3-comb
   ISYM   =      2    0-nonsym 1-usesym 2-fastsym
   LCORR  =      T    Harris-Foulkes like correction to forces

   POTIM  = 0.5000    time-step for ionic-motion
   TEIN   =    0.0    initial temperature
   TEBEG  =    0.0;   TEEND  =   0.0 temperature during run
   SMASS  =  -3.00    Nose mass-parameter (am)
   estimated Nose-frequenzy (Omega)   =  0.10E-29 period in steps =****** mass=  -0.712E-27a.u.
   SCALEE = 1.0000    scale energy and forces
   NPACO  =    256;   APACO  = 16.0  distance and # of slots for P.C.
[...]
  augment  2978.35121  2947.77884  3057.45472    -0.00000    -0.00000    -5.55855
  Kinetic  5337.75013  5310.77678  5549.45234    -0.00000     0.00000   -20.89240
  Fock        0.00000     0.00000     0.00000     0.00000     0.00000     0.00000
  Total        0.2702283      0.1365404      0.2724793      0.0000000      0.0000000      0.0076581
  in kB        0.8481760      0.4285646      0.8552412      0.0000000      0.0000000      0.0240366

 VOLUME and BASIS-vectors are now :
  energy-cutoff  :      500.00
  volume of cell :      510.45
      direct lattice vectors                 reciprocal lattice vectors
     0.000000000  5.575983496  0.000000000     0.000000000  0.179340560  0.000000000
    -3.441131658  0.000000000  9.423054214    -0.001648764  0.000000000  0.105520605
     9.659868750  0.000000000  0.150935868     0.102933737  0.000000000  0.037589568

  length of vectors
     5.575983496 10.031716594  9.661047867     0.179340560  0.105533486  0.109582525

 FORCES acting on ions
    electron-ion (+dipol)            ewald-force                    non-local-force                 convergence-correction
   -.118E-12 -.257E-13 0.891E-13   -.711E-13 0.479E-14 0.426E-13   -.517E-25 0.000E+00 -.913E-25   -.880E-12 0.376E-12 -.513E-13
   0.760E+00 -.780E-01 0.740E+00   -.768E+00 0.788E-01 -.745E+00   -.488E-03 -.294E-03 0.673E-02   -.277E-02 0.284E-02 -.271E-02
   -.760E+00 -.780E-01 -.740E+00   0.768E+00 0.788E-01 0.745E+00   0.488E-03 -.294E-03 -.673E-02   0.277E-02 0.284E-02 0.271E-02
   -.760E+00 0.780E-01 -.740E+00   0.768E+00 -.788E-01 0.745E+00   0.488E-03 0.294E-03 -.673E-02   0.277E-02 -.284E-02 0.271E-02
   0.760E+00 0.780E-01 0.740E+00   -.768E+00 -.788E-01 -.745E+00   -.488E-03 0.294E-03 0.673E-02   -.277E-02 -.284E-02 -.271E-02
   -.141E-10 0.910E-12 -.193E-11   -.284E-13 0.619E-13 0.142E-13   0.000E+00 0.000E+00 0.139E-24   -.849E-12 -.353E-12 0.109E-13
   0.108E-11 -.260E-13 0.884E-13   0.426E-13 0.267E-13 -.533E-13   0.000E+00 0.000E+00 0.808E-27   -.685E-12 -.266E-13 -.921E-12
   0.620E-12 0.915E-12 -.196E-11   0.355E-13 -.171E-12 -.817E-13   0.000E+00 0.000E+00 -.194E-25   -.671E-12 0.514E-13 -.100E-11
   0.127E-11 -.785E-13 -.128E-13   0.648E-13 -.278E-13 0.218E-13   -.414E-24 0.000E+00 0.162E-24   -.143E-12 -.774E-14 0.723E-12
   -.534E+00 -.105E-01 -.401E+00   0.537E+00 0.643E-02 0.400E+00   -.641E-03 -.204E-03 -.133E-04   -.294E-05 0.468E-02 -.215E-03
   0.534E+00 -.105E-01 0.401E+00   -.537E+00 0.643E-02 -.400E+00   0.641E-03 -.204E-03 0.133E-04   0.294E-05 0.468E-02 0.215E-03
   0.534E+00 0.105E-01 0.401E+00   -.537E+00 -.643E-02 -.400E+00   0.641E-03 0.204E-03 0.133E-04   0.294E-05 -.468E-02 0.215E-03
   -.534E+00 0.105E-01 -.401E+00   0.537E+00 -.643E-02 0.400E+00   -.641E-03 0.204E-03 -.133E-04   -.294E-05 -.468E-02 -.215E-03
   -.172E-11 0.955E-12 0.168E-11   0.364E-13 -.590E-13 0.759E-13   0.000E+00 0.000E+00 -.194E-25   -.696E-13 0.347E-13 0.728E-12
   0.466E-13 -.750E-13 -.400E-13   0.799E-13 0.349E-13 -.711E-14   0.000E+00 0.000E+00 0.452E-25   0.113E-11 -.262E-12 0.614E-12
   -.119E-11 0.955E-12 -.345E-11   0.870E-13 -.232E-13 0.924E-13   0.000E+00 0.000E+00 -.207E-24   0.115E-11 0.288E-12 0.637E-12
   -.108E+01 -.120E-12 0.393E+03   0.169E+01 -.388E-13 -.420E+03   -.610E+00 0.000E+00 0.275E+02   0.104E-02 0.328E-12 -.228E-02
   0.108E+01 -.342E-13 -.393E+03   -.169E+01 -.467E-13 0.420E+03   0.610E+00 0.000E+00 -.275E+02   -.104E-02 -.685E-13 0.228E-02
   0.158E+01 -.996E-14 -.393E+03   -.222E+01 0.320E-13 0.421E+03   0.634E+00 -.129E-25 -.275E+02   0.823E-03 0.315E-12 0.573E-03
   -.158E+01 -.282E-13 0.393E+03   0.222E+01 -.223E-13 -.421E+03   -.634E+00 0.000E+00 0.275E+02   -.823E-03 -.138E-12 -.573E-03
   -.103E+01 -.212E-01 0.393E+03   0.162E+01 0.121E-01 -.420E+03   -.590E+00 0.236E-03 0.274E+02   0.419E-03 0.922E-02 -.164E-02
   0.103E+01 -.212E-01 -.393E+03   -.162E+01 0.121E-01 0.420E+03   0.590E+00 0.236E-03 -.274E+02   -.419E-03 0.922E-02 0.164E-02
   0.103E+01 0.212E-01 -.393E+03   -.162E+01 -.121E-01 0.420E+03   0.590E+00 -.236E-03 -.274E+02   -.419E-03 -.922E-02 0.164E-02
   -.103E+01 0.212E-01 0.393E+03   0.162E+01 -.121E-01 -.420E+03   -.590E+00 -.236E-03 0.274E+02   0.419E-03 -.922E-02 -.164E-02
   0.873E+00 -.433E-01 -.393E+03   -.145E+01 0.392E-01 0.420E+03   0.569E+00 -.131E-02 -.274E+02   0.146E-03 0.540E-02 0.829E-03
   -.873E+00 -.433E-01 0.393E+03   0.145E+01 0.392E-01 -.420E+03   -.569E+00 -.131E-02 0.274E+02   -.146E-03 0.540E-02 -.829E-03
   -.873E+00 0.433E-01 0.393E+03   0.145E+01 -.392E-01 -.420E+03   -.569E+00 0.131E-02 0.274E+02   -.146E-03 -.540E-02 -.829E-03
   0.873E+00 0.433E-01 -.393E+03   -.145E+01 -.392E-01 0.420E+03   0.569E+00 0.131E-02 -.274E+02   0.146E-03 -.540E-02 0.829E-03
   -.108E+01 0.289E-12 0.393E+03   0.168E+01 0.647E-13 -.420E+03   -.609E+00 0.000E+00 0.275E+02   -.335E-03 -.393E-12 -.239E-03
   0.108E+01 0.200E-12 -.393E+03   -.168E+01 0.625E-13 0.420E+03   0.609E+00 0.000E+00 -.275E+02   0.335E-03 0.165E-12 0.239E-03
   0.180E+01 0.144E-12 -.393E+03   -.246E+01 -.202E-13 0.421E+03   0.645E+00 0.000E+00 -.275E+02   -.179E-02 -.227E-12 0.781E-03
   -.180E+01 0.170E-12 0.393E+03   0.246E+01 -.107E-12 -.421E+03   -.645E+00 0.000E+00 0.275E+02   0.179E-02 0.642E-13 -.781E-03
   -.326E+00 -.105E-13 0.393E+03   0.889E+00 0.332E-13 -.421E+03   -.583E+00 0.000E+00 0.274E+02   0.289E-02 -.654E-12 -.423E-02
   0.326E+00 -.118E-12 -.393E+03   -.889E+00 -.445E-14 0.421E+03   0.583E+00 0.000E+00 -.274E+02   -.289E-02 0.281E-12 0.423E-02
   0.172E+00 -.185E-13 -.393E+03   -.742E+00 0.642E-13 0.420E+03   0.568E+00 -.258E-25 -.274E+02   -.209E-02 -.294E-12 0.268E-02
   -.172E+00 0.702E-14 0.393E+03   0.742E+00 0.644E-13 -.420E+03   -.568E+00 0.000E+00 0.274E+02   0.209E-02 0.397E-12 -.268E-02
   -.451E+00 0.154E-01 0.393E+03   0.104E+01 -.196E-01 -.421E+03   -.607E+00 0.267E-03 0.275E+02   -.120E-02 0.322E-02 -.154E-02
   0.451E+00 0.154E-01 -.393E+03   -.104E+01 -.196E-01 0.421E+03   0.607E+00 0.267E-03 -.275E+02   0.120E-02 0.322E-02 0.154E-02
   0.451E+00 -.154E-01 -.393E+03   -.104E+01 0.196E-01 0.421E+03   0.607E+00 -.267E-03 -.275E+02   0.120E-02 -.322E-02 0.154E-02
   -.451E+00 -.154E-01 0.393E+03   0.104E+01 0.196E-01 -.421E+03   -.607E+00 -.267E-03 0.275E+02   -.120E-02 -.322E-02 -.154E-02
   0.777E+00 -.282E-01 -.393E+03   -.140E+01 0.316E-01 0.421E+03   0.634E+00 -.886E-03 -.275E+02   0.103E-02 -.876E-03 0.151E-02
   -.777E+00 -.282E-01 0.393E+03   0.140E+01 0.316E-01 -.421E+03   -.634E+00 -.886E-03 0.275E+02   -.103E-02 -.876E-03 -.151E-02
   -.777E+00 0.282E-01 0.393E+03   0.140E+01 -.316E-01 -.421E+03   -.634E+00 0.886E-03 0.275E+02   -.103E-02 0.876E-03 -.151E-02
   0.777E+00 0.282E-01 -.393E+03   -.140E+01 -.316E-01 0.421E+03   0.634E+00 0.886E-03 -.275E+02   0.103E-02 0.876E-03 0.151E-02
   -.323E+00 0.202E-12 0.393E+03   0.897E+00 0.159E-13 -.421E+03   -.585E+00 0.207E-24 0.274E+02   -.508E-02 0.588E-12 0.444E-03
   0.323E+00 0.284E-12 -.393E+03   -.897E+00 0.124E-13 0.421E+03   0.585E+00 -.103E-24 -.274E+02   0.508E-02 -.182E-12 -.444E-03
   0.328E-01 0.174E-12 -.393E+03   -.592E+00 -.390E-15 0.420E+03   0.562E+00 0.000E+00 -.274E+02   0.255E-02 0.382E-12 0.523E-03
   -.328E-01 0.136E-12 0.393E+03   0.592E+00 -.242E-13 -.420E+03   -.562E+00 0.000E+00 0.274E+02   -.255E-02 -.472E-12 -.523E-03
   0.554E-11 0.154E-10 -.893E-11   0.613E-13 0.143E-12 0.455E-12   0.000E+00 0.217E-18 0.000E+00   0.374E-12 -.922E-13 0.273E-11

 POSITION                                       TOTAL-FORCE (eV/Angst)
     -0.00000     -0.00000     -0.00000        -0.000000      0.000000      0.000000
     -1.02514      1.39392      9.45901        -0.010993      0.003307     -0.001851
      7.24387      1.39392      0.11498         0.010993      0.003307      0.001851
      7.24387      4.18206      0.11498         0.010993     -0.003307      0.001851
     -1.02514      4.18206      9.45901        -0.010993     -0.003307     -0.001851
     -0.00000      2.78799     -0.00000        -0.000000      0.000000      0.000000
      4.82993     -0.00000      0.07547        -0.000000      0.000000      0.000000
      4.82993      2.78799      0.07547        -0.000000      0.000000      0.000000
      3.10937     -0.00000      4.78700        -0.000000      0.000000      0.000000
      5.52347      1.39399      4.82480         0.002380      0.000420     -0.001051
      0.69527      1.39399      4.74919        -0.002380      0.000420      0.001051
      0.69527      4.18199      4.74919        -0.002380     -0.000420      0.001051
      5.52347      4.18199      4.82480         0.002380     -0.000420     -0.001051
      3.10937      2.78799      4.78700        -0.000000      0.000000      0.000000
     -1.72057     -0.00000      4.71153        -0.000000      0.000000      0.000000
     -1.72057      2.78799      4.71153        -0.000000      0.000000      0.000000
      4.75800     -0.00000      3.89039        -0.001765      0.000000      0.011561
      1.46073     -0.00000      5.68360         0.001765      0.000000     -0.011561
      3.18125     -0.00000      0.96927        -0.003001      0.000000      0.006836
      3.03749     -0.00000      8.60472         0.003001     -0.000000     -0.006836
      7.17305      1.39400      3.92888        -0.005358      0.000335      0.004350
     -0.95431      1.39400      5.64511         0.005358      0.000335     -0.004350
     -0.95431      4.18199      5.64511         0.005358     -0.000335     -0.004350
      7.17305      4.18199      3.92888        -0.005358     -0.000335      0.004350
      0.76762      1.39398      0.93307        -0.004585      0.000017     -0.006748
      5.45111      1.39398      8.64092         0.004585      0.000017      0.006748
      5.45111      4.18200      8.64092         0.004585     -0.000017      0.006748
      0.76762      4.18200      0.93307        -0.004585     -0.000017     -0.006748
      4.75813      2.78799      3.89044        -0.003216     -0.000000      0.011545
      1.46061      2.78799      5.68355         0.003216      0.000000     -0.011545
      3.18222      2.78799      0.97028        -0.015921     -0.000000     -0.004785
      3.03651      2.78799      8.60371         0.015921      0.000000      0.004785
     -0.07010     -0.00000      3.81539        -0.017362      0.000000      0.004437
      6.28884     -0.00000      5.75860         0.017362      0.000000     -0.004437
      8.01134     -0.00000      1.04874        -0.004234      0.000000     -0.007787
     -1.79260     -0.00000      8.52525         0.004234      0.000000      0.007787
      2.34476      1.39404      3.85228        -0.015989     -0.000646      0.010945
      3.87398      1.39404      5.72171         0.015989     -0.000646     -0.010945
      3.87398      4.18195      5.72171         0.015989      0.000646     -0.010945
      2.34476      4.18195      3.85228        -0.015989      0.000646      0.010945
      5.59433      1.39390      1.01140         0.007168      0.001629     -0.016740
      0.62440      1.39390      8.56259        -0.007168      0.001629      0.016740
      0.62440      4.18209      8.56259        -0.007168     -0.001629      0.016740
      5.59433      4.18209      1.01140         0.007168     -0.001629     -0.016740
     -0.07020      2.78799      3.81527        -0.016351      0.000000      0.006266
      6.28894      2.78799      5.75872         0.016351     -0.000000     -0.006266
      8.01050      2.78799      1.04753         0.006190     -0.000000      0.004820
     -1.79176      2.78799      8.52646        -0.006190      0.000000     -0.004820
    total drift:                                0.000000      0.000000     -0.000000

  FREE ENERGIE OF THE ION-ELECTRON SYSTEM (eV)
  free  energy   TOTEN  =      -303.0147099894 eV

  energy  without entropy=     -303.0147099894  energy(sigma->0) =     -303.01470999

 d Force = 0.7636149E-03[-0.738E-04, 0.160E-02]  d Energy = 0.2602457E-02-0.184E-02
 d Force = 0.9584891E+01[ 0.957E+01, 0.960E+01]  d Ewald  =-0.3292605E-01 0.962E+01

 Quasi-Newton relaxation of ions (Broydens 2nd method)
  g(Force)  = 0.320E-03   g(Stress)= 0.167E-03

 retain information from N=  1 steps
 eigenvalues of (default step * inverse Hessian matrix)
  average eigenvalue of G=   0.5057
 eigenvalue spectrum of G is  0.5057

 reached required accuracy - stopping structural energy minimisation

volume of typ            1:    20.0 %

volume of typ            2:    10.2 %

total charge

# of ion       s       p       d       tot
    1        0.305   0.433   7.824   8.562
    2        0.305   0.433   7.824   8.563
    3        0.305   0.433   7.824   8.563
    4        0.305   0.433   7.824   8.563
    5        0.305   0.433   7.824   8.563
    6        0.305   0.433   7.823   8.562
    7        0.306   0.434   7.824   8.563
    8        0.306   0.434   7.824   8.563
    9        0.305   0.434   7.824   8.563
   10        0.305   0.433   7.824   8.562
   11        0.305   0.433   7.824   8.562
   12        0.305   0.433   7.824   8.562
   13        0.305   0.433   7.824   8.562
   14        0.306   0.434   7.824   8.563
   15        0.305   0.433   7.824   8.562
   16        0.305   0.433   7.823   8.561
   17        1.283   2.730   0.008   4.022
   18        1.283   2.730   0.008   4.022
   19        1.283   2.731   0.008   4.023
   20        1.283   2.731   0.008   4.023
   21        1.283   2.730   0.008   4.022
   22        1.283   2.730   0.008   4.022
   23        1.283   2.730   0.008   4.022
   24        1.283   2.730   0.008   4.022
   25        1.283   2.730   0.008   4.022
   26        1.283   2.730   0.008   4.022
   27        1.283   2.730   0.008   4.022
   28        1.283   2.730   0.008   4.022
   29        1.283   2.730   0.008   4.022
   30        1.283   2.730   0.008   4.022
   31        1.283   2.730   0.008   4.022
   32        1.283   2.730   0.008   4.022
   33        1.283   2.730   0.008   4.022
   34        1.283   2.730   0.008   4.022
   35        1.283   2.730   0.008   4.022
   36        1.283   2.730   0.008   4.022
   37        1.283   2.730   0.008   4.022
   38        1.283   2.730   0.008   4.022
   39        1.283   2.730   0.008   4.022
   40        1.283   2.730   0.008   4.022
   41        1.283   2.730   0.008   4.022
   42        1.283   2.730   0.008   4.022
   43        1.283   2.730   0.008   4.022
   44        1.283   2.730   0.008   4.022
   45        1.283   2.730   0.008   4.022
   46        1.283   2.730   0.008   4.022
   47        1.283   2.730   0.008   4.022
   48        1.283   2.730   0.008   4.022
tot          45.96   94.30  125.45  265.71

magnetization (x)

# of ion       s       p       d       tot
    1       -0.000   0.000   0.000   0.000
    2       -0.000   0.000  -0.000  -0.000
    3       -0.000   0.000  -0.000  -0.000
    4        0.000   0.000  -0.000  -0.000
    5       -0.000   0.000  -0.000  -0.000
    6       -0.000   0.000  -0.000  -0.000
    7        0.000   0.000  -0.000  -0.000
    8       -0.000   0.000  -0.000  -0.000
    9       -0.000   0.000  -0.000  -0.000
   10        0.000   0.000  -0.000   0.000
   11        0.000   0.000  -0.000  -0.000
   12        0.000   0.000  -0.000  -0.000
   13        0.000  -0.000  -0.000  -0.000
   14       -0.000   0.000   0.000   0.000
   15        0.000   0.000  -0.000   0.000
   16       -0.000   0.000  -0.000  -0.000
   17       -0.000  -0.000  -0.000  -0.000
   18       -0.000  -0.000  -0.000  -0.000
   19       -0.000   0.000   0.000   0.000
   20       -0.000  -0.000   0.000  -0.000
   21       -0.000   0.000   0.000   0.000
   22       -0.000   0.000  -0.000   0.000
   23       -0.000   0.000  -0.000   0.000
   24       -0.000   0.000   0.000  -0.000
   25       -0.000  -0.000  -0.000  -0.000
   26       -0.000  -0.000   0.000  -0.000
   27       -0.000  -0.000   0.000  -0.000
   28       -0.000  -0.000   0.000  -0.000
   29       -0.000   0.000  -0.000   0.000
   30        0.000  -0.000  -0.000  -0.000
   31       -0.000   0.000   0.000   0.000
   32       -0.000   0.000   0.000   0.000
   33       -0.000   0.000  -0.000  -0.000
   34        0.000  -0.000   0.000  -0.000
   35       -0.000  -0.000  -0.000  -0.000
   36       -0.000  -0.000  -0.000  -0.000
   37       -0.000  -0.000   0.000  -0.000
   38       -0.000  -0.000  -0.000  -0.000
   39       -0.000  -0.000   0.000  -0.000
   40       -0.000  -0.000   0.000  -0.000
   41       -0.000  -0.000   0.000  -0.000
   42       -0.000  -0.000  -0.000  -0.000
   43       -0.000  -0.000   0.000  -0.000
   44       -0.000  -0.000   0.000  -0.000
   45       -0.000  -0.000   0.000  -0.000
   46        0.000  -0.000  -0.000  -0.000
   47       -0.000  -0.000  -0.000  -0.000
   48       -0.000  -0.000   0.000  -0.000
tot          -0.00   -0.00   -0.00   -0.00