 vasp.5.4.4.18Apr17-6-g9f103f2a35 (build May 12 2020 05:39:39) gamma-only

 MD_VERSION_INFO: Compiled 2020-05-12T12:39:39-UTC in devlin.sd.materialsdesign.
 com:/home/medea2/data/build/wwolf/vasp-gpu5.4.4/13047/x86_64/src/src/build/gam
 from svn 13047

 executed on                        Lin64 date 2023.03.06  23:48:46

 INCAR:
 POTCAR:    PAW_PBE Li_sv 10Sep2004
 POTCAR:    PAW_PBE Ni 02Aug2007
 POTCAR:    PAW_PBE O 08Apr2002

 POTCAR:    PAW_PBE Li_sv 10Sep2004

 POTCAR:    PAW_PBE Ni 02Aug2007

 POTCAR:    PAW_PBE O 08Apr2002

 Optimization of the real space projectors (new method)

 maximal supplied QI-value         = 22.11
 optimisation between [QCUT,QGAM] = [ 11.28, 22.77] = [ 35.61,145.23] Ry
 Optimized for a Real-space Cutoff    1.10 Angstroem

   l    n(q)    QCUT    max X(q) W(low)/X(q) W(high)/X(q)  e(spline)
   0      7    11.276    10.506    0.54E-04    0.58E-04    0.16E-07
   0      7    11.276     8.367    0.11E-03    0.14E-03    0.35E-07
   1      7    11.276     8.983    0.23E-03    0.43E-03    0.86E-07
 Optimization of the real space projectors (new method)

[...]

   l    n(q)    QCUT    max X(q) W(low)/X(q) W(high)/X(q)  e(spline)
   2      9    11.376    60.317    0.17E-03    0.16E-04    0.16E-06
   2      9    11.376    55.921    0.17E-03    0.16E-04    0.17E-06
   0     10    11.376    51.690    0.45E-04    0.60E-04    0.21E-06
   0     10    11.376    30.015    0.37E-04    0.55E-04    0.19E-06
   1     10    11.376    18.849    0.83E-04    0.11E-03    0.92E-07
   1     10    11.376    14.624    0.69E-04    0.92E-04    0.82E-07
 Optimization of the real space projectors (new method)

 maximal supplied QI-value         = 24.76
 optimisation between [QCUT,QGAM] = [ 11.39, 22.77] = [ 36.31,145.25] Ry
 Optimized for a Real-space Cutoff    1.10 Angstroem

   l    n(q)    QCUT    max X(q) W(low)/X(q) W(high)/X(q)  e(spline)
   0      7    11.387    20.381    0.22E-03    0.48E-03    0.18E-06
   0      7    11.387    15.268    0.22E-03    0.52E-03    0.19E-06
   1      7    11.387     5.964    0.22E-03    0.73E-03    0.24E-06
   1      7    11.387     5.382    0.19E-03    0.60E-03    0.21E-06

  PAW_PBE Li_sv 10Sep2004               :
  PAW_PBE Ni 02Aug2007                  :
  PAW_PBE O 08Apr2002                   :

 POSCAR: ce11777_1
  positions in direct lattice
 exchange correlation table for  LEXCH =       14
   RHO(1)=    0.500       N(1)  =     2000
   RHO(2)=  100.500       N(2)  =     4000

 ion  position               nearest neighbor table
   1  0.001  0.246  0.281-  29 1.97  47 2.04  50 2.05  35 2.21  38 2.21  19 2.71  15 2.84
   2  0.232  0.750  0.521-  48 1.98  30 2.04  42 2.16  28 2.20  52 2.24  13 2.81  19 2.84
   3  0.499  0.246  0.282-  41 1.97  47 2.03  50 2.04  35 2.21  38 2.22  24 2.71
   4  0.000  0.253  0.718-  27 1.97  51 2.03  54 2.03  31 2.23  34 2.24  17 2.73
   5  0.250  0.249  0.999-  45 2.11  57 2.11  31 2.12  55 2.12  35 2.12  43 2.12  13 2.81  21 2.83
                            11 2.84
   6  0.247  0.754  0.984-  36 2.06  44 2.07  56 2.10  46 2.16  58 2.16  20 2.75
   7  0.753  0.754  0.982-  37 2.03  44 2.07  56 2.09  46 2.16  58 2.18  23 2.75
   8  0.750  0.249  0.999-  57 2.08  45 2.09  43 2.10  55 2.11  38 2.13  34 2.13
   9  0.500  0.252  0.721-  39 1.97  51 2.05  54 2.05  34 2.24  31 2.24  18 2.70
  10  0.519  0.748  0.264-  53 2.04  40 2.05  33 2.15  52 2.17  58 2.24  22 2.82  18 2.84
  11  0.000  0.008  0.004-  36 1.84  37 1.85  38 1.87  35 1.87  46 1.99  45 2.02  16 2.77  16 2.77
                            13 2.84   5 2.84  14 2.85  12 2.86  15 2.86
  12  0.249  0.993  0.248-  29 1.84  41 1.85  46 1.86  58 1.87  52 2.05  35 2.09  15 2.77  15 2.78
                            17 2.85  16 2.85  11 2.86  18 2.86
  13  0.250  0.005  0.754-  42 1.83  30 1.84  45 1.87  57 1.87  51 2.00  36 2.00  14 2.77  14 2.78
                             2 2.81   5 2.81  11 2.84  16 2.85  18 2.85  17 2.86
  14  0.749  0.001  0.751-  30 1.85  42 1.85  57 1.87  45 1.88  37 1.99  54 2.00  13 2.77  13 2.78
                            18 2.85  11 2.85  17 2.86  16 2.86
  15  0.750  0.994  0.249-  29 1.84  41 1.85  46 1.86  58 1.87  53 1.99  38 2.07  12 2.77  12 2.78
                             1 2.84  17 2.85  16 2.85  18 2.86  11 2.86
  16  0.500  0.007  0.004-  36 1.84  37 1.85  38 1.86  35 1.86  57 2.06  58 2.07  11 2.77  11 2.77
                            15 2.85  12 2.85  13 2.85  14 2.86
  17  1.000  0.999  0.500-  53 1.86  52 1.86  54 1.87  51 1.87  30 1.95  29 1.97   4 2.73  18 2.77
                            18 2.78  15 2.85  12 2.85  14 2.86  13 2.86
  18  0.500  0.003  0.502-  53 1.84  52 1.84  54 1.86  51 1.87  42 1.95  41 1.96   9 2.70  17 2.77
                            17 2.78  10 2.84  14 2.85  13 2.85  15 2.86  12 2.86
  19  0.999  0.496  0.498-  49 1.83  48 1.84  50 1.86  47 1.87  27 1.95  28 1.95   1 2.71  24 2.76
                            24 2.78   2 2.84  23 2.84  22 2.85  20 2.85  21 2.86
  20  0.250  0.507  0.752-  39 1.84  27 1.85  56 1.86  44 1.86  48 2.02  31 2.09   6 2.75  23 2.77
                            23 2.78  26 2.85  24 2.85  19 2.85  25 2.86
  21  0.250  0.495  0.247-  40 1.84  28 1.84  55 1.86  43 1.87  47 1.99  32 2.02  22 2.77  22 2.78
                             5 2.83  25 2.84  26 2.85  24 2.86  19 2.86
  22  0.750  0.498  0.249-  40 1.86  28 1.86  43 1.87  55 1.87  50 1.98  33 2.01  21 2.77  21 2.78
                            10 2.82  19 2.85  25 2.85  24 2.85  26 2.86
  23  0.750  0.507  0.751-  39 1.84  27 1.85  56 1.86  44 1.86  49 1.97  34 2.08   7 2.75  20 2.77
                            20 2.78  24 2.84  19 2.84  26 2.86  25 2.86
  24  0.501  0.497  0.498-  49 1.83  48 1.84  50 1.86  47 1.87  39 1.99  40 2.03   3 2.71  19 2.76
                            19 2.78  23 2.84  22 2.85  20 2.85  21 2.86
  25  1.000  0.497  0.999-  32 1.86  31 1.87  34 1.87  33 1.87  44 1.97  43 2.02  26 2.77  26 2.78
                            21 2.84  22 2.85  20 2.86  23 2.86
  26  0.499  0.495  0.997-  32 1.84  33 1.84  34 1.87  31 1.87  56 1.98  55 2.02  25 2.77  25 2.78
                            20 2.85  21 2.85  23 2.86  22 2.86
  27  0.001  0.405  0.640-  23 1.85  20 1.85  19 1.95   4 1.97
  28  0.004  0.595  0.362-  21 1.84  22 1.86  19 1.95   2 2.20
  29  0.001  0.094  0.359-  12 1.84  15 1.84   1 1.97  17 1.97
  30  0.004  0.904  0.639-  13 1.84  14 1.85  17 1.95   2 2.04
  31  0.247  0.389  0.886-  25 1.87  26 1.87  20 2.09   5 2.12   4 2.23   9 2.24
  32  0.254  0.599  0.108-  26 1.84  25 1.86  21 2.02
  33  0.745  0.599  0.109-  26 1.84  25 1.87  22 2.01  10 2.15
  34  0.751  0.391  0.886-  26 1.87  25 1.87  23 2.08   8 2.13   9 2.24   4 2.24
  35  0.251  0.113  0.117-  16 1.86  11 1.87  12 2.09   5 2.12   3 2.21   1 2.21
  36  0.250  0.906  0.894-  11 1.84  16 1.84  13 2.00   6 2.06
  37  0.750  0.905  0.894-  11 1.85  16 1.85  14 1.99   7 2.03
  38  0.750  0.112  0.117-  16 1.86  11 1.87  15 2.07   8 2.13   1 2.21   3 2.22
  39  0.499  0.404  0.642-  23 1.84  20 1.84   9 1.97  24 1.99
  40  0.496  0.600  0.357-  21 1.84  22 1.86  24 2.03  10 2.05
  41  0.499  0.095  0.360-  12 1.85  15 1.85  18 1.96   3 1.97
  42  0.494  0.905  0.639-  13 1.83  14 1.85  18 1.95   2 2.16
  43  0.998  0.391  0.135-  21 1.87  22 1.87  25 2.02   8 2.10   5 2.12
  44  0.000  0.605  0.869-  20 1.86  23 1.86  25 1.97   7 2.07   6 2.07
  45  0.998  0.111  0.864-  13 1.87  14 1.88  11 2.02   8 2.09   5 2.11
  46  1.000  0.896  0.131-  12 1.86  15 1.86  11 1.99   6 2.16   7 2.16
  47  0.251  0.394  0.384-  24 1.87  19 1.87  21 1.99   3 2.03   1 2.04
  48  0.250  0.601  0.604-  24 1.84  19 1.84   2 1.98  20 2.02
  49  0.751  0.597  0.606-  24 1.83  19 1.83  23 1.97
  50  0.749  0.394  0.383-  24 1.86  19 1.86  22 1.98   3 2.04   1 2.05
  51  0.247  0.106  0.615-  17 1.87  18 1.87  13 2.00   4 2.03   9 2.05
  52  0.255  0.894  0.395-  18 1.84  17 1.86  12 2.05  10 2.17   2 2.24
  53  0.745  0.898  0.391-  18 1.84  17 1.86  15 1.99  10 2.04
  54  0.752  0.104  0.615-  18 1.86  17 1.87  14 2.00   4 2.03   9 2.05
  55  0.502  0.391  0.135-  21 1.86  22 1.87  26 2.02   8 2.11   5 2.12
  56  0.501  0.605  0.868-  20 1.86  23 1.86  26 1.98   7 2.09   6 2.10
  57  0.503  0.112  0.862-  13 1.87  14 1.87  16 2.06   8 2.08   5 2.11
  58  0.500  0.889  0.136-  12 1.87  15 1.87  16 2.07   6 2.16   7 2.18  10 2.24

  LATTYP: Found a triclinic cell.
 ALAT       =    11.6310540050
 B/A-ratio  =     0.4769673720
 C/A-ratio  =     0.8568229622
 COS(alpha) =     0.0002730093
 COS(beta)  =     0.3115023748
 COS(gamma) =     0.4760036633

  Lattice vectors:

 A1 = (  -3.6542805429,   5.5421000143,   9.5505381216)
 A2 = (  -0.0007204400,   5.5476320653,  -0.0035718157)
 A3 = (  -9.9656983143,   0.0014050958,  -0.0333291561)

Analysis of symmetry for initial positions (statically):
 Subroutine PRICEL returns:
 Original cell was already a primitive cell.

 Routine SETGRP: Setting up the symmetry group for a
 triclinic supercell.

 Subroutine GETGRP returns: Found  1 space group operations
 (whereof  1 operations were pure point group operations)
 out of a pool of  2 trial point group operations.

The static configuration has the point symmetry C_1 .

Analysis of symmetry for dynamics (positions and initial velocities):
 Subroutine PRICEL returns:
 Original cell was already a primitive cell.

[...]

The dynamic configuration has the point symmetry C_1 .

Analysis of structural, dynamic, and magnetic symmetry:
 Subroutine PRICEL returns:
 Original cell was already a primitive cell.

 Routine SETGRP: Setting up the symmetry group for a
 triclinic supercell.

 Subroutine GETGRP returns: Found  1 space group operations
 (whereof  1 operations were pure point group operations)
 out of a pool of  2 trial point group operations.

The magnetic configuration has the point symmetry C_1 .

 Subroutine INISYM returns: Found  1 space group operations
 (whereof  1 operations are pure point group operations),
 and found     1 'primitive' translations

 KPOINTS: Automatic mesh

Automatic generation of k-mesh.
Space group operators:
 irot       det(A)        alpha          n_x          n_y          n_z        tau_x        tau_y        tau_z
    1     1.000000     0.000000     1.000000     0.000000     0.000000     0.000000     0.000000     0.000000

 Subroutine IBZKPT returns following result:

 Found      1 irreducible k-points:

 Following reciprocal coordinates:
            Coordinates               Weight
  0.000000  0.000000  0.000000      1.000000

 Following cartesian coordinates:
            Coordinates               Weight
  0.000000  0.000000  0.000000      1.000000

 SYSTEM =  unknown system
 POSCAR =  ce11777_1

 Startparameter for this run:
   NWRITE =      1    write-flag & timer
   PREC   = accura    normal or accurate (medium, high low for compatibility)
   ISTART =      0    job   : 0-new  1-cont  2-samecut
   ICHARG =      2    charge: 1-file 2-atom 10-const
   ISPIN  =      2    spin polarized calculation?
   LNONCOLLINEAR =      F non collinear calculations
   LSORBIT =      F    spin-orbit coupling
   INIWAV =      1    electr: 0-lowe 1-rand  2-diag
   LASPH  =      F    aspherical Exc in radial PAW
[...]
   -.388E+02 -.118E+02 0.547E+02   0.399E+02 0.120E+02 -.551E+02   -.106E+01 -.196E+00 0.423E+00   -.471E-01 0.128E-01 -.255E-01
   0.861E+01 -.516E-01 0.618E+02   -.906E+01 0.606E-02 -.624E+02   0.436E+00 0.294E-01 0.651E+00   0.167E-01 0.132E-01 0.197E-02
   0.330E+02 0.122E+02 0.474E+02   -.335E+02 -.124E+02 -.480E+02   0.496E+00 0.195E+00 0.572E+00   0.223E-01 0.428E-02 0.997E-02
   0.122E+02 -.116E+02 0.547E+01   -.126E+02 0.117E+02 -.574E+01   0.457E+00 -.102E+00 0.265E+00   0.322E-01 -.782E-02 0.159E-02
   -.452E+02 0.116E+02 -.350E+02   0.458E+02 -.118E+02 0.356E+02   -.679E+00 0.199E+00 -.643E+00   0.583E-01 -.143E-02 0.148E-01
   0.609E+02 0.562E+00 -.862E+02   -.624E+02 -.509E+00 0.869E+02   0.152E+01 -.547E-01 -.704E+00   -.127E-01 0.354E-02 0.165E-01
   -.211E+02 0.127E+02 -.772E+02   0.214E+02 -.128E+02 0.779E+02   -.278E+00 0.609E-01 -.732E+00   -.149E-01 0.195E-01 -.764E-02
   -.368E+02 -.133E+02 -.111E+03   0.372E+02 0.135E+02 0.111E+03   -.456E+00 -.145E+00 -.654E+00   -.135E-01 -.146E-01 -.112E-01
   0.598E+02 -.889E+00 -.836E+02   -.613E+02 0.829E+00 0.844E+02   0.151E+01 0.612E-01 -.809E+00   -.106E-01 0.342E-03 0.157E-01
   -.377E+02 -.113E+02 -.507E+02   0.386E+02 0.114E+02 0.514E+02   -.908E+00 -.147E+00 -.753E+00   0.459E-01 -.615E-03 0.244E-01
   -.189E+01 0.890E+00 -.764E+02   0.178E+01 -.816E+00 0.773E+02   0.175E+00 -.664E-01 -.882E+00   -.703E-01 -.543E-02 -.168E-02
   0.214E+02 0.523E-01 -.357E+02   -.214E+02 -.870E-01 0.364E+02   0.115E+00 0.219E-01 -.697E+00   -.652E-01 0.114E-01 -.303E-02
   0.491E+02 -.321E+01 0.314E+03   -.534E+02 0.354E+01 -.333E+03   0.429E+01 -.308E+00 0.189E+02   0.218E-01 -.145E-01 0.201E-01
   -.159E+02 0.272E+02 -.386E+03   0.168E+02 -.290E+02 0.407E+03   -.919E+00 0.179E+01 -.210E+02   0.315E-01 -.592E-02 0.233E-01
   -.654E+02 -.238E+01 -.319E+03   0.709E+02 0.256E+01 0.338E+03   -.550E+01 -.167E+00 -.185E+02   -.259E-01 -.635E-02 0.603E-02
   -.158E+01 0.328E+02 0.390E+03   0.609E+00 -.352E+02 -.409E+03   0.951E+00 0.239E+01 0.195E+02   0.213E-01 -.308E-02 -.982E-02
   0.753E+02 0.386E+01 0.277E+03   -.803E+02 -.420E+01 -.291E+03   0.505E+01 0.333E+00 0.140E+02   -.173E-01 0.697E-02 -.970E-02
   -.431E+02 0.287E+02 -.367E+03   0.467E+02 -.304E+02 0.385E+03   -.359E+01 0.163E+01 -.186E+02   -.270E-01 0.104E-01 0.216E-01
   -.548E+02 -.311E+02 -.357E+03   0.591E+02 0.329E+02 0.375E+03   -.423E+01 -.171E+01 -.174E+02   -.307E-01 -.985E-02 0.186E-01
   0.605E+02 -.463E+01 0.282E+03   -.642E+02 0.503E+01 -.295E+03   0.370E+01 -.390E+00 0.137E+02   -.308E-01 -.914E-02 -.403E-03
   -.584E+02 -.162E+01 -.277E+03   0.630E+02 0.158E+01 0.292E+03   -.459E+01 0.406E-01 -.143E+02   -.156E-01 -.693E-02 -.114E-01
   0.709E+02 -.872E+00 0.382E+03   -.768E+02 0.855E+00 -.401E+03   0.591E+01 0.247E-01 0.197E+02   0.769E-02 -.796E-02 -.762E-02
   0.746E+02 0.160E+01 0.384E+03   -.800E+02 -.163E+01 -.404E+03   0.539E+01 0.195E-01 0.200E+02   0.460E-02 0.793E-02 -.616E-02
   -.545E+02 0.133E+01 -.279E+03   0.586E+02 -.131E+01 0.293E+03   -.404E+01 -.274E-01 -.143E+02   -.128E-01 0.818E-02 -.153E-01
   0.571E+02 0.464E+01 0.315E+03   -.625E+02 -.495E+01 -.334E+03   0.541E+01 0.298E+00 0.187E+02   0.191E-01 0.126E-01 0.235E-01
   -.585E+02 -.236E+02 -.367E+03   0.639E+02 0.247E+02 0.385E+03   -.551E+01 -.107E+01 -.176E+02   0.325E-01 0.264E-02 0.233E-01
   -.598E+02 0.156E+01 -.326E+03   0.649E+02 -.166E+01 0.344E+03   -.505E+01 0.966E-01 -.185E+02   -.291E-01 0.664E-02 0.110E-01
   -.787E+00 -.284E+02 0.397E+03   -.103E+01 0.301E+02 -.419E+03   0.180E+01 -.178E+01 0.219E+02   0.214E-01 0.325E-02 -.160E-01
   -.359E+01 0.450E+01 0.261E+03   0.164E+01 -.467E+01 -.276E+03   0.195E+01 0.181E+00 0.145E+02   -.918E-02 -.773E-02 -.396E-01
   0.303E+02 -.159E+01 -.338E+03   -.289E+02 0.136E+01 0.353E+03   -.137E+01 0.244E+00 -.155E+02   -.214E-01 -.145E-01 -.135E-02
   0.514E+01 0.314E+01 -.255E+03   -.363E+01 -.349E+01 0.269E+03   -.152E+01 0.356E+00 -.146E+02   0.108E-01 -.630E-02 -.456E-02
   -.728E+01 -.857E+00 0.342E+03   0.581E+01 0.659E+00 -.359E+03   0.149E+01 0.203E+00 0.169E+02   -.271E-01 -.667E-02 0.222E-02
   -.434E+02 -.252E+01 0.296E+03   0.431E+02 0.279E+01 -.310E+03   0.277E+00 -.269E+00 0.144E+02   0.313E-01 0.392E-02 -.115E-01
   -.513E+02 -.493E+01 -.369E+03   0.577E+02 0.520E+01 0.389E+03   -.650E+01 -.279E+00 -.191E+02   0.326E-01 0.667E-02 0.635E-02
   -.772E+01 0.253E+01 -.400E+03   0.905E+01 -.253E+01 0.425E+03   -.138E+01 0.289E-02 -.245E+02   0.453E-01 -.469E-02 -.317E-02
   -.314E+02 0.270E+01 0.290E+03   0.297E+02 -.282E+01 -.305E+03   0.165E+01 0.124E+00 0.149E+02   0.298E-01 -.491E-02 -.674E-02
   0.413E+02 0.165E+01 -.302E+03   -.408E+02 -.189E+01 0.316E+03   -.554E+00 0.251E+00 -.146E+02   0.170E-01 -.514E-02 0.301E-01
   0.175E+02 0.275E+02 0.349E+03   -.216E+02 -.293E+02 -.367E+03   0.414E+01 0.178E+01 0.179E+02   -.217E-01 -.349E-02 -.160E-01
   -.166E+02 -.307E+02 0.359E+03   0.157E+02 0.330E+02 -.378E+03   0.842E+00 -.224E+01 0.193E+02   -.268E-01 0.514E-02 -.125E-01
   0.347E+02 -.245E+01 -.294E+03   -.336E+02 0.281E+01 0.309E+03   -.116E+01 -.373E+00 -.152E+02   0.236E-01 0.739E-02 0.280E-01
   -.115E+02 -.475E+01 0.267E+03   0.101E+02 0.511E+01 -.281E+03   0.147E+01 -.356E+00 0.140E+02   -.142E-01 0.517E-02 -.320E-01
   0.362E+02 0.491E+00 -.338E+03   -.345E+02 -.729E-01 0.354E+03   -.173E+01 -.427E+00 -.159E+02   -.127E-01 0.125E-01 -.697E-02
   0.136E+01 -.342E+01 -.253E+03   0.682E+00 0.380E+01 0.266E+03   -.204E+01 -.382E+00 -.137E+02   0.475E-02 0.744E-02 -.611E-03
   0.219E+02 0.240E+01 0.322E+03   -.257E+02 -.237E+01 -.336E+03   0.382E+01 -.346E-01 0.145E+02   -.228E-01 0.498E-02 -.367E-02
   0.191E+01 0.200E+00 0.311E+00   -.377E-12 -.986E-13 -.284E-12   -.188E+01 -.196E+00 -.304E+00   -.948E-02 0.317E-02 -.319E-03

 POSITION                                       TOTAL-FORCE (eV/Angst)
      1.92367     -0.00899      2.34389         0.015096      0.000926     -0.007295
      2.41616      1.22945      7.20704        -0.010569     -0.026561     -0.004130
      1.93914      2.77071      2.34671         0.024418     -0.002311     -0.008042
      6.21210      0.00351      2.46046        -0.006463      0.000978      0.002732
      9.04741      1.38582      2.41552         0.000345     -0.000541      0.002054
      7.01201      1.36710      7.24747        -0.017112      0.000791      0.005137
      7.01134      4.16072      7.22658         0.001005      0.001193      0.003455
      9.05146      4.14904      2.40785         0.003208      0.000636      0.001395
      6.26442      2.76445      2.45046        -0.004883      0.000620      0.002830
     -0.13984      2.90269      7.14975         0.002749      0.011027     -0.002845
      0.02210     -0.00203      0.07590         0.003358      0.001060      0.001377
     -1.17203      1.37203      9.51287         0.009647      0.000547     -0.002320
      7.50539      1.38277      0.05928         0.013539     -0.000446      0.010013
      7.50052      4.14876      0.01480         0.010986     -0.001725      0.010300
     -1.17513      4.14711      9.52353         0.011398      0.000596     -0.000426
      0.02666      2.76839      0.07129         0.002751     -0.003046      0.000678
      1.31740      5.52722      9.59280         0.003877     -0.004011     -0.003039
      5.01318      2.77030      0.02161         0.004726      0.002408     -0.006148
      3.12920      5.53330      4.75793        -0.008443     -0.003833     -0.006252
      5.60949      1.38216      4.88649        -0.007928      0.000885     -0.001419
      0.63046      1.37789      4.74964        -0.010508      0.000236     -0.005389
      0.63961      4.15510      4.77111        -0.007997      0.002787     -0.006582
      5.60758      4.15110      4.86846        -0.010326      0.001201     -0.001771
      3.12711      2.77226      4.77390        -0.008479      0.006237     -0.003775
      8.11607      5.53007      4.77886        -0.005647      0.002176      0.002858
      8.10339      2.75943      4.75384        -0.006101     -0.001530      0.003259
      4.86695      0.00765      3.90562        -0.005693     -0.000425      0.004121
      1.43781      0.01419      5.69720        -0.004151      0.000355     -0.001429
      3.24862      0.00642      0.88742         0.008283      0.000111     -0.008219
      3.05094      0.01090      8.69344         0.003063     -0.003542     -0.000227
      7.43791      1.35850      3.72499        -0.010683      0.001205      0.003667
     -1.10249      1.40503      5.73894        -0.007648      0.002168      0.000300
     -1.17706      4.12232      5.77263        -0.001218      0.001688     -0.000872
      7.34290      4.15380      3.76845        -0.010509      0.000469      0.005095
      0.77289      1.38693      1.06786         0.010848      0.000162      0.001563
      5.56724      1.37628      8.72134         0.004039      0.000059      0.006266
      5.57070      4.13753      8.71379         0.002555     -0.000938      0.006367
      0.78832      4.15070      1.05932         0.012712      0.000501      0.001184
      4.89394      2.75744      3.89252        -0.006927      0.001188      0.004284
      1.36022      2.75132      5.73514        -0.003724      0.003929     -0.002466
      3.25084      2.76301      0.88561         0.009121      0.000437     -0.009756
      3.05572      2.73098      8.69637         0.004978      0.001220     -0.000497
     -0.11169      5.51749      3.76086        -0.010235      0.001108      0.001958
      6.42482      0.00323      5.81111        -0.006398      0.000535      0.003808
      8.21766      5.52036      1.06064         0.002906      0.000111      0.001429
     -1.99743      5.52811      8.59081         0.002129     -0.001596     -0.004934
      2.35465      1.38623      3.77674        -0.002955      0.000067     -0.001520
      3.76420      1.38401      5.78859        -0.005812      0.000119      0.002945
      3.85665      4.15620      5.74279        -0.002364      0.000740     -0.000239
      2.41681      4.14658      3.75478        -0.006060     -0.000698      0.001668
      5.75649      1.37211      1.01117         0.005868     -0.000428      0.000792
      0.65434      1.39960      8.58208         0.012148     -0.001916     -0.004424
      0.59519      4.12121      8.61980         0.008900     -0.000186     -0.001298
      5.76205      4.16591      0.99464         0.005051     -0.000591      0.001068
     -0.12538      2.78081      3.75704        -0.012000      0.000535      0.002808
      6.42907      2.75963      5.80655        -0.005089      0.003084      0.003588
      8.19812      2.78318      1.08749         0.003955     -0.000094      0.001821
     -1.92439      2.76009      8.52977         0.002264      0.000326     -0.005509
    total drift:                                0.012530      0.007172      0.006286

  FREE ENERGIE OF THE ION-ELECTRON SYSTEM (eV)
  free  energy   TOTEN  =      -354.5172899916 eV

  energy  without entropy=     -354.5125677718  energy(sigma->0) =     -354.51492888

 d Force = 0.1366162E-03[ 0.113E-03, 0.160E-03]  d Energy = 0.1146178E-03 0.220E-04
 d Force =-0.6073087E+00[-0.608E+00,-0.607E+00]  d Ewald  =-0.1470922E+01 0.864E+00

 Quasi-Newton relaxation of ions (Broydens 2nd method)
  g(Force)  = 0.296E-03   g(Stress)= 0.174E-03

 retain information from N=  1 steps
 eigenvalues of (default step * inverse Hessian matrix)
  average eigenvalue of G=   0.0626
 eigenvalue spectrum of G is  0.0626

volume of typ            1:    14.7 %

[...]

volume of typ            3:     9.8 %

total charge

# of ion       s       p       d       tot
    1        2.080   0.248   0.093   2.421
    2        2.071   0.223   0.083   2.377
    3        2.083   0.249   0.095   2.426
    4        2.079   0.239   0.090   2.408
    5        2.083   0.251   0.096   2.430
    6        2.072   0.227   0.084   2.382
    7        2.074   0.229   0.085   2.388
    8        2.080   0.248   0.094   2.422
    9        2.076   0.236   0.087   2.398
   10        2.067   0.213   0.078   2.359
   11        0.279   0.381   7.873   8.532
   12        0.274   0.369   7.869   8.513
   13        0.282   0.387   7.855   8.524
   14        0.276   0.376   7.844   8.496
   15        0.278   0.377   7.865   8.519
   16        0.275   0.371   7.874   8.520
   17        0.279   0.382   7.844   8.504
   18        0.285   0.393   7.852   8.530
   19        0.289   0.402   7.842   8.533
   20        0.274   0.363   7.879   8.516
   21        0.280   0.383   7.861   8.524
   22        0.271   0.362   7.875   8.507
   23        0.278   0.377   7.859   8.514
   24        0.281   0.385   7.846   8.512
   25        0.274   0.374   7.859   8.507
   26        0.281   0.388   7.866   8.536
   27        1.266   2.775   0.007   4.049
   28        1.272   2.753   0.008   4.033
   29        1.267   2.775   0.007   4.049
   30        1.271   2.762   0.007   4.040
   31        1.258   2.791   0.006   4.055
   32        1.268   2.761   0.007   4.036
   33        1.266   2.769   0.007   4.042
   34        1.258   2.789   0.006   4.053
   35        1.257   2.790   0.006   4.054
   36        1.269   2.763   0.007   4.040
   37        1.269   2.762   0.007   4.039
   38        1.257   2.793   0.006   4.056
   39        1.267   2.771   0.007   4.046
   40        1.267   2.770   0.007   4.044
   41        1.266   2.775   0.007   4.049
   42        1.274   2.749   0.008   4.031
   43        1.257   2.795   0.006   4.059
   44        1.258   2.793   0.007   4.058
   45        1.258   2.793   0.006   4.057
   46        1.261   2.782   0.007   4.050
   47        1.259   2.794   0.006   4.059
   48        1.271   2.763   0.007   4.041
   49        1.283   2.723   0.008   4.014
   50        1.258   2.796   0.006   4.060
   51        1.260   2.790   0.006   4.056
   52        1.268   2.761   0.007   4.036
   53        1.271   2.758   0.007   4.036
   54        1.260   2.789   0.006   4.056
   55        1.257   2.794   0.006   4.058
   56        1.258   2.791   0.007   4.056
   57        1.258   2.793   0.006   4.057
   58        1.257   2.790   0.006   4.053
tot          65.67   97.29  126.86  289.82

magnetization (x)

# of ion       s       p       d       tot
    1        0.004   0.006  -0.000   0.009
    2        0.002   0.007   0.001   0.011
    3        0.000   0.001  -0.000   0.001
    4       -0.001   0.001   0.000   0.000
    5        0.002   0.006   0.001   0.009
    6        0.004   0.006  -0.000   0.010
    7        0.001   0.003  -0.000   0.004
    8        0.005   0.007  -0.000   0.011
    9        0.004   0.008   0.000   0.012
   10        0.004   0.008   0.000   0.012
   11        0.001  -0.000   0.388   0.389
   12        0.004  -0.000   0.492   0.495
   13        0.001  -0.000   0.395   0.395
   14        0.000  -0.000   0.351   0.351
   15        0.002  -0.000   0.453   0.454
   16        0.004  -0.000   0.535   0.539
   17       -0.000  -0.000   0.312   0.311
   18       -0.000  -0.000   0.286   0.286
   19       -0.001  -0.000  -0.196  -0.197
   20        0.005   0.000   0.570   0.575
   21        0.001  -0.000   0.365   0.366
   22       -0.002  -0.000  -0.445  -0.447
   23        0.001   0.000   0.395   0.396
   24        0.002   0.000   0.373   0.375
   25        0.001   0.000   0.360   0.361
   26       -0.002  -0.000  -0.375  -0.376
   27        0.000   0.006  -0.000   0.007
   28       -0.003  -0.027  -0.000  -0.030
   29        0.005   0.034   0.000   0.040
   30        0.007   0.056   0.000   0.063
   31        0.005   0.068   0.000   0.073
   32        0.004   0.036   0.000   0.040
   33       -0.004  -0.067  -0.000  -0.071
   34        0.003   0.028   0.000   0.032
   35        0.005   0.053   0.000   0.059
   36        0.006   0.048   0.000   0.054
   37        0.005   0.039   0.000   0.044
   38        0.005   0.039   0.000   0.045
   39        0.006   0.052   0.000   0.058
   40        0.004   0.034   0.000   0.038
   41        0.005   0.033   0.000   0.038
   42        0.005   0.036   0.000   0.041
   43        0.004   0.027   0.000   0.031
   44        0.005   0.053   0.000   0.059
   45        0.005   0.034   0.000   0.039
   46        0.005   0.057   0.000   0.063
   47        0.004   0.042   0.000   0.046
   48        0.007   0.097   0.000   0.104
   49        0.004   0.066   0.000   0.070
   50       -0.005  -0.069  -0.000  -0.074
   51        0.007   0.051   0.000   0.058
   52        0.006   0.063   0.000   0.069
   53        0.007   0.079   0.000   0.086
   54        0.005   0.038   0.000   0.044
   55       -0.004  -0.037  -0.000  -0.041
   56       -0.002  -0.038  -0.000  -0.041
   57        0.008   0.073   0.000   0.081
   58        0.007   0.068   0.000   0.074
tot           0.16    1.12    4.26    5.55