 vasp.5.4.4.18Apr17-6-g9f103f2a35 (build May 12 2020 05:39:39) gamma-only

 MD_VERSION_INFO: Compiled 2020-05-12T12:39:39-UTC in devlin.sd.materialsdesign.
 com:/home/medea2/data/build/wwolf/vasp-gpu5.4.4/13047/x86_64/src/src/build/gam
 from svn 13047

 executed on                        Lin64 date 2023.03.06  23:42:53

 INCAR:
 POTCAR:    PAW_PBE Li_sv 10Sep2004
 POTCAR:    PAW_PBE Ni 02Aug2007
 POTCAR:    PAW_PBE O 08Apr2002

 POTCAR:    PAW_PBE Li_sv 10Sep2004

 POTCAR:    PAW_PBE Ni 02Aug2007

 POTCAR:    PAW_PBE O 08Apr2002

 Optimization of the real space projectors (new method)

 maximal supplied QI-value         = 22.11
 optimisation between [QCUT,QGAM] = [ 11.28, 22.77] = [ 35.61,145.23] Ry
 Optimized for a Real-space Cutoff    1.10 Angstroem

   l    n(q)    QCUT    max X(q) W(low)/X(q) W(high)/X(q)  e(spline)
   0      7    11.276    10.506    0.54E-04    0.58E-04    0.16E-07
   0      7    11.276     8.367    0.11E-03    0.14E-03    0.35E-07
   1      7    11.276     8.983    0.23E-03    0.43E-03    0.86E-07
 Optimization of the real space projectors (new method)

[...]

   l    n(q)    QCUT    max X(q) W(low)/X(q) W(high)/X(q)  e(spline)
   2      9    11.376    60.317    0.17E-03    0.16E-04    0.16E-06
   2      9    11.376    55.921    0.17E-03    0.16E-04    0.17E-06
   0     10    11.376    51.690    0.45E-04    0.60E-04    0.21E-06
   0     10    11.376    30.015    0.37E-04    0.55E-04    0.19E-06
   1     10    11.376    18.849    0.83E-04    0.11E-03    0.92E-07
   1     10    11.376    14.624    0.69E-04    0.92E-04    0.82E-07
 Optimization of the real space projectors (new method)

 maximal supplied QI-value         = 24.76
 optimisation between [QCUT,QGAM] = [ 11.39, 22.77] = [ 36.31,145.25] Ry
 Optimized for a Real-space Cutoff    1.10 Angstroem

   l    n(q)    QCUT    max X(q) W(low)/X(q) W(high)/X(q)  e(spline)
   0      7    11.387    20.381    0.22E-03    0.48E-03    0.18E-06
   0      7    11.387    15.268    0.22E-03    0.52E-03    0.19E-06
   1      7    11.387     5.964    0.22E-03    0.73E-03    0.24E-06
   1      7    11.387     5.382    0.19E-03    0.60E-03    0.21E-06

  PAW_PBE Li_sv 10Sep2004               :
  PAW_PBE Ni 02Aug2007                  :
  PAW_PBE O 08Apr2002                   :

 POSCAR: ce14406_1
  positions in direct lattice
 exchange correlation table for  LEXCH =       14
   RHO(1)=    0.500       N(1)  =     2000
   RHO(2)=  100.500       N(2)  =     4000

 ion  position               nearest neighbor table
   1  0.237  0.250  0.484-  43 2.02  25 2.04  37 2.13  23 2.16  35 2.26  47 2.26   8 2.81  15 2.82

   2  0.254  0.748  0.517-  44 1.99  38 2.05  26 2.08  36 2.19  24 2.21  48 2.25   9 2.77
   3  0.747  0.748  0.515-  45 2.01  38 2.06  26 2.10  24 2.19  36 2.20  49 2.25  10 2.76
   4  0.018  0.751  0.232-  28 2.02  42 2.07  48 2.13  29 2.15  49 2.25   8 2.81  21 2.84
   5  0.729  0.752  0.978-  33 1.98  52 1.99  40 2.13  54 2.16  19 2.77  12 2.82
   6  0.511  0.248  0.771-  53 2.02  30 2.04  27 2.11  50 2.18  47 2.27  22 2.80  10 2.84
   7  0.001  0.003  0.002-  32 1.83  31 1.83  34 1.84  33 1.84  41 1.90  42 1.94  12 2.77  12 2.78
                             8 2.80   9 2.81  11 2.81  10 2.82
   8  0.251  1.000  0.247-  37 1.84  25 1.85  54 1.85  42 1.87  31 1.95  48 2.04  11 2.76  11 2.78
                            12 2.79   7 2.80   1 2.81   4 2.81  14 2.83  13 2.85
   9  0.249  0.996  0.749-  41 1.84  53 1.85  26 1.87  38 1.88  32 1.94  47 2.01  10 2.76   2 2.77
                            10 2.78   7 2.81  13 2.82  12 2.82  14 2.84
  10  0.751  0.995  0.748-  41 1.84  53 1.85  26 1.86  38 1.88  33 1.97  50 1.97   9 2.76   3 2.76
                             9 2.78  13 2.81   7 2.82  12 2.82  14 2.83   6 2.84
  11  0.749  0.006  0.252-  54 1.84  37 1.85  42 1.85  25 1.86  34 1.95  49 2.05   8 2.76   8 2.78
                            14 2.81  12 2.81   7 2.81  13 2.83
  12  0.500  0.006  0.002-  31 1.83  34 1.84  32 1.84  33 1.85  54 1.90  53 1.93   7 2.77   7 2.78
                             8 2.79  11 2.81   9 2.82   5 2.82  10 2.82
  13  0.999  0.002  0.502-  49 1.84  48 1.84  50 1.85  47 1.86  25 1.91  26 1.94  14 2.77  14 2.77
                            10 2.81   9 2.82  11 2.83   8 2.85
  14  0.500  0.996  0.497-  50 1.84  47 1.84  49 1.86  48 1.86  37 1.91  38 1.92  13 2.77  13 2.77
                            11 2.81   8 2.83  10 2.83   9 2.84
  15  0.999  0.499  0.499-  46 1.84  45 1.84  43 1.84  44 1.84  23 1.90  24 1.94  20 2.76  20 2.78
                            18 2.81  17 2.81  19 2.82   1 2.82  16 2.84
  16  0.249  0.507  0.754-  23 1.85  40 1.85  35 1.85  52 1.86  27 1.97  44 1.99  19 2.77  19 2.78
                            21 2.81  22 2.82  20 2.84  15 2.84
  17  0.250  0.496  0.249-  51 1.83  39 1.84  36 1.87  24 1.88  28 1.96  43 1.98  18 2.77  18 2.77
                            22 2.81  15 2.81  20 2.82  21 2.82
  18  0.750  0.498  0.250-  51 1.84  39 1.84  36 1.87  24 1.88  46 1.95  29 2.00  17 2.77  17 2.77
                            15 2.81  20 2.81  22 2.81  21 2.82
  19  0.750  0.500  0.749-  40 1.84  52 1.85  23 1.86  35 1.86  30 1.96  45 2.00  16 2.77   5 2.77
                            16 2.78  20 2.82  15 2.82  21 2.82  22 2.83
  20  0.501  0.497  0.499-  46 1.83  45 1.84  43 1.84  44 1.85  36 1.91  35 1.92  15 2.76  15 2.78
                            18 2.81  19 2.82  17 2.82  16 2.84
  21  0.000  0.494  0.998-  28 1.84  29 1.84  27 1.85  30 1.85  39 1.91  40 1.93  22 2.77  22 2.77
                            16 2.81  17 2.82  19 2.82  18 2.82   4 2.84
  22  0.500  0.502  0.002-  27 1.84  30 1.84  28 1.85  29 1.86  51 1.91  52 1.91  21 2.77  21 2.77
                             6 2.80  17 2.81  18 2.81  16 2.82  19 2.83
  23  0.007  0.405  0.635-  16 1.85  19 1.86  15 1.90   1 2.16
  24  1.000  0.602  0.366-  18 1.88  17 1.88  15 1.94   3 2.19   2 2.21
  25  0.005  0.099  0.366-   8 1.85  11 1.86  13 1.91   1 2.04
  26  0.001  0.896  0.631-  10 1.86   9 1.87  13 1.94   2 2.08   3 2.10
  27  0.258  0.400  0.887-  22 1.84  21 1.85  16 1.97   6 2.11
  28  0.242  0.598  0.113-  21 1.84  22 1.85  17 1.96   4 2.02
  29  0.757  0.602  0.111-  21 1.84  22 1.86  18 2.00   4 2.15
  30  0.744  0.399  0.887-  22 1.84  21 1.85  19 1.96   6 2.04
  31  0.248  0.103  0.113-  12 1.83   7 1.83   8 1.95
  32  0.252  0.904  0.892-   7 1.83  12 1.84   9 1.94
  33  0.750  0.901  0.893-   7 1.84  12 1.85  10 1.97   5 1.98
  34  0.751  0.104  0.113-  12 1.84   7 1.84  11 1.95
  35  0.494  0.402  0.637-  16 1.85  19 1.86  20 1.92   1 2.26
  36  0.499  0.598  0.368-  18 1.87  17 1.87  20 1.91   2 2.19   3 2.20
  37  0.493  0.098  0.367-   8 1.84  11 1.85  14 1.91   1 2.13
  38  0.500  0.895  0.631-  10 1.88   9 1.88  14 1.92   2 2.05   3 2.06
  39  1.000  0.401  0.136-  18 1.84  17 1.84  21 1.91
  40  0.993  0.599  0.868-  19 1.84  16 1.85  21 1.93   5 2.13
  41  0.999  0.094  0.862-   9 1.84  10 1.84   7 1.90
  42  0.994  0.902  0.136-  11 1.85   8 1.87   7 1.94   4 2.07
  43  0.250  0.397  0.390-  20 1.84  15 1.84  17 1.98   1 2.02
  44  0.250  0.602  0.607-  15 1.84  20 1.85   2 1.99  16 1.99
  45  0.749  0.601  0.608-  15 1.84  20 1.84  19 2.00   3 2.01
  46  0.752  0.399  0.388-  20 1.83  15 1.84  18 1.95
  47  0.256  0.102  0.610-  14 1.84  13 1.86   9 2.01   1 2.26   6 2.27
  48  0.244  0.894  0.389-  13 1.84  14 1.86   8 2.04   4 2.13   2 2.25
  49  0.757  0.895  0.390-  13 1.84  14 1.86  11 2.05   4 2.25   3 2.25
  50  0.743  0.099  0.612-  14 1.84  13 1.85  10 1.97   6 2.18
  51  0.502  0.402  0.135-  17 1.83  18 1.84  22 1.91
  52  0.505  0.601  0.868-  19 1.85  16 1.86  22 1.91   5 1.99
  53  0.500  0.097  0.860-   9 1.85  10 1.85  12 1.93   6 2.02
  54  0.507  0.906  0.133-  11 1.84   8 1.85  12 1.90   5 2.16

  LATTYP: Found a triclinic cell.
 ALAT       =    17.3317528434
 B/A-ratio  =     0.5665029098
 C/A-ratio  =     0.3197810506
 COS(alpha) =     0.0009190575
 COS(beta)  =     0.3181509276
 COS(gamma) =     0.7700274610

  Lattice vectors:

 A1 = ( -13.4004948209,  -5.5285951839,   9.5000542352)
 A2 = (  -9.8183108064,  -0.0046796436,  -0.0588711039)
 A3 = (  -0.0023814702,  -5.5423530583,  -0.0118004388)

Analysis of symmetry for initial positions (statically):
 Subroutine PRICEL returns:
 Original cell was already a primitive cell.

 Routine SETGRP: Setting up the symmetry group for a
 triclinic supercell.

 Subroutine GETGRP returns: Found  1 space group operations
 (whereof  1 operations were pure point group operations)
 out of a pool of  2 trial point group operations.

The static configuration has the point symmetry C_1 .

Analysis of symmetry for dynamics (positions and initial velocities):
 Subroutine PRICEL returns:
 Original cell was already a primitive cell.

[...]

The dynamic configuration has the point symmetry C_1 .

Analysis of structural, dynamic, and magnetic symmetry:
 Subroutine PRICEL returns:
 Original cell was already a primitive cell.

 Routine SETGRP: Setting up the symmetry group for a
 triclinic supercell.

 Subroutine GETGRP returns: Found  1 space group operations
 (whereof  1 operations were pure point group operations)
 out of a pool of  2 trial point group operations.

The magnetic configuration has the point symmetry C_1 .

 Subroutine INISYM returns: Found  1 space group operations
 (whereof  1 operations are pure point group operations),
 and found     1 'primitive' translations

 KPOINTS: Automatic mesh

Automatic generation of k-mesh.
Space group operators:
 irot       det(A)        alpha          n_x          n_y          n_z        tau_x        tau_y        tau_z
    1     1.000000     0.000000     1.000000     0.000000     0.000000     0.000000     0.000000     0.000000

 Subroutine IBZKPT returns following result:

 Found      1 irreducible k-points:

 Following reciprocal coordinates:
            Coordinates               Weight
  0.000000  0.000000  0.000000      1.000000

 Following cartesian coordinates:
            Coordinates               Weight
  0.000000  0.000000  0.000000      1.000000

 SYSTEM =  unknown system
 POSCAR =  ce14406_1

 Startparameter for this run:
   NWRITE =      1    write-flag & timer
   PREC   = accura    normal or accurate (medium, high low for compatibility)
   ISTART =      0    job   : 0-new  1-cont  2-samecut
   ICHARG =      2    charge: 1-file 2-atom 10-const
   ISPIN  =      2    spin polarized calculation?
   LNONCOLLINEAR =      F non collinear calculations
   LSORBIT =      F    spin-orbit coupling
   INIWAV =      1    electr: 0-lowe 1-rand  2-diag
   LASPH  =      F    aspherical Exc in radial PAW
   METAGGA=      F    non-selfconsistent MetaGGA calc.

 Electronic Relaxation 1
   ENCUT  =  500.0 eV  36.75 Ry    6.06 a.u.  10.11 18.63 17.90*2*pi/ulx,y,z
   ENINI  =  500.0     initial cutoff
   ENAUG  =  628.9 eV  augmentation charge cutoff
   NELM   =     80;   NELMIN=  2; NELMDL= -5     # of ELM steps
   EDIFF  = 0.1E-04   stopping-criterion for ELM
   LREAL  =      T    real-space projection
   NLSPLINE    = F    spline interpolate recip. space projectors
   LCOMPAT=      F    compatible to vasp.4.4
   GGA_COMPAT  = T    GGA compatible to vasp.4.4-vasp.4.6
   LMAXPAW     = -100 max onsite density
[...]
   0.564E+00 0.679E-01 -.570E+01   0.388E+00 0.116E+00 0.569E+01   -.922E+00 -.181E+00 0.217E-01   -.212E-02 -.477E-03 -.703E-02
   0.402E+01 -.127E+02 -.674E+02   -.438E+01 0.128E+02 0.684E+02   0.363E+00 -.968E-01 -.100E+01   -.564E-02 0.496E-02 0.390E-02
   0.405E+02 -.130E+02 -.569E+01   -.412E+02 0.132E+02 0.643E+01   0.726E+00 -.170E+00 -.744E+00   0.859E-02 0.218E-02 0.330E-02
   -.424E+02 0.117E+02 -.429E+02   0.436E+02 -.117E+02 0.431E+02   -.119E+01 0.334E-01 -.193E+00   -.109E-01 -.369E-03 0.598E-03
   -.506E+02 -.119E+02 -.298E+02   0.516E+02 0.120E+02 0.301E+02   -.954E+00 -.785E-01 -.330E+00   -.104E-01 0.891E-03 0.576E-03
   -.114E+01 0.116E+02 -.103E+03   0.513E+00 -.116E+02 0.104E+03   0.619E+00 0.584E-01 -.160E+01   0.811E-02 -.186E-02 0.195E-02
   0.138E+02 0.138E+02 -.922E+02   -.141E+02 -.139E+02 0.933E+02   0.297E+00 0.152E+00 -.104E+01   -.445E-02 -.432E-02 0.261E-02
   -.551E+01 0.132E+02 -.113E+03   0.517E+01 -.134E+02 0.114E+03   0.339E+00 0.153E+00 -.952E+00   0.581E-02 0.512E-02 -.540E-03
   0.386E+02 -.113E+02 -.265E+02   -.390E+02 0.114E+02 0.269E+02   0.471E+00 -.896E-01 -.478E+00   0.485E-02 -.503E-02 0.729E-03
   -.128E+02 0.134E+02 0.699E+02   0.134E+02 -.135E+02 -.708E+02   -.538E+00 0.146E+00 0.864E+00   0.459E-03 -.550E-03 0.106E-02
   -.215E+02 0.122E+02 -.501E+02   0.214E+02 -.123E+02 0.509E+02   0.507E-01 0.729E-01 -.813E+00   -.383E-02 0.579E-04 -.145E-02
   0.200E+02 -.125E+02 0.105E+03   -.203E+02 0.127E+02 -.107E+03   0.308E+00 -.160E+00 0.167E+01   0.275E-02 -.527E-03 0.396E-03
   0.300E+02 0.116E+02 0.918E+02   -.300E+02 -.117E+02 -.937E+02   0.671E-01 0.135E+00 0.189E+01   0.335E-02 -.193E-03 0.173E-03
   0.189E+02 -.131E+02 0.511E+02   -.191E+02 0.132E+02 -.513E+02   0.209E+00 -.150E+00 0.274E+00   -.417E-02 -.257E-03 -.182E-02
   -.201E+02 -.140E+02 0.897E+02   0.204E+02 0.141E+02 -.906E+02   -.339E+00 -.137E+00 0.895E+00   0.742E-03 -.430E-03 0.724E-03
   0.156E+02 -.121E+02 0.118E+03   -.157E+02 0.122E+02 -.119E+03   0.539E-01 -.896E-01 0.129E+01   0.173E-02 0.598E-03 -.236E-02
   -.277E+02 0.118E+02 0.342E+01   0.280E+02 -.120E+02 -.341E+01   -.370E+00 0.180E+00 -.263E-02   0.168E-02 -.150E-02 -.186E-02
   -.210E+02 0.225E+02 0.373E+03   0.215E+02 -.238E+02 -.395E+03   -.559E+00 0.122E+01 0.217E+02   0.447E-02 0.222E-02 -.652E-02
   0.154E+02 0.397E+00 -.292E+03   -.152E+02 -.122E+00 0.308E+03   -.141E+00 -.277E+00 -.161E+02   -.358E-02 0.188E-02 0.826E-02
   0.178E+02 0.322E+02 -.382E+03   -.178E+02 -.343E+02 0.403E+03   0.312E-01 0.214E+01 -.207E+02   0.110E-01 0.615E-02 -.774E-02
   -.401E+02 -.289E+01 0.306E+03   0.403E+02 0.320E+01 -.323E+03   -.208E+00 -.319E+00 0.171E+02   -.487E-02 0.334E-02 0.130E-01
   0.375E+01 0.281E+02 0.382E+03   -.556E+01 -.300E+02 -.403E+03   0.182E+01 0.186E+01 0.210E+02   -.785E-02 0.299E-03 -.113E-01
   0.546E+01 -.282E+02 -.335E+03   -.479E+01 0.301E+02 0.355E+03   -.677E+00 -.195E+01 -.199E+02   0.868E-02 -.449E-03 0.112E-01
   -.207E+02 0.288E+02 -.329E+03   0.238E+02 -.306E+02 0.347E+03   -.313E+01 0.181E+01 -.184E+02   0.697E-02 0.491E-03 0.119E-01
   0.137E+01 -.327E+02 0.389E+03   -.218E+01 0.351E+02 -.410E+03   0.811E+00 -.232E+01 0.205E+02   -.632E-02 0.122E-03 -.122E-01
   -.712E+01 0.436E+01 -.413E+03   0.899E+01 -.494E+01 0.440E+03   -.187E+01 0.585E+00 -.263E+02   -.146E-02 -.234E-02 -.907E-02
   0.125E+01 -.149E+01 0.368E+03   -.193E+01 0.204E+01 -.393E+03   0.684E+00 -.543E+00 0.249E+02   -.478E-02 -.258E-02 0.106E-01
   0.301E+02 -.344E+01 0.339E+03   -.340E+02 0.342E+01 -.358E+03   0.389E+01 0.224E-01 0.193E+02   -.288E-02 0.254E-02 0.899E-02
   -.102E+02 -.555E+00 -.423E+03   0.117E+02 0.872E+00 0.449E+03   -.142E+01 -.320E+00 -.259E+02   -.654E-02 0.231E-02 -.636E-02
   0.266E+01 -.232E+02 0.365E+03   -.401E+01 0.242E+02 -.386E+03   0.135E+01 -.104E+01 0.203E+02   0.376E-02 -.170E-02 -.627E-02
   0.379E+02 0.189E+01 -.304E+03   -.395E+02 -.234E+01 0.323E+03   0.166E+01 0.454E+00 -.181E+02   -.378E-02 -.188E-02 0.864E-02
   0.155E+02 -.271E+02 -.377E+03   -.146E+02 0.288E+02 0.399E+03   -.895E+00 -.165E+01 -.219E+02   0.150E-01 -.639E-02 -.100E-01
   -.403E+02 0.430E+00 0.311E+03   0.416E+02 -.604E+00 -.327E+03   -.124E+01 0.177E+00 0.161E+02   -.947E-02 -.345E-02 0.147E-01
   0.841E+01 -.783E+00 0.424E+03   -.925E+01 0.650E+00 -.451E+03   0.831E+00 0.133E+00 0.268E+02   0.751E-02 0.247E-02 -.476E-02
   0.518E+01 -.264E+02 -.347E+03   -.385E+01 0.282E+02 0.369E+03   -.132E+01 -.177E+01 -.217E+02   -.815E-02 0.184E-02 0.593E-02
   -.169E+02 0.140E+01 -.410E+03   0.178E+02 -.197E+01 0.436E+03   -.854E+00 0.564E+00 -.260E+02   -.184E-02 0.315E-02 -.124E-01
   0.376E+02 -.200E+02 0.326E+03   -.411E+02 0.208E+02 -.344E+03   0.354E+01 -.753E+00 0.181E+02   -.353E-02 0.569E-02 0.553E-02
   0.646E+02 -.321E+01 0.401E+03   -.700E+02 0.329E+01 -.421E+03   0.535E+01 -.826E-01 0.207E+02   -.450E-02 0.591E-03 -.715E-02
   -.786E+02 0.144E+01 -.345E+03   0.842E+02 -.135E+01 0.364E+03   -.552E+01 -.933E-01 -.191E+02   0.387E-02 0.412E-03 0.995E-02
   -.775E+02 0.198E+01 -.337E+03   0.834E+02 -.234E+01 0.357E+03   -.597E+01 0.358E+00 -.196E+02   0.238E-02 -.419E-03 0.101E-01
   0.347E+02 -.148E+01 0.428E+03   -.369E+02 0.180E+01 -.454E+03   0.228E+01 -.313E+00 0.258E+02   -.298E-02 -.145E-03 -.693E-02
   -.441E+02 0.238E+02 -.389E+03   0.477E+02 -.250E+02 0.408E+03   -.360E+01 0.118E+01 -.193E+02   -.275E-02 0.319E-02 -.202E-01
   0.557E+02 -.294E+02 0.329E+03   -.590E+02 0.311E+02 -.347E+03   0.322E+01 -.173E+01 0.173E+02   0.922E-02 0.377E-02 0.167E-01
   0.630E+02 0.246E+02 0.323E+03   -.677E+02 -.259E+02 -.341E+03   0.471E+01 0.125E+01 0.181E+02   0.131E-01 -.379E-02 0.127E-01
   -.144E+02 -.227E+02 -.402E+03   0.150E+02 0.240E+02 0.424E+03   -.653E+00 -.129E+01 -.218E+02   -.478E-02 -.390E-02 -.174E-01
   0.656E+01 -.321E+01 0.412E+03   -.828E+01 0.365E+01 -.439E+03   0.170E+01 -.440E+00 0.266E+02   0.751E-02 -.198E-02 -.484E-02
   0.731E+01 0.323E+02 -.352E+03   -.743E+01 -.347E+02 0.373E+03   0.126E+00 0.239E+01 -.206E+02   -.872E-02 -.190E-02 0.572E-02
   -.464E+02 0.369E+01 -.382E+03   0.504E+02 -.360E+01 0.402E+03   -.400E+01 -.876E-01 -.205E+02   -.504E-02 -.337E-02 -.113E-01
   0.149E+01 0.206E+02 0.345E+03   -.125E+01 -.217E+02 -.367E+03   -.250E+00 0.106E+01 0.219E+02   -.669E-03 -.569E-02 0.466E-02
   0.344E+00 -.286E+00 -.285E+00   -.149E-12 -.270E-12 -.341E-12   -.320E+00 0.287E+00 0.254E+00   -.248E-02 0.151E-03 0.232E-01

 POSITION                                       TOTAL-FORCE (eV/Angst)
      3.82600      1.32007      2.43452        -0.017519     -0.000051      0.002441
      2.37402      1.44228      7.24075         0.007794      0.000903     -0.002135
      2.33905      4.18153      7.24985         0.003234      0.002609     -0.001301
     -0.46922      0.12654      7.28457        -0.009191     -0.005146      0.003551
      6.82540      4.07122      7.30187        -0.015886     -0.003097     -0.002072
      6.72798      2.84569      2.41483         0.028018      0.002303     -0.001256
      0.00485      0.00191      0.02305         0.004431      0.006235     -0.000059
     -1.18746      1.43003      9.65703         0.001203     -0.001902     -0.002989
      3.75027      1.42278      9.64166         0.003492     -0.000361     -0.002178
      3.74446      4.20590      9.64004         0.001151     -0.001437     -0.001211
      2.45075      4.15513      0.07392         0.003908     -0.001035     -0.001591
      0.00629      2.76877      0.06123         0.005040     -0.009317      0.000269
      4.92273      5.54553      0.03958        -0.000808     -0.002246     -0.003917
      1.27888      2.81512      9.63924        -0.000596      0.002311     -0.004053
      3.09094      5.56763      4.86505         0.000745      0.003631      0.004521
      5.55791      1.40747      4.91045        -0.001938      0.000524      0.001504
      0.64650      1.41234      4.83196        -0.002120      0.001522      0.003219
      0.65127      4.18292      4.85864        -0.002253      0.000773      0.003851
      5.54601      4.18596      4.84885        -0.001626     -0.000115      0.000140
      3.09636      2.80147      4.83308         0.000903      0.000093      0.004816
      8.00379      0.02830      4.80515        -0.001777     -0.000004      0.002800
     -1.79927      2.79629      4.88084        -0.001865      0.003924      0.004460
      4.75550      0.06585      3.92406        -0.003189      0.002136      0.000183
      1.42426      5.56998      5.85704         0.002106      0.000488      0.003054
      3.24970      0.03187      0.94125         0.005844     -0.001746     -0.002065
      2.94534      0.04908      8.67182        -0.002747      0.000243     -0.002009
      7.25445      1.45948      3.89691        -0.003182      0.002550      0.002683
     -1.05960      1.36666      5.80065         0.002704     -0.000172      0.005490
     -1.08996      4.22388      5.84588         0.002032      0.000112      0.004537
      7.26700      4.15050      3.89583        -0.002372      0.001302      0.003039
      0.75879      1.37417      0.98139         0.003101     -0.001220     -0.005501
      5.47441      1.44021      8.75618        -0.001940      0.001195     -0.005492
      5.48417      4.20114      8.75057        -0.004986      0.001057     -0.006370
      0.73857      4.16235      1.00639         0.000532     -0.001180     -0.002703
      4.78590      2.76345      3.91317        -0.005419      0.001881      0.001728
      1.45585      2.79156      5.80897         0.000709     -0.000079      0.004315
      3.25139      2.73228      0.94488         0.005359     -0.003046     -0.002242
      2.94833      2.81215      8.67252        -0.003061      0.000043     -0.001702
     -0.12539      5.56957      3.92649        -0.002637      0.002886      0.003697
      6.35717      5.52910      5.81400         0.000520      0.000001      0.002103
      8.13272      5.54186      0.93459         0.004727     -0.002370     -0.003933
     -1.93820      5.55019      8.74415        -0.003683      0.000124     -0.004949
      2.37788      1.41063      3.86399        -0.005465      0.001772      0.003043
      3.78886      1.41046      5.82946         0.003302     -0.000434      0.002743
      3.80030      4.17635      5.83351         0.003564      0.000445      0.003896
      2.35516      4.19312      3.89848        -0.004696      0.002725      0.001857
      5.63086      1.41991      0.97797         0.005422     -0.002946     -0.004423
      0.57006      1.39198      8.65707        -0.002999     -0.000804     -0.000017
      0.57692      4.24309      8.68185        -0.001129     -0.001145      0.000525
      5.67510      4.11841      0.96220         0.005586     -0.003158     -0.004634
     -0.14331      2.80597      3.93414        -0.003730      0.001615      0.003720
      6.34312      2.82715      5.82133        -0.000864     -0.001165      0.002029
      8.10127      2.77473      0.94757         0.005507     -0.001564     -0.005455
     -1.98182      2.85475      8.76823        -0.003253      0.000336     -0.005954
    total drift:                                0.020930      0.000518     -0.008013

  FREE ENERGIE OF THE ION-ELECTRON SYSTEM (eV)
  free  energy   TOTEN  =      -334.8186219777 eV

  energy  without entropy=     -334.8186091639  energy(sigma->0) =     -334.81861557

 d Force =-0.3654905E-04[-0.366E-04,-0.365E-04]  d Energy =-0.5415294E-04 0.176E-04
 d Force = 0.1622505E+00[ 0.162E+00, 0.162E+00]  d Ewald  = 0.1132359E+01-0.970E+00

 Quasi-Newton relaxation of ions (Broydens 2nd method)
  g(Force)  = 0.143E-03   g(Stress)= 0.135E-04

 retain information from N=  2 steps
 eigenvalues of (default step * inverse Hessian matrix)
  average eigenvalue of G=   3.9750
 eigenvalue spectrum of G is  0.0531  7.8970

volume of typ            1:     8.9 %

[...]

volume of typ            3:     9.9 %

total charge

# of ion       s       p       d       tot
    1        2.065   0.207   0.077   2.349
    2        2.079   0.236   0.089   2.404
    3        2.074   0.230   0.086   2.390
    4        2.070   0.211   0.080   2.362
    5        2.073   0.224   0.085   2.382
    6        2.066   0.203   0.076   2.345
    7        0.297   0.423   7.833   8.553
    8        0.284   0.388   7.857   8.528
    9        0.283   0.386   7.853   8.522
   10        0.284   0.390   7.852   8.526
   11        0.282   0.383   7.851   8.516
   12        0.298   0.425   7.834   8.558
   13        0.292   0.413   7.848   8.553
   14        0.292   0.412   7.847   8.551
   15        0.298   0.425   7.848   8.572
   16        0.280   0.383   7.847   8.510
   17        0.281   0.383   7.848   8.512
   18        0.282   0.384   7.850   8.515
   19        0.281   0.384   7.851   8.516
   20        0.298   0.426   7.846   8.570
   21        0.295   0.415   7.835   8.545
   22        0.296   0.417   7.838   8.551
   23        1.272   2.757   0.008   4.037
   24        1.259   2.791   0.006   4.056
   25        1.270   2.763   0.008   4.041
   26        1.260   2.792   0.007   4.059
   27        1.273   2.755   0.007   4.035
   28        1.270   2.765   0.007   4.043
   29        1.269   2.767   0.007   4.042
   30        1.272   2.758   0.007   4.037
   31        1.285   2.721   0.008   4.015
   32        1.283   2.732   0.008   4.023
   33        1.271   2.770   0.007   4.048
   34        1.286   2.720   0.008   4.014
   35        1.269   2.764   0.007   4.040
   36        1.262   2.782   0.007   4.052
   37        1.272   2.760   0.008   4.039
   38        1.259   2.793   0.007   4.059
   39        1.284   2.722   0.008   4.015
   40        1.270   2.762   0.008   4.040
   41        1.284   2.724   0.008   4.017
   42        1.264   2.781   0.007   4.052
   43        1.273   2.759   0.007   4.040
   44        1.271   2.767   0.007   4.045
   45        1.271   2.765   0.007   4.044
   46        1.284   2.725   0.008   4.018
   47        1.270   2.761   0.007   4.038
   48        1.268   2.768   0.006   4.042
   49        1.268   2.767   0.007   4.042
   50        1.274   2.750   0.007   4.032
   51        1.284   2.725   0.008   4.017
   52        1.268   2.771   0.007   4.046
   53        1.271   2.763   0.007   4.042
   54        1.271   2.761   0.008   4.040
tot          57.76   96.01  126.27  280.04

magnetization (x)

# of ion       s       p       d       tot
    1        0.004   0.005   0.000   0.009
    2        0.000   0.001   0.000   0.002
    3        0.004   0.005   0.000   0.009
    4       -0.000   0.000   0.000  -0.000
    5       -0.000  -0.000  -0.000  -0.001
    6       -0.000   0.000   0.000  -0.000
    7        0.000   0.000   0.019   0.019
    8       -0.001  -0.000  -0.288  -0.289
    9        0.001   0.000   0.316   0.316
   10       -0.001   0.000  -0.300  -0.300
   11        0.001   0.001   0.344   0.345
   12        0.000  -0.000   0.014   0.014
   13        0.000  -0.000   0.037   0.037
   14        0.000  -0.000   0.044   0.044
   15       -0.001   0.000  -0.051  -0.051
   16        0.001  -0.000   0.393   0.394
   17        0.001  -0.000   0.354   0.355
   18        0.001  -0.000   0.315   0.316
   19        0.001  -0.000   0.397   0.398
   20       -0.001   0.000  -0.057  -0.057
   21       -0.001   0.000  -0.065  -0.065
   22       -0.001   0.000  -0.057  -0.057
   23        0.001   0.004   0.000   0.006
   24        0.002   0.002   0.000   0.004
   25        0.001   0.001   0.000   0.002
   26        0.000   0.004   0.000   0.004
   27        0.003   0.048   0.000   0.052
   28        0.002   0.033   0.000   0.035
   29        0.002   0.018   0.000   0.020
   30        0.004   0.047   0.000   0.050
   31       -0.003  -0.043  -0.000  -0.046
   32        0.003   0.040   0.000   0.043
   33       -0.003  -0.022  -0.000  -0.025
   34        0.003   0.052   0.000   0.056
   35        0.001   0.005   0.000   0.006
   36        0.001  -0.002   0.000  -0.001
   37        0.001   0.001   0.000   0.002
   38        0.000   0.004   0.000   0.004
   39        0.001   0.007   0.000   0.008
   40        0.001   0.000   0.000   0.002
   41        0.000   0.002   0.000   0.002
   42        0.000   0.006   0.000   0.007
   43        0.003   0.027   0.000   0.031
   44        0.003   0.028   0.000   0.032
   45        0.003   0.029   0.000   0.032
   46        0.003   0.037   0.000   0.040
   47        0.004   0.029   0.000   0.032
   48       -0.002  -0.017  -0.000  -0.020
   49        0.003   0.027   0.000   0.031
   50       -0.003  -0.036  -0.000  -0.039
   51        0.001   0.005   0.000   0.007
   52        0.002   0.007   0.000   0.009
   53        0.000   0.002   0.000   0.003
   54        0.000   0.006   0.000   0.006
tot           0.05    0.36    1.42    1.83