 vasp.5.4.4.18Apr17-6-g9f103f2a35 (build May 12 2020 05:39:39) gamma-only

 MD_VERSION_INFO: Compiled 2020-05-12T12:39:39-UTC in devlin.sd.materialsdesign.
 com:/home/medea2/data/build/wwolf/vasp-gpu5.4.4/13047/x86_64/src/src/build/gam
 from svn 13047

 executed on                        Lin64 date 2023.03.06  23:46:34

 INCAR:
 POTCAR:    PAW_PBE Li_sv 10Sep2004
 POTCAR:    PAW_PBE Ni 02Aug2007
 POTCAR:    PAW_PBE O 08Apr2002

 POTCAR:    PAW_PBE Li_sv 10Sep2004

 POTCAR:    PAW_PBE Ni 02Aug2007

 POTCAR:    PAW_PBE O 08Apr2002

 Optimization of the real space projectors (new method)

 maximal supplied QI-value         = 22.11
 optimisation between [QCUT,QGAM] = [ 11.28, 22.77] = [ 35.61,145.23] Ry
 Optimized for a Real-space Cutoff    1.10 Angstroem

   l    n(q)    QCUT    max X(q) W(low)/X(q) W(high)/X(q)  e(spline)
   0      7    11.276    10.506    0.54E-04    0.58E-04    0.16E-07
   0      7    11.276     8.367    0.11E-03    0.14E-03    0.35E-07
   1      7    11.276     8.983    0.23E-03    0.43E-03    0.86E-07
 Optimization of the real space projectors (new method)

[...]

   l    n(q)    QCUT    max X(q) W(low)/X(q) W(high)/X(q)  e(spline)
   2      9    11.376    60.317    0.17E-03    0.16E-04    0.16E-06
   2      9    11.376    55.921    0.17E-03    0.16E-04    0.17E-06
   0     10    11.376    51.690    0.45E-04    0.60E-04    0.21E-06
   0     10    11.376    30.015    0.37E-04    0.55E-04    0.19E-06
   1     10    11.376    18.849    0.83E-04    0.11E-03    0.92E-07
   1     10    11.376    14.624    0.69E-04    0.92E-04    0.82E-07
 Optimization of the real space projectors (new method)

 maximal supplied QI-value         = 24.76
 optimisation between [QCUT,QGAM] = [ 11.39, 22.77] = [ 36.31,145.25] Ry
 Optimized for a Real-space Cutoff    1.10 Angstroem

   l    n(q)    QCUT    max X(q) W(low)/X(q) W(high)/X(q)  e(spline)
   0      7    11.387    20.381    0.22E-03    0.48E-03    0.18E-06
   0      7    11.387    15.268    0.22E-03    0.52E-03    0.19E-06
   1      7    11.387     5.964    0.22E-03    0.73E-03    0.24E-06
   1      7    11.387     5.382    0.19E-03    0.60E-03    0.21E-06

  PAW_PBE Li_sv 10Sep2004               :
  PAW_PBE Ni 02Aug2007                  :
  PAW_PBE O 08Apr2002                   :

 POSCAR: ce5605_1
  positions in direct lattice
 exchange correlation table for  LEXCH =       14
   RHO(1)=    0.500       N(1)  =     2000
   RHO(2)=  100.500       N(2)  =     4000

 ion  position               nearest neighbor table
   1  0.980  0.253  0.226-  39 2.01  44 2.02  36 2.14  51 2.16  12 2.79  23 2.80
   2  0.270  0.250  0.488-  48 2.06  42 2.06  40 2.13  52 2.13  30 2.20  28 2.28  25 2.79
   3  0.243  0.746  0.509-  49 2.03  31 2.05  29 2.08  43 2.08  41 2.13  53 2.23  14 2.76  20 2.80

   4  0.757  0.748  0.509-  50 2.05  31 2.06  43 2.09  29 2.09  54 2.13  41 2.15  15 2.75  20 2.81
                            23 2.84
   5  0.497  0.750  0.752-  37 2.09  57 2.10  49 2.11  38 2.11  50 2.13  43 2.17  14 2.84  21 2.84

   6  0.998  0.248  0.768-  46 2.04  35 2.09  32 2.11  55 2.20  52 2.23  26 2.78
   7  0.999  0.750  0.250-  34 2.09  33 2.10  53 2.10  29 2.11  47 2.11  54 2.12
   8  0.242  0.750  0.992-  37 2.00  45 2.06  57 2.11  47 2.11  33 2.14  59 2.19  21 2.77  12 2.82

   9  0.756  0.752  0.989-  38 2.03  45 2.05  57 2.09  47 2.10  59 2.16  34 2.21  24 2.80  12 2.81

  10  0.502  0.248  0.770-  58 2.02  35 2.07  32 2.09  55 2.20  52 2.24  27 2.78
  11  0.501  0.750  0.250-  34 2.09  59 2.10  33 2.10  53 2.11  41 2.12  54 2.12  27 2.84  19 2.84
                            23 2.85
  12  0.001  0.996  0.997-  39 1.83  36 1.85  37 1.86  38 1.88  46 2.01  47 2.06  17 2.78  17 2.78
                             1 2.79   9 2.81   8 2.82  14 2.85  15 2.86  13 2.87  16 2.88
  13  0.250  0.995  0.247-  42 1.85  30 1.85  59 1.86  47 1.88  36 1.96  53 2.03  16 2.77  16 2.78
                            17 2.85  12 2.87  18 2.87  19 2.88
  14  0.250  0.992  0.746-  46 1.83  58 1.84  31 1.85  43 1.86  37 2.09  52 2.17   3 2.76  15 2.77
                            15 2.79   5 2.84  12 2.85  19 2.86  18 2.87  17 2.88
  15  0.751  0.992  0.746-  46 1.84  58 1.85  31 1.87  43 1.88  55 2.00  38 2.01   4 2.75  14 2.77
                            14 2.79  18 2.86  12 2.86  19 2.86  17 2.88
  16  0.750  0.999  0.249-  42 1.85  30 1.85  59 1.86  47 1.87  39 2.01  54 2.14  13 2.77  13 2.78
                            17 2.85  18 2.87  19 2.87  12 2.88
  17  0.500  0.004  0.002-  39 1.84  37 1.84  36 1.86  38 1.86  58 2.01  59 2.08  12 2.78  12 2.78
                            13 2.85  16 2.85  15 2.88  14 2.88
  18  0.999  0.000  0.500-  52 1.86  54 1.86  55 1.87  53 1.89  31 1.96  30 1.98  19 2.77  19 2.78
                            15 2.86  14 2.87  16 2.87  13 2.87
  19  0.500  0.998  0.500-  52 1.86  54 1.86  55 1.87  53 1.89  42 1.95  43 2.01  18 2.77  18 2.78
                            11 2.84  14 2.86  15 2.86  16 2.87  13 2.88
  20  0.999  0.503  0.503-  51 1.84  48 1.84  50 1.86  49 1.87  28 2.03  29 2.06  25 2.77  25 2.79
                             3 2.80   4 2.81  24 2.84  21 2.86  23 2.88  22 2.88
  21  0.249  0.505  0.753-  28 1.84  40 1.85  45 1.87  57 1.87  32 2.00  49 2.02   8 2.77  24 2.77
                            24 2.79   5 2.84  20 2.86  26 2.87  27 2.87  25 2.88
  22  0.252  0.505  0.253-  56 1.83  44 1.85  41 1.86  29 1.88  48 2.05  33 2.08  23 2.76  23 2.79
                            25 2.85  27 2.86  26 2.87  20 2.88
  23  0.749  0.506  0.253-  56 1.84  44 1.85  41 1.86  29 1.88  51 1.97  34 2.04  22 2.76  22 2.79
                             1 2.80   4 2.84  11 2.85  25 2.85  27 2.86  26 2.86  20 2.88
  24  0.750  0.502  0.750-  28 1.85  40 1.87  57 1.87  45 1.87  35 1.99  50 2.03  21 2.77  21 2.79
                             9 2.80  20 2.84  25 2.87  27 2.88  26 2.88
  25  0.501  0.497  0.498-  50 1.85  51 1.85  49 1.86  48 1.86  40 2.02  41 2.07  20 2.77   2 2.79
                            20 2.79  22 2.85  23 2.85  24 2.87  21 2.88
  26  0.000  0.500  0.002-  32 1.87  35 1.87  34 1.88  33 1.89  44 1.97  45 1.97  27 2.78  27 2.78
                             6 2.78  23 2.86  21 2.87  22 2.87  24 2.88
  27  0.500  0.502  0.002-  35 1.86  32 1.87  33 1.88  34 1.88  56 1.94  57 2.05  26 2.78  26 2.78
                            10 2.78  11 2.84  23 2.86  22 2.86  21 2.87  24 2.88
  28  0.004  0.399  0.643-  21 1.84  24 1.85  20 2.03   2 2.28
  29  0.001  0.613  0.365-  22 1.88  23 1.88  20 2.06   3 2.08   4 2.09   7 2.11
  30  0.003  0.098  0.361-  13 1.85  16 1.85  18 1.98   2 2.20
  31  0.003  0.894  0.629-  14 1.85  15 1.87  18 1.96   3 2.05   4 2.06
  32  0.252  0.399  0.887-  27 1.87  26 1.87  21 2.00  10 2.09   6 2.11
  33  0.250  0.613  0.112-  27 1.88  26 1.89  22 2.08   7 2.10  11 2.10   8 2.14
  34  0.750  0.612  0.114-  27 1.88  26 1.88  23 2.04  11 2.09   7 2.09   9 2.21
  35  0.749  0.399  0.886-  27 1.86  26 1.87  24 1.99  10 2.07   6 2.09
  36  0.243  0.098  0.115-  12 1.85  17 1.86  13 1.96   1 2.14
  37  0.259  0.891  0.895-  17 1.84  12 1.86   8 2.00   5 2.09  14 2.09
  38  0.744  0.893  0.888-  17 1.86  12 1.88  15 2.01   9 2.03   5 2.11
  39  0.758  0.100  0.109-  12 1.83  17 1.84   1 2.01  16 2.01
  40  0.495  0.398  0.641-  21 1.85  24 1.87  25 2.02   2 2.13
  41  0.499  0.612  0.365-  22 1.86  23 1.86  25 2.07  11 2.12   3 2.13   4 2.15
  42  0.497  0.094  0.363-  16 1.85  13 1.85  19 1.95   2 2.06
  43  0.498  0.889  0.632-  14 1.86  15 1.88  19 2.01   3 2.08   4 2.09   5 2.17
  44  0.001  0.406  0.141-  22 1.85  23 1.85  26 1.97   1 2.02
  45  0.998  0.604  0.869-  21 1.87  24 1.87  26 1.97   9 2.05   8 2.06
  46  0.001  0.095  0.855-  14 1.83  15 1.84  12 2.01   6 2.04
  47  0.997  0.889  0.136-  16 1.87  13 1.88  12 2.06   9 2.10   7 2.11   8 2.11
  48  0.244  0.397  0.391-  20 1.84  25 1.86  22 2.05   2 2.06
  49  0.256  0.606  0.611-  25 1.86  20 1.87  21 2.02   3 2.03   5 2.11
  50  0.743  0.605  0.611-  25 1.85  20 1.86  24 2.03   4 2.05   5 2.13
  51  0.757  0.402  0.385-  20 1.84  25 1.85  23 1.97   1 2.16
  52  0.250  0.111  0.604-  18 1.86  19 1.86   2 2.13  14 2.17   6 2.23  10 2.24
  53  0.249  0.890  0.386-  19 1.89  18 1.89  13 2.03   7 2.10  11 2.11   3 2.23
  54  0.751  0.888  0.394-  19 1.86  18 1.86   7 2.12  11 2.12   4 2.13  16 2.14
  55  0.748  0.101  0.616-  19 1.87  18 1.87  15 2.00  10 2.20   6 2.20
  56  0.501  0.408  0.140-  22 1.83  23 1.84  27 1.94
  57  0.502  0.609  0.864-  24 1.87  21 1.87  27 2.05   9 2.09   5 2.10   8 2.11
  58  0.499  0.096  0.855-  14 1.84  15 1.85  17 2.01  10 2.02
  59  0.504  0.890  0.138-  16 1.86  13 1.86  17 2.08  11 2.10   9 2.16   8 2.19

  LATTYP: Found a triclinic cell.
 ALAT       =    11.4587689983
 B/A-ratio  =     0.4848645530
 C/A-ratio  =     0.8868824289
 COS(alpha) =     0.0009904166
 COS(beta)  =     0.3144989197
 COS(gamma) =     0.4842711458

  Lattice vectors:

 A1 = (  10.0235871011,  -5.5525099886,   0.0268590757)
 A2 = (  -0.0018509677,  -5.5559493667,  -0.0037012900)
 A3 = (   3.6763722506,  -0.0049783424,  -9.4742974652)

Analysis of symmetry for initial positions (statically):
 Subroutine PRICEL returns:
 Original cell was already a primitive cell.

 Routine SETGRP: Setting up the symmetry group for a
 triclinic supercell.

 Subroutine GETGRP returns: Found  1 space group operations
 (whereof  1 operations were pure point group operations)
 out of a pool of  2 trial point group operations.

The static configuration has the point symmetry C_1 .

Analysis of symmetry for dynamics (positions and initial velocities):
 Subroutine PRICEL returns:
 Original cell was already a primitive cell.

[...]

The dynamic configuration has the point symmetry C_1 .

Analysis of structural, dynamic, and magnetic symmetry:
 Subroutine PRICEL returns:
 Original cell was already a primitive cell.

 Routine SETGRP: Setting up the symmetry group for a
 triclinic supercell.

 Subroutine GETGRP returns: Found  1 space group operations
 (whereof  1 operations were pure point group operations)
 out of a pool of  2 trial point group operations.

The magnetic configuration has the point symmetry C_1 .

 Subroutine INISYM returns: Found  1 space group operations
 (whereof  1 operations are pure point group operations),
 and found     1 'primitive' translations

 KPOINTS: Automatic mesh

Automatic generation of k-mesh.
Space group operators:
 irot       det(A)        alpha          n_x          n_y          n_z        tau_x        tau_y        tau_z
    1     1.000000     0.000000     1.000000     0.000000     0.000000     0.000000     0.000000     0.000000

 Subroutine IBZKPT returns following result:

 Found      1 irreducible k-points:

 Following reciprocal coordinates:
            Coordinates               Weight
  0.000000  0.000000  0.000000      1.000000

 Following cartesian coordinates:
            Coordinates               Weight
  0.000000  0.000000  0.000000      1.000000

 SYSTEM =  unknown system
 POSCAR =  ce5605_1

 Startparameter for this run:
   NWRITE =      1    write-flag & timer
   PREC   = accura    normal or accurate (medium, high low for compatibility)
   ISTART =      0    job   : 0-new  1-cont  2-samecut
[...]
   0.110E+02 0.132E+02 -.131E+03   -.111E+02 -.134E+02 0.132E+03   0.106E+00 0.152E+00 -.818E+00   -.558E-01 0.103E-02 0.693E-03
   -.501E+01 -.120E+02 -.110E+03   0.444E+01 0.122E+02 0.111E+03   0.628E+00 -.221E+00 -.106E+01   -.577E-01 -.112E-02 0.200E-02
   -.249E+02 0.125E+02 0.831E+02   0.253E+02 -.126E+02 -.840E+02   -.345E+00 0.116E+00 0.891E+00   0.742E-02 -.739E-02 -.162E-01
   0.240E+02 0.126E+02 0.313E+02   -.243E+02 -.128E+02 -.318E+02   0.268E+00 0.164E+00 0.488E+00   -.228E-01 -.704E-03 -.957E-02
   -.716E+01 -.997E+01 0.161E+03   0.705E+01 0.101E+02 -.163E+03   0.876E-01 -.113E+00 0.163E+01   0.201E-01 0.385E-02 -.101E-02
   -.168E+00 0.104E+02 0.146E+03   0.407E+00 -.106E+02 -.148E+03   -.260E+00 0.166E+00 0.170E+01   0.192E-01 0.926E-03 -.946E-03
   0.448E+02 -.118E+02 0.706E+02   -.450E+02 0.119E+02 -.712E+02   0.224E+00 -.155E+00 0.655E+00   -.235E-01 0.506E-03 -.834E-02
   0.204E+02 -.146E+02 0.162E+03   -.202E+02 0.148E+02 -.164E+03   -.220E+00 -.209E+00 0.107E+01   0.895E-02 0.121E-01 -.163E-01
   -.340E+02 0.143E+01 0.156E+03   0.344E+02 -.138E+01 -.157E+03   -.392E+00 -.503E-01 0.101E+01   -.111E-01 -.893E-02 0.533E-02
   -.183E+02 -.140E+01 0.140E+03   0.193E+02 0.133E+01 -.142E+03   -.100E+01 0.585E-01 0.137E+01   -.947E-02 0.977E-02 0.445E-02
   0.489E+02 0.273E+02 0.352E+03   -.534E+02 -.288E+02 -.370E+03   0.448E+01 0.148E+01 0.185E+02   -.793E-02 -.110E-01 0.837E-02
   -.352E+02 -.209E+01 -.225E+03   0.382E+02 0.217E+01 0.237E+03   -.305E+01 -.647E-01 -.121E+02   0.581E-02 -.102E-01 -.172E-02
   -.251E+01 0.323E+02 -.381E+03   0.536E+01 -.340E+02 0.399E+03   -.282E+01 0.166E+01 -.188E+02   -.272E-01 -.343E-02 -.150E-01
   -.356E+02 -.321E+01 0.266E+03   0.351E+02 0.307E+01 -.281E+03   0.519E+00 0.135E+00 0.156E+02   -.211E-01 0.219E-02 -.265E-01
   -.310E+02 -.243E+01 0.363E+03   0.306E+02 0.264E+01 -.377E+03   0.421E+00 -.212E+00 0.143E+02   -.189E-01 -.161E-02 -.837E-02
   -.155E+02 0.845E+00 -.227E+03   0.181E+02 -.127E+01 0.238E+03   -.260E+01 0.428E+00 -.113E+02   0.687E-02 -.274E-02 0.239E-01
   -.834E+01 0.102E+01 -.229E+03   0.979E+01 -.998E+00 0.241E+03   -.147E+01 -.226E-01 -.117E+02   0.138E-01 0.171E-02 0.197E-01
   -.274E+02 0.299E+00 0.361E+03   0.272E+02 -.699E-01 -.375E+03   0.203E+00 -.231E+00 0.136E+02   -.251E-01 0.292E-02 -.299E-02
   0.125E+02 -.285E+02 -.399E+03   -.110E+02 0.304E+02 0.420E+03   -.152E+01 -.189E+01 -.208E+02   0.396E-01 0.263E-02 -.197E-02
   0.485E+02 0.280E+02 0.250E+03   -.537E+02 -.295E+02 -.265E+03   0.513E+01 0.150E+01 0.153E+02   0.241E-01 0.290E-02 -.105E-01
   0.319E+02 -.285E+02 0.254E+03   -.355E+02 0.300E+02 -.270E+03   0.353E+01 -.151E+01 0.153E+02   0.285E-01 -.229E-02 -.153E-01
   -.183E+01 0.312E+02 -.394E+03   0.412E+01 -.333E+02 0.413E+03   -.233E+01 0.212E+01 -.195E+02   0.423E-01 -.198E-02 -.327E-03
   0.421E+02 -.310E+02 0.354E+03   -.453E+02 0.328E+02 -.371E+03   0.321E+01 -.190E+01 0.171E+02   -.977E-02 0.113E-01 0.894E-02
   -.369E+02 0.258E+01 -.223E+03   0.410E+02 -.271E+01 0.236E+03   -.419E+01 0.120E+00 -.133E+02   0.689E-02 0.862E-02 -.264E-02
   0.217E+02 -.349E+02 -.388E+03   -.206E+02 0.371E+02 0.407E+03   -.101E+01 -.219E+01 -.194E+02   -.261E-01 0.422E-02 -.155E-01
   -.348E+01 0.300E+01 0.248E+03   0.185E+00 -.276E+01 -.261E+03   0.332E+01 -.237E+00 0.129E+02   -.212E-01 -.206E-02 -.256E-01
   0.339E+02 -.352E+01 0.401E+03   -.386E+02 0.374E+01 -.420E+03   0.462E+01 -.211E+00 0.198E+02   0.196E-01 -.103E-01 -.111E-01
   0.287E+02 0.350E+01 -.272E+03   -.283E+02 -.390E+01 0.287E+03   -.380E+00 0.404E+00 -.147E+02   -.178E-01 -.108E-01 -.193E-02
   -.719E+02 -.389E+01 -.370E+03   0.780E+02 0.364E+01 0.389E+03   -.609E+01 0.248E+00 -.196E+02   0.134E-01 0.196E-02 0.244E-01
   0.365E+02 0.710E+01 0.231E+03   -.396E+02 -.773E+01 -.243E+03   0.307E+01 0.635E+00 0.121E+02   0.265E-01 -.234E-02 0.266E-01
   0.554E+02 -.205E+02 0.371E+03   -.610E+02 0.216E+02 -.388E+03   0.559E+01 -.107E+01 0.173E+02   0.119E-01 0.886E-03 -.116E-01
   -.342E+02 0.301E+02 -.268E+03   0.381E+02 -.319E+02 0.283E+03   -.394E+01 0.179E+01 -.155E+02   -.745E-03 0.106E-02 -.117E-01
   -.387E+02 -.288E+02 -.263E+03   0.429E+02 0.305E+02 0.279E+03   -.417E+01 -.163E+01 -.162E+02   0.622E-02 -.226E-02 -.168E-01
   0.156E+02 0.238E+02 0.393E+03   -.174E+02 -.253E+02 -.414E+03   0.176E+01 0.149E+01 0.205E+02   0.658E-02 -.317E-02 -.639E-02
   -.402E+02 0.645E+00 -.340E+03   0.441E+02 -.662E+00 0.354E+03   -.387E+01 0.154E-01 -.142E+02   -.302E-01 0.208E-02 0.148E-01
   0.622E+01 -.713E+00 0.241E+03   -.725E+01 0.706E+00 -.253E+03   0.107E+01 0.461E-02 0.118E+02   -.343E-01 0.221E-02 0.988E-02
   0.305E+02 -.788E+00 0.232E+03   -.336E+02 0.100E+01 -.245E+03   0.312E+01 -.211E+00 0.126E+02   -.348E-01 -.162E-02 0.479E-02
   0.651E+01 0.156E+01 -.362E+03   -.702E+01 -.194E+01 0.379E+03   0.563E+00 0.377E+00 -.162E+02   -.355E-01 -.248E-02 0.193E-01
   0.551E+01 0.127E+01 0.431E+03   -.739E+01 -.108E+01 -.455E+03   0.186E+01 -.198E+00 0.248E+02   0.217E-01 0.960E-02 -.122E-01
   -.768E+01 -.307E+01 -.253E+03   0.112E+02 0.326E+01 0.265E+03   -.346E+01 -.196E+00 -.124E+02   -.193E-01 0.105E-01 -.158E-02
   -.730E+02 0.527E+01 -.378E+03   0.789E+02 -.519E+01 0.397E+03   -.588E+01 -.732E-01 -.190E+02   0.145E-01 -.178E-02 0.228E-01
   0.413E+02 -.643E+01 0.227E+03   -.457E+02 0.680E+01 -.241E+03   0.432E+01 -.375E+00 0.135E+02   0.259E-01 0.416E-02 0.282E-01
   0.126E+00 -.234E+00 -.182E+00   0.568E-13 -.115E-12 0.853E-13   -.115E+00 0.243E+00 0.139E+00   -.806E-02 0.361E-02 0.271E-01

 POSITION                                       TOTAL-FORCE (eV/Angst)
      1.32581      5.45215      2.40985        -0.012637     -0.007868      0.002963
      3.96324      1.50783      2.38110        -0.007390      0.002250     -0.004195
      2.35021      1.36354      7.10295        -0.004190      0.000382      0.004283
      2.33806      4.21220      7.12030        -0.008452     -0.002463      0.004321
      4.76718      2.76760      7.13781        -0.007129     -0.003731     -0.001479
      6.76250      5.55779      2.38066        -0.019565     -0.002457     -0.001598
     -0.23881      5.56471      7.13244         0.004100      0.001495      0.003877
      7.18009      1.36115      7.14883         0.009083      0.005901     -0.001110
      7.14902      4.21521      7.16352         0.005969     -0.001175     -0.003525
      6.78536      2.80154      2.38152        -0.011162      0.000495     -0.001956
     -0.24448      2.79126      7.13315         0.005609     -0.000991      0.002626
      6.31759      0.01492      9.48137         0.000509     -0.000115     -0.003434
     -1.17374      1.39627      9.44131         0.001586     -0.002575      0.000984
      3.83155      1.39674      9.44292         0.005046     -0.000091      0.000449
      3.83088      4.18573      9.44472         0.006074     -0.000471      0.001131
     -1.16530      4.17575      9.48407         0.000621     -0.000698      0.000820
      0.00888      2.78457      0.03804        -0.000704     -0.002740     -0.004591
      5.00019      5.56316      0.02467         0.002820     -0.000781     -0.000255
      1.33861      2.78948      9.49007         0.002951      0.000669      0.000275
      3.18701      5.56707      4.78460        -0.002007      0.001562     -0.002785
      5.67572      1.39266      4.80917        -0.000288      0.000848     -0.005273
      0.67535      1.40451      4.79878        -0.002618      0.002248      0.003497
      0.67110      4.17478      4.81649        -0.002103      0.001007      0.004911
      5.66439      4.18213      4.78481        -0.000681     -0.000612     -0.004666
      3.16513      2.79347      4.72838        -0.001681      0.002545     -0.003440
     -1.81852      0.00230      4.74749        -0.000759      0.000173      0.002691
     -1.81870      2.78434      4.76390        -0.000270     -0.000868      0.003159
      4.96744      0.02838      3.80195         0.002547      0.000259     -0.004221
      1.40085      0.01338      5.82622        -0.001560      0.002192      0.002427
      3.24497      0.01748      0.93541         0.001981     -0.000479     -0.001977
      3.01749      0.02363      8.50674         0.007183      0.000497      0.002012
      7.39817      1.40286      3.81173         0.000923     -0.000880     -0.000491
     -1.12577      1.39588      5.81793        -0.002921      0.001159      0.003570
     -1.10178      4.18046      5.81185        -0.006560      0.001070      0.002738
      7.39262      4.17250      3.81784        -0.003564      0.000083     -0.000505
      0.80256      1.34977      0.92921         0.001638     -0.001882     -0.000673
      5.68367      1.45060      8.47933         0.002944     -0.000972     -0.002726
      5.59291      4.14550      8.51399         0.002117     -0.001182     -0.001643
      0.72473      4.21568      0.95157         0.002167     -0.001203     -0.000115
      4.96452      2.76180      3.79023         0.002336     -0.000235     -0.004186
      1.40359      2.78276      5.81963        -0.000426      0.003505      0.002737
      3.27962      2.76530      0.91494        -0.000737     -0.001538     -0.001354
      3.07764      2.77954      8.44957         0.009346      0.000023      0.000791
     -0.07693      0.00734      3.85540        -0.005828      0.002046      0.005408
      6.47563      5.55872      5.75805        -0.000011     -0.000050     -0.004516
      8.21352      0.01323      0.92887         0.008409      0.000031      0.001814
     -1.89664      5.55131      8.43605        -0.002424     -0.002826      0.004374
      2.44360      1.36090      3.78290        -0.004525      0.002920      0.001634
      3.90419      1.43479      5.75637         0.002784      0.002117     -0.006228
      3.90534      4.14366      5.75134         0.004152      0.002110     -0.007751
      2.37219      4.21669      3.83520        -0.004508      0.002262      0.001544
      5.64466      1.39906      1.06497         0.007081      0.000352      0.000667
      0.57820      1.38970      8.45558         0.001461     -0.000461     -0.000701
      0.68489      4.17961      8.43763         0.000368     -0.000479      0.004049
      5.82005      4.17138      0.98622         0.011483      0.000372      0.000450
     -0.09842      2.79080      3.88076        -0.003825      0.001846      0.004852
      6.40420      2.79993      5.80917        -0.000069     -0.000155     -0.004788
      8.20768      2.78081      0.93470         0.008585     -0.000964      0.002060
     -1.88952      2.80839      8.45500        -0.003279     -0.001476      0.003066
    total drift:                                0.002041      0.012673     -0.016591

  FREE ENERGIE OF THE ION-ELECTRON SYSTEM (eV)
  free  energy   TOTEN  =      -359.0980251608 eV

  energy  without entropy=     -359.0734842981  energy(sigma->0) =     -359.08575473

 d Force = 0.8780061E-05[ 0.806E-05, 0.950E-05]  d Energy = 0.4276859E-05 0.450E-05
 d Force = 0.6771135E-01[ 0.677E-01, 0.677E-01]  d Ewald  =-0.4516752E+00 0.519E+00

 Quasi-Newton relaxation of ions (Broydens 2nd method)
  g(Force)  = 0.129E-03   g(Stress)= 0.242E-04

 retain information from N=  2 steps
 eigenvalues of (default step * inverse Hessian matrix)
  average eigenvalue of G=   0.6481
 eigenvalue spectrum of G is  0.4695  0.8267

 reached required accuracy - stopping structural energy minimisation

volume of typ            1:    16.2 %

[...]

volume of typ            3:     9.9 %

total charge

# of ion       s       p       d       tot
    1        2.067   0.216   0.080   2.364
    2        2.071   0.223   0.083   2.377
    3        2.087   0.259   0.100   2.446
    4        2.086   0.263   0.101   2.450
    5        2.080   0.249   0.094   2.423
    6        2.068   0.224   0.079   2.371
    7        2.085   0.268   0.100   2.452
    8        2.087   0.266   0.101   2.455
    9        2.085   0.255   0.097   2.438
   10        2.071   0.231   0.082   2.384
   11        2.083   0.264   0.098   2.445
   12        0.276   0.375   7.853   8.504
   13        0.280   0.382   7.862   8.525
   14        0.274   0.361   7.882   8.518
   15        0.279   0.380   7.861   8.520
   16        0.270   0.357   7.872   8.498
   17        0.275   0.372   7.847   8.493
   18        0.272   0.370   7.855   8.497
   19        0.271   0.365   7.859   8.495
   20        0.274   0.368   7.862   8.504
   21        0.279   0.380   7.864   8.523
   22        0.274   0.367   7.864   8.505
   23        0.279   0.379   7.864   8.522
   24        0.273   0.370   7.855   8.498
   25        0.274   0.368   7.861   8.503
   26        0.271   0.367   7.856   8.495
   27        0.271   0.364   7.860   8.495
   28        1.268   2.761   0.007   4.036
   29        1.254   2.804   0.006   4.064
   30        1.267   2.764   0.007   4.038
   31        1.258   2.796   0.007   4.060
   32        1.264   2.778   0.006   4.048
   33        1.258   2.796   0.005   4.059
   34        1.259   2.795   0.006   4.059
   35        1.264   2.781   0.006   4.051
   36        1.270   2.754   0.007   4.031
   37        1.260   2.791   0.006   4.057
   38        1.260   2.786   0.006   4.053
   39        1.268   2.766   0.007   4.041
   40        1.267   2.765   0.007   4.038
   41        1.255   2.802   0.006   4.063
   42        1.270   2.761   0.007   4.038
   43        1.253   2.807   0.006   4.066
   44        1.268   2.765   0.007   4.041
   45        1.260   2.791   0.006   4.057
   46        1.270   2.758   0.007   4.036
   47        1.256   2.800   0.006   4.061
   48        1.263   2.773   0.007   4.043
   49        1.259   2.789   0.006   4.054
   50        1.260   2.787   0.007   4.053
   51        1.270   2.756   0.007   4.033
   52        1.261   2.781   0.006   4.048
   53        1.259   2.793   0.006   4.057
   54        1.257   2.798   0.006   4.061
   55        1.265   2.768   0.006   4.040
   56        1.280   2.730   0.008   4.018
   57        1.255   2.803   0.006   4.064
   58        1.270   2.760   0.007   4.037
   59        1.256   2.797   0.006   4.060
tot          67.67   97.60  127.00  292.26

magnetization (x)

# of ion       s       p       d       tot
    1        0.004   0.005   0.000   0.009
    2        0.002   0.004  -0.000   0.006
    3        0.000   0.002  -0.000   0.002
    4        0.002   0.006   0.000   0.008
    5        0.005   0.007  -0.000   0.012
    6        0.005   0.013   0.000   0.019
    7        0.006   0.016  -0.000   0.021
    8        0.001   0.004  -0.001   0.004
    9       -0.001   0.002  -0.000   0.001
   10        0.005   0.014   0.000   0.019
   11        0.006   0.015  -0.000   0.021
   12        0.004   0.000   0.511   0.515
   13       -0.001  -0.000  -0.288  -0.290
   14       -0.006   0.000  -0.592  -0.598
   15       -0.002   0.000  -0.361  -0.362
   16        0.001   0.001   0.458   0.459
   17        0.004   0.000   0.538   0.542
   18        0.001  -0.000   0.478   0.478
   19        0.001   0.000   0.532   0.534
   20        0.003   0.000   0.540   0.544
   21        0.001  -0.000   0.414   0.414
   22        0.003   0.000   0.523   0.526
   23        0.000   0.000   0.345   0.345
   24        0.000  -0.000   0.400   0.400
   25        0.003  -0.000   0.546   0.549
   26       -0.000  -0.000   0.517   0.517
   27       -0.000   0.000   0.517   0.517
   28        0.007   0.068   0.000   0.076
   29        0.007   0.053   0.000   0.060
   30        0.004   0.024   0.000   0.028
   31        0.002   0.017   0.000   0.019
   32        0.011   0.072   0.000   0.083
   33        0.012   0.078   0.000   0.090
   34        0.010   0.046   0.000   0.056
   35        0.011   0.069   0.000   0.080
   36       -0.001  -0.025  -0.000  -0.026
   37       -0.004  -0.082  -0.000  -0.087
   38       -0.000  -0.005  -0.000  -0.005
   39        0.007   0.101   0.000   0.108
   40        0.008   0.075   0.000   0.083
   41        0.006   0.054   0.000   0.061
   42        0.005   0.058   0.000   0.063
   43        0.002   0.011   0.000   0.013
   44        0.005   0.036   0.000   0.041
   45        0.007   0.040   0.000   0.046
   46        0.004   0.037   0.000   0.041
   47        0.006   0.049   0.000   0.055
   48        0.007   0.070   0.000   0.077
   49        0.006   0.043   0.000   0.050
   50        0.005   0.034   0.000   0.039
   51        0.006   0.061   0.000   0.067
   52       -0.001  -0.075  -0.000  -0.076
   53        0.004   0.009   0.000   0.013
   54        0.009   0.062   0.000   0.071
   55        0.003  -0.017   0.000  -0.015
   56        0.005   0.060   0.000   0.065
   57        0.006   0.022   0.000   0.028
   58        0.004   0.039   0.000   0.043
   59        0.005   0.044   0.000   0.050
tot           0.21    1.22    5.08    6.51