 vasp.5.4.4.18Apr17-6-g9f103f2a35 (build May 12 2020 05:39:39) gamma-only

 MD_VERSION_INFO: Compiled 2020-05-12T12:39:39-UTC in devlin.sd.materialsdesign.
 com:/home/medea2/data/build/wwolf/vasp-gpu5.4.4/13047/x86_64/src/src/build/gam
 from svn 13047

 executed on                        Lin64 date 2023.03.06  23:46:33

 INCAR:
 POTCAR:    PAW_PBE Li_sv 10Sep2004
 POTCAR:    PAW_PBE Ni 02Aug2007
 POTCAR:    PAW_PBE O 08Apr2002

 POTCAR:    PAW_PBE Li_sv 10Sep2004

 POTCAR:    PAW_PBE Ni 02Aug2007

 POTCAR:    PAW_PBE O 08Apr2002

 Optimization of the real space projectors (new method)

 maximal supplied QI-value         = 22.11
 optimisation between [QCUT,QGAM] = [ 11.28, 22.77] = [ 35.61,145.23] Ry
 Optimized for a Real-space Cutoff    1.10 Angstroem

   l    n(q)    QCUT    max X(q) W(low)/X(q) W(high)/X(q)  e(spline)
   0      7    11.276    10.506    0.54E-04    0.58E-04    0.16E-07
   0      7    11.276     8.367    0.11E-03    0.14E-03    0.35E-07
   1      7    11.276     8.983    0.23E-03    0.43E-03    0.86E-07
 Optimization of the real space projectors (new method)

[...]

   l    n(q)    QCUT    max X(q) W(low)/X(q) W(high)/X(q)  e(spline)
   2      9    11.376    60.317    0.17E-03    0.16E-04    0.16E-06
   2      9    11.376    55.921    0.17E-03    0.16E-04    0.17E-06
   0     10    11.376    51.690    0.45E-04    0.60E-04    0.21E-06
   0     10    11.376    30.015    0.37E-04    0.55E-04    0.19E-06
   1     10    11.376    18.849    0.83E-04    0.11E-03    0.92E-07
   1     10    11.376    14.624    0.69E-04    0.92E-04    0.82E-07
 Optimization of the real space projectors (new method)

 maximal supplied QI-value         = 24.76
 optimisation between [QCUT,QGAM] = [ 11.39, 22.77] = [ 36.31,145.25] Ry
 Optimized for a Real-space Cutoff    1.10 Angstroem

   l    n(q)    QCUT    max X(q) W(low)/X(q) W(high)/X(q)  e(spline)
   0      7    11.387    20.381    0.22E-03    0.48E-03    0.18E-06
   0      7    11.387    15.268    0.22E-03    0.52E-03    0.19E-06
   1      7    11.387     5.964    0.22E-03    0.73E-03    0.24E-06
   1      7    11.387     5.382    0.19E-03    0.60E-03    0.21E-06

  PAW_PBE Li_sv 10Sep2004               :
  PAW_PBE Ni 02Aug2007                  :
  PAW_PBE O 08Apr2002                   :

 POSCAR: ce13426_1
  positions in direct lattice
 exchange correlation table for  LEXCH =       14
   RHO(1)=    0.500       N(1)  =     2000
   RHO(2)=  100.500       N(2)  =     4000

 ion  position               nearest neighbor table
   1  0.249  0.250  0.478-  44 1.97  38 2.06  26 2.07  24 2.22  36 2.24  48 2.25   9 2.72
   2  0.250  0.749  0.498-  45 2.10  27 2.13  39 2.13  25 2.14  37 2.14  49 2.16  10 2.83
   3  0.750  0.749  0.498-  46 2.09  39 2.13  27 2.13  25 2.14  50 2.14  37 2.14  11 2.84
   4  0.750  0.251  0.473-  47 1.96  38 2.04  26 2.04  24 2.23  36 2.23  12 2.74  21 2.83  16 2.84

   5  1.000  0.246  0.784-  42 1.96  31 2.03  28 2.03  48 2.23  51 2.24  22 2.68
   6  0.251  0.748  0.996-  33 2.08  53 2.12  41 2.13  29 2.14  43 2.18  55 2.18  17 2.85
   7  0.500  0.246  0.784-  54 1.95  28 2.02  31 2.03  51 2.24  48 2.24  23 2.68  11 2.84
   8  0.000  0.003  0.003-  35 1.83  34 1.84  32 1.84  33 1.84  43 1.90  42 1.92  13 2.78  13 2.78
                            12 2.80   9 2.80  10 2.83  11 2.83
   9  0.250  0.004  0.251-  43 1.84  55 1.84  38 1.87  26 1.87  32 1.94  49 2.01   1 2.72  12 2.78
                            12 2.78   8 2.80  13 2.81  15 2.85  14 2.85
  10  0.250  0.992  0.749-  42 1.85  54 1.85  27 1.86  39 1.86  33 2.00  48 2.10  11 2.78  11 2.78
                             2 2.83   8 2.83  13 2.83  14 2.83  15 2.84
  11  0.750  0.993  0.749-  42 1.85  54 1.85  39 1.87  27 1.87  34 1.95  51 2.05  10 2.78  10 2.78
                            13 2.83   8 2.83  15 2.83  14 2.84   3 2.84   7 2.84
  12  0.750  1.000  0.248-  55 1.85  43 1.86  26 1.87  38 1.88  35 1.95  50 2.01   4 2.74   9 2.78
                             9 2.78  13 2.80   8 2.80  14 2.85  15 2.86
  13  0.501  0.003  0.003-  35 1.84  34 1.84  32 1.84  33 1.85  55 1.91  54 1.93   8 2.78   8 2.78
                            12 2.80   9 2.81  11 2.83  10 2.83
  14  1.000  0.005  0.503-  50 1.85  49 1.85  51 1.86  48 1.87  27 1.93  26 1.94  15 2.78  15 2.78
                            10 2.83  11 2.84   9 2.85  12 2.85
  15  0.500  0.005  0.504-  49 1.84  50 1.85  51 1.86  48 1.87  39 1.93  38 1.93  14 2.78  14 2.78
                            11 2.83  10 2.84   9 2.85  12 2.86
  16  0.000  0.501  0.498-  45 1.84  44 1.84  46 1.84  47 1.85  25 1.90  24 1.93  21 2.78  21 2.78
                            18 2.82  17 2.82  19 2.83  20 2.83   4 2.84
  17  0.250  0.500  0.747-  41 1.84  53 1.85  36 1.87  24 1.88  28 2.01  45 2.02  20 2.78  20 2.78
                            16 2.82  21 2.83   6 2.85  23 2.85  22 2.85
  18  0.250  0.499  0.248-  40 1.84  52 1.84  37 1.87  25 1.87  29 2.01  44 2.02  19 2.78  19 2.78
                            23 2.82  22 2.82  21 2.82  16 2.82
  19  0.750  0.498  0.247-  40 1.84  52 1.84  37 1.87  25 1.88  30 1.93  47 1.98  18 2.78  18 2.78
                            23 2.81  22 2.81  16 2.83  21 2.83
  20  0.750  0.505  0.749-  41 1.85  53 1.86  36 1.88  24 1.89  46 2.02  31 2.02  17 2.78  17 2.78
                            21 2.83  16 2.83  22 2.84  23 2.85
  21  0.500  0.501  0.498-  45 1.84  44 1.84  46 1.84  47 1.85  37 1.91  36 1.93  16 2.78  16 2.78
                            18 2.82  20 2.83  17 2.83  19 2.83   4 2.83
  22  1.000  0.495  0.998-  30 1.84  29 1.84  31 1.86  28 1.87  40 1.90  41 1.93   5 2.68  23 2.78
                            23 2.78  19 2.81  18 2.82  20 2.84  17 2.85
  23  0.500  0.495  0.998-  30 1.84  29 1.84  31 1.87  28 1.87  52 1.90  53 1.92   7 2.68  22 2.78
                            22 2.78  19 2.81  18 2.82  20 2.85  17 2.85
  24  0.998  0.399  0.630-  17 1.88  20 1.89  16 1.93   1 2.22   4 2.23
  25  0.001  0.599  0.366-  18 1.87  19 1.88  16 1.90   2 2.14   3 2.14
  26  0.997  0.103  0.366-  12 1.87   9 1.87  14 1.94   4 2.04   1 2.07
  27  0.000  0.897  0.630-  10 1.86  11 1.87  14 1.93   2 2.13   3 2.13
  28  0.250  0.393  0.884-  22 1.87  23 1.87  17 2.01   7 2.02   5 2.03
  29  0.250  0.599  0.105-  22 1.84  23 1.84  18 2.01   6 2.14
  30  0.750  0.594  0.110-  22 1.84  23 1.84  19 1.93
  31  0.750  0.393  0.883-  22 1.86  23 1.87  20 2.02   5 2.03   7 2.03
  32  0.250  0.103  0.114-   8 1.84  13 1.84   9 1.94
  33  0.250  0.898  0.897-   8 1.84  13 1.85  10 2.00   6 2.08
  34  0.751  0.901  0.893-   8 1.84  13 1.84  11 1.95
  35  0.751  0.102  0.114-   8 1.83  13 1.84  12 1.95
  36  0.503  0.400  0.631-  17 1.87  20 1.88  21 1.93   4 2.23   1 2.24
  37  0.500  0.599  0.365-  18 1.87  19 1.87  21 1.91   2 2.14   3 2.14
  38  0.502  0.103  0.367-   9 1.87  12 1.88  15 1.93   4 2.04   1 2.06
  39  0.500  0.897  0.630-  10 1.86  11 1.87  15 1.93   2 2.13   3 2.13
  40  0.001  0.401  0.135-  18 1.84  19 1.84  22 1.90
  41  0.004  0.597  0.866-  17 1.84  20 1.85  22 1.93   6 2.13
  42  0.000  0.093  0.861-  10 1.85  11 1.85   8 1.92   5 1.96
  43  0.006  0.904  0.135-   9 1.84  12 1.86   8 1.90   6 2.18
  44  0.251  0.397  0.391-  21 1.84  16 1.84   1 1.97  18 2.02
  45  0.250  0.604  0.606-  21 1.84  16 1.84  17 2.02   2 2.10
  46  0.750  0.605  0.606-  16 1.84  21 1.84  20 2.02   3 2.09
  47  0.750  0.399  0.388-  21 1.85  16 1.85   4 1.96  19 1.98
  48  0.249  0.112  0.614-  14 1.87  15 1.87  10 2.10   5 2.23   7 2.24   1 2.25
  49  0.250  0.903  0.394-  15 1.84  14 1.85   9 2.01   2 2.16
  50  0.750  0.902  0.394-  14 1.85  15 1.85  12 2.01   3 2.14
  51  0.750  0.109  0.616-  15 1.86  14 1.86  11 2.05   5 2.24   7 2.24
  52  0.499  0.401  0.134-  18 1.84  19 1.84  23 1.90
  53  0.495  0.597  0.867-  17 1.85  20 1.86  23 1.92   6 2.12
  54  0.499  0.094  0.861-  10 1.85  11 1.85  13 1.93   7 1.95
  55  0.496  0.904  0.136-   9 1.84  12 1.85  13 1.91   6 2.18

  LATTYP: Found a triclinic cell.
 ALAT       =    15.0930635144
 B/A-ratio  =     0.3684039949
 C/A-ratio  =     0.7588560185
 COS(alpha) =     0.0006475409
 COS(beta)  =     0.3993677313
 COS(gamma) =     0.7378072732

  Lattice vectors:

 A1 = (   3.5966149322, -11.1282185830,  -9.5408426487)
 A2 = (   0.0022022694,  -5.5603433095,  -0.0035737638)
 A3 = (  -6.2598506142,  -0.0037312525,  -9.5914571416)

Analysis of symmetry for initial positions (statically):
 Subroutine PRICEL returns:
 Original cell was already a primitive cell.

 Routine SETGRP: Setting up the symmetry group for a
 triclinic supercell.

 Subroutine GETGRP returns: Found  1 space group operations
 (whereof  1 operations were pure point group operations)
 out of a pool of  2 trial point group operations.

The static configuration has the point symmetry C_1 .

Analysis of symmetry for dynamics (positions and initial velocities):
 Subroutine PRICEL returns:
 Original cell was already a primitive cell.

[...]

The dynamic configuration has the point symmetry C_1 .

Analysis of structural, dynamic, and magnetic symmetry:
 Subroutine PRICEL returns:
 Original cell was already a primitive cell.

 Routine SETGRP: Setting up the symmetry group for a
 triclinic supercell.

 Subroutine GETGRP returns: Found  1 space group operations
 (whereof  1 operations were pure point group operations)
 out of a pool of  2 trial point group operations.

The magnetic configuration has the point symmetry C_1 .

 Subroutine INISYM returns: Found  1 space group operations
 (whereof  1 operations are pure point group operations),
 and found     1 'primitive' translations

 KPOINTS: Automatic mesh

Automatic generation of k-mesh.
Space group operators:
 irot       det(A)        alpha          n_x          n_y          n_z        tau_x        tau_y        tau_z
    1     1.000000     0.000000     1.000000     0.000000     0.000000     0.000000     0.000000     0.000000

 Subroutine IBZKPT returns following result:

 Found      1 irreducible k-points:

 Following reciprocal coordinates:
            Coordinates               Weight
  0.000000  0.000000  0.000000      1.000000

 Following cartesian coordinates:
            Coordinates               Weight
  0.000000  0.000000  0.000000      1.000000

 SYSTEM =  unknown system
 POSCAR =  ce13426_1

 Startparameter for this run:
   NWRITE =      1    write-flag & timer
   PREC   = accura    normal or accurate (medium, high low for compatibility)
   ISTART =      0    job   : 0-new  1-cont  2-samecut
   ICHARG =      2    charge: 1-file 2-atom 10-const
   ISPIN  =      2    spin polarized calculation?
   LNONCOLLINEAR =      F non collinear calculations
   LSORBIT =      F    spin-orbit coupling
   INIWAV =      1    electr: 0-lowe 1-rand  2-diag
   LASPH  =      F    aspherical Exc in radial PAW
   METAGGA=      F    non-selfconsistent MetaGGA calc.

 Electronic Relaxation 1
   ENCUT  =  500.0 eV  36.75 Ry    6.06 a.u.  10.14 18.58 17.96*2*pi/ulx,y,z
   ENINI  =  500.0     initial cutoff
   ENAUG  =  628.9 eV  augmentation charge cutoff
   NELM   =     80;   NELMIN=  2; NELMDL= -5     # of ELM steps
   EDIFF  = 0.1E-04   stopping-criterion for ELM
   LREAL  =      T    real-space projection
[...]
   0.171E+02 0.137E+02 -.266E+02   -.178E+02 -.138E+02 0.272E+02   0.757E+00 0.817E-01 -.549E+00   -.313E-03 0.558E-02 -.314E-02
   0.148E+02 0.698E-02 0.396E+02   -.152E+02 -.240E-02 -.398E+02   0.389E+00 -.188E-02 0.205E+00   0.910E-03 -.338E-02 -.688E-02
   -.644E+02 -.496E-02 0.697E+02   0.664E+02 0.102E-01 -.707E+02   -.196E+01 -.191E-02 0.980E+00   0.180E-02 -.359E-02 0.103E-02
   -.624E+02 -.811E-01 0.674E+02   0.644E+02 0.786E-01 -.685E+02   -.199E+01 -.737E-03 0.111E+01   0.207E-02 0.364E-02 0.127E-02
   0.319E+02 -.319E-01 0.895E+02   -.322E+02 0.281E-01 -.902E+02   0.358E+00 0.386E-03 0.695E+00   -.420E-03 0.330E-02 -.694E-02
   0.171E+02 -.137E+02 -.268E+02   -.178E+02 0.138E+02 0.273E+02   0.757E+00 -.815E-01 -.552E+00   -.497E-03 -.567E-02 -.328E-02
   0.210E+02 0.797E+00 0.255E+02   -.213E+02 -.768E+00 -.259E+02   0.380E+00 -.348E-01 0.414E+00   -.569E-02 0.664E-02 -.560E-02
   0.210E+02 -.765E+00 0.256E+02   -.213E+02 0.736E+00 -.260E+02   0.382E+00 0.350E-01 0.412E+00   -.571E-02 -.662E-02 -.585E-02
   -.496E+01 -.187E-01 -.178E+02   0.528E+01 0.857E-02 0.183E+02   -.342E+00 -.422E-02 -.460E+00   0.140E-01 0.138E-01 -.101E-02
   -.282E+01 0.208E-01 -.755E+02   0.289E+01 -.207E-01 0.766E+02   -.937E-01 -.315E-03 -.110E+01   0.998E-02 0.765E-03 0.414E-02
   0.469E+02 0.184E-01 0.182E+02   -.475E+02 -.196E-01 -.193E+02   0.601E+00 0.754E-03 0.108E+01   -.690E-02 0.514E-03 0.213E-02
   0.417E+02 -.426E-01 0.203E+02   -.422E+02 0.437E-01 -.213E+02   0.504E+00 -.238E-03 0.972E+00   -.616E-02 -.547E-03 0.160E-02
   -.245E+02 0.143E-01 -.129E+03   0.246E+02 -.146E-01 0.130E+03   -.123E+00 0.941E-03 -.159E+01   0.912E-02 -.682E-03 0.354E-02
   -.494E+01 0.417E-01 -.179E+02   0.526E+01 -.327E-01 0.183E+02   -.344E+00 0.642E-02 -.461E+00   0.142E-01 -.138E-01 -.824E-03
   -.283E+02 0.134E+02 -.288E+02   0.286E+02 -.136E+02 0.293E+02   -.339E+00 0.104E+00 -.499E+00   -.103E-01 0.149E-01 0.334E-02
   -.283E+02 -.134E+02 -.286E+02   0.286E+02 0.135E+02 0.291E+02   -.342E+00 -.105E+00 -.495E+00   -.104E-01 -.149E-01 0.366E-02
   -.150E+02 0.532E+01 0.286E+03   0.152E+02 -.597E+01 -.302E+03   -.249E+00 0.642E+00 0.163E+02   0.816E-02 0.942E-02 0.442E-02
   0.631E+02 0.162E+00 -.336E+03   -.654E+02 -.360E+00 0.354E+03   0.225E+01 0.183E+00 -.181E+02   -.892E-02 0.169E-01 0.702E-02
   0.519E+02 0.261E+01 -.299E+03   -.526E+02 -.291E+01 0.315E+03   0.739E+00 0.290E+00 -.160E+02   0.137E-02 0.959E-02 -.670E-02
   -.277E+02 0.522E+00 0.334E+03   0.276E+02 -.772E+00 -.351E+03   0.133E+00 0.246E+00 0.178E+02   -.321E-02 0.339E-02 0.230E-02
   -.158E+02 -.741E-01 0.308E+03   0.138E+02 0.791E-01 -.322E+03   0.200E+01 -.584E-03 0.141E+02   -.659E-02 -.417E-02 0.101E-01
   -.384E+02 0.180E+00 -.383E+03   0.430E+02 -.190E+00 0.404E+03   -.461E+01 0.141E-01 -.216E+02   -.407E-02 -.416E-02 -.645E-02
   -.423E+01 0.892E-01 -.402E+03   0.494E+01 -.102E+00 0.428E+03   -.707E+00 0.896E-02 -.260E+02   -.172E-01 0.416E-02 0.296E-02
   -.802E+01 -.102E+00 0.301E+03   0.522E+01 0.106E+00 -.315E+03   0.279E+01 -.866E-02 0.145E+02   -.235E-02 0.406E-02 0.381E-02
   0.102E+02 0.152E+00 -.391E+03   -.984E+01 -.164E+00 0.417E+03   -.310E+00 0.734E-02 -.259E+02   0.897E-02 0.417E-02 -.420E-02
   0.396E+02 -.552E-02 0.361E+03   -.451E+02 0.675E-03 -.380E+03   0.553E+01 -.261E-03 0.193E+02   0.311E-03 0.447E-02 -.564E-02
   0.370E+01 -.183E+00 0.388E+03   -.510E+01 0.196E+00 -.412E+03   0.141E+01 -.776E-02 0.244E+02   0.206E-02 -.440E-02 -.642E-02
   0.504E+01 0.620E-01 -.383E+03   -.403E+01 -.639E-01 0.410E+03   -.996E+00 0.647E-02 -.262E+02   0.199E-02 -.415E-02 -.110E-02
   -.151E+02 -.538E+01 0.286E+03   0.153E+02 0.603E+01 -.302E+03   -.266E+00 -.642E+00 0.163E+02   0.174E-02 -.968E-02 0.874E-02
   0.632E+02 -.212E-01 -.336E+03   -.654E+02 0.215E+00 0.354E+03   0.225E+01 -.179E+00 -.181E+02   -.224E-02 -.166E-01 0.300E-02
   0.518E+02 -.242E+01 -.299E+03   -.525E+02 0.270E+01 0.315E+03   0.727E+00 -.279E+00 -.160E+02   -.108E-01 -.937E-02 0.420E-04
   -.276E+02 -.652E+00 0.334E+03   0.275E+02 0.910E+00 -.351E+03   0.144E+00 -.254E+00 0.178E+02   0.831E-02 -.355E-02 -.526E-02
   -.389E+01 -.186E+01 0.381E+03   0.350E+01 0.220E+01 -.407E+03   0.390E+00 -.350E+00 0.259E+02   -.123E-01 0.179E-01 0.655E-03
   -.113E+02 0.315E+02 -.379E+03   0.125E+02 -.337E+02 0.401E+03   -.117E+01 0.213E+01 -.217E+02   0.132E-02 0.104E-01 -.817E-02
   -.641E+02 -.180E+01 -.329E+03   0.685E+02 0.212E+01 0.348E+03   -.441E+01 -.322E+00 -.192E+02   -.262E-02 0.321E-02 0.769E-03
   -.130E+02 0.269E+02 0.386E+03   0.133E+02 -.285E+02 -.409E+03   -.300E+00 0.164E+01 0.233E+02   0.114E-01 0.914E-02 -.180E-02
   0.835E+02 -.953E-01 0.362E+03   -.890E+02 0.102E+00 -.383E+03   0.556E+01 -.121E-01 0.204E+02   -.496E-02 0.557E-02 0.142E-02
   -.860E+02 0.192E+00 -.372E+03   0.929E+02 -.210E+00 0.392E+03   -.692E+01 0.111E-01 -.199E+02   0.115E-01 0.619E-02 -.304E-03
   -.931E+02 0.625E-01 -.373E+03   0.100E+03 -.647E-01 0.392E+03   -.714E+01 0.923E-02 -.198E+02   0.767E-02 -.587E-02 0.484E-02
   0.796E+02 -.186E+00 0.362E+03   -.846E+02 0.205E+00 -.382E+03   0.500E+01 -.130E-01 0.201E+02   0.691E-02 -.572E-02 -.685E-02
   -.550E+02 -.253E-01 -.311E+03   0.588E+02 0.395E-01 0.326E+03   -.377E+01 -.295E-02 -.151E+02   0.530E-02 -.111E-01 0.388E-02
   0.815E+02 -.203E+00 0.385E+03   -.869E+02 0.228E+00 -.406E+03   0.541E+01 -.131E-01 0.203E+02   -.996E-02 -.118E-01 0.539E-03
   0.858E+02 -.537E-01 0.387E+03   -.911E+02 0.443E-01 -.407E+03   0.528E+01 -.397E-02 0.202E+02   -.347E-02 0.116E-01 -.266E-02
   -.483E+02 0.112E+00 -.316E+03   0.514E+02 -.125E+00 0.331E+03   -.313E+01 0.161E-02 -.155E+02   0.440E-02 0.111E-01 0.527E-02
   -.385E+01 0.164E+01 0.381E+03   0.345E+01 -.196E+01 -.407E+03   0.391E+00 0.333E+00 0.259E+02   -.708E-02 -.179E-01 -.125E-02
   -.113E+02 -.314E+02 -.379E+03   0.125E+02 0.335E+02 0.400E+03   -.116E+01 -.211E+01 -.216E+02   -.357E-02 -.104E-01 -.600E-02
   -.640E+02 0.206E+01 -.329E+03   0.684E+02 -.241E+01 0.348E+03   -.440E+01 0.345E+00 -.192E+02   0.415E-02 -.323E-02 -.804E-03
   -.131E+02 -.271E+02 0.386E+03   0.134E+02 0.288E+02 -.409E+03   -.312E+00 -.166E+01 0.233E+02   0.512E-02 -.927E-02 -.223E-03
   0.218E+01 -.536E-02 -.990E-01   -.259E-12 0.306E-12 -.455E-12   -.217E+01 0.856E-02 0.119E+00   -.594E-03 -.122E-03 -.116E-01

 POSITION                                       TOTAL-FORCE (eV/Angst)
      3.82705      1.38732      2.44245        -0.000753      0.000819      0.017079
      2.17070      1.39085      7.22634        -0.012303      0.000004      0.006813
      2.17952      4.16721      7.23007        -0.010534      0.000126      0.006140
      3.75171      4.16336      2.45619        -0.009097      0.001161      0.019266
      6.88310      5.55413      2.34415         0.034311     -0.000568     -0.013458
      7.05765      1.39444      7.19795        -0.002177     -0.001850     -0.013981
      6.88475      2.77919      2.34333         0.033302      0.002476     -0.014138
      0.04397     -0.00229      0.00920         0.011888      0.000593     -0.012633
      2.46927      1.38883      0.04511         0.011606     -0.000735      0.002341
      3.77904      1.39189      9.52492         0.010089     -0.000322     -0.009517
      3.78392      4.16808      9.53683         0.009637      0.000320     -0.011273
     -1.17282      4.16784      9.62374         0.012663     -0.000174      0.002153
      0.04394      2.78012      0.01014         0.011408     -0.000055     -0.011973
      4.95033      5.55274      0.07448         0.007708      0.000241      0.007734
      4.95048      2.77727      0.07369         0.006559     -0.000613      0.005498
      3.05914      0.00153      4.84259        -0.013562     -0.000666      0.009933
      5.53187      1.39028      4.81453        -0.011334      0.000403      0.000189
      0.62063      1.39033      4.80389        -0.011574      0.000084      0.001164
      0.61217      4.16652      4.80063        -0.008202      0.000267      0.002404
      5.54218      4.16655      4.85929        -0.011029     -0.000153      0.000465
      3.05916      2.77888      4.84346        -0.013817      0.001613      0.008854
      8.02343      5.55220      4.76318        -0.010564     -0.002184     -0.004904
      8.02347      2.78110      4.76217        -0.010800      0.001556     -0.004898
      4.72031      5.53742      3.87907        -0.026766      0.000824      0.007845
      1.40017      0.00348      5.77846        -0.016004      0.002390      0.006831
      3.25212      5.53728      1.00040         0.006088      0.002957      0.013158
      2.92434      0.00623      8.63604         0.001285     -0.001151     -0.002761
      7.27543      1.39064      3.76682        -0.012671      0.000143     -0.009074
     -1.13547      1.39010      5.73465        -0.009324      0.000282     -0.003988
     -1.08340      4.16618      5.70363        -0.012384      0.000100     -0.003335
      7.28537      4.16690      3.76903        -0.010683     -0.000114     -0.009675
      0.77249      1.38856      0.97072         0.013904     -0.000194     -0.008626
      5.60769      1.39226      8.62274         0.009146     -0.000689     -0.016189
      5.55357      4.16829      8.66027         0.015324     -0.000063     -0.018706
      0.77487      4.16480      0.96820         0.015070      0.000361     -0.009145
      4.71985      2.79594      3.87830        -0.025362     -0.001136      0.007868
      1.40052      2.77663      5.77922        -0.016440     -0.001580      0.007585
      3.25154      2.79203      0.99964         0.008105     -0.002210      0.012345
      2.92512      2.77802      8.63656         0.000406     -0.000332     -0.001963
     -0.14141      0.00709      3.86260        -0.013583      0.001595     -0.006845
      6.37321      0.02808      5.72969        -0.006292      0.001135     -0.006783
      8.17748      0.00675      0.87132         0.021788      0.000651     -0.013240
     -1.93986      0.02644      8.69679         0.018906      0.000476     -0.004631
      2.37131      1.39056      3.84712        -0.013898     -0.000198      0.010371
      3.74444      1.39000      5.83476        -0.009978     -0.001216      0.016426
      3.72151      4.16606      5.84797        -0.012033      0.001097      0.016796
      2.33736      4.16667      3.86447        -0.015110      0.000073      0.010423
      5.63057      1.38843      1.11462         0.024753      0.000155      0.004815
      0.59762      1.39182      8.71358         0.002331      0.000293      0.015368
      0.60626      4.16811      8.70278         0.001835     -0.001796      0.015123
      5.67751      4.16473      1.07963         0.016272     -0.000211      0.009921
     -0.14110      2.77415      3.86336        -0.014149     -0.002327     -0.007251
      6.37289      2.75233      5.73046        -0.006054     -0.000277     -0.007322
      8.17791      2.77101      0.87217         0.021883     -0.000417     -0.012849
     -1.94025      2.75750      8.69771         0.020211     -0.000965     -0.005751
    total drift:                                0.005763      0.003083      0.008194

  FREE ENERGIE OF THE ION-ELECTRON SYSTEM (eV)
  free  energy   TOTEN  =      -339.5499776919 eV

  energy  without entropy=     -339.5493529551  energy(sigma->0) =     -339.54966532

 d Force = 0.9523087E-03[ 0.953E-03, 0.952E-03]  d Energy = 0.9355841E-03 0.167E-04
 d Force =-0.1138069E+01[-0.114E+01,-0.114E+01]  d Ewald  =-0.1589442E+01 0.451E+00

 Quasi-Newton relaxation of ions (Broydens 2nd method)
  g(Force)  = 0.833E-03   g(Stress)= 0.113E-03

 retain information from N=  1 steps
 eigenvalues of (default step * inverse Hessian matrix)
  average eigenvalue of G=   0.4277
 eigenvalue spectrum of G is  0.4277

volume of typ            1:    10.4 %

[...]

volume of typ            3:     9.9 %

total charge

# of ion       s       p       d       tot
    1        2.076   0.229   0.086   2.390
    2        2.072   0.225   0.084   2.380
    3        2.075   0.229   0.086   2.389
    4        2.076   0.235   0.088   2.400
    5        2.080   0.242   0.092   2.414
    6        2.067   0.206   0.077   2.350
    7        2.080   0.242   0.092   2.414
    8        0.299   0.428   7.830   8.557
    9        0.284   0.389   7.852   8.525
   10        0.272   0.360   7.875   8.508
   11        0.277   0.369   7.867   8.513
   12        0.278   0.378   7.848   8.504
   13        0.299   0.428   7.830   8.557
   14        0.290   0.409   7.854   8.552
   15        0.290   0.408   7.854   8.553
   16        0.299   0.428   7.851   8.579
   17        0.273   0.364   7.867   8.505
   18        0.279   0.381   7.852   8.512
   19        0.286   0.393   7.842   8.520
   20        0.265   0.348   7.863   8.476
   21        0.299   0.429   7.851   8.578
   22        0.295   0.415   7.839   8.548
   23        0.295   0.415   7.839   8.549
   24        1.260   2.787   0.007   4.054
   25        1.263   2.783   0.007   4.053
   26        1.261   2.789   0.007   4.057
   27        1.259   2.789   0.007   4.056
   28        1.260   2.792   0.006   4.058
   29        1.278   2.742   0.007   4.028
   30        1.285   2.722   0.008   4.015
   31        1.259   2.793   0.006   4.058
   32        1.285   2.724   0.008   4.017
   33        1.274   2.757   0.007   4.038
   34        1.284   2.725   0.008   4.017
   35        1.285   2.724   0.008   4.017
   36        1.260   2.787   0.007   4.054
   37        1.263   2.783   0.007   4.053
   38        1.261   2.789   0.007   4.057
   39        1.259   2.789   0.007   4.056
   40        1.284   2.727   0.008   4.019
   41        1.270   2.760   0.008   4.038
   42        1.267   2.776   0.008   4.050
   43        1.275   2.750   0.008   4.033
   44        1.272   2.762   0.007   4.042
   45        1.274   2.753   0.007   4.034
   46        1.274   2.754   0.007   4.035
   47        1.271   2.768   0.007   4.046
   48        1.261   2.780   0.006   4.047
   49        1.275   2.750   0.007   4.033
   50        1.276   2.748   0.007   4.031
   51        1.262   2.780   0.006   4.048
   52        1.284   2.727   0.008   4.019
   53        1.270   2.760   0.008   4.038
   54        1.267   2.776   0.008   4.050
   55        1.275   2.750   0.008   4.033
tot          59.76   96.35  126.45  282.56

magnetization (x)

# of ion       s       p       d       tot
    1        0.000   0.005   0.000   0.005
    2        0.003   0.005   0.000   0.009
    3        0.001   0.004   0.000   0.005
    4        0.003   0.005   0.000   0.007
    5       -0.000   0.001   0.000   0.001
    6        0.001   0.005   0.000   0.006
    7       -0.000   0.001   0.000   0.001
    8       -0.001  -0.000  -0.022  -0.023
    9        0.000   0.000   0.231   0.231
   10        0.004   0.001   0.558   0.563
   11        0.002   0.000   0.441   0.443
   12        0.000   0.000  -0.070  -0.070
   13       -0.001  -0.000  -0.022  -0.023
   14       -0.000  -0.000  -0.019  -0.019
   15       -0.000  -0.000  -0.020  -0.020
   16       -0.000  -0.000  -0.001  -0.001
   17        0.003  -0.000   0.541   0.544
   18        0.000   0.000  -0.093  -0.093
   19        0.000   0.000   0.128   0.129
   20        0.002  -0.000   0.536   0.538
   21       -0.000  -0.000  -0.000  -0.001
   22       -0.000  -0.000  -0.028  -0.029
   23       -0.000  -0.000  -0.029  -0.029
   24        0.002   0.007   0.000   0.009
   25        0.000  -0.001   0.000  -0.001
   26       -0.000  -0.003   0.000  -0.003
   27        0.001   0.003   0.000   0.005
   28        0.006   0.067   0.000   0.073
   29       -0.003  -0.025   0.000  -0.028
   30        0.001   0.008   0.000   0.009
   31        0.006   0.070   0.000   0.076
   32        0.002   0.027   0.000   0.029
   33        0.006   0.085   0.000   0.090
   34        0.004   0.069   0.000   0.073
   35       -0.001  -0.020   0.000  -0.020
   36        0.002   0.007   0.000   0.009
   37        0.000  -0.001   0.000  -0.001
   38       -0.000  -0.003   0.000  -0.003
   39        0.001   0.003   0.000   0.005
   40       -0.001  -0.007   0.000  -0.008
   41        0.002   0.015   0.000   0.017
   42        0.002   0.017   0.000   0.019
   43        0.000  -0.000   0.000  -0.000
   44       -0.000  -0.017   0.000  -0.018
   45        0.005   0.059   0.000   0.064
   46        0.004   0.063   0.000   0.067
   47        0.002   0.004   0.000   0.006
   48        0.005   0.058   0.000   0.063
   49        0.003   0.019   0.000   0.021
   50       -0.002  -0.018   0.000  -0.019
   51        0.004   0.035   0.000   0.039
   52       -0.001  -0.007   0.000  -0.008
   53        0.002   0.015   0.000   0.017
   54        0.002   0.017   0.000   0.019
   55        0.000  -0.000   0.000   0.000
tot           0.07    0.57    2.13    2.77