 vasp.5.4.4.18Apr17-6-g9f103f2a35 (build May 12 2020 05:39:39) gamma-only

 MD_VERSION_INFO: Compiled 2020-05-12T12:39:39-UTC in devlin.sd.materialsdesign.
 com:/home/medea2/data/build/wwolf/vasp-gpu5.4.4/13047/x86_64/src/src/build/gam
 from svn 13047

 executed on                        Lin64 date 2023.03.07  00:20:55

 INCAR:
 POTCAR:    PAW_PBE Li_sv 10Sep2004
 POTCAR:    PAW_PBE Ni 02Aug2007
 POTCAR:    PAW_PBE O 08Apr2002

 POTCAR:    PAW_PBE Li_sv 10Sep2004

 POTCAR:    PAW_PBE Ni 02Aug2007

 POTCAR:    PAW_PBE O 08Apr2002

 Optimization of the real space projectors (new method)

 maximal supplied QI-value         = 22.11
 optimisation between [QCUT,QGAM] = [ 11.28, 22.77] = [ 35.61,145.23] Ry
 Optimized for a Real-space Cutoff    1.10 Angstroem

   l    n(q)    QCUT    max X(q) W(low)/X(q) W(high)/X(q)  e(spline)
   0      7    11.276    10.506    0.54E-04    0.58E-04    0.16E-07
   0      7    11.276     8.367    0.11E-03    0.14E-03    0.35E-07
   1      7    11.276     8.983    0.23E-03    0.43E-03    0.86E-07
 Optimization of the real space projectors (new method)

[...]

   l    n(q)    QCUT    max X(q) W(low)/X(q) W(high)/X(q)  e(spline)
   2      9    11.376    60.317    0.17E-03    0.16E-04    0.16E-06
   2      9    11.376    55.921    0.17E-03    0.16E-04    0.17E-06
   0     10    11.376    51.690    0.45E-04    0.60E-04    0.21E-06
   0     10    11.376    30.015    0.37E-04    0.55E-04    0.19E-06
   1     10    11.376    18.849    0.83E-04    0.11E-03    0.92E-07
   1     10    11.376    14.624    0.69E-04    0.92E-04    0.82E-07
 Optimization of the real space projectors (new method)

 maximal supplied QI-value         = 24.76
 optimisation between [QCUT,QGAM] = [ 11.39, 22.77] = [ 36.31,145.25] Ry
 Optimized for a Real-space Cutoff    1.10 Angstroem

   l    n(q)    QCUT    max X(q) W(low)/X(q) W(high)/X(q)  e(spline)
   0      7    11.387    20.381    0.22E-03    0.48E-03    0.18E-06
   0      7    11.387    15.268    0.22E-03    0.52E-03    0.19E-06
   1      7    11.387     5.964    0.22E-03    0.73E-03    0.24E-06
   1      7    11.387     5.382    0.19E-03    0.60E-03    0.21E-06

  PAW_PBE Li_sv 10Sep2004               :
  PAW_PBE Ni 02Aug2007                  :
  PAW_PBE O 08Apr2002                   :

 POSCAR: ce13121_1
  positions in direct lattice
 exchange correlation table for  LEXCH =       14
   RHO(1)=    0.500       N(1)  =     2000
   RHO(2)=  100.500       N(2)  =     4000

 ion  position               nearest neighbor table
   1  0.245  0.252  0.493-  33 2.08  51 2.09  45 2.10  31 2.13  43 2.14  55 2.18  16 2.79  23 2.82

   2  0.245  0.748  0.507-  34 2.08  52 2.09  46 2.10  32 2.13  44 2.14  56 2.18  17 2.79  23 2.82

[...]

  14  0.500  0.751  0.251-  62 2.09  44 2.10  57 2.10  56 2.10  36 2.10  37 2.10  22 2.82  30 2.83

  15  0.000  0.000  0.000-  39 1.88  40 1.88  41 1.88  42 1.88  49 2.01  50 2.01  20 2.82  20 2.82
                            11 2.82  12 2.82   9 2.82  10 2.82  16 2.87  17 2.87  18 2.87  19 2.87
  16  0.250  0.001  0.250-  33 1.89  62 1.89  45 1.89  50 1.90  39 2.01  56 2.05   1 2.79  19 2.81
                            19 2.82  21 2.87  15 2.87  22 2.88  20 2.88
  17  0.250  0.999  0.750-  34 1.89  61 1.89  46 1.89  49 1.90  40 2.01  55 2.05   2 2.79  18 2.81
                            18 2.82  21 2.87  15 2.87  22 2.88  20 2.88
  18  0.750  0.999  0.750-  34 1.89  61 1.89  46 1.89  49 1.90  41 2.01  58 2.05   3 2.79  17 2.81
                            17 2.82  21 2.87  15 2.87  22 2.88  20 2.88
  19  0.750  0.001  0.250-  33 1.89  62 1.89  45 1.89  50 1.90  42 2.01  57 2.05   4 2.79  16 2.81
                            16 2.82  21 2.87  15 2.87  22 2.88  20 2.88
  20  0.500  0.000  0.000-  39 1.86  40 1.86  41 1.86  42 1.86  61 2.06  62 2.06  15 2.82  15 2.82
                             5 2.84   6 2.84  19 2.88  16 2.88  17 2.88  18 2.88
  21  0.000  0.000  0.500-  55 1.90  56 1.90  57 1.90  58 1.90  33 1.93  34 1.93   7 2.81   8 2.81
                            22 2.82  22 2.82  16 2.87  17 2.87  18 2.87  19 2.87
  22  0.500  0.000  0.500-  55 1.89  56 1.89  57 1.89  58 1.89  45 2.04  46 2.04  21 2.82  21 2.82
                            13 2.82  14 2.82  16 2.88  17 2.88  18 2.88  19 2.88
  23  0.000  0.500  0.500-  51 1.87  52 1.87  53 1.87  54 1.87  31 2.12  32 2.12  28 2.82  28 2.82
                             1 2.82   2 2.82   3 2.82   4 2.82  24 2.87  25 2.87  26 2.87  27 2.87
  24  0.249  0.500  0.750-  31 1.88  60 1.88  48 1.90  43 1.90  52 2.00  35 2.05  10 2.78  27 2.81
                            27 2.82  23 2.87  28 2.87  29 2.88  30 2.88
  25  0.249  0.500  0.250-  32 1.88  59 1.88  47 1.90  44 1.90  51 2.00  36 2.05   9 2.78  26 2.81
                            26 2.82  23 2.87  28 2.87  29 2.88  30 2.88
  26  0.751  0.500  0.250-  32 1.88  59 1.88  47 1.90  44 1.90  54 2.00  37 2.05  12 2.78  25 2.81
                            25 2.82  23 2.87  28 2.87  29 2.88  30 2.88
  27  0.751  0.500  0.750-  31 1.88  60 1.88  48 1.90  43 1.90  53 2.00  38 2.05  11 2.78  24 2.81
                            24 2.82  23 2.87  28 2.87  29 2.88  30 2.88
  28  0.500  0.500  0.500-  51 1.86  52 1.86  53 1.86  54 1.86  43 2.06  44 2.06   5 2.82   6 2.82
                            23 2.82  23 2.82  27 2.87  24 2.87  25 2.87  26 2.87
  29  0.000  0.500  0.000-  35 1.90  36 1.90  37 1.90  38 1.90  47 1.92  48 1.92  30 2.82  30 2.82
                             7 2.84   8 2.84  24 2.88  25 2.88  26 2.88  27 2.88
  30  0.500  0.500  0.000-  35 1.87  36 1.87  37 1.87  38 1.87  59 2.10  60 2.10  29 2.82  29 2.82
                            13 2.83  14 2.83  24 2.88  25 2.88  26 2.88  27 2.88
  31  0.000  0.387  0.642-  24 1.88  27 1.88   7 2.04  23 2.12   1 2.13   4 2.13
  32  0.000  0.613  0.358-  25 1.88  26 1.88   8 2.04  23 2.12   2 2.13   3 2.13
  33  0.000  0.102  0.370-  16 1.89  19 1.89  21 1.93   4 2.08   1 2.08
  34  0.000  0.898  0.630-  17 1.89  18 1.89  21 1.93   3 2.08   2 2.08
  35  0.254  0.391  0.887-  30 1.87  29 1.90  24 2.05  13 2.10   7 2.14   9 2.20
  36  0.254  0.609  0.113-  30 1.87  29 1.90  25 2.05  14 2.10   8 2.14  10 2.20
  37  0.746  0.609  0.113-  30 1.87  29 1.90  26 2.05  14 2.10   8 2.14  11 2.20
  38  0.746  0.391  0.887-  30 1.87  29 1.90  27 2.05  13 2.10   7 2.14  12 2.20
  39  0.253  0.105  0.112-  20 1.86  15 1.88  16 2.01   9 2.05   5 2.13
  40  0.253  0.895  0.888-  20 1.86  15 1.88  17 2.01  10 2.05   6 2.13
  41  0.747  0.895  0.888-  20 1.86  15 1.88  18 2.01  11 2.05   6 2.13
  42  0.747  0.105  0.112-  20 1.86  15 1.88  19 2.01  12 2.05   5 2.13
  43  0.500  0.389  0.636-  24 1.90  27 1.90  28 2.06  13 2.10   1 2.14   4 2.14
  44  0.500  0.611  0.364-  25 1.90  26 1.90  28 2.06  14 2.10   2 2.14   3 2.14
  45  0.500  0.110  0.364-  16 1.89  19 1.89  22 2.04   4 2.10   1 2.10   5 2.10
  46  0.500  0.890  0.636-  17 1.89  18 1.89  22 2.04   3 2.10   2 2.10   6 2.10
  47  0.000  0.398  0.129-  25 1.90  26 1.90  29 1.92  12 2.07   9 2.07
  48  0.000  0.602  0.871-  24 1.90  27 1.90  29 1.92  11 2.07  10 2.07
  49  0.000  0.108  0.865-  17 1.90  18 1.90  15 2.01  12 2.12   9 2.12   7 2.13
  50  0.000  0.892  0.135-  16 1.90  19 1.90  15 2.01  11 2.12  10 2.12   8 2.13
  51  0.251  0.397  0.387-  28 1.86  23 1.87  25 2.00   1 2.09   5 2.13
  52  0.251  0.603  0.613-  28 1.86  23 1.87  24 2.00   2 2.09   6 2.13
  53  0.749  0.603  0.613-  28 1.86  23 1.87  27 2.00   3 2.09   6 2.13
  54  0.749  0.397  0.387-  28 1.86  23 1.87  26 2.00   4 2.09   5 2.13
  55  0.251  0.109  0.613-  22 1.89  21 1.90  17 2.05  13 2.10   7 2.10   1 2.18
  56  0.251  0.891  0.387-  22 1.89  21 1.90  16 2.05  14 2.10   8 2.10   2 2.18
  57  0.749  0.891  0.387-  22 1.89  21 1.90  19 2.05  14 2.10   8 2.10   3 2.18
  58  0.749  0.109  0.613-  22 1.89  21 1.90  18 2.05  13 2.10   7 2.10   4 2.18
  59  0.500  0.389  0.142-  25 1.88  26 1.88   5 2.06  30 2.10   9 2.11  12 2.11
  60  0.500  0.611  0.858-  24 1.88  27 1.88   6 2.06  30 2.10  10 2.11  11 2.11
  61  0.500  0.109  0.862-  17 1.89  18 1.89  20 2.06  13 2.09   9 2.17  12 2.17
  62  0.500  0.891  0.138-  16 1.89  19 1.89  20 2.06  14 2.09  10 2.17  11 2.17

  LATTYP: Found a simple monoclinic cell.
 ALAT       =    11.3058010727
 B/A-ratio  =     0.4985120677
 C/A-ratio  =     1.6691746652
 COS(beta)  =    -0.8986199658

  Lattice vectors:

 A1 = (  -6.3483447812,   0.0000000000,  -9.3551940886)
 A2 = (   0.0000000000,  -5.6360782698,   0.0000000000)
 A3 = (   2.6712884714,   0.0000000000,  18.6813362036)

Analysis of symmetry for initial positions (statically):
 Subroutine PRICEL returns:
 Original cell was already a primitive cell.

 Routine SETGRP: Setting up the symmetry group for a
 simple monoclinic supercell.

 Subroutine GETGRP returns: Found  4 space group operations
 (whereof  4 operations were pure point group operations)
 out of a pool of  4 trial point group operations.

The static configuration has the point symmetry C_2h.

Analysis of symmetry for dynamics (positions and initial velocities):
 Subroutine PRICEL returns:
 Original cell was already a primitive cell.

[...]

The dynamic configuration has the point symmetry C_2h.

Analysis of structural, dynamic, and magnetic symmetry:
 Subroutine PRICEL returns:
 Original cell was already a primitive cell.

 Routine SETGRP: Setting up the symmetry group for a
 simple monoclinic supercell.

 Subroutine GETGRP returns: Found  4 space group operations
 (whereof  4 operations were pure point group operations)
 out of a pool of  4 trial point group operations.

The magnetic configuration has the point symmetry C_2h.

 Subroutine INISYM returns: Found  4 space group operations
 (whereof  4 operations are pure point group operations),
 and found     1 'primitive' translations

 KPOINTS: Automatic mesh

Automatic generation of k-mesh.
Space group operators:
 irot       det(A)        alpha          n_x          n_y          n_z        tau_x        tau_y        tau_z
    1     1.000000     0.000001     1.000000     0.000000     0.000000     0.000000     0.000000     0.000000
    2    -1.000000     0.000001     1.000000     0.000000     0.000000     0.000000     0.000000     0.000000
    3     1.000000   180.000000     0.000000     1.000000     0.000000     0.000000     0.000000     0.000000
    4    -1.000000   180.000000     0.000000     1.000000     0.000000     0.000000     0.000000     0.000000

 Subroutine IBZKPT returns following result:

 Found      1 irreducible k-points:

 Following reciprocal coordinates:
            Coordinates               Weight
  0.000000  0.000000  0.000000      1.000000

 Following cartesian coordinates:
            Coordinates               Weight
  0.000000  0.000000  0.000000      1.000000

 SYSTEM =  unknown system
 POSCAR =  ce13121_1

 Startparameter for this run:
   NWRITE =      1    write-flag & timer
   PREC   = accura    normal or accurate (medium, high low for compatibility)
   ISTART =      0    job   : 0-new  1-cont  2-samecut
   ICHARG =      2    charge: 1-file 2-atom 10-const
   ISPIN  =      2    spin polarized calculation?
   LNONCOLLINEAR =      F non collinear calculations
   LSORBIT =      F    spin-orbit coupling
[...]
   -.223E+02 0.155E+02 0.398E+02   0.227E+02 -.157E+02 -.403E+02   -.391E+00 0.238E+00 0.467E+00   0.148E-01 -.466E-02 0.146E-01
   -.223E+02 -.155E+02 0.398E+02   0.227E+02 0.157E+02 -.403E+02   -.391E+00 -.238E+00 0.467E+00   0.148E-01 0.466E-02 0.146E-01
   0.223E+02 -.155E+02 -.398E+02   -.227E+02 0.157E+02 0.403E+02   0.391E+00 -.238E+00 -.467E+00   -.148E-01 0.466E-02 -.146E-01
   -.324E-11 0.977E-12 0.334E-11   0.799E-13 -.116E-12 0.262E-13   0.181E-24 0.000E+00 0.141E-24   -.305E-12 0.982E-12 -.306E-11
   -.409E-12 -.704E-13 -.860E-13   0.488E-13 0.113E-12 -.426E-13   0.000E+00 0.000E+00 -.113E-25   0.288E-11 0.163E-11 -.128E-11
   -.200E-11 0.914E-12 -.402E-11   0.204E-13 0.567E-13 0.497E-13   0.000E+00 0.000E+00 0.646E-26   0.305E-11 -.163E-11 -.121E-11
   0.431E+02 -.941E-13 0.247E+03   -.461E+02 -.503E-13 -.259E+03   0.297E+01 0.000E+00 0.116E+02   0.342E-02 -.223E-12 0.160E-01
   -.431E+02 -.717E-13 -.247E+03   0.461E+02 -.304E-13 0.259E+03   -.297E+01 0.000E+00 -.116E+02   -.342E-02 -.342E-12 -.160E-01
   0.450E+02 -.182E-12 -.296E+03   -.472E+02 -.906E-13 0.311E+03   0.208E+01 0.000E+00 -.144E+02   0.549E-01 -.483E-12 0.126E-01
   -.450E+02 -.101E-12 0.296E+03   0.472E+02 -.785E-13 -.311E+03   -.208E+01 0.000E+00 0.144E+02   -.549E-01 0.543E-12 -.126E-01
   0.112E+02 -.322E+01 0.264E+03   -.132E+02 0.285E+01 -.276E+03   0.195E+01 0.391E+00 0.118E+02   -.224E-01 -.171E-01 0.156E-01
   -.112E+02 -.322E+01 -.264E+03   0.132E+02 0.285E+01 0.276E+03   -.195E+01 0.391E+00 -.118E+02   0.224E-01 -.171E-01 -.156E-01
   -.112E+02 0.322E+01 -.264E+03   0.132E+02 -.285E+01 0.276E+03   -.195E+01 -.391E+00 -.118E+02   0.224E-01 0.171E-01 -.156E-01
   0.112E+02 0.322E+01 0.264E+03   -.132E+02 -.285E+01 -.276E+03   0.195E+01 -.391E+00 0.118E+02   -.224E-01 0.171E-01 0.156E-01
   -.406E+02 0.350E+02 -.294E+03   0.454E+02 -.377E+02 0.309E+03   -.475E+01 0.270E+01 -.148E+02   0.309E-01 0.146E-02 0.592E-01
   0.406E+02 0.350E+02 0.294E+03   -.454E+02 -.377E+02 -.309E+03   0.475E+01 0.270E+01 0.148E+02   -.309E-01 0.146E-02 -.592E-01
   0.406E+02 -.350E+02 0.294E+03   -.454E+02 0.377E+02 -.309E+03   0.475E+01 -.270E+01 0.148E+02   -.309E-01 -.146E-02 -.592E-01
   -.406E+02 -.350E+02 -.294E+03   0.454E+02 0.377E+02 0.309E+03   -.475E+01 -.270E+01 -.148E+02   0.309E-01 -.146E-02 0.592E-01
   0.219E+02 0.125E-12 0.258E+03   -.239E+02 0.299E-13 -.269E+03   0.196E+01 0.000E+00 0.117E+02   -.110E-01 0.243E-12 0.201E-01
   -.219E+02 0.881E-13 -.258E+03   0.239E+02 0.174E-13 0.269E+03   -.196E+01 0.000E+00 -.117E+02   0.110E-01 0.339E-12 -.201E-01
   0.208E+01 0.141E-12 -.273E+03   0.499E+00 0.868E-13 0.284E+03   -.262E+01 0.000E+00 -.109E+02   0.459E-01 0.489E-12 0.196E-01
   -.208E+01 0.234E-13 0.273E+03   -.499E+00 0.123E-12 -.284E+03   0.262E+01 0.000E+00 0.109E+02   -.459E-01 -.633E-12 -.196E-01
   -.405E+02 -.299E-12 0.297E+03   0.424E+02 0.785E-13 -.310E+03   -.186E+01 0.000E+00 0.137E+02   0.603E-02 -.392E-12 0.409E-01
   0.405E+02 -.326E-12 -.297E+03   -.424E+02 0.965E-13 0.310E+03   0.186E+01 0.000E+00 -.137E+02   -.603E-02 0.115E-11 -.409E-01
   -.248E+02 -.292E-12 -.253E+03   0.264E+02 0.735E-13 0.263E+03   -.156E+01 0.000E+00 -.109E+02   -.408E-01 0.583E-12 0.384E-01
   0.248E+02 -.398E-12 0.253E+03   -.264E+02 0.216E-13 -.263E+03   0.156E+01 0.000E+00 0.109E+02   0.408E-01 -.744E-12 -.384E-01
   0.363E+02 0.378E+02 0.295E+03   -.407E+02 -.401E+02 -.310E+03   0.446E+01 0.233E+01 0.155E+02   0.934E-02 0.107E-01 0.273E-01
   -.363E+02 0.378E+02 -.295E+03   0.407E+02 -.401E+02 0.310E+03   -.446E+01 0.233E+01 -.155E+02   -.934E-02 0.107E-01 -.273E-01
   -.363E+02 -.378E+02 -.295E+03   0.407E+02 0.401E+02 0.310E+03   -.446E+01 -.233E+01 -.155E+02   -.934E-02 -.107E-01 -.273E-01
   0.363E+02 -.378E+02 0.295E+03   -.407E+02 0.401E+02 -.310E+03   0.446E+01 -.233E+01 0.155E+02   0.934E-02 -.107E-01 0.273E-01
   -.209E+02 -.401E+01 -.265E+03   0.228E+02 0.436E+01 0.276E+03   -.190E+01 -.346E+00 -.118E+02   -.384E-01 -.635E-02 -.599E-02
   0.209E+02 -.401E+01 0.265E+03   -.228E+02 0.436E+01 -.276E+03   0.190E+01 -.346E+00 0.118E+02   0.384E-01 -.635E-02 0.599E-02
   0.209E+02 0.401E+01 0.265E+03   -.228E+02 -.436E+01 -.276E+03   0.190E+01 0.346E+00 0.118E+02   0.384E-01 0.635E-02 0.599E-02
   -.209E+02 0.401E+01 -.265E+03   0.228E+02 -.436E+01 0.276E+03   -.190E+01 0.346E+00 -.118E+02   -.384E-01 0.635E-02 -.599E-02
   0.157E+02 -.148E-12 0.272E+03   -.189E+02 -.118E-13 -.283E+03   0.317E+01 0.000E+00 0.116E+02   0.215E-01 0.450E-12 0.348E-01
   -.157E+02 -.129E-12 -.272E+03   0.189E+02 0.389E-13 0.283E+03   -.317E+01 0.000E+00 -.116E+02   -.215E-01 -.107E-11 -.348E-01
   -.273E+02 -.155E-12 -.260E+03   0.299E+02 -.421E-13 0.272E+03   -.253E+01 0.000E+00 -.119E+02   -.412E-01 -.538E-12 0.380E-01
   0.273E+02 -.766E-13 0.260E+03   -.299E+02 -.187E-13 -.272E+03   0.253E+01 0.000E+00 0.119E+02   0.412E-01 0.743E-12 -.380E-01
   -.260E-10 -.109E-10 0.114E-10   -.249E-13 -.825E-13 -.227E-12   0.444E-15 -.833E-15 -.178E-14   -.452E-11 -.392E-12 -.360E-11

 POSITION                                       TOTAL-FORCE (eV/Angst)
      4.01753      1.37903      2.35608         0.008013      0.000851     -0.007056
      2.33091      1.37903      6.99531        -0.008013      0.000851      0.007056
      2.33091      4.25691      6.99531        -0.008013     -0.000851      0.007056
      4.01753      4.25691      2.35608         0.008013     -0.000851     -0.007056
      1.58968      2.81797      2.34037        -0.004499     -0.000000     -0.010117
      4.75875      2.81797      7.01102         0.004499     -0.000000      0.010117
      6.60645      0.00000      2.34810         0.003487     -0.000000      0.009946
     -0.25801      0.00000      7.00329        -0.003487     -0.000000     -0.009946
     -0.81967      1.38120      2.32281        -0.000136      0.000454     -0.001726
      7.16811      1.38120      7.02859         0.000136      0.000454      0.001726
      7.16811      4.25474      7.02859         0.000136     -0.000454      0.001726
     -0.81967      4.25474      2.32281        -0.000136     -0.000454     -0.001726
      6.60398      2.81797      2.35098         0.002087     -0.000000      0.003716
     -0.25554      2.81797      7.00042        -0.002087     -0.000000     -0.003716
     -0.00000      0.00000     -0.00000         0.000000     -0.000000      0.000000
      2.50817      1.40699      0.01517         0.000311      0.000493     -0.005962
      3.84027      1.40699      9.33622        -0.000311      0.000493      0.005962
      3.84027      4.22896      9.33622        -0.000311     -0.000493      0.005962
      2.50817      4.22896      0.01517         0.000311     -0.000493     -0.005962
     -0.00000      2.81797     -0.00000         0.000000     -0.000000      0.000000
      5.01269      0.00000      0.01457         0.000000     -0.000000      0.000000
      5.01269      2.81797      0.01457         0.000000     -0.000000      0.000000
      3.17422      0.00000      4.67570         0.000000     -0.000000      0.000000
      5.67857      1.40638      4.68365        -0.004355      0.002899      0.007503
      0.66987      1.40638      4.66774         0.004355      0.002899     -0.007503
      0.66987      4.22956      4.66774         0.004355     -0.002899     -0.007503
      5.67857      4.22956      4.68365        -0.004355     -0.002899      0.007503
      3.17422      2.81797      4.67570         0.000000     -0.000000      0.000000
     -1.83847      0.00000      4.66112         0.000000     -0.000000      0.000000
     -1.83847      2.81797      4.66112         0.000000     -0.000000      0.000000
      5.00826      0.00000      3.63730        -0.003253     -0.000000      0.007560
      1.34017      0.00000      5.71409         0.003253     -0.000000     -0.007560
      3.33854      0.00000      0.95851        -0.007600     -0.000000     -0.004416
      3.00990      0.00000      8.39289         0.007600     -0.000000      0.004416
      7.44911      1.42350      3.67217        -0.009930      0.005098      0.008246
     -1.10068      1.42350      5.67922         0.009930      0.005098     -0.008246
     -1.10068      4.21244      5.67922         0.009930     -0.005098     -0.008246
      7.44911      4.21244      3.67217        -0.009930     -0.005098      0.008246
      0.73461      1.42618      0.98039         0.002588     -0.000312     -0.001312
      5.61383      1.42618      8.37100        -0.002588     -0.000312      0.001312
      5.61383      4.20976      8.37100        -0.002588      0.000312      0.001312
      0.73461      4.20976      0.98039         0.002588      0.000312     -0.001312
      4.92934      2.81797      3.65033        -0.005430     -0.000000      0.008093
      1.41910      2.81797      5.70106         0.005430     -0.000000     -0.008093
      3.24990      2.81797      1.03569         0.005370     -0.000000     -0.006322
      3.09853      2.81797      8.31570        -0.005370     -0.000000      0.006322
     -0.16681      0.00000      3.71057         0.001926     -0.000000     -0.009316
      6.51525      0.00000      5.64083        -0.001926     -0.000000      0.009316
      8.28806      0.00000      1.02404        -0.005151     -0.000000      0.013240
     -1.93962      0.00000      8.32735         0.005151     -0.000000     -0.013240
      2.42989      1.41439      3.70664         0.006922      0.001377     -0.006671
      3.91854      1.41439      5.64475        -0.006922      0.001377      0.006671
      3.91854      4.22155      5.64475        -0.006922     -0.001377      0.006671
      2.42989      4.22155      3.70664         0.006922     -0.001377     -0.006671
      5.73678      1.40878      1.04453        -0.005201      0.002234      0.003522
      0.61166      1.40878      8.30686         0.005201      0.002234     -0.003522
      0.61166      4.22716      8.30686         0.005201     -0.002234     -0.003522
      5.73678      4.22716      1.04453        -0.005201     -0.002234      0.003522
      0.00338      2.81797      3.62490         0.000899     -0.000000     -0.010405
      6.34506      2.81797      5.72650        -0.000899     -0.000000      0.010405
      8.23217      2.81797      1.04820        -0.005660     -0.000000      0.007830
     -1.88373      2.81797      8.30319         0.005660     -0.000000     -0.007830
    total drift:                               -0.000000     -0.000000      0.000000

  FREE ENERGIE OF THE ION-ELECTRON SYSTEM (eV)
  free  energy   TOTEN  =      -373.5099290921 eV

  energy  without entropy=     -373.5049017898  energy(sigma->0) =     -373.50741544

 d Force = 0.9047154E-03[ 0.654E-03, 0.116E-02]  d Energy = 0.8539954E-03 0.507E-04
 d Force = 0.2257950E+01[ 0.224E+01, 0.227E+01]  d Ewald  = 0.2584803E+01-0.327E+00

 Quasi-Newton relaxation of ions (Broydens 2nd method)
  g(Force)  = 0.213E-03   g(Stress)= 0.336E-05

 retain information from N=  4 steps
 eigenvalues of (default step * inverse Hessian matrix)
  average eigenvalue of G=   1.6103
 eigenvalue spectrum of G is  2.5139  0.6908  1.6182  1.6182

 reached required accuracy - stopping structural energy minimisation

volume of typ            1:    20.7 %

[...]

volume of typ            3:     9.9 %

total charge

# of ion       s       p       d       tot
    1        2.080   0.259   0.095   2.434
    2        2.080   0.259   0.095   2.434
    3        2.080   0.259   0.095   2.434
    4        2.080   0.259   0.095   2.434
    5        2.082   0.255   0.097   2.435
    6        2.082   0.255   0.097   2.435
    7        2.084   0.266   0.099   2.449
    8        2.084   0.266   0.099   2.449
    9        2.080   0.259   0.094   2.433
   10        2.080   0.259   0.094   2.433
   11        2.080   0.259   0.094   2.433
   12        2.080   0.259   0.094   2.433
   13        2.085   0.265   0.099   2.449
   14        2.085   0.265   0.099   2.449
   15        0.267   0.355   7.857   8.479
   16        0.259   0.338   7.868   8.465
   17        0.259   0.338   7.868   8.465
   18        0.259   0.338   7.868   8.465
   19        0.259   0.338   7.868   8.465
   20        0.278   0.373   7.875   8.525
   21        0.276   0.377   7.861   8.514
   22        0.259   0.341   7.870   8.470
   23        0.263   0.341   7.876   8.480
   24        0.262   0.345   7.862   8.469
   25        0.262   0.345   7.862   8.469
   26        0.262   0.345   7.862   8.469
   27        0.262   0.345   7.862   8.469
   28        0.276   0.373   7.873   8.522
   29        0.272   0.368   7.866   8.506
   30        0.259   0.335   7.886   8.479
   31        1.257   2.796   0.006   4.059
   32        1.257   2.796   0.006   4.059
   33        1.260   2.787   0.006   4.054
   34        1.260   2.787   0.006   4.054
   35        1.258   2.791   0.006   4.055
   36        1.258   2.791   0.006   4.055
   37        1.258   2.791   0.006   4.055
   38        1.258   2.791   0.006   4.055
   39        1.261   2.783   0.006   4.051
   40        1.261   2.783   0.006   4.051
   41        1.261   2.783   0.006   4.051
   42        1.261   2.783   0.006   4.051
   43        1.258   2.789   0.005   4.052
   44        1.258   2.789   0.005   4.052
   45        1.256   2.797   0.005   4.058
   46        1.256   2.797   0.005   4.058
   47        1.260   2.788   0.006   4.054
   48        1.260   2.788   0.006   4.054
   49        1.257   2.794   0.006   4.057
   50        1.257   2.794   0.006   4.057
   51        1.261   2.781   0.007   4.049
   52        1.261   2.781   0.007   4.049
   53        1.261   2.781   0.007   4.049
   54        1.261   2.781   0.007   4.049
   55        1.258   2.792   0.005   4.055
   56        1.258   2.792   0.005   4.055
   57        1.258   2.792   0.005   4.055
   58        1.258   2.792   0.005   4.055
   59        1.255   2.800   0.006   4.060
   60        1.255   2.800   0.006   4.060
   61        1.257   2.791   0.006   4.054
   62        1.257   2.791   0.006   4.054
tot          73.65   98.51  127.42  299.58

magnetization (x)

# of ion       s       p       d       tot
    1        0.005   0.016  -0.000   0.021
    2        0.005   0.016  -0.000   0.021
    3        0.005   0.016  -0.000   0.021
    4        0.005   0.016  -0.000   0.021
    5        0.003   0.009   0.001   0.012
    6        0.003   0.009   0.001   0.012
    7        0.001   0.009  -0.001   0.010
    8        0.001   0.009  -0.001   0.010
    9        0.005   0.017  -0.000   0.022
   10        0.005   0.017  -0.000   0.022
   11        0.005   0.017  -0.000   0.022
   12        0.005   0.017  -0.000   0.022
   13        0.001   0.009  -0.001   0.009
   14        0.001   0.009  -0.001   0.009
   15        0.000  -0.000   0.448   0.448
   16        0.002  -0.000   0.750   0.751
   17        0.002  -0.000   0.750   0.751
   18        0.002  -0.000   0.750   0.751
   19        0.002  -0.000   0.750   0.751
   20       -0.006  -0.000  -0.572  -0.578
   21       -0.001  -0.001   0.171   0.170
   22        0.001  -0.001   0.723   0.723
   23       -0.005  -0.000  -0.567  -0.573
   24        0.001  -0.000   0.652   0.653
   25        0.001  -0.000   0.652   0.653
   26        0.001  -0.000   0.652   0.653
   27        0.001  -0.000   0.652   0.653
   28        0.002  -0.000   0.482   0.485
   29       -0.001  -0.000   0.457   0.456
   30        0.003  -0.000   0.737   0.740
   31        0.000  -0.068  -0.000  -0.068
   32        0.000  -0.068  -0.000  -0.068
   33        0.007   0.018   0.000   0.025
   34        0.007   0.018   0.000   0.025
   35        0.010   0.064   0.000   0.075
   36        0.010   0.064   0.000   0.075
   37        0.010   0.064   0.000   0.075
   38        0.010   0.064   0.000   0.075
   39        0.007   0.053   0.000   0.060
   40        0.007   0.053   0.000   0.060
   41        0.007   0.053   0.000   0.060
   42        0.007   0.053   0.000   0.060
   43        0.012   0.082   0.000   0.094
   44        0.012   0.082   0.000   0.094
   45        0.012   0.074   0.000   0.086
   46        0.012   0.074   0.000   0.086
   47        0.010   0.044   0.000   0.054
   48        0.010   0.044   0.000   0.054
   49        0.012   0.068   0.000   0.080
   50        0.012   0.068   0.000   0.080
   51        0.005   0.039   0.000   0.044
   52        0.005   0.039   0.000   0.044
   53        0.005   0.039   0.000   0.044
   54        0.005   0.039   0.000   0.044
   55        0.010   0.072   0.000   0.083
   56        0.010   0.072   0.000   0.083
   57        0.010   0.072   0.000   0.083
   58        0.010   0.072   0.000   0.083
   59        0.011   0.091   0.000   0.102
   60        0.011   0.091   0.000   0.102
   61        0.000  -0.047  -0.000  -0.047
   62        0.000  -0.047  -0.000  -0.047
tot           0.31    1.62    7.49    9.42