 vasp.5.4.4.18Apr17-6-g9f103f2a35 (build May 12 2020 05:39:39) gamma-only

 MD_VERSION_INFO: Compiled 2020-05-12T12:39:39-UTC in devlin.sd.materialsdesign.
 com:/home/medea2/data/build/wwolf/vasp-gpu5.4.4/13047/x86_64/src/src/build/gam
 from svn 13047

 executed on                        Lin64 date 2023.03.07  00:25:57

 INCAR:
 POTCAR:    PAW_PBE Li_sv 10Sep2004
 POTCAR:    PAW_PBE Ni 02Aug2007
 POTCAR:    PAW_PBE O 08Apr2002

 POTCAR:    PAW_PBE Li_sv 10Sep2004

 POTCAR:    PAW_PBE Ni 02Aug2007

 POTCAR:    PAW_PBE O 08Apr2002

 Optimization of the real space projectors (new method)

 maximal supplied QI-value         = 22.11
 optimisation between [QCUT,QGAM] = [ 11.28, 22.77] = [ 35.61,145.23] Ry
 Optimized for a Real-space Cutoff    1.10 Angstroem

   l    n(q)    QCUT    max X(q) W(low)/X(q) W(high)/X(q)  e(spline)
   0      7    11.276    10.506    0.54E-04    0.58E-04    0.16E-07
   0      7    11.276     8.367    0.11E-03    0.14E-03    0.35E-07
   1      7    11.276     8.983    0.23E-03    0.43E-03    0.86E-07
 Optimization of the real space projectors (new method)

[...]

   l    n(q)    QCUT    max X(q) W(low)/X(q) W(high)/X(q)  e(spline)
   2      9    11.376    60.317    0.17E-03    0.16E-04    0.16E-06
   2      9    11.376    55.921    0.17E-03    0.16E-04    0.17E-06
   0     10    11.376    51.690    0.45E-04    0.60E-04    0.21E-06
   0     10    11.376    30.015    0.37E-04    0.55E-04    0.19E-06
   1     10    11.376    18.849    0.83E-04    0.11E-03    0.92E-07
   1     10    11.376    14.624    0.69E-04    0.92E-04    0.82E-07
 Optimization of the real space projectors (new method)

 maximal supplied QI-value         = 24.76
 optimisation between [QCUT,QGAM] = [ 11.39, 22.77] = [ 36.31,145.25] Ry
 Optimized for a Real-space Cutoff    1.10 Angstroem

   l    n(q)    QCUT    max X(q) W(low)/X(q) W(high)/X(q)  e(spline)
   0      7    11.387    20.381    0.22E-03    0.48E-03    0.18E-06
   0      7    11.387    15.268    0.22E-03    0.52E-03    0.19E-06
   1      7    11.387     5.964    0.22E-03    0.73E-03    0.24E-06
   1      7    11.387     5.382    0.19E-03    0.60E-03    0.21E-06

  PAW_PBE Li_sv 10Sep2004               :
  PAW_PBE Ni 02Aug2007                  :
  PAW_PBE O 08Apr2002                   :

 POSCAR: ce13212_1
  positions in direct lattice
 exchange correlation table for  LEXCH =       14
   RHO(1)=    0.500       N(1)  =     2000
   RHO(2)=  100.500       N(2)  =     4000

 ion  position               nearest neighbor table
   1  0.248  0.250  0.501-  52 2.09  28 2.10  30 2.10  40 2.11  48 2.13  42 2.14  21 2.83
   2  0.255  0.749  0.515-  49 2.03  43 2.07  31 2.10  41 2.14  29 2.21  53 2.23  14 2.77  25 2.83

   3  0.745  0.749  0.515-  50 2.03  43 2.07  31 2.10  41 2.14  29 2.21  54 2.23  15 2.77  25 2.83

[...]

  11  0.752  0.249  0.000-  39 2.10  46 2.10  35 2.11  44 2.11  58 2.12  56 2.15  12 2.84  15 2.84

  12  0.000  0.005  0.003-  37 1.84  38 1.84  36 1.87  39 1.87  46 2.05  47 2.06  17 2.80  17 2.80
                             8 2.84  11 2.84  13 2.84  16 2.84  15 2.86  14 2.86
  13  0.250  0.000  0.250-  47 1.87  42 1.88  59 1.90  30 1.90  36 2.03  53 2.03  16 2.80  16 2.80
                            12 2.84  19 2.85  17 2.86  18 2.86
  14  0.250  0.999  0.751-  43 1.87  46 1.89  31 1.89  58 1.89  37 2.00  52 2.05   2 2.77  15 2.80
                            15 2.81   8 2.84  17 2.84  12 2.86  19 2.87  18 2.87
  15  0.750  0.999  0.751-  43 1.87  46 1.89  31 1.89  58 1.89  38 2.00  55 2.05   3 2.77  14 2.80
                            14 2.81  11 2.84  17 2.84  12 2.86  19 2.87  18 2.87
  16  0.750  0.000  0.250-  47 1.87  42 1.88  59 1.90  30 1.90  39 2.03  54 2.03  13 2.80  13 2.80
                            12 2.84  19 2.85  17 2.86  18 2.86
  17  0.500  0.001  0.000-  37 1.86  38 1.86  36 1.86  39 1.86  59 1.90  58 1.90  12 2.80  12 2.80
                             9 2.83  10 2.83  15 2.84  14 2.84   5 2.84  16 2.86  13 2.86
  18  0.000  0.000  0.500-  53 1.85  54 1.85  52 1.85  55 1.85  30 1.90  31 1.91  19 2.80  19 2.80
                             6 2.84   7 2.84  13 2.86  16 2.86  15 2.87  14 2.87
  19  0.500  0.001  0.500-  53 1.87  54 1.87  52 1.87  55 1.87  43 1.95  42 2.01  18 2.80  18 2.80
                            13 2.85  16 2.85  15 2.87  14 2.87
  20  0.000  0.495  0.497-  49 1.84  50 1.84  48 1.86  51 1.86  28 2.07  29 2.09  25 2.80  25 2.80
                            22 2.84  23 2.84  21 2.86  24 2.86
  21  0.250  0.499  0.749-  57 1.87  28 1.88  45 1.89  40 1.90  49 2.00  32 2.04   9 2.78  24 2.80
                            24 2.81   1 2.83  25 2.85  20 2.86  26 2.86  27 2.87
  22  0.250  0.501  0.251-  29 1.86  56 1.87  44 1.91  41 1.91  48 2.02  33 2.03  23 2.80  23 2.80
                            20 2.84  27 2.85  25 2.86  26 2.86
  23  0.750  0.501  0.251-  29 1.86  56 1.87  44 1.91  41 1.91  51 2.02  34 2.03  22 2.80  22 2.80
                            20 2.84  27 2.85  25 2.86  26 2.86
  24  0.750  0.499  0.749-  57 1.87  28 1.88  45 1.89  40 1.90  50 2.00  35 2.04  10 2.78  21 2.80
                            21 2.81   4 2.83  25 2.85  20 2.86  26 2.86  27 2.87
  25  0.500  0.499  0.500-  48 1.85  51 1.85  50 1.86  49 1.86  41 1.90  40 1.90  20 2.80  20 2.80
                             2 2.83   3 2.83   5 2.83  24 2.85  21 2.85  22 2.86  23 2.86
  26  0.000  0.499  1.000-  32 1.85  35 1.85  34 1.85  33 1.85  44 1.90  45 1.91  27 2.80  27 2.80
                            22 2.86  23 2.86  21 2.86  24 2.86
  27  0.500  0.499  1.000-  32 1.86  35 1.86  34 1.87  33 1.87  57 1.96  56 2.02  26 2.80  26 2.80
                            22 2.85  23 2.85  21 2.87  24 2.87
  28  0.000  0.387  0.640-  21 1.88  24 1.88   6 2.06  20 2.07   1 2.10   4 2.10
  29  0.000  0.610  0.358-  22 1.86  23 1.86   7 2.07  20 2.09   2 2.21   3 2.21
  30  0.000  0.103  0.372-  13 1.90  16 1.90  18 1.90   4 2.10   1 2.10
  31  0.000  0.899  0.630-  14 1.89  15 1.89  18 1.91   3 2.10   2 2.10
  32  0.249  0.394  0.891-  26 1.85  27 1.86  21 2.04   8 2.11   6 2.14
  33  0.249  0.605  0.109-  26 1.85  27 1.87  22 2.03   7 2.15   9 2.24
  34  0.751  0.605  0.109-  26 1.85  27 1.87  23 2.03   7 2.15  10 2.24
  35  0.751  0.394  0.891-  26 1.85  27 1.86  24 2.04  11 2.11   6 2.14
  36  0.254  0.108  0.112-  17 1.86  12 1.87  13 2.03   8 2.10   5 2.11
  37  0.246  0.900  0.893-  12 1.84  17 1.86  14 2.00   9 2.01
  38  0.754  0.900  0.893-  12 1.84  17 1.86  15 2.00  10 2.01
  39  0.746  0.108  0.112-  17 1.86  12 1.87  16 2.03  11 2.10   5 2.11
  40  0.500  0.396  0.628-  21 1.90  24 1.90  25 1.90   4 2.11   1 2.11
  41  0.500  0.603  0.374-  25 1.90  23 1.91  22 1.91   3 2.14   2 2.14
  42  0.500  0.107  0.362-  13 1.88  16 1.88  19 2.01   5 2.12   1 2.14   4 2.14
  43  0.500  0.899  0.634-  14 1.87  15 1.87  19 1.95   3 2.07   2 2.07
  44  0.000  0.398  0.128-  26 1.90  23 1.91  22 1.91  11 2.11   8 2.11
  45  0.000  0.600  0.869-  21 1.89  24 1.89  26 1.91  10 2.10   9 2.10
  46  0.000  0.110  0.861-  14 1.89  15 1.89  12 2.05   6 2.06  11 2.10   8 2.10
  47  0.000  0.893  0.141-  13 1.87  16 1.87  12 2.06   7 2.08  10 2.22   9 2.22
  48  0.254  0.394  0.387-  25 1.85  20 1.86  22 2.02   5 2.11   1 2.13
  49  0.245  0.599  0.608-  20 1.84  25 1.86  21 2.00   2 2.03
  50  0.755  0.599  0.608-  20 1.84  25 1.86  24 2.00   3 2.03
  51  0.746  0.394  0.387-  25 1.85  20 1.86  23 2.02   5 2.11   4 2.13
  52  0.248  0.106  0.609-  18 1.85  19 1.87  14 2.05   1 2.09   6 2.13
  53  0.248  0.895  0.391-  18 1.85  19 1.87  13 2.03   7 2.13   2 2.23
  54  0.752  0.895  0.391-  18 1.85  19 1.87  16 2.03   7 2.13   3 2.23
  55  0.752  0.106  0.609-  18 1.85  19 1.87  15 2.05   4 2.09   6 2.13
  56  0.500  0.395  0.139-  22 1.87  23 1.87  27 2.02   5 2.11  11 2.15   8 2.15
  57  0.500  0.600  0.864-  21 1.87  24 1.87  27 1.96  10 2.08   9 2.08
  58  0.500  0.102  0.871-  14 1.89  15 1.89  17 1.90  11 2.12   8 2.12
  59  0.500  0.899  0.127-  17 1.90  16 1.90  13 1.90  10 2.15   9 2.15

  LATTYP: Found a simple monoclinic cell.
 ALAT       =    11.3855115695
 B/A-ratio  =     0.4922864808
 C/A-ratio  =     1.6738643512
 COS(beta)  =    -0.9017599353

  Lattice vectors:

 A1 = (  -6.3310736736,   0.0000000000,  -9.4629477351)
 A2 = (   0.0000000000,  -5.6049334226,   0.0000000000)
 A3 = (   2.7097693040,   0.0000000000,  18.8641714621)

Analysis of symmetry for initial positions (statically):
 Subroutine PRICEL returns:
 Original cell was already a primitive cell.

 Routine SETGRP: Setting up the symmetry group for a
 simple monoclinic supercell.

 Subroutine GETGRP returns: Found  2 space group operations
 (whereof  2 operations were pure point group operations)
 out of a pool of  4 trial point group operations.

The static configuration has the point symmetry C_1h.

Analysis of symmetry for dynamics (positions and initial velocities):
 Subroutine PRICEL returns:
 Original cell was already a primitive cell.

[...]

The dynamic configuration has the point symmetry C_1h.

Analysis of structural, dynamic, and magnetic symmetry:
 Subroutine PRICEL returns:
 Original cell was already a primitive cell.

 Routine SETGRP: Setting up the symmetry group for a
 simple monoclinic supercell.

 Subroutine GETGRP returns: Found  2 space group operations
 (whereof  2 operations were pure point group operations)
 out of a pool of  4 trial point group operations.

The magnetic configuration has the point symmetry C_1h.

 Subroutine INISYM returns: Found  2 space group operations
 (whereof  2 operations are pure point group operations),
 and found     1 'primitive' translations

 KPOINTS: Automatic mesh

Automatic generation of k-mesh.
Space group operators:
 irot       det(A)        alpha          n_x          n_y          n_z        tau_x        tau_y        tau_z
    1     1.000000     0.000000     1.000000     0.000000     0.000000     0.000000     0.000000     0.000000
    2    -1.000000   180.000000     0.000000     1.000000     0.000000     0.000000     0.000000     0.000000

 Subroutine IBZKPT returns following result:

 Found      1 irreducible k-points:

 Following reciprocal coordinates:
            Coordinates               Weight
  0.000000  0.000000  0.000000      1.000000

 Following cartesian coordinates:
            Coordinates               Weight
  0.000000  0.000000  0.000000      1.000000

 SYSTEM =  unknown system
 POSCAR =  ce13212_1

 Startparameter for this run:
   NWRITE =      1    write-flag & timer
   PREC   = accura    normal or accurate (medium, high low for compatibility)
   ISTART =      0    job   : 0-new  1-cont  2-samecut
   ICHARG =      2    charge: 1-file 2-atom 10-const
   ISPIN  =      2    spin polarized calculation?
   LNONCOLLINEAR =      F non collinear calculations
   LSORBIT =      F    spin-orbit coupling
   INIWAV =      1    electr: 0-lowe 1-rand  2-diag
   LASPH  =      F    aspherical Exc in radial PAW
   METAGGA=      F    non-selfconsistent MetaGGA calc.

 Electronic Relaxation 1
   ENCUT  =  500.0 eV  36.75 Ry    6.06 a.u.  10.22 18.37 18.15*2*pi/ulx,y,z
   ENINI  =  500.0     initial cutoff
   ENAUG  =  628.9 eV  augmentation charge cutoff
   NELM   =     80;   NELMIN=  2; NELMDL= -5     # of ELM steps
[...]
   -.217E+01 0.103E-11 0.220E+02   0.270E+01 0.273E-13 -.224E+02   -.482E+00 0.000E+00 0.359E+00   -.495E-01 -.622E-12 -.463E-02
   -.123E+01 -.877E-14 -.171E+02   0.157E+01 0.952E-11 0.174E+02   -.294E+00 0.000E+00 -.297E+00   -.442E-01 -.889E-12 -.130E-01
   0.140E+02 -.136E+02 -.596E+02   -.144E+02 0.138E+02 0.603E+02   0.502E+00 -.152E+00 -.622E+00   -.216E-01 -.876E-02 0.120E-02
   -.646E+01 -.306E+01 -.319E+02   0.654E+01 0.301E+01 0.321E+02   -.965E-01 0.606E-01 -.159E+00   0.213E-01 -.957E-02 -.761E-02
   -.646E+01 0.306E+01 -.319E+02   0.654E+01 -.301E+01 0.321E+02   -.965E-01 -.606E-01 -.159E+00   0.213E-01 0.957E-02 -.761E-02
   0.140E+02 0.136E+02 -.596E+02   -.144E+02 -.138E+02 0.603E+02   0.502E+00 0.152E+00 -.622E+00   -.216E-01 0.876E-02 0.120E-02
   -.294E+02 0.102E-11 -.651E+02   0.298E+02 0.105E-10 0.656E+02   -.325E+00 0.000E+00 -.546E+00   -.421E-01 0.801E-12 -.144E-01
   0.125E+02 0.792E-14 -.319E+02   -.126E+02 0.151E-12 0.320E+02   0.542E-01 0.000E+00 -.144E+00   0.427E-01 0.985E-12 0.874E-02
   0.262E+01 0.104E-11 -.218E+02   -.313E+01 -.386E-13 0.222E+02   0.467E+00 0.000E+00 -.336E+00   0.442E-01 -.103E-11 0.610E-02
   0.101E+02 0.573E-13 0.251E+03   -.120E+02 0.418E-12 -.262E+03   0.193E+01 0.000E+00 0.113E+02   -.234E-01 0.105E-13 -.208E-01
   -.291E+02 0.972E-13 -.293E+03   0.322E+02 0.349E-12 0.306E+03   -.304E+01 0.000E+00 -.132E+02   -.785E-02 -.344E-12 -.149E-01
   0.455E+02 -.189E-12 -.293E+03   -.484E+02 0.471E-14 0.308E+03   0.301E+01 0.000E+00 -.152E+02   -.339E-01 0.659E-13 -.366E-01
   -.550E+02 0.154E-13 0.325E+03   0.576E+02 0.193E-12 -.340E+03   -.252E+01 0.000E+00 0.151E+02   -.704E-02 0.577E-12 0.366E-02
   0.487E+02 -.389E+02 0.299E+03   -.536E+02 0.416E+02 -.314E+03   0.486E+01 -.260E+01 0.155E+02   0.136E-01 -.370E-01 -.206E-01
   -.338E+02 -.383E+02 -.330E+03   0.376E+02 0.409E+02 0.347E+03   -.384E+01 -.256E+01 -.166E+02   0.290E-01 -.371E-01 0.214E-01
   -.338E+02 0.383E+02 -.330E+03   0.376E+02 -.409E+02 0.347E+03   -.384E+01 0.256E+01 -.166E+02   0.290E-01 0.371E-01 0.214E-01
   0.487E+02 0.389E+02 0.299E+03   -.536E+02 -.416E+02 -.314E+03   0.486E+01 0.260E+01 0.155E+02   0.136E-01 0.370E-01 -.206E-01
   -.402E+02 0.364E+02 -.295E+03   0.446E+02 -.387E+02 0.311E+03   -.443E+01 0.226E+01 -.159E+02   0.225E-01 -.179E-02 -.280E-01
   0.643E+02 0.766E+01 0.356E+03   -.700E+02 -.829E+01 -.375E+03   0.570E+01 0.634E+00 0.188E+02   0.249E-01 -.177E-02 0.293E-01
   0.643E+02 -.766E+01 0.356E+03   -.700E+02 0.829E+01 -.375E+03   0.570E+01 -.634E+00 0.188E+02   0.249E-01 0.177E-02 0.293E-01
   -.402E+02 -.364E+02 -.295E+03   0.446E+02 0.387E+02 0.311E+03   -.443E+01 -.226E+01 -.159E+02   0.225E-01 0.179E-02 -.280E-01
   -.441E+02 0.271E-12 0.277E+03   0.471E+02 0.676E-12 -.292E+03   -.295E+01 0.000E+00 0.155E+02   -.361E-01 0.454E-13 -.145E-01
   0.291E+02 0.319E-12 -.324E+03   -.323E+02 0.531E-12 0.340E+03   0.313E+01 0.000E+00 -.158E+02   -.170E-02 0.308E-12 -.204E-01
   -.101E+02 0.598E-13 -.263E+03   0.118E+02 -.838E-13 0.275E+03   -.168E+01 0.000E+00 -.123E+02   -.457E-01 -.145E-12 -.263E-01
   -.366E+02 0.225E-12 0.315E+03   0.377E+02 0.171E-12 -.329E+03   -.106E+01 0.000E+00 0.143E+02   0.119E-01 -.543E-12 -.797E-02
   -.465E+02 0.754E-13 0.293E+03   0.496E+02 0.174E-12 -.308E+03   -.315E+01 0.000E+00 0.152E+02   0.191E-01 -.282E-12 0.623E-02
   0.562E+02 0.962E-13 -.325E+03   -.588E+02 0.201E-12 0.340E+03   0.265E+01 0.000E+00 -.151E+02   0.211E-01 0.860E-12 0.225E-01
   -.832E+01 0.685E-13 -.252E+03   0.101E+02 -.315E-13 0.263E+03   -.178E+01 0.000E+00 -.113E+02   0.288E-01 -.942E-12 -.863E-02
   0.274E+02 -.225E-12 0.294E+03   -.303E+02 -.678E-13 -.307E+03   0.289E+01 0.000E+00 0.133E+02   0.368E-02 0.336E-12 0.488E-01
   0.405E+02 0.369E+02 0.294E+03   -.449E+02 -.392E+02 -.310E+03   0.442E+01 0.228E+01 0.159E+02   -.157E-01 0.154E-01 -.677E-02
   -.652E+02 0.795E+01 -.355E+03   0.709E+02 -.859E+01 0.374E+03   -.573E+01 0.624E+00 -.189E+02   -.257E-01 0.171E-01 0.164E-02
   -.652E+02 -.795E+01 -.355E+03   0.709E+02 0.859E+01 0.374E+03   -.573E+01 -.624E+00 -.189E+02   -.257E-01 -.171E-01 0.164E-02
   0.405E+02 -.369E+02 0.294E+03   -.449E+02 0.392E+02 -.310E+03   0.442E+01 -.228E+01 0.159E+02   -.157E-01 -.154E-01 -.677E-02
   -.495E+02 -.390E+02 -.298E+03   0.544E+02 0.416E+02 0.313E+03   -.490E+01 -.263E+01 -.155E+02   -.129E-01 -.200E-01 -.775E-02
   0.348E+02 -.385E+02 0.329E+03   -.386E+02 0.411E+02 -.346E+03   0.388E+01 -.259E+01 0.166E+02   -.355E-01 -.202E-01 0.967E-02
   0.348E+02 0.385E+02 0.329E+03   -.386E+02 -.411E+02 -.346E+03   0.388E+01 0.259E+01 0.166E+02   -.355E-01 0.202E-01 0.967E-02
   -.495E+02 0.390E+02 -.298E+03   0.544E+02 -.416E+02 0.313E+03   -.490E+01 0.263E+01 -.155E+02   -.129E-01 0.200E-01 -.775E-02
   0.888E+01 0.289E-12 0.264E+03   -.104E+02 0.347E-13 -.276E+03   0.152E+01 0.000E+00 0.123E+02   0.434E-01 0.342E-12 -.105E-01
   0.377E+02 0.309E-12 -.315E+03   -.389E+02 0.353E-12 0.330E+03   0.121E+01 0.000E+00 -.143E+02   -.129E-01 -.916E-12 0.398E-01
   0.446E+02 0.273E-12 -.278E+03   -.477E+02 -.495E-13 0.294E+03   0.303E+01 0.000E+00 -.156E+02   0.315E-01 0.919E-12 -.100E-01
   -.295E+02 0.169E-13 0.325E+03   0.327E+02 -.893E-13 -.341E+03   -.318E+01 0.000E+00 0.159E+02   0.106E-01 -.308E-12 0.469E-01
   0.182E+00 0.159E-10 -.127E+00   0.114E-12 -.141E-13 0.568E-13   -.196E+00 0.000E+00 0.129E+00   0.298E-02 0.125E-12 -.122E-01

 POSITION                                       TOTAL-FORCE (eV/Angst)
      4.06982      1.39512      2.38071        -0.009378      0.006045     -0.005762
      2.41367      1.42822      7.08002         0.010838     -0.001269      0.001830
      2.41367      4.18290      7.08002         0.010838      0.001269      0.001830
      4.06982      4.21600      2.38071        -0.009378     -0.006045     -0.005762
      1.58263      2.80556      2.37226         0.000846      0.000000     -0.004240
      6.55254     -0.00000      2.39419        -0.003631      0.000000      0.010229
     -0.22582     -0.00000      7.07501         0.000016      0.000000     -0.010247
     -0.89977      1.39336      2.35251        -0.001668      0.009661      0.013056
      7.06889      1.42835      7.12016        -0.001308     -0.001109     -0.002454
      7.06889      4.18277      7.12016        -0.001308      0.001109     -0.002454
     -0.89977      4.21776      2.35251        -0.001668     -0.009661      0.013056
      0.01131     -0.00000      0.04564        -0.003139      0.000000      0.004083
      2.48205      1.40280      0.01423        -0.004853      0.000661     -0.006265
      3.85039      1.40613      9.45399         0.001419      0.002599      0.007213
      3.85039      4.20499      9.45399         0.001419     -0.002599      0.007213
      2.48205      4.20832      0.01423        -0.004853     -0.000661     -0.006265
     -0.00226      2.80556      0.01101        -0.009210      0.000000      0.006174
      4.96984     -0.00000      0.03518        -0.006404      0.000000     -0.006549
      4.96610      2.80556      0.03997         0.000221      0.000000     -0.005339
      3.15131     -0.00000      4.68897         0.000823      0.000000     -0.004713
      5.63781      1.40578      4.74041        -0.001710      0.003587      0.004064
      0.67875      1.40262      4.72989         0.010202      0.001303     -0.003780
      0.67875      4.20850      4.72989         0.010202     -0.001303     -0.003780
      5.63781      4.20534      4.74041        -0.001710     -0.003587      0.004064
      3.16477      2.80556      4.72446         0.006804      0.000000     -0.013126
      8.12879     -0.00000      4.76569         0.000407      0.000000      0.001592
      8.13240      2.80556      4.76050        -0.002053      0.000000      0.001424
      4.93816     -0.00000      3.69320        -0.000934      0.000000     -0.000586
      1.38622     -0.00000      5.74453         0.017629      0.000000     -0.009186
      3.32066     -0.00000      0.98580        -0.005260      0.000000     -0.003520
      3.01831     -0.00000      8.49546         0.005444      0.000000      0.002196
      7.42951      1.39069      3.76011        -0.007903      0.000730      0.008016
     -1.10440      1.39281      5.69746         0.003443     -0.000610      0.002886
     -1.10440      4.21831      5.69746         0.003443      0.000610      0.002886
      7.42951      4.22043      3.76011        -0.007903     -0.000730      0.008016
      0.72304      1.42630      1.01885         0.001271     -0.000702      0.003805
      5.61718      1.38068      8.52352        -0.005430      0.001928      0.006327
      5.61718      4.23044      8.52352        -0.005430     -0.001928      0.006327
      0.72304      4.18482      1.01885         0.001271      0.000702      0.003805
      4.81047      2.80556      3.76812         0.005504      0.000000     -0.000883
      1.52915      2.80556      5.69210        -0.003748      0.000000     -0.011747
      3.21518      2.80556      1.02769         0.007015      0.000000     -0.005713
      3.06129      2.80556      8.49092        -0.000100      0.000000      0.007055
     -0.15769     -0.00000      3.75492         0.008026      0.000000      0.005827
      6.46917     -0.00000      5.70146        -0.012526      0.000000      0.001999
      8.16595     -0.00000      1.09671        -0.004736      0.000000      0.014229
     -1.84133     -0.00000      8.40463        -0.009326      0.000000     -0.006917
      2.43311      1.42569      3.72171         0.011030     -0.001290     -0.011253
      3.87545      1.38005      5.67601        -0.003470     -0.000280      0.000698
      3.87545      4.23107      5.67601        -0.003470      0.000280      0.000698
      2.43311      4.18543      3.72171         0.011030      0.001290     -0.011253
      5.67459      1.39117      1.03626         0.002751     -0.000222     -0.003887
      0.64932      1.39304      8.44458         0.004560     -0.000910     -0.005755
      0.64932      4.21808      8.44458         0.004560      0.000910     -0.005755
      5.67459      4.21995      1.03626         0.002751      0.000222     -0.003887
     -0.05492      2.80556      3.71729        -0.001117      0.000000     -0.008581
      6.42676      2.80556      5.70308        -0.004869      0.000000      0.002523
      8.28436      2.80556      1.02469         0.002052      0.000000      0.014937
     -1.97460      2.80556      8.45347        -0.007320      0.000000      0.001604
    total drift:                               -0.010537      0.000000     -0.010559

  FREE ENERGIE OF THE ION-ELECTRON SYSTEM (eV)
  free  energy   TOTEN  =      -359.5577826709 eV

  energy  without entropy=     -359.5571040848  energy(sigma->0) =     -359.55744338

 d Force = 0.1372941E-02[ 0.825E-03, 0.192E-02]  d Energy = 0.1291886E-02 0.811E-04
 d Force =-0.1309355E+01[-0.134E+01,-0.128E+01]  d Ewald  =-0.5852223E+00-0.724E+00

 Quasi-Newton relaxation of ions (Broydens 2nd method)
  g(Force)  = 0.259E-03   g(Stress)= 0.790E-04

 retain information from N=  5 steps
 eigenvalues of (default step * inverse Hessian matrix)
  average eigenvalue of G=   2.1843
 eigenvalue spectrum of G is  2.7594  3.6670  1.6792  1.6792  1.1368

 reached required accuracy - stopping structural energy minimisation

volume of typ            1:    16.3 %

[...]

volume of typ            3:     9.9 %

total charge

# of ion       s       p       d       tot
    1        2.080   0.258   0.094   2.432
    2        2.075   0.245   0.088   2.408
    3        2.075   0.245   0.088   2.408
    4        2.080   0.258   0.094   2.432
    5        2.080   0.247   0.093   2.421
    6        2.081   0.250   0.094   2.425
    7        2.076   0.236   0.088   2.399
    8        2.079   0.258   0.094   2.431
    9        2.075   0.244   0.088   2.407
   10        2.075   0.244   0.088   2.407
   11        2.079   0.258   0.094   2.431
   12        0.274   0.369   7.865   8.508
   13        0.261   0.342   7.863   8.466
   14        0.261   0.343   7.858   8.463
   15        0.261   0.343   7.858   8.463
   16        0.261   0.342   7.863   8.466
   17        0.297   0.420   7.851   8.568
   18        0.298   0.422   7.854   8.573
   19        0.274   0.371   7.855   8.500
   20        0.274   0.368   7.866   8.508
   21        0.261   0.343   7.859   8.463
   22        0.261   0.342   7.863   8.466
   23        0.261   0.342   7.863   8.466
   24        0.261   0.343   7.859   8.463
   25        0.297   0.419   7.851   8.567
   26        0.298   0.423   7.853   8.574
   27        0.274   0.373   7.855   8.503
   28        1.257   2.797   0.006   4.059
   29        1.259   2.788   0.006   4.053
   30        1.262   2.782   0.006   4.051
   31        1.262   2.783   0.006   4.051
   32        1.265   2.775   0.006   4.047
   33        1.267   2.768   0.006   4.042
   34        1.267   2.768   0.006   4.042
   35        1.265   2.775   0.006   4.047
   36        1.263   2.780   0.006   4.050
   37        1.270   2.762   0.007   4.039
   38        1.270   2.762   0.007   4.039
   39        1.263   2.780   0.006   4.050
   40        1.262   2.783   0.006   4.051
   41        1.263   2.777   0.006   4.046
   42        1.257   2.796   0.006   4.059
   43        1.263   2.783   0.006   4.052
   44        1.262   2.782   0.006   4.051
   45        1.262   2.783   0.006   4.052
   46        1.257   2.796   0.006   4.059
   47        1.259   2.787   0.006   4.053
   48        1.263   2.780   0.006   4.050
   49        1.270   2.761   0.007   4.039
   50        1.270   2.761   0.007   4.039
   51        1.263   2.780   0.006   4.050
   52        1.265   2.776   0.006   4.047
   53        1.267   2.769   0.006   4.042
   54        1.267   2.769   0.006   4.042
   55        1.265   2.776   0.006   4.047
   56        1.257   2.796   0.006   4.060
   57        1.263   2.783   0.007   4.052
   58        1.262   2.782   0.007   4.051
   59        1.264   2.776   0.006   4.046
tot          67.66   97.57  126.94  292.17

magnetization (x)

# of ion       s       p       d       tot
    1        0.005   0.017  -0.000   0.022
    2        0.005   0.016  -0.000   0.021
    3        0.005   0.016  -0.000   0.021
    4        0.005   0.017  -0.000   0.022
    5        0.003   0.007  -0.001   0.009
    6        0.004   0.012  -0.000   0.015
    7        0.004   0.011  -0.000   0.014
    8        0.005   0.017  -0.000   0.022
    9        0.005   0.016  -0.000   0.021
   10        0.005   0.016  -0.000   0.021
   11        0.005   0.017  -0.000   0.022
   12        0.002  -0.000   0.450   0.452
   13        0.002  -0.001   0.704   0.705
   14        0.001  -0.000   0.703   0.704
   15        0.001  -0.000   0.703   0.704
   16        0.002  -0.001   0.704   0.705
   17       -0.001  -0.000  -0.107  -0.109
   18       -0.001  -0.000  -0.102  -0.103
   19       -0.000  -0.000   0.298   0.297
   20        0.003  -0.000   0.467   0.469
   21        0.001  -0.000   0.703   0.704
   22        0.001  -0.001   0.705   0.706
   23        0.001  -0.001   0.705   0.706
   24        0.001  -0.000   0.703   0.704
   25       -0.001  -0.000  -0.106  -0.108
   26       -0.001  -0.000  -0.100  -0.101
   27       -0.000  -0.000   0.276   0.275
   28        0.011   0.070   0.000   0.081
   29        0.010   0.063   0.000   0.073
   30        0.006   0.021   0.000   0.027
   31        0.006   0.013   0.000   0.019
   32        0.006   0.045   0.000   0.052
   33        0.006   0.049   0.000   0.055
   34        0.006   0.049   0.000   0.055
   35        0.006   0.045   0.000   0.052
   36        0.005   0.046   0.000   0.051
   37        0.006   0.056   0.000   0.062
   38        0.006   0.056   0.000   0.062
   39        0.005   0.046   0.000   0.051
   40        0.006   0.017   0.000   0.023
   41        0.006   0.020   0.000   0.026
   42        0.009   0.031   0.000   0.040
   43        0.010   0.057   0.000   0.068
   44        0.006   0.022   0.000   0.028
   45        0.006   0.014   0.000   0.020
   46        0.011   0.066   0.000   0.077
   47        0.010   0.059   0.000   0.070
   48        0.005   0.046   0.000   0.052
   49        0.005   0.056   0.000   0.062
   50        0.005   0.056   0.000   0.062
   51        0.005   0.046   0.000   0.052
   52        0.006   0.046   0.000   0.053
   53        0.006   0.050   0.000   0.056
   54        0.006   0.050   0.000   0.056
   55        0.006   0.046   0.000   0.053
   56        0.009   0.028   0.000   0.037
   57        0.010   0.053   0.000   0.063
   58        0.005   0.016   0.000   0.022
   59        0.006   0.020   0.000   0.025
tot           0.28    1.51    6.71    8.50