 vasp.5.4.4.18Apr17-6-g9f103f2a35 (build May 12 2020 05:39:39) gamma-only

 MD_VERSION_INFO: Compiled 2020-05-12T12:39:39-UTC in devlin.sd.materialsdesign.
 com:/home/medea2/data/build/wwolf/vasp-gpu5.4.4/13047/x86_64/src/src/build/gam
 from svn 13047

 executed on                        Lin64 date 2023.03.07  00:25:52

 INCAR:
 POTCAR:    PAW_PBE Li_sv 10Sep2004
 POTCAR:    PAW_PBE Ni 02Aug2007
 POTCAR:    PAW_PBE O 08Apr2002

 POTCAR:    PAW_PBE Li_sv 10Sep2004

 POTCAR:    PAW_PBE Ni 02Aug2007

 POTCAR:    PAW_PBE O 08Apr2002

 Optimization of the real space projectors (new method)

 maximal supplied QI-value         = 22.11
 optimisation between [QCUT,QGAM] = [ 11.28, 22.77] = [ 35.61,145.23] Ry
 Optimized for a Real-space Cutoff    1.10 Angstroem

   l    n(q)    QCUT    max X(q) W(low)/X(q) W(high)/X(q)  e(spline)
   0      7    11.276    10.506    0.54E-04    0.58E-04    0.16E-07
   0      7    11.276     8.367    0.11E-03    0.14E-03    0.35E-07
   1      7    11.276     8.983    0.23E-03    0.43E-03    0.86E-07
 Optimization of the real space projectors (new method)

[...]

   l    n(q)    QCUT    max X(q) W(low)/X(q) W(high)/X(q)  e(spline)
   2      9    11.376    60.317    0.17E-03    0.16E-04    0.16E-06
   2      9    11.376    55.921    0.17E-03    0.16E-04    0.17E-06
   0     10    11.376    51.690    0.45E-04    0.60E-04    0.21E-06
   0     10    11.376    30.015    0.37E-04    0.55E-04    0.19E-06
   1     10    11.376    18.849    0.83E-04    0.11E-03    0.92E-07
   1     10    11.376    14.624    0.69E-04    0.92E-04    0.82E-07
 Optimization of the real space projectors (new method)

 maximal supplied QI-value         = 24.76
 optimisation between [QCUT,QGAM] = [ 11.39, 22.77] = [ 36.31,145.25] Ry
 Optimized for a Real-space Cutoff    1.10 Angstroem

   l    n(q)    QCUT    max X(q) W(low)/X(q) W(high)/X(q)  e(spline)
   0      7    11.387    20.381    0.22E-03    0.48E-03    0.18E-06
   0      7    11.387    15.268    0.22E-03    0.52E-03    0.19E-06
   1      7    11.387     5.964    0.22E-03    0.73E-03    0.24E-06
   1      7    11.387     5.382    0.19E-03    0.60E-03    0.21E-06

  PAW_PBE Li_sv 10Sep2004               :
  PAW_PBE Ni 02Aug2007                  :
  PAW_PBE O 08Apr2002                   :

 POSCAR: ce4417_1
  positions in direct lattice
 exchange correlation table for  LEXCH =       14
   RHO(1)=    0.500       N(1)  =     2000
   RHO(2)=  100.500       N(2)  =     4000

 ion  position               nearest neighbor table
   1  0.000  0.250  0.252-  52 2.07  55 2.07  40 2.09  43 2.09  34 2.17  48 2.22  24 2.81  16 2.84

   2  0.250  0.250  0.502-  44 2.09  56 2.10  52 2.10  46 2.11  32 2.11  34 2.11  25 2.82  17 2.84

[...]

  10  0.252  0.249  0.999-  36 2.06  62 2.08  50 2.12  60 2.12  40 2.12  48 2.13  18 2.83  21 2.84
                            26 2.84
  11  0.245  0.751  0.990-  41 2.06  49 2.07  61 2.10  51 2.13  37 2.16  63 2.17  25 2.78  16 2.83

[...]

  13  0.748  0.249  0.999-  39 2.06  62 2.08  50 2.12  60 2.12  43 2.12  48 2.13  19 2.83  21 2.84
                            27 2.84
  14  0.500  0.250  0.750-  56 2.09  59 2.09  36 2.10  39 2.10  62 2.15  44 2.16  31 2.83  23 2.83

  15  0.500  0.750  0.249-  57 2.10  58 2.10  37 2.11  38 2.11  63 2.15  45 2.16  31 2.83  23 2.84

  16  0.000  0.001  0.000-  41 1.87  42 1.87  40 1.88  43 1.88  50 2.06  51 2.07  21 2.79  21 2.79
                            11 2.83  12 2.83   1 2.84  18 2.90  19 2.90  17 2.91  20 2.91
  17  0.250  0.001  0.251-  63 1.87  46 1.88  51 1.88  34 1.88  57 2.07  40 2.08  20 2.79  20 2.79
                             2 2.84  21 2.90  22 2.90  23 2.90  16 2.91
  18  0.249  0.999  0.750-  50 1.87  47 1.87  35 1.88  62 1.89  41 2.06  56 2.11   3 2.78  19 2.79
                            19 2.80  10 2.83  16 2.90  21 2.91  23 2.91  22 2.91
  19  0.751  0.999  0.750-  50 1.87  47 1.87  35 1.88  62 1.89  42 2.06  59 2.11   4 2.78  18 2.79
                            18 2.80  13 2.83  16 2.90  21 2.91  23 2.91  22 2.91
  20  0.750  0.001  0.251-  63 1.87  46 1.88  51 1.88  34 1.88  58 2.07  43 2.08  17 2.79  17 2.79
                             5 2.84  21 2.90  22 2.90  23 2.90  16 2.91
  21  0.500  0.004  0.003-  41 1.85  42 1.85  40 1.88  43 1.88  62 2.05  63 2.07  16 2.79  16 2.79
                             6 2.81  10 2.84  13 2.84  20 2.90  17 2.90  18 2.91  19 2.91
  22  0.000  0.001  0.500-  57 1.89  58 1.89  56 1.89  59 1.89  35 1.96  34 2.02  23 2.79  23 2.79
                             8 2.82   9 2.84  17 2.90  20 2.90  19 2.91  18 2.91
  23  0.500  0.000  0.500-  57 1.87  58 1.87  56 1.88  59 1.88  47 2.08  46 2.08  22 2.79  22 2.79
                            14 2.83  15 2.84  17 2.90  20 2.90  19 2.91  18 2.91
  24  0.000  0.499  0.501-  53 1.86  54 1.86  52 1.87  55 1.87  32 2.12  33 2.16  29 2.79  29 2.79
                             1 2.81   3 2.83   4 2.83  25 2.89  28 2.89  27 2.92  26 2.92
  25  0.249  0.501  0.749-  32 1.86  61 1.86  49 1.88  44 1.89  53 2.09  36 2.16  11 2.78  28 2.78
                            28 2.80   2 2.82  24 2.89  30 2.91  29 2.91  31 2.91
  26  0.250  0.501  0.250-  60 1.86  33 1.86  45 1.87  48 1.88  52 2.13  37 2.13  27 2.79  27 2.79
                            10 2.84  30 2.90  29 2.90  31 2.90  24 2.92
  27  0.750  0.501  0.250-  60 1.86  33 1.86  45 1.87  48 1.88  55 2.13  38 2.13  26 2.79  26 2.79
                            13 2.84  30 2.90  29 2.90  31 2.90  24 2.92
  28  0.751  0.501  0.749-  32 1.86  61 1.86  49 1.88  44 1.89  54 2.09  39 2.16  12 2.78  25 2.78
                            25 2.80   5 2.82  24 2.89  30 2.91  29 2.91  31 2.91
  29  0.500  0.496  0.497-  53 1.85  54 1.85  52 1.88  55 1.88  44 2.04  45 2.07   6 2.77  24 2.79
                            24 2.79  27 2.90  26 2.90  28 2.91  25 2.91
  30  0.000  0.499  1.000-  36 1.88  39 1.88  38 1.88  37 1.88  49 1.94  48 2.00  31 2.79  31 2.79
                             8 2.82   9 2.84  26 2.90  27 2.90  25 2.91  28 2.91
  31  0.500  0.500  1.000-  37 1.86  38 1.86  36 1.86  39 1.86  61 2.12  60 2.12  30 2.79  30 2.79
                            14 2.83  15 2.83  26 2.90  27 2.90  25 2.91  28 2.91
  32  0.000  0.389  0.643-  25 1.86  28 1.86   8 2.08   5 2.11   2 2.11  24 2.12
  33  0.000  0.611  0.357-  26 1.86  27 1.86   9 2.08   4 2.13   3 2.13  24 2.16
  34  0.000  0.107  0.366-  17 1.88  20 1.88  22 2.02   5 2.11   2 2.11   1 2.17
  35  0.000  0.899  0.630-  18 1.88  19 1.88  22 1.96   4 2.06   3 2.06
  36  0.252  0.387  0.892-  31 1.86  30 1.88  10 2.06  14 2.10   8 2.12  25 2.16
  37  0.252  0.612  0.108-  31 1.86  30 1.88  15 2.11   9 2.12  26 2.13  11 2.16
  38  0.748  0.612  0.108-  31 1.86  30 1.88  15 2.11   9 2.12  27 2.13  12 2.16
  39  0.748  0.387  0.892-  31 1.86  30 1.88  13 2.06  14 2.10   8 2.12  28 2.16
  40  0.247  0.112  0.114-  16 1.88  21 1.88  17 2.08   1 2.09   6 2.12  10 2.12
  41  0.255  0.896  0.891-  21 1.85  16 1.87  11 2.06  18 2.06   7 2.14
  42  0.745  0.896  0.891-  21 1.85  16 1.87  12 2.06  19 2.06   7 2.14
  43  0.753  0.112  0.114-  16 1.88  21 1.88  20 2.08   1 2.09   6 2.12  13 2.12
  44  0.500  0.392  0.635-  25 1.89  28 1.89  29 2.04   5 2.09   2 2.09  14 2.16
  45  0.500  0.607  0.363-  26 1.87  27 1.87  29 2.07  15 2.16   3 2.17   4 2.17
  46  0.500  0.110  0.363-  17 1.88  20 1.88  23 2.08   5 2.11   2 2.11   6 2.11
  47  0.500  0.892  0.639-  18 1.87  19 1.87  23 2.08   4 2.11   3 2.11   7 2.13
  48  0.000  0.396  0.134-  26 1.88  27 1.88  30 2.00  13 2.13  10 2.13   1 2.22
  49  0.000  0.600  0.870-  25 1.88  28 1.88  30 1.94  12 2.07  11 2.07
  50  0.000  0.107  0.862-  18 1.87  19 1.87  16 2.06  13 2.12  10 2.12   8 2.14
  51  0.000  0.892  0.137-  17 1.88  20 1.88  16 2.07  12 2.13  11 2.13   9 2.14
  52  0.246  0.387  0.389-  24 1.87  29 1.88   1 2.07   6 2.09   2 2.10  26 2.13
  53  0.254  0.605  0.607-  29 1.85  24 1.86   3 2.03  25 2.09   7 2.12
  54  0.746  0.605  0.607-  29 1.85  24 1.86   4 2.03  28 2.09   7 2.12
  55  0.754  0.387  0.389-  24 1.87  29 1.88   1 2.07   6 2.09   5 2.10  27 2.13
  56  0.251  0.111  0.613-  23 1.88  22 1.89  14 2.09   8 2.10   2 2.10  18 2.11
  57  0.251  0.891  0.387-  23 1.87  22 1.89  17 2.07  15 2.10   9 2.11   3 2.23
  58  0.749  0.891  0.387-  23 1.87  22 1.89  20 2.07  15 2.10   9 2.11   4 2.23
  59  0.749  0.111  0.613-  23 1.88  22 1.89  14 2.09   8 2.10   5 2.10  19 2.11
  60  0.500  0.391  0.142-  26 1.86  27 1.86   6 2.11  10 2.12  13 2.12  31 2.12
  61  0.500  0.610  0.858-  25 1.86  28 1.86   7 2.09  11 2.10  12 2.10  31 2.12
  62  0.500  0.109  0.864-  18 1.89  19 1.89  21 2.05  13 2.08  10 2.08  14 2.15
  63  0.500  0.893  0.137-  17 1.87  20 1.87  21 2.07  15 2.15  11 2.17  12 2.17

  LATTYP: Found a simple monoclinic cell.
 ALAT       =    11.3209069780
 B/A-ratio  =     0.4933725788
 C/A-ratio  =     1.6643202856
 COS(beta)  =    -0.8952819529

  Lattice vectors:

 A1 = (  -6.4200494207,   0.0000000000,  -9.3244785505)
 A2 = (   0.0000000000,  -5.5854250702,   0.0000000000)
 A3 = (   2.6524263279,   0.0000000000,  18.6539833677)

Analysis of symmetry for initial positions (statically):
 Subroutine PRICEL returns:
 Original cell was already a primitive cell.

 Routine SETGRP: Setting up the symmetry group for a
 simple monoclinic supercell.

 Subroutine GETGRP returns: Found  2 space group operations
 (whereof  2 operations were pure point group operations)
 out of a pool of  4 trial point group operations.

The static configuration has the point symmetry C_1h.

Analysis of symmetry for dynamics (positions and initial velocities):
 Subroutine PRICEL returns:
 Original cell was already a primitive cell.

[...]

The dynamic configuration has the point symmetry C_1h.

Analysis of structural, dynamic, and magnetic symmetry:
 Subroutine PRICEL returns:
 Original cell was already a primitive cell.

 Routine SETGRP: Setting up the symmetry group for a
 simple monoclinic supercell.

 Subroutine GETGRP returns: Found  2 space group operations
 (whereof  2 operations were pure point group operations)
 out of a pool of  4 trial point group operations.

The magnetic configuration has the point symmetry C_1h.

 Subroutine INISYM returns: Found  2 space group operations
 (whereof  2 operations are pure point group operations),
 and found     1 'primitive' translations

 KPOINTS: Automatic mesh

Automatic generation of k-mesh.
Space group operators:
 irot       det(A)        alpha          n_x          n_y          n_z        tau_x        tau_y        tau_z
    1     1.000000     0.000000     1.000000     0.000000     0.000000     0.000000     0.000000     0.000000
    2    -1.000000   180.000000     0.000000     1.000000     0.000000     0.000000     0.000000     0.000000

 Subroutine IBZKPT returns following result:

 Found      1 irreducible k-points:

 Following reciprocal coordinates:
            Coordinates               Weight
  0.000000  0.000000  0.000000      1.000000

 Following cartesian coordinates:
            Coordinates               Weight
  0.000000  0.000000  0.000000      1.000000

 SYSTEM =  unknown system
 POSCAR =  ce4417_1

 Startparameter for this run:
   NWRITE =      1    write-flag & timer
[...]
   0.204E+02 -.139E+02 -.628E+02   -.209E+02 0.140E+02 0.633E+02   0.523E+00 -.163E+00 -.570E+00   -.232E-01 0.741E-02 -.857E-02
   -.547E+01 0.978E-12 -.214E+02   0.599E+01 0.545E-13 0.219E+02   -.540E+00 0.000E+00 -.455E+00   0.170E-01 -.240E-12 -.802E-02
   -.674E-01 -.154E-13 -.997E+01   -.394E+00 -.170E-12 0.103E+02   0.474E+00 0.000E+00 -.365E+00   -.141E-01 0.883E-13 0.527E-02
   0.868E+01 0.992E-12 -.208E+02   -.874E+01 -.142E-13 0.210E+02   0.774E-01 0.000E+00 -.186E+00   -.134E-01 -.130E-14 0.467E-02
   0.276E+02 0.582E-13 0.228E+03   -.319E+02 -.460E-14 -.240E+03   0.423E+01 0.000E+00 0.121E+02   -.108E-01 -.389E-12 0.143E-01
   -.445E+02 -.170E-13 -.269E+03   0.488E+02 0.147E-12 0.282E+03   -.440E+01 0.000E+00 -.127E+02   0.186E-01 0.346E-12 -.437E-02
   -.142E+02 -.555E-14 -.254E+03   0.167E+02 -.166E-13 0.266E+03   -.251E+01 0.000E+00 -.117E+02   0.338E-02 0.146E-12 -.935E-02
   -.350E+02 -.417E-13 0.298E+03   0.350E+02 0.573E-13 -.311E+03   0.700E-01 0.000E+00 0.132E+02   -.192E-01 0.699E-12 -.656E-02
   0.365E+02 -.381E+01 0.249E+03   -.406E+02 0.361E+01 -.261E+03   0.407E+01 0.209E+00 0.115E+02   -.167E-01 -.111E-01 0.764E-02
   -.244E+02 -.388E+01 -.269E+03   0.280E+02 0.360E+01 0.281E+03   -.363E+01 0.283E+00 -.119E+02   -.141E-02 -.111E-01 0.411E-02
   -.244E+02 0.388E+01 -.269E+03   0.280E+02 -.360E+01 0.281E+03   -.363E+01 -.283E+00 -.119E+02   -.141E-02 0.111E-01 0.411E-02
   0.365E+02 0.381E+01 0.249E+03   -.406E+02 -.361E+01 -.261E+03   0.407E+01 -.209E+00 0.115E+02   -.167E-01 0.111E-01 0.764E-02
   -.185E+02 0.478E+01 -.248E+03   0.225E+02 -.507E+01 0.259E+03   -.399E+01 0.294E+00 -.116E+02   0.342E-01 -.421E-02 0.146E-01
   0.531E+02 0.337E+02 0.307E+03   -.586E+02 -.357E+02 -.322E+03   0.551E+01 0.199E+01 0.148E+02   -.578E-02 -.420E-02 -.273E-01
   0.531E+02 -.337E+02 0.307E+03   -.586E+02 0.357E+02 -.322E+03   0.551E+01 -.199E+01 0.148E+02   -.578E-02 0.420E-02 -.273E-01
   -.185E+02 -.478E+01 -.248E+03   0.225E+02 0.507E+01 0.259E+03   -.399E+01 -.294E+00 -.116E+02   0.342E-01 0.421E-02 0.146E-01
   0.733E+01 0.214E-12 0.236E+03   -.101E+02 -.300E-13 -.248E+03   0.282E+01 0.000E+00 0.113E+02   -.162E-01 0.467E-12 0.159E-01
   -.298E+02 0.179E-12 -.276E+03   0.339E+02 -.177E-14 0.289E+03   -.408E+01 0.000E+00 -.132E+02   0.236E-01 -.341E-12 -.769E-02
   -.227E+02 0.217E-12 -.252E+03   0.264E+02 0.101E-13 0.263E+03   -.373E+01 0.000E+00 -.116E+02   -.135E-01 -.116E-12 -.726E-03
   0.840E+01 0.150E-12 0.279E+03   -.127E+02 0.497E-13 -.291E+03   0.429E+01 0.000E+00 0.116E+02   -.103E-02 -.603E-12 -.178E-01
   0.967E+01 -.475E-14 0.255E+03   -.124E+02 0.300E-13 -.267E+03   0.278E+01 0.000E+00 0.126E+02   -.289E-03 0.937E-12 0.396E-02
   0.403E+02 0.460E-13 -.297E+03   -.402E+02 0.997E-14 0.311E+03   -.918E-01 0.000E+00 -.141E+02   -.859E-02 -.450E-12 -.161E-01
   -.235E+02 -.315E-13 -.234E+03   0.273E+02 0.215E-13 0.246E+03   -.375E+01 0.000E+00 -.117E+02   -.149E-01 -.383E-12 0.138E-01
   0.391E+02 -.536E-14 0.272E+03   -.426E+02 0.773E-13 -.284E+03   0.344E+01 0.000E+00 0.117E+02   0.278E-01 -.123E-11 0.763E-02
   0.278E+02 0.536E+01 0.241E+03   -.321E+02 -.554E+01 -.253E+03   0.428E+01 0.178E+00 0.120E+02   0.249E-01 0.258E-02 0.102E-01
   -.583E+02 0.355E+02 -.305E+03   0.645E+02 -.375E+02 0.319E+03   -.617E+01 0.196E+01 -.149E+02   -.620E-02 0.219E-02 -.272E-01
   -.583E+02 -.355E+02 -.305E+03   0.645E+02 0.375E+02 0.319E+03   -.617E+01 -.196E+01 -.149E+02   -.620E-02 -.219E-02 -.272E-01
   0.278E+02 -.536E+01 0.241E+03   -.321E+02 0.554E+01 -.253E+03   0.428E+01 -.178E+00 0.120E+02   0.249E-01 -.258E-02 0.102E-01
   -.359E+02 -.247E+01 -.249E+03   0.398E+02 0.231E+01 0.260E+03   -.387E+01 0.186E+00 -.108E+02   -.147E-01 -.231E-01 0.119E-01
   0.145E+02 -.217E+01 0.275E+03   -.173E+02 0.196E+01 -.287E+03   0.287E+01 0.234E+00 0.116E+02   -.121E-01 -.226E-01 0.265E-02
   0.145E+02 0.217E+01 0.275E+03   -.173E+02 -.196E+01 -.287E+03   0.287E+01 -.234E+00 0.116E+02   -.121E-01 0.226E-01 0.265E-02
   -.359E+02 0.247E+01 -.249E+03   0.398E+02 -.231E+01 0.260E+03   -.387E+01 -.186E+00 -.108E+02   -.147E-01 0.231E-01 0.119E-01
   0.312E+02 0.184E-12 0.248E+03   -.358E+02 -.110E-12 -.260E+03   0.459E+01 0.000E+00 0.126E+02   0.100E-01 -.899E-12 -.118E-02
   -.107E+02 0.240E-12 -.274E+03   0.149E+02 0.664E-13 0.287E+03   -.415E+01 0.000E+00 -.123E+02   -.172E-01 0.553E-12 -.118E-01
   -.124E+02 0.187E-12 -.239E+03   0.149E+02 0.212E-13 0.250E+03   -.250E+01 0.000E+00 -.109E+02   -.135E-01 0.390E-12 0.154E-01
   0.354E+02 0.194E-12 0.276E+03   -.391E+02 -.455E-13 -.288E+03   0.373E+01 0.000E+00 0.125E+02   0.269E-01 0.131E-11 0.584E-02
   0.163E+01 0.186E-10 -.864E+00   -.497E-13 -.186E-12 0.114E-12   -.164E+01 -.555E-16 0.882E+00   -.112E-03 0.529E-12 -.155E-01

 POSITION                                       TOTAL-FORCE (eV/Angst)
      1.62426      0.00000      2.33561        -0.005763      0.000000     -0.002968
      4.17441      1.39746      2.33285         0.003849     -0.002186     -0.003248
      2.36492      1.35712      6.98082        -0.007635      0.002790      0.005647
      2.36492      4.23032      6.98082        -0.007635     -0.002790      0.005647
      4.17441      4.18999      2.33285         0.003849      0.002186     -0.003248
      1.61930      2.79372      2.34093        -0.014533      0.000000     -0.005291
      4.81144      2.79372      6.98073         0.006040      0.000000      0.004556
      6.70714      0.00000      2.32804         0.007773      0.000000      0.003277
     -0.29641      0.00000      6.99830        -0.013766      0.000000     -0.007746
      9.23782      1.41238      2.32691        -0.003063      0.003547      0.011573
      7.26052      1.37149      6.99834         0.004326      0.000894      0.003375
      7.26052      4.21596      6.99834         0.004326     -0.000894      0.003375
      9.23782      4.17506      2.32691        -0.003063     -0.003547      0.011573
      6.70324      2.79372      2.32983         0.002601      0.000000     -0.002778
     -0.29080      2.79372      6.99675        -0.004087      0.000000     -0.004189
      0.00002      0.00000      0.00720        -0.001206      0.000000      0.002155
      2.55053      1.39787      0.00249         0.003652      0.001095     -0.006017
      3.87918      1.39348      9.31280        -0.000796     -0.000383      0.007019
      3.87918      4.19396      9.31280        -0.000796      0.000383      0.007019
      2.55053      4.18957      0.00249         0.003652     -0.001095     -0.006017
      0.01163      2.79372      0.04063        -0.000415      0.000000      0.002104
      5.09067      0.00000      0.00666        -0.000291      0.000000     -0.003842
      5.09448      2.79372     -0.00174        -0.000187      0.000000     -0.004331
      3.21186      0.00000      4.65087         0.000342      0.000000     -0.010808
      5.75304      1.39274      4.66640        -0.007668     -0.004307      0.007351
      0.65919      1.39728      4.66874         0.004085     -0.000738     -0.008503
      0.65919      4.19016      4.66874         0.004085      0.000738     -0.008503
      5.75304      4.19470      4.66640        -0.007668      0.004307      0.007351
      3.19760      2.79372      4.62257        -0.001289      0.000000     -0.006475
      8.30225      0.00000      4.65106        -0.000631      0.000000      0.004750
      8.29204      2.79372      4.66322         0.001343      0.000000      0.002503
      5.07565      0.00000      3.63257        -0.004710      0.000000      0.014924
      1.34881      0.00000      5.68825         0.006034      0.000000     -0.009459
      3.32984      0.00000      0.99141         0.009995      0.000000     -0.008588
      3.02673      0.00000      8.38291        -0.000089      0.000000      0.004159
      7.61695      1.40870      3.60780        -0.006557     -0.000081      0.007779
     -1.20262      1.40560      5.70865         0.009969     -0.002181     -0.004905
     -1.20262      4.18185      5.70865         0.009969      0.002181     -0.004905
      7.61695      4.17875      3.60780        -0.006557      0.000081      0.007779
      0.74359      1.38034      1.03951         0.001150      0.000085     -0.000125
      5.70164      1.42503      8.35309        -0.003418     -0.000647      0.005268
      5.70164      4.16242      8.35309        -0.003418      0.000647      0.005268
      0.74359      4.20710      1.03951         0.001150     -0.000085     -0.000125
      4.98972      2.79372      3.65559        -0.009255      0.000000      0.010515
      1.42130      2.79372      5.65424         0.011342      0.000000     -0.013612
      3.28648      2.79372      1.01908         0.008208      0.000000     -0.013666
      3.14088      2.79372      8.31880        -0.001485      0.000000      0.005802
     -0.12783      0.00000      3.69042         0.005261      0.000000     -0.008623
      6.60255      0.00000      5.59298        -0.007880      0.000000      0.014416
      8.37137      0.00000      0.99370        -0.003640      0.000000      0.008937
     -1.96351      0.00000      8.32606        -0.001284      0.000000     -0.007296
      2.50605      1.37527      3.60630         0.012439     -0.000246     -0.006741
      3.89198      1.41907      5.64606        -0.001953      0.001867      0.003398
      3.89198      4.16837      5.64606        -0.001953     -0.001867      0.003398
      2.50605      4.21217      3.60630         0.012439      0.000246     -0.006741
      5.81910      1.40505      1.03438        -0.007042      0.000805      0.003529
      0.58967      1.40170      8.30711         0.008220      0.000625     -0.014658
      0.58967      4.18574      8.30711         0.008220     -0.000625     -0.014658
      5.81910      4.18239      1.03438        -0.007042     -0.000805      0.003529
     -0.01056      2.79372      3.63572        -0.001079      0.000000     -0.004663
      6.43320      2.79372      5.68881        -0.002324      0.000000      0.013894
      8.39216      2.79372      1.01346        -0.005168      0.000000      0.009745
     -1.96753      2.79372      8.33378         0.001024      0.000000     -0.008883
    total drift:                               -0.006798      0.000000      0.002728

  FREE ENERGIE OF THE ION-ELECTRON SYSTEM (eV)
  free  energy   TOTEN  =      -378.2273067844 eV

  energy  without entropy=     -378.1998495898  energy(sigma->0) =     -378.21357819

 d Force = 0.9203272E-03[ 0.757E-03, 0.108E-02]  d Energy = 0.8186258E-03 0.102E-03
 d Force = 0.5447775E+00[ 0.535E+00, 0.554E+00]  d Ewald  = 0.1139721E+00 0.431E+00

 Quasi-Newton relaxation of ions (Broydens 2nd method)
  g(Force)  = 0.299E-03   g(Stress)= 0.136E-04

 retain information from N=  1 steps
 eigenvalues of (default step * inverse Hessian matrix)
  average eigenvalue of G=   0.2692
 eigenvalue spectrum of G is  0.2692

 reached required accuracy - stopping structural energy minimisation

volume of typ            1:    22.0 %

[...]

volume of typ            3:     9.8 %

total charge

# of ion       s       p       d       tot
    1        2.083   0.258   0.097   2.437
    2        2.086   0.268   0.101   2.455
    3        2.082   0.256   0.096   2.434
    4        2.082   0.256   0.096   2.434
    5        2.086   0.268   0.101   2.455
    6        2.086   0.265   0.101   2.452
    7        2.079   0.245   0.092   2.416
    8        2.084   0.264   0.099   2.447
    9        2.082   0.258   0.096   2.436
   10        2.085   0.264   0.100   2.448
   11        2.081   0.256   0.095   2.433
   12        2.081   0.256   0.095   2.433
   13        2.085   0.264   0.100   2.448
   14        2.082   0.261   0.096   2.438
   15        2.079   0.253   0.093   2.424
   16        0.263   0.346   7.869   8.478
   17        0.261   0.342   7.877   8.481
   18        0.261   0.340   7.869   8.470
   19        0.261   0.340   7.869   8.470
   20        0.261   0.342   7.877   8.481
   21        0.271   0.360   7.874   8.504
   22        0.267   0.357   7.866   8.491
   23        0.261   0.343   7.876   8.479
   24        0.264   0.343   7.882   8.489
   25        0.260   0.336   7.880   8.476
   26        0.262   0.339   7.890   8.491
   27        0.262   0.339   7.890   8.491
   28        0.260   0.336   7.880   8.476
   29        0.273   0.365   7.867   8.504
   30        0.270   0.364   7.862   8.496
   31        0.262   0.340   7.885   8.488
   32        1.255   2.800   0.006   4.060
   33        1.255   2.795   0.006   4.056
   34        1.255   2.799   0.006   4.060
   35        1.259   2.790   0.006   4.055
   36        1.255   2.799   0.005   4.060
   37        1.257   2.793   0.006   4.055
   38        1.257   2.793   0.006   4.055
   39        1.255   2.799   0.005   4.060
   40        1.254   2.801   0.006   4.061
   41        1.261   2.781   0.006   4.048
   42        1.261   2.781   0.006   4.048
   43        1.254   2.801   0.006   4.061
   44        1.255   2.798   0.006   4.058
   45        1.256   2.790   0.006   4.052
   46        1.256   2.798   0.006   4.059
   47        1.255   2.798   0.006   4.059
   48        1.255   2.796   0.006   4.057
   49        1.259   2.789   0.007   4.054
   50        1.255   2.800   0.006   4.061
   51        1.256   2.796   0.006   4.057
   52        1.253   2.803   0.006   4.062
   53        1.260   2.782   0.006   4.048
   54        1.260   2.782   0.006   4.048
   55        1.253   2.803   0.006   4.062
   56        1.256   2.798   0.005   4.059
   57        1.257   2.792   0.006   4.055
   58        1.257   2.792   0.006   4.055
   59        1.256   2.798   0.005   4.059
   60        1.253   2.801   0.006   4.060
   61        1.253   2.802   0.006   4.061
   62        1.255   2.800   0.005   4.060
   63        1.257   2.792   0.006   4.055
tot          75.66   98.87  127.66  302.18

magnetization (x)

# of ion       s       p       d       tot
    1        0.005   0.007  -0.000   0.012
    2        0.002   0.007  -0.000   0.009
    3        0.003   0.009   0.001   0.013
    4        0.003   0.009   0.001   0.013
    5        0.002   0.007  -0.000   0.009
    6        0.002   0.008   0.001   0.011
    7        0.002   0.007   0.001   0.010
    8        0.001   0.008  -0.001   0.008
    9        0.002   0.008  -0.001   0.009
   10        0.002   0.009   0.001   0.012
   11        0.002   0.007  -0.000   0.009
   12        0.002   0.007  -0.000   0.009
   13        0.002   0.009   0.001   0.012
   14        0.005   0.014  -0.000   0.019
   15        0.006   0.014  -0.000   0.020
   16        0.002  -0.001   0.628   0.629
   17        0.002  -0.001   0.691   0.692
   18        0.002  -0.000   0.698   0.700
   19        0.002  -0.000   0.698   0.700
   20        0.002  -0.001   0.691   0.692
   21        0.003  -0.001   0.598   0.600
   22       -0.000  -0.001   0.537   0.536
   23        0.002  -0.001   0.698   0.699
   24       -0.005  -0.000  -0.497  -0.502
   25        0.004  -0.000   0.662   0.666
   26       -0.005   0.000  -0.565  -0.570
   27       -0.005   0.000  -0.565  -0.570
   28        0.004  -0.000   0.662   0.666
   29        0.004   0.000   0.509   0.513
   30        0.001   0.000   0.453   0.454
   31        0.005  -0.000   0.667   0.672
   32       -0.002  -0.067  -0.000  -0.069
   33       -0.006  -0.077  -0.000  -0.082
   34        0.009   0.039   0.000   0.047
   35        0.010   0.063   0.000   0.073
   36        0.009   0.092   0.000   0.101
   37       -0.001  -0.068  -0.000  -0.069
   38       -0.001  -0.068  -0.000  -0.069
   39        0.009   0.092   0.000   0.101
   40        0.009   0.070   0.000   0.079
   41        0.009   0.086   0.000   0.095
   42        0.009   0.086   0.000   0.095
   43        0.009   0.070   0.000   0.079
   44        0.009   0.079   0.000   0.088
   45        0.004   0.037   0.000   0.041
   46        0.010   0.076   0.000   0.086
   47        0.009   0.067   0.000   0.077
   48        0.002   0.001   0.000   0.003
   49        0.008   0.058   0.000   0.066
   50        0.010   0.072   0.000   0.082
   51        0.010   0.082   0.000   0.093
   52       -0.005  -0.081  -0.000  -0.086
   53        0.006   0.091   0.000   0.097
   54        0.006   0.091   0.000   0.097
   55       -0.005  -0.081  -0.000  -0.086
   56        0.011   0.088   0.000   0.099
   57        0.011   0.086   0.000   0.097
   58        0.011   0.086   0.000   0.097
   59        0.011   0.088   0.000   0.099
   60        0.005   0.076   0.000   0.081
   61        0.008   0.092   0.000   0.100
   62        0.011   0.091   0.000   0.102
   63        0.010   0.075   0.000   0.085
tot           0.26    1.62    6.57    8.45