 vasp.5.4.4.18Apr17-6-g9f103f2a35 (build May 12 2020 05:39:39) gamma-only

 MD_VERSION_INFO: Compiled 2020-05-12T12:39:39-UTC in devlin.sd.materialsdesign.
 com:/home/medea2/data/build/wwolf/vasp-gpu5.4.4/13047/x86_64/src/src/build/gam
 from svn 13047

 executed on                        Lin64 date 2023.03.07  00:25:39

 INCAR:
 POTCAR:    PAW_PBE Li_sv 10Sep2004
 POTCAR:    PAW_PBE Ni 02Aug2007
 POTCAR:    PAW_PBE O 08Apr2002

 POTCAR:    PAW_PBE Li_sv 10Sep2004

 POTCAR:    PAW_PBE Ni 02Aug2007

 POTCAR:    PAW_PBE O 08Apr2002

 Optimization of the real space projectors (new method)

 maximal supplied QI-value         = 22.11
 optimisation between [QCUT,QGAM] = [ 11.28, 22.77] = [ 35.61,145.23] Ry
 Optimized for a Real-space Cutoff    1.10 Angstroem

   l    n(q)    QCUT    max X(q) W(low)/X(q) W(high)/X(q)  e(spline)
   0      7    11.276    10.506    0.54E-04    0.58E-04    0.16E-07
   0      7    11.276     8.367    0.11E-03    0.14E-03    0.35E-07
   1      7    11.276     8.983    0.23E-03    0.43E-03    0.86E-07
 Optimization of the real space projectors (new method)

[...]

   l    n(q)    QCUT    max X(q) W(low)/X(q) W(high)/X(q)  e(spline)
   2      9    11.376    60.317    0.17E-03    0.16E-04    0.16E-06
   2      9    11.376    55.921    0.17E-03    0.16E-04    0.17E-06
   0     10    11.376    51.690    0.45E-04    0.60E-04    0.21E-06
   0     10    11.376    30.015    0.37E-04    0.55E-04    0.19E-06
   1     10    11.376    18.849    0.83E-04    0.11E-03    0.92E-07
   1     10    11.376    14.624    0.69E-04    0.92E-04    0.82E-07
 Optimization of the real space projectors (new method)

 maximal supplied QI-value         = 24.76
 optimisation between [QCUT,QGAM] = [ 11.39, 22.77] = [ 36.31,145.25] Ry
 Optimized for a Real-space Cutoff    1.10 Angstroem

   l    n(q)    QCUT    max X(q) W(low)/X(q) W(high)/X(q)  e(spline)
   0      7    11.387    20.381    0.22E-03    0.48E-03    0.18E-06
   0      7    11.387    15.268    0.22E-03    0.52E-03    0.19E-06
   1      7    11.387     5.964    0.22E-03    0.73E-03    0.24E-06
   1      7    11.387     5.382    0.19E-03    0.60E-03    0.21E-06

  PAW_PBE Li_sv 10Sep2004               :
  PAW_PBE Ni 02Aug2007                  :
  PAW_PBE O 08Apr2002                   :

 POSCAR: ce17458_1
  positions in direct lattice
 exchange correlation table for  LEXCH =       14
   RHO(1)=    0.500       N(1)  =     2000
   RHO(2)=  100.500       N(2)  =     4000

 ion  position               nearest neighbor table
   1  0.980  0.251  0.732-  48 2.04  21 2.04  28 2.16  45 2.18  11 2.78
   2  0.980  0.749  0.268-  47 2.04  22 2.04  27 2.16  46 2.18  11 2.78
   3  0.267  0.249  0.018-  29 2.01  49 2.02  37 2.13  51 2.18  15 2.79  10 2.81
   4  0.267  0.751  0.982-  30 2.01  50 2.02  38 2.13  52 2.18  14 2.79  10 2.81
   5  0.998  0.000  0.000-  31 1.83  32 1.83  29 1.85  30 1.85  39 1.95  40 1.95  10 2.76  10 2.80
                             9 2.80   8 2.80   7 2.82   6 2.82
   6  0.251  0.006  0.253-  35 1.83  40 1.85  23 1.85  52 1.85  46 1.92  29 1.94   9 2.77   9 2.78
                            12 2.80  11 2.81  10 2.81   5 2.82
   7  0.251  0.994  0.747-  36 1.83  39 1.85  24 1.85  51 1.85  45 1.92  30 1.94   8 2.77   8 2.78
                            12 2.80  11 2.81  10 2.81   5 2.82
   8  0.749  0.997  0.749-  36 1.83  24 1.85  51 1.86  39 1.87  31 1.91  48 1.92   7 2.77   7 2.78
                            10 2.80   5 2.80  12 2.81  11 2.81
   9  0.749  0.003  0.251-  35 1.83  23 1.85  52 1.86  40 1.87  32 1.91  47 1.92   6 2.77   6 2.78
                            10 2.80   5 2.80  12 2.81  11 2.81
  10  0.502  0.000  0.000-  31 1.84  32 1.84  29 1.85  30 1.85  51 1.89  52 1.89   5 2.76   5 2.80
                             9 2.80   8 2.80   3 2.81   4 2.81   7 2.81   6 2.81
  11  1.000  0.000  0.500-  45 1.84  46 1.84  47 1.84  48 1.84  23 1.92  24 1.92  12 2.78  12 2.78
                             2 2.78   1 2.78   7 2.81   6 2.81   9 2.81   8 2.81
  12  0.500  0.000  0.500-  47 1.86  48 1.86  45 1.86  46 1.86  35 1.93  36 1.93  11 2.78  11 2.78
                             6 2.80   7 2.80   8 2.81   9 2.81
  13  0.000  0.500  0.500-  43 1.84  44 1.84  41 1.84  42 1.84  21 1.95  22 1.95  18 2.77  18 2.78
                            15 2.80  14 2.80  17 2.81  16 2.81
  14  0.252  0.500  0.749-  50 1.84  33 1.84  21 1.84  38 1.85  42 1.90  25 1.96  17 2.77   4 2.79
                            17 2.79  18 2.80  13 2.80  20 2.82  19 2.82
  15  0.252  0.500  0.251-  49 1.84  34 1.84  22 1.84  37 1.85  41 1.90  26 1.96  16 2.77   3 2.79
                            16 2.79  18 2.80  13 2.80  20 2.82  19 2.82
  16  0.750  0.494  0.248-  34 1.84  22 1.84  49 1.85  37 1.87  44 1.89  27 1.93  15 2.77  15 2.79
                            18 2.80  20 2.81  13 2.81  19 2.81
  17  0.750  0.506  0.752-  33 1.84  21 1.84  50 1.85  38 1.87  43 1.89  28 1.93  14 2.77  14 2.79
                            18 2.80  20 2.81  13 2.81  19 2.81
  18  0.501  0.500  0.500-  43 1.84  44 1.84  41 1.85  42 1.85  33 1.90  34 1.90  13 2.77  13 2.78
                            15 2.80  14 2.80  17 2.80  16 2.80
  19  0.001  0.500  0.000-  27 1.84  28 1.84  25 1.85  26 1.85  37 1.91  38 1.91  20 2.77  20 2.78
                            17 2.81  16 2.81  15 2.82  14 2.82
  20  0.502  0.500  0.000-  27 1.85  28 1.85  25 1.87  26 1.87  49 1.93  50 1.93  19 2.77  19 2.78
                            16 2.81  17 2.81  14 2.82  15 2.82
  21  0.997  0.403  0.640-  14 1.84  17 1.84  13 1.95   1 2.04
  22  0.997  0.597  0.360-  15 1.84  16 1.84  13 1.95   2 2.04
  23  0.998  0.101  0.367-   6 1.85   9 1.85  11 1.92
  24  0.998  0.899  0.633-   7 1.85   8 1.85  11 1.92
  25  0.249  0.398  0.887-  19 1.85  20 1.87  14 1.96
  26  0.249  0.602  0.113-  19 1.85  20 1.87  15 1.96
  27  0.753  0.597  0.115-  19 1.84  20 1.85  16 1.93   2 2.16
  28  0.753  0.403  0.885-  19 1.84  20 1.85  17 1.93   1 2.16
  29  0.250  0.101  0.111-   5 1.85  10 1.85   6 1.94   3 2.01
  30  0.250  0.899  0.889-   5 1.85  10 1.85   7 1.94   4 2.01
  31  0.750  0.901  0.888-   5 1.83  10 1.84   8 1.91
  32  0.750  0.099  0.112-   5 1.83  10 1.84   9 1.91
  33  0.504  0.405  0.637-  14 1.84  17 1.84  18 1.90
  34  0.504  0.595  0.363-  15 1.84  16 1.84  18 1.90
  35  0.502  0.101  0.365-   9 1.83   6 1.83  12 1.93
  36  0.502  0.899  0.635-   8 1.83   7 1.83  12 1.93
  37  0.006  0.399  0.132-  15 1.85  16 1.87  19 1.91   3 2.13
  38  0.006  0.601  0.868-  14 1.85  17 1.87  19 1.91   4 2.13
  39  0.005  0.098  0.860-   7 1.85   8 1.87   5 1.95
  40  0.005  0.902  0.140-   6 1.85   9 1.87   5 1.95
  41  0.250  0.403  0.386-  13 1.84  18 1.85  15 1.90
  42  0.250  0.597  0.614-  13 1.84  18 1.85  14 1.90
  43  0.751  0.598  0.613-  13 1.84  18 1.84  17 1.89
  44  0.751  0.402  0.387-  13 1.84  18 1.84  16 1.89
  45  0.248  0.097  0.616-  11 1.84  12 1.86   7 1.92   1 2.18
  46  0.248  0.903  0.384-  11 1.84  12 1.86   6 1.92   2 2.18
  47  0.752  0.903  0.385-  11 1.84  12 1.86   9 1.92   2 2.04
  48  0.752  0.097  0.615-  11 1.84  12 1.86   8 1.92   1 2.04
  49  0.496  0.399  0.135-  15 1.84  16 1.85  20 1.93   3 2.02
  50  0.496  0.601  0.865-  14 1.84  17 1.85  20 1.93   4 2.02
  51  0.496  0.095  0.864-   7 1.85   8 1.86  10 1.89   3 2.18
  52  0.496  0.905  0.136-   6 1.85   9 1.86  10 1.89   4 2.18

  LATTYP: Found a simple monoclinic cell.
 ALAT       =    11.4791766061
 B/A-ratio  =     0.4837564141
 C/A-ratio  =     1.6911605823
 COS(beta)  =    -0.9072160685

  Lattice vectors:

 A1 = (  -6.2141154020,   0.0000000000,  -9.6517493402)
 A2 = (   0.0000000000,  -5.5531253116,   0.0000000000)
 A3 = (   2.6676242484,   0.0000000000,  19.2289738637)

Analysis of symmetry for initial positions (statically):
 Subroutine PRICEL returns:
 Original cell was already a primitive cell.

 Routine SETGRP: Setting up the symmetry group for a
 simple monoclinic supercell.

 Subroutine GETGRP returns: Found  2 space group operations
 (whereof  2 operations were pure point group operations)
 out of a pool of  4 trial point group operations.

The static configuration has the point symmetry C_2 .

Analysis of symmetry for dynamics (positions and initial velocities):
 Subroutine PRICEL returns:
 Original cell was already a primitive cell.

[...]

The dynamic configuration has the point symmetry C_2 .

Analysis of structural, dynamic, and magnetic symmetry:
 Subroutine PRICEL returns:
 Original cell was already a primitive cell.

 Routine SETGRP: Setting up the symmetry group for a
 simple monoclinic supercell.

 Subroutine GETGRP returns: Found  2 space group operations
 (whereof  2 operations were pure point group operations)
 out of a pool of  4 trial point group operations.

The magnetic configuration has the point symmetry C_2 .

 Subroutine INISYM returns: Found  2 space group operations
 (whereof  2 operations are pure point group operations),
 and found     1 'primitive' translations

 KPOINTS: Automatic mesh

Automatic generation of k-mesh.
Space group operators:
 irot       det(A)        alpha          n_x          n_y          n_z        tau_x        tau_y        tau_z
    1     1.000000     0.000000     1.000000     0.000000     0.000000     0.000000     0.000000     0.000000
    2     1.000000   180.000000     0.000000     1.000000     0.000000     0.000000     0.000000     0.000000

 Subroutine IBZKPT returns following result:

 Found      1 irreducible k-points:

 Following reciprocal coordinates:
            Coordinates               Weight
  0.000000  0.000000  0.000000      1.000000

 Following cartesian coordinates:
            Coordinates               Weight
  0.000000  0.000000  0.000000      1.000000

 SYSTEM =  unknown system
 POSCAR =  ce17458_1

 Startparameter for this run:
   NWRITE =      1    write-flag & timer
   PREC   = accura    normal or accurate (medium, high low for compatibility)
   ISTART =      0    job   : 0-new  1-cont  2-samecut
   ICHARG =      2    charge: 1-file 2-atom 10-const
   ISPIN  =      2    spin polarized calculation?
   LNONCOLLINEAR =      F non collinear calculations
   LSORBIT =      F    spin-orbit coupling
   INIWAV =      1    electr: 0-lowe 1-rand  2-diag
   LASPH  =      F    aspherical Exc in radial PAW
   METAGGA=      F    non-selfconsistent MetaGGA calc.

 Electronic Relaxation 1
   ENCUT  =  500.0 eV  36.75 Ry    6.06 a.u.  10.12 18.62 17.80*2*pi/ulx,y,z
   ENINI  =  500.0     initial cutoff
   ENAUG  =  628.9 eV  augmentation charge cutoff
   NELM   =     80;   NELMIN=  2; NELMDL= -5     # of ELM steps
   EDIFF  = 0.1E-04   stopping-criterion for ELM
   LREAL  =      T    real-space projection
   NLSPLINE    = F    spline interpolate recip. space projectors
   LCOMPAT=      F    compatible to vasp.4.4
   GGA_COMPAT  = T    GGA compatible to vasp.4.4-vasp.4.6
   LMAXPAW     = -100 max onsite density
   LMAXMIX     =    2 max onsite mixed and CHGCAR
   VOSKOWN=      1    Vosko Wilk Nusair interpolation
   ROPT   =   -0.00025  -0.00025  -0.00025
 Ionic relaxation
   EDIFFG = -.2E-01   stopping-criterion for IOM
   NSW    =     20    number of steps for IOM
   NBLOCK =      1;   KBLOCK =     20    inner block; outer block
[...]
   -.532E+01 -.105E+01 -.300E+01   0.595E+01 0.583E+00 0.292E+01   -.624E+00 0.449E+00 0.810E-01   0.812E-02 -.759E-03 -.167E-02
   0.232E+01 0.222E+00 -.127E+01   -.142E+01 0.807E-01 0.124E+01   -.880E+00 -.302E+00 0.289E-01   0.365E-02 0.317E-03 0.160E-02
   -.232E+01 0.222E+00 0.127E+01   0.142E+01 0.807E-01 -.124E+01   0.880E+00 -.302E+00 -.289E-01   -.365E-02 0.317E-03 -.160E-02
   -.163E-04 0.221E+02 0.420E-05   -.912E-11 -.224E+02 0.125E-10   0.000E+00 0.287E+00 0.000E+00   0.135E-10 -.881E-02 0.364E-11
   -.133E+02 -.993E+01 -.820E+02   0.132E+02 0.100E+02 0.832E+02   0.111E+00 -.937E-01 -.121E+01   0.218E-01 0.222E-02 -.945E-02
   0.133E+02 -.993E+01 0.820E+02   -.132E+02 0.100E+02 -.832E+02   -.111E+00 -.937E-01 0.121E+01   -.218E-01 0.222E-02 0.945E-02
   -.288E+01 0.107E+02 0.362E+02   0.321E+01 -.109E+02 -.373E+02   -.308E+00 0.162E+00 0.111E+01   -.253E-01 -.194E-01 0.467E-02
   0.288E+01 0.107E+02 -.362E+02   -.321E+01 -.109E+02 0.373E+02   0.308E+00 0.162E+00 -.111E+01   0.253E-01 -.194E-01 -.467E-02
   0.689E-05 -.243E+02 -.177E-05   -.915E-11 0.247E+02 0.124E-10   0.000E+00 -.388E+00 -.232E-22   0.623E-11 -.662E-02 0.724E-11
   -.616E-05 -.354E+01 0.135E-05   0.355E-11 0.346E+01 -.465E-12   0.000E+00 0.740E-01 -.190E-22   -.311E-10 0.949E-03 -.179E-11
   -.644E-05 0.291E+01 0.142E-05   0.359E-11 -.278E+01 -.600E-12   0.000E+00 -.130E+00 -.976E-22   -.495E-11 -.522E-02 0.731E-12
   0.645E-05 -.415E+01 -.158E-05   0.330E-12 0.414E+01 0.145E-11   0.000E+00 0.187E-01 -.212E-21   -.258E-11 -.341E-02 -.153E-11
   0.461E+02 -.932E+01 0.243E+02   -.470E+02 0.953E+01 -.242E+02   0.894E+00 -.195E+00 -.135E+00   -.424E-01 -.104E-01 -.986E-02
   -.461E+02 -.932E+01 -.243E+02   0.470E+02 0.953E+01 0.242E+02   -.894E+00 -.195E+00 0.135E+00   0.424E-01 -.104E-01 0.986E-02
   -.270E+02 0.826E+01 0.532E+02   0.275E+02 -.850E+01 -.542E+02   -.540E+00 0.219E+00 0.988E+00   0.395E-01 0.264E-01 0.718E-02
   0.270E+02 0.826E+01 -.532E+02   -.275E+02 -.850E+01 0.542E+02   0.540E+00 0.219E+00 -.988E+00   -.395E-01 0.264E-01 -.718E-02
   0.126E-04 0.462E+01 -.308E-05   0.330E-12 -.463E+01 0.145E-11   0.000E+00 -.102E-01 0.331E-23   0.235E-11 0.203E-01 -.520E-11
   0.107E-04 0.243E+02 -.232E-05   0.310E-12 -.247E+02 -.139E-11   0.000E+00 0.335E+00 0.728E-22   -.194E-11 0.406E-02 -.672E-12
   0.166E-04 -.239E+02 -.360E-05   0.289E-12 0.243E+02 -.131E-11   0.000E+00 -.406E+00 0.000E+00   -.159E-10 0.226E-01 0.781E-11
   0.591E+02 -.348E+00 0.371E+03   -.638E+02 0.151E-01 -.392E+03   0.467E+01 0.336E+00 0.210E+02   -.292E-01 0.125E-02 0.632E-02
   -.591E+02 -.348E+00 -.371E+03   0.638E+02 0.151E-01 0.392E+03   -.467E+01 0.336E+00 -.210E+02   0.292E-01 0.125E-02 -.632E-02
   -.461E+00 0.181E+01 -.416E+03   0.502E+00 -.222E+01 0.442E+03   -.595E-01 0.395E+00 -.262E+02   0.149E-01 0.747E-02 0.178E-01
   0.461E+00 0.181E+01 0.416E+03   -.502E+00 -.222E+01 -.442E+03   0.595E-01 0.395E+00 0.262E+02   -.149E-01 0.747E-02 -.178E-01
   0.331E+02 -.289E+02 0.372E+03   -.356E+02 0.309E+02 -.392E+03   0.244E+01 -.197E+01 0.201E+02   -.140E-01 -.177E-01 -.137E-01
   -.331E+02 -.289E+02 -.372E+03   0.356E+02 0.309E+02 0.392E+03   -.244E+01 -.197E+01 -.201E+02   0.140E-01 -.177E-01 0.137E-01
   -.104E+02 0.313E+02 -.373E+03   0.110E+02 -.336E+02 0.395E+03   -.576E+00 0.231E+01 -.217E+02   0.106E-01 0.152E-01 0.126E-01
   0.104E+02 0.313E+02 0.373E+03   -.110E+02 -.336E+02 -.395E+03   0.576E+00 0.231E+01 0.217E+02   -.106E-01 0.152E-01 -.126E-01
   -.484E+02 0.596E+01 -.378E+03   0.521E+02 -.645E+01 0.398E+03   -.379E+01 0.461E+00 -.206E+02   0.124E-01 0.196E-01 0.169E-01
   0.484E+02 0.596E+01 0.378E+03   -.521E+02 -.645E+01 -.398E+03   0.379E+01 0.461E+00 0.206E+02   -.124E-01 0.196E-01 -.169E-01
   0.227E+02 -.449E+01 0.401E+03   -.238E+02 0.466E+01 -.427E+03   0.117E+01 -.158E+00 0.263E+02   -.845E-02 -.184E-01 -.235E-01
   -.227E+02 -.449E+01 -.401E+03   0.238E+02 0.466E+01 0.427E+03   -.117E+01 -.158E+00 -.263E+02   0.845E-02 -.184E-01 0.235E-01
   0.217E+02 -.778E+00 0.401E+03   -.220E+02 0.142E+01 -.427E+03   0.311E+00 -.627E+00 0.261E+02   -.122E-01 -.485E-02 -.592E-02
   -.217E+02 -.778E+00 -.401E+03   0.220E+02 0.142E+01 0.427E+03   -.311E+00 -.627E+00 -.261E+02   0.122E-01 -.485E-02 0.592E-02
   -.206E+02 -.220E+01 -.411E+03   0.224E+02 0.274E+01 0.437E+03   -.180E+01 -.533E+00 -.267E+02   0.107E-01 -.525E-02 0.150E-01
   0.206E+02 -.220E+01 0.411E+03   -.224E+02 0.274E+01 -.437E+03   0.180E+01 -.533E+00 0.267E+02   -.107E-01 -.525E-02 -.150E-01
   -.278E+02 0.297E+02 0.378E+03   0.288E+02 -.318E+02 -.400E+03   -.107E+01 0.212E+01 0.217E+02   0.125E-01 -.124E-02 0.333E-02
   0.278E+02 0.297E+02 -.378E+03   -.288E+02 -.318E+02 0.400E+03   0.107E+01 0.212E+01 -.217E+02   -.125E-01 -.124E-02 -.333E-02
   -.200E+02 0.221E+02 -.351E+03   0.223E+02 -.233E+02 0.371E+03   -.233E+01 0.116E+01 -.194E+02   -.245E-01 0.876E-02 0.101E-01
   0.200E+02 0.221E+02 0.351E+03   -.223E+02 -.233E+02 -.371E+03   0.233E+01 0.116E+01 0.194E+02   0.245E-01 0.876E-02 -.101E-01
   -.137E+02 0.257E+01 0.395E+03   0.136E+02 -.266E+01 -.421E+03   0.128E+00 0.118E+00 0.263E+02   0.161E-01 -.254E-01 0.121E-01
   0.137E+02 0.257E+01 -.395E+03   -.136E+02 -.266E+01 0.421E+03   -.128E+00 0.118E+00 -.263E+02   -.161E-01 -.254E-01 -.121E-01
   0.879E+01 -.257E+01 -.401E+03   -.918E+01 0.267E+01 0.428E+03   0.405E+00 -.119E+00 -.266E+02   -.184E-01 0.208E-01 -.101E-01
   -.879E+01 -.257E+01 0.401E+03   0.918E+01 0.267E+01 -.428E+03   -.405E+00 -.119E+00 0.266E+02   0.184E-01 0.208E-01 0.101E-01
   0.149E+02 -.338E+02 -.372E+03   -.144E+02 0.364E+02 0.394E+03   -.507E+00 -.254E+01 -.226E+02   -.506E-02 0.142E-02 -.238E-02
   -.149E+02 -.338E+02 0.372E+03   0.144E+02 0.364E+02 -.394E+03   0.507E+00 -.254E+01 0.226E+02   0.506E-02 0.142E-02 0.238E-02
   -.130E+02 0.373E+02 0.367E+03   0.131E+02 -.403E+02 -.389E+03   -.152E+00 0.302E+01 0.213E+02   0.118E-01 0.288E-02 0.644E-03
   0.130E+02 0.373E+02 -.367E+03   -.131E+02 -.403E+02 0.389E+03   0.152E+00 0.302E+01 -.213E+02   -.118E-01 0.288E-02 -.644E-03
   -.111E+02 -.310E+02 0.368E+03   0.106E+02 0.332E+02 -.389E+03   0.498E+00 -.221E+01 0.212E+02   0.235E-01 -.363E-02 -.786E-02
   0.111E+02 -.310E+02 -.368E+03   -.106E+02 0.332E+02 0.389E+03   -.498E+00 -.221E+01 -.212E+02   -.235E-01 -.363E-02 0.786E-02
   0.188E+02 -.248E+02 -.365E+03   -.208E+02 0.264E+02 0.387E+03   0.201E+01 -.158E+01 -.217E+02   -.667E-02 -.661E-02 -.117E-02
   -.188E+02 -.248E+02 0.365E+03   0.208E+02 0.264E+02 -.387E+03   -.201E+01 -.158E+01 0.217E+02   0.667E-02 -.661E-02 0.117E-02
   0.408E-04 -.616E+00 -.877E-05   -.114E-12 -.320E-13 -.568E-13   -.444E-15 0.593E+00 -.107E-13   0.117E-10 0.941E-02 0.339E-10

 POSITION                                       TOTAL-FORCE (eV/Angst)
      6.22855      5.42508      2.48067        -0.010796     -0.015037      0.003708
     -0.02744      5.42508      7.27479         0.010796     -0.015037     -0.003708
     -0.67836      1.48463      2.40331         0.024684      0.001343      0.002132
      6.87947      1.48463      7.35215        -0.024684      0.001343     -0.002132
      0.00000      5.54092      0.00000        -0.000000      0.000502      0.000000
      2.44267      1.39005      0.06401         0.001046     -0.001623     -0.006515
      3.75844      1.39005      9.69146        -0.001046     -0.001623      0.006515
      3.76538      4.16171      9.72581        -0.001745     -0.001462      0.006606
      2.43573      4.16171      0.02965         0.001745     -0.001462     -0.006606
      0.00000      2.78362      0.00000        -0.000000     -0.004311      0.000000
      4.87477      5.55098      0.03464        -0.000000     -0.004467      0.000000
      4.87477      2.77297      0.03464        -0.000000     -0.001281      0.000000
      3.10055      0.00514      4.87773        -0.000000      0.005794      0.000000
      5.53142      1.40282      4.89507         0.000276      0.003055     -0.000219
      0.66968      1.40282      4.86039        -0.000276      0.003055      0.000219
      0.66896      4.17108      4.80264        -0.001057      0.002592     -0.001289
      5.53215      4.17108      4.95282         0.001057      0.002592      0.001289
      3.10055      2.78813      4.87773        -0.000000     -0.000648      0.000000
     -1.77422      0.00944      4.84309        -0.000000      0.001732      0.000000
     -1.77422      2.79325      4.84309        -0.000000      0.002131      0.000000
      4.82073      5.54447      3.95207        -0.004274      0.004561      0.002255
      1.38038      5.54447      5.80339         0.004274      0.004561     -0.002255
      3.22920      5.54075      0.97557        -0.003786     -0.002790     -0.010973
      2.97190      5.54075      8.77989         0.003786     -0.002790      0.010973
      7.23516      1.38866      3.93114        -0.001997      0.004858      0.002201
     -1.03406      1.38866      5.82432         0.001997      0.004858     -0.002201
     -0.99349      4.18972      5.78330         0.001137      0.006224     -0.001233
      7.19460      4.18972      3.97217        -0.001137      0.006224      0.001233
      0.73224      1.38176      0.96936         0.005586     -0.002414     -0.005521
      5.46887      1.38176      8.78610        -0.005586     -0.002414      0.005521
      5.44244      4.16625      8.81274        -0.004199     -0.004967      0.003286
      0.75867      4.16625      0.94273         0.004199     -0.004967     -0.003286
      4.76089      2.80458      3.98313         0.000036      0.005104      0.000180
      1.44021      2.80458      5.77233        -0.000036      0.005104     -0.000180
      3.18634      2.78742      0.98112        -0.001644     -0.004913     -0.011834
      3.01476      2.78742      8.77435         0.001644     -0.004913      0.011834
     -0.13609      0.04175      3.89199         0.000680      0.005594      0.001074
      6.33720      0.04175      5.86348        -0.000680      0.005594     -0.001074
      8.01909      0.02363      1.01670         0.002818     -0.003835      0.009576
     -1.81798      0.02363      8.73876        -0.002818     -0.003835     -0.009576
      2.33367      1.39369      3.94224         0.000066      0.003022      0.001726
      3.86743      1.39369      5.81323        -0.000066      0.003022     -0.001726
      3.85496      4.17660      5.82721        -0.000453      0.006374      0.000199
      2.34615      4.17660      3.92825         0.000453      0.006374     -0.000199
      5.65804      1.37498      0.97277        -0.004144     -0.002696      0.003894
      0.54306      1.37498      8.78269         0.004144     -0.002696     -0.003894
      0.55303      4.17130      8.77481         0.004646     -0.003475     -0.003492
      5.64808      4.17130      0.98065        -0.004646     -0.003475      0.003492
     -0.08420      2.75866      3.88202         0.001705      0.004159      0.000106
      6.28531      2.75866      5.87345        -0.001705      0.004159     -0.000106
      8.10047      2.75209      0.98053         0.005127     -0.003400      0.008163
     -1.89936      2.75209      8.77494        -0.005127     -0.003400     -0.008163
    total drift:                                0.000041     -0.013251     -0.000009

  FREE ENERGIE OF THE ION-ELECTRON SYSTEM (eV)
  free  energy   TOTEN  =      -324.6430669516 eV

  energy  without entropy=     -324.6429874617  energy(sigma->0) =     -324.64302721

 d Force = 0.9702398E-04[ 0.836E-04, 0.110E-03]  d Energy = 0.9444671E-04 0.258E-05
 d Force =-0.1105059E+01[-0.111E+01,-0.110E+01]  d Ewald  =-0.1167073E+01 0.620E-01

 Quasi-Newton relaxation of ions (Broydens 2nd method)
  g(Force)  = 0.204E-03   g(Stress)= 0.682E-04

 retain information from N=  1 steps
 eigenvalues of (default step * inverse Hessian matrix)
  average eigenvalue of G=   0.0452
 eigenvalue spectrum of G is  0.0452

volume of typ            1:     5.9 %

[...]

volume of typ            3:     9.9 %

total charge

# of ion       s       p       d       tot
    1        2.063   0.194   0.072   2.330
    2        2.063   0.194   0.072   2.330
    3        2.066   0.203   0.077   2.345
    4        2.066   0.203   0.077   2.345
    5        0.289   0.404   7.849   8.542
    6        0.295   0.416   7.840   8.551
    7        0.295   0.416   7.840   8.551
    8        0.293   0.410   7.836   8.539
    9        0.293   0.410   7.836   8.539
   10        0.303   0.433   7.840   8.576
   11        0.304   0.432   7.841   8.577
   12        0.285   0.393   7.831   8.509
   13        0.289   0.406   7.833   8.528
   14        0.296   0.417   7.846   8.559
   15        0.296   0.417   7.846   8.559
   16        0.294   0.411   7.837   8.542
   17        0.294   0.411   7.837   8.542
   18        0.302   0.429   7.826   8.557
   19        0.303   0.432   7.843   8.578
   20        0.283   0.390   7.845   8.518
   21        1.273   2.760   0.008   4.040
   22        1.273   2.760   0.008   4.040
   23        1.285   2.725   0.008   4.017
   24        1.285   2.725   0.008   4.017
   25        1.270   2.762   0.007   4.039
   26        1.270   2.762   0.007   4.039
   27        1.272   2.759   0.008   4.039
   28        1.272   2.759   0.008   4.039
   29        1.271   2.766   0.007   4.044
   30        1.271   2.766   0.007   4.044
   31        1.283   2.732   0.008   4.023
   32        1.283   2.732   0.008   4.023
   33        1.283   2.731   0.008   4.022
   34        1.283   2.731   0.008   4.022
   35        1.285   2.724   0.008   4.017
   36        1.285   2.724   0.008   4.017
   37        1.272   2.759   0.007   4.039
   38        1.272   2.759   0.007   4.039
   39        1.270   2.765   0.007   4.041
   40        1.270   2.765   0.007   4.041
   41        1.284   2.727   0.008   4.019
   42        1.284   2.727   0.008   4.019
   43        1.285   2.727   0.008   4.020
   44        1.285   2.727   0.008   4.020
   45        1.274   2.752   0.008   4.034
   46        1.274   2.752   0.008   4.034
   47        1.271   2.766   0.008   4.044
   48        1.271   2.766   0.008   4.044
   49        1.271   2.766   0.008   4.045
   50        1.271   2.766   0.008   4.045
   51        1.272   2.760   0.008   4.040
   52        1.272   2.760   0.008   4.040
tot          53.81   95.38  125.97  275.16

magnetization (x)

# of ion       s       p       d       tot
    1       -0.000  -0.000  -0.000  -0.000
    2       -0.000  -0.000  -0.000  -0.000
    3       -0.000  -0.000  -0.000  -0.000
    4       -0.000  -0.000  -0.000  -0.000
    5        0.002  -0.000   0.330   0.331
    6       -0.000   0.001  -0.113  -0.113
    7       -0.000   0.001  -0.113  -0.113
    8       -0.000   0.000  -0.091  -0.091
    9       -0.000   0.000  -0.091  -0.091
   10        0.000  -0.000   0.036   0.036
   11        0.000  -0.001   0.045   0.045
   12        0.000  -0.000   0.208   0.208
   13       -0.002   0.001  -0.264  -0.265
   14        0.000  -0.001   0.111   0.110
   15        0.000  -0.001   0.111   0.110
   16        0.000  -0.000   0.093   0.093
   17        0.000  -0.000   0.093   0.093
   18       -0.000   0.001  -0.033  -0.033
   19       -0.000   0.001  -0.045  -0.044
   20       -0.000   0.000  -0.275  -0.275
   21       -0.002  -0.014  -0.000  -0.016
   22       -0.002  -0.014  -0.000  -0.016
   23       -0.001  -0.007  -0.000  -0.008
   24       -0.001  -0.007  -0.000  -0.008
   25       -0.001   0.001   0.000   0.000
   26       -0.001   0.001   0.000   0.000
   27       -0.001   0.003   0.000   0.003
   28       -0.001   0.003   0.000   0.003
   29        0.000  -0.000  -0.000   0.000
   30        0.000  -0.000  -0.000   0.000
   31        0.000   0.000  -0.000   0.000
   32        0.000   0.000  -0.000   0.000
   33        0.001   0.007   0.000   0.008
   34        0.001   0.007   0.000   0.008
   35        0.001   0.015   0.000   0.016
   36        0.001   0.015   0.000   0.016
   37        0.001   0.002  -0.000   0.003
   38        0.001   0.002  -0.000   0.003
   39        0.003   0.026   0.000   0.028
   40        0.003   0.026   0.000   0.028
   41        0.000   0.006   0.000   0.007
   42        0.000   0.006   0.000   0.007
   43       -0.000  -0.001   0.000  -0.001
   44       -0.000  -0.001   0.000  -0.001
   45        0.000  -0.008  -0.000  -0.007
   46        0.000  -0.008  -0.000  -0.007
   47        0.001  -0.002  -0.000  -0.001
   48        0.001  -0.002  -0.000  -0.001
   49       -0.002  -0.026  -0.000  -0.027
   50       -0.002  -0.026  -0.000  -0.027
   51       -0.001  -0.005  -0.000  -0.006
   52       -0.001  -0.005  -0.000  -0.006
tot          -0.00   -0.00    0.00   -0.00