 vasp.5.4.4.18Apr17-6-g9f103f2a35 (build May 12 2020 05:39:39) gamma-only

 MD_VERSION_INFO: Compiled 2020-05-12T12:39:39-UTC in devlin.sd.materialsdesign.
 com:/home/medea2/data/build/wwolf/vasp-gpu5.4.4/13047/x86_64/src/src/build/gam
 from svn 13047

 executed on                        Lin64 date 2023.03.07  00:21:40

 INCAR:
 POTCAR:    PAW_PBE Li_sv 10Sep2004
 POTCAR:    PAW_PBE Ni 02Aug2007
 POTCAR:    PAW_PBE O 08Apr2002

 POTCAR:    PAW_PBE Li_sv 10Sep2004

 POTCAR:    PAW_PBE Ni 02Aug2007

 POTCAR:    PAW_PBE O 08Apr2002

 Optimization of the real space projectors (new method)

 maximal supplied QI-value         = 22.11
 optimisation between [QCUT,QGAM] = [ 11.28, 22.77] = [ 35.61,145.23] Ry
 Optimized for a Real-space Cutoff    1.10 Angstroem

   l    n(q)    QCUT    max X(q) W(low)/X(q) W(high)/X(q)  e(spline)
   0      7    11.276    10.506    0.54E-04    0.58E-04    0.16E-07
   0      7    11.276     8.367    0.11E-03    0.14E-03    0.35E-07
   1      7    11.276     8.983    0.23E-03    0.43E-03    0.86E-07
 Optimization of the real space projectors (new method)

[...]

   l    n(q)    QCUT    max X(q) W(low)/X(q) W(high)/X(q)  e(spline)
   2      9    11.376    60.317    0.17E-03    0.16E-04    0.16E-06
   2      9    11.376    55.921    0.17E-03    0.16E-04    0.17E-06
   0     10    11.376    51.690    0.45E-04    0.60E-04    0.21E-06
   0     10    11.376    30.015    0.37E-04    0.55E-04    0.19E-06
   1     10    11.376    18.849    0.83E-04    0.11E-03    0.92E-07
   1     10    11.376    14.624    0.69E-04    0.92E-04    0.82E-07
 Optimization of the real space projectors (new method)

 maximal supplied QI-value         = 24.76
 optimisation between [QCUT,QGAM] = [ 11.39, 22.77] = [ 36.31,145.25] Ry
 Optimized for a Real-space Cutoff    1.10 Angstroem

   l    n(q)    QCUT    max X(q) W(low)/X(q) W(high)/X(q)  e(spline)
   0      7    11.387    20.381    0.22E-03    0.48E-03    0.18E-06
   0      7    11.387    15.268    0.22E-03    0.52E-03    0.19E-06
   1      7    11.387     5.964    0.22E-03    0.73E-03    0.24E-06
   1      7    11.387     5.382    0.19E-03    0.60E-03    0.21E-06

  PAW_PBE Li_sv 10Sep2004               :
  PAW_PBE Ni 02Aug2007                  :
  PAW_PBE O 08Apr2002                   :

 POSCAR: ce13371_1
  positions in direct lattice
 exchange correlation table for  LEXCH =       14
   RHO(1)=    0.500       N(1)  =     2000
   RHO(2)=  100.500       N(2)  =     4000

 ion  position               nearest neighbor table
   1  0.256  0.249  0.485-  47 2.02  41 2.07  29 2.10  39 2.15  27 2.21  51 2.21  12 2.77  24 2.83

   2  0.256  0.751  0.515-  48 2.02  42 2.07  30 2.10  40 2.15  28 2.21  52 2.21  13 2.77  24 2.83

[...]

  10  0.746  0.251  0.016-  38 2.01  55 2.07  43 2.09  57 2.16  45 2.20  34 2.21  22 2.77  16 2.84

  11  0.000  0.000  0.000-  35 1.85  36 1.85  37 1.85  38 1.85  45 1.99  46 1.99  16 2.81  16 2.81
                            12 2.83  13 2.83  14 2.83  15 2.83
  12  0.251  1.000  0.249-  41 1.88  46 1.89  58 1.89  29 1.90  35 2.00  52 2.04   1 2.77  15 2.80
                            15 2.82  16 2.83  11 2.83  18 2.85  17 2.86
  13  0.251  0.000  0.751-  42 1.88  45 1.89  57 1.89  30 1.90  36 2.00  51 2.04   2 2.77  14 2.80
                            14 2.82  16 2.83  11 2.83  18 2.85  17 2.86
  14  0.749  0.000  0.751-  42 1.88  45 1.89  57 1.89  30 1.90  37 2.00  54 2.04   3 2.77  13 2.80
                            13 2.82  16 2.83  11 2.83  18 2.85  17 2.86
  15  0.749  1.000  0.249-  41 1.88  46 1.89  58 1.89  29 1.90  38 2.00  53 2.04   4 2.77  12 2.80
                            12 2.82  16 2.83  11 2.83  18 2.85  17 2.86
  16  0.500  0.000  0.000-  35 1.85  36 1.85  37 1.85  38 1.85  57 1.89  58 1.89  11 2.81  11 2.81
                            15 2.83  12 2.83  13 2.83  14 2.83   7 2.84   8 2.84   9 2.84  10 2.84
  17  0.000  0.000  0.500-  51 1.85  52 1.85  53 1.85  54 1.85  29 1.90  30 1.90  18 2.81  18 2.81
                             5 2.84   6 2.84  12 2.86  13 2.86  14 2.86  15 2.86
  18  0.500  0.000  0.500-  51 1.88  52 1.88  53 1.88  54 1.88  41 1.93  42 1.93  17 2.81  17 2.81
                            12 2.85  13 2.85  14 2.85  15 2.85
  19  0.000  0.500  0.500-  47 1.85  48 1.85  49 1.85  50 1.85  27 2.01  28 2.01  24 2.81  24 2.81
                            20 2.83  21 2.83  22 2.83  23 2.83
  20  0.251  0.500  0.749-  56 1.88  27 1.88  39 1.89  44 1.90  48 1.99  31 2.04   8 2.77  23 2.80
                            23 2.82  24 2.83  19 2.83  26 2.85  25 2.85
  21  0.251  0.500  0.251-  55 1.88  28 1.88  40 1.89  43 1.90  47 1.99  32 2.04   7 2.77  22 2.80
                            22 2.82  24 2.83  19 2.83  26 2.85  25 2.85
  22  0.749  0.500  0.251-  55 1.88  28 1.88  40 1.89  43 1.90  50 1.99  33 2.04  10 2.77  21 2.80
                            21 2.82  24 2.83  19 2.83  26 2.85  25 2.85
  23  0.749  0.500  0.749-  56 1.88  27 1.88  39 1.89  44 1.90  49 1.99  34 2.04   9 2.77  20 2.80
                            20 2.82  24 2.83  19 2.83  26 2.85  25 2.85
  24  0.500  0.500  0.500-  47 1.85  48 1.85  49 1.85  50 1.85  39 1.89  40 1.89  19 2.81  19 2.81
                            23 2.83  20 2.83  21 2.83  22 2.83   1 2.83   2 2.83   3 2.83   4 2.83
  25  0.000  0.500  0.000-  31 1.85  32 1.85  33 1.85  34 1.85  43 1.90  44 1.90  26 2.81  26 2.81
                            20 2.85  21 2.85  22 2.85  23 2.85
  26  0.500  0.500  0.000-  31 1.87  32 1.87  33 1.87  34 1.87  55 1.93  56 1.93  25 2.81  25 2.81
                            20 2.85  21 2.85  22 2.85  23 2.85
  27  0.000  0.392  0.636-  20 1.88  23 1.88  19 2.01   5 2.11   1 2.21   4 2.21
  28  0.000  0.608  0.364-  21 1.88  22 1.88  19 2.01   6 2.11   2 2.21   3 2.21
  29  0.000  0.101  0.370-  12 1.90  15 1.90  17 1.90   4 2.10   1 2.10
  30  0.000  0.899  0.630-  13 1.90  14 1.90  17 1.90   3 2.10   2 2.10
  31  0.247  0.394  0.891-  25 1.85  26 1.87  20 2.04   5 2.14   7 2.21
  32  0.247  0.606  0.109-  25 1.85  26 1.87  21 2.04   6 2.14   8 2.21
  33  0.753  0.606  0.109-  25 1.85  26 1.87  22 2.04   6 2.14   9 2.21
  34  0.753  0.394  0.891-  25 1.85  26 1.87  23 2.04   5 2.14  10 2.21
  35  0.249  0.103  0.109-  11 1.85  16 1.85  12 2.00   7 2.01
  36  0.249  0.897  0.891-  11 1.85  16 1.85  13 2.00   8 2.01
  37  0.751  0.897  0.891-  11 1.85  16 1.85  14 2.00   9 2.01
  38  0.751  0.103  0.109-  11 1.85  16 1.85  15 2.00  10 2.01
  39  0.500  0.398  0.628-  24 1.89  23 1.89  20 1.89   4 2.15   1 2.15
  40  0.500  0.602  0.372-  24 1.89  22 1.89  21 1.89   3 2.15   2 2.15
  41  0.500  0.101  0.366-  12 1.88  15 1.88  18 1.93   4 2.07   1 2.07
  42  0.500  0.899  0.634-  13 1.88  14 1.88  18 1.93   3 2.07   2 2.07
  43  0.000  0.399  0.130-  25 1.90  22 1.90  21 1.90  10 2.09   7 2.09
  44  0.000  0.601  0.870-  25 1.90  23 1.90  20 1.90   9 2.09   8 2.09
  45  0.000  0.107  0.865-  13 1.89  14 1.89  11 1.99   5 2.12  10 2.20   7 2.20
  46  0.000  0.893  0.135-  12 1.89  15 1.89  11 1.99   6 2.12   9 2.20   8 2.20
  47  0.249  0.398  0.391-  19 1.85  24 1.85  21 1.99   1 2.02
  48  0.249  0.602  0.609-  19 1.85  24 1.85  20 1.99   2 2.02
  49  0.751  0.602  0.609-  19 1.85  24 1.85  23 1.99   3 2.02
  50  0.751  0.398  0.391-  19 1.85  24 1.85  22 1.99   4 2.02
  51  0.247  0.106  0.610-  17 1.85  18 1.88  13 2.04   5 2.13   1 2.21
  52  0.247  0.894  0.390-  17 1.85  18 1.88  12 2.04   6 2.13   2 2.21
  53  0.753  0.894  0.390-  17 1.85  18 1.88  15 2.04   6 2.13   3 2.21
  54  0.753  0.106  0.610-  17 1.85  18 1.88  14 2.04   5 2.13   4 2.21
  55  0.500  0.400  0.134-  21 1.88  22 1.88  26 1.93  10 2.07   7 2.07
  56  0.500  0.600  0.866-  20 1.88  23 1.88  26 1.93   9 2.07   8 2.07
  57  0.500  0.102  0.872-  16 1.89  14 1.89  13 1.89  10 2.16   7 2.16
  58  0.500  0.898  0.128-  16 1.89  15 1.89  12 1.89   9 2.16   8 2.16

  LATTYP: Found a simple monoclinic cell.
 ALAT       =    11.3826268863
 B/A-ratio  =     0.4936227437
 C/A-ratio  =     1.6782399030
 COS(beta)  =    -0.9030969299

  Lattice vectors:

 A1 = (  -6.2882232134,   0.0000000000,  -9.4880157911)
 A2 = (   0.0000000000,  -5.6187235136,   0.0000000000)
 A3 = (   2.6925215610,   0.0000000000,  18.9120723209)

Analysis of symmetry for initial positions (statically):
 Subroutine PRICEL returns:
 Original cell was already a primitive cell.

 Routine SETGRP: Setting up the symmetry group for a
 simple monoclinic supercell.

 Subroutine GETGRP returns: Found  4 space group operations
 (whereof  4 operations were pure point group operations)
 out of a pool of  4 trial point group operations.

The static configuration has the point symmetry C_2h.

Analysis of symmetry for dynamics (positions and initial velocities):
 Subroutine PRICEL returns:
 Original cell was already a primitive cell.

[...]

The dynamic configuration has the point symmetry C_2h.

Analysis of structural, dynamic, and magnetic symmetry:
 Subroutine PRICEL returns:
 Original cell was already a primitive cell.

 Routine SETGRP: Setting up the symmetry group for a
 simple monoclinic supercell.

 Subroutine GETGRP returns: Found  4 space group operations
 (whereof  4 operations were pure point group operations)
 out of a pool of  4 trial point group operations.

The magnetic configuration has the point symmetry C_2h.

 Subroutine INISYM returns: Found  4 space group operations
 (whereof  4 operations are pure point group operations),
 and found     1 'primitive' translations

 KPOINTS: Automatic mesh

Automatic generation of k-mesh.
Space group operators:
 irot       det(A)        alpha          n_x          n_y          n_z        tau_x        tau_y        tau_z
    1     1.000000     0.000000     1.000000     0.000000     0.000000     0.000000     0.000000     0.000000
    2    -1.000000     0.000000     1.000000     0.000000     0.000000     0.000000     0.000000     0.000000
    3     1.000000   180.000000     0.000000     1.000000     0.000000     0.000000     0.000000     0.000000
    4    -1.000000   180.000000     0.000000     1.000000     0.000000     0.000000     0.000000     0.000000

 Subroutine IBZKPT returns following result:

 Found      1 irreducible k-points:

 Following reciprocal coordinates:
            Coordinates               Weight
  0.000000  0.000000  0.000000      1.000000

 Following cartesian coordinates:
            Coordinates               Weight
  0.000000  0.000000  0.000000      1.000000

 SYSTEM =  unknown system
 POSCAR =  ce13371_1

 Startparameter for this run:
   NWRITE =      1    write-flag & timer
   PREC   = accura    normal or accurate (medium, high low for compatibility)
   ISTART =      0    job   : 0-new  1-cont  2-samecut
   ICHARG =      2    charge: 1-file 2-atom 10-const
   ISPIN  =      2    spin polarized calculation?
   LNONCOLLINEAR =      F non collinear calculations
   LSORBIT =      F    spin-orbit coupling
   INIWAV =      1    electr: 0-lowe 1-rand  2-diag
   LASPH  =      F    aspherical Exc in radial PAW
   METAGGA=      F    non-selfconsistent MetaGGA calc.

 Electronic Relaxation 1
   ENCUT  =  500.0 eV  36.75 Ry    6.06 a.u.  10.24 18.39 18.02*2*pi/ulx,y,z
   ENINI  =  500.0     initial cutoff
[...]
   -.153E-10 0.105E-11 -.247E-11   0.853E-13 -.562E-13 0.995E-13   0.000E+00 0.000E+00 0.436E-25   0.204E-12 0.354E-13 -.132E-11
   0.148E-11 0.123E-13 0.840E-13   0.497E-13 -.202E-12 -.373E-13   0.000E+00 0.000E+00 -.582E-25   0.519E-12 -.649E-12 0.651E-12
   0.709E-12 0.107E-11 -.191E-11   -.284E-13 -.114E-12 0.178E-13   0.000E+00 0.000E+00 0.420E-25   0.469E-12 0.592E-12 0.574E-12
   0.126E-11 0.238E-13 0.209E-12   0.373E-13 0.608E-13 -.242E-13   0.000E+00 0.000E+00 -.727E-26   0.217E-11 0.836E-12 0.339E-12
   0.820E+01 -.117E+02 -.219E+02   -.858E+01 0.120E+02 0.225E+02   0.374E+00 -.328E+00 -.605E+00   0.335E-02 -.254E-02 0.163E-02
   -.820E+01 -.117E+02 0.219E+02   0.858E+01 0.120E+02 -.225E+02   -.374E+00 -.328E+00 0.605E+00   -.335E-02 -.254E-02 -.163E-02
   -.820E+01 0.117E+02 0.219E+02   0.858E+01 -.120E+02 -.225E+02   -.374E+00 0.328E+00 0.605E+00   -.335E-02 0.254E-02 -.163E-02
   0.820E+01 0.117E+02 -.219E+02   -.858E+01 -.120E+02 0.225E+02   0.374E+00 0.328E+00 -.605E+00   0.335E-02 0.254E-02 0.163E-02
   -.183E-11 0.101E-11 0.155E-11   0.586E-13 0.847E-13 0.364E-13   0.103E-24 0.000E+00 -.291E-25   0.224E-11 -.883E-12 0.428E-12
   -.629E-12 -.695E-14 0.152E-12   0.568E-13 0.830E-13 0.853E-13   0.000E+00 0.000E+00 0.444E-25   -.231E-11 -.435E-12 0.114E-11
   -.291E-11 0.991E-12 -.389E-11   -.575E-13 -.568E-13 0.213E-13   0.000E+00 0.000E+00 -.113E-25   -.248E-11 0.394E-12 0.123E-11
   0.180E+01 0.927E-14 0.281E+03   -.252E+01 -.258E-15 -.295E+03   0.705E+00 0.000E+00 0.134E+02   -.265E-02 -.438E-12 0.482E-02
   -.180E+01 0.756E-13 -.281E+03   0.252E+01 0.240E-13 0.295E+03   -.705E+00 0.000E+00 -.134E+02   0.265E-02 0.703E-12 -.482E-02
   0.521E+02 0.117E-12 -.311E+03   -.549E+02 -.175E-13 0.326E+03   0.281E+01 0.000E+00 -.153E+02   -.259E-02 0.122E-12 0.438E-02
   -.521E+02 0.888E-13 0.311E+03   0.549E+02 -.603E-13 -.326E+03   -.281E+01 0.000E+00 0.153E+02   0.259E-02 -.366E-12 -.438E-02
   0.420E+02 -.364E+02 0.319E+03   -.459E+02 0.391E+02 -.336E+03   0.396E+01 -.272E+01 0.160E+02   0.103E-02 -.296E-03 0.433E-02
   -.420E+02 -.364E+02 -.319E+03   0.459E+02 0.391E+02 0.336E+03   -.396E+01 -.272E+01 -.160E+02   -.103E-02 -.296E-03 -.433E-02
   -.420E+02 0.364E+02 -.319E+03   0.459E+02 -.391E+02 0.336E+03   -.396E+01 0.272E+01 -.160E+02   -.103E-02 0.296E-03 -.433E-02
   0.420E+02 0.364E+02 0.319E+03   -.459E+02 -.391E+02 -.336E+03   0.396E+01 0.272E+01 0.160E+02   0.103E-02 0.296E-03 0.433E-02
   -.640E+02 0.277E+01 -.344E+03   0.696E+02 -.296E+01 0.363E+03   -.556E+01 0.187E+00 -.191E+02   -.551E-03 0.107E-03 0.385E-02
   0.640E+02 0.277E+01 0.344E+03   -.696E+02 -.296E+01 -.363E+03   0.556E+01 0.187E+00 0.191E+02   0.551E-03 0.107E-03 -.385E-02
   0.640E+02 -.277E+01 0.344E+03   -.696E+02 0.296E+01 -.363E+03   0.556E+01 -.187E+00 0.191E+02   0.551E-03 -.107E-03 -.385E-02
   -.640E+02 -.277E+01 -.344E+03   0.696E+02 0.296E+01 0.363E+03   -.556E+01 -.187E+00 -.191E+02   -.551E-03 -.107E-03 0.385E-02
   -.376E+02 0.306E-12 0.304E+03   0.411E+02 0.292E-13 -.321E+03   -.344E+01 0.646E-26 0.165E+02   0.256E-02 0.222E-12 0.253E-02
   0.376E+02 0.173E-12 -.304E+03   -.411E+02 0.428E-13 0.321E+03   0.344E+01 -.646E-26 -.165E+02   -.256E-02 -.656E-12 -.253E-02
   0.383E+02 0.345E-12 -.302E+03   -.403E+02 -.131E-13 0.317E+03   0.204E+01 -.323E-26 -.149E+02   -.199E-02 -.106E-12 0.395E-02
   -.383E+02 0.439E-12 0.302E+03   0.403E+02 0.558E-13 -.317E+03   -.204E+01 0.000E+00 0.149E+02   0.199E-02 0.207E-12 -.395E-02
   -.527E+02 0.866E-13 0.311E+03   0.556E+02 -.170E-13 -.326E+03   -.289E+01 0.000E+00 0.152E+02   0.283E-03 0.379E-12 0.381E-02
   0.527E+02 -.426E-13 -.311E+03   -.556E+02 -.272E-13 0.326E+03   0.289E+01 0.000E+00 -.152E+02   -.283E-03 -.307E-12 -.381E-02
   -.650E+00 0.480E-13 -.281E+03   0.127E+01 0.409E-13 0.295E+03   -.617E+00 0.323E-26 -.134E+02   0.380E-03 -.138E-12 0.527E-02
   0.650E+00 0.101E-12 0.281E+03   -.127E+01 0.548E-13 -.295E+03   0.617E+00 -.646E-26 0.134E+02   -.380E-03 -.398E-12 -.527E-02
   0.640E+02 0.313E+01 0.344E+03   -.695E+02 -.331E+01 -.363E+03   0.556E+01 0.189E+00 0.191E+02   0.185E-03 -.461E-02 0.318E-02
   -.640E+02 0.313E+01 -.344E+03   0.695E+02 -.331E+01 0.363E+03   -.556E+01 0.189E+00 -.191E+02   -.185E-03 -.461E-02 -.318E-02
   -.640E+02 -.313E+01 -.344E+03   0.695E+02 0.331E+01 0.363E+03   -.556E+01 -.189E+00 -.191E+02   -.185E-03 0.461E-02 -.318E-02
   0.640E+02 -.313E+01 0.344E+03   -.695E+02 0.331E+01 -.363E+03   0.556E+01 -.189E+00 0.191E+02   0.185E-03 0.461E-02 0.318E-02
   -.424E+02 -.363E+02 -.319E+03   0.464E+02 0.391E+02 0.335E+03   -.399E+01 -.275E+01 -.160E+02   0.105E-02 0.323E-04 0.554E-02
   0.424E+02 -.363E+02 0.319E+03   -.464E+02 0.391E+02 -.335E+03   0.399E+01 -.275E+01 0.160E+02   -.105E-02 0.323E-04 -.554E-02
   0.424E+02 0.363E+02 0.319E+03   -.464E+02 -.391E+02 -.335E+03   0.399E+01 0.275E+01 0.160E+02   -.105E-02 -.323E-04 -.554E-02
   -.424E+02 0.363E+02 -.319E+03   0.464E+02 -.391E+02 0.335E+03   -.399E+01 0.275E+01 -.160E+02   0.105E-02 -.323E-04 0.554E-02
   -.376E+02 0.152E-12 0.302E+03   0.396E+02 0.127E-12 -.317E+03   -.202E+01 0.000E+00 0.149E+02   -.271E-02 -.528E-12 0.345E-02
   0.376E+02 0.250E-12 -.302E+03   -.396E+02 0.195E-12 0.317E+03   0.202E+01 0.000E+00 -.149E+02   0.271E-02 0.335E-12 -.345E-02
   0.374E+02 0.396E-12 -.305E+03   -.409E+02 -.626E-13 0.321E+03   0.341E+01 -.129E-25 -.166E+02   0.825E-03 0.164E-12 0.424E-02
   -.374E+02 0.382E-12 0.305E+03   0.409E+02 -.109E-13 -.321E+03   -.341E+01 0.000E+00 0.166E+02   -.825E-03 0.190E-12 -.424E-02
   0.338E-10 0.227E-10 0.226E-10   -.107E-12 0.994E-13 0.796E-12   -.444E-15 0.888E-15 0.000E+00   -.950E-12 -.606E-12 -.646E-13

 POSITION                                       TOTAL-FORCE (eV/Angst)
      3.88969      1.43489      2.37827        -0.000825     -0.004886     -0.008928
      2.39287      1.43489      7.10703         0.000825     -0.004886      0.008928
      2.39287      4.19061      7.10703         0.000825      0.004886      0.008928
      3.88969      4.19061      2.37827        -0.000825      0.004886     -0.008928
      6.50815     -0.00000      2.40019         0.000814     -0.000000      0.009028
     -0.22560     -0.00000      7.08512        -0.000814     -0.000000     -0.009028
     -0.74694      1.43207      2.36545        -0.001137      0.001056      0.008237
      7.02950      1.43207      7.11985         0.001137      0.001056     -0.008237
      7.02950      4.19344      7.11985         0.001137     -0.001056     -0.008237
     -0.74694      4.19344      2.36545        -0.001137     -0.001056      0.008237
      0.00000     -0.00000      0.00000         0.000000     -0.000000      0.000000
     -1.13734      1.41101      9.43387        -0.002252      0.001405     -0.005907
      7.41990      1.41101      0.05144         0.002252      0.001405      0.005907
      7.41990      4.21449      0.05144         0.002252     -0.001405      0.005907
     -1.13734      4.21449      9.43387        -0.002252     -0.001405     -0.005907
      0.00000      2.81275      0.00000         0.000000     -0.000000      0.000000
      4.93713     -0.00000      0.03222         0.000000     -0.000000      0.000000
      4.93713      2.81275      0.03222         0.000000     -0.000000      0.000000
      3.14128     -0.00000      4.74265         0.000000     -0.000000      0.000000
      5.59614      1.41114      4.75296        -0.004051     -0.005936     -0.002440
      0.68642      1.41114      4.73234         0.004051     -0.005936      0.002440
      0.68642      4.21436      4.73234         0.004051      0.005936      0.002440
      5.59614      4.21436      4.75296        -0.004051      0.005936     -0.002440
      3.14128      2.81275      4.74265         0.000000     -0.000000      0.000000
     -1.79585     -0.00000      4.71043         0.000000     -0.000000      0.000000
     -1.79585      2.81275      4.71043         0.000000     -0.000000      0.000000
      4.83823     -0.00000      3.74374        -0.016099     -0.000000     -0.007265
      1.44433     -0.00000      5.74157         0.016099     -0.000000      0.007265
      3.28220     -0.00000      0.96759        -0.006247     -0.000000     -0.010867
      3.00036     -0.00000      8.51772         0.006247     -0.000000      0.010867
      7.38209      1.38994      3.76871         0.000465     -0.001601      0.001324
     -1.09953      1.38994      5.71660        -0.000465     -0.001601     -0.001324
     -1.09953      4.23557      5.71660        -0.000465      0.001601     -0.001324
      7.38209      4.23557      3.76871         0.000465      0.001601      0.001324
      0.70512      1.40344      0.97487         0.000313     -0.000744     -0.004526
      5.57744      1.40344      8.51044        -0.000313     -0.000744      0.004526
      5.57744      4.22207      8.51044        -0.000313      0.000744      0.004526
      0.70512      4.22207      0.97487         0.000313      0.000744     -0.004526
      4.77232      2.81275      3.78539        -0.000947     -0.000000      0.003883
      1.51024      2.81275      5.69991         0.000947     -0.000000     -0.003883
      3.26239      2.81275      0.97158        -0.001688     -0.000000     -0.009055
      3.02017      2.81275      8.51372         0.001688     -0.000000      0.009055
     -0.14246     -0.00000      3.77553         0.012721     -0.000000      0.013606
      6.42502     -0.00000      5.70977        -0.012721     -0.000000     -0.013606
      8.18116     -0.00000      1.06148         0.003756     -0.000000      0.009056
     -1.89860     -0.00000      8.42382        -0.003756     -0.000000     -0.009056
      2.43386      1.40318      3.76959         0.004739     -0.000290      0.000614
      3.84870      1.40318      5.71571        -0.004739     -0.000290     -0.000614
      3.84870      4.22233      5.71571        -0.004739      0.000290     -0.000614
      2.43386      4.22233      3.76959         0.004739      0.000290      0.000614
      5.63426      1.38969      1.03776        -0.001170     -0.000001     -0.002192
      0.64830      1.38969      8.44755         0.001170     -0.000001      0.002192
      0.64830      4.23582      8.44755         0.001170      0.000001      0.002192
      5.63426      4.23582      1.03776        -0.001170      0.000001     -0.002192
     -0.11783      2.81275      3.77370        -0.011321     -0.000000      0.004256
      6.40039      2.81275      5.71161         0.011321     -0.000000     -0.004256
      8.24081      2.81275      1.01785         0.004177     -0.000000      0.001646
     -1.95825      2.81275      8.46745        -0.004177     -0.000000     -0.001646
    total drift:                                0.000000      0.000000      0.000000

  FREE ENERGIE OF THE ION-ELECTRON SYSTEM (eV)
  free  energy   TOTEN  =      -354.7032614987 eV

  energy  without entropy=     -354.7022618069  energy(sigma->0) =     -354.70276165

 d Force = 0.2379366E-03[ 0.173E-03, 0.303E-03]  d Energy = 0.1951798E-03 0.428E-04
 d Force = 0.2048642E+01[ 0.205E+01, 0.205E+01]  d Ewald  = 0.4305530E+00 0.162E+01

 Quasi-Newton relaxation of ions (Broydens 2nd method)
  g(Force)  = 0.185E-03   g(Stress)= 0.864E-05

 retain information from N=  5 steps
 eigenvalues of (default step * inverse Hessian matrix)
  average eigenvalue of G=   2.0058
 eigenvalue spectrum of G is  3.8785  2.4140  2.4140  1.2494  0.0734

 reached required accuracy - stopping structural energy minimisation

volume of typ            1:    14.9 %

[...]

volume of typ            3:     9.9 %

total charge

# of ion       s       p       d       tot
    1        2.077   0.251   0.091   2.419
    2        2.077   0.251   0.091   2.419
    3        2.077   0.251   0.091   2.419
    4        2.077   0.251   0.091   2.419
    5        2.074   0.221   0.083   2.378
    6        2.074   0.221   0.083   2.378
    7        2.077   0.251   0.091   2.419
    8        2.077   0.251   0.091   2.419
    9        2.077   0.251   0.091   2.419
   10        2.077   0.251   0.091   2.419
   11        0.286   0.400   7.855   8.541
   12        0.261   0.341   7.860   8.462
   13        0.261   0.341   7.860   8.462
   14        0.261   0.341   7.860   8.462
   15        0.261   0.341   7.860   8.462
   16        0.300   0.425   7.844   8.569
   17        0.299   0.424   7.852   8.576
   18        0.280   0.385   7.846   8.511
   19        0.285   0.399   7.856   8.540
   20        0.261   0.342   7.860   8.463
   21        0.261   0.342   7.860   8.463
   22        0.261   0.342   7.860   8.463
   23        0.261   0.342   7.860   8.463
   24        0.300   0.425   7.844   8.569
   25        0.299   0.425   7.852   8.576
   26        0.280   0.385   7.846   8.511
   27        1.260   2.786   0.006   4.051
   28        1.260   2.786   0.006   4.051
   29        1.262   2.783   0.007   4.052
   30        1.262   2.783   0.007   4.052
   31        1.268   2.767   0.006   4.041
   32        1.268   2.767   0.006   4.041
   33        1.268   2.767   0.006   4.041
   34        1.268   2.767   0.006   4.041
   35        1.271   2.762   0.007   4.040
   36        1.271   2.762   0.007   4.040
   37        1.271   2.762   0.007   4.040
   38        1.271   2.762   0.007   4.040
   39        1.264   2.778   0.007   4.049
   40        1.264   2.778   0.007   4.049
   41        1.262   2.787   0.007   4.056
   42        1.262   2.787   0.007   4.056
   43        1.262   2.784   0.007   4.052
   44        1.262   2.784   0.007   4.052
   45        1.260   2.786   0.006   4.052
   46        1.260   2.786   0.006   4.052
   47        1.271   2.762   0.007   4.040
   48        1.271   2.762   0.007   4.040
   49        1.271   2.762   0.007   4.040
   50        1.271   2.762   0.007   4.040
   51        1.268   2.768   0.006   4.041
   52        1.268   2.768   0.006   4.041
   53        1.268   2.768   0.006   4.041
   54        1.268   2.768   0.006   4.041
   55        1.262   2.787   0.007   4.055
   56        1.262   2.787   0.007   4.055
   57        1.264   2.778   0.007   4.049
   58        1.264   2.778   0.007   4.049
tot          65.68   97.23  126.78  289.69

magnetization (x)

# of ion       s       p       d       tot
    1        0.005   0.017  -0.000   0.022
    2        0.005   0.017  -0.000   0.022
    3        0.005   0.017  -0.000   0.022
    4        0.005   0.017  -0.000   0.022
    5       -0.000   0.004  -0.000   0.004
    6       -0.000   0.004  -0.000   0.004
    7        0.005   0.017  -0.000   0.022
    8        0.005   0.017  -0.000   0.022
    9        0.005   0.017  -0.000   0.022
   10        0.005   0.017  -0.000   0.022
   11       -0.001  -0.000  -0.007  -0.009
   12        0.001  -0.000   0.718   0.719
   13        0.001  -0.000   0.718   0.719
   14        0.001  -0.000   0.718   0.719
   15        0.001  -0.000   0.718   0.719
   16       -0.001  -0.000  -0.011  -0.012
   17       -0.001  -0.000   0.047   0.046
   18       -0.001  -0.000   0.101   0.100
   19       -0.001  -0.000  -0.016  -0.018
   20        0.001  -0.000   0.716   0.717
   21        0.001  -0.000   0.716   0.717
   22        0.001  -0.000   0.716   0.717
   23        0.001  -0.000   0.716   0.717
   24       -0.001  -0.000  -0.011  -0.013
   25       -0.001  -0.000   0.047   0.046
   26       -0.001  -0.000   0.097   0.096
   27        0.006   0.019   0.000   0.026
   28        0.006   0.019   0.000   0.026
   29        0.007   0.026   0.000   0.034
   30        0.007   0.026   0.000   0.034
   31        0.007   0.046   0.000   0.053
   32        0.007   0.046   0.000   0.053
   33        0.007   0.046   0.000   0.053
   34        0.007   0.046   0.000   0.053
   35        0.005   0.048   0.000   0.053
   36        0.005   0.048   0.000   0.053
   37        0.005   0.048   0.000   0.053
   38        0.005   0.048   0.000   0.053
   39        0.007   0.026   0.000   0.033
   40        0.007   0.026   0.000   0.033
   41        0.008   0.031   0.000   0.039
   42        0.008   0.031   0.000   0.039
   43        0.007   0.027   0.000   0.035
   44        0.007   0.027   0.000   0.035
   45        0.007   0.021   0.000   0.028
   46        0.007   0.021   0.000   0.028
   47        0.005   0.047   0.000   0.053
   48        0.005   0.047   0.000   0.053
   49        0.005   0.047   0.000   0.053
   50        0.005   0.047   0.000   0.053
   51        0.007   0.047   0.000   0.054
   52        0.007   0.047   0.000   0.054
   53        0.007   0.047   0.000   0.054
   54        0.007   0.047   0.000   0.054
   55        0.008   0.030   0.000   0.037
   56        0.008   0.030   0.000   0.037
   57        0.007   0.025   0.000   0.032
   58        0.007   0.025   0.000   0.032
tot           0.25    1.30    5.98    7.54