 vasp.5.4.4.18Apr17-6-g9f103f2a35 (build May 12 2020 05:39:39) gamma-only

 MD_VERSION_INFO: Compiled 2020-05-12T12:39:39-UTC in devlin.sd.materialsdesign.
 com:/home/medea2/data/build/wwolf/vasp-gpu5.4.4/13047/x86_64/src/src/build/gam
 from svn 13047

 executed on                        Lin64 date 2023.03.07  00:56:39

 INCAR:
 POTCAR:    PAW_PBE Li_sv 10Sep2004
 POTCAR:    PAW_PBE Ni 02Aug2007
 POTCAR:    PAW_PBE O 08Apr2002

 POTCAR:    PAW_PBE Li_sv 10Sep2004

 POTCAR:    PAW_PBE Ni 02Aug2007

 POTCAR:    PAW_PBE O 08Apr2002

 Optimization of the real space projectors (new method)

 maximal supplied QI-value         = 22.11
 optimisation between [QCUT,QGAM] = [ 11.28, 22.77] = [ 35.61,145.23] Ry
 Optimized for a Real-space Cutoff    1.10 Angstroem

   l    n(q)    QCUT    max X(q) W(low)/X(q) W(high)/X(q)  e(spline)
   0      7    11.276    10.506    0.54E-04    0.58E-04    0.16E-07
   0      7    11.276     8.367    0.11E-03    0.14E-03    0.35E-07
   1      7    11.276     8.983    0.23E-03    0.43E-03    0.86E-07
 Optimization of the real space projectors (new method)

[...]

   l    n(q)    QCUT    max X(q) W(low)/X(q) W(high)/X(q)  e(spline)
   2      9    11.376    60.317    0.17E-03    0.16E-04    0.16E-06
   2      9    11.376    55.921    0.17E-03    0.16E-04    0.17E-06
   0     10    11.376    51.690    0.45E-04    0.60E-04    0.21E-06
   0     10    11.376    30.015    0.37E-04    0.55E-04    0.19E-06
   1     10    11.376    18.849    0.83E-04    0.11E-03    0.92E-07
   1     10    11.376    14.624    0.69E-04    0.92E-04    0.82E-07
 Optimization of the real space projectors (new method)

 maximal supplied QI-value         = 24.76
 optimisation between [QCUT,QGAM] = [ 11.39, 22.77] = [ 36.31,145.25] Ry
 Optimized for a Real-space Cutoff    1.10 Angstroem

   l    n(q)    QCUT    max X(q) W(low)/X(q) W(high)/X(q)  e(spline)
   0      7    11.387    20.381    0.22E-03    0.48E-03    0.18E-06
   0      7    11.387    15.268    0.22E-03    0.52E-03    0.19E-06
   1      7    11.387     5.964    0.22E-03    0.73E-03    0.24E-06
   1      7    11.387     5.382    0.19E-03    0.60E-03    0.21E-06

  PAW_PBE Li_sv 10Sep2004               :
  PAW_PBE Ni 02Aug2007                  :
  PAW_PBE O 08Apr2002                   :

 POSCAR: ce8_1
  positions in direct lattice
 exchange correlation table for  LEXCH =       14
   RHO(1)=    0.500       N(1)  =     2000
   RHO(2)=  100.500       N(2)  =     4000

 ion  position               nearest neighbor table
   1  0.997  0.251  0.242-  47 2.03  42 2.08  39 2.09  54 2.13  51 2.17  33 2.18  15 2.79  26 2.84

   2  0.997  0.749  0.758-  48 2.03  41 2.08  40 2.09  53 2.13  52 2.17  34 2.18  15 2.79  27 2.84

[...]

  14  0.504  0.751  0.241-  62 2.05  37 2.09  36 2.10  57 2.13  44 2.15  56 2.16  30 2.80  19 2.84

  15  0.999  0.000  0.000-  41 1.86  42 1.86  39 1.88  40 1.88  49 2.10  50 2.10  20 2.76  20 2.79
                             2 2.79   1 2.79  19 2.90  18 2.90  17 2.91  16 2.91
  16  0.250  0.005  0.253-  50 1.84  62 1.84  33 1.87  45 1.87  39 2.09  56 2.10  19 2.78  19 2.78
                             3 2.80  22 2.90  21 2.90  15 2.91  20 2.91
  17  0.250  0.995  0.747-  49 1.84  61 1.84  34 1.87  46 1.87  40 2.09  55 2.10  18 2.78  18 2.78
                             4 2.80  22 2.90  21 2.90  15 2.91  20 2.91
  18  0.750  0.999  0.750-  61 1.87  49 1.87  34 1.87  46 1.87  41 1.97  58 2.03  17 2.78  17 2.78
                             9 2.83  13 2.84   5 2.84  20 2.90  21 2.90  15 2.90  22 2.90
  19  0.750  0.001  0.250-  62 1.87  50 1.87  33 1.87  45 1.87  42 1.97  57 2.03  16 2.78  16 2.78
                            10 2.83  14 2.84   6 2.84  20 2.90  21 2.90  15 2.90  22 2.90
  20  0.501  0.000  0.000-  41 1.86  42 1.86  39 1.88  40 1.88  61 2.10  62 2.10  15 2.76  15 2.79
                             7 2.80   8 2.80  19 2.90  18 2.90  17 2.91  16 2.91
  21  0.000  0.000  0.500-  55 1.86  56 1.86  57 1.87  58 1.87  33 2.11  34 2.11  22 2.77  22 2.78
                            16 2.90  17 2.90  18 2.90  19 2.90
  22  0.500  0.000  0.500-  55 1.86  56 1.86  57 1.87  58 1.87  45 2.11  46 2.11  21 2.77  21 2.78
                            17 2.90  16 2.90  19 2.90  18 2.90
  23  0.000  0.500  0.500-  51 1.86  52 1.86  53 1.87  54 1.87  31 2.15  32 2.15  28 2.78  28 2.78
                            24 2.90  25 2.90  26 2.91  27 2.91
  24  0.250  0.495  0.748-  48 1.84  60 1.84  43 1.86  31 1.86  35 2.10  52 2.10  27 2.78  27 2.78
                             3 2.79  28 2.90  23 2.90  29 2.91  30 2.91
  25  0.250  0.505  0.252-  47 1.84  59 1.84  44 1.86  32 1.86  36 2.10  51 2.10  26 2.78  26 2.78
                             4 2.79  28 2.90  23 2.90  29 2.91  30 2.91
  26  0.750  0.500  0.250-  47 1.86  59 1.86  32 1.87  44 1.87  37 1.97  54 2.03  25 2.78  25 2.78
                             5 2.83   7 2.84   1 2.84  30 2.90  29 2.90  23 2.91  28 2.91
  27  0.750  0.500  0.750-  48 1.86  60 1.86  31 1.87  43 1.87  38 1.97  53 2.03  24 2.78  24 2.78
                             6 2.83   8 2.84   2 2.84  30 2.90  29 2.90  23 2.91  28 2.91
  28  0.500  0.500  0.500-  51 1.86  52 1.86  53 1.87  54 1.87  43 2.15  44 2.15  23 2.78  23 2.78
                            24 2.90  25 2.90  26 2.91  27 2.91
  29  0.999  0.500  0.000-  37 1.86  38 1.86  35 1.87  36 1.87  47 2.12  48 2.12  30 2.76  30 2.79
                            10 2.80   9 2.80  27 2.90  26 2.90  25 2.91  24 2.91
  30  0.502  0.500  0.000-  37 1.86  38 1.86  35 1.87  36 1.87  59 2.12  60 2.12  29 2.76  29 2.79
                            13 2.80  14 2.80  26 2.90  27 2.90  24 2.91  25 2.91
  31  0.998  0.386  0.641-  24 1.86  27 1.87   6 2.08   3 2.10  23 2.15   9 2.15
  32  0.998  0.614  0.359-  25 1.86  26 1.87   5 2.08   4 2.10  23 2.15  10 2.15
  33  0.997  0.112  0.362-  16 1.87  19 1.87   6 2.09   3 2.11  21 2.11   1 2.18
  34  0.997  0.888  0.638-  17 1.87  18 1.87   5 2.09   4 2.11  21 2.11   2 2.18
  35  0.250  0.391  0.890-  30 1.87  29 1.87   9 2.10  24 2.10  13 2.10  11 2.12
  36  0.250  0.609  0.110-  30 1.87  29 1.87  10 2.10  25 2.10  14 2.10  12 2.12
  37  0.750  0.600  0.116-  30 1.86  29 1.86  26 1.97  10 2.09  14 2.09
  38  0.750  0.400  0.884-  30 1.86  29 1.86  27 1.97   9 2.09  13 2.09
  39  0.250  0.110  0.111-  15 1.88  20 1.88   1 2.09  16 2.09   7 2.09  11 2.11
  40  0.250  0.890  0.889-  15 1.88  20 1.88   2 2.09  17 2.09   8 2.09  12 2.11
  41  0.750  0.899  0.882-  20 1.86  15 1.86  18 1.97   2 2.08   8 2.08
  42  0.750  0.101  0.118-  20 1.86  15 1.86  19 1.97   1 2.08   7 2.08
  43  0.503  0.386  0.641-  24 1.86  27 1.87   6 2.08   3 2.10  28 2.15  13 2.15
  44  0.503  0.614  0.359-  25 1.86  26 1.87   5 2.08   4 2.10  28 2.15  14 2.15
  45  0.503  0.112  0.362-  16 1.87  19 1.87   6 2.09   3 2.11  22 2.11   7 2.18
  46  0.503  0.888  0.638-  17 1.87  18 1.87   5 2.09   4 2.11  22 2.11   8 2.18
  47  0.006  0.394  0.145-  25 1.84  26 1.86   1 2.03  29 2.12  11 2.13
  48  0.006  0.606  0.855-  24 1.84  27 1.86   2 2.03  29 2.12  12 2.13
  49  0.006  0.105  0.857-  17 1.84  18 1.87   9 2.05  15 2.10  11 2.13
  50  0.006  0.895  0.143-  16 1.84  19 1.87  10 2.05  15 2.10  12 2.13
  51  0.250  0.393  0.389-  28 1.86  23 1.86  25 2.10   3 2.13   1 2.17   7 2.17
  52  0.250  0.607  0.611-  28 1.86  23 1.86  24 2.10   4 2.13   2 2.17   8 2.17
  53  0.750  0.604  0.615-  28 1.87  23 1.87  27 2.03   8 2.13   2 2.13   5 2.20
  54  0.750  0.396  0.385-  28 1.87  23 1.87  26 2.03   7 2.13   1 2.13   6 2.20
  55  0.250  0.108  0.611-  21 1.86  22 1.86  17 2.10   3 2.14  13 2.16   9 2.16
  56  0.250  0.892  0.389-  21 1.86  22 1.86  16 2.10   4 2.14  14 2.16  10 2.16
  57  0.750  0.895  0.385-  21 1.87  22 1.87  19 2.03  14 2.13  10 2.13   5 2.18
  58  0.750  0.105  0.615-  21 1.87  22 1.87  18 2.03  13 2.13   9 2.13   6 2.18
  59  0.494  0.394  0.145-  25 1.84  26 1.86   7 2.03  11 2.12  30 2.12
  60  0.494  0.606  0.855-  24 1.84  27 1.86   8 2.03  12 2.12  30 2.12
  61  0.494  0.105  0.857-  17 1.84  18 1.87  13 2.05  20 2.10  11 2.12
  62  0.494  0.895  0.143-  16 1.84  19 1.87  14 2.05  20 2.10  12 2.12

  LATTYP: Found a simple monoclinic cell.
 ALAT       =    11.3561981661
 B/A-ratio  =     0.4890166043
 C/A-ratio  =     1.6656046645
 COS(beta)  =    -0.8957157767

  Lattice vectors:

 A1 = (  -6.4281996008,   0.0000000000,  -9.3617031934)
 A2 = (   0.0000000000,  -5.5533694650,   0.0000000000)
 A3 = (   2.6572606564,   0.0000000000,  18.7273541584)

Analysis of symmetry for initial positions (statically):
 Subroutine PRICEL returns:
 Original cell was already a primitive cell.

 Routine SETGRP: Setting up the symmetry group for a
 simple monoclinic supercell.

 Subroutine GETGRP returns: Found  2 space group operations
 (whereof  2 operations were pure point group operations)
 out of a pool of  4 trial point group operations.

The static configuration has the point symmetry C_2 .

Analysis of symmetry for dynamics (positions and initial velocities):
 Subroutine PRICEL returns:
 Original cell was already a primitive cell.

[...]

The dynamic configuration has the point symmetry C_2 .

Analysis of structural, dynamic, and magnetic symmetry:
 Subroutine PRICEL returns:
 Original cell was already a primitive cell.

 Routine SETGRP: Setting up the symmetry group for a
 simple monoclinic supercell.

 Subroutine GETGRP returns: Found  2 space group operations
 (whereof  2 operations were pure point group operations)
 out of a pool of  4 trial point group operations.

The magnetic configuration has the point symmetry C_2 .

 Subroutine INISYM returns: Found  2 space group operations
 (whereof  2 operations are pure point group operations),
 and found     1 'primitive' translations

 KPOINTS: Automatic mesh

Automatic generation of k-mesh.
Space group operators:
 irot       det(A)        alpha          n_x          n_y          n_z        tau_x        tau_y        tau_z
    1     1.000000     0.000001     1.000000     0.000000     0.000000     0.000000     0.000000     0.000000
    2     1.000000   180.000000     0.000000     1.000000     0.000000     0.000000     0.000000     0.000000

 Subroutine IBZKPT returns following result:

 Found      1 irreducible k-points:

 Following reciprocal coordinates:
            Coordinates               Weight
  0.000000  0.000000  0.000000      1.000000

 Following cartesian coordinates:
            Coordinates               Weight
  0.000000  0.000000  0.000000      1.000000

 SYSTEM =  unknown system
 POSCAR =  ce8_1

 Startparameter for this run:
   NWRITE =      1    write-flag & timer
   PREC   = accura    normal or accurate (medium, high low for compatibility)
   ISTART =      0    job   : 0-new  1-cont  2-samecut
   ICHARG =      2    charge: 1-file 2-atom 10-const
   ISPIN  =      2    spin polarized calculation?
   LNONCOLLINEAR =      F non collinear calculations
   LSORBIT =      F    spin-orbit coupling
   INIWAV =      1    electr: 0-lowe 1-rand  2-diag
   LASPH  =      F    aspherical Exc in radial PAW
   METAGGA=      F    non-selfconsistent MetaGGA calc.

 Electronic Relaxation 1
   ENCUT  =  500.0 eV  36.75 Ry    6.06 a.u.  10.13 18.41 18.60*2*pi/ulx,y,z
[...]
   0.204E+02 0.250E+00 -.429E+01   -.209E+02 -.196E+00 0.393E+01   0.465E+00 -.336E-01 0.355E+00   0.291E-01 -.115E-01 0.533E-02
   0.342E+02 0.768E+00 0.492E+02   -.351E+02 -.826E+00 -.495E+02   0.897E+00 0.424E-01 0.240E+00   0.309E-01 0.117E-01 0.522E-02
   -.342E+02 0.768E+00 -.492E+02   0.351E+02 -.826E+00 0.495E+02   -.897E+00 0.424E-01 -.240E+00   -.309E-01 0.117E-01 -.522E-02
   0.328E-05 -.426E+01 -.628E-06   0.444E-14 0.407E+01 -.373E-13   -.517E-25 0.195E+00 -.511E-25   0.571E-12 -.680E-02 0.448E-12
   -.107E-04 0.249E+02 0.179E-05   -.231E-13 -.252E+02 0.121E-12   -.517E-25 0.204E+00 -.470E-25   0.989E-11 0.129E-01 0.187E-11
   0.429E-05 -.256E+02 -.718E-06   0.444E-14 0.259E+02 -.426E-13   0.000E+00 -.257E+00 0.117E-25   0.183E-11 -.139E-01 -.634E-12
   0.175E+02 0.143E+01 0.263E+03   -.213E+02 -.179E+01 -.275E+03   0.384E+01 0.351E+00 0.121E+02   -.144E-01 0.121E-01 -.893E-02
   -.175E+02 0.143E+01 -.263E+03   0.213E+02 -.179E+01 0.275E+03   -.384E+01 0.351E+00 -.121E+02   0.144E-01 0.121E-01 0.893E-02
   -.248E+02 0.123E+01 -.262E+03   0.289E+02 -.148E+01 0.275E+03   -.407E+01 0.257E+00 -.127E+02   -.900E-02 -.485E-02 -.148E-01
   0.248E+02 0.123E+01 0.262E+03   -.289E+02 -.148E+01 -.275E+03   0.407E+01 0.257E+00 0.127E+02   0.900E-02 -.485E-02 0.148E-01
   0.329E+00 0.127E+01 0.262E+03   -.430E+01 -.950E+00 -.274E+03   0.398E+01 -.302E+00 0.117E+02   -.109E-01 -.244E-01 -.177E-01
   -.329E+00 0.127E+01 -.262E+03   0.430E+01 -.950E+00 0.274E+03   -.398E+01 -.302E+00 -.117E+02   0.109E-01 -.244E-01 0.177E-01
   0.328E+02 -.115E+01 -.276E+03   -.318E+02 0.590E+00 0.290E+03   -.104E+01 0.542E+00 -.143E+02   0.515E-02 0.256E-01 0.244E-01
   -.328E+02 -.115E+01 0.276E+03   0.318E+02 0.590E+00 -.290E+03   0.104E+01 0.542E+00 0.143E+02   -.515E-02 0.256E-01 -.244E-01
   -.856E-01 -.235E+00 -.262E+03   0.426E+01 0.228E+00 0.274E+03   -.420E+01 0.128E-01 -.122E+02   0.201E-01 -.552E-02 -.583E-03
   0.856E-01 -.235E+00 0.262E+03   -.426E+01 0.228E+00 -.274E+03   0.420E+01 0.128E-01 0.122E+02   -.201E-01 -.552E-02 0.583E-03
   -.338E+02 0.337E+00 0.276E+03   0.327E+02 -.311E+00 -.291E+03   0.108E+01 -.329E-01 0.150E+02   -.256E-01 0.539E-02 0.671E-02
   0.338E+02 0.337E+00 -.276E+03   -.327E+02 -.311E+00 0.291E+03   -.108E+01 -.329E-01 -.150E+02   0.256E-01 0.539E-02 -.671E-02
   0.260E+02 -.127E+01 0.262E+03   -.301E+02 0.153E+01 -.276E+03   0.409E+01 -.248E+00 0.131E+02   -.199E-01 -.132E-01 -.784E-02
   -.260E+02 -.127E+01 -.262E+03   0.301E+02 0.153E+01 0.276E+03   -.409E+01 -.248E+00 -.131E+02   0.199E-01 -.132E-01 0.784E-02
   -.247E+02 -.168E+01 -.262E+03   0.286E+02 0.200E+01 0.275E+03   -.390E+01 -.329E+00 -.126E+02   -.117E-01 0.493E-02 -.128E-01
   0.247E+02 -.168E+01 0.262E+03   -.286E+02 0.200E+01 -.275E+03   0.390E+01 -.329E+00 0.126E+02   0.117E-01 0.493E-02 0.128E-01
   0.702E+02 0.290E+02 0.303E+03   -.769E+02 -.307E+02 -.319E+03   0.668E+01 0.173E+01 0.156E+02   0.337E-02 0.134E-01 -.834E-02
   -.702E+02 0.290E+02 -.303E+03   0.769E+02 -.307E+02 0.319E+03   -.668E+01 0.173E+01 -.156E+02   -.337E-02 0.134E-01 0.834E-02
   -.698E+02 0.298E+02 -.302E+03   0.765E+02 -.318E+02 0.318E+03   -.662E+01 0.194E+01 -.150E+02   -.185E-01 -.494E-02 -.201E-01
   0.698E+02 0.298E+02 0.302E+03   -.765E+02 -.318E+02 -.318E+03   0.662E+01 0.194E+01 0.150E+02   0.185E-01 -.494E-02 0.201E-01
   0.380E+02 -.137E+01 0.270E+03   -.430E+02 0.122E+01 -.283E+03   0.500E+01 0.152E+00 0.130E+02   0.105E-01 -.311E-02 0.349E-02
   -.380E+02 -.137E+01 -.270E+03   0.430E+02 0.122E+01 0.283E+03   -.500E+01 0.152E+00 -.130E+02   -.105E-01 -.311E-02 -.349E-02
   -.333E+02 0.149E+01 -.270E+03   0.368E+02 -.123E+01 0.283E+03   -.347E+01 -.261E+00 -.126E+02   -.170E-01 0.158E-02 0.227E-02
   0.333E+02 0.149E+01 0.270E+03   -.368E+02 -.123E+01 -.283E+03   0.347E+01 -.261E+00 0.126E+02   0.170E-01 0.158E-02 -.227E-02
   -.362E+02 0.175E+00 -.269E+03   0.412E+02 -.143E+00 0.282E+03   -.499E+01 -.263E-01 -.131E+02   0.827E-02 -.605E-02 -.777E-02
   0.362E+02 0.175E+00 0.269E+03   -.412E+02 -.143E+00 -.282E+03   0.499E+01 -.263E-01 0.131E+02   -.827E-02 -.605E-02 0.777E-02
   0.305E+02 -.147E+00 0.269E+03   -.339E+02 0.133E+00 -.282E+03   0.342E+01 0.105E-01 0.126E+02   -.125E-01 0.533E-02 0.132E-01
   -.305E+02 -.147E+00 -.269E+03   0.339E+02 0.133E+00 0.282E+03   -.342E+01 0.105E-01 -.126E+02   0.125E-01 0.533E-02 -.132E-01
   0.605E+02 -.309E+02 0.304E+03   -.667E+02 0.331E+02 -.319E+03   0.618E+01 -.221E+01 0.146E+02   0.242E-01 -.137E-01 -.192E-01
   -.605E+02 -.309E+02 -.304E+03   0.667E+02 0.331E+02 0.319E+03   -.618E+01 -.221E+01 -.146E+02   -.242E-01 -.137E-01 0.192E-01
   -.700E+02 -.294E+02 -.302E+03   0.766E+02 0.312E+02 0.317E+03   -.656E+01 -.178E+01 -.152E+02   -.189E-01 0.456E-02 -.212E-01
   0.700E+02 -.294E+02 0.302E+03   -.766E+02 0.312E+02 -.317E+03   0.656E+01 -.178E+01 0.152E+02   0.189E-01 0.456E-02 0.212E-01
   0.191E-04 0.590E+00 -.623E-05   -.426E-13 0.355E-14 -.171E-12   0.000E+00 -.572E+00 0.355E-14   0.651E-11 -.112E-01 -.530E-11

 POSITION                                       TOTAL-FORCE (eV/Angst)
      1.51769      5.52632      2.34998         0.002073      0.000192     -0.000526
      4.91281      5.52632      7.01731        -0.002073      0.000192      0.000526
      4.16238      1.38756      2.33684         0.001523      0.002501     -0.007463
      2.26812      1.38756      7.03045        -0.001523      0.002501      0.007463
      2.26697      4.15935      7.03132         0.016931     -0.001267      0.001387
      4.16353      4.15935      2.33596        -0.016931     -0.001267     -0.001387
      1.51808      2.79499      2.35883        -0.013613     -0.002196      0.005239
      4.91242      2.79499      7.00846         0.013613     -0.002196     -0.005239
      6.80815      5.52551      2.32569        -0.006322     -0.002954     -0.000901
     -0.37765      5.52551      7.04159         0.006322     -0.002954      0.000901
     -0.94538      1.39389      2.34111        -0.006904     -0.008891     -0.000057
      7.37588      1.39389      7.02618         0.006904     -0.008891      0.000057
      6.80874      2.79459      2.32293         0.004398      0.002181     -0.000089
     -0.37823      2.79459      7.04436        -0.004398      0.002181      0.000089
     -0.00000      5.54022      0.00000         0.000000     -0.004607      0.000000
      2.56074      1.38714      0.04353        -0.001803      0.001242      0.003854
      3.86976      1.38714      9.32375         0.001803      0.001242     -0.003854
      3.88189      4.15948      9.36322        -0.000845     -0.000178     -0.004429
      2.54861      4.15948      0.00407         0.000845     -0.000178      0.004429
     -0.00000      2.78213      0.00000         0.000000      0.006234      0.000000
      5.10498      0.00214     -0.00444         0.000000      0.000633     -0.000000
      5.10498      2.77355     -0.00444         0.000000      0.004042      0.000000
      3.21525      0.00438      4.68364         0.000000      0.009804     -0.000000
      5.76138      1.38898      4.63562         0.001302      0.008148     -0.000460
      0.66912      1.38898      4.73166        -0.001302      0.008148      0.000460
      0.65984      4.16295      4.69228        -0.001855     -0.003330      0.000952
      5.77067      4.16295      4.67501         0.001855     -0.003330     -0.000952
      3.21525      2.77569      4.68364         0.000000     -0.002150      0.000000
     -1.88973      5.53555      4.68808         0.000000     -0.001536      0.000000
     -1.88973      2.77676      4.68808         0.000000     -0.003331      0.000000
      5.03595      5.53469      3.62453        -0.018030      0.002801      0.001085
      1.39456      5.53469      5.74276         0.018030      0.002801     -0.001085
      3.23718      5.53082      1.06400         0.001655      0.001234      0.001140
      3.19332      5.53082      8.30329        -0.001655      0.001234     -0.001140
      7.60569      1.37804      3.65241        -0.003692     -0.005910     -0.003582
     -1.17519      1.37804      5.71488         0.003692     -0.005910      0.003582
     -1.07832      4.16205      5.63409        -0.005943      0.002789      0.008767
      7.50882      4.16205      3.73319         0.005943      0.002789     -0.008767
      0.70920      1.38888      1.02355        -0.005008     -0.000460      0.009038
      5.72130      1.38888      8.34373         0.005008     -0.000460     -0.009038
      5.62170      4.16100      8.42495         0.001933     -0.002016     -0.005832
      0.80880      4.16100      0.94234        -0.001933     -0.002016      0.005832
      5.09462      2.79038      3.61827         0.004799      0.000219     -0.008580
      1.33589      2.79038      5.74902        -0.004799      0.000219      0.008580
      3.23734      2.78643      1.06929        -0.000962     -0.001731      0.001751
      3.19316      2.78643      8.29799         0.000962     -0.001731     -0.001751
     -0.00370      0.03300      3.69773         0.005962     -0.000861     -0.001200
      6.43420      0.03300      5.66956        -0.005962     -0.000861      0.001200
      8.33248      0.03455      0.98831         0.008331      0.000144     -0.003036
     -1.90198      0.03455      8.37898        -0.008331      0.000144      0.003036
      2.48451      1.39380      3.68052        -0.005485      0.005909      0.003386
      3.94600      1.39380      5.68677         0.005485      0.005909     -0.003386
      3.99118      4.15844      5.66435        -0.004423      0.000818      0.006008
      2.43932      4.15844      3.70293         0.004423      0.000818     -0.006008
      5.83390      1.38742      0.99865        -0.000776     -0.000298      0.004267
      0.59660      1.38742      8.36864         0.000776     -0.000298     -0.004267
      0.54324      4.16118      8.39639        -0.000412      0.001155     -0.004185
      5.88726      4.16118      0.97090         0.000412      0.001155      0.004185
     -0.05643      2.74059      3.70292        -0.014056     -0.002626      0.010267
      6.48694      2.74059      5.66437         0.014056     -0.002626     -0.010267
      8.33108      2.74200      0.98559         0.003764     -0.001161     -0.000369
     -1.90057      2.74200      8.38170        -0.003764     -0.001161      0.000369
    total drift:                                0.000019      0.006592     -0.000006

  FREE ENERGIE OF THE ION-ELECTRON SYSTEM (eV)
  free  energy   TOTEN  =      -373.6416265088 eV

  energy  without entropy=     -373.6400097391  energy(sigma->0) =     -373.64081812

 d Force = 0.1421907E-03[ 0.122E-03, 0.163E-03]  d Energy = 0.1092263E-03 0.330E-04
 d Force = 0.7968150E+00[ 0.796E+00, 0.797E+00]  d Ewald  = 0.2822209E+01-0.203E+01

 Quasi-Newton relaxation of ions (Broydens 2nd method)
  g(Force)  = 0.230E-03   g(Stress)= 0.816E-04

 retain information from N=  1 steps
 eigenvalues of (default step * inverse Hessian matrix)
  average eigenvalue of G=   0.2022
 eigenvalue spectrum of G is  0.2022

 reached required accuracy - stopping structural energy minimisation

volume of typ            1:    20.6 %

[...]

volume of typ            3:     9.8 %

total charge

# of ion       s       p       d       tot
    1        2.084   0.259   0.098   2.441
    2        2.084   0.259   0.098   2.441
    3        2.082   0.250   0.095   2.427
    4        2.082   0.250   0.095   2.427
    5        2.083   0.250   0.094   2.426
    6        2.083   0.250   0.094   2.426
    7        2.082   0.254   0.095   2.430
    8        2.082   0.254   0.095   2.430
    9        2.083   0.259   0.097   2.439
   10        2.083   0.259   0.097   2.439
   11        2.079   0.241   0.090   2.410
   12        2.079   0.241   0.090   2.410
   13        2.084   0.261   0.098   2.444
   14        2.084   0.261   0.098   2.444
   15        0.263   0.342   7.876   8.482
   16        0.274   0.366   7.881   8.520
   17        0.274   0.366   7.881   8.520
   18        0.273   0.371   7.863   8.507
   19        0.273   0.371   7.863   8.507
   20        0.264   0.343   7.873   8.480
   21        0.263   0.341   7.893   8.498
   22        0.263   0.340   7.894   8.497
   23        0.264   0.346   7.877   8.487
   24        0.272   0.364   7.882   8.519
   25        0.272   0.364   7.882   8.519
   26        0.272   0.368   7.866   8.506
   27        0.272   0.368   7.866   8.506
   28        0.264   0.342   7.895   8.501
   29        0.264   0.343   7.874   8.481
   30        0.263   0.345   7.865   8.473
   31        1.254   2.799   0.006   4.059
   32        1.254   2.799   0.006   4.059
   33        1.254   2.800   0.006   4.060
   34        1.254   2.800   0.006   4.060
   35        1.255   2.799   0.006   4.060
   36        1.255   2.799   0.006   4.060
   37        1.260   2.788   0.007   4.054
   38        1.260   2.788   0.007   4.054
   39        1.254   2.800   0.006   4.060
   40        1.254   2.800   0.006   4.060
   41        1.260   2.786   0.007   4.053
   42        1.260   2.786   0.007   4.053
   43        1.254   2.799   0.006   4.060
   44        1.254   2.799   0.006   4.060
   45        1.254   2.799   0.006   4.059
   46        1.254   2.799   0.006   4.059
   47        1.262   2.781   0.006   4.049
   48        1.262   2.781   0.006   4.049
   49        1.263   2.779   0.006   4.048
   50        1.263   2.779   0.006   4.048
   51        1.256   2.795   0.006   4.057
   52        1.256   2.795   0.006   4.057
   53        1.255   2.798   0.006   4.059
   54        1.255   2.798   0.006   4.059
   55        1.256   2.795   0.006   4.057
   56        1.256   2.795   0.006   4.057
   57        1.255   2.797   0.006   4.058
   58        1.255   2.797   0.006   4.058
   59        1.262   2.778   0.006   4.046
   60        1.262   2.778   0.006   4.046
   61        1.262   2.781   0.006   4.049
   62        1.262   2.781   0.006   4.049
tot          73.68   98.57  127.56  299.81

magnetization (x)

# of ion       s       p       d       tot
    1       -0.001   0.000  -0.000  -0.001
    2       -0.001   0.000  -0.000  -0.001
    3        0.002   0.007   0.000   0.010
    4        0.002   0.007   0.000   0.010
    5        0.001   0.005  -0.001   0.005
    6        0.001   0.005  -0.001   0.005
    7        0.002   0.008   0.001   0.011
    8        0.002   0.008   0.001   0.011
    9        0.001   0.005  -0.001   0.006
   10        0.001   0.005  -0.001   0.006
   11        0.003   0.009   0.000   0.012
   12        0.003   0.009   0.000   0.012
   13       -0.001   0.001  -0.000  -0.001
   14       -0.001   0.001  -0.000  -0.001
   15       -0.005  -0.000  -0.580  -0.584
   16        0.005  -0.000   0.507   0.513
   17        0.005  -0.000   0.507   0.513
   18        0.001  -0.000   0.142   0.143
   19        0.001  -0.000   0.142   0.143
   20       -0.005  -0.000  -0.604  -0.609
   21        0.005  -0.001   0.632   0.636
   22        0.005  -0.001   0.630   0.634
   23        0.004  -0.001   0.676   0.680
   24        0.004  -0.000   0.508   0.512
   25        0.004  -0.000   0.508   0.512
   26        0.000  -0.001   0.287   0.287
   27        0.000  -0.001   0.287   0.287
   28        0.005  -0.000   0.607   0.611
   29       -0.005  -0.001  -0.528  -0.533
   30        0.002  -0.000   0.617   0.619
   31        0.007   0.087   0.000   0.094
   32        0.007   0.087   0.000   0.094
   33        0.006   0.087   0.000   0.093
   34        0.006   0.087   0.000   0.093
   35        0.006   0.059   0.000   0.065
   36        0.006   0.059   0.000   0.065
   37        0.005   0.036   0.000   0.041
   38        0.005   0.036   0.000   0.041
   39        0.004   0.044   0.000   0.048
   40        0.004   0.044   0.000   0.048
   41       -0.000  -0.003   0.000  -0.004
   42       -0.000  -0.003   0.000  -0.004
   43        0.005   0.081   0.000   0.087
   44        0.005   0.081   0.000   0.087
   45        0.006   0.089   0.000   0.095
   46        0.006   0.089   0.000   0.095
   47       -0.005  -0.083  -0.000  -0.088
   48       -0.005  -0.083  -0.000  -0.088
   49       -0.005  -0.076  -0.000  -0.080
   50       -0.005  -0.076  -0.000  -0.080
   51        0.007   0.070   0.000   0.078
   52        0.007   0.070   0.000   0.078
   53        0.006   0.034   0.000   0.040
   54        0.006   0.034   0.000   0.040
   55        0.007   0.074   0.000   0.082
   56        0.007   0.074   0.000   0.082
   57        0.005   0.022   0.000   0.027
   58        0.005   0.022   0.000   0.027
   59        0.008   0.083   0.000   0.091
   60        0.008   0.083   0.000   0.091
   61       -0.006  -0.081  -0.000  -0.086
   62       -0.006  -0.081  -0.000  -0.086
tot           0.16    1.11    4.34    5.61