 vasp.5.4.4.18Apr17-6-g9f103f2a35 (build May 12 2020 05:39:39) gamma-only

 MD_VERSION_INFO: Compiled 2020-05-12T12:39:39-UTC in devlin.sd.materialsdesign.
 com:/home/medea2/data/build/wwolf/vasp-gpu5.4.4/13047/x86_64/src/src/build/gam
 from svn 13047

 executed on                        Lin64 date 2023.03.07  01:02:54

 INCAR:
 POTCAR:    PAW_PBE Li_sv 10Sep2004
 POTCAR:    PAW_PBE Ni 02Aug2007
 POTCAR:    PAW_PBE O 08Apr2002

 POTCAR:    PAW_PBE Li_sv 10Sep2004

 POTCAR:    PAW_PBE Ni 02Aug2007

 POTCAR:    PAW_PBE O 08Apr2002

 Optimization of the real space projectors (new method)

 maximal supplied QI-value         = 22.11
 optimisation between [QCUT,QGAM] = [ 11.28, 22.77] = [ 35.61,145.23] Ry
 Optimized for a Real-space Cutoff    1.10 Angstroem

   l    n(q)    QCUT    max X(q) W(low)/X(q) W(high)/X(q)  e(spline)
   0      7    11.276    10.506    0.54E-04    0.58E-04    0.16E-07
   0      7    11.276     8.367    0.11E-03    0.14E-03    0.35E-07
   1      7    11.276     8.983    0.23E-03    0.43E-03    0.86E-07
 Optimization of the real space projectors (new method)

[...]

   l    n(q)    QCUT    max X(q) W(low)/X(q) W(high)/X(q)  e(spline)
   2      9    11.376    60.317    0.17E-03    0.16E-04    0.16E-06
   2      9    11.376    55.921    0.17E-03    0.16E-04    0.17E-06
   0     10    11.376    51.690    0.45E-04    0.60E-04    0.21E-06
   0     10    11.376    30.015    0.37E-04    0.55E-04    0.19E-06
   1     10    11.376    18.849    0.83E-04    0.11E-03    0.92E-07
   1     10    11.376    14.624    0.69E-04    0.92E-04    0.82E-07
 Optimization of the real space projectors (new method)

 maximal supplied QI-value         = 24.76
 optimisation between [QCUT,QGAM] = [ 11.39, 22.77] = [ 36.31,145.25] Ry
 Optimized for a Real-space Cutoff    1.10 Angstroem

   l    n(q)    QCUT    max X(q) W(low)/X(q) W(high)/X(q)  e(spline)
   0      7    11.387    20.381    0.22E-03    0.48E-03    0.18E-06
   0      7    11.387    15.268    0.22E-03    0.52E-03    0.19E-06
   1      7    11.387     5.964    0.22E-03    0.73E-03    0.24E-06
   1      7    11.387     5.382    0.19E-03    0.60E-03    0.21E-06

  PAW_PBE Li_sv 10Sep2004               :
  PAW_PBE Ni 02Aug2007                  :
  PAW_PBE O 08Apr2002                   :

 POSCAR: ce4429_1
  positions in direct lattice
 exchange correlation table for  LEXCH =       14
   RHO(1)=    0.500       N(1)  =     2000
   RHO(2)=  100.500       N(2)  =     4000

 ion  position               nearest neighbor table
   1  0.997  0.253  0.239-  41 2.06  38 2.07  46 2.09  53 2.09  50 2.15  32 2.27  14 2.79  25 2.83

   2  0.249  0.250  0.501-  50 2.08  32 2.10  42 2.10  30 2.11  44 2.12  54 2.13  23 2.80  15 2.81

[...]

  13  0.503  0.752  0.239-  61 2.06  36 2.07  35 2.10  56 2.13  55 2.17  43 2.27  29 2.79  18 2.83

  14  0.999  0.001  0.000-  40 1.85  41 1.86  39 1.87  38 1.87  48 2.09  49 2.09  19 2.76  19 2.79
                             1 2.79  11 2.80  17 2.88  16 2.89  18 2.89  15 2.90
  15  0.250  0.005  0.253-  49 1.84  61 1.84  44 1.86  32 1.87  38 2.08  55 2.08  18 2.78  18 2.78
                             2 2.81  20 2.88  21 2.89  19 2.90  14 2.90
  16  0.250  0.995  0.749-  48 1.84  60 1.85  45 1.86  33 1.87  39 2.04  54 2.09   3 2.77  17 2.77
                            17 2.78  14 2.89  21 2.89  20 2.89  19 2.90
  17  0.751  0.000  0.751-  48 1.86  45 1.87  60 1.88  33 1.88  40 1.96  57 2.03  16 2.77  16 2.78
                             4 2.82   8 2.83  12 2.83  14 2.88  19 2.88  20 2.90  21 2.90
  18  0.750  0.001  0.250-  49 1.86  44 1.87  61 1.87  32 1.88  41 1.99  56 2.03  15 2.78  15 2.78
                            13 2.83   9 2.84  19 2.88  20 2.89  14 2.89  21 2.89
  19  0.502  0.005  0.002-  40 1.84  39 1.85  41 1.86  38 1.88  60 2.05  61 2.06  14 2.76   6 2.77
                            14 2.79   7 2.83  18 2.88  17 2.88  16 2.90  15 2.90
  20  0.000  0.001  0.500-  55 1.87  54 1.88  57 1.88  56 1.88  33 1.99  32 2.04  21 2.77  21 2.78
                            15 2.88  18 2.89  16 2.89  17 2.90
  21  0.500  1.000  0.500-  55 1.86  54 1.86  56 1.87  57 1.87  45 2.12  44 2.12  20 2.77  20 2.78
                            15 2.89  16 2.89  18 2.89  17 2.90
  22  1.000  0.498  0.499-  50 1.85  52 1.85  51 1.86  53 1.87  30 2.16  31 2.16  27 2.78  27 2.78
                             3 2.83   4 2.84  23 2.88  24 2.89  26 2.90  25 2.90
  23  0.249  0.495  0.748-  59 1.84  47 1.85  30 1.86  42 1.89  51 2.03  34 2.06  26 2.77  26 2.79
                             2 2.80  11 2.83  22 2.88  28 2.89  27 2.90  29 2.90
  24  0.249  0.506  0.252-  58 1.83  46 1.84  31 1.85  43 1.86  35 2.15  50 2.16  25 2.78  25 2.78
                            27 2.88  22 2.89  28 2.89  29 2.90
  25  0.749  0.501  0.250-  58 1.86  31 1.86  43 1.88  46 1.89  36 1.96  53 2.02  24 2.78  24 2.78
                             1 2.83  29 2.88  27 2.89  28 2.89  22 2.90
  26  0.751  0.499  0.751-  59 1.85  30 1.86  47 1.86  42 1.88  37 2.05  52 2.09  23 2.77  23 2.79
                             7 2.80   5 2.84  29 2.87  28 2.88  22 2.90  27 2.91
  27  0.499  0.495  0.497-  52 1.84  51 1.85  50 1.86  53 1.88  42 2.06  43 2.06  22 2.78  22 2.78
                             6 2.84  24 2.88  25 2.89  23 2.90  26 2.91
  28  1.000  0.499  1.000-  37 1.85  35 1.87  36 1.89  34 1.89  47 1.95  46 2.00  29 2.77  29 2.79
                             8 2.79   9 2.81  26 2.88  25 2.89  24 2.89  23 2.89
  29  0.502  0.501  0.000-  37 1.84  35 1.85  36 1.86  34 1.88  59 2.10  58 2.11  28 2.77  28 2.79
                            13 2.79  12 2.81  26 2.87  25 2.88  23 2.90  24 2.90
  30  0.996  0.385  0.644-  26 1.86  23 1.86   5 2.09   2 2.11   8 2.12  22 2.16
  31  0.998  0.613  0.357-  24 1.85  25 1.86   4 2.12   3 2.14   9 2.14  22 2.16
  32  0.998  0.110  0.366-  15 1.87  18 1.88  20 2.04   5 2.09   2 2.10   1 2.27
  33  0.999  0.896  0.632-  16 1.87  17 1.88  20 1.99   4 2.07   3 2.07
  34  0.254  0.390  0.887-  29 1.88  28 1.89  23 2.06  12 2.07   8 2.10  10 2.12
  35  0.251  0.612  0.104-  29 1.85  28 1.87  13 2.10   9 2.12  11 2.14  24 2.15
  36  0.748  0.603  0.118-  29 1.86  28 1.89  25 1.96  13 2.07   9 2.08
  37  0.748  0.395  0.890-  29 1.84  28 1.85  26 2.05  12 2.08   8 2.09
  38  0.248  0.112  0.113-  14 1.87  19 1.88   1 2.07  15 2.08   6 2.09  10 2.12
  39  0.255  0.897  0.891-  19 1.85  14 1.87  16 2.04  11 2.05   7 2.18
  40  0.747  0.904  0.887-  19 1.84  14 1.85  17 1.96   7 2.04
  41  0.754  0.104  0.118-  14 1.86  19 1.86  18 1.99   1 2.06   6 2.08
  42  0.505  0.389  0.636-  26 1.88  23 1.89  27 2.06   5 2.07   2 2.10  12 2.22
  43  0.499  0.609  0.366-  24 1.86  25 1.88  27 2.06   4 2.14   3 2.15  13 2.27
  44  0.503  0.112  0.361-  15 1.86  18 1.87   5 2.10  21 2.12   2 2.12   6 2.15
  45  0.503  0.889  0.641-  16 1.86  17 1.87   4 2.09   3 2.11  21 2.12   7 2.18
  46  0.007  0.399  0.137-  24 1.84  25 1.89  28 2.00   1 2.09  10 2.13
  47  0.003  0.596  0.865-  23 1.85  26 1.86  28 1.95  11 2.04
  48  0.006  0.105  0.856-  16 1.84  17 1.86   8 2.03  14 2.09  10 2.14
  49  0.006  0.897  0.144-  15 1.84  18 1.86   9 2.05  14 2.09  11 2.13
  50  0.246  0.387  0.391-  22 1.85  27 1.86   2 2.08   1 2.15  24 2.16   6 2.17
  51  0.253  0.599  0.611-  27 1.85  22 1.86  23 2.03   3 2.09   7 2.27
  52  0.746  0.602  0.606-  27 1.84  22 1.85   4 2.05  26 2.09   7 2.12
  53  0.753  0.392  0.381-  22 1.87  27 1.88  25 2.02   1 2.09   6 2.11   5 2.20
  54  0.253  0.108  0.612-  21 1.86  20 1.88  16 2.09   2 2.13  12 2.16   8 2.18
  55  0.251  0.893  0.389-  21 1.86  20 1.87  15 2.08   9 2.17  13 2.17   3 2.26
  56  0.749  0.894  0.385-  21 1.87  20 1.88  18 2.03  13 2.13   9 2.14   4 2.28
  57  0.749  0.106  0.615-  21 1.87  20 1.88  17 2.03  12 2.13   8 2.13   5 2.17
  58  0.493  0.396  0.146-  24 1.83  25 1.86   6 2.05  29 2.11  10 2.12
  59  0.495  0.604  0.855-  23 1.84  26 1.85   7 2.03  29 2.10  11 2.17
  60  0.494  0.106  0.860-  16 1.85  17 1.88  12 2.04  19 2.05  10 2.10
  61  0.494  0.898  0.141-  15 1.84  18 1.87  13 2.06  19 2.06  11 2.25

  LATTYP: Found a triclinic cell.
 ALAT       =    15.0407431128
 B/A-ratio  =     0.3692589764
 C/A-ratio  =     0.7567781434
 COS(alpha) =     0.0002208994
 COS(beta)  =     0.3798242308
 COS(gamma) =     0.7385185351

  Lattice vectors:

 A1 = ( -10.1409683313,  11.1078633175,  -0.0093386206)
 A2 = (  -0.0000016968,   5.5539293560,  -0.0007468957)
 A3 = (  -6.4022170736,   0.0012467923,  -9.4113256150)

Analysis of symmetry for initial positions (statically):
 Subroutine PRICEL returns:
 Original cell was already a primitive cell.

 Routine SETGRP: Setting up the symmetry group for a
 triclinic supercell.

 Subroutine GETGRP returns: Found  1 space group operations
 (whereof  1 operations were pure point group operations)
 out of a pool of  2 trial point group operations.

The static configuration has the point symmetry C_1 .

Analysis of symmetry for dynamics (positions and initial velocities):
 Subroutine PRICEL returns:
 Original cell was already a primitive cell.

[...]

The dynamic configuration has the point symmetry C_1 .

Analysis of structural, dynamic, and magnetic symmetry:
 Subroutine PRICEL returns:
 Original cell was already a primitive cell.

 Routine SETGRP: Setting up the symmetry group for a
 triclinic supercell.

 Subroutine GETGRP returns: Found  1 space group operations
 (whereof  1 operations were pure point group operations)
 out of a pool of  2 trial point group operations.

The magnetic configuration has the point symmetry C_1 .

 Subroutine INISYM returns: Found  1 space group operations
 (whereof  1 operations are pure point group operations),
 and found     1 'primitive' translations

 KPOINTS: Automatic mesh

Automatic generation of k-mesh.
Space group operators:
 irot       det(A)        alpha          n_x          n_y          n_z        tau_x        tau_y        tau_z
    1     1.000000     0.000001     1.000000     0.000000     0.000000     0.000000     0.000000     0.000000

 Subroutine IBZKPT returns following result:

 Found      1 irreducible k-points:

 Following reciprocal coordinates:
            Coordinates               Weight
  0.000000  0.000000  0.000000      1.000000

 Following cartesian coordinates:
            Coordinates               Weight
  0.000000  0.000000  0.000000      1.000000

 SYSTEM =  unknown system
 POSCAR =  ce4429_1

 Startparameter for this run:
   NWRITE =      1    write-flag & timer
   PREC   = accura    normal or accurate (medium, high low for compatibility)
   ISTART =      0    job   : 0-new  1-cont  2-samecut
   ICHARG =      2    charge: 1-file 2-atom 10-const
   ISPIN  =      2    spin polarized calculation?
   LNONCOLLINEAR =      F non collinear calculations
   LSORBIT =      F    spin-orbit coupling
   INIWAV =      1    electr: 0-lowe 1-rand  2-diag
   LASPH  =      F    aspherical Exc in radial PAW
   METAGGA=      F    non-selfconsistent MetaGGA calc.

 Electronic Relaxation 1
   ENCUT  =  500.0 eV  36.75 Ry    6.06 a.u.  10.13 18.45 18.49*2*pi/ulx,y,z
   ENINI  =  500.0     initial cutoff
   ENAUG  =  628.9 eV  augmentation charge cutoff
   NELM   =     80;   NELMIN=  2; NELMDL= -5     # of ELM steps
[...]
   -.256E+02 0.420E+01 -.627E+02   0.260E+02 -.406E+01 0.631E+02   -.363E+00 -.127E+00 -.476E+00   0.270E-01 -.824E-02 -.521E-02
   0.136E+00 0.119E+02 -.649E+02   -.103E+00 -.120E+02 0.659E+02   -.527E-01 0.115E+00 -.100E+01   0.200E-01 -.153E-02 -.690E-02
   0.797E+01 0.166E+01 -.322E+02   -.838E+01 -.166E+01 0.320E+02   0.430E+00 -.555E-02 0.189E+00   -.225E-01 -.458E-03 0.527E-03
   0.228E+02 -.251E+01 0.225E+02   -.237E+02 0.250E+01 -.225E+02   0.905E+00 0.173E-01 0.767E-01   -.214E-01 -.638E-02 -.126E-02
   -.130E+02 -.128E+02 -.114E+03   0.135E+02 0.130E+02 0.115E+03   -.592E+00 -.208E+00 -.883E+00   0.221E-01 -.985E-02 -.157E-01
   -.694E+01 -.396E+01 -.242E+02   0.723E+01 0.378E+01 0.246E+02   -.318E+00 0.174E+00 -.456E+00   0.306E-01 0.490E-02 -.345E-02
   0.175E+01 0.269E+02 -.176E+02   -.200E+01 -.272E+02 0.178E+02   0.279E+00 0.341E+00 -.261E+00   -.240E-01 -.126E-01 -.568E-02
   0.102E+02 -.245E+02 -.300E+02   -.103E+02 0.248E+02 0.302E+02   0.167E+00 -.283E+00 -.230E+00   -.255E-01 0.244E-03 -.288E-02
   0.208E+02 0.383E+01 0.238E+03   -.246E+02 -.417E+01 -.251E+03   0.369E+01 0.346E+00 0.130E+02   0.250E-01 -.785E-02 0.197E-01
   -.404E+02 -.173E+01 -.278E+03   0.447E+02 0.143E+01 0.292E+03   -.422E+01 0.300E+00 -.133E+02   -.131E-01 0.249E-03 0.170E-03
   -.725E+01 0.240E+01 -.260E+03   0.101E+02 -.294E+01 0.273E+03   -.284E+01 0.529E+00 -.126E+02   0.604E-02 0.756E-02 0.856E-02
   -.382E+02 0.160E+01 0.310E+03   0.373E+02 -.212E+01 -.324E+03   0.865E+00 0.512E+00 0.139E+02   -.791E-02 0.792E-02 -.771E-02
   0.389E+00 -.401E+01 0.257E+03   -.360E+01 0.380E+01 -.268E+03   0.321E+01 0.211E+00 0.109E+02   0.233E-02 0.206E-02 0.239E-01
   -.177E+01 -.422E+01 -.283E+03   0.476E+01 0.408E+01 0.296E+03   -.297E+01 0.132E+00 -.128E+02   -.198E-01 0.412E-02 -.255E-01
   0.406E+02 0.245E+01 -.293E+03   -.406E+02 -.182E+01 0.307E+03   0.343E-01 -.640E+00 -.139E+02   -.217E-01 0.214E-02 -.270E-01
   -.202E+02 0.354E+01 0.273E+03   0.193E+02 -.345E+01 -.288E+03   0.944E+00 -.981E-01 0.146E+02   -.626E-02 0.383E-02 0.314E-01
   0.303E+01 0.458E+01 -.252E+03   0.472E+00 -.473E+01 0.264E+03   -.351E+01 0.159E+00 -.120E+02   0.302E-02 0.368E-04 0.527E-02
   0.259E+02 0.296E+02 0.323E+03   -.310E+02 -.313E+02 -.339E+03   0.514E+01 0.168E+01 0.159E+02   -.223E-02 0.288E-02 -.215E-01
   -.124E+02 -.337E+02 0.334E+03   0.114E+02 0.360E+02 -.352E+03   0.102E+01 -.231E+01 0.189E+02   0.439E-02 -.608E-02 -.233E-01
   0.350E+02 -.439E+01 -.267E+03   -.343E+02 0.463E+01 0.282E+03   -.715E+00 -.233E+00 -.151E+02   -.250E-02 -.329E-02 0.112E-01
   0.317E+01 -.336E+01 0.245E+03   -.583E+01 0.345E+01 -.257E+03   0.264E+01 -.963E-01 0.120E+02   0.173E-01 0.107E-01 0.229E-01
   -.224E+02 0.345E+00 -.286E+03   0.259E+02 0.310E+00 0.299E+03   -.341E+01 -.659E+00 -.134E+02   -.733E-02 0.328E-02 -.277E-02
   -.180E+02 -.151E+01 -.257E+03   0.221E+02 0.179E+01 0.270E+03   -.412E+01 -.269E+00 -.128E+02   0.587E-02 -.909E-02 0.882E-02
   -.132E+01 0.798E-01 0.292E+03   -.265E+01 0.183E+00 -.305E+03   0.398E+01 -.247E+00 0.126E+02   -.758E-02 -.129E-01 -.981E-02
   0.438E+02 0.286E+02 0.298E+03   -.482E+02 -.309E+02 -.313E+03   0.447E+01 0.237E+01 0.152E+02   -.222E-01 -.137E-02 0.125E-01
   0.823E+01 0.335E+02 -.353E+03   -.708E+01 -.357E+02 0.371E+03   -.116E+01 0.219E+01 -.184E+02   0.729E-02 -.522E-02 -.325E-01
   -.643E+02 0.282E+02 -.278E+03   0.706E+02 -.300E+02 0.293E+03   -.632E+01 0.181E+01 -.151E+02   -.806E-02 0.755E-02 0.177E-01
   0.793E+02 0.281E+02 0.318E+03   -.854E+02 -.298E+02 -.333E+03   0.606E+01 0.171E+01 0.152E+02   0.104E-01 0.905E-02 -.148E-01
   0.466E+02 0.574E+01 0.255E+03   -.519E+02 -.595E+01 -.268E+03   0.525E+01 0.196E+00 0.134E+02   0.696E-02 0.974E-02 0.483E-02
   -.599E+02 0.297E+02 -.329E+03   0.658E+02 -.310E+02 0.346E+03   -.590E+01 0.129E+01 -.167E+02   0.141E-01 0.138E-01 -.268E-02
   -.666E+02 -.327E+02 -.320E+03   0.720E+02 0.345E+02 0.336E+03   -.538E+01 -.186E+01 -.156E+02   0.173E-01 -.987E-02 -.121E-01
   0.295E+02 -.572E+01 0.259E+03   -.324E+02 0.590E+01 -.271E+03   0.295E+01 -.175E+00 0.126E+02   0.293E-02 -.779E-02 0.771E-02
   -.401E+02 -.161E+01 -.264E+03   0.445E+02 0.116E+01 0.276E+03   -.439E+01 0.456E+00 -.119E+02   -.451E-02 -.368E-03 0.121E-01
   0.272E+02 -.338E+01 0.293E+03   -.308E+02 0.324E+01 -.307E+03   0.365E+01 0.147E+00 0.134E+02   0.304E-02 0.712E-03 0.314E-02
   0.233E+02 0.227E+01 0.292E+03   -.258E+02 -.183E+01 -.304E+03   0.249E+01 -.434E+00 0.120E+02   0.708E-02 -.281E-02 0.260E-04
   -.369E+02 0.295E+01 -.265E+03   0.398E+02 -.284E+01 0.277E+03   -.291E+01 -.109E+00 -.119E+02   -.867E-02 -.211E-02 0.162E-01
   0.638E+02 -.268E+02 0.294E+03   -.700E+02 0.286E+02 -.309E+03   0.628E+01 -.186E+01 0.156E+02   -.171E-01 0.414E-02 0.120E-01
   -.448E+02 -.289E+02 -.331E+03   0.513E+02 0.305E+02 0.347E+03   -.653E+01 -.165E+01 -.156E+02   0.401E-02 0.851E-02 -.300E-01
   -.521E+02 -.295E+02 -.285E+03   0.573E+02 0.315E+02 0.299E+03   -.518E+01 -.200E+01 -.143E+02   -.679E-02 -.121E-01 0.162E-01
   0.741E+02 -.263E+02 0.324E+03   -.805E+02 0.278E+02 -.340E+03   0.641E+01 -.154E+01 0.159E+02   0.633E-02 -.120E-01 -.167E-01
   0.823E+00 0.178E+00 0.304E-01   0.199E-12 0.853E-13 -.284E-12   -.815E+00 -.158E+00 -.596E-01   -.287E-02 -.470E-03 0.213E-01

 POSITION                                       TOTAL-FORCE (eV/Angst)
      1.47294      5.53881      2.39399        -0.001172     -0.000963      0.002336
      4.14226      1.38575      2.35367        -0.001063     -0.000305     -0.003313
      2.39051      1.36331      7.03509         0.005704      0.002117     -0.001705
      2.35463      4.19878      7.03646        -0.005079     -0.000042     -0.000795
      4.14126      4.17582      2.35416        -0.000496      0.000345     -0.003631
      1.51399      2.80156      2.37360        -0.000936     -0.001397      0.002326
      4.92898      2.94217      7.05474         0.011394      0.025813      0.001777
      6.77049      5.53332      2.35103         0.001777      0.000353      0.000311
     -0.36591      5.53862      7.07768        -0.000334     -0.001299     -0.000423
      9.18440      1.41866      2.37903        -0.000546      0.003389      0.002196
      7.19483      1.26664      7.07633        -0.009016     -0.019109      0.002632
      6.76728      2.80813      2.34623        -0.002398     -0.000468     -0.000946
     -0.39770      2.79592      7.08533        -0.008323     -0.002103      0.001333
     -0.00251      5.55794      0.02014        -0.000401      0.002684      0.005709
      2.53993      1.39170      0.05261        -0.000053      0.001349     -0.000386
      3.86460      1.39443      9.37407         0.000176      0.002632      0.001568
      7.60330      4.17708      0.00772        -0.000634      0.002250      0.002583
      2.52665      4.17024      0.01409         0.000265      0.000506      0.000233
      0.00590      2.79253      0.04971        -0.000271      0.001567      0.003795
      5.06126      0.00315      0.00763        -0.000683      0.001418     -0.002886
      1.33618      2.78273      9.40916        -0.000340      0.000734     -0.003444
      3.20614      5.55983      4.68606         0.000750     -0.000461     -0.003112
      5.72072      1.38355      4.66666        -0.000279     -0.001947     -0.000637
      0.66714      1.38796      4.76262         0.001576     -0.001166      0.001460
      0.66386      4.16507      4.72027         0.001291     -0.001353      0.000716
      5.73286      4.17015      4.70307         0.000161     -0.002449     -0.003348
      3.19044      2.77761      4.66224         0.001438     -0.001858     -0.002529
      8.25990      5.55402      4.71452        -0.000528     -0.002977      0.000983
     -1.86604      2.78501      4.71640        -0.000828     -0.002190      0.001842
      5.07118      5.53820      3.63456         0.001117     -0.001066     -0.002566
      1.34422      5.54602      5.76968         0.002596     -0.002807     -0.003230
      3.29862      5.54642      1.03302         0.002694      0.000666     -0.003284
      3.05569      5.55590      8.43673         0.000518      0.002119     -0.000623
      7.52295      1.40681      3.68116        -0.001850     -0.001238      0.002754
     -1.22085      1.39395      5.76812        -0.001468     -0.002983      0.000899
     -1.04502      4.15778      5.67644        -0.000836     -0.002802      0.000638
      7.51982      4.15578      3.73558        -0.000581     -0.002430      0.001978
      0.72223      1.37837      1.06214        -0.000043      0.001401      0.004753
      5.68308      1.42410      8.45851        -0.000173      0.002232      0.005713
      5.60456      4.16136      8.51893         0.002034      0.003836      0.005081
      0.80229      4.18836      0.98854        -0.000381      0.000485      0.005519
      4.98079      2.80123      3.66200         0.001447     -0.000972     -0.002246
      1.44234      2.77654      5.73038         0.003807     -0.001812     -0.003191
      3.24604      2.79856      1.05751         0.002745     -0.000139     -0.002589
      3.16591      2.80291      8.36809         0.001240      0.002790      0.000100
     -0.10447      0.04300      3.76157         0.000201     -0.001430      0.000879
      6.53237      0.01748      5.62054        -0.003785     -0.004929     -0.001154
      8.27440      0.03549      1.00315        -0.001920      0.001560      0.002427
     -1.89393      0.03562      8.43743        -0.002406      0.001638      0.001440
      2.52413      1.37132      3.64231         0.001344      0.000606     -0.001764
      3.94711      1.40498      5.64827         0.001485     -0.001954     -0.004276
      3.90444      4.15090      5.66791         0.002887     -0.001050     -0.002412
      2.40676      4.19023      3.69341         0.003218     -0.001003     -0.002125
      5.80182      1.40460      1.02251         0.000625      0.000983     -0.004257
      0.60214      1.39736      8.40473         0.001100      0.001588     -0.002561
      0.55866      4.16427      8.41774         0.002545      0.001236     -0.003641
      5.83260      4.16333      1.00030        -0.001646      0.000298     -0.001683
      0.00090      2.74318      3.72809        -0.001543     -0.000183      0.001860
      6.38978      2.74860      5.69762        -0.001653     -0.002564     -0.002785
      8.30589      2.74996      1.00458        -0.002642      0.001397      0.002977
     -1.92698      2.75018      8.45659        -0.001827      0.001459      0.002728
    total drift:                                0.004490      0.019053     -0.007895

  FREE ENERGIE OF THE ION-ELECTRON SYSTEM (eV)
  free  energy   TOTEN  =      -368.8939443961 eV

  energy  without entropy=     -368.8911013762  energy(sigma->0) =     -368.89252289

 d Force = 0.9390314E-04[ 0.936E-04, 0.942E-04]  d Energy = 0.8922430E-04 0.468E-05
 d Force =-0.2416845E+00[-0.242E+00,-0.242E+00]  d Ewald  = 0.1066690E-01-0.252E+00

 Quasi-Newton relaxation of ions (Broydens 2nd method)
  g(Force)  = 0.105E-03   g(Stress)= 0.914E-04

 retain information from N=  1 steps
 eigenvalues of (default step * inverse Hessian matrix)
  average eigenvalue of G=   0.1847
 eigenvalue spectrum of G is  0.1847

volume of typ            1:    19.1 %

[...]

volume of typ            3:     9.8 %

total charge

# of ion       s       p       d       tot
    1        2.081   0.253   0.095   2.428
    2        2.086   0.262   0.100   2.448
    3        2.076   0.241   0.089   2.406
    4        2.082   0.249   0.094   2.424
    5        2.083   0.255   0.096   2.434
    6        2.084   0.260   0.099   2.443
    7        2.078   0.243   0.091   2.411
    8        2.084   0.264   0.099   2.447
    9        2.082   0.257   0.095   2.434
   10        2.078   0.244   0.090   2.412
   11        2.078   0.237   0.089   2.404
   12        2.081   0.260   0.095   2.437
   13        2.077   0.248   0.091   2.416
   14        0.265   0.348   7.859   8.472
   15        0.273   0.364   7.876   8.512
   16        0.273   0.366   7.870   8.508
   17        0.273   0.368   7.857   8.498
   18        0.272   0.367   7.865   8.504
   19        0.272   0.363   7.863   8.497
   20        0.267   0.357   7.872   8.496
   21        0.263   0.346   7.879   8.489
   22        0.265   0.346   7.891   8.502
   23        0.273   0.367   7.864   8.504
   24        0.273   0.358   7.896   8.527
   25        0.271   0.367   7.861   8.499
   26        0.269   0.359   7.869   8.496
   27        0.273   0.366   7.871   8.511
   28        0.270   0.364   7.854   8.488
   29        0.264   0.346   7.873   8.482
   30        1.255   2.800   0.006   4.061
   31        1.256   2.795   0.006   4.057
   32        1.255   2.800   0.006   4.061
   33        1.259   2.789   0.006   4.055
   34        1.257   2.796   0.005   4.058
   35        1.256   2.795   0.006   4.057
   36        1.261   2.785   0.006   4.052
   37        1.262   2.783   0.006   4.051
   38        1.253   2.804   0.006   4.062
   39        1.262   2.778   0.006   4.046
   40        1.267   2.767   0.007   4.042
   41        1.258   2.793   0.007   4.057
   42        1.256   2.796   0.006   4.058
   43        1.257   2.790   0.006   4.053
   44        1.255   2.800   0.006   4.060
   45        1.255   2.797   0.006   4.058
   46        1.261   2.781   0.006   4.049
   47        1.268   2.763   0.007   4.039
   48        1.262   2.783   0.006   4.051
   49        1.262   2.782   0.006   4.050
   50        1.254   2.800   0.006   4.060
   51        1.263   2.773   0.007   4.043
   52        1.261   2.783   0.007   4.050
   53        1.254   2.801   0.006   4.061
   54        1.259   2.792   0.006   4.056
   55        1.259   2.787   0.006   4.052
   56        1.258   2.792   0.006   4.056
   57        1.257   2.795   0.006   4.058
   58        1.261   2.785   0.007   4.052
   59        1.262   2.780   0.006   4.049
   60        1.263   2.780   0.006   4.049
   61        1.264   2.774   0.007   4.045
tot          71.66   98.24  127.34  297.24

magnetization (x)

# of ion       s       p       d       tot
    1        0.004   0.007  -0.001   0.011
    2        0.002   0.008   0.001   0.010
    3        0.005   0.009   0.000   0.014
    4        0.000   0.004  -0.001   0.004
    5        0.004   0.007  -0.001   0.010
    6        0.003   0.007   0.001   0.011
    7        0.003   0.007   0.001   0.011
    8        0.002   0.009  -0.000   0.011
    9        0.002   0.009  -0.000   0.010
   10        0.004   0.010  -0.000   0.015
   11        0.001   0.008   0.001   0.010
   12        0.006   0.015  -0.000   0.021
   13        0.005   0.014  -0.000   0.019
   14        0.003  -0.000   0.642   0.645
   15        0.004  -0.000   0.571   0.574
   16        0.002  -0.001   0.527   0.529
   17       -0.000  -0.000   0.341   0.341
   18        0.000  -0.001   0.406   0.405
   19        0.003  -0.000   0.568   0.570
   20        0.001  -0.000   0.601   0.601
   21        0.004  -0.000   0.714   0.717
   22       -0.006  -0.000  -0.502  -0.508
   23        0.002   0.000   0.473   0.476
   24        0.006   0.000   0.534   0.540
   25        0.000   0.000   0.370   0.371
   26       -0.002   0.000  -0.354  -0.356
   27        0.003  -0.000   0.498   0.501
   28        0.000  -0.000   0.458   0.458
   29        0.003  -0.001   0.648   0.651
   30       -0.005  -0.079  -0.000  -0.083
   31       -0.004  -0.077  -0.000  -0.080
   32        0.007   0.046   0.000   0.054
   33        0.008   0.067   0.000   0.076
   34        0.010   0.070   0.000   0.080
   35        0.008   0.089   0.000   0.097
   36        0.009   0.066   0.000   0.076
   37        0.000  -0.046   0.000  -0.046
   38        0.008   0.068   0.000   0.076
   39        0.007   0.068   0.000   0.075
   40        0.006   0.054   0.000   0.060
   41        0.006   0.052   0.000   0.058
   42        0.005   0.051   0.000   0.056
   43        0.008   0.071   0.000   0.079
   44        0.007   0.076   0.000   0.084
   45        0.007   0.076   0.000   0.084
   46        0.006   0.039   0.000   0.045
   47        0.004   0.040   0.000   0.044
   48        0.008   0.083   0.000   0.091
   49        0.008   0.083   0.000   0.092
   50        0.005   0.072   0.000   0.077
   51        0.006   0.058   0.000   0.064
   52       -0.004  -0.047  -0.000  -0.050
   53        0.003   0.019   0.000   0.023
   54        0.010   0.073   0.000   0.083
   55        0.010   0.075   0.000   0.085
   56        0.010   0.049   0.000   0.059
   57        0.009   0.029   0.000   0.038
   58        0.007   0.080   0.000   0.087
   59        0.005   0.080   0.000   0.085
   60        0.009   0.079   0.000   0.088
   61        0.008   0.074   0.000   0.083
tot           0.26    1.65    6.50    8.41