 vasp.5.4.4.18Apr17-6-g9f103f2a35 (build May 12 2020 05:39:39) gamma-only

 MD_VERSION_INFO: Compiled 2020-05-12T12:39:39-UTC in devlin.sd.materialsdesign.
 com:/home/medea2/data/build/wwolf/vasp-gpu5.4.4/13047/x86_64/src/src/build/gam
 from svn 13047

 executed on                        Lin64 date 2023.03.07  01:46:40

 INCAR:
 POTCAR:    PAW_PBE Li_sv 10Sep2004
 POTCAR:    PAW_PBE Ni 02Aug2007
 POTCAR:    PAW_PBE O 08Apr2002

 POTCAR:    PAW_PBE Li_sv 10Sep2004

 POTCAR:    PAW_PBE Ni 02Aug2007

 POTCAR:    PAW_PBE O 08Apr2002

 Optimization of the real space projectors (new method)

 maximal supplied QI-value         = 22.11
 optimisation between [QCUT,QGAM] = [ 11.28, 22.77] = [ 35.61,145.23] Ry
 Optimized for a Real-space Cutoff    1.10 Angstroem

   l    n(q)    QCUT    max X(q) W(low)/X(q) W(high)/X(q)  e(spline)
   0      7    11.276    10.506    0.54E-04    0.58E-04    0.16E-07
   0      7    11.276     8.367    0.11E-03    0.14E-03    0.35E-07
   1      7    11.276     8.983    0.23E-03    0.43E-03    0.86E-07
 Optimization of the real space projectors (new method)

[...]

   l    n(q)    QCUT    max X(q) W(low)/X(q) W(high)/X(q)  e(spline)
   2      9    11.376    60.317    0.17E-03    0.16E-04    0.16E-06
   2      9    11.376    55.921    0.17E-03    0.16E-04    0.17E-06
   0     10    11.376    51.690    0.45E-04    0.60E-04    0.21E-06
   0     10    11.376    30.015    0.37E-04    0.55E-04    0.19E-06
   1     10    11.376    18.849    0.83E-04    0.11E-03    0.92E-07
   1     10    11.376    14.624    0.69E-04    0.92E-04    0.82E-07
 Optimization of the real space projectors (new method)

 maximal supplied QI-value         = 24.76
 optimisation between [QCUT,QGAM] = [ 11.39, 22.77] = [ 36.31,145.25] Ry
 Optimized for a Real-space Cutoff    1.10 Angstroem

   l    n(q)    QCUT    max X(q) W(low)/X(q) W(high)/X(q)  e(spline)
   0      7    11.387    20.381    0.22E-03    0.48E-03    0.18E-06
   0      7    11.387    15.268    0.22E-03    0.52E-03    0.19E-06
   1      7    11.387     5.964    0.22E-03    0.73E-03    0.24E-06
   1      7    11.387     5.382    0.19E-03    0.60E-03    0.21E-06

  PAW_PBE Li_sv 10Sep2004               :
  PAW_PBE Ni 02Aug2007                  :
  PAW_PBE O 08Apr2002                   :

 POSCAR: ce10816_1
  positions in direct lattice
 exchange correlation table for  LEXCH =       14
   RHO(1)=    0.500       N(1)  =     2000
   RHO(2)=  100.500       N(2)  =     4000

 ion  position               nearest neighbor table
   1  0.985  0.252  0.232-  35 2.02  30 2.06  27 2.15  42 2.19   3 2.82  14 2.84
   2  0.264  0.249  0.518-  43 2.02  31 2.06  19 2.15  33 2.19  12 2.81  10 2.84
   3  1.000  0.995  0.998-  28 1.84  29 1.84  30 1.85  27 1.85  37 1.89  38 1.90   8 2.78   8 2.78
                             6 2.79   5 2.79   4 2.80   7 2.81   1 2.82
   4  0.250  0.992  0.247-  50 1.84  38 1.84  33 1.85  21 1.85  44 1.89  27 1.90   7 2.78   7 2.79
                             8 2.80   9 2.80   3 2.80  10 2.80
   5  0.250  0.998  0.750-  49 1.84  37 1.84  34 1.84  22 1.85  28 1.89  43 1.93   6 2.78   6 2.78
                             3 2.79   8 2.79  10 2.80   9 2.81
   6  0.750  0.997  0.749-  34 1.84  22 1.84  49 1.85  37 1.85  29 1.89  46 1.89   5 2.78   5 2.78
                             3 2.79   8 2.79  10 2.80   9 2.80
   7  0.749  0.995  0.249-  50 1.84  38 1.84  33 1.86  21 1.87  45 1.91  30 1.91   4 2.78   4 2.79
                            10 2.79   9 2.79   8 2.80   3 2.81
   8  0.500  0.999  0.999-  28 1.84  29 1.84  30 1.86  27 1.87  49 1.89  50 1.91   3 2.78   3 2.78
                             6 2.79   5 2.79   4 2.80   7 2.80
   9  0.999  0.993  0.498-  45 1.84  46 1.84  43 1.85  44 1.85  22 1.89  21 1.94  10 2.77  10 2.79
                             7 2.79   6 2.80   4 2.80   5 2.81
  10  0.501  0.992  0.498-  45 1.83  46 1.84  44 1.85  43 1.85  34 1.88  33 1.90   9 2.77   9 2.79
                             7 2.79   6 2.80   5 2.80   4 2.80   2 2.84
  11  1.000  0.508  0.503-  41 1.84  40 1.85  42 1.85  39 1.85  20 1.89  19 1.90  16 2.78  16 2.79
                            15 2.80  13 2.80  14 2.80  12 2.81
  12  0.250  0.506  0.753-  48 1.84  36 1.84  31 1.85  19 1.85  23 1.89  40 1.90  15 2.78  15 2.78
                            18 2.79  17 2.79  11 2.81  16 2.81   2 2.81
  13  0.251  0.507  0.253-  32 1.84  47 1.84  35 1.85  20 1.85  24 1.88  39 1.94  14 2.77  14 2.79
                            16 2.79  18 2.80  11 2.80  17 2.80
  14  0.749  0.508  0.253-  32 1.83  47 1.85  20 1.85  35 1.85  25 1.87  42 1.90  13 2.77  13 2.79
                            16 2.79  18 2.80  17 2.80  11 2.80   1 2.84
  15  0.750  0.501  0.751-  36 1.84  48 1.84  31 1.86  19 1.86  26 1.89  41 1.91  12 2.78  12 2.78
                            18 2.79  17 2.79  11 2.80  16 2.81
  16  0.501  0.506  0.502-  41 1.84  40 1.84  42 1.86  39 1.87  32 1.90  31 1.91  11 2.78  11 2.79
                            14 2.79  13 2.79  15 2.81  12 2.81
  17  1.000  0.502  0.001-  26 1.84  23 1.84  25 1.85  24 1.85  36 1.89  35 1.93  18 2.78  18 2.78
                            12 2.79  15 2.79  14 2.80  13 2.80
  18  0.500  0.503  0.001-  25 1.84  24 1.84  26 1.84  23 1.85  48 1.88  47 1.89  17 2.78  17 2.78
                            12 2.79  15 2.79  14 2.80  13 2.80
  19  0.005  0.405  0.635-  12 1.85  15 1.86  11 1.90   2 2.15
  20  0.000  0.605  0.367-  13 1.85  14 1.85  11 1.89
  21  0.004  0.096  0.361-   4 1.85   7 1.87   9 1.94
  22  0.001  0.899  0.636-   6 1.84   5 1.85   9 1.89
  23  0.250  0.405  0.886-  17 1.84  18 1.85  12 1.89
  24  0.249  0.601  0.114-  18 1.84  17 1.85  13 1.88
  25  0.750  0.601  0.115-  18 1.84  17 1.85  14 1.87
  26  0.750  0.404  0.887-  17 1.84  18 1.84  15 1.89
  27  0.245  0.095  0.115-   3 1.85   8 1.87   4 1.90   1 2.15
  28  0.253  0.899  0.885-   3 1.84   8 1.84   5 1.89
  29  0.748  0.899  0.885-   3 1.84   8 1.84   6 1.89
  30  0.754  0.096  0.114-   3 1.85   8 1.86   7 1.91   1 2.06
  31  0.496  0.405  0.636-  12 1.85  15 1.86  16 1.91   2 2.06
  32  0.499  0.605  0.366-  14 1.83  13 1.84  16 1.90
  33  0.496  0.093  0.364-   4 1.85   7 1.86  10 1.90   2 2.19
  34  0.500  0.899  0.636-   6 1.84   5 1.84  10 1.88
  35  0.000  0.406  0.142-  13 1.85  14 1.85  17 1.93   1 2.02
  36  0.997  0.600  0.866-  15 1.84  12 1.84  17 1.89
  37  0.999  0.095  0.864-   5 1.84   6 1.85   3 1.89
  38  0.998  0.896  0.134-   4 1.84   7 1.84   3 1.90
  39  0.246  0.404  0.389-  11 1.85  16 1.87  13 1.94
  40  0.252  0.604  0.617-  16 1.84  11 1.85  12 1.90
  41  0.748  0.603  0.617-  11 1.84  16 1.84  15 1.91
  42  0.754  0.408  0.386-  11 1.85  16 1.86  14 1.90   1 2.19
  43  0.250  0.095  0.608-   9 1.85  10 1.85   5 1.93   2 2.02
  44  0.250  0.895  0.383-  10 1.85   9 1.85   4 1.89
  45  0.751  0.895  0.385-  10 1.83   9 1.84   7 1.91
  46  0.749  0.092  0.611-   9 1.84  10 1.84   6 1.89
  47  0.500  0.408  0.139-  13 1.84  14 1.85  18 1.89
  48  0.502  0.600  0.866-  12 1.84  15 1.84  18 1.88
  49  0.500  0.096  0.863-   5 1.84   6 1.85   8 1.89
  50  0.502  0.897  0.134-   4 1.84   7 1.84   8 1.91

  LATTYP: Found a triclinic cell.
 ALAT       =    15.9495730228
 B/A-ratio  =     0.3488304117
 C/A-ratio  =     0.6090493731
 COS(alpha) =     0.0004556125
 COS(beta)  =     0.3976757764
 COS(gamma) =     0.6991570693

  Lattice vectors:

 A1 = (  -6.2250558823, -11.1392743267,  -9.5683920460)
 A2 = (  -0.0011356530,  -5.5636925171,  -0.0062327224)
 A3 = (  -9.7133693666,  -0.0023118136,  -0.1172643775)

Analysis of symmetry for initial positions (statically):
 Subroutine PRICEL returns:
 Original cell was already a primitive cell.

 Routine SETGRP: Setting up the symmetry group for a
 triclinic supercell.

 Subroutine GETGRP returns: Found  1 space group operations
 (whereof  1 operations were pure point group operations)
 out of a pool of  2 trial point group operations.

The static configuration has the point symmetry C_1 .

Analysis of symmetry for dynamics (positions and initial velocities):
 Subroutine PRICEL returns:
 Original cell was already a primitive cell.

[...]

The dynamic configuration has the point symmetry C_1 .

Analysis of structural, dynamic, and magnetic symmetry:
 Subroutine PRICEL returns:
 Original cell was already a primitive cell.

 Routine SETGRP: Setting up the symmetry group for a
 triclinic supercell.

 Subroutine GETGRP returns: Found  1 space group operations
 (whereof  1 operations were pure point group operations)
 out of a pool of  2 trial point group operations.

The magnetic configuration has the point symmetry C_1 .

 Subroutine INISYM returns: Found  1 space group operations
 (whereof  1 operations are pure point group operations),
 and found     1 'primitive' translations

 KPOINTS: Automatic mesh

Automatic generation of k-mesh.
Space group operators:
 irot       det(A)        alpha          n_x          n_y          n_z        tau_x        tau_y        tau_z
    1     1.000000     0.000000     1.000000     0.000000     0.000000     0.000000     0.000000     0.000000

 Subroutine IBZKPT returns following result:

 Found      1 irreducible k-points:

 Following reciprocal coordinates:
            Coordinates               Weight
  0.000000  0.000000  0.000000      1.000000

 Following cartesian coordinates:
            Coordinates               Weight
  0.000000  0.000000  0.000000      1.000000

 SYSTEM =  unknown system
 POSCAR =  ce10816_1

 Startparameter for this run:
   NWRITE =      1    write-flag & timer
   PREC   = accura    normal or accurate (medium, high low for compatibility)
   ISTART =      0    job   : 0-new  1-cont  2-samecut
   ICHARG =      2    charge: 1-file 2-atom 10-const
   ISPIN  =      2    spin polarized calculation?
   LNONCOLLINEAR =      F non collinear calculations
   LSORBIT =      F    spin-orbit coupling
   INIWAV =      1    electr: 0-lowe 1-rand  2-diag
   LASPH  =      F    aspherical Exc in radial PAW
   METAGGA=      F    non-selfconsistent MetaGGA calc.

 Electronic Relaxation 1
   ENCUT  =  500.0 eV  36.75 Ry    6.06 a.u.  10.14 18.35 17.71*2*pi/ulx,y,z
   ENINI  =  500.0     initial cutoff
   ENAUG  =  628.9 eV  augmentation charge cutoff
   NELM   =     80;   NELMIN=  2; NELMDL= -5     # of ELM steps
   EDIFF  = 0.1E-04   stopping-criterion for ELM
   LREAL  =      T    real-space projection
   NLSPLINE    = F    spline interpolate recip. space projectors
   LCOMPAT=      F    compatible to vasp.4.4
   GGA_COMPAT  = T    GGA compatible to vasp.4.4-vasp.4.6
   LMAXPAW     = -100 max onsite density
   LMAXMIX     =    2 max onsite mixed and CHGCAR
   VOSKOWN=      1    Vosko Wilk Nusair interpolation
   ROPT   =   -0.00025  -0.00025  -0.00025
 Ionic relaxation
   EDIFFG = -.2E-01   stopping-criterion for IOM
   NSW    =     20    number of steps for IOM
   NBLOCK =      1;   KBLOCK =     20    inner block; outer block
   IBRION =      1    ionic relax: 0-MD 1-quasi-New 2-CG
   NFREE  =      0    steps in history (QN), initial steepest desc. (CG)
   ISIF   =      3    stress and relaxation
   IWAVPR =     11    prediction:  0-non 1-charg 2-wave 3-comb
   ISYM   =      2    0-nonsym 1-usesym 2-fastsym
[...]
      direct lattice vectors                 reciprocal lattice vectors
     0.000982170  5.567938626  0.011610193    -0.000036343  0.179600461 -0.000370959
    -3.500350779  0.018796433  9.443257105    -0.001120214 -0.000219750  0.105480872
     9.701869907  0.002176056  0.103039021     0.102668754 -0.000097466  0.038056624

  length of vectors
     5.567950818 10.071142618  9.702417301     0.179600848  0.105487049  0.109495156

 FORCES acting on ions
    electron-ion (+dipol)            ewald-force                    non-local-force                 convergence-correction
   0.104E+01 -.199E+00 0.225E+01   -.191E+01 -.110E+00 -.220E+01   0.843E+00 0.301E+00 -.462E-01   0.228E-02 -.724E-03 -.275E-02
   -.107E+01 0.907E-01 -.209E+01   0.193E+01 0.212E+00 0.204E+01   -.836E+00 -.296E+00 0.406E-01   -.223E-02 0.590E-03 0.126E-02
   0.286E+02 -.226E+01 0.209E+02   -.290E+02 0.223E+01 -.218E+02   0.354E+00 0.308E-01 0.914E+00   0.520E-02 -.655E-02 -.239E-01
   0.169E+02 -.121E+02 0.387E+02   -.169E+02 0.122E+02 -.401E+02   -.179E-01 -.164E+00 0.136E+01   -.118E-02 -.450E-02 -.125E-01
   -.200E+01 0.264E+01 -.446E+02   0.199E+01 -.265E+01 0.445E+02   0.985E-02 0.169E-02 0.520E-01   -.942E-03 -.927E-03 -.261E-01
   -.588E+01 -.250E+01 -.389E+02   0.581E+01 0.250E+01 0.389E+02   0.793E-01 -.702E-03 -.598E-01   -.440E-02 -.139E-02 -.251E-01
   -.427E+01 0.125E+02 -.467E+01   0.443E+01 -.127E+02 0.361E+01   -.159E+00 0.212E+00 0.107E+01   0.899E-03 0.134E-02 -.131E-01
   0.620E+01 0.228E+01 -.423E+02   -.632E+01 -.224E+01 0.422E+02   0.117E+00 -.461E-01 0.901E-01   0.312E-02 0.313E-02 -.197E-01
   -.162E+02 0.112E+02 -.426E+01   0.167E+02 -.114E+02 0.320E+01   -.491E+00 0.148E+00 0.107E+01   -.404E-02 -.114E-01 -.178E-01
   -.198E+02 -.116E+02 0.982E+01   0.202E+02 0.118E+02 -.110E+02   -.380E+00 -.187E+00 0.114E+01   -.390E-02 0.915E-02 -.188E-01
   -.165E+02 0.121E+02 -.390E+02   0.165E+02 -.123E+02 0.403E+02   0.205E-01 0.165E+00 -.137E+01   0.131E-03 0.463E-02 0.107E-01
   -.289E+02 0.227E+01 -.212E+02   0.292E+02 -.224E+01 0.221E+02   -.354E+00 -.307E-01 -.913E+00   -.490E-02 0.909E-02 0.253E-01
   0.163E+02 -.112E+02 0.410E+01   -.168E+02 0.114E+02 -.304E+01   0.489E+00 -.147E+00 -.107E+01   0.376E-02 0.903E-02 0.177E-01
   0.199E+02 0.116E+02 -.102E+02   -.203E+02 -.118E+02 0.113E+02   0.379E+00 0.187E+00 -.115E+01   0.463E-02 -.682E-02 0.186E-01
   -.621E+01 -.227E+01 0.431E+02   0.634E+01 0.223E+01 -.430E+02   -.117E+00 0.455E-01 -.867E-01   -.317E-02 -.491E-02 0.212E-01
   0.443E+01 -.125E+02 0.413E+01   -.459E+01 0.127E+02 -.307E+01   0.159E+00 -.212E+00 -.107E+01   0.752E-03 -.141E-02 0.100E-01
   0.180E+01 -.276E+01 0.448E+02   -.179E+01 0.276E+01 -.448E+02   -.102E-01 -.197E-02 -.493E-01   0.149E-02 0.257E-02 0.290E-01
   0.563E+01 0.257E+01 0.394E+02   -.555E+01 -.257E+01 -.395E+02   -.795E-01 0.892E-03 0.636E-01   0.188E-02 0.406E-03 0.279E-01
   -.224E+02 0.297E+02 0.375E+03   0.230E+02 -.319E+02 -.397E+03   -.573E+00 0.219E+01 0.221E+02   -.270E-01 0.858E-02 -.147E-01
   0.930E+00 -.332E+00 -.377E+03   -.136E+01 0.484E+00 0.404E+03   0.412E+00 -.149E+00 -.270E+02   0.226E-01 -.409E-02 0.213E-01
   -.205E+02 0.254E+02 -.365E+03   0.221E+02 -.270E+02 0.385E+03   -.156E+01 0.159E+01 -.200E+02   -.235E-01 0.713E-03 0.277E-02
   -.912E+01 -.211E+01 0.363E+03   0.961E+01 0.245E+01 -.390E+03   -.504E+00 -.325E+00 0.269E+02   0.192E-01 -.168E-01 -.119E-01
   -.674E+01 -.115E+01 0.407E+03   0.685E+01 0.130E+01 -.433E+03   -.117E+00 -.169E+00 0.265E+02   0.104E-01 0.196E-01 -.648E-02
   0.935E+01 0.211E+01 -.363E+03   -.986E+01 -.245E+01 0.390E+03   0.530E+00 0.324E+00 -.269E+02   -.206E-01 0.196E-01 0.147E-01
   0.108E+02 -.506E+00 -.365E+03   -.118E+02 0.718E+00 0.392E+03   0.977E+00 -.195E+00 -.271E+02   -.157E-01 -.200E-01 0.123E-01
   0.522E+00 -.492E+00 0.412E+03   -.339E+00 0.445E+00 -.439E+03   -.205E+00 0.718E-01 0.268E+02   0.207E-01 -.213E-01 -.124E-01
   0.226E+02 -.297E+02 -.375E+03   -.233E+02 0.319E+02 0.398E+03   0.590E+00 -.219E+01 -.221E+02   0.255E-01 -.723E-02 0.131E-01
   0.569E+01 -.334E+01 0.371E+03   -.600E+01 0.398E+01 -.398E+03   0.321E+00 -.626E+00 0.274E+02   -.814E-02 -.795E-02 -.242E-01
   0.575E+01 0.204E+01 0.372E+03   -.586E+01 -.260E+01 -.399E+03   0.137E+00 0.554E+00 0.274E+02   -.237E-01 0.913E-02 -.139E-01
   0.185E+02 0.332E+02 -.373E+03   -.194E+02 -.357E+02 0.395E+03   0.833E+00 0.253E+01 -.213E+02   0.232E-01 0.952E-02 0.123E-01
   -.182E+02 -.331E+02 0.373E+03   0.190E+02 0.356E+02 -.395E+03   -.802E+00 -.252E+01 0.213E+02   -.221E-01 -.111E-01 -.152E-01
   -.611E+01 0.214E+01 -.370E+03   0.675E+01 -.247E+01 0.398E+03   -.650E+00 0.319E+00 -.273E+02   0.179E-01 0.372E-02 0.219E-01
   0.831E+01 -.258E+02 -.377E+03   -.949E+01 0.276E+02 0.399E+03   0.120E+01 -.179E+01 -.221E+02   -.188E-01 0.199E-02 0.285E-03
   -.106E+02 0.531E+00 0.365E+03   0.116E+02 -.744E+00 -.392E+03   -.945E+00 0.199E+00 0.271E+02   0.149E-01 0.172E-01 -.995E-02
   0.486E+02 -.354E+01 0.377E+03   -.520E+02 0.374E+01 -.398E+03   0.339E+01 -.189E+00 0.209E+02   -.263E-02 -.464E-02 -.244E-01
   -.584E+01 0.322E+01 -.371E+03   0.615E+01 -.386E+01 0.398E+03   -.317E+00 0.632E+00 -.274E+02   0.706E-02 0.925E-02 0.271E-01
   0.664E+01 0.111E+01 -.407E+03   -.675E+01 -.127E+01 0.433E+03   0.126E+00 0.170E+00 -.265E+02   -.113E-01 -.163E-01 0.346E-02
   0.136E+02 0.972E+00 0.384E+03   -.138E+02 -.128E+01 -.411E+03   0.256E+00 0.311E+00 0.272E+02   0.158E-01 -.999E-03 -.248E-02
   0.207E+02 -.254E+02 0.365E+03   -.223E+02 0.270E+02 -.386E+03   0.156E+01 -.159E+01 0.200E+02   0.243E-01 -.309E-02 -.515E-02
   -.137E+02 -.102E+01 -.384E+03   0.140E+02 0.133E+01 0.411E+03   -.274E+00 -.308E+00 -.272E+02   -.142E-01 -.141E-02 0.516E-02
   -.209E+02 0.284E+01 -.375E+03   0.224E+02 -.334E+01 0.402E+03   -.142E+01 0.498E+00 -.272E+02   -.246E-01 0.365E-03 0.135E-01
   -.830E+01 0.258E+02 0.377E+03   0.949E+01 -.276E+02 -.399E+03   -.121E+01 0.179E+01 0.221E+02   0.186E-01 0.188E-03 -.239E-02
   -.489E+02 0.345E+01 -.377E+03   0.523E+02 -.364E+01 0.398E+03   -.341E+01 0.185E+00 -.209E+02   0.490E-02 0.436E-02 0.210E-01
   -.840E+00 0.294E+00 0.377E+03   0.127E+01 -.440E+00 -.404E+03   -.417E+00 0.144E+00 0.270E+02   -.218E-01 0.351E-02 -.186E-01
   0.621E+01 -.213E+01 0.370E+03   -.684E+01 0.246E+01 -.398E+03   0.649E+00 -.317E+00 0.273E+02   -.199E-01 -.305E-02 -.180E-01
   -.173E+02 -.524E+00 -.406E+03   0.173E+02 0.381E+00 0.433E+03   0.348E-01 0.142E+00 -.262E+02   0.221E-01 -.303E-02 0.111E-01
   0.171E+02 0.605E+00 0.407E+03   -.170E+02 -.464E+00 -.433E+03   -.622E-01 -.140E+00 0.262E+02   -.235E-01 0.349E-02 -.134E-01
   -.591E+01 -.193E+01 -.372E+03   0.603E+01 0.250E+01 0.399E+03   -.142E+00 -.559E+00 -.274E+02   0.258E-01 -.107E-01 0.158E-01
   -.606E+00 0.524E+00 -.412E+03   0.420E+00 -.469E+00 0.438E+03   0.207E+00 -.751E-01 -.268E+02   -.199E-01 0.180E-01 0.894E-02
   0.208E+02 -.276E+01 0.375E+03   -.222E+02 0.326E+01 -.402E+03   0.139E+01 -.495E+00 0.272E+02   0.246E-01 0.210E-02 -.100E-01
   -.476E-02 -.176E-01 0.153E-01   0.178E-12 -.306E-13 -.398E-12   0.645E-02 0.207E-01 -.157E-01   -.399E-03 0.911E-03 0.326E-02

 POSITION                                       TOTAL-FORCE (eV/Angst)
      1.34450      5.48233      2.40920        -0.029416     -0.009332      0.000256
      4.18271      1.48613      2.40801         0.030082      0.007582     -0.002840
      6.19785      5.58626      9.49995        -0.003100     -0.006354     -0.012388
     -1.07496      1.41103      9.39518         0.005170     -0.006291     -0.000177
      3.77805      1.41313      9.49905        -0.000307     -0.000868     -0.012508
      3.77876      4.19436      9.49593         0.002873     -0.002307     -0.012602
     -1.06864      4.19114      9.42976         0.001046      0.001239     -0.000271
      6.20051      2.80314      9.53990        -0.004348      0.001365     -0.010113
      1.35191      5.58187      9.44356        -0.005397      0.003153     -0.007694
      1.35469      2.80759      9.42482        -0.002310     -0.005496     -0.008865
      3.10390      5.57884      4.86541        -0.003342      0.007674     -0.001404
      5.53333      1.40595      4.86238         0.001322      0.003695      0.012564
      0.67707      1.40818      4.81676         0.005310     -0.001599      0.006212
      0.67429      4.18247      4.83567         0.001086      0.003221      0.007787
      5.53047      4.18900      4.82149         0.003474      0.000713      0.010126
      3.09782      2.79873      4.83108        -0.001264     -0.002753     -0.001827
     -1.74902      5.57702      4.75946        -0.000413     -0.001446      0.014872
     -1.74971      2.79585      4.76234        -0.001488      0.004063      0.014807
      4.74220      0.04342      3.89656        -0.001405      0.004875      0.003805
      1.44423      0.01339      5.75577         0.006562     -0.001243      0.001688
      3.16792      0.02131      0.94398         0.003474     -0.004350     -0.006745
      3.01907      0.02305      8.55061        -0.003710      0.000656     -0.008605
      7.17656      1.40763      3.92928        -0.002612      0.004791      0.010708
     -0.99161      1.39936      5.69670         0.004315      0.000025      0.009934
     -0.98923      4.18548      5.70406         0.006075     -0.003294      0.009025
      7.19537      4.18948      3.92042        -0.000704      0.002900      0.011348
      0.78568      1.36026      0.90796         0.001939     -0.004709     -0.003820
      5.43109      1.43009      8.58598        -0.003730      0.002264     -0.009341
      5.43267      4.18040      8.59102        -0.004343      0.000573     -0.006885
      0.77209      4.19760      0.92290         0.002356     -0.003871     -0.005440
      4.75690      2.77324      3.89352        -0.001669      0.004089      0.004846
      1.43764      2.79043      5.75671         0.006779     -0.001376      0.002687
      3.20735      2.75743      0.92137         0.003384     -0.003901     -0.002405
      3.01765      2.80465      8.55491        -0.004090      0.002998     -0.009109
     -0.05205      0.01059      3.84847        -0.006929      0.004000      0.007149
      6.30026      5.56128      5.77542         0.002691     -0.001258      0.010637
      8.05448      5.56582      0.98907         0.003097     -0.005039     -0.008827
     -1.83972      5.57427      8.48509        -0.002804      0.001397     -0.004414
      2.36045      1.38192      3.86235        -0.004307      0.004172      0.004953
      3.86954      1.41532      5.77508         0.001737     -0.001497      0.003107
      3.87113      4.17598      5.76765         0.002171     -0.000928      0.003404
      2.32182      4.21339      3.89639        -0.003535      0.004474      0.000368
      5.58065      1.39270      0.95649         0.006612     -0.003698     -0.006403
      0.58318      1.40869      8.49352        -0.005415      0.001507     -0.002007
      0.59091      4.19955      8.50417        -0.005827      0.001613     -0.003660
      5.61095      4.17265      0.93980         0.006771     -0.003910     -0.004443
     -0.08081      2.79871      3.87648        -0.007700      0.004099      0.006091
      6.29873      2.81247      5.77041         0.003872     -0.000436      0.009422
      8.03616      2.78416      0.99718         0.000901     -0.002247     -0.008416
     -1.84116      2.81430      8.49213        -0.002934      0.001066     -0.004588
    total drift:                                0.001296      0.003991      0.002922

  FREE ENERGIE OF THE ION-ELECTRON SYSTEM (eV)
  free  energy   TOTEN  =      -313.8492014594 eV

  energy  without entropy=     -313.8463568283  energy(sigma->0) =     -313.84777914

 d Force = 0.1342987E-03[ 0.132E-03, 0.137E-03]  d Energy = 0.1663692E-03-0.321E-04
 d Force =-0.2914664E+00[-0.292E+00,-0.291E+00]  d Ewald  =-0.1403706E+01 0.111E+01

 Quasi-Newton relaxation of ions (Broydens 2nd method)
  g(Force)  = 0.300E-03   g(Stress)= 0.123E-02

 retain information from N=  1 steps
 eigenvalues of (default step * inverse Hessian matrix)
  average eigenvalue of G=   0.1223
 eigenvalue spectrum of G is  0.1223

volume of typ            1:     3.0 %

[...]

volume of typ            3:    10.2 %

total charge

# of ion       s       p       d       tot
    1        2.064   0.202   0.076   2.341
    2        2.064   0.201   0.076   2.341
    3        0.303   0.428   7.834   8.566
    4        0.303   0.429   7.834   8.566
    5        0.298   0.420   7.829   8.547
    6        0.303   0.429   7.825   8.557
    7        0.295   0.413   7.833   8.541
    8        0.296   0.413   7.828   8.537
    9        0.298   0.421   7.835   8.554
   10        0.303   0.430   7.834   8.567
   11        0.303   0.429   7.834   8.566
   12        0.303   0.428   7.834   8.565
   13        0.298   0.421   7.835   8.554
   14        0.303   0.431   7.834   8.567
   15        0.296   0.413   7.828   8.537
   16        0.295   0.413   7.833   8.541
   17        0.298   0.420   7.829   8.547
   18        0.303   0.429   7.825   8.557
   19        1.271   2.762   0.008   4.041
   20        1.285   2.725   0.008   4.018
   21        1.268   2.769   0.007   4.044
   22        1.285   2.725   0.008   4.018
   23        1.283   2.731   0.008   4.022
   24        1.285   2.725   0.008   4.018
   25        1.285   2.728   0.008   4.021
   26        1.284   2.728   0.008   4.020
   27        1.272   2.762   0.008   4.041
   28        1.286   2.722   0.008   4.016
   29        1.285   2.726   0.009   4.019
   30        1.270   2.768   0.007   4.045
   31        1.270   2.768   0.007   4.045
   32        1.285   2.726   0.009   4.019
   33        1.272   2.762   0.008   4.041
   34        1.285   2.728   0.008   4.021
   35        1.270   2.769   0.007   4.047
   36        1.286   2.722   0.008   4.016
   37        1.283   2.731   0.008   4.022
   38        1.285   2.723   0.008   4.017
   39        1.268   2.769   0.007   4.044
   40        1.285   2.723   0.008   4.017
   41        1.285   2.724   0.008   4.018
   42        1.272   2.762   0.008   4.041
   43        1.270   2.769   0.007   4.046
   44        1.285   2.725   0.008   4.018
   45        1.285   2.726   0.009   4.019
   46        1.282   2.734   0.008   4.025
   47        1.282   2.734   0.008   4.025
   48        1.285   2.726   0.009   4.019
   49        1.284   2.728   0.008   4.021
   50        1.285   2.724   0.008   4.018
tot          49.89   94.81  125.72  270.42

magnetization (x)

# of ion       s       p       d       tot
    1        0.003   0.001   0.000   0.004
    2        0.003   0.001   0.000   0.004
    3       -0.000   0.001   0.068   0.069
    4       -0.000   0.001   0.075   0.076
    5        0.000   0.001   0.107   0.108
    6       -0.000   0.001   0.057   0.058
    7       -0.000   0.001   0.126   0.126
    8       -0.000   0.001   0.103   0.104
    9        0.000   0.001   0.126   0.126
   10       -0.000   0.001   0.067   0.067
   11       -0.000   0.001   0.075   0.076
   12       -0.000   0.001   0.068   0.069
   13        0.000   0.001   0.126   0.126
   14       -0.000   0.001   0.067   0.067
   15       -0.000   0.001   0.104   0.104
   16       -0.000   0.001   0.126   0.127
   17        0.000   0.001   0.107   0.108
   18       -0.000   0.001   0.057   0.058
   19        0.002   0.004   0.000   0.006
   20        0.002   0.006   0.000   0.008
   21        0.003   0.006   0.000   0.009
   22        0.002   0.011   0.000   0.014
   23        0.002   0.005   0.000   0.007
   24        0.002   0.011   0.000   0.014
   25        0.002   0.005   0.000   0.007
   26        0.002   0.008   0.000   0.010
   27        0.002   0.004   0.000   0.006
   28        0.002   0.008   0.000   0.010
   29        0.002   0.004   0.000   0.006
   30        0.002   0.009   0.000   0.011
   31        0.002   0.009   0.000   0.011
   32        0.002   0.012   0.000   0.014
   33        0.002   0.003   0.000   0.005
   34        0.002   0.005   0.000   0.007
   35        0.003   0.008   0.000   0.011
   36        0.002   0.008   0.000   0.010
   37        0.002   0.005   0.000   0.007
   38        0.002   0.007   0.000   0.009
   39        0.003   0.006   0.000   0.009
   40        0.002   0.007   0.000   0.009
   41        0.002   0.009   0.000   0.011
   42        0.002   0.003   0.000   0.005
   43        0.003   0.008   0.000   0.011
   44        0.002   0.006   0.000   0.008
   45        0.002   0.012   0.000   0.014
   46        0.002   0.003   0.000   0.005
   47        0.002   0.003   0.000   0.005
   48        0.002   0.004   0.000   0.006
   49        0.002   0.008   0.000   0.010
   50        0.002   0.009   0.000   0.011
tot           0.07    0.23    1.46    1.76