 vasp.5.4.4.18Apr17-6-g9f103f2a35 (build May 12 2020 05:39:39) gamma-only

 MD_VERSION_INFO: Compiled 2020-05-12T12:39:39-UTC in devlin.sd.materialsdesign.
 com:/home/medea2/data/build/wwolf/vasp-gpu5.4.4/13047/x86_64/src/src/build/gam
 from svn 13047

 executed on                        Lin64 date 2023.03.07  01:45:45

 INCAR:
 POTCAR:    PAW_PBE Li_sv 10Sep2004
 POTCAR:    PAW_PBE Ni 02Aug2007
 POTCAR:    PAW_PBE O 08Apr2002

 POTCAR:    PAW_PBE Li_sv 10Sep2004

 POTCAR:    PAW_PBE Ni 02Aug2007

 POTCAR:    PAW_PBE O 08Apr2002

 Optimization of the real space projectors (new method)

 maximal supplied QI-value         = 22.11
 optimisation between [QCUT,QGAM] = [ 11.28, 22.77] = [ 35.61,145.23] Ry
 Optimized for a Real-space Cutoff    1.10 Angstroem

   l    n(q)    QCUT    max X(q) W(low)/X(q) W(high)/X(q)  e(spline)
   0      7    11.276    10.506    0.54E-04    0.58E-04    0.16E-07
   0      7    11.276     8.367    0.11E-03    0.14E-03    0.35E-07
   1      7    11.276     8.983    0.23E-03    0.43E-03    0.86E-07
 Optimization of the real space projectors (new method)

[...]

   l    n(q)    QCUT    max X(q) W(low)/X(q) W(high)/X(q)  e(spline)
   2      9    11.376    60.317    0.17E-03    0.16E-04    0.16E-06
   2      9    11.376    55.921    0.17E-03    0.16E-04    0.17E-06
   0     10    11.376    51.690    0.45E-04    0.60E-04    0.21E-06
   0     10    11.376    30.015    0.37E-04    0.55E-04    0.19E-06
   1     10    11.376    18.849    0.83E-04    0.11E-03    0.92E-07
   1     10    11.376    14.624    0.69E-04    0.92E-04    0.82E-07
 Optimization of the real space projectors (new method)

 maximal supplied QI-value         = 24.76
 optimisation between [QCUT,QGAM] = [ 11.39, 22.77] = [ 36.31,145.25] Ry
 Optimized for a Real-space Cutoff    1.10 Angstroem

   l    n(q)    QCUT    max X(q) W(low)/X(q) W(high)/X(q)  e(spline)
   0      7    11.387    20.381    0.22E-03    0.48E-03    0.18E-06
   0      7    11.387    15.268    0.22E-03    0.52E-03    0.19E-06
   1      7    11.387     5.964    0.22E-03    0.73E-03    0.24E-06
   1      7    11.387     5.382    0.19E-03    0.60E-03    0.21E-06

  PAW_PBE Li_sv 10Sep2004               :
  PAW_PBE Ni 02Aug2007                  :
  PAW_PBE O 08Apr2002                   :

 POSCAR: ce224_1
  positions in direct lattice
 exchange correlation table for  LEXCH =       14
   RHO(1)=    0.500       N(1)  =     2000
   RHO(2)=  100.500       N(2)  =     4000

 ion  position               nearest neighbor table
   1  0.000  0.253  0.239-  37 2.09  34 2.09  42 2.10  49 2.13  46 2.15  10 2.77
   2  0.975  0.747  0.765-  36 2.05  43 2.05  48 2.14  35 2.20  29 2.28  22 2.81
   3  0.251  0.250  0.528-  50 2.00  26 2.04  38 2.06  40 2.23  46 2.25  28 2.26  19 2.69  17 2.84

   4  0.253  0.749  0.484-  51 1.98  39 2.07  27 2.09  41 2.19  29 2.23  20 2.73
   5  0.747  0.750  0.479-  52 2.02  39 2.06  27 2.06  41 2.17  29 2.23  48 2.28  21 2.75  17 2.84

   6  0.750  0.250  0.532-  53 1.92  26 2.01  38 2.02  40 2.24  28 2.26  22 2.70  17 2.84  16 2.84

   7  0.500  0.255  0.236-  34 2.07  37 2.07  54 2.09  49 2.12  46 2.13  15 2.81
   8  0.252  0.247  0.963-  30 1.94  44 2.03  56 2.04  34 2.27  12 2.71  25 2.84
   9  0.273  0.751  0.022-  31 1.94  57 2.02  45 2.16  55 2.17  11 2.79  25 2.81
  10  0.001  0.006  0.003-  36 1.82  35 1.85  34 1.86  37 1.87  44 1.91  45 1.91  15 2.77  15 2.77
                             1 2.77  14 2.84  13 2.85  11 2.86  12 2.87
  11  0.251  0.003  0.253-  57 1.82  45 1.83  28 1.86  40 1.87  51 2.08  34 2.18  14 2.77  14 2.77
                             9 2.79  17 2.83  16 2.84  10 2.86  15 2.87
  12  0.251  0.996  0.748-  56 1.84  44 1.86  29 1.86  41 1.88  50 2.00  35 2.02   8 2.71  13 2.76
                            13 2.78  17 2.83  16 2.84  15 2.85  10 2.87
  13  0.750  0.001  0.751-  56 1.83  29 1.85  44 1.87  41 1.88  53 2.04  36 2.06  12 2.76  12 2.78
                            15 2.84  16 2.84  17 2.85  10 2.85
  14  0.751  0.999  0.250-  57 1.85  28 1.86  45 1.87  40 1.89  52 2.00  37 2.00  11 2.77  11 2.77
                            10 2.84  16 2.85  17 2.85  15 2.85
  15  0.501  0.002  0.001-  36 1.84  34 1.86  35 1.87  37 1.88  57 1.94  56 1.94  10 2.77  10 2.77
                             7 2.81  13 2.84  14 2.85  12 2.85  11 2.87
  16  0.999  0.999  0.501-  51 1.83  53 1.83  52 1.84  50 1.84  28 2.01  29 2.02  17 2.76  17 2.77
                            12 2.84   6 2.84  13 2.84  11 2.84  14 2.85
  17  0.500  0.999  0.501-  53 1.84  51 1.84  52 1.85  50 1.85  41 1.91  40 1.95  16 2.76  16 2.77
                            12 2.83  11 2.83   6 2.84   5 2.84   3 2.84  13 2.85  14 2.85
  18  0.000  0.494  0.496-  48 1.84  47 1.84  46 1.86  49 1.87  26 1.95  27 1.95  23 2.77  23 2.77
                            20 2.84  21 2.86  19 2.87  22 2.89
  19  0.251  0.495  0.748-  43 1.84  38 1.85  55 1.86  26 1.88  30 1.99  47 2.04   3 2.69  22 2.76
                            22 2.78  25 2.85  23 2.85  24 2.85  18 2.87
  20  0.250  0.507  0.251-  42 1.83  39 1.84  54 1.85  27 1.85  31 2.05  46 2.18   4 2.73  21 2.77
                            21 2.77  24 2.84  18 2.84  25 2.84  23 2.86
  21  0.750  0.502  0.248-  42 1.85  39 1.86  54 1.87  27 1.88  32 1.94  49 2.03   5 2.75  20 2.77
                            20 2.77  24 2.82  25 2.82  18 2.86  23 2.87
  22  0.749  0.498  0.752-  43 1.85  38 1.85  55 1.86  26 1.87  33 2.00  48 2.10   6 2.70  19 2.76
                            19 2.78   2 2.81  25 2.81  24 2.82  23 2.87  18 2.89
  23  0.500  0.497  0.498-  48 1.86  47 1.86  46 1.86  49 1.87  38 1.97  39 1.98  18 2.77  18 2.77
                            19 2.85  20 2.86  21 2.87  22 2.87
  24  0.998  0.501  1.000-  33 1.82  32 1.83  31 1.84  30 1.85  42 1.99  43 2.00  25 2.75  25 2.79
                            21 2.82  22 2.82  20 2.84  19 2.85
  25  0.502  0.499  0.999-  33 1.82  32 1.84  31 1.84  30 1.85  55 1.90  54 1.94  24 2.75  24 2.79
                             9 2.81  22 2.81  21 2.82   8 2.84  20 2.84  19 2.85
  26  0.997  0.396  0.631-  22 1.87  19 1.88  18 1.95   6 2.01   3 2.04
  27  0.999  0.602  0.368-  20 1.85  21 1.88  18 1.95   5 2.06   4 2.09
  28  0.998  0.104  0.365-  11 1.86  14 1.86  16 2.01   6 2.26   3 2.26
  29  0.996  0.894  0.639-  13 1.85  12 1.86  16 2.02   5 2.23   4 2.23   2 2.28
  30  0.249  0.399  0.889-  24 1.85  25 1.85   8 1.94  19 1.99
  31  0.250  0.605  0.104-  24 1.84  25 1.84   9 1.94  20 2.05
  32  0.749  0.599  0.112-  24 1.83  25 1.84  21 1.94
  33  0.752  0.399  0.892-  24 1.82  25 1.82  22 2.00
  34  0.254  0.116  0.105-  15 1.86  10 1.86   7 2.07   1 2.09  11 2.18   8 2.27
  35  0.246  0.898  0.892-  10 1.85  15 1.87  12 2.02   2 2.20
  36  0.756  0.901  0.897-  10 1.82  15 1.84   2 2.05  13 2.06
  37  0.749  0.107  0.118-  10 1.87  15 1.88  14 2.00   7 2.07   1 2.09
  38  0.503  0.397  0.635-  19 1.85  22 1.85  23 1.97   6 2.02   3 2.06
  39  0.500  0.602  0.366-  20 1.84  21 1.86  23 1.98   5 2.06   4 2.07
  40  0.501  0.103  0.370-  11 1.87  14 1.89  17 1.95   3 2.23   6 2.24
  41  0.504  0.898  0.629-  12 1.88  13 1.88  17 1.91   5 2.17   4 2.19
  42  0.006  0.402  0.140-  20 1.83  21 1.85  24 1.99   1 2.10
  43  0.004  0.599  0.859-  19 1.84  22 1.85  24 2.00   2 2.05
  44  0.005  0.097  0.866-  12 1.86  13 1.87  10 1.91   8 2.03
  45  0.009  0.907  0.134-  11 1.83  14 1.87  10 1.91   9 2.16
  46  0.253  0.385  0.391-  18 1.86  23 1.86   7 2.13   1 2.15  20 2.18   3 2.25
  47  0.246  0.599  0.608-  18 1.84  23 1.86  19 2.04
  48  0.754  0.602  0.605-  18 1.84  23 1.86  22 2.10   2 2.14   5 2.28
  49  0.748  0.392  0.382-  18 1.87  23 1.87  21 2.03   7 2.12   1 2.13
  50  0.248  0.100  0.612-  16 1.84  17 1.85  12 2.00   3 2.00
  51  0.249  0.895  0.395-  16 1.83  17 1.84   4 1.98  11 2.08
  52  0.750  0.898  0.389-  16 1.84  17 1.85  14 2.00   5 2.02
  53  0.750  0.102  0.608-  16 1.83  17 1.84   6 1.92  13 2.04
  54  0.494  0.402  0.135-  20 1.85  21 1.87  25 1.94   7 2.09
  55  0.497  0.595  0.867-  19 1.86  22 1.86  25 1.90   9 2.17
  56  0.497  0.095  0.862-  13 1.83  12 1.84  15 1.94   8 2.04
  57  0.495  0.907  0.137-  11 1.82  14 1.85  15 1.94   9 2.02

  LATTYP: Found a triclinic cell.
 ALAT       =    15.9651591163
 B/A-ratio  =     0.3468759482
 C/A-ratio  =     0.6232965595
 COS(alpha) =     0.0009343145
 COS(beta)  =     0.3957844223
 COS(gamma) =     0.6951823370

  Lattice vectors:

 A1 = (  -6.2943673295, -11.0873414461,  -9.6092718345)
 A2 = (  -0.0025627092,  -5.5379269736,  -0.0048686161)
 A3 = (  -9.9510077910,  -0.0046750278,  -0.0198811285)

Analysis of symmetry for initial positions (statically):
 Subroutine PRICEL returns:
 Original cell was already a primitive cell.

 Routine SETGRP: Setting up the symmetry group for a
 triclinic supercell.

 Subroutine GETGRP returns: Found  1 space group operations
 (whereof  1 operations were pure point group operations)
 out of a pool of  2 trial point group operations.

The static configuration has the point symmetry C_1 .

Analysis of symmetry for dynamics (positions and initial velocities):
 Subroutine PRICEL returns:
 Original cell was already a primitive cell.

[...]

The dynamic configuration has the point symmetry C_1 .

Analysis of structural, dynamic, and magnetic symmetry:
 Subroutine PRICEL returns:
 Original cell was already a primitive cell.

 Routine SETGRP: Setting up the symmetry group for a
 triclinic supercell.

 Subroutine GETGRP returns: Found  1 space group operations
 (whereof  1 operations were pure point group operations)
 out of a pool of  2 trial point group operations.

The magnetic configuration has the point symmetry C_1 .

 Subroutine INISYM returns: Found  1 space group operations
 (whereof  1 operations are pure point group operations),
 and found     1 'primitive' translations

 KPOINTS: Automatic mesh

Automatic generation of k-mesh.
Space group operators:
 irot       det(A)        alpha          n_x          n_y          n_z        tau_x        tau_y        tau_z
    1     1.000000     0.000001     1.000000     0.000000     0.000000     0.000000     0.000000     0.000000

 Subroutine IBZKPT returns following result:

 Found      1 irreducible k-points:

 Following reciprocal coordinates:
            Coordinates               Weight
  0.000000  0.000000  0.000000      1.000000

 Following cartesian coordinates:
            Coordinates               Weight
  0.000000  0.000000  0.000000      1.000000

 SYSTEM =  unknown system
 POSCAR =  ce224_1

 Startparameter for this run:
   NWRITE =      1    write-flag & timer
   PREC   = accura    normal or accurate (medium, high low for compatibility)
   ISTART =      0    job   : 0-new  1-cont  2-samecut
   ICHARG =      2    charge: 1-file 2-atom 10-const
   ISPIN  =      2    spin polarized calculation?
   LNONCOLLINEAR =      F non collinear calculations
   LSORBIT =      F    spin-orbit coupling
   INIWAV =      1    electr: 0-lowe 1-rand  2-diag
   LASPH  =      F    aspherical Exc in radial PAW
   METAGGA=      F    non-selfconsistent MetaGGA calc.

 Electronic Relaxation 1
   ENCUT  =  500.0 eV  36.75 Ry    6.06 a.u.  10.10 18.70 18.14*2*pi/ulx,y,z
   ENINI  =  500.0     initial cutoff
[...]
   -.197E+02 0.118E+02 -.447E+02   0.197E+02 -.118E+02 0.461E+02   0.323E-01 0.980E-03 -.134E+01   0.102E-01 -.866E-02 -.111E-01
   0.544E+01 0.122E+01 0.132E+03   -.519E+01 -.113E+01 -.134E+03   -.247E+00 -.833E-01 0.170E+01   -.758E-02 -.880E-02 0.127E-01
   0.247E+02 -.231E+02 0.590E+02   -.249E+02 0.235E+02 -.597E+02   0.284E+00 -.324E+00 0.633E+00   -.741E-01 -.151E-01 0.558E-03
   -.456E+01 0.140E+00 0.221E+02   0.436E+01 -.118E+00 -.222E+02   0.118E+00 -.282E-01 0.136E+00   0.783E-01 0.737E-02 0.510E-03
   0.139E+01 0.593E+00 0.136E+02   -.134E+01 -.598E+00 -.138E+02   -.125E+00 0.120E-01 0.264E+00   0.788E-01 -.701E-02 -.347E-03
   -.117E+02 0.205E+01 -.113E+02   0.121E+02 -.200E+01 0.117E+02   -.392E+00 -.547E-01 -.377E+00   -.446E-01 -.269E-02 0.818E-02
   -.282E+02 -.116E+02 -.944E+01   0.290E+02 0.117E+02 0.942E+01   -.726E+00 -.581E-01 0.234E-01   -.496E-01 0.121E-02 -.137E-02
   0.365E+02 -.349E+00 -.839E+02   -.381E+02 0.335E+00 0.851E+02   0.155E+01 0.908E-02 -.117E+01   0.446E-01 0.358E-02 0.367E-02
   0.551E+02 0.147E+00 -.479E+02   -.564E+02 -.126E+00 0.489E+02   0.120E+01 -.177E-01 -.101E+01   0.473E-01 -.279E-02 0.300E-02
   -.379E+02 0.118E+02 -.405E+02   0.391E+02 -.119E+02 0.400E+02   -.112E+01 0.137E+00 0.449E+00   -.471E-01 -.641E-03 -.463E-02
   -.317E+02 -.241E+01 -.517E+02   0.322E+02 0.240E+01 0.522E+02   -.441E+00 0.147E-01 -.490E+00   -.455E-01 0.313E-02 0.778E-02
   0.124E+02 0.234E+02 -.304E+02   -.125E+02 -.235E+02 0.307E+02   0.109E+00 0.153E+00 -.284E+00   0.420E-01 -.180E-02 -.401E-02
   0.649E+01 -.244E+02 -.120E+02   -.666E+01 0.246E+02 0.122E+02   0.124E+00 -.229E+00 -.160E+00   0.430E-01 0.438E-02 -.559E-02
   -.481E+02 0.450E+01 0.301E+03   0.479E+02 -.458E+01 -.315E+03   0.282E+00 0.101E+00 0.148E+02   -.843E-02 -.208E-01 -.155E-03
   0.282E+02 0.109E+01 -.334E+03   -.268E+02 -.173E+01 0.350E+03   -.134E+01 0.622E+00 -.161E+02   -.180E-01 0.157E-01 -.344E-01
   -.253E+02 0.191E+01 -.277E+03   0.286E+02 -.237E+01 0.293E+03   -.337E+01 0.443E+00 -.153E+02   0.459E-02 0.255E-01 0.353E-01
   0.193E+01 0.369E+01 0.309E+03   -.485E+01 -.403E+01 -.324E+03   0.288E+01 0.341E+00 0.154E+02   0.449E-01 -.740E-02 0.286E-01
   0.439E+02 0.156E+01 0.345E+03   -.491E+02 -.189E+01 -.363E+03   0.514E+01 0.357E+00 0.183E+02   0.548E-02 -.250E-01 -.360E-01
   -.418E+02 0.383E+01 -.369E+03   0.482E+02 -.404E+01 0.388E+03   -.645E+01 0.231E+00 -.187E+02   0.613E-01 -.257E-01 -.348E-03
   -.118E+01 -.879E+00 -.395E+03   0.256E+01 0.694E+00 0.421E+03   -.143E+01 0.162E+00 -.252E+02   0.514E-01 0.245E-01 -.209E-02
   0.246E+02 -.211E+01 0.374E+03   -.275E+02 0.245E+01 -.399E+03   0.290E+01 -.364E+00 0.247E+02   -.168E-01 0.267E-01 -.262E-01
   -.116E+02 -.452E+01 -.290E+03   0.148E+02 0.455E+01 0.304E+03   -.316E+01 -.328E-01 -.140E+02   -.240E-01 0.478E-02 0.247E-02
   0.198E+02 -.331E+02 0.365E+03   -.228E+02 0.352E+02 -.383E+03   0.308E+01 -.203E+01 0.184E+02   -.455E-01 0.696E-02 0.252E-01
   0.672E+01 0.340E+02 0.363E+03   -.888E+01 -.360E+02 -.383E+03   0.223E+01 0.202E+01 0.196E+02   -.555E-01 -.566E-02 0.230E-01
   0.198E+02 0.678E+01 -.296E+03   -.190E+02 -.725E+01 0.311E+03   -.824E+00 0.478E+00 -.153E+02   -.469E-01 -.682E-02 0.187E-01
   -.434E+02 -.585E+01 0.294E+03   0.429E+02 0.625E+01 -.309E+03   0.519E+00 -.430E+00 0.155E+02   -.382E-01 0.211E-01 0.111E-01
   0.233E+02 -.893E-01 -.332E+03   -.225E+02 0.558E+00 0.348E+03   -.791E+00 -.454E+00 -.162E+02   0.113E-01 -.166E-01 -.460E-01
   -.915E+00 -.273E+01 -.282E+03   0.141E+01 0.360E+01 0.297E+03   -.498E+00 -.843E+00 -.157E+02   0.172E-01 -.254E-01 0.288E-01
   -.444E+02 -.583E+01 0.324E+03   0.460E+02 0.666E+01 -.341E+03   -.168E+01 -.837E+00 0.171E+02   0.404E-01 0.655E-02 0.301E-01
   0.530E+02 0.183E+02 0.313E+03   -.569E+02 -.190E+02 -.331E+03   0.387E+01 0.693E+00 0.183E+02   0.395E-01 0.157E-01 0.297E-01
   -.333E+02 0.229E+02 -.347E+03   0.374E+02 -.239E+02 0.365E+03   -.405E+01 0.999E+00 -.180E+02   -.131E-01 -.218E-01 0.823E-02
   0.339E+02 0.375E+02 -.347E+03   -.349E+02 -.403E+02 0.367E+03   0.102E+01 0.283E+01 -.201E+02   -.284E-01 -.747E-02 -.431E-01
   -.103E+02 0.273E+02 0.382E+03   0.966E+01 -.294E+02 -.404E+03   0.653E+00 0.214E+01 0.218E+02   -.303E-01 0.287E-01 -.141E-01
   0.396E+02 -.290E+01 0.293E+03   -.433E+02 0.311E+01 -.307E+03   0.372E+01 -.237E+00 0.144E+02   -.266E-01 0.284E-01 0.372E-01
   -.604E+02 -.258E+02 -.358E+03   0.647E+02 0.272E+02 0.376E+03   -.431E+01 -.145E+01 -.180E+02   -.344E-01 0.287E-01 0.341E-02
   -.707E+02 0.295E+02 -.349E+03   0.756E+02 -.314E+02 0.366E+03   -.490E+01 0.194E+01 -.166E+02   -.144E-01 -.299E-01 -.602E-02
   0.245E+02 0.203E+01 0.297E+03   -.264E+02 -.229E+01 -.311E+03   0.186E+01 0.287E+00 0.138E+02   -.160E-01 -.282E-01 0.373E-01
   -.770E+02 0.616E+01 -.348E+03   0.832E+02 -.633E+01 0.367E+03   -.626E+01 0.163E+00 -.193E+02   0.508E-01 0.132E-01 -.117E-01
   0.891E+02 0.444E+01 0.362E+03   -.973E+02 -.435E+01 -.381E+03   0.820E+01 -.108E+00 0.191E+02   0.197E-01 0.146E-01 -.199E-01
   0.804E+02 -.595E+01 0.368E+03   -.865E+02 0.589E+01 -.388E+03   0.605E+01 0.769E-01 0.200E+02   0.432E-01 -.135E-01 -.304E-01
   -.924E+02 -.497E+01 -.347E+03   0.100E+03 0.488E+01 0.365E+03   -.760E+01 0.991E-01 -.188E+02   0.592E-01 -.145E-01 -.879E-02
   0.508E+02 -.196E+02 0.312E+03   -.545E+02 0.204E+02 -.330E+03   0.355E+01 -.796E+00 0.178E+02   0.668E-01 -.158E-01 0.183E-01
   0.394E+01 -.248E+02 -.366E+03   -.394E+01 0.261E+02 0.387E+03   0.344E-01 -.134E+01 -.215E+02   -.402E-01 0.207E-01 0.194E-01
   0.147E+02 -.339E+02 -.338E+03   -.137E+02 0.361E+02 0.359E+03   -.977E+00 -.217E+01 -.209E+02   -.243E-01 0.787E-02 -.505E-01
   0.462E+01 -.296E+02 0.374E+03   -.589E+01 0.320E+02 -.395E+03   0.130E+01 -.233E+01 0.207E+02   -.317E-01 -.279E-01 -.946E-02
   0.585E+00 -.744E+00 -.412E-02   -.115E-12 0.288E-12 -.341E-12   -.571E+00 0.746E+00 -.660E-01   0.700E-02 0.133E-03 0.646E-01

 POSITION                                       TOTAL-FORCE (eV/Angst)
      1.45851      0.00605      2.43846         0.005868      0.003478      0.004180
      4.87033      5.36989      7.19862         0.009741     -0.040341     -0.008752
      4.32390      1.39065      2.40521         0.000750     -0.000678     -0.004811
      2.06870      1.40710      7.21600         0.001908     -0.004025      0.000293
      2.02652      4.14672      7.20944         0.001399      0.000008     -0.004271
      4.37250      4.16263      2.39619         0.008661      0.001924     -0.009286
      1.39886      2.78202      2.47130        -0.018121      0.005344      0.011151
      8.65344      1.40311      2.39092        -0.018859     -0.001982     -0.001572
     -2.52590      1.53845      7.23450         0.003215      0.019921      0.002842
      0.01158      0.00609      0.05839         0.000276      0.002180     -0.000825
      2.50918      1.39232      0.04523        -0.000893     -0.002031      0.002310
      3.79331      1.40053      9.57324         0.006622     -0.001526     -0.004882
      7.46437      4.15662      0.00993         0.005722      0.000434     -0.004445
     -1.16571      4.17164      9.62013        -0.000362      0.001162      0.002226
      0.00564      2.77845      0.03137        -0.000710     -0.000854     -0.000071
      1.32279      5.54869      9.61150         0.004658      0.001158     -0.003796
      1.31495      2.78052      9.61757         0.004706     -0.000185     -0.003336
      3.11972      0.00806      4.76420        -0.002105     -0.002105      0.001074
      5.62437      1.39840      4.77743        -0.001260     -0.000681      0.002237
      0.62798      1.38980      4.87743        -0.003656     -0.000709      0.003868
      0.61991      4.16014      4.83924        -0.001448      0.000486      0.003910
      5.64680      4.15955      4.79989         0.000752      0.001262      0.000783
      3.13212      2.77700      4.79206        -0.001721      0.000807      0.001100
      8.10309      5.54107      4.83679         0.000436      0.003017      0.005434
      8.10198      2.78984      4.81696         0.001386     -0.004508      0.007170
      4.84081      5.53003      3.82851        -0.000073     -0.001154     -0.004790
      1.44817      5.54323      5.78842        -0.008037      0.000796      0.001497
      3.22724      5.53424      1.02815         0.006282      0.001223      0.012696
      3.09933      5.53138      8.59238         0.008777     -0.001492     -0.015056
      7.37540      1.38970      3.84834        -0.006923     -0.000093     -0.000934
     -1.18994      1.39188      5.82219        -0.004499      0.001236     -0.000029
     -1.08419      4.15500      5.77147        -0.004577      0.001397      0.001566
      7.41051      4.17409      3.85064        -0.005235      0.003928     -0.003500
      0.62301      1.40985      1.12659         0.000931      0.001551      0.009300
      5.58050      1.37539      8.64715         0.008911      0.005227      0.006265
      5.61000      4.19427      8.67737         0.007223     -0.001529      0.005344
      0.79056      4.15163      1.03596        -0.003165      0.000402      0.011873
      4.83725      2.79498      3.83463        -0.009038     -0.001105     -0.003036
      1.44339      2.77657      5.78433         0.000950     -0.001951     -0.001951
      3.33020      2.77891      0.99588         0.015484      0.002271      0.005534
      2.94489      2.79882      8.64243         0.001584      0.001393     -0.010933
     -0.11956      0.03706      3.87953        -0.009288      0.001268      0.003908
      6.37081      0.02899      5.76557        -0.002663     -0.004512     -0.002468
      8.26966      0.03076      0.93227        -0.001147      0.000126     -0.008559
     -2.00990      0.06140      8.73915         0.004971      0.003134      0.012909
      2.48227      1.40725      3.71323        -0.006648      0.000767     -0.001125
      3.85912      1.36679      5.77558        -0.001588      0.001758     -0.004632
      3.79161      4.18484      5.80786        -0.002745     -0.002931     -0.001030
      2.35357      4.15139      3.77901        -0.009843     -0.000444      0.001803
      5.73067      1.38090      0.95538         0.011530      0.000634     -0.009426
      0.64654      1.39053      8.61718        -0.000711      0.001378     -0.002662
      0.57435      4.16827      8.65077         0.000940      0.000370     -0.001771
      5.67818      4.16231      0.98126         0.012027     -0.001405     -0.009404
     -0.12780      2.74348      3.87578        -0.003777      0.000846      0.002836
      6.42483      2.76493      5.73405        -0.009036      0.001544      0.000132
      8.21251      2.75690      0.92334        -0.000756      0.001200     -0.009920
     -1.94986      2.75393      8.73423         0.003171      0.002610      0.013031
    total drift:                                0.021366      0.002052     -0.005595

  FREE ENERGIE OF THE ION-ELECTRON SYSTEM (eV)
  free  energy   TOTEN  =      -349.5637606009 eV

  energy  without entropy=     -349.5583194531  energy(sigma->0) =     -349.56104003

 d Force = 0.7503247E-04[ 0.704E-04, 0.796E-04]  d Energy = 0.1029549E-03-0.279E-04
 d Force = 0.2151450E-01[ 0.214E-01, 0.217E-01]  d Ewald  = 0.4203175E+00-0.399E+00

 Quasi-Newton relaxation of ions (Broydens 2nd method)
  g(Force)  = 0.335E-03   g(Stress)= 0.247E-03

 retain information from N=  3 steps
 eigenvalues of (default step * inverse Hessian matrix)
  average eigenvalue of G=   1.9803
 eigenvalue spectrum of G is  0.0267  0.2824  5.6318

volume of typ            1:    13.2 %

[...]

volume of typ            3:     9.8 %

total charge

# of ion       s       p       d       tot
    1        2.075   0.223   0.084   2.382
    2        2.067   0.204   0.075   2.346
    3        2.077   0.235   0.088   2.399
    4        2.076   0.234   0.087   2.396
    5        2.076   0.232   0.086   2.394
    6        2.084   0.256   0.097   2.438
    7        2.076   0.230   0.087   2.394
    8        2.077   0.236   0.089   2.403
    9        2.073   0.225   0.084   2.382
   10        0.296   0.420   7.839   8.555
   11        0.275   0.362   7.886   8.523
   12        0.276   0.375   7.859   8.511
   13        0.269   0.359   7.857   8.485
   14        0.271   0.365   7.852   8.487
   15        0.282   0.390   7.842   8.515
   16        0.285   0.394   7.867   8.546
   17        0.297   0.426   7.850   8.573
   18        0.284   0.395   7.861   8.540
   19        0.277   0.375   7.858   8.510
   20        0.275   0.364   7.884   8.523
   21        0.276   0.373   7.856   8.505
   22        0.272   0.361   7.869   8.502
   23        0.279   0.385   7.851   8.514
   24        0.290   0.411   7.841   8.541
   25        0.296   0.421   7.841   8.558
   26        1.258   2.796   0.007   4.060
   27        1.259   2.791   0.007   4.057
   28        1.259   2.787   0.006   4.052
   29        1.260   2.786   0.006   4.052
   30        1.270   2.771   0.007   4.047
   31        1.270   2.769   0.007   4.046
   32        1.282   2.729   0.008   4.019
   33        1.282   2.732   0.008   4.022
   34        1.257   2.793   0.006   4.056
   35        1.271   2.754   0.007   4.031
   36        1.271   2.761   0.007   4.039
   37        1.261   2.783   0.006   4.051
   38        1.258   2.796   0.007   4.061
   39        1.259   2.793   0.007   4.058
   40        1.259   2.787   0.006   4.052
   41        1.263   2.777   0.007   4.047
   42        1.265   2.773   0.007   4.045
   43        1.266   2.771   0.007   4.044
   44        1.269   2.765   0.007   4.042
   45        1.271   2.759   0.008   4.038
   46        1.258   2.788   0.006   4.052
   47        1.270   2.757   0.007   4.033
   48        1.267   2.768   0.006   4.041
   49        1.259   2.788   0.006   4.053
   50        1.269   2.765   0.007   4.042
   51        1.270   2.765   0.007   4.043
   52        1.270   2.762   0.007   4.040
   53        1.268   2.777   0.007   4.052
   54        1.263   2.779   0.007   4.049
   55        1.272   2.755   0.008   4.035
   56        1.269   2.768   0.008   4.045
   57        1.268   2.771   0.008   4.046
tot          63.69   96.97  126.71  287.37

magnetization (x)

# of ion       s       p       d       tot
    1       -0.001   0.001   0.000   0.000
    2       -0.001   0.000   0.000  -0.000
    3        0.001   0.006   0.000   0.007
    4        0.003   0.006   0.001   0.010
    5        0.002   0.003  -0.000   0.004
    6       -0.000   0.000  -0.001  -0.001
    7        0.003   0.001  -0.000   0.004
    8        0.001   0.005   0.001   0.007
    9        0.002   0.006   0.001   0.009
   10       -0.000  -0.000   0.036   0.035
   11        0.005   0.001   0.532   0.537
   12        0.001   0.000   0.303   0.304
   13       -0.002   0.000  -0.513  -0.514
   14        0.000  -0.000   0.361   0.362
   15       -0.000  -0.000   0.168   0.167
   16        0.005  -0.000   0.448   0.453
   17       -0.000  -0.000   0.086   0.086
   18        0.000  -0.000   0.320   0.320
   19        0.002   0.000   0.395   0.397
   20        0.004   0.001   0.551   0.556
   21        0.000   0.000   0.311   0.312
   22       -0.001  -0.000  -0.405  -0.406
   23       -0.001  -0.000  -0.288  -0.289
   24       -0.002  -0.000  -0.255  -0.257
   25        0.000  -0.000   0.128   0.128
   26        0.003   0.033   0.000   0.037
   27        0.005   0.043   0.000   0.048
   28        0.005   0.051   0.000   0.056
   29        0.004   0.048   0.000   0.052
   30        0.004   0.038   0.000   0.042
   31        0.006   0.101   0.000   0.107
   32        0.002   0.032   0.000   0.035
   33       -0.004  -0.096  -0.000  -0.100
   34        0.006   0.071   0.000   0.077
   35        0.004   0.038   0.000   0.042
   36       -0.005  -0.086  -0.000  -0.091
   37        0.005   0.044   0.000   0.049
   38       -0.003  -0.034  -0.000  -0.037
   39       -0.001  -0.020  -0.000  -0.021
   40        0.003   0.018   0.000   0.021
   41        0.000  -0.004   0.000  -0.004
   42       -0.001  -0.007  -0.000  -0.008
   43       -0.003  -0.021  -0.000  -0.025
   44       -0.001  -0.007   0.000  -0.009
   45        0.003   0.021   0.000   0.023
   46        0.005   0.064   0.000   0.069
   47        0.004   0.045   0.000   0.049
   48       -0.004  -0.048  -0.000  -0.053
   49        0.003   0.019   0.000   0.022
   50        0.004   0.038   0.000   0.042
   51        0.006   0.098   0.000   0.104
   52        0.004   0.038   0.000   0.042
   53       -0.005  -0.067  -0.000  -0.072
   54        0.003   0.021   0.000   0.024
   55        0.001   0.015   0.000   0.016
   56        0.001   0.007   0.000   0.008
   57        0.003   0.023   0.000   0.026
tot           0.08    0.54    2.18    2.81