 vasp.5.4.4.18Apr17-6-g9f103f2a35 (build May 12 2020 05:39:39) gamma-only

 MD_VERSION_INFO: Compiled 2020-05-12T12:39:39-UTC in devlin.sd.materialsdesign.
 com:/home/medea2/data/build/wwolf/vasp-gpu5.4.4/13047/x86_64/src/src/build/gam
 from svn 13047

 executed on                        Lin64 date 2023.03.07  01:40:16

 INCAR:
 POTCAR:    PAW_PBE Li_sv 10Sep2004
 POTCAR:    PAW_PBE Ni 02Aug2007
 POTCAR:    PAW_PBE O 08Apr2002

 POTCAR:    PAW_PBE Li_sv 10Sep2004

 POTCAR:    PAW_PBE Ni 02Aug2007

 POTCAR:    PAW_PBE O 08Apr2002

 Optimization of the real space projectors (new method)

 maximal supplied QI-value         = 22.11
 optimisation between [QCUT,QGAM] = [ 11.28, 22.77] = [ 35.61,145.23] Ry
 Optimized for a Real-space Cutoff    1.10 Angstroem

   l    n(q)    QCUT    max X(q) W(low)/X(q) W(high)/X(q)  e(spline)
   0      7    11.276    10.506    0.54E-04    0.58E-04    0.16E-07
   0      7    11.276     8.367    0.11E-03    0.14E-03    0.35E-07
   1      7    11.276     8.983    0.23E-03    0.43E-03    0.86E-07
 Optimization of the real space projectors (new method)

[...]

   l    n(q)    QCUT    max X(q) W(low)/X(q) W(high)/X(q)  e(spline)
   2      9    11.376    60.317    0.17E-03    0.16E-04    0.16E-06
   2      9    11.376    55.921    0.17E-03    0.16E-04    0.17E-06
   0     10    11.376    51.690    0.45E-04    0.60E-04    0.21E-06
   0     10    11.376    30.015    0.37E-04    0.55E-04    0.19E-06
   1     10    11.376    18.849    0.83E-04    0.11E-03    0.92E-07
   1     10    11.376    14.624    0.69E-04    0.92E-04    0.82E-07
 Optimization of the real space projectors (new method)

 maximal supplied QI-value         = 24.76
 optimisation between [QCUT,QGAM] = [ 11.39, 22.77] = [ 36.31,145.25] Ry
 Optimized for a Real-space Cutoff    1.10 Angstroem

   l    n(q)    QCUT    max X(q) W(low)/X(q) W(high)/X(q)  e(spline)
   0      7    11.387    20.381    0.22E-03    0.48E-03    0.18E-06
   0      7    11.387    15.268    0.22E-03    0.52E-03    0.19E-06
   1      7    11.387     5.964    0.22E-03    0.73E-03    0.24E-06
   1      7    11.387     5.382    0.19E-03    0.60E-03    0.21E-06

  PAW_PBE Li_sv 10Sep2004               :
  PAW_PBE Ni 02Aug2007                  :
  PAW_PBE O 08Apr2002                   :

 POSCAR: ce65_1
  positions in direct lattice
 exchange correlation table for  LEXCH =       14
   RHO(1)=    0.500       N(1)  =     2000
   RHO(2)=  100.500       N(2)  =     4000

 ion  position               nearest neighbor table
   1  0.000  0.250  0.251-  47 2.06  42 2.11  39 2.11  33 2.12  51 2.12  54 2.12  23 2.82  15 2.83

   2  0.000  0.750  0.749-  48 2.06  41 2.11  40 2.11  34 2.12  52 2.12  53 2.12  23 2.82  15 2.83

   3  0.245  0.248  0.509-  55 2.06  31 2.06  43 2.10  33 2.12  45 2.16  51 2.22  24 2.78  21 2.81
                            22 2.84
   4  0.245  0.752  0.491-  56 2.06  32 2.06  44 2.10  34 2.12  46 2.16  52 2.22  25 2.78  21 2.81
                            22 2.84
   5  0.755  0.752  0.491-  57 2.06  32 2.06  44 2.10  34 2.12  46 2.16  53 2.22  26 2.78  21 2.81
                            22 2.84
   6  0.755  0.248  0.509-  58 2.06  31 2.06  43 2.10  33 2.12  45 2.16  54 2.22  27 2.78  21 2.81
                            22 2.84
   7  0.500  0.251  0.250-  45 2.09  51 2.10  54 2.10  59 2.10  39 2.10  42 2.10  28 2.83  20 2.83

[...]

  14  0.500  0.751  0.250-  44 2.04  62 2.12  57 2.12  56 2.12  36 2.14  37 2.14  22 2.82  30 2.84

  15  0.000  0.000  0.000-  39 1.89  40 1.89  41 1.89  42 1.89  49 1.93  50 1.93  20 2.82  20 2.82
                             1 2.83   2 2.83  16 2.87  17 2.87  18 2.87  19 2.87
  16  0.250  0.000  0.250-  50 1.88  45 1.89  62 1.89  33 1.89  56 2.01  39 2.06  10 2.79  19 2.81
                            19 2.82  15 2.87  20 2.87  21 2.88  22 2.88
  17  0.250  1.000  0.750-  49 1.88  46 1.89  61 1.89  34 1.89  55 2.01  40 2.06   9 2.79  18 2.81
                            18 2.82  15 2.87  20 2.87  21 2.88  22 2.88
  18  0.750  1.000  0.750-  49 1.88  46 1.89  61 1.89  34 1.89  58 2.01  41 2.06  12 2.79  17 2.81
                            17 2.82  15 2.87  20 2.87  21 2.88  22 2.88
  19  0.750  0.000  0.250-  50 1.88  45 1.89  62 1.89  33 1.89  57 2.01  42 2.06  11 2.79  16 2.81
                            16 2.82  15 2.87  20 2.87  21 2.88  22 2.88
  20  0.500  0.000  0.000-  39 1.89  40 1.89  41 1.89  42 1.89  61 2.02  62 2.02  15 2.82  15 2.82
                             7 2.83   8 2.83  19 2.87  16 2.87  17 2.87  18 2.87
  21  0.000  0.000  0.500-  55 1.88  56 1.88  57 1.88  58 1.88  33 2.03  34 2.03   5 2.81   6 2.81
                             3 2.81   4 2.81  22 2.82  22 2.82  16 2.88  17 2.88  18 2.88  19 2.88
  22  0.500  0.000  0.500-  55 1.85  56 1.85  57 1.85  58 1.85  45 2.07  46 2.07  21 2.82  21 2.82
                            13 2.82  14 2.82   5 2.84   6 2.84   3 2.84   4 2.84  16 2.88  17 2.88
  23  0.000  0.500  0.500-  51 1.90  52 1.90  53 1.90  54 1.90  31 1.93  32 1.93  28 2.82  28 2.82
                             1 2.82   2 2.82  24 2.88  25 2.88  26 2.88  27 2.88
  24  0.250  0.499  0.750-  48 1.88  43 1.88  31 1.90  60 1.90  35 2.00  52 2.03   3 2.78  27 2.81
                            27 2.82  29 2.87  30 2.88  23 2.88  28 2.88
  25  0.250  0.501  0.250-  47 1.88  44 1.88  32 1.90  59 1.90  36 2.00  51 2.03   4 2.78  26 2.81
                            26 2.82  29 2.87  30 2.88  23 2.88  28 2.88
  26  0.750  0.501  0.250-  47 1.88  44 1.88  32 1.90  59 1.90  37 2.00  54 2.03   5 2.78  25 2.81
                            25 2.82  29 2.87  30 2.88  23 2.88  28 2.88
  27  0.750  0.499  0.750-  48 1.88  43 1.88  31 1.90  60 1.90  38 2.00  53 2.03   6 2.78  24 2.81
                            24 2.82  29 2.87  30 2.88  23 2.88  28 2.88
  28  0.500  0.500  0.500-  51 1.87  52 1.87  53 1.87  54 1.87  43 2.12  44 2.12  23 2.82  23 2.82
                             7 2.83   8 2.83  27 2.88  24 2.88  25 2.88  26 2.88
  29  0.000  0.500  0.000-  35 1.87  36 1.87  37 1.87  38 1.87  47 2.10  48 2.10  30 2.82  30 2.82
                             9 2.83  10 2.83  11 2.83  12 2.83  24 2.87  25 2.87  26 2.87  27 2.87
  30  0.500  0.500  0.000-  35 1.86  36 1.86  37 1.86  38 1.86  59 2.04  60 2.04  29 2.82  29 2.82
                            13 2.84  14 2.84  24 2.88  25 2.88  26 2.88  27 2.88
  31  0.000  0.396  0.629-  24 1.90  27 1.90  23 1.93   6 2.06   3 2.06
  32  0.000  0.604  0.371-  25 1.90  26 1.90  23 1.93   5 2.06   4 2.06
  33  0.000  0.109  0.365-  16 1.89  19 1.89  21 2.03   6 2.12   3 2.12   1 2.12
  34  0.000  0.891  0.635-  17 1.89  18 1.89  21 2.03   5 2.12   4 2.12   2 2.12
  35  0.251  0.396  0.888-  30 1.86  29 1.87  24 2.00   9 2.08  13 2.14
  36  0.251  0.604  0.112-  30 1.86  29 1.87  25 2.00  10 2.08  14 2.14
  37  0.749  0.604  0.112-  30 1.86  29 1.87  26 2.00  11 2.08  14 2.14
  38  0.749  0.396  0.888-  30 1.86  29 1.87  27 2.00  12 2.08  13 2.14
  39  0.251  0.111  0.112-  20 1.89  15 1.89  16 2.06   7 2.10   1 2.11   9 2.15
  40  0.251  0.889  0.888-  20 1.89  15 1.89  17 2.06   8 2.10   2 2.11  10 2.15
  41  0.749  0.889  0.888-  20 1.89  15 1.89  18 2.06   8 2.10   2 2.11  11 2.15
  42  0.749  0.111  0.112-  20 1.89  15 1.89  19 2.06   7 2.10   1 2.11  12 2.15
  43  0.500  0.387  0.642-  24 1.88  27 1.88  13 2.04   6 2.10   3 2.10  28 2.12
  44  0.500  0.613  0.358-  25 1.88  26 1.88  14 2.04   5 2.10   4 2.10  28 2.12
  45  0.500  0.111  0.362-  16 1.89  19 1.89  22 2.07   7 2.09   3 2.16   6 2.16
  46  0.500  0.889  0.638-  17 1.89  18 1.89  22 2.07   8 2.09   4 2.16   5 2.16
  47  0.000  0.390  0.142-  25 1.88  26 1.88   1 2.06  29 2.10  12 2.13   9 2.13
  48  0.000  0.610  0.858-  24 1.88  27 1.88   2 2.06  29 2.10  11 2.13  10 2.13
  49  0.000  0.101  0.869-  17 1.88  18 1.88  15 1.93  12 2.08   9 2.08
  50  0.000  0.899  0.131-  16 1.88  19 1.88  15 1.93  11 2.08  10 2.08
  51  0.253  0.392  0.386-  28 1.87  23 1.90  25 2.03   7 2.10   1 2.12   3 2.22
  52  0.253  0.608  0.614-  28 1.87  23 1.90  24 2.03   8 2.10   2 2.12   4 2.22
  53  0.747  0.608  0.614-  28 1.87  23 1.90  27 2.03   8 2.10   2 2.12   5 2.22
  54  0.747  0.392  0.386-  28 1.87  23 1.90  26 2.03   7 2.10   1 2.12   6 2.22
  55  0.253  0.104  0.612-  22 1.85  21 1.88  17 2.01   3 2.06  13 2.12
  56  0.253  0.896  0.388-  22 1.85  21 1.88  16 2.01   4 2.06  14 2.12
  57  0.747  0.896  0.388-  22 1.85  21 1.88  19 2.01   5 2.06  14 2.12
  58  0.747  0.104  0.612-  22 1.85  21 1.88  18 2.01   6 2.06  13 2.12
  59  0.500  0.391  0.136-  25 1.90  26 1.90  30 2.04   7 2.10  12 2.15   9 2.15
  60  0.500  0.609  0.864-  24 1.90  27 1.90  30 2.04   8 2.10  11 2.15  10 2.15
  61  0.500  0.108  0.864-  17 1.89  18 1.89  20 2.02  12 2.11   9 2.11  13 2.12
  62  0.500  0.892  0.136-  16 1.89  19 1.89  20 2.02  11 2.11  10 2.11  14 2.12

  LATTYP: Found a simple monoclinic cell.
 ALAT       =    11.3052992365
 B/A-ratio  =     0.4983232579
 C/A-ratio  =     1.6682048323
 COS(beta)  =    -0.8985621397

  Lattice vectors:

 A1 = (  -6.3543829255,   0.0000000000,  -9.3504870709)
 A2 = (   0.0000000000,  -5.6336935469,   0.0000000000)
 A3 = (   2.6797728772,   0.0000000000,  18.6681982322)

Analysis of symmetry for initial positions (statically):
 Subroutine PRICEL returns:
 Original cell was already a primitive cell.

 Routine SETGRP: Setting up the symmetry group for a
 simple monoclinic supercell.

 Subroutine GETGRP returns: Found  4 space group operations
 (whereof  4 operations were pure point group operations)
 out of a pool of  4 trial point group operations.

The static configuration has the point symmetry C_2h.

Analysis of symmetry for dynamics (positions and initial velocities):
 Subroutine PRICEL returns:
 Original cell was already a primitive cell.

[...]

The dynamic configuration has the point symmetry C_2h.

Analysis of structural, dynamic, and magnetic symmetry:
 Subroutine PRICEL returns:
 Original cell was already a primitive cell.

 Routine SETGRP: Setting up the symmetry group for a
 simple monoclinic supercell.

 Subroutine GETGRP returns: Found  4 space group operations
 (whereof  4 operations were pure point group operations)
 out of a pool of  4 trial point group operations.

The magnetic configuration has the point symmetry C_2h.

 Subroutine INISYM returns: Found  4 space group operations
 (whereof  4 operations are pure point group operations),
 and found     1 'primitive' translations

 KPOINTS: Automatic mesh

Automatic generation of k-mesh.
Space group operators:
 irot       det(A)        alpha          n_x          n_y          n_z        tau_x        tau_y        tau_z
    1     1.000000     0.000000     1.000000     0.000000     0.000000     0.000000     0.000000     0.000000
    2    -1.000000     0.000000     1.000000     0.000000     0.000000     0.000000     0.000000     0.000000
    3     1.000000   180.000000     0.000000     1.000000     0.000000     0.000000     0.000000     0.000000
    4    -1.000000   180.000000     0.000000     1.000000     0.000000     0.000000     0.000000     0.000000

 Subroutine IBZKPT returns following result:

 Found      1 irreducible k-points:

 Following reciprocal coordinates:
[...]
   -.184E-12 0.206E-14 -.940E-13   0.222E-13 0.391E-14 0.180E-13   0.529E-22 0.000E+00 -.258E-22   -.217E-13 -.419E-13 0.128E-13
   -.251E+02 0.168E+02 0.436E+02   0.255E+02 -.170E+02 -.441E+02   -.422E+00 0.164E+00 0.463E+00   -.361E-01 0.141E-01 0.759E-02
   0.251E+02 0.168E+02 -.436E+02   -.255E+02 -.170E+02 0.441E+02   0.422E+00 0.164E+00 -.463E+00   0.361E-01 0.141E-01 -.759E-02
   0.251E+02 -.168E+02 -.436E+02   -.255E+02 0.170E+02 0.441E+02   0.422E+00 -.164E+00 -.463E+00   0.361E-01 -.141E-01 -.759E-02
   -.251E+02 -.168E+02 0.436E+02   0.255E+02 0.170E+02 -.441E+02   -.422E+00 -.164E+00 0.463E+00   -.361E-01 -.141E-01 0.759E-02
   -.327E-11 0.957E-12 0.379E-11   0.160E-13 -.228E-12 -.402E-13   0.000E+00 0.000E+00 -.838E-23   -.562E-13 0.464E-13 0.398E-13
   0.275E-13 0.330E-14 -.827E-13   -.711E-14 0.172E-12 0.142E-13   0.265E-22 0.000E+00 -.309E-22   -.164E-12 -.232E-13 -.583E-14
   -.170E-11 0.946E-12 -.380E-11   0.000E+00 0.779E-13 0.156E-12   0.000E+00 0.000E+00 -.488E-22   -.164E-12 0.275E-13 0.255E-13
   -.394E+02 0.329E-13 0.296E+03   0.412E+02 -.167E-13 -.310E+03   -.177E+01 0.000E+00 0.138E+02   -.150E-01 -.860E-13 0.914E-03
   0.394E+02 -.119E-13 -.296E+03   -.412E+02 -.166E-13 0.310E+03   0.177E+01 0.132E-22 -.138E+02   0.150E-01 -.230E-14 -.914E-03
   -.297E+02 -.239E-13 -.251E+03   0.319E+02 -.409E-13 0.262E+03   -.212E+01 0.000E+00 -.108E+02   -.242E-01 -.255E-13 0.129E-02
   0.297E+02 -.204E-13 0.251E+03   -.319E+02 0.261E-13 -.262E+03   0.212E+01 0.333E-23 0.108E+02   0.242E-01 0.213E-13 -.129E-02
   0.339E+02 0.368E+02 0.295E+03   -.382E+02 -.392E+02 -.310E+03   0.432E+01 0.234E+01 0.154E+02   -.175E-01 0.218E-01 -.323E-01
   -.339E+02 0.368E+02 -.295E+03   0.382E+02 -.392E+02 0.310E+03   -.432E+01 0.234E+01 -.154E+02   0.175E-01 0.218E-01 0.323E-01
   -.339E+02 -.368E+02 -.295E+03   0.382E+02 0.392E+02 0.310E+03   -.432E+01 -.234E+01 -.154E+02   0.175E-01 -.218E-01 0.323E-01
   0.339E+02 -.368E+02 0.295E+03   -.382E+02 0.392E+02 -.310E+03   0.432E+01 -.234E+01 0.154E+02   -.175E-01 -.218E-01 -.323E-01
   -.195E+02 -.133E+01 -.265E+03   0.215E+02 0.140E+01 0.277E+03   -.193E+01 -.678E-01 -.117E+02   -.213E-01 -.434E-02 -.370E-01
   0.195E+02 -.133E+01 0.265E+03   -.215E+02 0.140E+01 -.277E+03   0.193E+01 -.678E-01 0.117E+02   0.213E-01 -.434E-02 0.370E-01
   0.195E+02 0.133E+01 0.265E+03   -.215E+02 -.140E+01 -.277E+03   0.193E+01 0.678E-01 0.117E+02   0.213E-01 0.434E-02 0.370E-01
   -.195E+02 0.133E+01 -.265E+03   0.215E+02 -.140E+01 0.277E+03   -.193E+01 0.678E-01 -.117E+02   -.213E-01 0.434E-02 -.370E-01
   0.158E+02 0.108E-12 0.272E+03   -.191E+02 -.845E-13 -.283E+03   0.329E+01 0.000E+00 0.116E+02   -.189E-01 0.124E-12 0.679E-02
   -.158E+02 0.194E-12 -.272E+03   0.191E+02 -.310E-13 0.283E+03   -.329E+01 -.265E-22 -.116E+02   0.189E-01 -.148E-13 -.679E-02
   -.287E+02 0.199E-12 -.259E+03   0.312E+02 -.495E-13 0.271E+03   -.255E+01 0.000E+00 -.118E+02   -.331E-01 0.316E-14 0.940E-02
   0.287E+02 0.156E-12 0.259E+03   -.312E+02 -.605E-13 -.271E+03   0.255E+01 -.165E-22 0.118E+02   0.331E-01 0.324E-13 -.940E-02
   0.423E+02 -.293E-13 0.248E+03   -.451E+02 -.656E-13 -.259E+03   0.281E+01 0.000E+00 0.115E+02   0.370E-01 0.216E-13 -.334E-01
   -.423E+02 0.515E-13 -.248E+03   0.451E+02 -.606E-13 0.259E+03   -.281E+01 -.132E-22 -.115E+02   -.370E-01 -.104E-12 0.334E-01
   0.447E+02 -.168E-13 -.298E+03   -.467E+02 0.565E-13 0.312E+03   0.194E+01 0.000E+00 -.143E+02   0.370E-01 -.701E-15 -.308E-01
   -.447E+02 -.528E-13 0.298E+03   0.467E+02 0.870E-13 -.312E+03   -.194E+01 0.000E+00 0.143E+02   -.370E-01 0.606E-14 0.308E-01
   0.117E+02 -.248E+01 0.264E+03   -.137E+02 0.209E+01 -.276E+03   0.203E+01 0.379E+00 0.120E+02   0.499E-02 0.105E-01 -.300E-03
   -.117E+02 -.248E+01 -.264E+03   0.137E+02 0.209E+01 0.276E+03   -.203E+01 0.379E+00 -.120E+02   -.499E-02 0.105E-01 0.300E-03
   -.117E+02 0.248E+01 -.264E+03   0.137E+02 -.209E+01 0.276E+03   -.203E+01 -.379E+00 -.120E+02   -.499E-02 -.105E-01 0.300E-03
   0.117E+02 0.248E+01 0.264E+03   -.137E+02 -.209E+01 -.276E+03   0.203E+01 -.379E+00 0.120E+02   0.499E-02 -.105E-01 -.300E-03
   -.405E+02 0.358E+02 -.293E+03   0.453E+02 -.386E+02 0.307E+03   -.475E+01 0.275E+01 -.147E+02   0.131E-01 -.124E-01 0.897E-02
   0.405E+02 0.358E+02 0.293E+03   -.453E+02 -.386E+02 -.307E+03   0.475E+01 0.275E+01 0.147E+02   -.131E-01 -.124E-01 -.897E-02
   0.405E+02 -.358E+02 0.293E+03   -.453E+02 0.386E+02 -.307E+03   0.475E+01 -.275E+01 0.147E+02   -.131E-01 0.124E-01 -.897E-02
   -.405E+02 -.358E+02 -.293E+03   0.453E+02 0.386E+02 0.307E+03   -.475E+01 -.275E+01 -.147E+02   0.131E-01 0.124E-01 0.897E-02
   0.252E+02 0.178E-12 0.258E+03   -.273E+02 0.576E-13 -.269E+03   0.211E+01 0.000E+00 0.116E+02   0.213E-01 0.271E-13 -.232E-01
   -.252E+02 0.131E-12 -.258E+03   0.273E+02 0.589E-13 0.269E+03   -.211E+01 0.000E+00 -.116E+02   -.213E-01 0.703E-13 0.232E-01
   0.425E+01 0.183E-12 -.276E+03   -.176E+01 0.311E-14 0.287E+03   -.253E+01 0.000E+00 -.110E+02   0.336E-01 -.105E-13 -.237E-01
   -.425E+01 0.177E-12 0.276E+03   0.176E+01 -.195E-13 -.287E+03   0.253E+01 0.000E+00 0.110E+02   -.336E-01 0.368E-13 0.237E-01
   -.394E-10 0.153E-10 -.225E-10   -.128E-12 0.859E-13 -.568E-13   0.000E+00 0.444E-15 -.107E-13   -.114E-11 0.361E-13 0.685E-12

 POSITION                                       TOTAL-FORCE (eV/Angst)
      1.59367      0.00000      2.33841         0.008202     -0.000000      0.002939
      4.76072      0.00000      7.01208        -0.008202     -0.000000     -0.002939
      4.19382      1.38076      2.32676         0.007293      0.003314      0.013427
      2.16056      1.38076      7.02373        -0.007293      0.003314     -0.013427
      2.16056      4.25293      7.02373        -0.007293     -0.003314     -0.013427
      4.19382      4.25293      2.32676         0.007293     -0.003314      0.013427
      1.58260      2.81685      2.34331         0.006691     -0.000000     -0.005277
      4.77178      2.81685      7.00718        -0.006691     -0.000000      0.005277
      9.03780      1.37530      2.37048         0.000658      0.003932      0.001842
     -2.68341      1.37530      6.98000        -0.000658      0.003932     -0.001842
     -2.68341      4.25839      6.98000        -0.000658     -0.003932     -0.001842
      9.03780      4.25839      2.37048         0.000658     -0.003932      0.001842
      6.60468      2.81685      2.34163        -0.006358     -0.000000      0.011032
     -0.25030      2.81685      7.00886         0.006358     -0.000000     -0.011032
      0.00000      0.00000      0.00000         0.000000     -0.000000      0.000000
      2.50333      1.40603      0.00890         0.010802      0.001317     -0.002757
      3.85105      1.40603      9.34159        -0.010802      0.001317      0.002757
      3.85105      4.22766      9.34159        -0.010802     -0.001317      0.002757
      2.50333      4.22766      0.00890         0.010802     -0.001317     -0.002757
      0.00000      2.81685      0.00000         0.000000     -0.000000      0.000000
      5.01450      0.00000      0.01639         0.000000     -0.000000      0.000000
      5.01450      2.81685      0.01639         0.000000     -0.000000      0.000000
      3.17719      0.00000      4.67524         0.000000     -0.000000      0.000000
      5.68642      1.40588      4.66952        -0.008478      0.008162      0.016053
      0.66796      1.40588      4.68097         0.008478      0.008162     -0.016053
      0.66796      4.22782      4.68097         0.008478     -0.008162     -0.016053
      5.68642      4.22782      4.66952        -0.008478     -0.008162      0.016053
      3.17719      2.81685      4.67524         0.000000     -0.000000      0.000000
     -1.83731      0.00000      4.65886         0.000000     -0.000000      0.000000
     -1.83731      2.81685      4.65886         0.000000     -0.000000      0.000000
      4.84720      0.00000      3.71425         0.002801     -0.000000      0.010319
      1.50718      0.00000      5.63623        -0.002801     -0.000000     -0.010319
      3.25646      0.00000      1.02750         0.002236     -0.000000      0.008149
      3.09793      0.00000      8.32299        -0.002236     -0.000000     -0.008149
      7.44960      1.41525      3.71919        -0.001973      0.001431     -0.006068
     -1.09522      1.41525      5.63130         0.001973      0.001431      0.006068
     -1.09522      4.21845      5.63130         0.001973     -0.001431      0.006068
      7.44960      4.21845      3.71919        -0.001973     -0.001431     -0.006068
      0.71753      1.41358      1.03636         0.007125     -0.010516     -0.003848
      5.63685      1.41358      8.31413        -0.007125     -0.010516      0.003848
      5.63685      4.22012      8.31413        -0.007125      0.010516      0.003848
      0.71753      4.22012      1.03636         0.007125      0.010516     -0.003848
      5.01738      2.81685      3.62524         0.012159     -0.000000      0.005253
      1.33700      2.81685      5.72525        -0.012159     -0.000000     -0.005253
      3.21983      2.81685      1.04258        -0.005279     -0.000000     -0.001132
      3.13455      2.81685      8.30790         0.005279     -0.000000      0.001132
     -0.00735      0.00000      3.63442        -0.004404     -0.000000     -0.006546
      6.36173      0.00000      5.71607         0.004404     -0.000000      0.006546
      8.34817      0.00000      0.97142        -0.002798     -0.000000     -0.004913
     -1.99378      0.00000      8.37906         0.002798     -0.000000      0.004913
      2.42922      1.42428      3.66765         0.003148      0.002069     -0.001852
      3.92516      1.42428      5.68284        -0.003148      0.002069      0.001852
      3.92516      4.20942      5.68284        -0.003148     -0.002069      0.001852
      2.42922      4.20942      3.66765         0.003148     -0.002069     -0.001852
      5.75815      1.42473      0.98984         0.003249      0.000942     -0.001109
      0.59623      1.42473      8.36064        -0.003249      0.000942      0.001109
      0.59623      4.20896      8.36064        -0.003249     -0.000942      0.001109
      5.75815      4.20896      0.98984         0.003249     -0.000942     -0.001109
     -0.06800      2.81685      3.64328         0.001396     -0.000000     -0.002832
      6.42239      2.81685      5.70721        -0.001396     -0.000000      0.002832
      8.27180      2.81685      1.03785        -0.009394     -0.000000      0.013431
     -1.91742      2.81685      8.31264         0.009394     -0.000000     -0.013431
    total drift:                               -0.000000      0.000000     -0.000000

  FREE ENERGIE OF THE ION-ELECTRON SYSTEM (eV)
  free  energy   TOTEN  =      -373.5483393631 eV

  energy  without entropy=     -373.5463331330  energy(sigma->0) =     -373.54733625

 Quasi-Newton relaxation of ions (Broydens 2nd method)
  g(Force)  = 0.303E-03   g(Stress)= 0.328E-03

 Reset! Starting new Quasi-Newton update for ions

 reached required accuracy - stopping structural energy minimisation

volume of typ            1:    20.7 %

[...]

volume of typ            3:     9.9 %

total charge

# of ion       s       p       d       tot
    1        2.084   0.266   0.099   2.449
    2        2.084   0.266   0.099   2.449
    3        2.080   0.259   0.095   2.434
    4        2.080   0.259   0.095   2.434
    5        2.080   0.259   0.095   2.434
    6        2.080   0.259   0.095   2.434
    7        2.084   0.271   0.100   2.455
    8        2.084   0.271   0.100   2.455
    9        2.079   0.258   0.094   2.431
   10        2.079   0.258   0.094   2.431
   11        2.079   0.258   0.094   2.431
   12        2.079   0.258   0.094   2.431
   13        2.082   0.255   0.097   2.434
   14        2.082   0.255   0.097   2.434
   15        0.274   0.372   7.862   8.508
   16        0.260   0.340   7.868   8.468
   17        0.260   0.340   7.868   8.468
   18        0.260   0.340   7.868   8.468
   19        0.260   0.340   7.868   8.468
   20        0.262   0.346   7.869   8.477
   21        0.264   0.350   7.860   8.474
   22        0.277   0.372   7.876   8.525
   23        0.272   0.367   7.865   8.505
   24        0.262   0.346   7.862   8.470
   25        0.262   0.346   7.862   8.470
   26        0.262   0.346   7.862   8.470
   27        0.262   0.346   7.862   8.470
   28        0.260   0.336   7.885   8.481
   29        0.263   0.342   7.877   8.482
   30        0.277   0.371   7.874   8.522
   31        1.260   2.787   0.006   4.054
   32        1.260   2.787   0.006   4.054
   33        1.257   2.795   0.006   4.057
   34        1.257   2.795   0.006   4.057
   35        1.261   2.781   0.007   4.049
   36        1.261   2.781   0.007   4.049
   37        1.261   2.781   0.007   4.049
   38        1.261   2.781   0.007   4.049
   39        1.258   2.792   0.005   4.056
   40        1.258   2.792   0.005   4.056
   41        1.258   2.792   0.005   4.056
   42        1.258   2.792   0.005   4.056
   43        1.255   2.799   0.005   4.060
   44        1.255   2.799   0.005   4.060
   45        1.257   2.791   0.005   4.054
   46        1.257   2.791   0.005   4.054
   47        1.257   2.795   0.006   4.058
   48        1.257   2.795   0.006   4.058
   49        1.260   2.788   0.006   4.055
   50        1.260   2.788   0.006   4.055
   51        1.258   2.791   0.006   4.055
   52        1.258   2.791   0.006   4.055
   53        1.258   2.791   0.006   4.055
   54        1.258   2.791   0.006   4.055
   55        1.261   2.784   0.006   4.051
   56        1.261   2.784   0.006   4.051
   57        1.261   2.784   0.006   4.051
   58        1.261   2.784   0.006   4.051
   59        1.258   2.789   0.005   4.053
   60        1.258   2.789   0.005   4.053
   61        1.257   2.796   0.006   4.058
   62        1.257   2.796   0.006   4.058
tot          73.65   98.53  127.42  299.60

magnetization (x)

# of ion       s       p       d       tot
    1        0.001   0.010  -0.001   0.010
    2        0.001   0.010  -0.001   0.010
    3        0.005   0.016  -0.000   0.021
    4        0.005   0.016  -0.000   0.021
    5        0.005   0.016  -0.000   0.021
    6        0.005   0.016  -0.000   0.021
    7        0.006   0.018  -0.000   0.024
    8        0.006   0.018  -0.000   0.024
    9        0.005   0.016  -0.000   0.021
   10        0.005   0.016  -0.000   0.021
   11        0.005   0.016  -0.000   0.021
   12        0.005   0.016  -0.000   0.021
   13        0.003   0.009   0.001   0.012
   14        0.003   0.009   0.001   0.012
   15       -0.001  -0.000   0.442   0.440
   16        0.001  -0.000   0.713   0.714
   17        0.001  -0.000   0.713   0.714
   18        0.001  -0.000   0.713   0.714
   19        0.001  -0.000   0.713   0.714
   20        0.001  -0.001   0.669   0.669
   21        0.001  -0.001   0.561   0.562
   22        0.004  -0.000   0.623   0.627
   23       -0.001  -0.000   0.481   0.480
   24        0.001  -0.000   0.641   0.642
   25        0.001  -0.000   0.641   0.642
   26        0.001  -0.000   0.641   0.642
   27        0.001  -0.000   0.641   0.642
   28        0.004  -0.000   0.723   0.726
   29       -0.005  -0.000  -0.547  -0.552
   30        0.003   0.000   0.535   0.539
   31        0.010   0.043   0.000   0.053
   32        0.010   0.043   0.000   0.053
   33        0.012   0.073   0.000   0.086
   34        0.012   0.073   0.000   0.086
   35        0.005   0.040   0.000   0.045
   36        0.005   0.040   0.000   0.045
   37        0.005   0.040   0.000   0.045
   38        0.005   0.040   0.000   0.045
   39        0.011   0.072   0.000   0.083
   40        0.011   0.072   0.000   0.083
   41        0.011   0.072   0.000   0.083
   42        0.011   0.072   0.000   0.083
   43        0.011   0.094   0.000   0.105
   44        0.011   0.094   0.000   0.105
   45        0.012   0.086   0.000   0.098
   46        0.012   0.086   0.000   0.098
   47        0.000  -0.062  -0.000  -0.062
   48        0.000  -0.062  -0.000  -0.062
   49        0.009   0.028   0.000   0.037
   50        0.009   0.028   0.000   0.037
   51        0.010   0.062   0.000   0.073
   52        0.010   0.062   0.000   0.073
   53        0.010   0.062   0.000   0.073
   54        0.010   0.062   0.000   0.073
   55        0.009   0.067   0.000   0.076
   56        0.009   0.067   0.000   0.076
   57        0.009   0.067   0.000   0.076
   58        0.009   0.067   0.000   0.076
   59        0.012   0.088   0.000   0.101
   60        0.012   0.088   0.000   0.101
   61        0.012   0.063   0.000   0.075
   62        0.012   0.063   0.000   0.075
tot           0.37    1.99    8.91   11.27