 vasp.5.4.4.18Apr17-6-g9f103f2a35 (build May 12 2020 05:39:39) gamma-only

 MD_VERSION_INFO: Compiled 2020-05-12T12:39:39-UTC in devlin.sd.materialsdesign.
 com:/home/medea2/data/build/wwolf/vasp-gpu5.4.4/13047/x86_64/src/src/build/gam
 from svn 13047

 executed on                        Lin64 date 2023.03.07  01:44:52

 INCAR:
 POTCAR:    PAW_PBE Li_sv 10Sep2004
 POTCAR:    PAW_PBE Ni 02Aug2007
 POTCAR:    PAW_PBE O 08Apr2002

 POTCAR:    PAW_PBE Li_sv 10Sep2004

 POTCAR:    PAW_PBE Ni 02Aug2007

 POTCAR:    PAW_PBE O 08Apr2002

 Optimization of the real space projectors (new method)

 maximal supplied QI-value         = 22.11
 optimisation between [QCUT,QGAM] = [ 11.28, 22.77] = [ 35.61,145.23] Ry
 Optimized for a Real-space Cutoff    1.10 Angstroem

   l    n(q)    QCUT    max X(q) W(low)/X(q) W(high)/X(q)  e(spline)
   0      7    11.276    10.506    0.54E-04    0.58E-04    0.16E-07
   0      7    11.276     8.367    0.11E-03    0.14E-03    0.35E-07
   1      7    11.276     8.983    0.23E-03    0.43E-03    0.86E-07
 Optimization of the real space projectors (new method)

[...]

   l    n(q)    QCUT    max X(q) W(low)/X(q) W(high)/X(q)  e(spline)
   2      9    11.376    60.317    0.17E-03    0.16E-04    0.16E-06
   2      9    11.376    55.921    0.17E-03    0.16E-04    0.17E-06
   0     10    11.376    51.690    0.45E-04    0.60E-04    0.21E-06
   0     10    11.376    30.015    0.37E-04    0.55E-04    0.19E-06
   1     10    11.376    18.849    0.83E-04    0.11E-03    0.92E-07
   1     10    11.376    14.624    0.69E-04    0.92E-04    0.82E-07
 Optimization of the real space projectors (new method)

 maximal supplied QI-value         = 24.76
 optimisation between [QCUT,QGAM] = [ 11.39, 22.77] = [ 36.31,145.25] Ry
 Optimized for a Real-space Cutoff    1.10 Angstroem

   l    n(q)    QCUT    max X(q) W(low)/X(q) W(high)/X(q)  e(spline)
   0      7    11.387    20.381    0.22E-03    0.48E-03    0.18E-06
   0      7    11.387    15.268    0.22E-03    0.52E-03    0.19E-06
   1      7    11.387     5.964    0.22E-03    0.73E-03    0.24E-06
   1      7    11.387     5.382    0.19E-03    0.60E-03    0.21E-06

  PAW_PBE Li_sv 10Sep2004               :
  PAW_PBE Ni 02Aug2007                  :
  PAW_PBE O 08Apr2002                   :

 POSCAR: ce74_1
  positions in direct lattice
 exchange correlation table for  LEXCH =       14
   RHO(1)=    0.500       N(1)  =     2000
   RHO(2)=  100.500       N(2)  =     4000

 ion  position               nearest neighbor table
   1  0.997  0.252  0.240-  43 2.07  38 2.09  35 2.10  50 2.14  47 2.16  29 2.20  11 2.82
   2  0.997  0.748  0.760-  44 2.07  37 2.09  36 2.10  49 2.14  48 2.16  30 2.20  11 2.82
   3  0.250  0.249  0.530-  51 1.99  27 2.05  39 2.06  29 2.24  41 2.25  20 2.68  17 2.83  18 2.83

   4  0.250  0.751  0.470-  52 1.99  28 2.05  40 2.06  30 2.24  42 2.25  21 2.68  17 2.83  18 2.83

[...]

   6  0.750  0.248  0.533-  54 1.97  27 2.04  39 2.04  29 2.23  41 2.23  23 2.72  17 2.81  18 2.81

   7  0.504  0.252  0.241-  38 2.09  55 2.10  35 2.11  50 2.13  47 2.17  41 2.19  16 2.82
   8  0.504  0.748  0.759-  37 2.09  56 2.10  36 2.11  49 2.13  48 2.17  42 2.19  16 2.82
   9  0.251  0.248  0.961-  31 1.92  57 2.05  45 2.06  13 2.72  26 2.84  25 2.84
  10  0.251  0.752  0.039-  32 1.92  58 2.05  46 2.06  12 2.72  26 2.84  25 2.84
  11  1.000  0.000  0.000-  37 1.87  38 1.87  35 1.88  36 1.88  45 1.92  46 1.92  16 2.78  16 2.79
                             2 2.82   1 2.82  15 2.85  14 2.85  13 2.86  12 2.86
  12  0.250  0.007  0.254-  58 1.84  46 1.85  41 1.87  29 1.87  52 2.00  35 2.06  10 2.72  15 2.78
                            15 2.79  18 2.84  17 2.84  16 2.85  11 2.86
  13  0.250  0.993  0.746-  57 1.84  45 1.85  42 1.87  30 1.87  51 2.00  36 2.06   9 2.72  14 2.78
                            14 2.79  18 2.84  17 2.84  16 2.85  11 2.86
  14  0.750  0.999  0.749-  57 1.86  45 1.86  42 1.87  30 1.88  54 1.96  37 1.98  13 2.78  13 2.79
                            18 2.84  17 2.84  11 2.85  16 2.85
  15  0.750  0.001  0.251-  58 1.86  46 1.86  41 1.87  29 1.88  53 1.96  38 1.98  12 2.78  12 2.79
                            18 2.84  17 2.84  11 2.85  16 2.85
  16  0.500  0.000  0.000-  37 1.88  38 1.88  35 1.88  36 1.88  57 1.93  58 1.93  11 2.78  11 2.79
                             7 2.82   8 2.82  15 2.85  14 2.85  13 2.85  12 2.85
  17  1.000  0.000  0.500-  51 1.84  52 1.84  53 1.84  54 1.84  29 2.06  30 2.06  18 2.78  18 2.79
                             6 2.81   5 2.81   4 2.83   3 2.83  13 2.84  12 2.84  15 2.84  14 2.84
  18  0.501  0.000  0.500-  53 1.84  54 1.84  51 1.85  52 1.85  41 2.06  42 2.06  17 2.78  17 2.79
                             5 2.81   6 2.81   3 2.83   4 2.83  12 2.84  13 2.84  14 2.84  15 2.84
  19  1.000  0.500  0.500-  47 1.88  48 1.88  49 1.88  50 1.88  27 1.97  28 1.97  24 2.78  24 2.79
                            21 2.85  20 2.85  23 2.86  22 2.86
  20  0.250  0.496  0.749-  44 1.85  56 1.85  39 1.86  27 1.86  31 1.98  48 2.06   3 2.68  23 2.78
                            23 2.79  25 2.85  26 2.85  24 2.85  19 2.85
  21  0.250  0.504  0.251-  43 1.85  55 1.85  40 1.86  28 1.86  32 1.98  47 2.06   4 2.68  22 2.78
                            22 2.79  25 2.85  26 2.85  24 2.85  19 2.85
  22  0.750  0.500  0.248-  43 1.86  55 1.86  28 1.87  40 1.87  33 1.93  50 2.02   5 2.72  21 2.78
                            21 2.79  25 2.82  26 2.82  19 2.86  24 2.87
  23  0.750  0.500  0.752-  44 1.86  56 1.86  27 1.87  39 1.87  34 1.93  49 2.02   6 2.72  20 2.78
                            20 2.79  25 2.82  26 2.82  19 2.86  24 2.87
  24  0.500  0.500  0.500-  47 1.88  48 1.88  49 1.88  50 1.88  39 1.96  40 1.96  19 2.78  19 2.79
                            21 2.85  20 2.85  23 2.87  22 2.87
  25  0.998  0.500  0.000-  33 1.83  34 1.83  31 1.85  32 1.85  43 2.03  44 2.03  26 2.76  26 2.81
                            23 2.82  22 2.82  10 2.84   9 2.84  21 2.85  20 2.85
  26  0.503  0.500  0.000-  33 1.84  34 1.84  31 1.85  32 1.85  55 2.00  56 2.00  25 2.76  25 2.81
                            22 2.82  23 2.82   9 2.84  10 2.84  20 2.85  21 2.85
  27  0.998  0.398  0.634-  20 1.86  23 1.87  19 1.97   6 2.04   3 2.05
  28  0.998  0.602  0.366-  21 1.86  22 1.87  19 1.97   5 2.04   4 2.05
  29  0.997  0.112  0.364-  12 1.87  15 1.88  17 2.06   1 2.20   6 2.23   3 2.24
  30  0.997  0.888  0.636-  13 1.87  14 1.88  17 2.06   2 2.20   5 2.23   4 2.24
  31  0.250  0.399  0.890-  25 1.85  26 1.85   9 1.92  20 1.98
  32  0.250  0.601  0.110-  25 1.85  26 1.85  10 1.92  21 1.98
  33  0.751  0.598  0.113-  25 1.83  26 1.84  22 1.93
  34  0.751  0.402  0.887-  25 1.83  26 1.84  23 1.93
  35  0.250  0.111  0.110-  11 1.88  16 1.88  12 2.06   1 2.10   7 2.11
  36  0.250  0.889  0.890-  11 1.88  16 1.88  13 2.06   2 2.10   8 2.11
  37  0.751  0.896  0.885-  11 1.87  16 1.88  14 1.98   2 2.09   8 2.09
  38  0.751  0.104  0.115-  11 1.87  16 1.88  15 1.98   1 2.09   7 2.09
  39  0.502  0.398  0.634-  20 1.86  23 1.87  24 1.96   6 2.04   3 2.06
  40  0.502  0.602  0.366-  21 1.86  22 1.87  24 1.96   5 2.04   4 2.06
  41  0.504  0.111  0.363-  12 1.87  15 1.87  18 2.06   7 2.19   6 2.23   3 2.25
  42  0.504  0.889  0.637-  13 1.87  14 1.87  18 2.06   8 2.19   5 2.23   4 2.25
  43  0.005  0.397  0.140-  21 1.85  22 1.86  25 2.03   1 2.07
  44  0.005  0.603  0.860-  20 1.85  23 1.86  25 2.03   2 2.07
  45  0.006  0.093  0.863-  13 1.85  14 1.86  11 1.92   9 2.06
  46  0.006  0.907  0.137-  12 1.85  15 1.86  11 1.92  10 2.06
  47  0.250  0.393  0.387-  24 1.88  19 1.88  21 2.06   1 2.16   7 2.17
  48  0.250  0.607  0.613-  24 1.88  19 1.88  20 2.06   2 2.16   8 2.17
  49  0.750  0.606  0.616-  24 1.88  19 1.88  23 2.02   8 2.13   2 2.14
  50  0.750  0.394  0.384-  24 1.88  19 1.88  22 2.02   7 2.13   1 2.14
  51  0.250  0.099  0.612-  17 1.84  18 1.85   3 1.99  13 2.00
  52  0.250  0.901  0.388-  17 1.84  18 1.85   4 1.99  12 2.00
  53  0.750  0.902  0.386-  17 1.84  18 1.84  15 1.96   5 1.97
  54  0.750  0.098  0.614-  17 1.84  18 1.84  14 1.96   6 1.97
  55  0.496  0.398  0.138-  21 1.85  22 1.86  26 2.00   7 2.10
  56  0.496  0.602  0.862-  20 1.85  23 1.86  26 2.00   8 2.10
  57  0.495  0.094  0.862-  13 1.84  14 1.86  16 1.93   9 2.05
  58  0.495  0.906  0.138-  12 1.84  15 1.86  16 1.93  10 2.05

  LATTYP: Found a simple monoclinic cell.
 ALAT       =    11.4310079710
 B/A-ratio  =     0.4871588099
 C/A-ratio  =     1.6895636105
 COS(beta)  =    -0.9026861633

  Lattice vectors:

 A1 = (  -6.2525250435,   0.0000000000,  -9.5694239019)
 A2 = (   0.0000000000,  -5.5687162394,   0.0000000000)
 A3 = (   2.5788640273,   0.0000000000,  19.1404666380)

Analysis of symmetry for initial positions (statically):
 Subroutine PRICEL returns:
 Original cell was already a primitive cell.

 Routine SETGRP: Setting up the symmetry group for a
 simple monoclinic supercell.

 Subroutine GETGRP returns: Found  2 space group operations
 (whereof  2 operations were pure point group operations)
 out of a pool of  4 trial point group operations.

The static configuration has the point symmetry C_2 .

Analysis of symmetry for dynamics (positions and initial velocities):
 Subroutine PRICEL returns:
 Original cell was already a primitive cell.

[...]

The dynamic configuration has the point symmetry C_2 .

Analysis of structural, dynamic, and magnetic symmetry:
 Subroutine PRICEL returns:
 Original cell was already a primitive cell.

 Routine SETGRP: Setting up the symmetry group for a
 simple monoclinic supercell.

 Subroutine GETGRP returns: Found  2 space group operations
 (whereof  2 operations were pure point group operations)
 out of a pool of  4 trial point group operations.

The magnetic configuration has the point symmetry C_2 .

 Subroutine INISYM returns: Found  2 space group operations
 (whereof  2 operations are pure point group operations),
 and found     1 'primitive' translations

 KPOINTS: Automatic mesh

Automatic generation of k-mesh.
Space group operators:
 irot       det(A)        alpha          n_x          n_y          n_z        tau_x        tau_y        tau_z
    1     1.000000     0.000001     1.000000     0.000000     0.000000     0.000000     0.000000     0.000000
    2     1.000000   180.000000     0.000000     1.000000     0.000000     0.000000     0.000000     0.000000

 Subroutine IBZKPT returns following result:

 Found      1 irreducible k-points:

 Following reciprocal coordinates:
            Coordinates               Weight
  0.000000  0.000000  0.000000      1.000000

 Following cartesian coordinates:
            Coordinates               Weight
  0.000000  0.000000  0.000000      1.000000

 SYSTEM =  unknown system
 POSCAR =  ce74_1

 Startparameter for this run:
   NWRITE =      1    write-flag & timer
   PREC   = accura    normal or accurate (medium, high low for compatibility)
   ISTART =      0    job   : 0-new  1-cont  2-samecut
   ICHARG =      2    charge: 1-file 2-atom 10-const
   ISPIN  =      2    spin polarized calculation?
   LNONCOLLINEAR =      F non collinear calculations
   LSORBIT =      F    spin-orbit coupling
   INIWAV =      1    electr: 0-lowe 1-rand  2-diag
[...]
   0.134E-05 -.271E+02 -.210E-06   0.284E-12 0.274E+02 0.000E+00   0.000E+00 -.267E+00 -.315E-23   -.132E-11 -.137E-01 0.658E-11
   0.127E-05 0.984E+00 -.288E-06   0.135E-12 -.860E+00 -.746E-13   0.496E-23 -.130E+00 -.877E-23   0.834E-11 0.694E-02 0.420E-11
   0.257E-05 -.902E+00 -.581E-06   0.192E-12 0.779E+00 0.178E-13   0.000E+00 0.129E+00 -.245E-22   -.317E-11 -.632E-02 0.890E-12
   0.106E-05 0.387E+01 -.195E-06   -.127E-10 -.379E+01 0.123E-12   -.265E-22 -.876E-01 0.114E-23   -.346E-11 0.816E-02 -.244E-11
   -.593E+02 -.300E+00 0.615E+02   0.606E+02 0.338E+00 -.620E+02   -.128E+01 -.514E-01 0.507E+00   -.194E-01 0.133E-01 -.689E-02
   0.593E+02 -.300E+00 -.615E+02   -.606E+02 0.338E+00 0.620E+02   0.128E+01 -.514E-01 -.507E+00   0.194E-01 0.133E-01 0.689E-02
   0.738E+02 0.168E+00 -.253E+02   -.750E+02 -.179E+00 0.259E+02   0.117E+01 0.216E-01 -.586E+00   0.178E-01 -.114E-01 0.756E-02
   -.738E+02 0.168E+00 0.253E+02   0.750E+02 -.179E+00 -.259E+02   -.117E+01 0.216E-01 0.586E+00   -.178E-01 -.114E-01 -.756E-02
   0.152E-05 -.404E+01 -.279E-06   -.127E-10 0.395E+01 0.118E-12   -.132E-22 0.101E+00 -.300E-23   -.151E-11 -.781E-02 -.161E-11
   -.804E-05 0.244E+02 0.169E-05   -.129E-10 -.246E+02 -.441E-12   0.000E+00 0.140E+00 -.168E-22   0.166E-10 0.335E-02 -.278E-11
   0.128E-04 -.247E+02 -.269E-05   -.129E-10 0.249E+02 -.249E-12   0.000E+00 -.129E+00 0.600E-23   0.366E-12 -.387E-02 -.300E-11
   -.437E+02 0.263E+01 0.325E+03   0.431E+02 -.295E+01 -.341E+03   0.608E+00 0.316E+00 0.155E+02   0.133E-01 0.655E-02 0.123E-01
   0.437E+02 0.263E+01 -.325E+03   -.431E+02 -.295E+01 0.341E+03   -.608E+00 0.316E+00 -.155E+02   -.133E-01 0.655E-02 -.123E-01
   -.394E+02 0.326E+01 -.280E+03   0.424E+02 -.388E+01 0.295E+03   -.300E+01 0.610E+00 -.144E+02   0.143E-01 0.536E-02 0.141E-01
   0.394E+02 0.326E+01 0.280E+03   -.424E+02 -.388E+01 -.295E+03   0.300E+01 0.610E+00 0.144E+02   -.143E-01 0.536E-02 -.141E-01
   0.337E+02 0.417E-01 0.349E+03   -.389E+02 0.666E-03 -.367E+03   0.523E+01 -.495E-01 0.178E+02   -.232E-01 0.744E-02 0.742E-02
   -.337E+02 0.417E-01 -.349E+03   0.389E+02 0.666E-03 0.367E+03   -.523E+01 -.495E-01 -.178E+02   0.232E-01 0.744E-02 -.742E-02
   -.699E+00 0.372E-01 -.378E+03   0.211E+01 -.153E-01 0.403E+03   -.143E+01 -.139E-01 -.248E+02   0.210E-01 -.780E-02 -.432E-02
   0.699E+00 0.372E-01 0.378E+03   -.211E+01 -.153E-01 -.403E+03   0.143E+01 -.139E-01 0.248E+02   -.210E-01 -.780E-02 0.432E-02
   0.120E+02 -.651E+00 -.304E+03   -.110E+02 0.607E+00 0.317E+03   -.104E+01 0.250E-01 -.124E+02   0.246E-01 0.197E-01 0.412E-01
   -.120E+02 -.651E+00 0.304E+03   0.110E+02 0.607E+00 -.317E+03   0.104E+01 0.250E-01 0.124E+02   -.246E-01 0.197E-01 -.412E-01
   -.347E+02 0.512E+00 0.307E+03   0.355E+02 -.496E+00 -.320E+03   -.766E+00 0.143E-02 0.139E+02   -.247E-01 -.197E-01 -.418E-01
   0.347E+02 0.512E+00 -.307E+03   -.355E+02 -.496E+00 0.320E+03   0.766E+00 0.143E-02 -.139E+02   0.247E-01 -.197E-01 0.418E-01
   -.417E+02 -.309E+01 0.325E+03   0.408E+02 0.348E+01 -.340E+03   0.900E+00 -.385E+00 0.149E+02   -.686E-02 -.659E-02 0.259E-01
   0.417E+02 -.309E+01 -.325E+03   -.408E+02 0.348E+01 0.340E+03   -.900E+00 -.385E+00 -.149E+02   0.686E-02 -.659E-02 -.259E-01
   -.372E+02 -.265E+01 -.281E+03   0.403E+02 0.314E+01 0.295E+03   -.304E+01 -.484E+00 -.146E+02   0.162E-01 -.602E-02 0.117E-01
   0.372E+02 -.265E+01 0.281E+03   -.403E+02 0.314E+01 -.295E+03   0.304E+01 -.484E+00 0.146E+02   -.162E-01 -.602E-02 -.117E-01
   0.734E+02 0.220E+02 0.319E+03   -.780E+02 -.230E+02 -.336E+03   0.465E+01 0.105E+01 0.174E+02   0.233E-01 0.693E-02 0.260E-01
   -.734E+02 0.220E+02 -.319E+03   0.780E+02 -.230E+02 0.336E+03   -.465E+01 0.105E+01 -.174E+02   -.233E-01 0.693E-02 -.260E-01
   0.203E+02 0.326E+02 -.372E+03   -.199E+02 -.349E+02 0.392E+03   -.444E+00 0.234E+01 -.205E+02   -.411E-01 0.735E-02 0.257E-01
   -.203E+02 0.326E+02 0.372E+03   0.199E+02 -.349E+02 -.392E+03   0.444E+00 0.234E+01 0.205E+02   0.411E-01 0.735E-02 -.257E-01
   0.250E+02 -.310E+01 0.303E+03   -.272E+02 0.347E+01 -.317E+03   0.217E+01 -.391E+00 0.136E+02   -.211E-02 0.243E-01 0.200E-01
   -.250E+02 -.310E+01 -.303E+03   0.272E+02 0.347E+01 0.317E+03   -.217E+01 -.391E+00 -.136E+02   0.211E-02 0.243E-01 -.200E-01
   -.219E+02 0.300E+01 -.303E+03   0.229E+02 -.333E+01 0.316E+03   -.103E+01 0.356E+00 -.134E+02   -.150E-02 -.239E-01 -.182E-01
   0.219E+02 0.300E+01 0.303E+03   -.229E+02 -.333E+01 -.316E+03   0.103E+01 0.356E+00 0.134E+02   0.150E-02 -.239E-01 0.182E-01
   -.752E+02 0.262E+00 -.347E+03   0.821E+02 -.224E+00 0.366E+03   -.695E+01 -.446E-01 -.185E+02   -.721E-02 0.744E-02 0.659E-02
   0.752E+02 0.262E+00 0.347E+03   -.821E+02 -.224E+00 -.366E+03   0.695E+01 -.446E-01 0.185E+02   0.721E-02 0.744E-02 -.659E-02
   0.758E+02 -.249E+00 0.351E+03   -.816E+02 0.212E+00 -.371E+03   0.586E+01 0.443E-01 0.192E+02   0.106E-01 -.762E-02 -.956E-02
   -.758E+02 -.249E+00 -.351E+03   0.816E+02 0.212E+00 0.371E+03   -.586E+01 0.443E-01 -.192E+02   -.106E-01 -.762E-02 0.956E-02
   0.720E+02 -.212E+02 0.319E+03   -.766E+02 0.220E+02 -.337E+03   0.456E+01 -.773E+00 0.179E+02   0.212E-01 -.722E-02 0.284E-01
   -.720E+02 -.212E+02 -.319E+03   0.766E+02 0.220E+02 0.337E+03   -.456E+01 -.773E+00 -.179E+02   -.212E-01 -.722E-02 -.284E-01
   0.200E+02 -.332E+02 -.372E+03   -.195E+02 0.358E+02 0.392E+03   -.504E+00 -.256E+01 -.200E+02   -.249E-01 -.602E-02 0.146E-01
   -.200E+02 -.332E+02 0.372E+03   0.195E+02 0.358E+02 -.392E+03   0.504E+00 -.256E+01 0.200E+02   0.249E-01 -.602E-02 -.146E-01
   0.212E-04 -.353E-01 -.495E-05   0.746E-13 0.128E-12 0.284E-12   0.000E+00 0.258E-01 -.355E-14   0.199E-10 0.756E-02 0.723E-11

 POSITION                                       TOTAL-FORCE (eV/Angst)
      1.46164      5.55762      2.41096         0.005427      0.000631      0.002399
      4.75612      5.55762      7.17643        -0.005427      0.000631     -0.002399
      4.33841      1.39613      2.36257         0.012380      0.001173     -0.003098
      1.87934      1.39613      7.22481        -0.012380      0.001173      0.003098
      1.83809      4.17765      7.23340        -0.018447      0.001850      0.003207
      4.37966      4.17765      2.35398         0.018447      0.001850     -0.003207
      1.45423      2.80689      2.40567        -0.006600     -0.000243      0.003188
      4.76352      2.80689      7.18171         0.006600     -0.000243     -0.003188
      8.59333      1.39325      2.34538        -0.018876     -0.006044     -0.001855
     -2.37558      1.39325      7.24200         0.018876     -0.006044      0.001855
     -0.00000      5.57210     -0.00000         0.000000     -0.006847     -0.000000
      2.48300      1.39395      0.06968        -0.000514      0.002071      0.005449
      3.73475      1.39395      9.51770         0.000514      0.002071     -0.005449
      3.73590      4.18146      9.57158         0.002353     -0.001684     -0.005865
      2.48185      4.18146      0.01580        -0.002353     -0.001684      0.005865
     -0.00000      2.78720     -0.00000         0.000000      0.004918     -0.000000
      4.95591      5.57328     -0.01411         0.000000      0.001368     -0.000000
      4.95591      2.78838     -0.01411         0.000000     -0.000444     -0.000000
      3.10888      5.57304      4.79369         0.000000     -0.006616     -0.000000
      5.59223      1.39373      4.75420         0.003733      0.000353      0.002411
      0.62552      1.39373      4.83318        -0.003733      0.000353     -0.002411
      0.61067      4.17968      4.80317        -0.000282     -0.000291     -0.001355
      5.60708      4.17968      4.78421         0.000282     -0.000291      0.001355
      3.10888      2.78736      4.79369         0.000000      0.004648     -0.000000
     -1.84703      5.56352      4.80780         0.000000      0.008496     -0.000000
     -1.84703      2.80055      4.80780        -0.000000     -0.005831     -0.000000
      4.80120      5.56139      3.81523        -0.000223      0.000912     -0.002085
      1.41655      5.56139      5.77215         0.000223      0.000912      0.002085
      3.19160      5.55908      1.07457         0.006355     -0.000477      0.009326
      3.02615      5.55908      8.51282        -0.006355     -0.000477     -0.009326
      7.33698      1.39517      3.81906        -0.005411      0.000269      0.001718
     -1.11923      1.39517      5.76832         0.005411      0.000269     -0.001718
     -1.07250      4.18360      5.73652         0.006046      0.000197      0.001553
      7.29025      4.18360      3.85087        -0.006046      0.000197     -0.001553
      0.68247      1.39313      1.06643         0.003387      0.001215      0.003405
      5.53528      1.39313      8.52096        -0.003387      0.001215     -0.003405
      5.45129      4.17991      8.58869         0.000098     -0.002235     -0.002979
      0.76646      4.17991      0.99869        -0.000098     -0.002235      0.002979
      4.80993      2.79579      3.80619        -0.000734      0.001115      0.000024
      1.40782      2.79579      5.78119         0.000734      0.001115     -0.000024
      3.20035      2.80520      1.06476         0.005986      0.000065      0.008835
      3.01740      2.80520      8.52262        -0.005986      0.000065     -0.008835
     -0.09637      0.02758      3.81971        -0.004324      0.001316      0.001855
      6.31413      0.02758      5.76768         0.004324      0.001316     -0.001855
      8.21305      0.02981      0.86476         0.000459      0.000043     -0.006218
     -1.99530      0.02981      8.72262        -0.000459      0.000043      0.006218
      2.38350      1.38938      3.76973        -0.008382      0.001678      0.001771
      3.83425      1.38938      5.81765         0.008382      0.001678     -0.001771
      3.87165      4.18483      5.79913         0.008714     -0.002525     -0.004302
      2.34610      4.18483      3.78825        -0.008714     -0.002525      0.004302
      5.71064      1.39380      0.92636         0.008754      0.001079     -0.002282
      0.50711      1.39380      8.66102        -0.008754      0.001079      0.002282
      0.48927      4.18212      8.66774        -0.008542     -0.000072      0.002631
      5.72848      4.18212      0.91964         0.008542     -0.000072     -0.002631
     -0.09993      2.76358      3.82826        -0.005474      0.000599      0.000986
      6.31768      2.76358      5.75912         0.005474      0.000599     -0.000986
      8.21115      2.75611      0.86688         0.002021     -0.000841     -0.007585
     -1.99340      2.75611      8.72050        -0.002021     -0.000841      0.007585
    total drift:                                0.000021     -0.001956     -0.000005

  FREE ENERGIE OF THE ION-ELECTRON SYSTEM (eV)
  free  energy   TOTEN  =      -354.2501231441 eV

  energy  without entropy=     -354.2331282804  energy(sigma->0) =     -354.24162571

 d Force = 0.1765902E-03[ 0.168E-03, 0.185E-03]  d Energy = 0.2106699E-03-0.341E-04
 d Force =-0.6975174E+00[-0.698E+00,-0.698E+00]  d Ewald  =-0.8263979E+00 0.129E+00

 Quasi-Newton relaxation of ions (Broydens 2nd method)
  g(Force)  = 0.201E-03   g(Stress)= 0.891E-04

 retain information from N=  2 steps
 eigenvalues of (default step * inverse Hessian matrix)
  average eigenvalue of G=   2.8450
 eigenvalue spectrum of G is  0.2037  5.4862

 reached required accuracy - stopping structural energy minimisation

volume of typ            1:    14.7 %

[...]

volume of typ            3:     9.8 %

total charge

# of ion       s       p       d       tot
    1        2.075   0.243   0.087   2.405
    2        2.075   0.243   0.087   2.405
    3        2.074   0.235   0.087   2.396
    4        2.074   0.235   0.087   2.396
    5        2.077   0.242   0.089   2.408
    6        2.077   0.242   0.089   2.408
    7        2.076   0.234   0.086   2.396
    8        2.076   0.234   0.086   2.396
    9        2.073   0.230   0.085   2.388
   10        2.073   0.230   0.085   2.388
   11        0.279   0.383   7.853   8.515
   12        0.277   0.374   7.862   8.512
   13        0.277   0.374   7.862   8.512
   14        0.275   0.375   7.843   8.493
   15        0.275   0.375   7.843   8.493
   16        0.278   0.382   7.853   8.513
   17        0.280   0.379   7.873   8.532
   18        0.279   0.380   7.875   8.533
   19        0.276   0.377   7.863   8.516
   20        0.278   0.376   7.859   8.512
   21        0.278   0.376   7.859   8.512
   22        0.279   0.378   7.851   8.508
   23        0.279   0.378   7.851   8.508
   24        0.271   0.367   7.864   8.502
   25        0.283   0.390   7.849   8.523
   26        0.283   0.390   7.849   8.522
   27        1.258   2.792   0.007   4.057
   28        1.258   2.792   0.007   4.057
   29        1.259   2.784   0.006   4.049
   30        1.259   2.784   0.006   4.049
   31        1.267   2.776   0.007   4.050
   32        1.267   2.776   0.007   4.050
   33        1.279   2.737   0.008   4.024
   34        1.279   2.737   0.008   4.024
   35        1.262   2.785   0.006   4.052
   36        1.262   2.785   0.006   4.052
   37        1.264   2.780   0.006   4.051
   38        1.264   2.780   0.006   4.051
   39        1.258   2.794   0.006   4.058
   40        1.258   2.794   0.006   4.058
   41        1.259   2.784   0.006   4.049
   42        1.259   2.784   0.006   4.049
   43        1.267   2.767   0.007   4.040
   44        1.267   2.767   0.007   4.040
   45        1.268   2.767   0.008   4.042
   46        1.268   2.767   0.008   4.042
   47        1.262   2.781   0.006   4.049
   48        1.262   2.781   0.006   4.049
   49        1.262   2.783   0.006   4.051
   50        1.262   2.783   0.006   4.051
   51        1.266   2.774   0.007   4.047
   52        1.266   2.774   0.007   4.047
   53        1.265   2.777   0.007   4.050
   54        1.265   2.777   0.007   4.050
   55        1.266   2.768   0.007   4.040
   56        1.266   2.768   0.007   4.040
   57        1.268   2.767   0.007   4.043
   58        1.268   2.767   0.007   4.043
tot          65.65   97.25  126.79  289.69

magnetization (x)

# of ion       s       p       d       tot
    1        0.005   0.017  -0.000   0.022
    2        0.005   0.017  -0.000   0.022
    3        0.005   0.008   0.000   0.013
    4        0.005   0.008   0.000   0.013
    5        0.004   0.006  -0.000   0.010
    6        0.004   0.006  -0.000   0.010
    7       -0.000   0.008  -0.000   0.007
    8       -0.000   0.008  -0.000   0.007
    9        0.005   0.008   0.001   0.014
   10        0.005   0.008   0.001   0.014
   11       -0.000  -0.000   0.369   0.369
   12        0.002   0.000   0.508   0.510
   13        0.002   0.000   0.508   0.510
   14       -0.000  -0.000   0.349   0.349
   15       -0.000  -0.000   0.349   0.349
   16       -0.000  -0.000   0.418   0.418
   17        0.006  -0.000   0.569   0.575
   18        0.005  -0.000   0.532   0.537
   19       -0.001  -0.000  -0.163  -0.164
   20        0.002   0.000   0.538   0.540
   21        0.002   0.000   0.538   0.540
   22        0.000   0.000   0.335   0.335
   23        0.000   0.000   0.335   0.335
   24        0.000  -0.000   0.557   0.557
   25        0.003   0.000   0.387   0.390
   26       -0.004  -0.000  -0.399  -0.403
   27       -0.000  -0.022  -0.000  -0.022
   28       -0.000  -0.022  -0.000  -0.022
   29        0.008   0.071   0.000   0.079
   30        0.008   0.071   0.000   0.079
   31        0.006   0.061   0.000   0.067
   32        0.006   0.061   0.000   0.067
   33        0.003   0.039   0.000   0.041
   34        0.003   0.039   0.000   0.041
   35        0.012   0.071   0.000   0.083
   36        0.012   0.071   0.000   0.083
   37        0.011   0.059   0.000   0.070
   38        0.011   0.059   0.000   0.070
   39        0.007   0.045   0.000   0.052
   40        0.007   0.045   0.000   0.052
   41        0.007   0.061   0.000   0.069
   42        0.007   0.061   0.000   0.069
   43        0.008   0.052   0.000   0.060
   44        0.008   0.052   0.000   0.060
   45        0.004   0.015   0.000   0.019
   46        0.004   0.015   0.000   0.019
   47        0.009   0.064   0.000   0.073
   48        0.009   0.064   0.000   0.073
   49        0.007   0.032   0.000   0.039
   50        0.007   0.032   0.000   0.039
   51        0.007   0.069   0.000   0.076
   52        0.007   0.069   0.000   0.076
   53        0.004   0.037   0.000   0.041
   54        0.004   0.037   0.000   0.041
   55       -0.002  -0.027  -0.000  -0.029
   56       -0.002  -0.027  -0.000  -0.029
   57        0.005   0.024   0.000   0.030
   58        0.005   0.024   0.000   0.030
tot           0.24    1.40    5.74    7.38