 vasp.5.4.4.18Apr17-6-g9f103f2a35 (build May 12 2020 05:39:39) gamma-only

 MD_VERSION_INFO: Compiled 2020-05-12T12:39:39-UTC in devlin.sd.materialsdesign.
 com:/home/medea2/data/build/wwolf/vasp-gpu5.4.4/13047/x86_64/src/src/build/gam
 from svn 13047

 executed on                        Lin64 date 2023.03.07  02:18:41

 INCAR:
 POTCAR:    PAW_PBE Li_sv 10Sep2004
 POTCAR:    PAW_PBE Ni 02Aug2007
 POTCAR:    PAW_PBE O 08Apr2002

 POTCAR:    PAW_PBE Li_sv 10Sep2004

 POTCAR:    PAW_PBE Ni 02Aug2007

 POTCAR:    PAW_PBE O 08Apr2002

 Optimization of the real space projectors (new method)

 maximal supplied QI-value         = 22.11
 optimisation between [QCUT,QGAM] = [ 11.28, 22.77] = [ 35.61,145.23] Ry
 Optimized for a Real-space Cutoff    1.10 Angstroem

   l    n(q)    QCUT    max X(q) W(low)/X(q) W(high)/X(q)  e(spline)
   0      7    11.276    10.506    0.54E-04    0.58E-04    0.16E-07
   0      7    11.276     8.367    0.11E-03    0.14E-03    0.35E-07
   1      7    11.276     8.983    0.23E-03    0.43E-03    0.86E-07
 Optimization of the real space projectors (new method)

[...]

   l    n(q)    QCUT    max X(q) W(low)/X(q) W(high)/X(q)  e(spline)
   2      9    11.376    60.317    0.17E-03    0.16E-04    0.16E-06
   2      9    11.376    55.921    0.17E-03    0.16E-04    0.17E-06
   0     10    11.376    51.690    0.45E-04    0.60E-04    0.21E-06
   0     10    11.376    30.015    0.37E-04    0.55E-04    0.19E-06
   1     10    11.376    18.849    0.83E-04    0.11E-03    0.92E-07
   1     10    11.376    14.624    0.69E-04    0.92E-04    0.82E-07
 Optimization of the real space projectors (new method)

 maximal supplied QI-value         = 24.76
 optimisation between [QCUT,QGAM] = [ 11.39, 22.77] = [ 36.31,145.25] Ry
 Optimized for a Real-space Cutoff    1.10 Angstroem

   l    n(q)    QCUT    max X(q) W(low)/X(q) W(high)/X(q)  e(spline)
   0      7    11.387    20.381    0.22E-03    0.48E-03    0.18E-06
   0      7    11.387    15.268    0.22E-03    0.52E-03    0.19E-06
   1      7    11.387     5.964    0.22E-03    0.73E-03    0.24E-06
   1      7    11.387     5.382    0.19E-03    0.60E-03    0.21E-06

  PAW_PBE Li_sv 10Sep2004               :
  PAW_PBE Ni 02Aug2007                  :
  PAW_PBE O 08Apr2002                   :

 POSCAR: ce4463_1
  positions in direct lattice
 exchange correlation table for  LEXCH =       14
   RHO(1)=    0.500       N(1)  =     2000
   RHO(2)=  100.500       N(2)  =     4000

 ion  position               nearest neighbor table
   1  0.996  0.252  0.239-  45 2.06  40 2.07  37 2.09  52 2.12  49 2.16  31 2.21  13 2.79
   2  0.257  0.250  0.510-  53 2.05  41 2.06  29 2.11  43 2.11  49 2.18  31 2.19  22 2.79  20 2.81

   3  0.238  0.750  0.501-  32 2.06  30 2.07  50 2.14  54 2.14  44 2.15  42 2.16  15 2.80  23 2.81
                            19 2.84
   4  0.761  0.750  0.501-  32 2.06  30 2.06  44 2.13  51 2.14  42 2.15  55 2.16  16 2.83  24 2.84
                            19 2.84
   5  0.742  0.249  0.510-  56 2.05  41 2.05  43 2.10  29 2.12  31 2.20  52 2.22  20 2.80  25 2.81

   6  0.506  0.252  0.241-  57 2.05  40 2.07  37 2.11  52 2.12  49 2.17  43 2.18  18 2.78
   7  0.499  0.749  0.750-  58 2.08  44 2.09  38 2.13  50 2.13  39 2.14  51 2.14  15 2.84
   8  0.978  0.248  0.764-  36 2.02  47 2.05  56 2.08  33 2.16  29 2.24  53 2.25  16 2.78  27 2.81

[...]

  10  0.239  0.750  1.000-  46 2.07  48 2.08  38 2.09  34 2.11  58 2.16  60 2.17  27 2.84
  11  0.762  0.751  1.000-  48 2.08  46 2.08  39 2.10  35 2.13  58 2.17  60 2.18  25 2.84  27 2.84

  12  0.499  0.750  0.250-  60 2.09  42 2.10  54 2.11  34 2.11  35 2.12  55 2.13  23 2.84
  13  0.999  0.001  1.000-  39 1.87  37 1.88  40 1.88  38 1.88  48 1.94  47 1.97   1 2.79  18 2.79
                            18 2.80  16 2.85  15 2.86  14 2.88  17 2.88
  14  0.250  0.001  0.251-  31 1.87  60 1.87  48 1.89  43 1.90  54 2.02  37 2.06  17 2.79  17 2.80
                            19 2.84  18 2.86  20 2.87  13 2.88
  15  0.250  0.995  0.748-  59 1.85  47 1.85  44 1.87  32 1.87  38 2.04  53 2.04  16 2.80  16 2.80
                             3 2.80   9 2.82   7 2.84  20 2.85  13 2.86  19 2.87  18 2.88
  16  0.750  0.998  0.750-  59 1.87  47 1.87  44 1.87  32 1.89  56 2.03  39 2.04   8 2.78  15 2.80
                            15 2.80   4 2.83  13 2.85  20 2.86  18 2.87  19 2.89
  17  0.751  1.000  0.251-  31 1.87  60 1.87  48 1.89  43 1.90  40 1.97  55 1.99  14 2.79  14 2.80
                            19 2.84  20 2.86  18 2.87  13 2.88
  18  0.500  0.002  0.002-  39 1.84  38 1.85  40 1.87  37 1.87  59 1.96  60 2.05   6 2.78  13 2.79
                            13 2.80   9 2.84  14 2.86  16 2.87  17 2.87  15 2.88
  19  0.001  0.998  0.498-  53 1.85  56 1.86  55 1.87  54 1.87  32 1.97  31 2.04  20 2.79  20 2.80
                             3 2.84  17 2.84  14 2.84   4 2.84  15 2.87  16 2.89
  20  0.500  0.003  0.503-  54 1.85  55 1.85  53 1.86  56 1.87  43 2.04  44 2.06  19 2.79   5 2.80
                            19 2.80   2 2.81  15 2.85  16 2.86  17 2.86  14 2.87
  21  0.001  0.499  0.500-  50 1.87  51 1.87  49 1.87  52 1.88  30 1.95  29 2.02  26 2.80  26 2.80
                            25 2.86  22 2.86  23 2.87  24 2.89
  22  0.250  0.500  0.750-  58 1.87  29 1.88  46 1.88  41 1.88  33 2.02  50 2.02   2 2.79  25 2.80
                            25 2.80  28 2.85  21 2.86  27 2.87  26 2.88
  23  0.248  0.505  0.252-  45 1.84  57 1.86  42 1.87  30 1.87  34 2.03  49 2.07  24 2.79  24 2.81
                             3 2.81  12 2.84  27 2.85  26 2.86  21 2.87  28 2.88
  24  0.750  0.502  0.249-  45 1.86  42 1.87  30 1.89  57 1.89  35 2.01  52 2.05  23 2.79  23 2.81
                            27 2.84   4 2.84  28 2.86  26 2.87  21 2.89
  25  0.750  0.501  0.751-  58 1.87  29 1.88  46 1.88  41 1.89  36 1.96  51 2.00  22 2.80  22 2.80
                             5 2.81  11 2.84  28 2.85  21 2.86  27 2.87  26 2.88
  26  0.500  0.497  0.498-  50 1.85  51 1.85  49 1.87  52 1.88  41 1.98  42 2.05  21 2.80  21 2.80
                            23 2.86  24 2.87  25 2.88  22 2.88
  27  0.999  0.502  0.002-  36 1.85  33 1.85  35 1.87  34 1.87  46 1.96  45 2.00  28 2.79  28 2.80
                             8 2.81  24 2.84  11 2.84  10 2.84  23 2.85  25 2.87  22 2.87
  28  0.500  0.496  0.997-  35 1.85  34 1.85  36 1.85  33 1.87  57 2.02  58 2.07   9 2.73  27 2.79
                            27 2.80  22 2.85  25 2.85  24 2.86  23 2.88
  29  1.000  0.392  0.638-  22 1.88  25 1.88  21 2.02   2 2.11   5 2.12   8 2.24
  30  0.999  0.605  0.371-  23 1.87  24 1.89  21 1.95   4 2.06   3 2.07
  31  0.000  0.108  0.362-  14 1.87  17 1.87  19 2.04   2 2.19   5 2.20   1 2.21
  32  0.999  0.894  0.632-  15 1.87  16 1.89  19 1.97   4 2.06   3 2.06
  33  0.243  0.395  0.889-  27 1.85  28 1.87  22 2.02   9 2.03   8 2.16
  34  0.257  0.606  0.109-  28 1.85  27 1.87  23 2.03  10 2.11  12 2.11
  35  0.743  0.605  0.110-  28 1.85  27 1.87  24 2.01  12 2.12  11 2.13
  36  0.755  0.401  0.886-  27 1.85  28 1.85  25 1.96   8 2.02
  37  0.249  0.110  0.112-  18 1.87  13 1.88  14 2.06   1 2.09   6 2.11   9 2.21
  38  0.255  0.894  0.892-  18 1.85  13 1.88  15 2.04  10 2.09   7 2.13
  39  0.745  0.896  0.892-  18 1.84  13 1.87  16 2.04  11 2.10   7 2.14
  40  0.750  0.104  0.118-  18 1.87  13 1.88  17 1.97   1 2.07   6 2.07
  41  0.501  0.395  0.634-  22 1.88  25 1.89  26 1.98   5 2.05   2 2.06
  42  0.501  0.610  0.362-  23 1.87  24 1.87  26 2.05  12 2.10   4 2.15   3 2.16
  43  0.500  0.112  0.365-  17 1.90  14 1.90  20 2.04   5 2.10   2 2.11   6 2.18
  44  0.502  0.889  0.638-  15 1.87  16 1.87  20 2.06   7 2.09   4 2.13   3 2.15
  45  0.004  0.400  0.140-  23 1.84  24 1.86  27 2.00   1 2.06
  46  0.001  0.604  0.868-  25 1.88  22 1.88  27 1.96  10 2.07  11 2.08
  47  0.005  0.100  0.861-  15 1.85  16 1.87  13 1.97   8 2.05   9 2.21
  48  0.001  0.898  0.131-  14 1.89  17 1.89  13 1.94  11 2.08  10 2.08
  49  0.249  0.390  0.388-  26 1.87  21 1.87  23 2.07   1 2.16   6 2.17   2 2.18
  50  0.255  0.603  0.610-  26 1.85  21 1.87  22 2.02   7 2.13   3 2.14
  51  0.746  0.602  0.610-  26 1.85  21 1.87  25 2.00   7 2.14   4 2.14
  52  0.752  0.391  0.385-  26 1.88  21 1.88  24 2.05   6 2.12   1 2.12   5 2.22
  53  0.244  0.104  0.611-  19 1.85  20 1.86  15 2.04   2 2.05   8 2.25
  54  0.258  0.896  0.389-  20 1.85  19 1.87  14 2.02  12 2.11   3 2.14
  55  0.744  0.897  0.389-  20 1.85  19 1.87  17 1.99  12 2.13   4 2.16
  56  0.757  0.105  0.612-  19 1.86  20 1.87  16 2.03   5 2.05   8 2.08
  57  0.493  0.396  0.140-  23 1.86  24 1.89  28 2.02   6 2.05   9 2.08
  58  0.500  0.609  0.860-  25 1.87  22 1.87  28 2.07   7 2.08  10 2.16  11 2.17
  59  0.495  0.098  0.863-  15 1.85  16 1.87  18 1.96   9 2.00
  60  0.499  0.893  0.141-  14 1.87  17 1.87  18 2.05  12 2.09  10 2.17  11 2.18

  LATTYP: Found a triclinic cell.
 ALAT       =    14.9988902149
 B/A-ratio  =     0.3728905796
 C/A-ratio  =     0.7590110962
 COS(alpha) =     0.0004097840
 COS(beta)  =     0.3751060282
 COS(gamma) =     0.7453341157

  Lattice vectors:

 A1 = (  -9.9958048898,  11.1824607941,  -0.0562393994)
 A2 = (   0.0018469481,   5.5929439383,  -0.0026385895)
 A3 = (  -6.3519732372,   0.0023056577,  -9.4475005152)

Analysis of symmetry for initial positions (statically):
 Subroutine PRICEL returns:
 Original cell was already a primitive cell.

 Routine SETGRP: Setting up the symmetry group for a
 triclinic supercell.

 Subroutine GETGRP returns: Found  1 space group operations
 (whereof  1 operations were pure point group operations)
 out of a pool of  2 trial point group operations.

The static configuration has the point symmetry C_1 .

Analysis of symmetry for dynamics (positions and initial velocities):
 Subroutine PRICEL returns:
 Original cell was already a primitive cell.

[...]

The dynamic configuration has the point symmetry C_1 .

Analysis of structural, dynamic, and magnetic symmetry:
 Subroutine PRICEL returns:
 Original cell was already a primitive cell.

 Routine SETGRP: Setting up the symmetry group for a
 triclinic supercell.

 Subroutine GETGRP returns: Found  1 space group operations
 (whereof  1 operations were pure point group operations)
 out of a pool of  2 trial point group operations.

The magnetic configuration has the point symmetry C_1 .

 Subroutine INISYM returns: Found  1 space group operations
 (whereof  1 operations are pure point group operations),
 and found     1 'primitive' translations

 KPOINTS: Automatic mesh

Automatic generation of k-mesh.
Space group operators:
 irot       det(A)        alpha          n_x          n_y          n_z        tau_x        tau_y        tau_z
    1     1.000000     0.000000     1.000000     0.000000     0.000000     0.000000     0.000000     0.000000

 Subroutine IBZKPT returns following result:

 Found      1 irreducible k-points:

 Following reciprocal coordinates:
            Coordinates               Weight
  0.000000  0.000000  0.000000      1.000000

 Following cartesian coordinates:
            Coordinates               Weight
  0.000000  0.000000  0.000000      1.000000

 SYSTEM =  unknown system
 POSCAR =  ce4463_1

 Startparameter for this run:
   NWRITE =      1    write-flag & timer
[...]
   -.323E+02 0.258E+01 -.211E+02   0.321E+02 -.257E+01 0.218E+02   0.198E+00 0.375E-03 -.646E+00   -.760E-01 -.120E-01 -.152E-01
   -.196E+02 0.456E+01 0.936E+01   0.197E+02 -.448E+01 -.943E+01   -.655E-01 -.687E-01 0.720E-01   0.111E-01 -.661E-02 0.572E-02
   0.252E+02 0.157E+02 -.397E+02   -.259E+02 -.158E+02 0.399E+02   0.742E+00 0.618E-01 -.165E+00   -.343E-02 -.103E-01 -.769E-02
   0.458E+02 -.143E+02 -.167E+01   -.465E+02 0.144E+02 0.181E+01   0.648E+00 -.863E-01 -.125E+00   -.309E-02 0.116E-01 -.720E-02
   -.113E+02 -.524E+01 -.443E+01   0.116E+02 0.512E+01 0.426E+01   -.296E+00 0.110E+00 0.167E+00   0.115E-01 0.882E-02 0.510E-02
   0.140E+02 -.241E+01 -.116E+01   -.132E+02 0.236E+01 0.117E+01   -.771E+00 0.370E-01 -.114E-02   -.789E-01 0.126E-01 -.133E-01
   -.422E+02 0.132E+02 0.135E+02   0.422E+02 -.133E+02 -.136E+02   -.103E+00 0.707E-01 0.740E-01   0.772E-01 -.114E-01 0.507E-02
   0.176E+02 -.138E+02 0.869E+02   -.172E+02 0.140E+02 -.877E+02   -.429E+00 -.261E+00 0.753E+00   0.720E-01 0.152E-01 0.699E-02
   -.103E+02 -.134E+01 0.276E+03   0.893E+01 0.143E+01 -.289E+03   0.138E+01 -.799E-01 0.128E+02   -.320E-01 -.182E-01 -.176E-01
   0.266E+02 0.477E+01 -.300E+03   -.272E+02 -.566E+01 0.314E+03   0.610E+00 0.904E+00 -.138E+02   -.302E-01 -.145E-01 -.358E-01
   -.153E+02 -.932E+00 -.273E+03   0.169E+02 0.858E+00 0.286E+03   -.158E+01 0.929E-01 -.139E+02   -.244E-01 -.176E-01 -.226E-01
   -.342E+02 0.567E+01 0.288E+03   0.360E+02 -.659E+01 -.303E+03   -.179E+01 0.901E+00 0.143E+02   -.125E-01 0.245E-01 -.123E-01
   0.292E+02 -.262E+02 0.320E+03   -.342E+02 0.277E+02 -.336E+03   0.500E+01 -.154E+01 0.158E+02   0.548E-01 -.108E-01 0.303E-02
   -.303E+02 0.277E+02 -.295E+03   0.341E+02 -.294E+02 0.310E+03   -.386E+01 0.171E+01 -.157E+02   0.235E-01 -.101E-01 -.958E-02
   -.323E+02 -.279E+02 -.289E+03   0.361E+02 0.296E+02 0.305E+03   -.379E+01 -.165E+01 -.162E+02   0.315E-01 0.887E-02 -.158E-01
   -.981E+01 0.310E+02 0.340E+03   0.865E+01 -.332E+02 -.359E+03   0.111E+01 0.218E+01 0.188E+02   0.432E-01 0.888E-02 0.122E-01
   0.363E-01 0.507E+01 -.287E+03   0.308E+01 -.550E+01 0.299E+03   -.312E+01 0.434E+00 -.124E+02   -.881E-02 0.437E-02 -.146E-01
   0.422E+02 0.345E+02 0.300E+03   -.466E+02 -.369E+02 -.314E+03   0.433E+01 0.239E+01 0.148E+02   0.293E-01 0.546E-02 0.376E-01
   0.489E+02 -.336E+02 0.292E+03   -.538E+02 0.358E+02 -.308E+03   0.479E+01 -.215E+01 0.156E+02   0.555E-01 -.483E-02 0.251E-01
   0.362E+02 -.463E+01 -.304E+03   -.359E+02 0.522E+01 0.318E+03   -.234E+00 -.575E+00 -.138E+02   0.117E-01 -.413E-02 -.218E-01
   -.461E+02 0.930E+00 0.297E+03   0.474E+02 -.911E+00 -.310E+03   -.123E+01 -.384E-01 0.134E+02   -.274E-01 0.172E-01 -.224E-01
   -.105E+02 -.383E+01 -.281E+03   0.139E+02 0.420E+01 0.294E+03   -.334E+01 -.389E+00 -.127E+02   -.335E-01 0.152E-01 -.334E-01
   -.158E+02 0.174E+01 -.272E+03   0.172E+02 -.186E+01 0.283E+03   -.137E+01 0.111E+00 -.115E+02   -.324E-01 0.170E-01 -.233E-01
   0.121E+02 -.382E+01 0.263E+03   -.155E+02 0.411E+01 -.276E+03   0.350E+01 -.268E+00 0.130E+02   -.576E-02 -.209E-01 -.868E-02
   0.522E+02 0.270E+02 0.305E+03   -.564E+02 -.285E+02 -.321E+03   0.423E+01 0.150E+01 0.166E+02   0.197E-01 -.171E-01 0.328E-01
   0.240E+02 -.147E+01 -.295E+03   -.257E+02 0.170E+01 0.308E+03   0.168E+01 -.216E+00 -.137E+02   0.406E-01 -.191E-01 0.239E-01
   -.205E+02 0.279E+02 -.310E+03   0.241E+02 -.295E+02 0.326E+03   -.359E+01 0.155E+01 -.162E+02   0.366E-01 0.225E-01 0.267E-02
   -.219E+02 -.873E+00 0.305E+03   0.232E+02 0.808E+00 -.319E+03   -.135E+01 0.831E-01 0.139E+02   0.562E-02 -.164E-01 0.274E-01
   0.301E+02 0.372E+01 0.279E+03   -.335E+02 -.402E+01 -.292E+03   0.343E+01 0.310E+00 0.131E+02   -.311E-01 -.900E-02 0.458E-02
   -.420E+02 0.319E+02 -.310E+03   0.465E+02 -.340E+02 0.326E+03   -.445E+01 0.211E+01 -.155E+02   -.482E-01 -.835E-02 0.261E-02
   -.383E+02 -.318E+02 -.311E+03   0.420E+02 0.338E+02 0.327E+03   -.373E+01 -.206E+01 -.156E+02   -.367E-01 0.765E-02 -.756E-02
   0.301E+02 -.424E+01 0.277E+03   -.329E+02 0.485E+01 -.289E+03   0.286E+01 -.617E+00 0.123E+02   -.386E-01 0.858E-02 0.973E-02
   -.661E+02 -.265E+02 -.313E+03   0.718E+02 0.279E+02 0.329E+03   -.573E+01 -.140E+01 -.163E+02   -.815E-02 0.170E-02 -.152E-01
   0.366E+02 0.282E+02 0.306E+03   -.409E+02 -.299E+02 -.322E+03   0.437E+01 0.169E+01 0.160E+02   -.106E-01 0.287E-02 -.670E-02
   0.311E+02 -.277E+02 0.308E+03   -.345E+02 0.293E+02 -.325E+03   0.343E+01 -.167E+01 0.163E+02   -.322E-01 0.283E-03 -.155E-03
   -.664E+02 0.292E+02 -.306E+03   0.713E+02 -.308E+02 0.321E+03   -.494E+01 0.168E+01 -.149E+02   -.321E-01 0.122E-02 -.203E-02
   0.492E+02 -.324E+02 0.303E+03   -.527E+02 0.347E+02 -.317E+03   0.350E+01 -.234E+01 0.137E+02   0.247E-01 0.143E-01 0.245E-01
   -.238E+02 0.150E+01 -.269E+03   0.273E+02 -.170E+01 0.282E+03   -.353E+01 0.182E+00 -.126E+02   0.295E-01 0.162E-01 0.312E-01
   0.251E+02 -.360E+02 -.334E+03   -.259E+02 0.389E+02 0.351E+03   0.840E+00 -.289E+01 -.176E+02   0.451E-01 -.220E-01 -.490E-03
   0.122E+02 0.827E+00 0.289E+03   -.146E+02 -.785E+00 -.301E+03   0.241E+01 -.607E-01 0.128E+02   -.384E-02 0.174E-01 0.308E-01
   0.352E+00 0.269E+00 -.960E+00   -.274E-12 -.214E-12 0.625E-12   -.324E+00 -.250E+00 0.953E+00   -.187E-01 0.352E-02 -.675E-02

 POSITION                                       TOTAL-FORCE (eV/Angst)
      1.46325      5.57856      2.38291        -0.013907      0.002481      0.005351
      4.18960      1.43347      2.37276         0.003849     -0.004481     -0.000629
      2.26675      1.33385      7.06825        -0.006255     -0.000407     -0.000891
      2.27176      4.25286      7.06474        -0.004437      0.000067     -0.001649
      4.18430      4.15494      2.36736        -0.007270      0.003447     -0.000049
      1.49973      2.83111      2.37811         0.008321     -0.002756     -0.001025
      4.76734      2.79116      7.07557        -0.000635      0.001096     -0.001944
      6.73404      5.46316      2.36985         0.006350     -0.015958      0.000480
      8.94880      1.57858      2.40800         0.001734      0.015202      0.000676
      7.25899      1.33775      7.10161         0.001345      0.001621      0.000643
      7.25892      4.26445      7.10288         0.000984     -0.002246      0.000627
     -0.22982      2.78840      7.05706         0.001679     -0.001838      0.000980
      9.98384      5.59906      0.06509         0.000925      0.000947     -0.001838
      2.50668      1.39718      0.01685         0.002021     -0.000335     -0.002169
      3.85248      1.39622      9.38146         0.001141      0.000139     -0.002783
      3.86402      4.19745      9.41235         0.001917      0.004584     -0.005724
     -1.12417      4.19752      9.39785         0.002564      0.002647     -0.000982
      0.01389      2.80167      0.02050        -0.001252      0.001660     -0.001531
      1.34689      0.00010      9.39508         0.003893     -0.000049     -0.002490
      5.01108      2.80409      0.05722         0.003820      0.004123     -0.001702
      3.18510      0.00053      4.71169         0.001592     -0.000995      0.001016
      5.67598      1.39989      4.73669        -0.004274     -0.001539      0.001171
      0.67632      1.38902      4.75925        -0.002499     -0.000492      0.000548
      0.66168      4.19800      4.73133        -0.003426     -0.002407      0.001538
      5.67261      4.19923      4.75001        -0.005263     -0.000731      0.002139
      3.16322      2.79902      4.69259         0.002701      0.000135      0.000618
     -1.80880      5.59155      4.71415        -0.002973     -0.003063      0.005800
      8.15648      2.79918      4.71834         0.000260     -0.002016      0.005935
      4.94431      5.59490      3.72286        -0.001960     -0.002582      0.002778
      1.50341      5.59202      5.69511        -0.001882     -0.000404     -0.000630
      3.24875      0.00353      1.02161         0.013991      0.001295     -0.007985
      3.03710      5.59294      8.42512        -0.005377      0.002815     -0.002405
      7.44438      1.35793      3.75882         0.000710     -0.004618      0.002102
     -1.12086      1.43781      5.69813        -0.001447     -0.001125      0.001658
     -1.10636      4.15355      5.68821        -0.003246     -0.001121      0.002399
      7.39014      4.22425      3.81010        -0.002705     -0.002648      0.004723
      0.70599      1.39217      1.04503        -0.008177     -0.001062      0.006965
      5.66336      1.42403      8.44283         0.000271     -0.001078      0.001161
      5.67014      4.16690      8.44984         0.010314      0.000747     -0.003894
      0.79719      4.20399      0.98293         0.002909      0.003588      0.000311
      4.89367      2.80204      3.74175        -0.001700     -0.001984     -0.001079
      1.40873      2.80434      5.74460        -0.003187      0.002495     -0.004085
      3.23652      2.80080      1.06437        -0.002412      0.000900     -0.003933
      3.13881      2.81107      8.38646         0.007801      0.003237     -0.000761
     -0.06084      0.01852      3.76548        -0.004150     -0.005055      0.006391
      6.47670      0.00490      5.72915         0.002647     -0.002124      0.003581
      8.23384      0.02747      0.98394        -0.001693      0.000542     -0.005243
     -1.95374     -0.00030      8.44007         0.004170      0.000757      0.003616
      2.45034      1.38797      3.68657        -0.000762     -0.001730     -0.003137
      3.89575      1.42717      5.69623        -0.004688      0.001571      0.000079
      3.90539      4.17529      5.68895        -0.002919     -0.001658     -0.000524
      2.42629      4.20787      3.69394         0.000770     -0.000522     -0.003260
      5.72312      1.36745      1.01249         0.005528      0.003459     -0.000914
      0.64157      1.44192      8.42876         0.008810      0.003355     -0.007270
      0.62369      4.15741      8.43735         0.001764     -0.000407     -0.003326
      5.72171      4.24406      1.01808        -0.004012      0.003826      0.002068
     -0.04341      2.75662      3.72388        -0.001082     -0.000699      0.001193
      6.37091      2.79724      5.77225        -0.001902     -0.001564      0.004207
      8.28668      2.77198      0.95924         0.006173      0.004554     -0.000365
     -1.87439      2.78826      8.40333        -0.005465     -0.001591      0.003463
    total drift:                                0.009769      0.022384     -0.013528

  FREE ENERGIE OF THE ION-ELECTRON SYSTEM (eV)
  free  energy   TOTEN  =      -364.2329252303 eV

  energy  without entropy=     -364.2223563792  energy(sigma->0) =     -364.22764080

 d Force =-0.7310534E-04[-0.732E-04,-0.730E-04]  d Energy =-0.8203059E-04 0.893E-05
 d Force = 0.9631052E+00[ 0.963E+00, 0.963E+00]  d Ewald  = 0.1932299E+01-0.969E+00

 Quasi-Newton relaxation of ions (Broydens 2nd method)
  g(Force)  = 0.134E-03   g(Stress)= 0.965E-04

 retain information from N=  1 steps
 eigenvalues of (default step * inverse Hessian matrix)
  average eigenvalue of G=   0.1406
 eigenvalue spectrum of G is  0.1406

 reached required accuracy - stopping structural energy minimisation

volume of typ            1:    17.8 %

[...]

volume of typ            3:     9.9 %

total charge

# of ion       s       p       d       tot
    1        2.081   0.244   0.092   2.418
    2        2.080   0.258   0.094   2.431
    3        2.079   0.255   0.094   2.428
    4        2.079   0.254   0.094   2.427
    5        2.080   0.259   0.095   2.433
    6        2.080   0.254   0.094   2.428
    7        2.079   0.248   0.093   2.420
    8        2.077   0.240   0.090   2.407
    9        2.078   0.253   0.093   2.423
   10        2.080   0.260   0.095   2.435
   11        2.078   0.254   0.092   2.425
   12        2.081   0.242   0.093   2.415
   13        0.273   0.370   7.851   8.494
   14        0.261   0.344   7.868   8.473
   15        0.270   0.360   7.862   8.493
   16        0.262   0.344   7.859   8.464
   17        0.267   0.356   7.864   8.486
   18        0.282   0.385   7.861   8.527
   19        0.280   0.383   7.861   8.524
   20        0.273   0.367   7.868   8.507
   21        0.271   0.366   7.861   8.498
   22        0.263   0.347   7.861   8.471
   23        0.271   0.362   7.868   8.501
   24        0.263   0.347   7.862   8.472
   25        0.269   0.360   7.859   8.488
   26        0.276   0.373   7.873   8.522
   27        0.279   0.381   7.857   8.517
   28        0.273   0.367   7.861   8.501
   29        1.258   2.793   0.006   4.056
   30        1.261   2.788   0.006   4.055
   31        1.259   2.788   0.006   4.053
   32        1.261   2.786   0.006   4.053
   33        1.262   2.780   0.006   4.048
   34        1.262   2.780   0.006   4.048
   35        1.262   2.779   0.007   4.048
   36        1.268   2.767   0.007   4.042
   37        1.257   2.794   0.006   4.057
   38        1.266   2.773   0.006   4.045
   39        1.265   2.775   0.006   4.046
   40        1.262   2.785   0.006   4.053
   41        1.262   2.783   0.006   4.051
   42        1.256   2.798   0.006   4.060
   43        1.258   2.790   0.005   4.054
   44        1.256   2.797   0.006   4.058
   45        1.263   2.778   0.007   4.048
   46        1.264   2.780   0.006   4.050
   47        1.262   2.781   0.007   4.050
   48        1.263   2.782   0.006   4.051
   49        1.259   2.789   0.006   4.054
   50        1.264   2.775   0.006   4.046
   51        1.264   2.776   0.006   4.047
   52        1.258   2.792   0.006   4.056
   53        1.264   2.775   0.007   4.045
   54        1.262   2.781   0.006   4.049
   55        1.262   2.781   0.007   4.049
   56        1.261   2.784   0.006   4.052
   57        1.261   2.784   0.006   4.051
   58        1.258   2.793   0.006   4.057
   59        1.269   2.766   0.007   4.042
   60        1.258   2.792   0.006   4.056
tot          69.65   97.90  127.11  294.66

magnetization (x)

# of ion       s       p       d       tot
    1        0.000   0.004  -0.000   0.004
    2        0.006   0.016  -0.000   0.022
    3        0.005   0.015   0.000   0.020
    4        0.005   0.012  -0.000   0.016
    5        0.005   0.016  -0.000   0.022
    6        0.005   0.014   0.000   0.019
    7        0.005   0.013   0.000   0.018
    8        0.004   0.007  -0.000   0.010
    9        0.005   0.015   0.000   0.020
   10        0.006   0.018  -0.000   0.023
   11        0.005   0.017  -0.000   0.022
   12       -0.000   0.002  -0.000   0.002
   13       -0.000  -0.000   0.365   0.365
   14        0.002  -0.000   0.747   0.749
   15        0.003  -0.001   0.644   0.647
   16        0.002  -0.001   0.715   0.716
   17        0.000  -0.001   0.618   0.618
   18       -0.002  -0.001  -0.215  -0.217
   19       -0.002  -0.001  -0.291  -0.293
   20        0.003  -0.000   0.517   0.520
   21       -0.000  -0.000   0.439   0.439
   22        0.001  -0.000   0.665   0.665
   23        0.003  -0.000   0.628   0.630
   24        0.001  -0.000   0.642   0.643
   25       -0.000  -0.000   0.536   0.536
   26        0.001  -0.000   0.478   0.478
   27       -0.000  -0.000   0.306   0.306
   28        0.003  -0.000   0.540   0.543
   29        0.009   0.037   0.000   0.046
   30        0.010   0.064   0.000   0.074
   31        0.003  -0.010  -0.000  -0.007
   32        0.003  -0.004   0.000  -0.001
   33        0.007   0.049   0.000   0.056
   34        0.007   0.066   0.000   0.074
   35        0.007   0.053   0.000   0.060
   36        0.006   0.046   0.000   0.052
   37        0.007   0.055   0.000   0.062
   38        0.008   0.062   0.000   0.070
   39        0.007   0.058   0.000   0.065
   40        0.008   0.056   0.000   0.064
   41        0.012   0.089   0.000   0.101
   42        0.008   0.041   0.000   0.050
   43        0.012   0.088   0.000   0.101
   44        0.009   0.059   0.000   0.068
   45        0.007   0.030   0.000   0.037
   46        0.011   0.062   0.000   0.072
   47        0.007   0.027   0.000   0.034
   48        0.011   0.064   0.000   0.075
   49        0.009   0.061   0.000   0.071
   50        0.009   0.057   0.000   0.066
   51        0.008   0.037   0.000   0.045
   52        0.009   0.054   0.000   0.063
   53        0.006   0.052   0.000   0.058
   54        0.006   0.066   0.000   0.072
   55        0.004   0.035   0.000   0.039
   56        0.006   0.055   0.000   0.061
   57        0.011   0.095   0.000   0.107
   58        0.010   0.063   0.000   0.074
   59        0.003   0.012   0.000   0.015
   60        0.004  -0.005  -0.000  -0.001
tot           0.31    1.72    7.34    9.36