 vasp.5.4.4.18Apr17-6-g9f103f2a35 (build May 12 2020 05:39:39) gamma-only

 MD_VERSION_INFO: Compiled 2020-05-12T12:39:39-UTC in devlin.sd.materialsdesign.
 com:/home/medea2/data/build/wwolf/vasp-gpu5.4.4/13047/x86_64/src/src/build/gam
 from svn 13047

 executed on                        Lin64 date 2023.03.07  02:18:15

 INCAR:
 POTCAR:    PAW_PBE Li_sv 10Sep2004
 POTCAR:    PAW_PBE Ni 02Aug2007
 POTCAR:    PAW_PBE O 08Apr2002

 POTCAR:    PAW_PBE Li_sv 10Sep2004

 POTCAR:    PAW_PBE Ni 02Aug2007

 POTCAR:    PAW_PBE O 08Apr2002

 Optimization of the real space projectors (new method)

 maximal supplied QI-value         = 22.11
 optimisation between [QCUT,QGAM] = [ 11.28, 22.77] = [ 35.61,145.23] Ry
 Optimized for a Real-space Cutoff    1.10 Angstroem

   l    n(q)    QCUT    max X(q) W(low)/X(q) W(high)/X(q)  e(spline)
   0      7    11.276    10.506    0.54E-04    0.58E-04    0.16E-07
   0      7    11.276     8.367    0.11E-03    0.14E-03    0.35E-07
   1      7    11.276     8.983    0.23E-03    0.43E-03    0.86E-07
 Optimization of the real space projectors (new method)

[...]

   l    n(q)    QCUT    max X(q) W(low)/X(q) W(high)/X(q)  e(spline)
   2      9    11.376    60.317    0.17E-03    0.16E-04    0.16E-06
   2      9    11.376    55.921    0.17E-03    0.16E-04    0.17E-06
   0     10    11.376    51.690    0.45E-04    0.60E-04    0.21E-06
   0     10    11.376    30.015    0.37E-04    0.55E-04    0.19E-06
   1     10    11.376    18.849    0.83E-04    0.11E-03    0.92E-07
   1     10    11.376    14.624    0.69E-04    0.92E-04    0.82E-07
 Optimization of the real space projectors (new method)

 maximal supplied QI-value         = 24.76
 optimisation between [QCUT,QGAM] = [ 11.39, 22.77] = [ 36.31,145.25] Ry
 Optimized for a Real-space Cutoff    1.10 Angstroem

   l    n(q)    QCUT    max X(q) W(low)/X(q) W(high)/X(q)  e(spline)
   0      7    11.387    20.381    0.22E-03    0.48E-03    0.18E-06
   0      7    11.387    15.268    0.22E-03    0.52E-03    0.19E-06
   1      7    11.387     5.964    0.22E-03    0.73E-03    0.24E-06
   1      7    11.387     5.382    0.19E-03    0.60E-03    0.21E-06

  PAW_PBE Li_sv 10Sep2004               :
  PAW_PBE Ni 02Aug2007                  :
  PAW_PBE O 08Apr2002                   :

 POSCAR: ce17522_1
  positions in direct lattice
 exchange correlation table for  LEXCH =       14
   RHO(1)=    0.500       N(1)  =     2000
   RHO(2)=  100.500       N(2)  =     4000

 ion  position               nearest neighbor table
   1  0.251  0.250  1.000-  27 2.12  23 2.12  49 2.15  47 2.15  37 2.15  35 2.16
   2  0.251  0.750  0.000-  28 2.12  24 2.12  50 2.15  48 2.15  38 2.15  36 2.16
   3  0.999  0.000  0.000-  29 1.84  30 1.84  27 1.85  28 1.85  37 1.89  38 1.89   8 2.77   7 2.80
                             6 2.80   8 2.80   5 2.81   4 2.81
   4  0.250  0.005  0.253-  33 1.84  21 1.84  50 1.85  38 1.85  44 1.88  27 1.94   7 2.78   7 2.78
                            10 2.79   9 2.79   3 2.81   8 2.81
   5  0.250  0.995  0.747-  34 1.84  22 1.84  49 1.85  37 1.85  43 1.88  28 1.94   6 2.78   6 2.78
                            10 2.79   9 2.79   3 2.81   8 2.81
   6  0.750  1.000  0.750-  22 1.84  34 1.84  49 1.86  37 1.86  46 1.88  29 1.91   5 2.78   5 2.78
                             9 2.79  10 2.79   8 2.80   3 2.80
   7  0.750  0.000  0.250-  21 1.84  33 1.84  50 1.86  38 1.86  45 1.88  30 1.91   4 2.78   4 2.78
                             9 2.79  10 2.79   8 2.80   3 2.80
   8  0.502  0.000  0.000-  29 1.84  30 1.84  27 1.85  28 1.85  49 1.89  50 1.89   3 2.77   6 2.80
                             7 2.80   3 2.80   5 2.81   4 2.81
   9  1.000  0.000  0.500-  45 1.84  46 1.84  43 1.84  44 1.84  21 1.90  22 1.90  10 2.78  10 2.79
                             5 2.79   4 2.79   7 2.79   6 2.79
  10  0.501  0.000  0.500-  45 1.84  46 1.84  43 1.84  44 1.84  33 1.90  34 1.90   9 2.78   9 2.79
                             4 2.79   5 2.79   6 2.79   7 2.79
  11  1.000  0.500  0.500-  41 1.84  42 1.84  39 1.84  40 1.84  19 1.90  20 1.90  16 2.78  16 2.79
                            15 2.79  14 2.79  13 2.79  12 2.79
  12  0.250  0.495  0.747-  31 1.84  19 1.84  36 1.85  48 1.85  40 1.88  23 1.94  15 2.78  15 2.78
                            16 2.79  11 2.79  17 2.81  18 2.81
  13  0.250  0.505  0.253-  32 1.84  20 1.84  35 1.85  47 1.85  39 1.88  24 1.94  14 2.78  14 2.78
                            16 2.79  11 2.79  17 2.81  18 2.81
  14  0.750  0.500  0.250-  20 1.84  32 1.84  47 1.86  35 1.86  42 1.88  25 1.91  13 2.78  13 2.78
                            11 2.79  16 2.79  18 2.80  17 2.80
  15  0.750  0.500  0.750-  19 1.84  31 1.84  48 1.86  36 1.86  41 1.88  26 1.91  12 2.78  12 2.78
                            11 2.79  16 2.79  18 2.80  17 2.80
  16  0.501  0.500  0.500-  41 1.84  42 1.84  39 1.84  40 1.84  31 1.90  32 1.90  11 2.78  11 2.79
                            13 2.79  12 2.79  15 2.79  14 2.79
  17  0.999  0.500  0.000-  25 1.84  26 1.84  23 1.85  24 1.85  35 1.89  36 1.89  18 2.77  15 2.80
                            14 2.80  18 2.80  13 2.81  12 2.81
  18  0.502  0.500  0.000-  25 1.84  26 1.84  23 1.85  24 1.85  47 1.89  48 1.89  17 2.77  15 2.80
                            14 2.80  17 2.80  12 2.81  13 2.81
  19  0.998  0.401  0.635-  12 1.84  15 1.84  11 1.90
  20  0.998  0.599  0.365-  13 1.84  14 1.84  11 1.90
  21  0.998  0.099  0.366-   4 1.84   7 1.84   9 1.90
  22  0.998  0.901  0.634-   5 1.84   6 1.84   9 1.90
  23  0.250  0.398  0.889-  18 1.85  17 1.85  12 1.94   1 2.12
  24  0.250  0.602  0.111-  18 1.85  17 1.85  13 1.94   2 2.12
  25  0.750  0.598  0.113-  17 1.84  18 1.84  14 1.91
  26  0.750  0.402  0.887-  17 1.84  18 1.84  15 1.91
  27  0.250  0.102  0.111-   3 1.85   8 1.85   4 1.94   1 2.12
  28  0.250  0.898  0.889-   3 1.85   8 1.85   5 1.94   2 2.12
  29  0.750  0.902  0.887-   8 1.84   3 1.84   6 1.91
  30  0.750  0.098  0.113-   8 1.84   3 1.84   7 1.91
  31  0.503  0.401  0.635-  12 1.84  15 1.84  16 1.90
  32  0.503  0.599  0.365-  13 1.84  14 1.84  16 1.90
  33  0.503  0.099  0.366-   4 1.84   7 1.84  10 1.90
  34  0.503  0.901  0.634-   5 1.84   6 1.84  10 1.90
  35  0.005  0.404  0.136-  13 1.85  14 1.86  17 1.89   1 2.16
  36  0.005  0.596  0.864-  12 1.85  15 1.86  17 1.89   2 2.16
  37  0.005  0.096  0.864-   5 1.85   6 1.86   3 1.89   1 2.15
  38  0.005  0.904  0.136-   4 1.85   7 1.86   3 1.89   2 2.15
  39  0.250  0.405  0.384-  11 1.84  16 1.84  13 1.88
  40  0.250  0.595  0.616-  11 1.84  16 1.84  12 1.88
  41  0.750  0.596  0.615-  16 1.84  11 1.84  15 1.88
  42  0.750  0.404  0.385-  16 1.84  11 1.84  14 1.88
  43  0.250  0.095  0.616-   9 1.84  10 1.84   5 1.88
  44  0.250  0.905  0.384-   9 1.84  10 1.84   4 1.88
  45  0.750  0.903  0.385-   9 1.84  10 1.84   7 1.88
  46  0.750  0.097  0.615-   9 1.84  10 1.84   6 1.88
  47  0.496  0.404  0.136-  13 1.85  14 1.86  18 1.89   1 2.15
  48  0.496  0.596  0.864-  12 1.85  15 1.86  18 1.89   2 2.15
  49  0.496  0.096  0.864-   5 1.85   6 1.86   8 1.89   1 2.15
  50  0.496  0.904  0.136-   4 1.85   7 1.86   8 1.89   2 2.15

  LATTYP: Found a simple monoclinic cell.
 ALAT       =    11.4105277115
 B/A-ratio  =     0.4878103824
 C/A-ratio  =     1.6878578761
 COS(beta)  =    -0.9072704207

  Lattice vectors:

 A1 = (  -6.1954545338,   0.0000000000,  -9.5820919310)
 A2 = (   0.0000000000,  -5.5661738860,   0.0000000000)
 A3 = (   2.6857628982,   0.0000000000,  19.0711615852)

Analysis of symmetry for initial positions (statically):
 Subroutine PRICEL returns:
 Original cell was already a primitive cell.

 Routine SETGRP: Setting up the symmetry group for a
 simple monoclinic supercell.

 Subroutine GETGRP returns: Found  2 space group operations
 (whereof  2 operations were pure point group operations)
 out of a pool of  4 trial point group operations.

The static configuration has the point symmetry C_2 .

Analysis of symmetry for dynamics (positions and initial velocities):
 Subroutine PRICEL returns:
 Original cell was already a primitive cell.

[...]

The dynamic configuration has the point symmetry C_2 .

Analysis of structural, dynamic, and magnetic symmetry:
 Subroutine PRICEL returns:
 Original cell was already a primitive cell.

 Routine SETGRP: Setting up the symmetry group for a
 simple monoclinic supercell.

 Subroutine GETGRP returns: Found  2 space group operations
 (whereof  2 operations were pure point group operations)
 out of a pool of  4 trial point group operations.

The magnetic configuration has the point symmetry C_2 .

 Subroutine INISYM returns: Found  2 space group operations
 (whereof  2 operations are pure point group operations),
 and found     1 'primitive' translations

 KPOINTS: Automatic mesh

Automatic generation of k-mesh.
Space group operators:
 irot       det(A)        alpha          n_x          n_y          n_z        tau_x        tau_y        tau_z
    1     1.000000     0.000000     1.000000     0.000000     0.000000     0.000000     0.000000     0.000000
    2     1.000000   180.000000     0.000000     1.000000     0.000000     0.000000     0.000000     0.000000

 Subroutine IBZKPT returns following result:

 Found      1 irreducible k-points:

 Following reciprocal coordinates:
            Coordinates               Weight
  0.000000  0.000000  0.000000      1.000000

 Following cartesian coordinates:
            Coordinates               Weight
  0.000000  0.000000  0.000000      1.000000

 SYSTEM =  unknown system
 POSCAR =  ce17522_1

 Startparameter for this run:
   NWRITE =      1    write-flag & timer
   PREC   = accura    normal or accurate (medium, high low for compatibility)
   ISTART =      0    job   : 0-new  1-cont  2-samecut
   ICHARG =      2    charge: 1-file 2-atom 10-const
   ISPIN  =      2    spin polarized calculation?
   LNONCOLLINEAR =      F non collinear calculations
   LSORBIT =      F    spin-orbit coupling
   INIWAV =      1    electr: 0-lowe 1-rand  2-diag
   LASPH  =      F    aspherical Exc in radial PAW
   METAGGA=      F    non-selfconsistent MetaGGA calc.

 Electronic Relaxation 1
   ENCUT  =  500.0 eV  36.75 Ry    6.06 a.u.  10.15 18.45 17.70*2*pi/ulx,y,z
   ENINI  =  500.0     initial cutoff
   ENAUG  =  628.9 eV  augmentation charge cutoff
   NELM   =     80;   NELMIN=  2; NELMDL= -5     # of ELM steps
   EDIFF  = 0.1E-04   stopping-criterion for ELM
   LREAL  =      T    real-space projection
   NLSPLINE    = F    spline interpolate recip. space projectors
   LCOMPAT=      F    compatible to vasp.4.4
   GGA_COMPAT  = T    GGA compatible to vasp.4.4-vasp.4.6
   LMAXPAW     = -100 max onsite density
   LMAXMIX     =    2 max onsite mixed and CHGCAR
   VOSKOWN=      1    Vosko Wilk Nusair interpolation
   ROPT   =   -0.00025  -0.00025  -0.00025
 Ionic relaxation
   EDIFFG = -.2E-01   stopping-criterion for IOM
   NSW    =     20    number of steps for IOM
   NBLOCK =      1;   KBLOCK =     20    inner block; outer block
   IBRION =      1    ionic relax: 0-MD 1-quasi-New 2-CG
   NFREE  =      0    steps in history (QN), initial steepest desc. (CG)
   ISIF   =      3    stress and relaxation
   IWAVPR =     11    prediction:  0-non 1-charg 2-wave 3-comb
[...]
     0.000000000  5.568816106  0.000000000     0.000000000  0.179571381  0.000000000
    -3.508771202  0.000000000  9.504535336    -0.000997434  0.000000000  0.104844708
     9.700177410  0.000000000  0.092282042     0.102730104  0.000000000  0.037924677

  length of vectors
     5.568816106 10.131518509  9.700616360     0.179571381  0.104849453  0.109506874

 FORCES acting on ions
    electron-ion (+dipol)            ewald-force                    non-local-force                 convergence-correction
   0.154E+00 0.195E+00 -.825E+00   -.150E+00 -.183E+00 0.818E+00   -.449E-02 -.156E-01 0.132E-01   0.225E-03 -.164E-04 0.480E-02
   -.154E+00 0.195E+00 0.825E+00   0.150E+00 -.183E+00 -.818E+00   0.449E-02 -.156E-01 -.132E-01   -.225E-03 -.164E-04 -.480E-02
   -.673E-05 0.264E+02 0.126E-05   0.355E-13 -.268E+02 -.497E-13   0.000E+00 0.387E+00 0.258E-25   0.696E-11 0.693E-02 -.853E-13
   -.295E+02 -.822E-02 -.660E+02   0.299E+02 0.107E-01 0.667E+02   -.356E+00 -.381E-03 -.718E+00   0.164E-01 -.319E-03 0.186E-02
   0.295E+02 -.822E-02 0.660E+02   -.299E+02 0.107E-01 -.667E+02   0.356E+00 -.381E-03 0.718E+00   -.164E-01 -.319E-03 -.186E-02
   0.123E+02 0.119E-01 0.306E+01   -.124E+02 -.148E-01 -.325E+01   0.101E+00 0.404E-03 0.193E+00   -.234E-01 0.392E-03 0.599E-02
   -.123E+02 0.119E-01 -.306E+01   0.124E+02 -.148E-01 0.325E+01   -.101E+00 0.404E-03 -.193E+00   0.234E-01 0.392E-03 -.599E-02
   0.962E-05 -.264E+02 -.181E-05   0.000E+00 0.268E+02 -.853E-13   0.000E+00 -.390E+00 0.646E-26   0.517E-11 -.805E-02 -.504E-12
   -.160E-05 -.427E+01 0.335E-06   -.355E-13 0.424E+01 -.249E-13   0.000E+00 0.367E-01 0.565E-26   0.151E-11 -.995E-02 -.268E-11
   0.401E-05 0.427E+01 -.838E-06   -.497E-13 -.424E+01 0.000E+00   0.000E+00 -.365E-01 0.210E-25   -.562E-11 0.100E-01 -.234E-11
   -.102E-05 -.414E+01 0.212E-06   0.693E-13 0.410E+01 0.133E-13   0.000E+00 0.367E-01 -.525E-26   -.421E-11 -.400E-02 0.936E-13
   0.295E+02 -.717E-03 0.656E+02   -.299E+02 0.282E-02 -.663E+02   0.355E+00 -.692E-03 0.709E+00   -.116E-01 -.776E-03 -.156E-02
   -.295E+02 -.717E-03 -.656E+02   0.299E+02 0.282E-02 0.663E+02   -.355E+00 -.692E-03 -.709E+00   0.116E-01 -.776E-03 0.156E-02
   -.124E+02 -.184E-01 -.272E+01   0.125E+02 0.165E-01 0.291E+01   -.105E+00 0.754E-03 -.187E+00   0.158E-01 0.100E-02 -.386E-02
   0.124E+02 -.184E-01 0.272E+01   -.125E+02 0.165E-01 -.291E+01   0.105E+00 0.754E-03 0.187E+00   -.158E-01 0.100E-02 0.386E-02
   0.431E-05 0.415E+01 -.898E-06   -.799E-14 -.412E+01 0.844E-14   0.000E+00 -.356E-01 0.501E-25   -.256E-11 0.411E-02 0.280E-12
   -.627E-05 0.262E+02 0.118E-05   -.488E-14 -.266E+02 0.853E-13   0.103E-24 0.383E+00 -.226E-25   0.272E-11 0.588E-02 0.285E-11
   0.998E-05 -.262E+02 -.188E-05   -.271E-13 0.266E+02 -.121E-12   0.000E+00 -.386E+00 -.178E-25   0.101E-11 -.573E-02 0.300E-11
   0.158E+02 0.236E+01 0.399E+03   -.164E+02 -.297E+01 -.426E+03   0.611E+00 0.604E+00 0.272E+02   0.306E-02 -.134E-02 0.454E-02
   -.158E+02 0.236E+01 -.399E+03   0.164E+02 -.297E+01 0.426E+03   -.611E+00 0.604E+00 -.272E+02   -.306E-02 -.134E-02 -.454E-02
   -.159E+02 0.234E+01 -.399E+03   0.165E+02 -.294E+01 0.426E+03   -.623E+00 0.604E+00 -.271E+02   0.239E-01 -.307E-02 0.570E-02
   0.159E+02 0.234E+01 0.399E+03   -.165E+02 -.294E+01 -.426E+03   0.623E+00 0.604E+00 0.271E+02   -.239E-01 -.307E-02 -.570E-02
   0.457E+02 0.107E+00 0.379E+03   -.488E+02 -.105E+00 -.401E+03   0.312E+01 0.683E-02 0.221E+02   -.124E-01 -.964E-02 -.240E-02
   -.457E+02 0.107E+00 -.379E+03   0.488E+02 -.105E+00 0.401E+03   -.312E+01 0.683E-02 -.221E+02   0.124E-01 -.964E-02 0.240E-02
   -.220E+02 -.867E-01 -.395E+03   0.229E+02 0.809E-01 0.421E+03   -.977E+00 -.378E-02 -.266E+02   0.137E-01 0.993E-02 0.338E-02
   0.220E+02 -.867E-01 0.395E+03   -.229E+02 0.809E-01 -.421E+03   0.977E+00 -.378E-02 0.266E+02   -.137E-01 0.993E-02 -.338E-02
   -.458E+02 0.615E-01 -.379E+03   0.489E+02 -.797E-01 0.401E+03   -.315E+01 0.829E-02 -.220E+02   0.316E-02 0.106E-01 0.188E-01
   0.458E+02 0.615E-01 0.379E+03   -.489E+02 -.797E-01 -.401E+03   0.315E+01 0.829E-02 0.220E+02   -.316E-02 0.106E-01 -.188E-01
   0.219E+02 -.450E-01 0.395E+03   -.228E+02 0.600E-01 -.421E+03   0.972E+00 -.498E-02 0.266E+02   -.558E-02 -.107E-01 -.187E-01
   -.219E+02 -.450E-01 -.395E+03   0.228E+02 0.600E-01 0.421E+03   -.972E+00 -.498E-02 -.266E+02   0.558E-02 -.107E-01 0.187E-01
   0.158E+02 -.240E+01 0.399E+03   -.164E+02 0.301E+01 -.426E+03   0.607E+00 -.611E+00 0.271E+02   -.561E-02 0.120E-02 0.871E-02
   -.158E+02 -.240E+01 -.399E+03   0.164E+02 0.301E+01 0.426E+03   -.607E+00 -.611E+00 -.271E+02   0.561E-02 0.120E-02 -.871E-02
   -.157E+02 -.238E+01 -.399E+03   0.163E+02 0.299E+01 0.426E+03   -.614E+00 -.609E+00 -.271E+02   0.138E-01 0.304E-02 0.104E-01
   0.157E+02 -.238E+01 0.399E+03   -.163E+02 0.299E+01 -.426E+03   0.614E+00 -.609E+00 0.271E+02   -.138E-01 0.304E-02 -.104E-01
   -.260E+02 0.279E+02 0.361E+03   0.278E+02 -.297E+02 -.384E+03   -.182E+01 0.181E+01 0.226E+02   0.847E-02 -.379E-03 0.103E-01
   0.260E+02 0.279E+02 -.361E+03   -.278E+02 -.297E+02 0.384E+03   0.182E+01 0.181E+01 -.226E+02   -.847E-02 -.379E-03 -.103E-01
   0.262E+02 0.280E+02 -.361E+03   -.281E+02 -.298E+02 0.384E+03   0.184E+01 0.182E+01 -.226E+02   -.144E-01 -.150E-02 0.164E-01
   -.262E+02 0.280E+02 0.361E+03   0.281E+02 -.298E+02 -.384E+03   -.184E+01 0.182E+01 0.226E+02   0.144E-01 -.150E-02 -.164E-01
   -.972E+01 0.123E-01 0.385E+03   0.957E+01 -.211E-01 -.412E+03   0.154E+00 0.284E-02 0.268E+02   -.267E-03 0.720E-02 0.857E-02
   0.972E+01 0.123E-01 -.385E+03   -.957E+01 -.211E-01 0.412E+03   -.154E+00 0.284E-02 -.268E+02   0.267E-03 0.720E-02 -.857E-02
   0.371E+01 -.255E-02 -.391E+03   -.382E+01 0.886E-02 0.418E+03   0.105E+00 0.786E-03 -.271E+02   -.238E-03 -.743E-02 -.112E-01
   -.371E+01 -.255E-02 0.391E+03   0.382E+01 0.886E-02 -.418E+03   -.105E+00 0.786E-03 0.271E+02   0.238E-03 -.743E-02 0.112E-01
   0.944E+01 0.538E-01 -.386E+03   -.925E+01 -.461E-01 0.412E+03   -.174E+00 0.158E-02 -.268E+02   -.166E-01 -.948E-02 -.759E-03
   -.944E+01 0.538E-01 0.386E+03   0.925E+01 -.461E-01 -.412E+03   0.174E+00 0.158E-02 0.268E+02   0.166E-01 -.948E-02 0.759E-03
   -.337E+01 -.393E-01 0.391E+03   0.343E+01 0.287E-01 -.418E+03   -.802E-01 0.202E-02 0.271E+02   0.156E-01 0.936E-02 0.414E-02
   0.337E+01 -.393E-01 -.391E+03   -.343E+01 0.287E-01 0.418E+03   0.802E-01 0.202E-02 -.271E+02   -.156E-01 0.936E-02 -.414E-02
   -.262E+02 -.279E+02 0.361E+03   0.280E+02 0.297E+02 -.384E+03   -.184E+01 -.181E+01 0.226E+02   0.192E-01 -.165E-05 0.471E-02
   0.262E+02 -.279E+02 -.361E+03   -.280E+02 0.297E+02 0.384E+03   0.184E+01 -.181E+01 -.226E+02   -.192E-01 -.165E-05 -.471E-02
   0.263E+02 -.280E+02 -.361E+03   -.282E+02 0.299E+02 0.384E+03   0.186E+01 -.183E+01 -.225E+02   -.311E-02 0.182E-02 0.978E-02
   -.263E+02 -.280E+02 0.361E+03   0.282E+02 0.299E+02 -.384E+03   -.186E+01 -.183E+01 0.225E+02   0.311E-02 0.182E-02 -.978E-02
   0.242E-04 0.677E-01 -.534E-05   0.142E-13 0.135E-12 -.568E-13   0.000E+00 -.655E-01 -.711E-14   0.211E-11 -.116E-02 -.352E-11

 POSITION                                       TOTAL-FORCE (eV/Angst)
      8.82259      1.39900      2.46535        -0.000981     -0.003355      0.010583
     -2.63118      1.39900      7.13147         0.000981     -0.003355     -0.010583
      0.00000      5.56241     -0.00000        -0.000000     -0.006622      0.000000
      2.43098      1.39341      0.07352         0.003941      0.001722     -0.007256
      3.76042      1.39341      9.52330        -0.003941      0.001722      0.007256
      3.76337      4.17796      9.57170        -0.006945     -0.002132      0.009024
      2.42804      4.17796      0.02512         0.006945     -0.002132     -0.009024
      0.00000      2.79373     -0.00000        -0.000000      0.004739      0.000000
      4.85009      5.56738      0.04614        -0.000000      0.001516      0.000000
      4.85009      2.78801      0.04614        -0.000000      0.000021      0.000000
      3.09570      5.56791      4.79841        -0.000000     -0.004229      0.000000
      5.51511      1.39387      4.77228         0.001807      0.000611      0.002330
      0.67630      1.39387      4.82453        -0.001807      0.000611     -0.002330
      0.67341      4.17836      4.77623         0.001944     -0.000161     -0.004943
      5.51799      4.17836      4.82059        -0.001944     -0.000161      0.004943
      3.09570      2.78828      4.79841        -0.000000      0.006530      0.000000
     -1.75439      5.56285      4.75227        -0.000000     -0.002066      0.000000
     -1.75439      2.79412      4.75227        -0.000000      0.000916      0.000000
      4.74915      5.55438      3.86737        -0.002230     -0.004321      0.017989
      1.44226      5.55438      5.72945         0.002230     -0.004321     -0.017989
      3.19727      5.55389      0.97804         0.002023     -0.003954     -0.017401
      2.99413      5.55389      8.61878        -0.002023     -0.003954      0.017401
      7.22491      1.39404      3.86712        -0.007543     -0.001147      0.011420
     -1.03350      1.39404      5.72970         0.007543     -0.001147     -0.011420
     -0.99932      4.17846      5.69656         0.009638      0.000362     -0.016021
      7.19073      4.17846      3.90026        -0.009638      0.000362      0.016021
      0.72023      1.39361      0.97793         0.007721      0.000580     -0.009958
      5.47118      1.39361      8.61888        -0.007721      0.000580      0.009958
      5.43685      4.17802      8.65195        -0.008769     -0.000808      0.016592
      0.75455      4.17802      0.94487         0.008769     -0.000808     -0.016592
      4.74915      2.80210      3.86732        -0.002910      0.004629      0.019157
      1.44226      2.80210      5.72950         0.002910      0.004629     -0.019157
      3.19766      2.80172      0.97805        -0.002674      0.005723     -0.017099
      2.99374      2.80172      8.61877         0.002674      0.005723      0.017099
     -0.09796      0.02835      3.84846        -0.003719      0.004591     -0.000258
      6.28937      0.02835      5.74836         0.003719      0.004591      0.000258
      8.04333      0.02784      0.99496         0.004429      0.005945      0.001649
     -1.85192      0.02784      8.60185        -0.004429      0.005945     -0.001649
      2.30717      1.39371      3.88312         0.002690      0.001215      0.003528
      3.88424      1.39371      5.71370        -0.002690      0.001215     -0.003528
      3.86904      4.17807      5.72664        -0.004748     -0.000348     -0.000937
      2.32237      4.17807      3.87018         0.004748     -0.000348      0.000937
      5.63835      1.39331      0.96140         0.002141     -0.000253     -0.007710
      0.55306      1.39331      8.63542        -0.002141     -0.000253      0.007710
      0.56821      4.17769      8.62253        -0.000254      0.000716      0.002505
      5.62319      4.17769      0.97429         0.000254      0.000716     -0.002505
     -0.09801      2.75972      3.84839        -0.001714     -0.004232     -0.001567
      6.28942      2.75972      5.74842         0.001714     -0.004232      0.001567
      8.04297      2.75931      0.99502         0.008821     -0.005785      0.000907
     -1.85156      2.75931      8.60180        -0.008821     -0.005785     -0.000907
    total drift:                                0.000024      0.001076     -0.000005

  FREE ENERGIE OF THE ION-ELECTRON SYSTEM (eV)
  free  energy   TOTEN  =      -314.0031253577 eV

  energy  without entropy=     -313.9936287812  energy(sigma->0) =     -313.99837707

 d Force = 0.2175715E-03[ 0.180E-03, 0.255E-03]  d Energy = 0.4762148E-03-0.259E-03
 d Force =-0.4134294E+01[-0.414E+01,-0.413E+01]  d Ewald  =-0.1256450E+02 0.843E+01

 Quasi-Newton relaxation of ions (Broydens 2nd method)
  g(Force)  = 0.311E-03   g(Stress)= 0.265E-03

 retain information from N=  2 steps
 eigenvalues of (default step * inverse Hessian matrix)
  average eigenvalue of G=   0.6928
 eigenvalue spectrum of G is  0.6928  0.6928

 reached required accuracy - stopping structural energy minimisation

volume of typ            1:     3.0 %

[...]

volume of typ            3:    10.1 %

total charge

# of ion       s       p       d       tot
    1        2.062   0.199   0.076   2.338
    2        2.062   0.199   0.076   2.338
    3        0.303   0.432   7.839   8.574
    4        0.298   0.420   7.834   8.552
    5        0.298   0.420   7.834   8.552
    6        0.296   0.415   7.826   8.538
    7        0.296   0.415   7.826   8.538
    8        0.303   0.432   7.838   8.573
    9        0.301   0.426   7.827   8.555
   10        0.301   0.426   7.828   8.555
   11        0.301   0.426   7.828   8.555
   12        0.299   0.420   7.833   8.552
   13        0.299   0.420   7.833   8.552
   14        0.296   0.415   7.826   8.538
   15        0.296   0.415   7.826   8.538
   16        0.301   0.426   7.828   8.555
   17        0.303   0.432   7.838   8.573
   18        0.303   0.432   7.839   8.574
   19        1.285   2.724   0.008   4.017
   20        1.285   2.724   0.008   4.017
   21        1.285   2.724   0.008   4.017
   22        1.285   2.724   0.008   4.017
   23        1.273   2.757   0.007   4.037
   24        1.273   2.757   0.007   4.037
   25        1.283   2.731   0.008   4.022
   26        1.283   2.731   0.008   4.022
   27        1.273   2.757   0.007   4.037
   28        1.273   2.757   0.007   4.037
   29        1.283   2.731   0.008   4.022
   30        1.283   2.731   0.008   4.022
   31        1.285   2.724   0.008   4.017
   32        1.285   2.724   0.008   4.017
   33        1.285   2.724   0.008   4.017
   34        1.285   2.724   0.008   4.017
   35        1.273   2.760   0.008   4.041
   36        1.273   2.760   0.008   4.041
   37        1.273   2.760   0.008   4.041
   38        1.273   2.760   0.008   4.041
   39        1.284   2.728   0.008   4.020
   40        1.284   2.728   0.008   4.020
   41        1.284   2.729   0.009   4.022
   42        1.284   2.729   0.009   4.022
   43        1.284   2.728   0.008   4.020
   44        1.284   2.728   0.008   4.020
   45        1.285   2.729   0.009   4.022
   46        1.285   2.729   0.009   4.022
   47        1.273   2.761   0.008   4.041
   48        1.273   2.761   0.008   4.041
   49        1.273   2.761   0.008   4.041
   50        1.273   2.761   0.008   4.041
tot          49.88   94.83  125.71  270.42

magnetization (x)

# of ion       s       p       d       tot
    1        0.003   0.001   0.000   0.003
    2        0.003   0.001   0.000   0.003
    3       -0.000   0.001   0.094   0.095
    4        0.000   0.001   0.095   0.096
    5        0.000   0.001   0.095   0.096
    6       -0.000   0.001   0.080   0.080
    7       -0.000   0.001   0.080   0.080
    8       -0.000   0.000   0.095   0.096
    9       -0.000   0.001   0.075   0.076
   10       -0.000   0.001   0.075   0.076
   11       -0.000   0.001   0.076   0.076
   12        0.000   0.001   0.094   0.095
   13        0.000   0.001   0.094   0.095
   14       -0.000   0.001   0.079   0.079
   15       -0.000   0.001   0.079   0.079
   16       -0.000   0.001   0.076   0.076
   17       -0.000   0.000   0.095   0.095
   18       -0.000   0.000   0.095   0.095
   19        0.002   0.006   0.000   0.008
   20        0.002   0.006   0.000   0.008
   21        0.002   0.006   0.000   0.008
   22        0.002   0.006   0.000   0.008
   23        0.002   0.007   0.000   0.010
   24        0.002   0.007   0.000   0.010
   25        0.002   0.005   0.000   0.007
   26        0.002   0.005   0.000   0.007
   27        0.003   0.008   0.000   0.010
   28        0.003   0.008   0.000   0.010
   29        0.002   0.005   0.000   0.007
   30        0.002   0.005   0.000   0.007
   31        0.002   0.006   0.000   0.008
   32        0.002   0.006   0.000   0.008
   33        0.002   0.006   0.000   0.008
   34        0.002   0.006   0.000   0.008
   35        0.002   0.006   0.000   0.009
   36        0.002   0.006   0.000   0.009
   37        0.002   0.007   0.000   0.009
   38        0.002   0.007   0.000   0.009
   39        0.002   0.008   0.000   0.010
   40        0.002   0.008   0.000   0.010
   41        0.002   0.006   0.000   0.008
   42        0.002   0.006   0.000   0.008
   43        0.002   0.008   0.000   0.010
   44        0.002   0.008   0.000   0.010
   45        0.002   0.006   0.000   0.008
   46        0.002   0.006   0.000   0.008
   47        0.002   0.007   0.000   0.009
   48        0.002   0.007   0.000   0.009
   49        0.002   0.007   0.000   0.009
   50        0.002   0.007   0.000   0.009
tot           0.07    0.22    1.38    1.67