 vasp.5.4.4.18Apr17-6-g9f103f2a35 (build May 12 2020 05:39:39) gamma-only

 MD_VERSION_INFO: Compiled 2020-05-12T12:39:39-UTC in devlin.sd.materialsdesign.
 com:/home/medea2/data/build/wwolf/vasp-gpu5.4.4/13047/x86_64/src/src/build/gam
 from svn 13047

 executed on                        Lin64 date 2023.03.07  02:25:42

 INCAR:
 POTCAR:    PAW_PBE Li_sv 10Sep2004
 POTCAR:    PAW_PBE Ni 02Aug2007
 POTCAR:    PAW_PBE O 08Apr2002

 POTCAR:    PAW_PBE Li_sv 10Sep2004

 POTCAR:    PAW_PBE Ni 02Aug2007

 POTCAR:    PAW_PBE O 08Apr2002

 Optimization of the real space projectors (new method)

 maximal supplied QI-value         = 22.11
 optimisation between [QCUT,QGAM] = [ 11.28, 22.77] = [ 35.61,145.23] Ry
 Optimized for a Real-space Cutoff    1.10 Angstroem

   l    n(q)    QCUT    max X(q) W(low)/X(q) W(high)/X(q)  e(spline)
   0      7    11.276    10.506    0.54E-04    0.58E-04    0.16E-07
   0      7    11.276     8.367    0.11E-03    0.14E-03    0.35E-07
   1      7    11.276     8.983    0.23E-03    0.43E-03    0.86E-07
 Optimization of the real space projectors (new method)

[...]

   l    n(q)    QCUT    max X(q) W(low)/X(q) W(high)/X(q)  e(spline)
   2      9    11.376    60.317    0.17E-03    0.16E-04    0.16E-06
   2      9    11.376    55.921    0.17E-03    0.16E-04    0.17E-06
   0     10    11.376    51.690    0.45E-04    0.60E-04    0.21E-06
   0     10    11.376    30.015    0.37E-04    0.55E-04    0.19E-06
   1     10    11.376    18.849    0.83E-04    0.11E-03    0.92E-07
   1     10    11.376    14.624    0.69E-04    0.92E-04    0.82E-07
 Optimization of the real space projectors (new method)

 maximal supplied QI-value         = 24.76
 optimisation between [QCUT,QGAM] = [ 11.39, 22.77] = [ 36.31,145.25] Ry
 Optimized for a Real-space Cutoff    1.10 Angstroem

   l    n(q)    QCUT    max X(q) W(low)/X(q) W(high)/X(q)  e(spline)
   0      7    11.387    20.381    0.22E-03    0.48E-03    0.18E-06
   0      7    11.387    15.268    0.22E-03    0.52E-03    0.19E-06
   1      7    11.387     5.964    0.22E-03    0.73E-03    0.24E-06
   1      7    11.387     5.382    0.19E-03    0.60E-03    0.21E-06

  PAW_PBE Li_sv 10Sep2004               :
  PAW_PBE Ni 02Aug2007                  :
  PAW_PBE O 08Apr2002                   :

 POSCAR: ce14975_1
  positions in direct lattice
 exchange correlation table for  LEXCH =       14
   RHO(1)=    0.500       N(1)  =     2000
   RHO(2)=  100.500       N(2)  =     4000

 ion  position               nearest neighbor table
   1  0.250  0.250  0.500-  47 2.10  43 2.11  35 2.15  37 2.15  23 2.15  25 2.15
   2  0.250  0.750  0.500-  48 2.10  44 2.11  36 2.15  38 2.15  24 2.15  26 2.15
   3  0.250  0.250  0.000-  31 2.09  27 2.09  51 2.16  39 2.16  41 2.17  53 2.17
   4  0.250  0.750  1.000-  32 2.09  28 2.09  52 2.16  40 2.16  42 2.17  54 2.17
   5  0.750  0.750  0.000-  29 2.12  33 2.12  40 2.15  42 2.15  52 2.15  54 2.15
   6  0.750  0.250  1.000-  30 2.12  34 2.12  39 2.15  41 2.15  51 2.15  53 2.15
   7  0.000  0.000  0.000-  31 1.84  32 1.84  33 1.84  34 1.84  41 1.90  42 1.90  12 2.78  12 2.78
                             9 2.82   8 2.82  11 2.82  10 2.82
   8  0.250  0.998  0.249-  25 1.84  37 1.84  42 1.87  54 1.87  48 2.00  31 2.04  11 2.78  11 2.78
                            13 2.82   7 2.82  14 2.82  12 2.82
   9  0.250  0.002  0.751-  26 1.84  38 1.84  41 1.87  53 1.87  47 2.00  32 2.04  10 2.78  10 2.78
                            13 2.82   7 2.82  14 2.82  12 2.82
  10  0.750  0.997  0.748-  26 1.86  38 1.86  41 1.87  53 1.87  50 1.93  33 1.99   9 2.78   9 2.78
                            13 2.80  14 2.80   7 2.82  12 2.82
  11  0.750  0.003  0.252-  25 1.86  37 1.86  42 1.87  54 1.87  49 1.93  34 1.99   8 2.78   8 2.78
                            13 2.80  14 2.80   7 2.82  12 2.82
  12  0.500  0.000  0.000-  31 1.84  32 1.84  33 1.85  34 1.85  53 1.90  54 1.90   7 2.78   7 2.78
                             9 2.82   8 2.82  11 2.82  10 2.82
  13  0.999  0.000  0.500-  49 1.84  50 1.84  47 1.84  48 1.84  25 1.90  26 1.90  14 2.77  14 2.79
                            11 2.80  10 2.80   9 2.82   8 2.82
  14  0.501  0.000  0.500-  49 1.84  50 1.84  47 1.84  48 1.84  37 1.90  38 1.90  13 2.77  13 2.79
                            10 2.80  11 2.80   8 2.82   9 2.82
  15  0.999  0.500  0.500-  45 1.84  46 1.84  43 1.84  44 1.84  23 1.90  24 1.90  20 2.77  20 2.79
                            19 2.81  18 2.81  17 2.82  16 2.82
  16  0.250  0.502  0.751-  23 1.84  35 1.84  52 1.87  40 1.87  44 2.00  27 2.03  19 2.78  19 2.78
                            22 2.82  21 2.82  20 2.82  15 2.82
  17  0.250  0.498  0.249-  24 1.84  36 1.84  51 1.87  39 1.87  43 2.00  28 2.03  18 2.78  18 2.78
                            22 2.82  21 2.82  20 2.82  15 2.82
  18  0.750  0.503  0.252-  24 1.86  36 1.86  51 1.87  39 1.87  46 1.93  29 1.99  17 2.78  17 2.78
                            20 2.81  15 2.81  22 2.82  21 2.82
  19  0.750  0.497  0.748-  23 1.86  35 1.86  52 1.87  40 1.87  45 1.93  30 1.99  16 2.78  16 2.78
                            20 2.81  15 2.81  22 2.82  21 2.82
  20  0.501  0.500  0.500-  45 1.84  46 1.84  43 1.84  44 1.84  35 1.90  36 1.90  15 2.77  15 2.79
                            19 2.81  18 2.81  17 2.82  16 2.82
  21  1.000  0.500  0.000-  27 1.84  28 1.84  29 1.84  30 1.84  39 1.90  40 1.90  22 2.78  22 2.78
                            17 2.82  16 2.82  19 2.82  18 2.82
  22  0.500  0.500  0.000-  27 1.84  28 1.84  29 1.84  30 1.84  51 1.90  52 1.90  21 2.78  21 2.78
                            16 2.82  17 2.82  18 2.82  19 2.82
  23  0.005  0.403  0.635-  16 1.84  19 1.86  15 1.90   1 2.15
  24  0.005  0.597  0.365-  17 1.84  18 1.86  15 1.90   2 2.15
  25  0.005  0.097  0.365-   8 1.84  11 1.86  13 1.90   1 2.15
  26  0.005  0.903  0.635-   9 1.84  10 1.86  13 1.90   2 2.15
  27  0.250  0.397  0.894-  22 1.84  21 1.84  16 2.03   3 2.09
  28  0.250  0.603  0.106-  22 1.84  21 1.84  17 2.03   4 2.09
  29  0.750  0.602  0.109-  22 1.84  21 1.84  18 1.99   5 2.12
  30  0.750  0.398  0.891-  22 1.84  21 1.84  19 1.99   6 2.12
  31  0.250  0.104  0.106-   7 1.84  12 1.84   8 2.04   3 2.09
  32  0.250  0.896  0.894-   7 1.84  12 1.84   9 2.04   4 2.09
  33  0.750  0.898  0.891-   7 1.84  12 1.85  10 1.99   5 2.12
  34  0.750  0.102  0.109-   7 1.84  12 1.85  11 1.99   6 2.12
  35  0.495  0.403  0.635-  16 1.84  19 1.86  20 1.90   1 2.15
  36  0.495  0.597  0.365-  17 1.84  18 1.86  20 1.90   2 2.15
  37  0.495  0.097  0.365-   8 1.84  11 1.86  14 1.90   1 2.15
  38  0.495  0.903  0.635-   9 1.84  10 1.86  14 1.90   2 2.15
  39  0.997  0.401  0.133-  17 1.87  18 1.87  21 1.90   6 2.15   3 2.16
  40  0.997  0.599  0.867-  16 1.87  19 1.87  21 1.90   5 2.15   4 2.16
  41  0.998  0.099  0.867-   9 1.87  10 1.87   7 1.90   6 2.15   3 2.17
  42  0.998  0.901  0.133-   8 1.87  11 1.87   7 1.90   5 2.15   4 2.17
  43  0.250  0.398  0.393-  20 1.84  15 1.84  17 2.00   1 2.11
  44  0.250  0.602  0.607-  20 1.84  15 1.84  16 2.00   2 2.11
  45  0.750  0.598  0.612-  15 1.84  20 1.84  19 1.93
  46  0.750  0.402  0.388-  15 1.84  20 1.84  18 1.93
  47  0.250  0.103  0.607-  14 1.84  13 1.84   9 2.00   1 2.10
  48  0.250  0.897  0.393-  14 1.84  13 1.84   8 2.00   2 2.10
  49  0.750  0.902  0.388-  13 1.84  14 1.84  11 1.93
  50  0.750  0.098  0.612-  13 1.84  14 1.84  10 1.93
  51  0.503  0.401  0.133-  17 1.87  18 1.87  22 1.90   6 2.15   3 2.16
  52  0.503  0.599  0.867-  16 1.87  19 1.87  22 1.90   5 2.15   4 2.16
  53  0.503  0.099  0.867-   9 1.87  10 1.87  12 1.90   6 2.15   3 2.17
  54  0.503  0.901  0.133-   8 1.87  11 1.87  12 1.90   5 2.15   4 2.17

  LATTYP: Found a simple monoclinic cell.
 ALAT       =    11.5193454633
 B/A-ratio  =     0.4822809007
 C/A-ratio  =     1.6872243198
 COS(beta)  =    -0.9073640148

  Lattice vectors:

 A1 = (  -6.2603892247,   0.0000000000,  -9.6696869990)
 A2 = (   0.0000000000,  -5.5555603059,   0.0000000000)
 A3 = (   2.7262847550,   0.0000000000,  19.2435593411)

Analysis of symmetry for initial positions (statically):
 Subroutine PRICEL returns:
 Original cell was already a primitive cell.

 Routine SETGRP: Setting up the symmetry group for a
 simple monoclinic supercell.

 Subroutine GETGRP returns: Found  2 space group operations
 (whereof  2 operations were pure point group operations)
 out of a pool of  4 trial point group operations.

The static configuration has the point symmetry C_2 .

Analysis of symmetry for dynamics (positions and initial velocities):
 Subroutine PRICEL returns:
 Original cell was already a primitive cell.

[...]

The dynamic configuration has the point symmetry C_2 .

Analysis of structural, dynamic, and magnetic symmetry:
 Subroutine PRICEL returns:
 Original cell was already a primitive cell.

 Routine SETGRP: Setting up the symmetry group for a
 simple monoclinic supercell.

 Subroutine GETGRP returns: Found  2 space group operations
 (whereof  2 operations were pure point group operations)
 out of a pool of  4 trial point group operations.

The magnetic configuration has the point symmetry C_2 .

 Subroutine INISYM returns: Found  2 space group operations
 (whereof  2 operations are pure point group operations),
 and found     1 'primitive' translations

 KPOINTS: Automatic mesh

Automatic generation of k-mesh.
Space group operators:
 irot       det(A)        alpha          n_x          n_y          n_z        tau_x        tau_y        tau_z
    1     1.000000     0.000001     1.000000     0.000000     0.000000     0.000000     0.000000     0.000000
    2     1.000000   179.999999     0.000000     1.000000     0.000000     0.000000     0.000000     0.000000

 Subroutine IBZKPT returns following result:

 Found      1 irreducible k-points:

 Following reciprocal coordinates:
            Coordinates               Weight
  0.000000  0.000000  0.000000      1.000000

 Following cartesian coordinates:
            Coordinates               Weight
  0.000000  0.000000  0.000000      1.000000

 SYSTEM =  unknown system
 POSCAR =  ce14975_1

 Startparameter for this run:
   NWRITE =      1    write-flag & timer
   PREC   = accura    normal or accurate (medium, high low for compatibility)
   ISTART =      0    job   : 0-new  1-cont  2-samecut
   ICHARG =      2    charge: 1-file 2-atom 10-const
   ISPIN  =      2    spin polarized calculation?
   LNONCOLLINEAR =      F non collinear calculations
   LSORBIT =      F    spin-orbit coupling
   INIWAV =      1    electr: 0-lowe 1-rand  2-diag
   LASPH  =      F    aspherical Exc in radial PAW
   METAGGA=      F    non-selfconsistent MetaGGA calc.

 Electronic Relaxation 1
   ENCUT  =  500.0 eV  36.75 Ry    6.06 a.u.  10.13 18.61 17.86*2*pi/ulx,y,z
   ENINI  =  500.0     initial cutoff
   ENAUG  =  628.9 eV  augmentation charge cutoff
   NELM   =     80;   NELMIN=  2; NELMDL= -5     # of ELM steps
   EDIFF  = 0.1E-04   stopping-criterion for ELM
   LREAL  =      T    real-space projection
   NLSPLINE    = F    spline interpolate recip. space projectors
   LCOMPAT=      F    compatible to vasp.4.4
   GGA_COMPAT  = T    GGA compatible to vasp.4.4-vasp.4.6
   LMAXPAW     = -100 max onsite density
[...]
   -.973E-06 0.160E+01 0.194E-06   -.426E-13 -.145E+01 -.213E-13   0.000E+00 -.132E+00 0.226E-25   0.249E-11 -.964E-02 0.473E-12
   -.179E+02 -.112E+00 0.171E+01   0.184E+02 0.118E+00 -.144E+01   -.495E+00 -.365E-04 -.274E+00   -.415E-02 -.890E-03 -.121E-01
   0.179E+02 -.112E+00 -.171E+01   -.184E+02 0.118E+00 0.144E+01   0.495E+00 -.365E-04 0.274E+00   0.415E-02 -.890E-03 0.121E-01
   0.321E+02 0.108E+00 0.557E+02   -.327E+02 -.115E+00 -.563E+02   0.518E+00 0.227E-03 0.642E+00   0.543E-02 0.976E-03 0.119E-01
   -.321E+02 0.108E+00 -.557E+02   0.327E+02 -.115E+00 0.563E+02   -.518E+00 0.227E-03 -.642E+00   -.543E-02 0.976E-03 -.119E-01
   0.168E-05 -.161E+01 -.335E-06   -.568E-13 0.147E+01 -.426E-13   0.000E+00 0.132E+00 0.226E-25   0.263E-11 0.958E-02 0.913E-13
   -.609E-05 0.306E+02 0.120E-05   -.568E-13 -.308E+02 0.497E-13   -.517E-25 0.162E+00 -.464E-25   -.148E-11 -.644E-02 0.675E-12
   0.666E-05 -.306E+02 -.132E-05   -.568E-13 0.308E+02 -.853E-13   0.000E+00 -.161E+00 0.485E-25   -.289E-11 0.676E-02 0.348E-12
   -.648E-05 0.307E+02 0.128E-05   0.657E-13 -.309E+02 0.173E-13   -.517E-25 0.161E+00 -.242E-25   -.771E-11 0.217E-01 -.274E-11
   0.179E+02 0.475E-01 -.170E+01   -.184E+02 -.358E-01 0.142E+01   0.494E+00 0.373E-03 0.272E+00   0.367E-01 -.133E-01 0.110E-01
   -.179E+02 0.475E-01 0.170E+01   0.184E+02 -.358E-01 -.142E+01   -.494E+00 0.373E-03 -.272E+00   -.367E-01 -.133E-01 -.110E-01
   -.320E+02 -.316E-01 -.556E+02   0.325E+02 0.196E-01 0.562E+02   -.518E+00 -.285E-03 -.637E+00   -.390E-01 0.132E-01 -.949E-02
   0.320E+02 -.316E-01 0.556E+02   -.325E+02 0.196E-01 -.562E+02   0.518E+00 -.285E-03 0.637E+00   0.390E-01 0.132E-01 0.949E-02
   0.620E-05 -.307E+02 -.122E-05   0.888E-15 0.309E+02 -.178E-14   0.000E+00 -.161E+00 0.113E-25   -.488E-11 -.218E-01 -.223E-11
   -.118E-05 0.174E+01 0.236E-06   0.488E-13 -.163E+01 -.426E-13   0.000E+00 -.134E+00 -.501E-25   0.619E-11 0.163E-01 0.227E-11
   0.107E-05 -.175E+01 -.215E-06   0.280E-13 0.164E+01 0.213E-13   0.000E+00 0.133E+00 -.210E-25   0.439E-11 -.164E-01 0.162E-11
   -.873E+01 0.274E+02 0.368E+03   0.909E+01 -.289E+02 -.390E+03   -.371E+00 0.150E+01 0.227E+02   0.213E-01 0.154E-01 -.871E-02
   0.873E+01 0.274E+02 -.368E+03   -.909E+01 -.289E+02 0.390E+03   0.371E+00 0.150E+01 -.227E+02   -.213E-01 0.154E-01 0.871E-02
   0.848E+01 0.274E+02 -.368E+03   -.887E+01 -.289E+02 0.390E+03   0.364E+00 0.150E+01 -.227E+02   0.104E-01 -.101E-01 -.184E-01
   -.848E+01 0.274E+02 0.368E+03   0.887E+01 -.289E+02 -.390E+03   -.364E+00 0.150E+01 0.227E+02   -.104E-01 -.101E-01 0.184E-01
   0.743E+02 0.965E-01 0.371E+03   -.806E+02 -.685E-01 -.392E+03   0.626E+01 -.340E-03 0.202E+02   0.838E-02 -.306E-01 0.128E-01
   -.743E+02 0.965E-01 -.371E+03   0.806E+02 -.685E-01 0.392E+03   -.626E+01 -.340E-03 -.202E+02   -.838E-02 -.306E-01 -.128E-01
   -.718E+02 -.860E-01 -.375E+03   0.767E+02 0.563E-01 0.396E+03   -.485E+01 0.215E-02 -.208E+02   -.179E-01 0.305E-01 -.367E-02
   0.718E+02 -.860E-01 0.375E+03   -.767E+02 0.563E-01 -.396E+03   0.485E+01 0.215E-02 0.208E+02   0.179E-01 0.305E-01 0.367E-02
   -.742E+02 -.785E-01 -.371E+03   0.804E+02 0.653E-01 0.392E+03   -.625E+01 0.233E-03 -.202E+02   -.467E-02 0.140E-01 -.397E-02
   0.742E+02 -.785E-01 0.371E+03   -.804E+02 0.653E-01 -.392E+03   0.625E+01 0.233E-03 0.202E+02   0.467E-02 0.140E-01 0.397E-02
   0.718E+02 0.904E-01 0.375E+03   -.767E+02 -.794E-01 -.396E+03   0.485E+01 0.145E-02 0.208E+02   -.246E-02 -.140E-01 0.114E-01
   -.718E+02 0.904E-01 -.375E+03   0.767E+02 -.794E-01 0.396E+03   -.485E+01 0.145E-02 -.208E+02   0.246E-02 -.140E-01 -.114E-01
   -.868E+01 -.274E+02 0.368E+03   0.904E+01 0.289E+02 -.390E+03   -.371E+00 -.150E+01 0.227E+02   0.177E-01 -.158E-01 -.111E-01
   0.868E+01 -.274E+02 -.368E+03   -.904E+01 0.289E+02 0.390E+03   0.371E+00 -.150E+01 -.227E+02   -.177E-01 -.158E-01 0.111E-01
   0.859E+01 -.274E+02 -.368E+03   -.896E+01 0.289E+02 0.390E+03   0.367E+00 -.150E+01 -.227E+02   -.547E-02 0.980E-02 -.131E-01
   -.859E+01 -.274E+02 0.368E+03   0.896E+01 0.289E+02 -.390E+03   -.367E+00 -.150E+01 0.227E+02   0.547E-02 0.980E-02 0.131E-01
   -.483E+02 0.271E+01 0.326E+03   0.502E+02 -.314E+01 -.344E+03   -.186E+01 0.422E+00 0.181E+02   -.348E-01 0.144E-01 0.798E-02
   0.483E+02 0.271E+01 -.326E+03   -.502E+02 -.314E+01 0.344E+03   0.186E+01 0.422E+00 -.181E+02   0.348E-01 0.144E-01 -.798E-02
   0.485E+02 0.271E+01 -.326E+03   -.504E+02 -.312E+01 0.344E+03   0.186E+01 0.421E+00 -.181E+02   -.869E-02 -.995E-02 0.204E-02
   -.485E+02 0.271E+01 0.326E+03   0.504E+02 -.312E+01 -.344E+03   -.186E+01 0.421E+00 0.181E+02   0.869E-02 -.995E-02 -.204E-02
   0.389E+02 -.249E-01 0.372E+03   -.438E+02 0.277E-01 -.393E+03   0.486E+01 0.640E-03 0.206E+02   -.169E-01 -.287E-02 -.147E-01
   -.389E+02 -.249E-01 -.372E+03   0.438E+02 0.277E-01 0.393E+03   -.486E+01 0.640E-03 -.206E+02   0.169E-01 -.287E-02 0.147E-01
   -.673E+01 0.339E-01 -.387E+03   0.797E+01 -.381E-01 0.412E+03   -.127E+01 0.236E-03 -.257E+02   0.920E-02 0.305E-02 0.253E-01
   0.673E+01 0.339E-01 0.387E+03   -.797E+01 -.381E-01 -.412E+03   0.127E+01 0.236E-03 0.257E+02   -.920E-02 0.305E-02 -.253E-01
   -.388E+02 0.419E-01 -.372E+03   0.437E+02 -.281E-01 0.393E+03   -.486E+01 -.170E-02 -.206E+02   -.248E-02 -.143E-01 -.102E-01
   0.388E+02 0.419E-01 0.372E+03   -.437E+02 -.281E-01 -.393E+03   0.486E+01 -.170E-02 0.206E+02   0.248E-02 -.143E-01 0.102E-01
   0.680E+01 -.425E-01 0.386E+03   -.807E+01 0.284E-01 -.412E+03   0.128E+01 0.224E-02 0.257E+02   -.404E-02 0.141E-01 0.163E-01
   -.680E+01 -.425E-01 -.386E+03   0.807E+01 0.284E-01 0.412E+03   -.128E+01 0.224E-02 -.257E+02   0.404E-02 0.141E-01 -.163E-01
   -.484E+02 -.274E+01 0.326E+03   0.503E+02 0.317E+01 -.344E+03   -.185E+01 -.425E+00 0.181E+02   -.597E-02 -.141E-01 -.107E-01
   0.484E+02 -.274E+01 -.326E+03   -.503E+02 0.317E+01 0.344E+03   0.185E+01 -.425E+00 -.181E+02   0.597E-02 -.141E-01 0.107E-01
   0.485E+02 -.272E+01 -.326E+03   -.504E+02 0.313E+01 0.344E+03   0.187E+01 -.424E+00 -.181E+02   0.868E-02 0.983E-02 -.892E-02
   -.485E+02 -.272E+01 0.326E+03   0.504E+02 0.313E+01 -.344E+03   -.187E+01 -.424E+00 0.181E+02   -.868E-02 0.983E-02 0.892E-02
   0.633E-06 0.168E-01 -.512E-06   -.142E-13 0.215E-12 0.568E-13   -.888E-15 -.102E-01 -.711E-14   0.325E-11 -.426E-02 0.309E-11

 POSITION                                       TOTAL-FORCE (eV/Angst)
      4.01211      1.38914      2.45141         0.000446      0.000263     -0.000669
      2.24960      1.38914      7.25108        -0.000446      0.000263      0.000669
     -0.88134      1.38990      2.40002         0.000093      0.000570     -0.000875
      7.14305      1.38990      7.30247        -0.000093      0.000570      0.000875
     -2.64350      4.16866      7.20018         0.000060     -0.000772      0.000078
      8.90521      4.16866      2.50230        -0.000060     -0.000772     -0.000078
     -0.00000     -0.00084     -0.00000         0.000000      0.003419      0.000000
     -1.07774      1.38952      9.60094        -0.000954      0.005268     -0.010790
      7.33945      1.38952      0.10155         0.000954      0.005268      0.010790
      3.80636      4.16829      9.65438         0.002868     -0.005545      0.016026
      2.45536      4.16829      0.04810        -0.002868     -0.005545     -0.016026
     -0.00000      2.78002     -0.00000         0.000000     -0.002379      0.000000
      4.89349      5.55153      0.05117         0.000000     -0.002611      0.000000
      4.89349      2.78472      0.05117         0.000000      0.003616      0.000000
      3.13086      5.55117      4.85124         0.000000     -0.005632      0.000000
      5.57680      1.38922      4.90201        -0.001904     -0.001249      0.004851
      0.68491      1.38922      4.80048         0.001904     -0.001249     -0.004851
      0.69275      4.16773      4.84766        -0.003274      0.000844     -0.008009
      5.56896      4.16773      4.85483         0.003274      0.000844      0.008009
      3.13086      2.78428      4.85124         0.000000      0.006281      0.000000
     -1.76263      5.55611      4.80007         0.000000     -0.004629      0.000000
     -1.76263      2.77950      4.80007         0.000000      0.004473      0.000000
      4.79494      0.02691      3.93488         0.010894      0.002173      0.011884
      1.46678      0.02691      5.76761        -0.010894      0.002173     -0.011884
      3.22932      0.02748      0.96797        -0.006165     -0.000863     -0.012764
      3.03240      0.02748      8.73452         0.006165     -0.000863      0.012764
      7.34911      1.38934      3.90367         0.001958     -0.002921      0.008349
     -1.08740      1.38934      5.79882        -0.001958     -0.002921     -0.008349
     -1.05799      4.16771      5.78864        -0.002195      0.002918     -0.010791
      7.31971      4.16771      3.91385         0.002195      0.002918      0.010791
      0.67544      1.38954      0.99861        -0.003958      0.001093     -0.006358
      5.58628      1.38954      8.70388         0.003958      0.001093      0.006358
      5.55722      4.16823      8.71380         0.001417     -0.001583      0.008753
      0.70450      4.16823      0.98869        -0.001417     -0.001583     -0.008753
      4.79499      2.75138      3.93478         0.010162     -0.001269      0.012954
      1.46672      2.75138      5.76771        -0.010162     -0.001269     -0.012954
      3.22943      2.75176      0.96786        -0.008645     -0.000191     -0.011907
      3.03229      2.75176      8.73462         0.008645     -0.000191      0.011907
     -0.10647      5.54238      3.85995        -0.000265      0.001357     -0.005832
      6.36819      5.54238      5.84254         0.000265      0.001357      0.005832
      8.13104      5.54271      1.04218        -0.005959      0.001365      0.006437
     -1.86932      5.54271      8.66030         0.005959      0.001365     -0.006437
      2.45139      1.38912      3.85587         0.007037      0.000522      0.001137
      3.81033      1.38912      5.84662        -0.007037      0.000522     -0.001137
      3.88139      4.16779      5.79980        -0.012709     -0.000996      0.001925
      2.38033      4.16779      3.90268         0.012709     -0.000996     -0.001925
      5.57359      1.38964      1.04630        -0.013279     -0.002179     -0.002615
      0.68813      1.38964      8.65619         0.013279     -0.002179      0.002615
      0.61772      4.16805      8.70274         0.010374      0.002217      0.003113
      5.64400      4.16805      0.99975        -0.010374      0.002217     -0.003113
     -0.10662      2.79318      3.86011         0.003983     -0.000850     -0.009084
      6.36834      2.79318      5.84238        -0.003983     -0.000850      0.009084
      8.13082      2.79369      1.04244        -0.003185     -0.001440      0.002038
     -1.86911      2.79369      8.66005         0.003185     -0.001440     -0.002038
    total drift:                                0.000001      0.002338     -0.000001

  FREE ENERGIE OF THE ION-ELECTRON SYSTEM (eV)
  free  energy   TOTEN  =      -334.9892783289 eV

  energy  without entropy=     -334.9703647636  energy(sigma->0) =     -334.97982155

 d Force = 0.5970765E-03[ 0.544E-03, 0.650E-03]  d Energy = 0.9376088E-03-0.341E-03
 d Force =-0.8785721E+01[-0.879E+01,-0.878E+01]  d Ewald  =-0.2286632E+02 0.141E+02

 Quasi-Newton relaxation of ions (Broydens 2nd method)
  g(Force)  = 0.259E-03   g(Stress)= 0.781E-04

 retain information from N=  2 steps
 eigenvalues of (default step * inverse Hessian matrix)
  average eigenvalue of G=   3.7555
 eigenvalue spectrum of G is  2.1165  5.3945

 reached required accuracy - stopping structural energy minimisation

volume of typ            1:     8.9 %

[...]

volume of typ            3:     9.9 %

total charge

# of ion       s       p       d       tot
    1        2.065   0.205   0.077   2.347
    2        2.065   0.205   0.077   2.347
    3        2.069   0.217   0.080   2.367
    4        2.069   0.217   0.080   2.367
    5        2.069   0.216   0.080   2.365
    6        2.069   0.216   0.080   2.365
    7        0.301   0.431   7.853   8.584
    8        0.277   0.373   7.853   8.503
    9        0.277   0.373   7.853   8.503
   10        0.278   0.378   7.838   8.494
   11        0.278   0.378   7.838   8.494
   12        0.300   0.430   7.852   8.582
   13        0.302   0.431   7.837   8.570
   14        0.302   0.431   7.838   8.571
   15        0.302   0.431   7.839   8.571
   16        0.277   0.373   7.853   8.503
   17        0.277   0.373   7.853   8.503
   18        0.278   0.378   7.839   8.495
   19        0.278   0.378   7.839   8.495
   20        0.302   0.431   7.839   8.571
   21        0.300   0.430   7.851   8.582
   22        0.301   0.431   7.853   8.584
   23        1.272   2.756   0.008   4.036
   24        1.272   2.756   0.008   4.036
   25        1.272   2.756   0.008   4.036
   26        1.272   2.756   0.008   4.036
   27        1.273   2.756   0.007   4.037
   28        1.273   2.756   0.007   4.037
   29        1.273   2.756   0.007   4.037
   30        1.273   2.756   0.007   4.037
   31        1.273   2.756   0.007   4.037
   32        1.273   2.756   0.007   4.037
   33        1.273   2.756   0.007   4.037
   34        1.273   2.756   0.007   4.037
   35        1.272   2.756   0.008   4.036
   36        1.272   2.756   0.008   4.036
   37        1.272   2.756   0.008   4.036
   38        1.272   2.756   0.008   4.036
   39        1.262   2.783   0.007   4.052
   40        1.262   2.783   0.007   4.052
   41        1.262   2.783   0.007   4.052
   42        1.262   2.783   0.007   4.052
   43        1.275   2.754   0.007   4.036
   44        1.275   2.754   0.007   4.036
   45        1.284   2.727   0.008   4.019
   46        1.284   2.727   0.008   4.019
   47        1.275   2.754   0.007   4.036
   48        1.275   2.754   0.007   4.036
   49        1.284   2.727   0.008   4.019
   50        1.284   2.727   0.008   4.019
   51        1.262   2.783   0.007   4.052
   52        1.262   2.783   0.007   4.052
   53        1.262   2.783   0.007   4.052
   54        1.262   2.783   0.007   4.052
tot          57.73   96.01  126.24  279.98

magnetization (x)

# of ion       s       p       d       tot
    1        0.005   0.007   0.001   0.012
    2        0.005   0.007   0.001   0.012
    3        0.005   0.007   0.000   0.012
    4        0.005   0.007   0.000   0.012
    5        0.004   0.004   0.000   0.008
    6        0.004   0.004   0.000   0.008
    7       -0.001   0.000  -0.026  -0.026
    8        0.002  -0.000   0.497   0.499
    9        0.002  -0.000   0.497   0.499
   10        0.000  -0.000   0.247   0.247
   11        0.000  -0.000   0.247   0.247
   12       -0.001   0.000  -0.026  -0.026
   13       -0.001   0.000  -0.048  -0.048
   14       -0.001   0.000  -0.047  -0.048
   15       -0.001   0.000  -0.047  -0.048
   16        0.002  -0.000   0.497   0.499
   17        0.002  -0.000   0.497   0.499
   18        0.000  -0.000   0.246   0.246
   19        0.000  -0.000   0.246   0.246
   20       -0.001   0.000  -0.047  -0.048
   21       -0.001   0.000  -0.026  -0.026
   22       -0.001   0.000  -0.026  -0.026
   23        0.002   0.007   0.000   0.009
   24        0.002   0.007   0.000   0.009
   25        0.002   0.007   0.000   0.009
   26        0.002   0.007   0.000   0.009
   27        0.005   0.051   0.000   0.055
   28        0.005   0.051   0.000   0.055
   29        0.002   0.010   0.000   0.012
   30        0.002   0.010   0.000   0.012
   31        0.005   0.050   0.000   0.055
   32        0.005   0.050   0.000   0.055
   33        0.002   0.010   0.000   0.012
   34        0.002   0.010   0.000   0.012
   35        0.002   0.007   0.000   0.009
   36        0.002   0.007   0.000   0.009
   37        0.002   0.007   0.000   0.009
   38        0.002   0.007   0.000   0.009
   39        0.002   0.002   0.000   0.004
   40        0.002   0.002   0.000   0.004
   41        0.002   0.002   0.000   0.004
   42        0.002   0.002   0.000   0.004
   43        0.005   0.054   0.000   0.059
   44        0.005   0.054   0.000   0.059
   45        0.002   0.021   0.000   0.023
   46        0.002   0.021   0.000   0.023
   47        0.005   0.054   0.000   0.059
   48        0.005   0.054   0.000   0.059
   49        0.002   0.021   0.000   0.023
   50        0.002   0.021   0.000   0.023
   51        0.002   0.002   0.000   0.004
   52        0.002   0.002   0.000   0.004
   53        0.002   0.002   0.000   0.004
   54        0.002   0.002   0.000   0.004
tot           0.11    0.65    2.69    3.45