 vasp.5.4.4.18Apr17-6-g9f103f2a35 (build May 12 2020 05:39:39) gamma-only

 MD_VERSION_INFO: Compiled 2020-05-12T12:39:39-UTC in devlin.sd.materialsdesign.
 com:/home/medea2/data/build/wwolf/vasp-gpu5.4.4/13047/x86_64/src/src/build/gam
 from svn 13047

 executed on                        Lin64 date 2023.03.07  02:23:14

 INCAR:
 POTCAR:    PAW_PBE Li_sv 10Sep2004
 POTCAR:    PAW_PBE Ni 02Aug2007
 POTCAR:    PAW_PBE O 08Apr2002

 POTCAR:    PAW_PBE Li_sv 10Sep2004

 POTCAR:    PAW_PBE Ni 02Aug2007

 POTCAR:    PAW_PBE O 08Apr2002

 Optimization of the real space projectors (new method)

 maximal supplied QI-value         = 22.11
 optimisation between [QCUT,QGAM] = [ 11.28, 22.77] = [ 35.61,145.23] Ry
 Optimized for a Real-space Cutoff    1.10 Angstroem

   l    n(q)    QCUT    max X(q) W(low)/X(q) W(high)/X(q)  e(spline)
   0      7    11.276    10.506    0.54E-04    0.58E-04    0.16E-07
   0      7    11.276     8.367    0.11E-03    0.14E-03    0.35E-07
   1      7    11.276     8.983    0.23E-03    0.43E-03    0.86E-07
 Optimization of the real space projectors (new method)

[...]

   l    n(q)    QCUT    max X(q) W(low)/X(q) W(high)/X(q)  e(spline)
   2      9    11.376    60.317    0.17E-03    0.16E-04    0.16E-06
   2      9    11.376    55.921    0.17E-03    0.16E-04    0.17E-06
   0     10    11.376    51.690    0.45E-04    0.60E-04    0.21E-06
   0     10    11.376    30.015    0.37E-04    0.55E-04    0.19E-06
   1     10    11.376    18.849    0.83E-04    0.11E-03    0.92E-07
   1     10    11.376    14.624    0.69E-04    0.92E-04    0.82E-07
 Optimization of the real space projectors (new method)

 maximal supplied QI-value         = 24.76
 optimisation between [QCUT,QGAM] = [ 11.39, 22.77] = [ 36.31,145.25] Ry
 Optimized for a Real-space Cutoff    1.10 Angstroem

   l    n(q)    QCUT    max X(q) W(low)/X(q) W(high)/X(q)  e(spline)
   0      7    11.387    20.381    0.22E-03    0.48E-03    0.18E-06
   0      7    11.387    15.268    0.22E-03    0.52E-03    0.19E-06
   1      7    11.387     5.964    0.22E-03    0.73E-03    0.24E-06
   1      7    11.387     5.382    0.19E-03    0.60E-03    0.21E-06

  PAW_PBE Li_sv 10Sep2004               :
  PAW_PBE Ni 02Aug2007                  :
  PAW_PBE O 08Apr2002                   :

 POSCAR: ce31_1
  positions in direct lattice
 exchange correlation table for  LEXCH =       14
   RHO(1)=    0.500       N(1)  =     2000
   RHO(2)=  100.500       N(2)  =     4000

 ion  position               nearest neighbor table
   1  0.995  0.252  0.241-  46 2.08  41 2.08  38 2.11  53 2.14  50 2.16  32 2.19  14 2.80  25 2.84

   2  0.001  0.749  0.750-  39 2.08  52 2.10  51 2.11  40 2.11  33 2.12  47 2.12  22 2.84  14 2.84

[...]

   4  0.242  0.752  0.492-  55 2.06  31 2.08  33 2.10  51 2.11  43 2.12  45 2.17  24 2.76  20 2.80
                            16 2.83
   5  0.756  0.753  0.491-  31 2.05  56 2.08  33 2.08  43 2.09  45 2.14  52 2.24  25 2.79  20 2.80

[...]

  12  0.758  0.750  0.007-  36 2.02  49 2.08  40 2.11  47 2.12  61 2.12  59 2.19  18 2.80  28 2.82

  13  0.500  0.750  0.248-  35 2.09  36 2.11  55 2.11  56 2.12  61 2.12  43 2.15
  14  0.999  0.000  0.999-  38 1.89  40 1.89  41 1.89  39 1.90  49 1.95  48 1.98  19 2.80   1 2.80
                            19 2.80   2 2.84  17 2.87  16 2.88  18 2.88  15 2.88
  15  0.250  0.000  0.250-  32 1.87  49 1.87  61 1.88  44 1.88  55 2.04  38 2.09  18 2.79  11 2.80
                            18 2.81  20 2.85  19 2.87  14 2.88  21 2.89
  16  0.251  0.995  0.748-  60 1.85  48 1.86  45 1.87  33 1.89  54 2.04  39 2.06  17 2.79  17 2.81
                            10 2.81   4 2.83  21 2.86  14 2.88  19 2.88  20 2.89
  17  0.750  0.999  0.750-  60 1.86  48 1.87  45 1.87  33 1.89  57 2.05  40 2.10   9 2.78  16 2.79
                            16 2.81  21 2.87  14 2.87  19 2.87  20 2.90
  18  0.751  0.999  0.250-  32 1.88  49 1.89  61 1.89  44 1.89  41 1.96  56 1.99  15 2.79  12 2.80
                            15 2.81  20 2.86  21 2.88  19 2.88  14 2.88
  19  0.500  0.998  0.999-  40 1.88  38 1.88  41 1.89  39 1.90  60 1.94  61 2.02  14 2.80  14 2.80
                             7 2.82   8 2.83  17 2.87  15 2.87  18 2.88  16 2.88
  20  0.001  0.997  0.497-  54 1.85  57 1.85  55 1.87  56 1.88  33 2.05  32 2.06   5 2.80  21 2.80
                             4 2.80  21 2.80  15 2.85  18 2.86  16 2.89  17 2.90
  21  0.501  0.003  0.502-  55 1.85  56 1.86  54 1.87  57 1.87  44 2.04  45 2.06  20 2.80  20 2.80
                             6 2.80   3 2.81  16 2.86  17 2.87  18 2.88  15 2.89
  22  1.000  0.499  0.500-  53 1.88  51 1.88  50 1.88  52 1.89  31 1.96  30 2.01  27 2.80  27 2.80
                             2 2.84  26 2.87  24 2.88  23 2.88  25 2.89
  23  0.251  0.499  0.750-  42 1.86  59 1.86  30 1.87  47 1.88  34 2.09  51 2.14   3 2.79  26 2.79
                            26 2.81  29 2.86  22 2.88  27 2.88  28 2.89
  24  0.249  0.505  0.252-  46 1.85  58 1.86  31 1.88  43 1.88  35 2.02  50 2.06   4 2.76  25 2.79
                            25 2.81  28 2.87  27 2.87  22 2.88  29 2.89
  25  0.751  0.502  0.250-  46 1.86  31 1.86  43 1.87  58 1.87  36 2.09  53 2.14  24 2.79   5 2.79
                            24 2.81   1 2.84  28 2.85  29 2.88  27 2.88  22 2.89
  26  0.750  0.500  0.750-  59 1.87  30 1.88  42 1.89  47 1.90  37 1.94  52 2.02  23 2.79   6 2.80
                            23 2.81  29 2.86  22 2.87  28 2.88  27 2.88
  27  0.500  0.501  0.500-  53 1.88  51 1.88  50 1.89  52 1.89  42 1.95  43 2.02  22 2.80  22 2.80
                             8 2.83  24 2.87  23 2.88  25 2.88  26 2.88
  28  0.999  0.503  0.003-  34 1.84  37 1.86  36 1.86  35 1.89  46 2.02  47 2.04  29 2.79  11 2.81
                            29 2.81   9 2.81  12 2.82  25 2.85  24 2.87  26 2.88  23 2.89
  29  0.500  0.496  0.997-  36 1.84  34 1.86  35 1.86  37 1.87  58 2.02  59 2.05  10 2.76  28 2.79
                            28 2.81  23 2.86  26 2.86  25 2.88  24 2.89
  30  0.002  0.394  0.637-  23 1.87  26 1.88  22 2.01   3 2.10   6 2.12   9 2.27
  31  0.995  0.604  0.369-  25 1.86  24 1.88  22 1.96   5 2.05   4 2.08
  32  0.001  0.108  0.361-  15 1.87  18 1.88  20 2.06   3 2.17   6 2.18   1 2.19
  33  0.997  0.889  0.635-  17 1.89  16 1.89  20 2.05   5 2.08   4 2.10   2 2.12
  34  0.242  0.393  0.894-  28 1.84  29 1.86  10 2.01  23 2.09   9 2.14
  35  0.258  0.606  0.112-  29 1.86  28 1.89  24 2.02  11 2.05  13 2.09
  36  0.742  0.608  0.106-  29 1.84  28 1.86  12 2.02  25 2.09  13 2.11
  37  0.756  0.400  0.883-  28 1.86  29 1.87  26 1.94   9 2.02
  38  0.251  0.110  0.109-  19 1.88  14 1.89  15 2.09   1 2.11   7 2.11  10 2.16
  39  0.249  0.887  0.887-  14 1.90  19 1.90  16 2.06   2 2.08   8 2.09  11 2.17
  40  0.750  0.887  0.890-  19 1.88  14 1.89  17 2.10  12 2.11   2 2.11   8 2.11
  41  0.748  0.103  0.118-  19 1.89  14 1.89  18 1.96   7 2.07   1 2.08
  42  0.497  0.398  0.632-  23 1.86  26 1.89  27 1.95   3 2.07   6 2.08
  43  0.504  0.609  0.365-  25 1.87  24 1.88  27 2.02   5 2.09   4 2.12  13 2.15
  44  0.499  0.110  0.363-  15 1.88  18 1.89  21 2.04   3 2.12   6 2.12   7 2.19
  45  0.503  0.890  0.636-  17 1.87  16 1.87  21 2.06   8 2.12   5 2.14   4 2.17
  46  0.004  0.400  0.141-  24 1.85  25 1.86  28 2.02   1 2.08
  47  0.004  0.609  0.864-  23 1.88  26 1.90  28 2.04  11 2.10  12 2.12   2 2.12
  48  0.004  0.100  0.861-  16 1.86  17 1.87  14 1.98   9 2.06  10 2.19
  49  0.002  0.898  0.132-  15 1.87  18 1.89  14 1.95  11 2.06  12 2.08
  50  0.250  0.392  0.386-  22 1.88  27 1.89  24 2.06   7 2.16   1 2.16   3 2.22
  51  0.249  0.613  0.607-  27 1.88  22 1.88   2 2.11   4 2.11   8 2.11  23 2.14
  52  0.751  0.608  0.616-  22 1.89  27 1.89  26 2.02   2 2.10   8 2.10   5 2.24
  53  0.749  0.388  0.392-  27 1.88  22 1.88   7 2.12   6 2.13  25 2.14   1 2.14
  54  0.243  0.104  0.611-  20 1.85  21 1.87  16 2.04   3 2.07   9 2.23
  55  0.259  0.894  0.389-  21 1.85  20 1.87  15 2.04   4 2.06  13 2.11
  56  0.744  0.896  0.386-  21 1.86  20 1.88  18 1.99   5 2.08  13 2.12
  57  0.758  0.106  0.610-  20 1.85  21 1.87   6 2.05  17 2.05   9 2.10
  58  0.497  0.398  0.140-  24 1.86  25 1.87  29 2.02   7 2.07  10 2.11
  59  0.498  0.607  0.862-  23 1.86  26 1.87  29 2.05   8 2.12  11 2.18  12 2.19
  60  0.496  0.095  0.865-  16 1.85  17 1.86  19 1.94  10 2.02
  61  0.498  0.893  0.136-  15 1.88  18 1.89  19 2.02  11 2.11  13 2.12  12 2.12

  LATTYP: Found a triclinic cell.
 ALAT       =    10.0442137749
 B/A-ratio  =     1.0026080160
 C/A-ratio  =     0.5575424201
 COS(alpha) =     0.0000193676
 COS(beta)  =     0.0006873106
 COS(gamma) =     0.3631464720

  Lattice vectors:

 A1 = (  10.0441715654,   0.0035160820,   0.0289060122)
 A2 = (   3.6840215114,   0.0001661205,  -9.3723597802)
 A3 = (   0.0018865500,   5.6000748917,   0.0007242723)

Analysis of symmetry for initial positions (statically):
 Subroutine PRICEL returns:
 Original cell was already a primitive cell.

 Routine SETGRP: Setting up the symmetry group for a
 triclinic supercell.

 Subroutine GETGRP returns: Found  1 space group operations
 (whereof  1 operations were pure point group operations)
 out of a pool of  2 trial point group operations.

The static configuration has the point symmetry C_1 .

Analysis of symmetry for dynamics (positions and initial velocities):
 Subroutine PRICEL returns:
 Original cell was already a primitive cell.

[...]

The dynamic configuration has the point symmetry C_1 .

Analysis of structural, dynamic, and magnetic symmetry:
 Subroutine PRICEL returns:
 Original cell was already a primitive cell.

 Routine SETGRP: Setting up the symmetry group for a
 triclinic supercell.

 Subroutine GETGRP returns: Found  1 space group operations
 (whereof  1 operations were pure point group operations)
 out of a pool of  2 trial point group operations.

The magnetic configuration has the point symmetry C_1 .

 Subroutine INISYM returns: Found  1 space group operations
 (whereof  1 operations are pure point group operations),
 and found     1 'primitive' translations

 KPOINTS: Automatic mesh

Automatic generation of k-mesh.
Space group operators:
 irot       det(A)        alpha          n_x          n_y          n_z        tau_x        tau_y        tau_z
    1     1.000000     0.000000     1.000000     0.000000     0.000000     0.000000     0.000000     0.000000

 Subroutine IBZKPT returns following result:

 Found      1 irreducible k-points:

 Following reciprocal coordinates:
            Coordinates               Weight
  0.000000  0.000000  0.000000      1.000000

 Following cartesian coordinates:
            Coordinates               Weight
  0.000000  0.000000  0.000000      1.000000

 SYSTEM =  unknown system
 POSCAR =  ce31_1

 Startparameter for this run:
   NWRITE =      1    write-flag & timer
   PREC   = accura    normal or accurate (medium, high low for compatibility)
   ISTART =      0    job   : 0-new  1-cont  2-samecut
   ICHARG =      2    charge: 1-file 2-atom 10-const
   ISPIN  =      2    spin polarized calculation?
   LNONCOLLINEAR =      F non collinear calculations
   LSORBIT =      F    spin-orbit coupling
   INIWAV =      1    electr: 0-lowe 1-rand  2-diag
   LASPH  =      F    aspherical Exc in radial PAW
[...]
   -.562E+00 0.185E+01 0.341E+02   0.594E-01 -.180E+01 -.341E+02   0.497E+00 -.536E-01 -.649E-01   0.645E-02 0.406E-02 -.209E-01
   -.388E+02 -.965E+01 0.687E+02   0.393E+02 0.981E+01 -.693E+02   -.547E+00 -.159E+00 0.655E+00   0.285E-01 -.910E-02 0.873E-02
   0.355E+02 0.124E+02 -.207E+02   -.363E+02 -.125E+02 0.206E+02   0.911E+00 0.175E+00 0.309E-01   -.345E-01 -.829E-02 -.866E-02
   0.557E+02 -.105E+02 0.220E+02   -.566E+02 0.107E+02 -.220E+02   0.947E+00 -.169E+00 0.276E-01   -.380E-01 -.639E-02 -.604E-02
   -.313E+02 0.102E+02 0.589E+02   0.321E+02 -.104E+02 -.596E+02   -.752E+00 0.228E+00 0.714E+00   0.302E-01 -.665E-02 0.137E-01
   0.213E+02 -.292E+01 0.114E+02   -.208E+02 0.284E+01 -.118E+02   -.425E+00 0.101E+00 0.368E+00   0.172E-02 -.177E-01 -.161E-01
   -.447E+02 0.132E+02 0.261E+02   0.452E+02 -.133E+02 -.265E+02   -.543E+00 0.135E+00 0.446E+00   0.353E-02 -.988E-02 0.298E-01
   0.475E+01 -.142E+02 0.113E+03   -.431E+01 0.144E+02 -.114E+03   -.452E+00 -.244E+00 0.837E+00   0.145E-02 -.224E-02 0.372E-01
   -.117E+02 -.204E+01 0.297E+03   0.957E+01 0.165E+01 -.310E+03   0.208E+01 0.369E+00 0.131E+02   0.652E-02 0.257E-01 -.276E-01
   0.410E+02 0.481E+01 -.282E+03   -.407E+02 -.481E+01 0.297E+03   -.226E+00 -.229E-02 -.143E+02   -.153E-01 0.550E-02 0.347E-01
   -.254E+02 -.135E+01 -.272E+03   0.279E+02 0.106E+01 0.286E+03   -.257E+01 0.286E+00 -.131E+02   -.165E-01 0.777E-02 -.509E-01
   0.261E+02 0.503E+01 0.244E+03   -.286E+02 -.546E+01 -.255E+03   0.248E+01 0.429E+00 0.115E+02   -.126E-01 -.409E-02 0.242E-01
   0.344E+02 -.260E+02 0.323E+03   -.402E+02 0.275E+02 -.339E+03   0.578E+01 -.151E+01 0.158E+02   0.560E-02 -.927E-02 0.252E-02
   -.361E+02 0.303E+02 -.278E+03   0.401E+02 -.322E+02 0.293E+03   -.407E+01 0.189E+01 -.145E+02   -.144E-01 -.779E-02 0.175E-01
   -.537E+02 -.284E+02 -.270E+03   0.592E+02 0.299E+02 0.286E+03   -.545E+01 -.158E+01 -.154E+02   -.144E-01 0.916E-02 0.203E-01
   -.179E+02 0.304E+02 0.346E+03   0.174E+02 -.325E+02 -.364E+03   0.535E+00 0.209E+01 0.185E+02   0.286E-01 0.124E-01 -.101E-01
   -.340E+01 0.105E+01 -.296E+03   0.638E+01 -.115E+01 0.308E+03   -.300E+01 0.114E+00 -.115E+02   0.155E-01 -.120E-01 -.308E-01
   0.132E+02 0.455E+00 0.251E+03   -.151E+02 -.566E+00 -.262E+03   0.194E+01 0.124E+00 0.112E+02   0.207E-01 -.103E-01 0.173E-01
   0.233E+02 -.107E+01 0.244E+03   -.264E+02 0.128E+01 -.255E+03   0.308E+01 -.213E+00 0.113E+02   0.267E-01 0.657E-02 0.151E-01
   0.374E+02 0.642E-01 -.314E+03   -.382E+02 -.136E+00 0.328E+03   0.804E+00 0.678E-01 -.135E+02   0.214E-01 0.621E-02 -.335E-01
   -.418E+02 -.359E+00 0.311E+03   0.418E+02 0.137E+01 -.325E+03   0.384E-02 -.995E+00 0.140E+02   0.393E-02 -.220E-01 -.265E-01
   0.764E+01 -.562E+01 -.264E+03   -.492E+01 0.571E+01 0.276E+03   -.271E+01 -.909E-01 -.124E+02   -.131E-01 -.335E-02 0.342E-01
   -.206E+02 0.269E+01 -.275E+03   0.223E+02 -.267E+01 0.287E+03   -.167E+01 -.102E-01 -.116E+02   -.154E-01 -.924E-02 -.511E-01
   0.306E+02 -.437E+01 0.241E+03   -.341E+02 0.461E+01 -.254E+03   0.349E+01 -.237E+00 0.130E+02   -.131E-01 0.277E-02 0.235E-01
   0.544E+02 0.300E+02 0.307E+03   -.593E+02 -.314E+02 -.324E+03   0.497E+01 0.138E+01 0.165E+02   -.220E-01 0.694E-02 -.229E-01
   -.318E+02 -.644E+00 -.250E+03   0.344E+02 0.205E-01 0.261E+03   -.259E+01 0.601E+00 -.113E+02   0.283E-01 0.227E-01 0.184E-01
   -.226E+02 0.296E+02 -.333E+03   0.265E+02 -.313E+02 0.349E+03   -.391E+01 0.174E+01 -.159E+02   0.169E-01 -.283E-02 -.106E-01
   -.329E+02 -.103E+01 0.289E+03   0.335E+02 0.853E+00 -.302E+03   -.558E+00 0.175E+00 0.133E+02   0.155E-01 0.730E-02 0.372E-01
   0.334E+02 -.211E+00 0.288E+03   -.362E+02 0.307E+00 -.301E+03   0.283E+01 -.100E+00 0.126E+02   -.656E-02 0.255E-02 -.329E-01
   -.287E+02 0.199E+00 -.259E+03   0.320E+02 -.240E+00 0.271E+03   -.331E+01 0.375E-01 -.117E+02   0.167E-01 0.176E-02 0.263E-01
   -.109E+02 0.171E-01 -.264E+03   0.124E+02 -.104E+00 0.276E+03   -.153E+01 0.843E-01 -.119E+02   -.327E-02 0.767E-03 0.360E-01
   0.477E+02 -.702E+00 0.282E+03   -.506E+02 0.724E+00 -.294E+03   0.297E+01 -.281E-01 0.124E+02   -.781E-02 0.351E-02 -.375E-01
   -.583E+02 -.253E+02 -.318E+03   0.638E+02 0.267E+02 0.334E+03   -.544E+01 -.137E+01 -.162E+02   -.221E-01 -.438E-02 -.174E-01
   0.431E+02 0.292E+02 0.291E+03   -.481E+02 -.309E+02 -.306E+03   0.508E+01 0.169E+01 0.151E+02   -.224E-01 -.170E-02 0.347E-01
   0.345E+02 -.291E+02 0.294E+03   -.382E+02 0.308E+02 -.309E+03   0.379E+01 -.170E+01 0.156E+02   -.226E-01 0.192E-02 0.340E-01
   -.600E+02 0.276E+02 -.313E+03   0.649E+02 -.292E+02 0.328E+03   -.488E+01 0.159E+01 -.151E+02   -.241E-01 0.108E-02 -.216E-01
   0.489E+02 -.337E+02 0.307E+03   -.527E+02 0.355E+02 -.322E+03   0.382E+01 -.184E+01 0.145E+02   -.115E-01 -.220E-02 -.241E-01
   -.389E+02 0.219E+01 -.248E+03   0.428E+02 -.191E+01 0.261E+03   -.388E+01 -.261E+00 -.131E+02   0.253E-01 -.213E-01 0.201E-01
   0.144E+02 -.344E+02 -.350E+03   -.138E+02 0.368E+02 0.368E+03   -.577E+00 -.247E+01 -.181E+02   0.115E-01 0.413E-04 -.102E-01
   0.312E+01 0.898E+00 0.271E+03   -.549E+01 -.686E+00 -.283E+03   0.235E+01 -.201E+00 0.115E+02   0.189E-01 -.871E-02 0.356E-01
   0.328E+00 -.849E-01 -.320E+00   0.835E-13 0.776E-13 -.568E-12   -.343E+00 0.110E+00 0.245E+00   0.195E-01 -.102E-01 0.593E-01

 POSITION                                       TOTAL-FORCE (eV/Angst)
      1.48971      5.57651      2.36796        -0.006063      0.002231      0.001992
      4.76565      0.00882      7.04925        -0.003889      0.000286     -0.000782
      4.19711      1.42722      2.35013         0.002295     -0.002520      0.002165
      2.16816      1.36056      7.05841        -0.005208     -0.000233     -0.005191
      2.15979      4.23507      7.06819        -0.002173     -0.000378     -0.004909
      4.17659      4.16680      2.35271        -0.009959      0.001490      0.000602
      1.51056      2.83329      2.36837         0.007265     -0.000316      0.000231
      4.76616      2.79507      7.04803        -0.003815     -0.000293      0.000073
      6.76637      5.49126      2.34219         0.012206     -0.015983     -0.000248
      9.01599      1.56295      2.36618        -0.001665      0.023396      0.003712
     -2.66256      1.35905      7.02606        -0.002420      0.001659      0.004358
     -2.67863      4.24373      7.04067         0.007776      0.001930      0.003985
     -0.26548      2.80150      7.04131         0.001864     -0.000559     -0.000810
     10.03087      5.60391      0.03496        -0.000238     -0.000893      0.001151
      2.51236      1.39859      0.00965         0.000473     -0.001126      0.000129
      3.84101      1.40752      9.35609        -0.000128     -0.003033     -0.000230
      3.84858      4.20002      9.39237         0.000828      0.003713     -0.001666
     -1.16357      4.20471      9.38233        -0.000140     -0.000195      0.000262
      6.35976      2.80525      9.38874         0.000424      0.002151      0.001671
      1.32176      0.00623      9.36491        -0.000585      0.002023     -0.003157
      5.02954      2.80650      0.04582        -0.000741     -0.000877     -0.002404
      3.18547      5.60010      4.69529         0.000924     -0.001158     -0.002597
      5.69633      1.40699      4.70322         0.000960     -0.001358     -0.000312
      0.67229      1.39382      4.74606         0.002014     -0.000513      0.001937
      0.66386      4.20434      4.71764         0.003180      0.001416      0.001082
      5.69181      4.20090      4.71626        -0.001670      0.001448      0.000049
      3.17115      2.79889      4.71375         0.001016     -0.000600     -0.002714
     -1.82323      5.59281      4.71301        -0.005962      0.008293     -0.004328
      8.18702      2.80430      4.68149        -0.006600     -0.009101     -0.003560
      4.94913      0.01288      3.71695         0.004127     -0.002600     -0.000883
      1.48989      5.57786      5.67091         0.001037     -0.002837     -0.002836
      3.22854      0.00977      1.02759         0.001601      0.001401      0.000524
      3.10439      5.59032      8.35184        -0.000203      0.002352     -0.004892
      7.52799      1.35710      3.70734         0.000517     -0.002810      0.008702
     -1.11274      1.44260      5.69320        -0.001098     -0.002373      0.004943
     -1.18014      4.15649      5.70213         0.002578     -0.000294      0.008111
      7.38845      4.23532      3.78244        -0.000864     -0.003196      0.005827
      0.69477      1.40857      1.03347         0.005469      0.003299     -0.001261
      5.63814      1.39795      8.34822         0.000209      0.002563      0.001358
      5.66017      4.20593      8.35245        -0.006093      0.002260      0.004942
      0.80814      4.19430      0.96534        -0.000945      0.002486      0.001254
      4.88035      2.78361      3.75474         0.003750     -0.004289     -0.002432
      1.42594      2.81797      5.72121        -0.000276     -0.002659     -0.000905
      3.24514      2.79762      1.04238         0.001499      0.002414      0.001375
      3.11420      2.82054      8.36522        -0.000600      0.001082     -0.006177
     -0.06009      0.01860      3.75415        -0.005075     -0.003596     -0.001663
      6.43203      0.02623      5.73626        -0.000143     -0.000324      0.003525
      8.27886      0.02830      0.95903        -0.002930      0.002902     -0.001385
     -1.98653      0.01032      8.42806         0.001309      0.001359      0.003057
      2.43772      1.39972      3.68149         0.001321     -0.002796     -0.006748
      3.83958      1.39554      5.76339         0.001232     -0.001883     -0.002872
      3.95043      4.20446      5.71801         0.002815     -0.001694     -0.002062
      2.52041      4.19641      3.64619         0.001945     -0.003040     -0.005359
      5.75919      1.36484      0.98826         0.002257      0.001776     -0.002958
      0.61432      1.44743      8.40190        -0.002478     -0.000582      0.003573
      0.57561      4.16820      8.42305         0.001339      0.000565      0.001296
      5.74536      4.24832      1.00256         0.006142      0.000306     -0.002213
     -0.05853      2.77932      3.73516        -0.003337     -0.002150     -0.003324
      6.40651      2.79086      5.71926        -0.004282     -0.003880      0.005883
      8.33046      2.78405      0.91806        -0.003835      0.003274      0.000982
     -1.91184      2.79057      8.37728         0.003045      0.002070      0.002125
    total drift:                                0.004049      0.015333     -0.016344

  FREE ENERGIE OF THE ION-ELECTRON SYSTEM (eV)
  free  energy   TOTEN  =      -368.8717864858 eV

  energy  without entropy=     -368.8461049944  energy(sigma->0) =     -368.85894574

 d Force = 0.1134527E-03[ 0.889E-04, 0.138E-03]  d Energy = 0.1044421E-03 0.901E-05
 d Force =-0.2269330E+00[-0.227E+00,-0.226E+00]  d Ewald  = 0.1213409E+00-0.348E+00

 Quasi-Newton relaxation of ions (Broydens 2nd method)
  g(Force)  = 0.132E-03   g(Stress)= 0.757E-05

 retain information from N=  1 steps
 eigenvalues of (default step * inverse Hessian matrix)
  average eigenvalue of G=   0.1735
 eigenvalue spectrum of G is  0.1735

volume of typ            1:    19.2 %

[...]

volume of typ            3:     9.9 %

total charge

# of ion       s       p       d       tot
    1        2.076   0.246   0.089   2.410
    2        2.083   0.265   0.097   2.445
    3        2.078   0.251   0.092   2.421
    4        2.085   0.264   0.100   2.449
    5        2.081   0.257   0.096   2.435
    6        2.081   0.255   0.095   2.432
    7        2.078   0.252   0.091   2.421
    8        2.082   0.263   0.097   2.441
    9        2.076   0.240   0.089   2.405
   10        2.080   0.250   0.093   2.423
   11        2.083   0.264   0.097   2.444
   12        2.085   0.265   0.099   2.449
   13        2.079   0.248   0.093   2.421
   14        0.269   0.361   7.859   8.489
   15        0.263   0.346   7.866   8.476
   16        0.270   0.359   7.869   8.498
   17        0.263   0.346   7.865   8.474
   18        0.268   0.358   7.862   8.488
   19        0.269   0.361   7.861   8.492
   20        0.271   0.363   7.868   8.502
   21        0.271   0.363   7.868   8.502
   22        0.269   0.362   7.865   8.496
   23        0.264   0.345   7.882   8.491
   24        0.270   0.359   7.869   8.498
   25        0.262   0.340   7.881   8.483
   26        0.269   0.358   7.864   8.491
   27        0.268   0.360   7.865   8.493
   28        0.273   0.368   7.856   8.497
   29        0.273   0.367   7.856   8.496
   30        1.257   2.793   0.006   4.056
   31        1.258   2.793   0.007   4.057
   32        1.259   2.789   0.006   4.053
   33        1.255   2.800   0.006   4.060
   34        1.261   2.782   0.006   4.049
   35        1.261   2.783   0.006   4.050
   36        1.260   2.787   0.006   4.054
   37        1.267   2.768   0.007   4.041
   38        1.258   2.792   0.005   4.055
   39        1.259   2.791   0.005   4.055
   40        1.258   2.793   0.005   4.057
   41        1.263   2.781   0.006   4.050
   42        1.261   2.784   0.006   4.052
   43        1.253   2.804   0.006   4.063
   44        1.258   2.792   0.006   4.055
   45        1.256   2.797   0.006   4.059
   46        1.264   2.774   0.007   4.045
   47        1.258   2.793   0.006   4.057
   48        1.262   2.781   0.007   4.049
   49        1.261   2.787   0.006   4.055
   50        1.259   2.785   0.006   4.050
   51        1.258   2.793   0.005   4.057
   52        1.258   2.792   0.006   4.056
   53        1.257   2.792   0.006   4.055
   54        1.262   2.777   0.007   4.045
   55        1.260   2.786   0.006   4.052
   56        1.259   2.786   0.007   4.052
   57        1.260   2.784   0.006   4.050
   58        1.261   2.781   0.006   4.049
   59        1.258   2.791   0.006   4.055
   60        1.267   2.768   0.007   4.043
   61        1.256   2.799   0.006   4.061
tot          71.65   98.24  127.28  297.16

magnetization (x)

# of ion       s       p       d       tot
    1        0.005   0.015  -0.000   0.020
    2        0.006   0.017  -0.000   0.022
    3        0.005   0.015  -0.000   0.020
    4        0.002   0.007  -0.001   0.008
    5        0.004   0.009  -0.001   0.013
    6        0.003   0.011   0.001   0.015
    7        0.005   0.016  -0.000   0.022
    8        0.006   0.016  -0.000   0.022
    9        0.005   0.007  -0.000   0.012
   10        0.001   0.006  -0.001   0.006
   11        0.006   0.017  -0.000   0.022
   12        0.003   0.012   0.001   0.016
   13        0.005   0.008  -0.000   0.012
   14       -0.000  -0.001   0.538   0.537
   15        0.002  -0.000   0.712   0.714
   16        0.002  -0.000   0.586   0.588
   17        0.002  -0.000   0.637   0.640
   18       -0.000  -0.000   0.537   0.537
   19       -0.000  -0.000   0.534   0.533
   20        0.003  -0.000   0.583   0.586
   21        0.003  -0.000   0.584   0.586
   22        0.000  -0.000   0.547   0.547
   23       -0.004  -0.000  -0.510  -0.515
   24        0.002   0.000   0.587   0.590
   25        0.004  -0.000   0.635   0.638
   26       -0.000   0.000   0.475   0.475
   27        0.000  -0.000   0.568   0.568
   28        0.002  -0.000   0.506   0.508
   29        0.003   0.000   0.537   0.540
   30        0.006   0.025   0.000   0.031
   31        0.008   0.057   0.000   0.065
   32        0.011   0.076   0.000   0.087
   33        0.009   0.073   0.000   0.083
   34       -0.004  -0.085  -0.000  -0.089
   35        0.009   0.076   0.000   0.085
   36        0.008   0.088   0.000   0.096
   37        0.007   0.060   0.000   0.067
   38        0.012   0.078   0.000   0.090
   39        0.012   0.074   0.000   0.087
   40        0.012   0.078   0.000   0.089
   41        0.011   0.060   0.000   0.072
   42        0.008   0.054   0.000   0.062
   43        0.007   0.034   0.000   0.041
   44        0.012   0.088   0.000   0.100
   45        0.008   0.063   0.000   0.071
   46        0.008   0.061   0.000   0.069
   47        0.008   0.050   0.000   0.059
   48        0.007   0.033   0.000   0.041
   49        0.011   0.062   0.000   0.073
   50        0.011   0.075   0.000   0.087
   51        0.001  -0.058  -0.000  -0.057
   52        0.010   0.042   0.000   0.053
   53        0.010   0.091   0.000   0.102
   54        0.008   0.066   0.000   0.074
   55        0.008   0.072   0.000   0.080
   56        0.006   0.030   0.000   0.036
   57        0.008   0.072   0.000   0.080
   58        0.009   0.078   0.000   0.087
   59        0.007   0.046   0.000   0.054
   60        0.008   0.064   0.000   0.072
   61        0.010   0.037   0.000   0.047
tot           0.34    1.87    8.06   10.27