 vasp.5.4.4.18Apr17-6-g9f103f2a35 (build May 12 2020 05:39:39) gamma-only

 MD_VERSION_INFO: Compiled 2020-05-12T12:39:39-UTC in devlin.sd.materialsdesign.
 com:/home/medea2/data/build/wwolf/vasp-gpu5.4.4/13047/x86_64/src/src/build/gam
 from svn 13047

 executed on                        Lin64 date 2023.03.07  02:20:55

 INCAR:
 POTCAR:    PAW_PBE Li_sv 10Sep2004
 POTCAR:    PAW_PBE Ni 02Aug2007
 POTCAR:    PAW_PBE O 08Apr2002

 POTCAR:    PAW_PBE Li_sv 10Sep2004

 POTCAR:    PAW_PBE Ni 02Aug2007

 POTCAR:    PAW_PBE O 08Apr2002

 Optimization of the real space projectors (new method)

 maximal supplied QI-value         = 22.11
 optimisation between [QCUT,QGAM] = [ 11.28, 22.77] = [ 35.61,145.23] Ry
 Optimized for a Real-space Cutoff    1.10 Angstroem

   l    n(q)    QCUT    max X(q) W(low)/X(q) W(high)/X(q)  e(spline)
   0      7    11.276    10.506    0.54E-04    0.58E-04    0.16E-07
   0      7    11.276     8.367    0.11E-03    0.14E-03    0.35E-07
   1      7    11.276     8.983    0.23E-03    0.43E-03    0.86E-07
 Optimization of the real space projectors (new method)

[...]

   l    n(q)    QCUT    max X(q) W(low)/X(q) W(high)/X(q)  e(spline)
   2      9    11.376    60.317    0.17E-03    0.16E-04    0.16E-06
   2      9    11.376    55.921    0.17E-03    0.16E-04    0.17E-06
   0     10    11.376    51.690    0.45E-04    0.60E-04    0.21E-06
   0     10    11.376    30.015    0.37E-04    0.55E-04    0.19E-06
   1     10    11.376    18.849    0.83E-04    0.11E-03    0.92E-07
   1     10    11.376    14.624    0.69E-04    0.92E-04    0.82E-07
 Optimization of the real space projectors (new method)

 maximal supplied QI-value         = 24.76
 optimisation between [QCUT,QGAM] = [ 11.39, 22.77] = [ 36.31,145.25] Ry
 Optimized for a Real-space Cutoff    1.10 Angstroem

   l    n(q)    QCUT    max X(q) W(low)/X(q) W(high)/X(q)  e(spline)
   0      7    11.387    20.381    0.22E-03    0.48E-03    0.18E-06
   0      7    11.387    15.268    0.22E-03    0.52E-03    0.19E-06
   1      7    11.387     5.964    0.22E-03    0.73E-03    0.24E-06
   1      7    11.387     5.382    0.19E-03    0.60E-03    0.21E-06

  PAW_PBE Li_sv 10Sep2004               :
  PAW_PBE Ni 02Aug2007                  :
  PAW_PBE O 08Apr2002                   :

 POSCAR: ce14979_1
  positions in direct lattice
 exchange correlation table for  LEXCH =       14
   RHO(1)=    0.500       N(1)  =     2000
   RHO(2)=  100.500       N(2)  =     4000

 ion  position               nearest neighbor table
   1  0.250  0.251  0.500-  42 2.09  46 2.10  22 2.17  34 2.17  24 2.18  36 2.18
   2  0.250  0.750  0.500-  43 2.08  47 2.10  25 2.17  35 2.17  23 2.17  37 2.17
   3  0.253  0.250  1.000-  26 2.08  30 2.10  52 2.17  50 2.17  40 2.19  38 2.19
   4  0.250  0.749  1.000-  27 2.08  31 2.09  51 2.17  39 2.17  41 2.17  53 2.17
   5  0.750  0.749  1.000-  28 2.14  32 2.14  39 2.15  51 2.15  41 2.15  53 2.16
   6  0.999  0.001  0.000-  33 1.84  30 1.84  32 1.84  31 1.84  40 1.88  41 1.90  11 2.77  11 2.78
                             9 2.81  10 2.81   7 2.82   8 2.82
   7  0.251  0.997  0.249-  36 1.84  24 1.84  53 1.86  41 1.87  47 2.01  30 2.03  10 2.77  10 2.78
                            11 2.81   6 2.82  13 2.82  12 2.82
   8  0.250  0.999  0.749-  52 1.84  40 1.84  37 1.84  25 1.84  46 2.01  31 2.03   9 2.77   9 2.78
                            13 2.81  12 2.81   6 2.82  11 2.82
   9  0.750  0.998  0.749-  37 1.86  25 1.86  52 1.86  40 1.86  49 1.93  32 1.97   8 2.77   8 2.78
                            13 2.81  12 2.81  11 2.81   6 2.81
  10  0.750  0.001  0.251-  36 1.86  24 1.86  53 1.87  41 1.87  48 1.94  33 1.94   7 2.77   7 2.78
                            13 2.81  12 2.81  11 2.81   6 2.81
  11  0.501  0.001  0.000-  33 1.84  30 1.84  32 1.84  31 1.84  52 1.88  53 1.90   6 2.77   6 2.78
                            10 2.81   9 2.81   7 2.81   8 2.82
  12  0.999  0.999  0.500-  48 1.84  49 1.84  46 1.84  47 1.84  25 1.89  24 1.89  13 2.76  13 2.79
                             9 2.81  10 2.81   8 2.81   7 2.82
  13  0.501  0.999  0.500-  48 1.83  49 1.84  46 1.84  47 1.84  37 1.89  36 1.89  12 2.76  12 2.79
                            10 2.81   9 2.81   8 2.81   7 2.82
  14  0.999  0.501  0.500-  44 1.84  45 1.84  42 1.84  43 1.84  23 1.88  22 1.89  19 2.76  19 2.79
                            17 2.80  18 2.81  16 2.81  15 2.82
  15  0.250  0.503  0.752-  22 1.84  34 1.84  39 1.86  51 1.87  43 2.02  26 2.04  18 2.77  18 2.78
                            20 2.81  21 2.81  14 2.82  19 2.82
  16  0.250  0.500  0.250-  38 1.84  23 1.84  50 1.84  35 1.84  42 2.02  27 2.04  17 2.77  17 2.78
                            14 2.81  19 2.81  20 2.82  21 2.82
  17  0.750  0.501  0.251-  23 1.86  35 1.86  38 1.86  50 1.86  45 1.92  28 1.97  16 2.77  16 2.78
                            14 2.80  19 2.80  20 2.82  21 2.82
  18  0.750  0.499  0.749-  22 1.86  34 1.86  39 1.87  51 1.87  44 1.94  29 1.94  15 2.77  15 2.78
                            14 2.81  19 2.81  20 2.81  21 2.81
  19  0.501  0.501  0.500-  44 1.84  45 1.84  42 1.84  43 1.84  35 1.88  34 1.89  14 2.76  14 2.79
                            17 2.80  18 2.81  16 2.81  15 2.82
  20  0.999  0.498  0.999-  26 1.84  29 1.84  28 1.84  27 1.84  38 1.88  39 1.90  21 2.77  21 2.78
                            15 2.81  18 2.81  17 2.82  16 2.82
  21  0.501  0.498  0.999-  26 1.84  29 1.84  28 1.84  27 1.84  50 1.88  51 1.90  20 2.77  20 2.78
                            15 2.81  18 2.81  17 2.82  16 2.82
  22  0.005  0.405  0.635-  15 1.84  18 1.86  14 1.89   1 2.17
  23  0.003  0.596  0.366-  16 1.84  17 1.86  14 1.88   2 2.17
  24  0.005  0.096  0.364-   7 1.84  10 1.86  12 1.89   1 2.18
  25  0.003  0.903  0.634-   8 1.84   9 1.86  12 1.89   2 2.17
  26  0.250  0.396  0.894-  20 1.84  21 1.84  15 2.04   3 2.08
  27  0.250  0.602  0.104-  20 1.84  21 1.84  16 2.04   4 2.08
  28  0.750  0.599  0.108-  20 1.84  21 1.84  17 1.97   5 2.14
  29  0.750  0.400  0.888-  21 1.84  20 1.84  18 1.94
  30  0.250  0.103  0.107-  11 1.84   6 1.84   7 2.03   3 2.10
  31  0.250  0.897  0.895-   6 1.84  11 1.84   8 2.03   4 2.09
  32  0.750  0.900  0.892-   6 1.84  11 1.84   9 1.97   5 2.14
  33  0.750  0.099  0.111-   6 1.84  11 1.84  10 1.94
  34  0.496  0.405  0.635-  15 1.84  18 1.86  19 1.89   1 2.17
  35  0.497  0.596  0.366-  16 1.84  17 1.86  19 1.88   2 2.17
  36  0.495  0.095  0.365-   7 1.84  10 1.86  13 1.89   1 2.18
  37  0.498  0.903  0.634-   8 1.84   9 1.86  13 1.89   2 2.17
  38  0.002  0.404  0.135-  16 1.84  17 1.86  20 1.88   3 2.19
  39  0.998  0.599  0.868-  15 1.86  18 1.87  20 1.90   5 2.15   4 2.17
  40  0.002  0.095  0.865-   8 1.84   9 1.86   6 1.88   3 2.19
  41  0.998  0.901  0.132-   7 1.87  10 1.87   6 1.90   5 2.15   4 2.17
  42  0.250  0.398  0.395-  19 1.84  14 1.84  16 2.02   1 2.09
  43  0.250  0.604  0.606-  19 1.84  14 1.84  15 2.02   2 2.08
  44  0.750  0.598  0.612-  19 1.84  14 1.84  18 1.94
  45  0.750  0.403  0.388-  19 1.84  14 1.84  17 1.92
  46  0.250  0.102  0.606-  12 1.84  13 1.84   8 2.01   1 2.10
  47  0.250  0.897  0.394-  12 1.84  13 1.84   7 2.01   2 2.10
  48  0.750  0.902  0.388-  13 1.83  12 1.84  10 1.94
  49  0.750  0.097  0.612-  12 1.84  13 1.84   9 1.93
  50  0.498  0.405  0.135-  16 1.84  17 1.86  21 1.88   3 2.17
  51  0.503  0.599  0.868-  15 1.87  18 1.87  21 1.90   5 2.15   4 2.17
  52  0.498  0.095  0.865-   8 1.84   9 1.86  11 1.88   3 2.17
  53  0.503  0.901  0.133-   7 1.86  10 1.87  11 1.90   5 2.16   4 2.17

  LATTYP: Found a triclinic cell.
 ALAT       =    11.5745823898
 B/A-ratio  =     0.8454502249
 C/A-ratio  =     0.4794413875
 COS(alpha) =     0.0000105465
 COS(beta)  =     0.0001397020
 COS(gamma) =     0.5516825518

  Lattice vectors:

 A1 = (   6.2710036797,   0.0007309027,   9.7285903303)
 A2 = (   9.7850504134,   0.0000739972,   0.1156041288)
 A3 = (   0.0000106742,   5.5493338181,   0.0004985580)

Analysis of symmetry for initial positions (statically):
 Subroutine PRICEL returns:
 Original cell was already a primitive cell.

 Routine SETGRP: Setting up the symmetry group for a
 triclinic supercell.

 Subroutine GETGRP returns: Found  1 space group operations
 (whereof  1 operations were pure point group operations)
 out of a pool of  2 trial point group operations.

The static configuration has the point symmetry C_1 .

Analysis of symmetry for dynamics (positions and initial velocities):
 Subroutine PRICEL returns:
 Original cell was already a primitive cell.

[...]

The dynamic configuration has the point symmetry C_1 .

Analysis of structural, dynamic, and magnetic symmetry:
 Subroutine PRICEL returns:
 Original cell was already a primitive cell.

 Routine SETGRP: Setting up the symmetry group for a
 triclinic supercell.

 Subroutine GETGRP returns: Found  1 space group operations
 (whereof  1 operations were pure point group operations)
 out of a pool of  2 trial point group operations.

The magnetic configuration has the point symmetry C_1 .

 Subroutine INISYM returns: Found  1 space group operations
 (whereof  1 operations are pure point group operations),
 and found     1 'primitive' translations

 KPOINTS: Automatic mesh

Automatic generation of k-mesh.
Space group operators:
 irot       det(A)        alpha          n_x          n_y          n_z        tau_x        tau_y        tau_z
    1     1.000000     0.000001     1.000000     0.000000     0.000000     0.000000     0.000000     0.000000

 Subroutine IBZKPT returns following result:

 Found      1 irreducible k-points:

 Following reciprocal coordinates:
            Coordinates               Weight
  0.000000  0.000000  0.000000      1.000000

 Following cartesian coordinates:
            Coordinates               Weight
  0.000000  0.000000  0.000000      1.000000

 SYSTEM =  unknown system
 POSCAR =  ce14979_1

 Startparameter for this run:
   NWRITE =      1    write-flag & timer
   PREC   = accura    normal or accurate (medium, high low for compatibility)
   ISTART =      0    job   : 0-new  1-cont  2-samecut
   ICHARG =      2    charge: 1-file 2-atom 10-const
   ISPIN  =      2    spin polarized calculation?
   LNONCOLLINEAR =      F non collinear calculations
   LSORBIT =      F    spin-orbit coupling
   INIWAV =      1    electr: 0-lowe 1-rand  2-diag
   LASPH  =      F    aspherical Exc in radial PAW
   METAGGA=      F    non-selfconsistent MetaGGA calc.

 Electronic Relaxation 1
   ENCUT  =  500.0 eV  36.75 Ry    6.06 a.u.  10.12 18.66 17.84*2*pi/ulx,y,z
   ENINI  =  500.0     initial cutoff
   ENAUG  =  628.9 eV  augmentation charge cutoff
   NELM   =     80;   NELMIN=  2; NELMDL= -5     # of ELM steps
   EDIFF  = 0.1E-04   stopping-criterion for ELM
   LREAL  =      T    real-space projection
   NLSPLINE    = F    spline interpolate recip. space projectors
   LCOMPAT=      F    compatible to vasp.4.4
   GGA_COMPAT  = T    GGA compatible to vasp.4.4-vasp.4.6
   LMAXPAW     = -100 max onsite density
   LMAXMIX     =    2 max onsite mixed and CHGCAR
   VOSKOWN=      1    Vosko Wilk Nusair interpolation
   ROPT   =   -0.00025  -0.00025  -0.00025
 Ionic relaxation
   EDIFFG = -.2E-01   stopping-criterion for IOM
[...]
   -.863E+00 0.563E-01 0.636E+00   0.815E+00 -.547E-01 -.576E+00   0.542E-01 -.264E-02 -.537E-01   -.339E-02 0.474E-03 -.568E-02
   -.429E+00 0.129E-01 0.124E+00   0.428E+00 -.107E-01 -.119E+00   0.701E-02 -.271E-02 0.220E-02   -.350E-02 -.476E-03 -.563E-02
   0.154E+02 0.162E+02 -.629E+02   -.158E+02 -.161E+02 0.638E+02   0.380E+00 -.193E-01 -.881E+00   -.229E-01 -.634E-02 -.321E-01
   -.902E+01 -.148E+00 -.163E+02   0.943E+01 0.154E+00 0.166E+02   -.411E+00 0.135E-02 -.353E+00   -.892E-02 0.142E-02 -.253E-01
   0.103E+02 -.107E+00 -.184E+02   -.104E+02 0.111E+00 0.185E+02   0.118E+00 -.253E-02 -.884E-01   0.636E-02 0.244E-02 -.186E-01
   0.550E+01 0.203E+00 -.120E+02   -.572E+01 -.210E+00 0.122E+02   0.217E+00 0.177E-02 -.200E+00   0.998E-02 -.189E-02 -.199E-01
   -.275E+02 0.105E+00 -.669E+02   0.279E+02 -.110E+00 0.678E+02   -.348E+00 0.300E-03 -.835E+00   -.775E-02 -.175E-02 -.250E-01
   0.155E+02 -.162E+02 -.622E+02   -.158E+02 0.162E+02 0.631E+02   0.376E+00 0.161E-01 -.862E+00   -.231E-01 0.620E-02 -.323E-01
   -.446E+01 0.308E+02 -.220E+02   0.455E+01 -.310E+02 0.219E+02   -.112E+00 0.151E+00 0.650E-01   0.223E-01 -.327E-02 -.145E-01
   -.441E+01 -.309E+02 -.220E+02   0.450E+01 0.310E+02 0.220E+02   -.113E+00 -.150E+00 0.649E-01   0.228E-01 0.302E-02 -.148E-01
   0.329E+01 0.298E+02 0.216E+02   -.337E+01 -.300E+02 -.215E+02   0.619E-01 0.176E+00 -.721E-01   0.170E-01 -.241E-02 0.235E-01
   0.101E+02 0.865E-01 0.150E+02   -.106E+02 -.887E-01 -.154E+02   0.474E+00 0.943E-03 0.345E+00   0.127E-01 -.338E-03 0.245E-01
   -.945E+01 0.379E-02 0.186E+02   0.955E+01 -.345E-02 -.187E+02   -.960E-01 -.152E-02 0.972E-01   -.816E-02 0.508E-03 0.188E-01
   -.471E+01 0.430E-01 0.118E+02   0.489E+01 -.437E-01 -.120E+02   -.163E+00 0.215E-02 0.202E+00   -.109E-01 -.530E-03 0.196E-01
   0.289E+02 -.838E-01 0.672E+02   -.293E+02 0.854E-01 -.680E+02   0.382E+00 -.125E-02 0.838E+00   0.124E-01 0.468E-03 0.249E-01
   0.334E+01 -.298E+02 0.216E+02   -.342E+01 0.300E+02 -.216E+02   0.621E-01 -.175E+00 -.708E-01   0.165E-01 0.251E-02 0.238E-01
   -.160E+02 0.153E+02 0.642E+02   0.164E+02 -.153E+02 -.651E+02   -.410E+00 0.370E-01 0.896E+00   -.195E-01 -.500E-02 0.218E-01
   -.160E+02 -.153E+02 0.633E+02   0.165E+02 0.154E+02 -.642E+02   -.408E+00 -.411E-01 0.879E+00   -.190E-01 0.512E-02 0.216E-01
   -.158E+02 0.274E+02 0.384E+03   0.166E+02 -.288E+02 -.406E+03   -.824E+00 0.145E+01 0.224E+02   0.737E-02 -.118E-01 0.222E-01
   0.177E+02 0.294E+02 -.360E+03   -.188E+02 -.313E+02 0.382E+03   0.108E+01 0.191E+01 -.225E+02   0.124E-01 -.580E-02 0.759E-02
   0.172E+02 0.268E+02 -.384E+03   -.180E+02 -.283E+02 0.406E+03   0.821E+00 0.153E+01 -.229E+02   -.222E-03 -.101E-01 0.152E-02
   -.176E+02 0.290E+02 0.358E+03   0.185E+02 -.309E+02 -.381E+03   -.901E+00 0.195E+01 0.227E+02   0.181E-01 -.806E-02 -.174E-02
   0.560E+02 0.216E+00 0.400E+03   -.618E+02 -.234E+00 -.421E+03   0.587E+01 0.171E-01 0.214E+02   0.420E-02 0.164E-02 0.239E-01
   -.686E+02 0.481E-01 -.360E+03   0.743E+02 -.553E-01 0.380E+03   -.571E+01 0.615E-02 -.201E+02   -.230E-01 0.176E-02 -.844E-02
   -.694E+02 -.102E-01 -.356E+03   0.742E+02 0.169E-01 0.378E+03   -.472E+01 -.505E-02 -.212E+02   -.205E-01 -.174E-02 -.101E-01
   0.242E+02 -.175E+00 0.426E+03   -.256E+02 0.180E+00 -.452E+03   0.141E+01 -.336E-02 0.261E+02   -.427E-02 -.164E-02 0.291E-01
   -.579E+02 0.248E+00 -.399E+03   0.640E+02 -.272E+00 0.420E+03   -.609E+01 0.186E-01 -.210E+02   -.147E-01 0.525E-02 -.681E-02
   0.710E+02 0.135E-01 0.359E+03   -.770E+02 -.198E-01 -.379E+03   0.599E+01 0.103E-02 0.199E+02   -.821E-02 0.540E-02 -.881E-02
   0.698E+02 -.467E-01 0.356E+03   -.744E+02 0.574E-01 -.377E+03   0.462E+01 -.517E-02 0.213E+02   -.143E-01 -.536E-02 -.487E-02
   -.241E+02 -.112E+00 -.426E+03   0.255E+02 0.119E+00 0.452E+03   -.132E+01 -.104E-02 -.261E+02   -.708E-02 -.518E-02 -.116E-01
   -.157E+02 -.274E+02 0.384E+03   0.165E+02 0.289E+02 -.406E+03   -.816E+00 -.146E+01 0.224E+02   0.985E-02 0.118E-01 0.209E-01
   0.177E+02 -.294E+02 -.360E+03   -.188E+02 0.313E+02 0.382E+03   0.108E+01 -.191E+01 -.225E+02   0.975E-02 0.576E-02 0.883E-02
   0.171E+02 -.267E+02 -.384E+03   -.180E+02 0.282E+02 0.406E+03   0.819E+00 -.153E+01 -.229E+02   0.563E-03 0.102E-01 -.129E-03
   -.177E+02 -.291E+02 0.358E+03   0.186E+02 0.311E+02 -.381E+03   -.914E+00 -.197E+01 0.227E+02   0.172E-01 0.812E-02 -.156E-03
   -.297E+02 0.301E+02 0.379E+03   0.311E+02 -.324E+02 -.402E+03   -.138E+01 0.229E+01 0.225E+02   -.232E-01 -.617E-02 0.879E-02
   0.438E+02 0.226E+01 -.323E+03   -.457E+02 -.238E+01 0.341E+03   0.191E+01 0.137E+00 -.180E+02   0.366E-02 -.108E-01 -.935E-02
   0.305E+02 0.301E+02 -.379E+03   -.319E+02 -.324E+02 0.401E+03   0.133E+01 0.231E+01 -.228E+02   -.100E-01 -.879E-02 -.135E-01
   -.448E+02 0.192E+01 0.322E+03   0.466E+02 -.201E+01 -.341E+03   -.182E+01 0.913E-01 0.182E+02   -.788E-02 -.979E-02 -.168E-01
   0.479E+02 -.438E-01 0.391E+03   -.531E+02 0.497E-01 -.412E+03   0.529E+01 -.388E-02 0.209E+02   0.134E-01 -.222E-02 0.141E-01
   -.397E+02 0.425E-01 -.369E+03   0.446E+02 -.433E-01 0.390E+03   -.497E+01 0.262E-02 -.208E+02   0.434E-02 -.230E-02 0.117E-02
   -.823E+01 0.215E-01 -.384E+03   0.949E+01 -.273E-01 0.410E+03   -.128E+01 0.360E-02 -.259E+02   0.140E-01 0.234E-02 -.330E-02
   0.190E+02 -.136E-01 0.409E+03   -.203E+02 0.120E-01 -.435E+03   0.128E+01 -.668E-03 0.263E+02   0.110E-01 0.223E-02 0.151E-01
   -.509E+02 0.170E-02 -.390E+03   0.564E+02 -.537E-02 0.411E+03   -.558E+01 0.694E-03 -.207E+02   0.154E-01 0.182E-02 -.220E-03
   0.410E+02 -.535E-01 0.370E+03   -.459E+02 0.539E-01 -.390E+03   0.496E+01 -.318E-02 0.207E+02   0.831E-02 0.190E-02 -.153E-01
   0.759E+01 0.309E-01 0.384E+03   -.869E+01 -.312E-01 -.410E+03   0.111E+01 0.169E-02 0.259E+02   -.776E-03 -.191E-02 -.119E-01
   -.201E+02 0.542E-01 -.408E+03   0.214E+02 -.555E-01 0.434E+03   -.131E+01 0.339E-02 -.262E+02   0.225E-01 -.186E-02 -.389E-02
   -.300E+02 -.304E+02 0.379E+03   0.315E+02 0.327E+02 -.401E+03   -.142E+01 -.232E+01 0.224E+02   -.250E-01 0.623E-02 0.927E-02
   0.438E+02 -.225E+01 -.323E+03   -.458E+02 0.237E+01 0.341E+03   0.193E+01 -.136E+00 -.180E+02   0.548E-02 0.108E-01 -.962E-02
   0.310E+02 -.303E+02 -.378E+03   -.323E+02 0.326E+02 0.401E+03   0.138E+01 -.233E+01 -.227E+02   -.542E-02 0.887E-02 -.165E-01
   -.450E+02 -.193E+01 0.322E+03   0.468E+02 0.201E+01 -.341E+03   -.184E+01 -.898E-01 0.182E+02   -.125E-01 0.973E-02 -.138E-01
   0.377E-01 0.628E-01 0.130E+00   0.142E-12 0.950E-13 -.568E-13   -.257E-01 -.659E-01 -.112E+00   -.356E-02 0.863E-03 -.140E-01

 POSITION                                       TOTAL-FORCE (eV/Angst)
      4.01586      1.38767      2.48031        -0.003166      0.000912     -0.001033
      2.26658      1.38888      7.31026         0.000733      0.000579     -0.001625
      8.90108      1.40099      2.54267         0.003066     -0.003793      0.001765
      7.15601      1.39015      7.37464         0.002173     -0.000508      0.000197
      7.15375      4.16684      7.37451         0.001760     -0.000883      0.001617
     -0.00059      5.54998      0.00507        -0.000525      0.000356     -0.014042
     -1.04990      1.38925      9.65472        -0.002773      0.009324     -0.016091
      3.83537      1.38928      9.74901         0.001319      0.004019     -0.003492
      3.83470      4.16619      9.74034         0.002465     -0.007404     -0.005178
      2.44669      4.16564      0.03786        -0.004113     -0.005980     -0.016672
     -0.00039      2.78145      0.00437        -0.000868     -0.001126     -0.014255
      1.39257      5.54780      9.71597         0.002334      0.004889     -0.006441
      1.39266      2.78368      9.71580         0.000130     -0.001853     -0.006816
      3.14059      5.54730      4.90198        -0.000134      0.000062      0.002116
      5.58803      1.38917      4.96173         0.006692     -0.001546      0.017074
      0.69965      1.38889      4.86543        -0.001377     -0.000630      0.004990
      0.70217      4.16554      4.87396         0.000174      0.001043      0.005862
      5.58219      4.16556      4.92183         0.004556      0.000909      0.018746
      3.14057      2.78352      4.90179        -0.001397      0.001231      0.001738
      8.02824      5.54978      4.95085        -0.000591     -0.002851      0.015024
      8.02805      2.78173      4.95132        -0.000471      0.001117      0.014027
      4.80127      0.02708      3.99956         0.006304     -0.001061      0.013281
      1.48925      0.01475      5.80813        -0.003327      0.001004     -0.004377
      3.22681      0.02477      0.96291        -0.009635     -0.000794     -0.009319
      3.04426      0.01464      8.80843         0.005165      0.000681     -0.001715
      7.34542      1.38960      3.96130         0.012114      0.000781      0.014397
     -1.07793      1.38890      5.82544        -0.012976      0.000850      0.014660
     -1.03864      4.16576      5.80555        -0.003104     -0.000051      0.008358
      7.28678      4.16557      3.99387         0.002431      0.000531      0.019446
      0.67382      1.38936      0.99775         0.000898     -0.000301     -0.015905
      5.62291      1.38957      8.78036        -0.000448      0.000139     -0.003483
      5.57341      4.16631      8.80489         0.003253      0.000192     -0.005614
      0.74034      4.16546      0.96251        -0.002400      0.000485     -0.014001
      4.80125      2.75114      3.99988         0.006874      0.001169      0.011738
      1.48916      2.76286      5.80807        -0.003761     -0.000504     -0.002965
      3.22665      2.75319      0.96308        -0.009085     -0.000874     -0.012265
      3.04435      2.76396      8.80848         0.006687      0.001061      0.001790
     -0.08770      0.01165      3.92756        -0.000629      0.001118      0.012785
      6.38587      5.54045      5.90260        -0.007424      0.000361      0.004711
      8.11813      0.01242      1.02944        -0.003282     -0.000282     -0.007957
     -1.84881      5.54142      8.71324         0.005285     -0.001324     -0.010859
      2.46395      1.38894      3.90451         0.014570     -0.000228     -0.002999
      3.81658      1.38892      5.90147        -0.012553     -0.000448      0.001780
      3.88585      4.16537      5.85487        -0.008144      0.000154      0.002715
      2.39378      4.16549      3.94764         0.004264      0.000015      0.003390
      5.55382      1.38889      1.06034        -0.004868     -0.001111     -0.006631
      0.72540      1.38940      8.71114         0.004206     -0.000851     -0.000565
      0.64731      4.16582      8.76148         0.008146     -0.000562     -0.003817
      5.63585      4.16531      1.01258        -0.003812      0.000231     -0.004279
     -0.08800      2.76658      3.92765        -0.000806      0.000652      0.013140
      6.38566      2.79078      5.90281        -0.006692      0.000177      0.004689
      8.11853      2.76595      1.02948        -0.005157      0.000863     -0.008405
     -1.84891      2.79065      8.71277         0.007919      0.000060     -0.009235
    total drift:                                0.008465     -0.002249      0.003765

  FREE ENERGIE OF THE ION-ELECTRON SYSTEM (eV)
  free  energy   TOTEN  =      -329.9352805750 eV

  energy  without entropy=     -329.9332933457  energy(sigma->0) =     -329.93428696

 d Force = 0.7367205E-03[ 0.626E-03, 0.847E-03]  d Energy = 0.1022026E-02-0.285E-03
 d Force =-0.1093071E+02[-0.110E+02,-0.109E+02]  d Ewald  =-0.2260179E+02 0.117E+02

 Quasi-Newton relaxation of ions (Broydens 2nd method)
  g(Force)  = 0.333E-03   g(Stress)= 0.144E-03

 retain information from N=  3 steps
 eigenvalues of (default step * inverse Hessian matrix)
  average eigenvalue of G=   4.8220
 eigenvalue spectrum of G is  6.7007  6.7007  1.0645

 reached required accuracy - stopping structural energy minimisation

volume of typ            1:     7.4 %

[...]

volume of typ            3:     9.9 %

total charge

# of ion       s       p       d       tot
    1        2.061   0.195   0.072   2.327
    2        2.064   0.201   0.076   2.340
    3        2.061   0.192   0.072   2.325
    4        2.070   0.217   0.080   2.367
    5        2.067   0.209   0.077   2.354
    6        0.304   0.437   7.840   8.581
    7        0.276   0.371   7.856   8.502
    8        0.283   0.384   7.855   8.522
    9        0.280   0.381   7.832   8.493
   10        0.283   0.387   7.837   8.507
   11        0.304   0.437   7.839   8.581
   12        0.305   0.437   7.834   8.576
   13        0.305   0.437   7.834   8.575
   14        0.304   0.437   7.834   8.575
   15        0.277   0.373   7.856   8.506
   16        0.284   0.387   7.855   8.526
   17        0.280   0.381   7.834   8.495
   18        0.282   0.386   7.838   8.506
   19        0.304   0.437   7.834   8.575
   20        0.304   0.436   7.839   8.580
   21        0.304   0.437   7.839   8.580
   22        1.273   2.757   0.008   4.037
   23        1.272   2.760   0.008   4.040
   24        1.272   2.757   0.008   4.037
   25        1.271   2.761   0.008   4.040
   26        1.274   2.754   0.007   4.035
   27        1.273   2.758   0.007   4.038
   28        1.273   2.757   0.007   4.038
   29        1.283   2.727   0.008   4.019
   30        1.274   2.755   0.007   4.036
   31        1.273   2.758   0.007   4.038
   32        1.272   2.758   0.007   4.038
   33        1.283   2.728   0.008   4.019
   34        1.273   2.757   0.008   4.037
   35        1.272   2.760   0.008   4.040
   36        1.272   2.757   0.008   4.036
   37        1.271   2.760   0.008   4.040
   38        1.272   2.758   0.008   4.038
   39        1.262   2.785   0.007   4.054
   40        1.272   2.759   0.008   4.039
   41        1.262   2.785   0.007   4.054
   42        1.274   2.754   0.007   4.035
   43        1.274   2.755   0.007   4.036
   44        1.283   2.731   0.008   4.021
   45        1.284   2.726   0.008   4.018
   46        1.274   2.755   0.007   4.036
   47        1.273   2.757   0.007   4.037
   48        1.282   2.731   0.008   4.021
   49        1.284   2.725   0.008   4.017
   50        1.272   2.759   0.008   4.039
   51        1.262   2.785   0.007   4.054
   52        1.272   2.760   0.008   4.039
   53        1.262   2.785   0.007   4.054
tot          55.74   95.73  126.07  277.55

magnetization (x)

# of ion       s       p       d       tot
    1        0.005   0.008   0.000   0.013
    2       -0.000   0.001   0.000   0.001
    3       -0.000   0.001   0.000   0.001
    4        0.005   0.008   0.000   0.013
    5       -0.000   0.001  -0.000   0.001
    6       -0.000   0.000   0.081   0.080
    7        0.002   0.001   0.529   0.531
    8        0.003   0.001   0.539   0.543
    9        0.000   0.001   0.209   0.209
   10       -0.000   0.000   0.205   0.206
   11       -0.000   0.000   0.081   0.080
   12       -0.000   0.000   0.060   0.059
   13       -0.000   0.000   0.060   0.059
   14        0.000   0.000   0.086   0.086
   15       -0.002   0.001  -0.490  -0.491
   16        0.003   0.001   0.485   0.488
   17       -0.000   0.000  -0.192  -0.192
   18        0.000   0.001   0.187   0.188
   19        0.000   0.000   0.086   0.086
   20        0.000   0.000   0.105   0.105
   21        0.000   0.000   0.106   0.106
   22        0.001  -0.003   0.000  -0.003
   23        0.001   0.015   0.000   0.016
   24        0.003   0.011   0.000   0.014
   25        0.002   0.012   0.000   0.015
   26       -0.003  -0.051  -0.000  -0.054
   27        0.006   0.049   0.000   0.056
   28       -0.000  -0.008  -0.000  -0.008
   29        0.003   0.022   0.000   0.025
   30        0.006   0.062   0.000   0.069
   31        0.007   0.056   0.000   0.063
   32        0.003   0.005   0.000   0.008
   33        0.003   0.015   0.000   0.018
   34        0.001  -0.003   0.000  -0.003
   35        0.001   0.015   0.000   0.016
   36        0.003   0.011   0.000   0.014
   37        0.002   0.012   0.000   0.014
   38        0.001   0.016   0.000   0.017
   39        0.001   0.002   0.000   0.003
   40        0.003   0.015   0.000   0.017
   41        0.003   0.006   0.000   0.009
   42        0.006   0.053   0.000   0.060
   43       -0.004  -0.051  -0.000  -0.055
   44        0.003   0.019   0.000   0.022
   45       -0.001  -0.021  -0.000  -0.022
   46        0.007   0.064   0.000   0.071
   47        0.006   0.061   0.000   0.067
   48        0.002   0.012   0.000   0.014
   49        0.003   0.014   0.000   0.017
   50        0.001   0.016   0.000   0.017
   51        0.001   0.002   0.000   0.003
   52        0.003   0.015   0.000   0.017
   53        0.003   0.006   0.000   0.009
tot           0.09    0.47    2.14    2.70