 vasp.5.4.4.18Apr17-6-g9f103f2a35 (build May 12 2020 05:39:39) gamma-only

 MD_VERSION_INFO: Compiled 2020-05-12T12:39:39-UTC in devlin.sd.materialsdesign.
 com:/home/medea2/data/build/wwolf/vasp-gpu5.4.4/13047/x86_64/src/src/build/gam
 from svn 13047

 executed on                        Lin64 date 2023.03.07  02:57:17

 INCAR:
 POTCAR:    PAW_PBE Li_sv 10Sep2004
 POTCAR:    PAW_PBE Ni 02Aug2007
 POTCAR:    PAW_PBE O 08Apr2002

 POTCAR:    PAW_PBE Li_sv 10Sep2004

 POTCAR:    PAW_PBE Ni 02Aug2007

 POTCAR:    PAW_PBE O 08Apr2002

 Optimization of the real space projectors (new method)

 maximal supplied QI-value         = 22.11
 optimisation between [QCUT,QGAM] = [ 11.28, 22.77] = [ 35.61,145.23] Ry
 Optimized for a Real-space Cutoff    1.10 Angstroem

   l    n(q)    QCUT    max X(q) W(low)/X(q) W(high)/X(q)  e(spline)
   0      7    11.276    10.506    0.54E-04    0.58E-04    0.16E-07
   0      7    11.276     8.367    0.11E-03    0.14E-03    0.35E-07
   1      7    11.276     8.983    0.23E-03    0.43E-03    0.86E-07
 Optimization of the real space projectors (new method)

[...]

   l    n(q)    QCUT    max X(q) W(low)/X(q) W(high)/X(q)  e(spline)
   2      9    11.376    60.317    0.17E-03    0.16E-04    0.16E-06
   2      9    11.376    55.921    0.17E-03    0.16E-04    0.17E-06
   0     10    11.376    51.690    0.45E-04    0.60E-04    0.21E-06
   0     10    11.376    30.015    0.37E-04    0.55E-04    0.19E-06
   1     10    11.376    18.849    0.83E-04    0.11E-03    0.92E-07
   1     10    11.376    14.624    0.69E-04    0.92E-04    0.82E-07
 Optimization of the real space projectors (new method)

 maximal supplied QI-value         = 24.76
 optimisation between [QCUT,QGAM] = [ 11.39, 22.77] = [ 36.31,145.25] Ry
 Optimized for a Real-space Cutoff    1.10 Angstroem

   l    n(q)    QCUT    max X(q) W(low)/X(q) W(high)/X(q)  e(spline)
   0      7    11.387    20.381    0.22E-03    0.48E-03    0.18E-06
   0      7    11.387    15.268    0.22E-03    0.52E-03    0.19E-06
   1      7    11.387     5.964    0.22E-03    0.73E-03    0.24E-06
   1      7    11.387     5.382    0.19E-03    0.60E-03    0.21E-06

  PAW_PBE Li_sv 10Sep2004               :
  PAW_PBE Ni 02Aug2007                  :
  PAW_PBE O 08Apr2002                   :

 POSCAR: ce13435_1
  positions in direct lattice
 exchange correlation table for  LEXCH =       14
   RHO(1)=    0.500       N(1)  =     2000
   RHO(2)=  100.500       N(2)  =     4000

 ion  position               nearest neighbor table
   1  0.250  0.250  0.500-  49 2.12  45 2.12  37 2.13  27 2.13  39 2.13  25 2.13
   2  0.250  0.750  0.500-  50 2.12  46 2.12  38 2.13  28 2.13  40 2.13  26 2.13
   3  0.750  0.750  0.500-  51 2.12  47 2.12  38 2.13  28 2.13  40 2.13  26 2.13
   4  0.750  0.250  0.500-  52 2.12  48 2.12  37 2.13  27 2.13  39 2.13  25 2.13
   5  0.250  0.250  1.000-  33 2.12  29 2.12  41 2.13  43 2.13  55 2.13  53 2.14
   6  0.250  0.750  0.000-  34 2.12  30 2.12  42 2.13  44 2.13  56 2.13  54 2.14
   7  0.750  0.750  0.000-  35 2.12  31 2.12  42 2.13  44 2.13  56 2.13  54 2.14
   8  0.750  0.250  1.000-  36 2.12  32 2.12  41 2.13  43 2.13  55 2.13  53 2.14
   9  0.000  0.000  0.000-  33 1.85  34 1.85  35 1.85  36 1.85  43 1.90  44 1.90  14 2.81  14 2.81
                            10 2.82  11 2.82  12 2.82  13 2.82
  10  0.250  1.000  0.250-  44 1.88  39 1.88  27 1.88  56 1.88  50 1.98  33 1.98  13 2.81  13 2.81
                            15 2.81  16 2.81   9 2.82  14 2.82
  11  0.250  0.000  0.750-  43 1.88  40 1.88  28 1.88  55 1.88  49 1.98  34 1.98  12 2.81  12 2.81
                            15 2.81  16 2.81   9 2.82  14 2.82
  12  0.750  0.000  0.750-  43 1.88  40 1.88  28 1.88  55 1.88  52 1.98  35 1.98  11 2.81  11 2.81
                            15 2.81  16 2.81   9 2.82  14 2.82
  13  0.750  1.000  0.250-  44 1.88  39 1.88  27 1.88  56 1.88  51 1.98  36 1.98  10 2.81  10 2.81
                            15 2.81  16 2.81   9 2.82  14 2.82
  14  0.500  0.000  0.000-  33 1.85  34 1.85  35 1.85  36 1.85  55 1.90  56 1.90   9 2.81   9 2.81
                            13 2.82  10 2.82  11 2.82  12 2.82
  15  0.000  0.000  0.500-  49 1.85  50 1.85  51 1.85  52 1.85  27 1.90  28 1.90  16 2.81  16 2.81
                            10 2.81  11 2.81  12 2.81  13 2.81
  16  0.500  0.000  0.500-  49 1.85  50 1.85  51 1.85  52 1.85  39 1.90  40 1.90  15 2.81  15 2.81
                            10 2.81  11 2.81  12 2.81  13 2.81
  17  0.000  0.500  0.500-  45 1.85  46 1.85  47 1.85  48 1.85  25 1.90  26 1.90  22 2.81  22 2.81
                            18 2.82  19 2.82  20 2.82  21 2.82
  18  0.250  0.500  0.750-  25 1.88  54 1.88  42 1.89  37 1.89  46 1.98  29 1.98  21 2.81  21 2.81
                            23 2.81  24 2.81  17 2.82  22 2.82
  19  0.250  0.500  0.250-  26 1.88  53 1.88  41 1.89  38 1.89  45 1.98  30 1.98  20 2.81  20 2.81
                            23 2.81  24 2.81  17 2.82  22 2.82
  20  0.750  0.500  0.250-  26 1.88  53 1.88  41 1.89  38 1.89  48 1.98  31 1.98  19 2.81  19 2.81
                            23 2.81  24 2.81  17 2.82  22 2.82
  21  0.750  0.500  0.750-  25 1.88  54 1.88  42 1.89  37 1.89  47 1.98  32 1.98  18 2.81  18 2.81
                            23 2.81  24 2.81  17 2.82  22 2.82
  22  0.500  0.500  0.500-  45 1.85  46 1.85  47 1.85  48 1.85  37 1.90  38 1.90  17 2.81  17 2.81
                            21 2.82  18 2.82  19 2.82  20 2.82
  23  0.000  0.500  0.000-  31 1.85  32 1.85  29 1.85  30 1.85  41 1.90  42 1.90  24 2.81  24 2.81
                            18 2.81  19 2.81  20 2.81  21 2.81
  24  0.500  0.500  0.000-  29 1.85  30 1.85  31 1.85  32 1.85  53 1.90  54 1.90  23 2.81  23 2.81
                            18 2.81  19 2.81  20 2.81  21 2.81
  25  0.000  0.398  0.632-  18 1.88  21 1.88  17 1.90   4 2.13   1 2.13
  26  0.000  0.602  0.368-  19 1.88  20 1.88  17 1.90   3 2.13   2 2.13
  27  0.000  0.102  0.368-  10 1.88  13 1.88  15 1.90   4 2.13   1 2.13
  28  0.000  0.898  0.632-  11 1.88  12 1.88  15 1.90   3 2.13   2 2.13
  29  0.250  0.398  0.891-  24 1.85  23 1.85  18 1.98   5 2.12
  30  0.250  0.602  0.109-  24 1.85  23 1.85  19 1.98   6 2.12
  31  0.750  0.602  0.109-  24 1.85  23 1.85  20 1.98   7 2.12
  32  0.750  0.398  0.891-  24 1.85  23 1.85  21 1.98   8 2.12
  33  0.250  0.102  0.109-  14 1.85   9 1.85  10 1.98   5 2.12
  34  0.250  0.898  0.891-  14 1.85   9 1.85  11 1.98   6 2.12
  35  0.750  0.898  0.891-  14 1.85   9 1.85  12 1.98   7 2.12
  36  0.750  0.102  0.109-  14 1.85   9 1.85  13 1.98   8 2.12
  37  0.500  0.398  0.632-  18 1.89  21 1.89  22 1.90   4 2.13   1 2.13
  38  0.500  0.602  0.368-  19 1.89  20 1.89  22 1.90   3 2.13   2 2.13
  39  0.500  0.102  0.368-  10 1.88  13 1.88  16 1.90   4 2.13   1 2.13
  40  0.500  0.898  0.632-  11 1.88  12 1.88  16 1.90   3 2.13   2 2.13
  41  0.000  0.398  0.131-  19 1.89  20 1.89  23 1.90   8 2.13   5 2.13
  42  0.000  0.602  0.869-  18 1.89  21 1.89  23 1.90   7 2.13   6 2.13
  43  0.000  0.102  0.868-  11 1.88  12 1.88   9 1.90   8 2.13   5 2.13
  44  0.000  0.898  0.132-  10 1.88  13 1.88   9 1.90   7 2.13   6 2.13
  45  0.250  0.398  0.391-  17 1.85  22 1.85  19 1.98   1 2.12
  46  0.250  0.602  0.609-  17 1.85  22 1.85  18 1.98   2 2.12
  47  0.750  0.602  0.609-  17 1.85  22 1.85  21 1.98   3 2.12
  48  0.750  0.398  0.391-  17 1.85  22 1.85  20 1.98   4 2.12
  49  0.250  0.102  0.609-  16 1.85  15 1.85  11 1.98   1 2.12
  50  0.250  0.898  0.391-  16 1.85  15 1.85  10 1.98   2 2.12
  51  0.750  0.898  0.391-  16 1.85  15 1.85  13 1.98   3 2.12
  52  0.750  0.102  0.609-  16 1.85  15 1.85  12 1.98   4 2.12
  53  0.500  0.398  0.132-  19 1.88  20 1.88  24 1.90   8 2.14   5 2.14
  54  0.500  0.602  0.868-  18 1.88  21 1.88  24 1.90   7 2.14   6 2.14
  55  0.500  0.102  0.868-  11 1.88  12 1.88  14 1.90   8 2.13   5 2.13
  56  0.500  0.898  0.132-  10 1.88  13 1.88  14 1.90   7 2.13   6 2.13

  LATTYP: Found a simple monoclinic cell.
 ALAT       =    11.4042545501
 B/A-ratio  =     0.4925322790
 C/A-ratio  =     1.6872152347
 COS(beta)  =    -0.9059866430

  Lattice vectors:

 A1 = (  -6.2129432114,   0.0000000000,  -9.5632817848)
 A2 = (   0.0000000000,  -5.6169634837,   0.0000000000)
 A3 = (   2.6668906370,   0.0000000000,  19.0557183130)

Analysis of symmetry for initial positions (statically):
 Subroutine PRICEL returns:
 Original cell was already a primitive cell.

 Routine SETGRP: Setting up the symmetry group for a
 simple monoclinic supercell.

 Subroutine GETGRP returns: Found  4 space group operations
 (whereof  4 operations were pure point group operations)
 out of a pool of  4 trial point group operations.

The static configuration has the point symmetry C_2h.

Analysis of symmetry for dynamics (positions and initial velocities):
 Subroutine PRICEL returns:
 Original cell was already a primitive cell.

[...]

The dynamic configuration has the point symmetry C_2h.

Analysis of structural, dynamic, and magnetic symmetry:
 Subroutine PRICEL returns:
 Original cell was already a primitive cell.

 Routine SETGRP: Setting up the symmetry group for a
 simple monoclinic supercell.

 Subroutine GETGRP returns: Found  4 space group operations
 (whereof  4 operations were pure point group operations)
 out of a pool of  4 trial point group operations.

The magnetic configuration has the point symmetry C_2h.

 Subroutine INISYM returns: Found  4 space group operations
 (whereof  4 operations are pure point group operations),
 and found     1 'primitive' translations

 KPOINTS: Automatic mesh

Automatic generation of k-mesh.
Space group operators:
 irot       det(A)        alpha          n_x          n_y          n_z        tau_x        tau_y        tau_z
    1     1.000000     0.000000     1.000000     0.000000     0.000000     0.000000     0.000000     0.000000
    2    -1.000000     0.000000     1.000000     0.000000     0.000000     0.000000     0.000000     0.000000
    3     1.000000   180.000000     0.000000     1.000000     0.000000     0.000000     0.000000     0.000000
    4    -1.000000   180.000000     0.000000     1.000000     0.000000     0.000000     0.000000     0.000000

 Subroutine IBZKPT returns following result:

 Found      1 irreducible k-points:

 Following reciprocal coordinates:
            Coordinates               Weight
  0.000000  0.000000  0.000000      1.000000

 Following cartesian coordinates:
            Coordinates               Weight
  0.000000  0.000000  0.000000      1.000000

 SYSTEM =  unknown system
 POSCAR =  ce13435_1

 Startparameter for this run:
   NWRITE =      1    write-flag & timer
   PREC   = accura    normal or accurate (medium, high low for compatibility)
   ISTART =      0    job   : 0-new  1-cont  2-samecut
   ICHARG =      2    charge: 1-file 2-atom 10-const
   ISPIN  =      2    spin polarized calculation?
   LNONCOLLINEAR =      F non collinear calculations
   LSORBIT =      F    spin-orbit coupling
   INIWAV =      1    electr: 0-lowe 1-rand  2-diag
   LASPH  =      F    aspherical Exc in radial PAW
   METAGGA=      F    non-selfconsistent MetaGGA calc.

 Electronic Relaxation 1
   ENCUT  =  500.0 eV  36.75 Ry    6.06 a.u.  10.24 18.48 17.79*2*pi/ulx,y,z
[...]
   -.213E-12 -.333E-13 0.362E-13   0.568E-13 0.167E-12 -.639E-13   -.265E-22 0.000E+00 0.227E-22   0.393E-12 -.672E-13 0.104E-12
   0.634E-01 -.719E-01 -.628E-01   -.773E-01 0.712E-01 0.679E-01   -.384E-02 -.531E-03 0.362E-02   0.848E-02 0.489E-02 -.191E-02
   -.634E-01 -.719E-01 0.628E-01   0.773E-01 0.712E-01 -.679E-01   0.384E-02 -.531E-03 -.362E-02   -.848E-02 0.489E-02 0.191E-02
   -.634E-01 0.719E-01 0.628E-01   0.773E-01 -.712E-01 -.679E-01   0.384E-02 0.531E-03 -.362E-02   -.848E-02 -.489E-02 0.191E-02
   0.634E-01 0.719E-01 -.628E-01   -.773E-01 -.712E-01 0.679E-01   -.384E-02 0.531E-03 0.362E-02   0.848E-02 -.489E-02 -.191E-02
   -.151E-10 0.985E-12 -.229E-11   -.114E-12 -.875E-13 0.426E-13   0.000E+00 0.000E+00 -.265E-22   0.381E-12 0.117E-12 0.113E-12
   0.148E-11 -.492E-13 0.137E-12   0.000E+00 0.252E-13 -.249E-13   -.529E-22 0.000E+00 -.167E-21   -.412E-12 -.485E-13 0.181E-12
   0.848E-12 0.101E-11 -.194E-11   0.284E-13 0.199E-12 -.746E-13   0.000E+00 0.000E+00 0.118E-22   -.411E-12 0.964E-13 0.184E-12
   0.170E-11 -.277E-14 0.179E-13   -.213E-13 0.558E-13 0.853E-13   0.000E+00 0.000E+00 -.339E-22   -.688E-13 -.912E-13 -.298E-12
   0.289E+00 -.153E+00 -.131E+00   -.292E+00 0.165E+00 0.131E+00   0.481E-02 -.547E-03 -.302E-02   -.122E-02 -.499E-02 -.723E-03
   -.289E+00 -.153E+00 0.131E+00   0.292E+00 0.165E+00 -.131E+00   -.481E-02 -.547E-03 0.302E-02   0.122E-02 -.499E-02 0.723E-03
   -.289E+00 0.153E+00 0.131E+00   0.292E+00 -.165E+00 -.131E+00   -.481E-02 0.547E-03 0.302E-02   0.122E-02 0.499E-02 0.723E-03
   0.289E+00 0.153E+00 -.131E+00   -.292E+00 -.165E+00 0.131E+00   0.481E-02 0.547E-03 -.302E-02   -.122E-02 0.499E-02 -.723E-03
   -.140E-11 0.955E-12 0.141E-11   -.204E-13 -.237E-13 0.000E+00   0.000E+00 0.000E+00 0.108E-22   -.778E-13 0.152E-12 -.282E-12
   -.285E-12 -.101E-11 -.446E-13   -.275E-13 -.104E-12 0.426E-13   0.000E+00 0.000E+00 0.993E-23   0.558E-13 -.930E-13 0.167E-12
   -.234E-11 -.485E-13 -.411E-11   -.275E-13 0.748E-13 -.426E-13   0.000E+00 0.000E+00 -.744E-22   0.444E-13 0.154E-12 0.184E-12
   -.402E+02 -.550E-13 0.320E+03   0.431E+02 -.618E-13 -.336E+03   -.298E+01 0.000E+00 0.168E+02   0.316E-02 0.137E-13 0.311E-02
   0.402E+02 0.368E-13 -.320E+03   -.431E+02 -.621E-13 0.336E+03   0.298E+01 0.265E-22 -.168E+02   -.316E-02 -.133E-12 -.311E-02
   0.406E+02 0.248E-13 -.320E+03   -.436E+02 0.431E-13 0.336E+03   0.302E+01 0.000E+00 -.168E+02   -.425E-02 -.101E-12 -.792E-02
   -.406E+02 -.986E-13 0.320E+03   0.436E+02 0.540E-13 -.336E+03   -.302E+01 0.132E-22 0.168E+02   0.425E-02 0.513E-13 0.792E-02
   0.564E+02 -.162E+00 0.356E+03   -.611E+02 0.173E+00 -.377E+03   0.466E+01 -.248E-02 0.205E+02   -.117E-01 -.888E-02 -.798E-02
   -.564E+02 -.162E+00 -.356E+03   0.611E+02 0.173E+00 0.377E+03   -.466E+01 -.248E-02 -.205E+02   0.117E-01 -.888E-02 0.798E-02
   -.564E+02 0.162E+00 -.356E+03   0.611E+02 -.173E+00 0.377E+03   -.466E+01 0.248E-02 -.205E+02   0.117E-01 0.888E-02 0.798E-02
   0.564E+02 0.162E+00 0.356E+03   -.611E+02 -.173E+00 -.377E+03   0.466E+01 0.248E-02 0.205E+02   -.117E-01 0.888E-02 -.798E-02
   -.564E+02 -.460E-01 -.357E+03   0.611E+02 0.453E-01 0.377E+03   -.467E+01 -.301E-02 -.205E+02   0.711E-02 0.267E-02 -.440E-02
   0.564E+02 -.460E-01 0.357E+03   -.611E+02 0.453E-01 -.377E+03   0.467E+01 -.301E-02 0.205E+02   -.711E-02 0.267E-02 0.440E-02
   0.564E+02 0.460E-01 0.357E+03   -.611E+02 -.453E-01 -.377E+03   0.467E+01 0.301E-02 0.205E+02   -.711E-02 -.267E-02 0.440E-02
   -.564E+02 0.460E-01 -.357E+03   0.611E+02 -.453E-01 0.377E+03   -.467E+01 0.301E-02 -.205E+02   0.711E-02 -.267E-02 -.440E-02
   -.408E+02 0.153E-12 0.319E+03   0.438E+02 -.208E-13 -.336E+03   -.303E+01 0.000E+00 0.167E+02   0.177E-01 0.539E-13 -.733E-02
   0.408E+02 0.109E-12 -.319E+03   -.438E+02 -.272E-13 0.336E+03   0.303E+01 0.000E+00 -.167E+02   -.177E-01 0.146E-12 0.733E-02
   0.406E+02 0.124E-12 -.320E+03   -.436E+02 0.886E-13 0.336E+03   0.301E+01 0.000E+00 -.168E+02   0.680E-02 0.114E-12 -.157E-01
   -.406E+02 0.237E-12 0.320E+03   0.436E+02 0.135E-12 -.336E+03   -.301E+01 0.000E+00 0.168E+02   -.680E-02 0.179E-13 0.157E-01
   -.411E+02 -.165E-13 0.319E+03   0.441E+02 0.283E-13 -.336E+03   -.303E+01 0.000E+00 0.167E+02   0.885E-02 -.104E-12 0.201E-02
   0.411E+02 -.631E-13 -.319E+03   -.441E+02 0.625E-13 0.336E+03   0.303E+01 0.000E+00 -.167E+02   -.885E-02 -.129E-13 -.201E-02
   0.406E+02 -.107E-12 -.319E+03   -.436E+02 0.792E-13 0.336E+03   0.300E+01 0.000E+00 -.168E+02   -.103E-01 0.330E-13 -.546E-02
   -.406E+02 0.202E-13 0.319E+03   0.436E+02 0.749E-13 -.336E+03   -.300E+01 0.000E+00 0.168E+02   0.103E-01 -.856E-13 0.546E-02
   0.561E+02 0.597E-01 0.356E+03   -.608E+02 -.395E-01 -.377E+03   0.466E+01 -.457E-02 0.205E+02   -.916E-02 -.151E-01 -.547E-02
   -.561E+02 0.597E-01 -.356E+03   0.608E+02 -.395E-01 0.377E+03   -.466E+01 -.457E-02 -.205E+02   0.916E-02 -.151E-01 0.547E-02
   -.561E+02 -.597E-01 -.356E+03   0.608E+02 0.395E-01 0.377E+03   -.466E+01 0.457E-02 -.205E+02   0.916E-02 0.151E-01 0.547E-02
   0.561E+02 -.597E-01 0.356E+03   -.608E+02 0.395E-01 -.377E+03   0.466E+01 0.457E-02 0.205E+02   -.916E-02 0.151E-01 -.547E-02
   -.561E+02 -.222E-02 -.357E+03   0.607E+02 -.908E-02 0.377E+03   -.465E+01 -.136E-02 -.205E+02   0.945E-03 0.115E-01 -.121E-01
   0.561E+02 -.222E-02 0.357E+03   -.607E+02 -.908E-02 -.377E+03   0.465E+01 -.136E-02 0.205E+02   -.945E-03 0.115E-01 0.121E-01
   0.561E+02 0.222E-02 0.357E+03   -.607E+02 0.908E-02 -.377E+03   0.465E+01 0.136E-02 0.205E+02   -.945E-03 -.115E-01 0.121E-01
   -.561E+02 0.222E-02 -.357E+03   0.607E+02 0.908E-02 0.377E+03   -.465E+01 0.136E-02 -.205E+02   0.945E-03 -.115E-01 -.121E-01
   -.405E+02 0.406E-13 0.320E+03   0.435E+02 0.356E-13 -.336E+03   -.297E+01 0.132E-22 0.168E+02   0.161E-01 0.172E-12 -.420E-02
   0.405E+02 0.111E-12 -.320E+03   -.435E+02 0.490E-15 0.336E+03   0.297E+01 0.000E+00 -.168E+02   -.161E-01 0.280E-13 0.420E-02
   0.406E+02 0.241E-12 -.319E+03   -.436E+02 0.242E-13 0.336E+03   0.300E+01 0.000E+00 -.168E+02   -.974E-02 -.195E-13 -.887E-02
   -.406E+02 0.978E-13 0.319E+03   0.436E+02 -.719E-13 -.336E+03   -.300E+01 0.000E+00 0.168E+02   0.974E-02 0.156E-12 0.887E-02
   0.116E-10 -.689E-10 -.539E-11   0.995E-13 -.971E-13 0.000E+00   0.311E-14 0.651E-18 -.711E-14   -.562E-12 -.557E-12 0.129E-11

 POSITION                                       TOTAL-FORCE (eV/Angst)
      3.99359      1.40401      2.40861        -0.001211      0.001576      0.001358
      2.21935      1.40401      7.15467         0.001211      0.001576     -0.001358
      2.21935      4.21296      7.15467         0.001211     -0.001576     -0.001358
      3.99359      4.21296      2.40861        -0.001211     -0.001576      0.001358
      8.87236      1.40296      2.44324        -0.000282      0.003633      0.002330
     -2.65941      1.40296      7.12004         0.000282      0.003633     -0.002330
     -2.65941      4.21401      7.12004         0.000282     -0.003633     -0.002330
      8.87236      4.21401      2.44324        -0.000282     -0.003633      0.002330
      0.00000      0.00000      0.00000         0.000000      0.000000     -0.000000
     -1.10598      1.40418      9.50985        -0.009264      0.003686      0.006809
      7.31893      1.40418      0.05343         0.009264      0.003686     -0.006809
      7.31893      4.21278      0.05343         0.009264     -0.003686     -0.006809
     -1.10598      4.21278      9.50985        -0.009264     -0.003686      0.006809
      0.00000      2.80848      0.00000         0.000000      0.000000     -0.000000
      4.87950      0.00000      0.03542         0.000000      0.000000     -0.000000
      4.87950      2.80848      0.03542        -0.000000      0.000000     -0.000000
      3.10647      0.00000      4.78164         0.000000      0.000000     -0.000000
      5.54653      1.40413      4.79981         0.000914      0.005831     -0.003821
      0.66642      1.40413      4.76347        -0.000914      0.005831      0.003821
      0.66642      4.21283      4.76347        -0.000914     -0.005831      0.003821
      5.54653      4.21283      4.79981         0.000914     -0.005831     -0.003821
      3.10647      2.80848      4.78164         0.000000      0.000000     -0.000000
     -1.77303      0.00000      4.74622         0.000000      0.000000     -0.000000
     -1.77303      2.80848      4.74622         0.000000      0.000000     -0.000000
      4.75341      0.00000      3.82618        -0.016881      0.000000      0.002505
      1.45953      0.00000      5.73710         0.016881      0.000000     -0.002505
      3.23399      0.00000      0.99237         0.015565      0.000000     -0.005361
      2.97896      0.00000      8.57091        -0.015565      0.000000      0.005361
      7.28241      1.40429      3.84160         0.002762     -0.000841      0.003884
     -1.06947      1.40429      5.72168        -0.002762     -0.000841     -0.003884
     -1.06947      4.21267      5.72168        -0.002762      0.000841     -0.003884
      7.28241      4.21267      3.84160         0.002762      0.000841      0.003884
      0.70371      1.40432      0.97485        -0.001008     -0.001091      0.004347
      5.50923      1.40432      8.58843         0.001008     -0.001091     -0.004347
      5.50923      4.21265      8.58843         0.001008      0.001091     -0.004347
      0.70371      4.21265      0.97485        -0.001008      0.001091      0.004347
      4.75078      2.80848      3.82476        -0.003764      0.000000      0.006264
      1.46216      2.80848      5.73852         0.003764      0.000000     -0.006264
      3.23393      2.80848      0.99187         0.012784      0.000000     -0.006379
      2.97901      2.80848      8.57141        -0.012784      0.000000      0.006379
     -0.12965      0.00000      3.78865         0.000038      0.000000      0.004387
      6.34260      0.00000      5.77464        -0.000038      0.000000     -0.004387
      8.11369      0.00000      1.02720         0.006137      0.000000     -0.002042
     -1.90075      0.00000      8.53608        -0.006137      0.000000      0.002042
      2.40257      1.40413      3.80657         0.006068      0.000503     -0.003201
      3.81038      1.40413      5.75671        -0.006068      0.000503      0.003201
      3.81038      4.21283      5.75671        -0.006068     -0.000503      0.003201
      2.40257      4.21283      3.80657         0.006068     -0.000503     -0.003201
      5.58345      1.40428      1.01022        -0.006920     -0.001160      0.006739
      0.62949      1.40428      8.55306         0.006920     -0.001160     -0.006739
      0.62949      4.21268      8.55306         0.006920      0.001160     -0.006739
      5.58345      4.21268      1.01022        -0.006920      0.001160      0.006739
     -0.12720      2.80848      3.79012        -0.007361      0.000000      0.003146
      6.34014      2.80848      5.77316         0.007361      0.000000     -0.003146
      8.11387      2.80848      1.02753         0.007236      0.000000     -0.002505
     -1.90092      2.80848      8.53575        -0.007236      0.000000      0.002505
    total drift:                                0.000000     -0.000000     -0.000000

  FREE ENERGIE OF THE ION-ELECTRON SYSTEM (eV)
  free  energy   TOTEN  =      -345.0677205221 eV

  energy  without entropy=     -345.0398304756  energy(sigma->0) =     -345.05377550

 Quasi-Newton relaxation of ions (Broydens 2nd method)
  g(Force)  = 0.175E-03   g(Stress)= 0.229E-03

 Reset! Starting new Quasi-Newton update for ions

 reached required accuracy - stopping structural energy minimisation

volume of typ            1:    12.0 %

[...]

volume of typ            3:    10.0 %

total charge

# of ion       s       p       d       tot
    1        2.071   0.230   0.084   2.386
    2        2.071   0.230   0.084   2.386
    3        2.071   0.230   0.084   2.386
    4        2.071   0.230   0.084   2.386
    5        2.071   0.231   0.084   2.386
    6        2.071   0.231   0.084   2.386
    7        2.071   0.231   0.084   2.386
    8        2.071   0.231   0.084   2.386
    9        0.299   0.424   7.849   8.572
   10        0.267   0.354   7.849   8.470
   11        0.267   0.354   7.849   8.470
   12        0.267   0.354   7.849   8.470
   13        0.267   0.354   7.849   8.470
   14        0.299   0.424   7.849   8.572
   15        0.299   0.424   7.849   8.572
   16        0.299   0.424   7.849   8.571
   17        0.298   0.424   7.849   8.571
   18        0.267   0.354   7.849   8.470
   19        0.267   0.354   7.849   8.470
   20        0.267   0.354   7.849   8.470
   21        0.267   0.354   7.849   8.470
   22        0.299   0.424   7.850   8.572
   23        0.299   0.424   7.849   8.572
   24        0.299   0.424   7.850   8.572
   25        1.264   2.779   0.007   4.050
   26        1.264   2.779   0.007   4.050
   27        1.264   2.779   0.007   4.050
   28        1.264   2.779   0.007   4.050
   29        1.274   2.754   0.007   4.035
   30        1.274   2.754   0.007   4.035
   31        1.274   2.754   0.007   4.035
   32        1.274   2.754   0.007   4.035
   33        1.274   2.754   0.007   4.035
   34        1.274   2.754   0.007   4.035
   35        1.274   2.754   0.007   4.035
   36        1.274   2.754   0.007   4.035
   37        1.264   2.779   0.007   4.050
   38        1.264   2.779   0.007   4.050
   39        1.264   2.779   0.007   4.050
   40        1.264   2.779   0.007   4.050
   41        1.264   2.779   0.007   4.050
   42        1.264   2.779   0.007   4.050
   43        1.264   2.779   0.007   4.050
   44        1.264   2.779   0.007   4.050
   45        1.274   2.754   0.007   4.035
   46        1.274   2.754   0.007   4.035
   47        1.274   2.754   0.007   4.035
   48        1.274   2.754   0.007   4.035
   49        1.274   2.754   0.007   4.035
   50        1.274   2.754   0.007   4.035
   51        1.274   2.754   0.007   4.035
   52        1.274   2.754   0.007   4.035
   53        1.264   2.779   0.007   4.050
   54        1.264   2.779   0.007   4.050
   55        1.264   2.779   0.007   4.050
   56        1.264   2.779   0.007   4.050
tot          61.69   96.60  126.48  284.78

magnetization (x)

# of ion       s       p       d       tot
    1        0.005   0.013  -0.000   0.018
    2        0.005   0.013  -0.000   0.018
    3        0.005   0.013  -0.000   0.018
    4        0.005   0.013  -0.000   0.018
    5        0.005   0.013  -0.000   0.018
    6        0.005   0.013  -0.000   0.018
    7        0.005   0.013  -0.000   0.018
    8        0.005   0.013  -0.000   0.018
    9       -0.001   0.000  -0.019  -0.020
   10        0.001  -0.000   0.581   0.581
   11        0.001  -0.000   0.581   0.581
   12        0.001  -0.000   0.581   0.581
   13        0.001  -0.000   0.581   0.581
   14       -0.001   0.000  -0.017  -0.018
   15       -0.001   0.000  -0.018  -0.018
   16       -0.001   0.000  -0.019  -0.020
   17       -0.001   0.000  -0.019  -0.020
   18        0.001  -0.000   0.581   0.582
   19        0.001  -0.000   0.581   0.582
   20        0.001  -0.000   0.581   0.582
   21        0.001  -0.000   0.581   0.582
   22       -0.001   0.000  -0.017  -0.017
   23       -0.001   0.000  -0.017  -0.018
   24       -0.001   0.000  -0.019  -0.020
   25        0.006   0.022   0.000   0.028
   26        0.006   0.022   0.000   0.028
   27        0.006   0.023   0.000   0.029
   28        0.006   0.023   0.000   0.029
   29        0.004   0.030   0.000   0.034
   30        0.004   0.030   0.000   0.034
   31        0.004   0.030   0.000   0.034
   32        0.004   0.030   0.000   0.034
   33        0.004   0.030   0.000   0.034
   34        0.004   0.030   0.000   0.034
   35        0.004   0.030   0.000   0.034
   36        0.004   0.030   0.000   0.034
   37        0.006   0.023   0.000   0.030
   38        0.006   0.023   0.000   0.030
   39        0.006   0.023   0.000   0.029
   40        0.006   0.023   0.000   0.029
   41        0.006   0.023   0.000   0.030
   42        0.006   0.023   0.000   0.030
   43        0.006   0.023   0.000   0.029
   44        0.006   0.023   0.000   0.029
   45        0.004   0.030   0.000   0.034
   46        0.004   0.030   0.000   0.034
   47        0.004   0.030   0.000   0.034
   48        0.004   0.030   0.000   0.034
   49        0.004   0.030   0.000   0.034
   50        0.004   0.030   0.000   0.034
   51        0.004   0.030   0.000   0.034
   52        0.004   0.030   0.000   0.034
   53        0.006   0.022   0.000   0.028
   54        0.006   0.022   0.000   0.028
   55        0.006   0.023   0.000   0.029
   56        0.006   0.023   0.000   0.029
tot           0.20    0.95    4.51    5.66