 vasp.5.4.4.18Apr17-6-g9f103f2a35 (build May 12 2020 05:39:39) gamma-only

 MD_VERSION_INFO: Compiled 2020-05-12T12:39:39-UTC in devlin.sd.materialsdesign.
 com:/home/medea2/data/build/wwolf/vasp-gpu5.4.4/13047/x86_64/src/src/build/gam
 from svn 13047

 executed on                        Lin64 date 2023.03.07  02:58:46

 INCAR:
 POTCAR:    PAW_PBE Li_sv 10Sep2004
 POTCAR:    PAW_PBE Ni 02Aug2007
 POTCAR:    PAW_PBE O 08Apr2002

 POTCAR:    PAW_PBE Li_sv 10Sep2004

 POTCAR:    PAW_PBE Ni 02Aug2007

 POTCAR:    PAW_PBE O 08Apr2002

 Optimization of the real space projectors (new method)

 maximal supplied QI-value         = 22.11
 optimisation between [QCUT,QGAM] = [ 11.28, 22.77] = [ 35.61,145.23] Ry
 Optimized for a Real-space Cutoff    1.10 Angstroem

   l    n(q)    QCUT    max X(q) W(low)/X(q) W(high)/X(q)  e(spline)
   0      7    11.276    10.506    0.54E-04    0.58E-04    0.16E-07
   0      7    11.276     8.367    0.11E-03    0.14E-03    0.35E-07
   1      7    11.276     8.983    0.23E-03    0.43E-03    0.86E-07
 Optimization of the real space projectors (new method)

[...]

   l    n(q)    QCUT    max X(q) W(low)/X(q) W(high)/X(q)  e(spline)
   2      9    11.376    60.317    0.17E-03    0.16E-04    0.16E-06
   2      9    11.376    55.921    0.17E-03    0.16E-04    0.17E-06
   0     10    11.376    51.690    0.45E-04    0.60E-04    0.21E-06
   0     10    11.376    30.015    0.37E-04    0.55E-04    0.19E-06
   1     10    11.376    18.849    0.83E-04    0.11E-03    0.92E-07
   1     10    11.376    14.624    0.69E-04    0.92E-04    0.82E-07
 Optimization of the real space projectors (new method)

 maximal supplied QI-value         = 24.76
 optimisation between [QCUT,QGAM] = [ 11.39, 22.77] = [ 36.31,145.25] Ry
 Optimized for a Real-space Cutoff    1.10 Angstroem

   l    n(q)    QCUT    max X(q) W(low)/X(q) W(high)/X(q)  e(spline)
   0      7    11.387    20.381    0.22E-03    0.48E-03    0.18E-06
   0      7    11.387    15.268    0.22E-03    0.52E-03    0.19E-06
   1      7    11.387     5.964    0.22E-03    0.73E-03    0.24E-06
   1      7    11.387     5.382    0.19E-03    0.60E-03    0.21E-06

  PAW_PBE Li_sv 10Sep2004               :
  PAW_PBE Ni 02Aug2007                  :
  PAW_PBE O 08Apr2002                   :

 POSCAR: ce1377_1
  positions in direct lattice
 exchange correlation table for  LEXCH =       14
   RHO(1)=    0.500       N(1)  =     2000
   RHO(2)=  100.500       N(2)  =     4000

 ion  position               nearest neighbor table
   1  0.993  0.251  0.248-  39 2.09  51 2.10  44 2.12  36 2.15  30 2.16  48 2.17
   2  0.002  0.749  0.750-  49 2.09  31 2.09  45 2.10  37 2.12  38 2.12  50 2.13
   3  0.267  0.248  0.516-  40 2.02  52 2.07  42 2.12  28 2.14  30 2.24  19 2.80  21 2.83
   4  0.248  0.749  0.500-  49 2.09  53 2.10  31 2.11  29 2.12  41 2.13  43 2.15
   5  0.510  0.250  0.252-  42 2.07  56 2.07  39 2.10  51 2.10  48 2.17  36 2.18  16 2.82
   6  0.498  0.750  0.748-  43 2.03  57 2.05  49 2.10  37 2.13  50 2.15  38 2.15  25 2.83
   7  0.951  0.249  0.751-  35 2.01  55 2.01  46 2.08  28 2.10  24 2.76  15 2.77
   8  0.002  0.751  0.249-  29 2.06  47 2.07  53 2.10  34 2.12  33 2.12  54 2.14  18 2.81  26 2.82
                            13 2.84
   9  0.276  0.252  0.986-  32 2.04  58 2.04  56 2.12  46 2.19  36 2.21  44 2.29  27 2.78  14 2.80

  10  0.749  0.750  0.999-  57 2.11  45 2.11  47 2.11  38 2.12  59 2.13  34 2.14
  11  0.499  0.749  0.251-  53 2.09  33 2.10  54 2.10  34 2.11  41 2.13  59 2.17  19 2.83
  12  0.000  0.001  1.000-  36 1.85  38 1.85  37 1.88  39 1.88  46 2.08  47 2.09  17 2.77  17 2.78
                            13 2.84  15 2.85  14 2.87  16 2.89
  13  0.247  0.997  0.247-  42 1.84  30 1.84  47 1.86  59 1.86  53 2.07  36 2.07  16 2.77  16 2.78
                             8 2.84  12 2.84  17 2.86  18 2.88  19 2.89
  14  0.253  1.000  0.750-  46 1.84  43 1.84  58 1.85  31 1.85  37 1.95  52 1.97  15 2.77  15 2.78
                             9 2.80  17 2.85  12 2.87  19 2.87  18 2.88
  15  0.752  0.998  0.749-  43 1.85  58 1.86  46 1.86  31 1.87  55 1.94  38 2.02   7 2.77  14 2.77
                            14 2.78  12 2.85  19 2.86  18 2.87  17 2.87
  16  0.748  0.003  0.252-  47 1.85  59 1.86  30 1.87  42 1.87  39 1.94  54 1.94  13 2.77  13 2.78
                             5 2.82  18 2.85  19 2.85  17 2.87  12 2.89
  17  0.500  0.999  0.999-  37 1.87  39 1.88  36 1.88  38 1.89  58 1.96  59 2.01  12 2.77  12 2.78
                            14 2.85  13 2.86  16 2.87  15 2.87
  18  0.998  0.994  0.497-  55 1.84  52 1.86  54 1.86  53 1.88  30 2.05  31 2.06  19 2.76  19 2.79
                             8 2.81  16 2.85  15 2.87  13 2.88  14 2.88
  19  0.501  0.997  0.499-  55 1.85  54 1.85  52 1.86  53 1.87  42 2.10  43 2.10  18 2.76  18 2.79
                             3 2.80  11 2.83  16 2.85  15 2.86  14 2.87  13 2.89
  20  0.999  0.500  0.501-  50 1.85  51 1.85  48 1.87  49 1.87  28 2.11  29 2.13  25 2.76  25 2.79
                            24 2.85  23 2.86  22 2.88  21 2.88
  21  0.251  0.504  0.753-  28 1.83  40 1.85  57 1.85  45 1.87  32 2.02  49 2.05  24 2.77  24 2.78
                             3 2.83  27 2.84  26 2.86  20 2.88  25 2.89
  22  0.251  0.500  0.250-  56 1.84  29 1.84  44 1.85  41 1.85  33 1.96  48 2.01  23 2.77  23 2.78
                            26 2.86  25 2.86  20 2.88  27 2.88
  23  0.751  0.502  0.250-  29 1.85  56 1.86  44 1.87  41 1.88  51 1.95  34 2.01  22 2.77  22 2.78
                            26 2.86  20 2.86  27 2.87  25 2.87
  24  0.750  0.498  0.748-  57 1.84  45 1.85  28 1.86  40 1.86  35 1.93  50 1.94   7 2.76  21 2.77
                            21 2.78  25 2.84  20 2.85  26 2.88  27 2.88
  25  0.502  0.502  0.501-  50 1.86  48 1.87  51 1.89  49 1.90  40 1.96  41 2.01  20 2.76  20 2.79
                             6 2.83  24 2.84  22 2.86  23 2.87  21 2.89
  26  1.000  0.505  0.002-  32 1.84  35 1.86  33 1.87  34 1.87  45 2.04  44 2.04  27 2.78  27 2.78
                             8 2.82  23 2.86  22 2.86  21 2.86  24 2.88
  27  0.500  0.502  0.000-  32 1.85  35 1.86  33 1.86  34 1.86  57 2.11  56 2.13  26 2.78  26 2.78
                             9 2.78  21 2.84  23 2.87  22 2.88  24 2.88
  28  0.009  0.393  0.647-  21 1.83  24 1.86   7 2.10  20 2.11   3 2.14
  29  0.004  0.609  0.354-  22 1.84  23 1.85   8 2.06   4 2.12  20 2.13
  30  0.006  0.104  0.360-  13 1.84  16 1.87  18 2.05   1 2.16   3 2.24
  31  0.005  0.891  0.641-  14 1.85  15 1.87  18 2.06   2 2.09   4 2.11
  32  0.246  0.400  0.892-  26 1.84  27 1.85  21 2.02   9 2.04
  33  0.254  0.603  0.118-  27 1.86  26 1.87  22 1.96  11 2.10   8 2.12
  34  0.747  0.608  0.114-  27 1.86  26 1.87  23 2.01  11 2.11   8 2.12  10 2.14
  35  0.751  0.405  0.886-  26 1.86  27 1.86  24 1.93   7 2.01
  36  0.248  0.108  0.109-  12 1.85  17 1.88  13 2.07   1 2.15   5 2.18   9 2.21
  37  0.250  0.898  0.882-  17 1.87  12 1.88  14 1.95   2 2.12   6 2.13
  38  0.754  0.893  0.887-  12 1.85  17 1.89  15 2.02   2 2.12  10 2.12   6 2.15
  39  0.749  0.102  0.118-  17 1.88  12 1.88  16 1.94   1 2.09   5 2.10
  40  0.493  0.401  0.635-  21 1.85  24 1.86  25 1.96   3 2.02
  41  0.498  0.606  0.363-  22 1.85  23 1.88  25 2.01   4 2.13  11 2.13
  42  0.490  0.107  0.357-  13 1.84  16 1.87   5 2.07  19 2.10   3 2.12
  43  0.499  0.890  0.645-  14 1.84  15 1.85   6 2.03  19 2.10   4 2.15
  44  0.002  0.396  0.140-  22 1.85  23 1.87  26 2.04   1 2.12   9 2.29
  45  0.994  0.608  0.861-  24 1.85  21 1.87  26 2.04   2 2.10  10 2.11
  46  0.004  0.106  0.855-  14 1.84  15 1.86  12 2.08   7 2.08   9 2.19
  47  0.990  0.893  0.142-  16 1.85  13 1.86   8 2.07  12 2.09  10 2.11
  48  0.250  0.396  0.389-  20 1.87  25 1.87  22 2.01   1 2.17   5 2.17
  49  0.247  0.610  0.613-  20 1.87  25 1.90  21 2.05   2 2.09   4 2.09   6 2.10
  50  0.753  0.600  0.617-  20 1.85  25 1.86  24 1.94   2 2.13   6 2.15
  51  0.753  0.400  0.383-  20 1.85  25 1.89  23 1.95   5 2.10   1 2.10
  52  0.248  0.096  0.610-  18 1.86  19 1.86  14 1.97   3 2.07
  53  0.252  0.888  0.387-  19 1.87  18 1.88  13 2.07  11 2.09   8 2.10   4 2.10
  54  0.746  0.898  0.380-  19 1.85  18 1.86  16 1.94  11 2.10   8 2.14
  55  0.753  0.094  0.612-  18 1.84  19 1.85  15 1.94   7 2.01
  56  0.499  0.393  0.146-  22 1.84  23 1.86   5 2.07   9 2.12  27 2.13
  57  0.507  0.610  0.854-  24 1.84  21 1.85   6 2.05  10 2.11  27 2.11
  58  0.503  0.099  0.864-  14 1.85  15 1.86  17 1.96   9 2.04
  59  0.503  0.896  0.137-  16 1.86  13 1.86  17 2.01  10 2.13  11 2.17

  LATTYP: Found a triclinic cell.
 ALAT       =    11.4817018682
 B/A-ratio  =     0.4834977951
 C/A-ratio  =     0.8809664201
 COS(alpha) =     0.0004710650
 COS(beta)  =     0.3099796920
 COS(gamma) =     0.4867759525

  Lattice vectors:

 A1 = (  10.0398710510,  -5.5701063211,   0.0662015155)
 A2 = (   0.0104442909,  -5.5513670784,   0.0026541265)
 A3 = (   3.6465970559,  -0.0024149615,  -9.4347985397)

Analysis of symmetry for initial positions (statically):
 Subroutine PRICEL returns:
 Original cell was already a primitive cell.

 Routine SETGRP: Setting up the symmetry group for a
 triclinic supercell.

 Subroutine GETGRP returns: Found  1 space group operations
 (whereof  1 operations were pure point group operations)
 out of a pool of  2 trial point group operations.

The static configuration has the point symmetry C_1 .

Analysis of symmetry for dynamics (positions and initial velocities):
 Subroutine PRICEL returns:
 Original cell was already a primitive cell.

[...]

The dynamic configuration has the point symmetry C_1 .

Analysis of structural, dynamic, and magnetic symmetry:
 Subroutine PRICEL returns:
 Original cell was already a primitive cell.

 Routine SETGRP: Setting up the symmetry group for a
 triclinic supercell.

 Subroutine GETGRP returns: Found  1 space group operations
 (whereof  1 operations were pure point group operations)
 out of a pool of  2 trial point group operations.

The magnetic configuration has the point symmetry C_1 .

 Subroutine INISYM returns: Found  1 space group operations
 (whereof  1 operations are pure point group operations),
 and found     1 'primitive' translations

 KPOINTS: Automatic mesh

Automatic generation of k-mesh.
Space group operators:
 irot       det(A)        alpha          n_x          n_y          n_z        tau_x        tau_y        tau_z
    1     1.000000     0.000000     1.000000     0.000000     0.000000     0.000000     0.000000     0.000000

 Subroutine IBZKPT returns following result:

 Found      1 irreducible k-points:

 Following reciprocal coordinates:
            Coordinates               Weight
  0.000000  0.000000  0.000000      1.000000

 Following cartesian coordinates:
            Coordinates               Weight
  0.000000  0.000000  0.000000      1.000000

 SYSTEM =  unknown system
 POSCAR =  ce1377_1

 Startparameter for this run:
   NWRITE =      1    write-flag & timer
   PREC   = accura    normal or accurate (medium, high low for compatibility)
   ISTART =      0    job   : 0-new  1-cont  2-samecut
   ICHARG =      2    charge: 1-file 2-atom 10-const
   ISPIN  =      2    spin polarized calculation?
   LNONCOLLINEAR =      F non collinear calculations
[...]
   -.508E+01 0.227E+02 -.370E+02   0.543E+01 -.229E+02 0.374E+02   -.308E+00 0.270E+00 -.386E+00   -.477E-01 0.157E-02 0.645E-03
   -.238E+02 -.229E+02 -.697E+02   0.242E+02 0.233E+02 0.702E+02   -.379E+00 -.355E+00 -.501E+00   -.463E-01 -.431E-04 -.305E-02
   -.197E+02 0.209E+02 0.453E+02   0.199E+02 -.212E+02 -.455E+02   -.182E+00 0.318E+00 0.160E+00   0.288E-01 -.359E-02 -.701E-02
   -.441E+02 -.107E+02 0.361E+02   0.445E+02 0.108E+02 -.366E+02   -.373E+00 -.951E-01 0.508E+00   0.191E-01 0.148E-01 0.522E-02
   0.334E+01 -.892E+00 0.437E+02   -.346E+01 0.911E+00 -.438E+02   0.134E+00 -.269E-01 0.985E-01   -.178E-01 0.687E-02 -.882E-02
   0.192E+02 0.278E+01 0.186E+02   -.187E+02 -.276E+01 -.188E+02   -.510E+00 -.158E-01 0.292E+00   -.174E-01 -.105E-01 -.810E-02
   -.603E-01 0.129E+02 0.120E+03   0.646E-01 -.131E+02 -.121E+03   -.213E-01 0.263E+00 0.826E+00   0.192E-01 -.110E-01 0.693E-02
   -.108E+02 -.230E+02 0.296E+02   0.112E+02 0.234E+02 -.299E+02   -.413E+00 -.352E+00 0.247E+00   0.310E-01 0.234E-02 -.673E-02
   0.174E+02 0.510E+00 0.316E+02   -.178E+02 -.527E+00 -.322E+02   0.403E+00 0.236E-01 0.591E+00   -.279E-01 -.376E-02 0.408E-02
   0.355E+02 -.248E+01 0.630E+02   -.360E+02 0.262E+01 -.636E+02   0.529E+00 -.146E+00 0.621E+00   -.295E-01 0.529E-02 0.698E-02
   0.344E+02 0.205E+02 0.345E+03   -.398E+02 -.220E+02 -.361E+03   0.532E+01 0.148E+01 0.163E+02   0.169E-01 -.673E-03 0.688E-02
   -.567E+02 0.358E+02 -.298E+03   0.626E+02 -.379E+02 0.314E+03   -.585E+01 0.210E+01 -.160E+02   -.348E-02 -.598E-02 0.180E-01
   -.661E+02 0.183E+02 -.337E+03   0.716E+02 -.194E+02 0.354E+03   -.547E+01 0.112E+01 -.168E+02   -.163E-01 -.162E-02 -.228E-01
   0.450E+02 0.381E+02 0.288E+03   -.498E+02 -.406E+02 -.303E+03   0.478E+01 0.246E+01 0.153E+02   -.137E-01 0.365E-02 -.169E-01
   0.437E+02 -.232E+02 0.332E+03   -.496E+02 0.241E+02 -.350E+03   0.585E+01 -.963E+00 0.176E+02   -.104E-01 0.180E-01 0.987E-02
   0.452E+02 -.362E+01 -.285E+03   -.457E+02 0.374E+01 0.301E+03   0.532E+00 -.133E+00 -.162E+02   -.303E-01 0.178E-01 0.977E-02
   -.411E+01 0.400E+01 -.257E+03   0.696E+01 -.408E+01 0.271E+03   -.283E+01 0.109E+00 -.135E+02   -.221E-01 -.183E-01 0.525E-02
   -.115E+02 0.323E+02 0.352E+03   0.123E+02 -.345E+02 -.371E+03   -.763E+00 0.230E+01 0.189E+02   -.938E-02 -.185E-01 0.127E-01
   -.705E+01 0.242E+01 -.294E+03   0.102E+02 -.230E+01 0.308E+03   -.317E+01 -.134E+00 -.139E+02   0.481E-02 0.176E-01 -.306E-01
   -.471E+02 0.623E+00 0.287E+03   0.497E+02 -.262E+00 -.302E+03   -.270E+01 -.389E+00 0.149E+02   0.526E-01 0.192E-01 0.710E-02
   0.121E+02 -.244E+01 0.261E+03   -.148E+02 0.250E+01 -.274E+03   0.260E+01 -.493E-01 0.125E+02   0.477E-01 -.173E-01 0.934E-02
   0.455E+02 -.636E+00 -.315E+03   -.487E+02 0.159E+00 0.329E+03   0.314E+01 0.500E+00 -.144E+02   0.204E-02 -.185E-01 -.334E-01
   -.105E+02 -.245E+02 0.363E+03   0.939E+01 0.265E+02 -.381E+03   0.105E+01 -.200E+01 0.185E+02   0.216E-01 0.500E-03 0.957E-02
   -.404E+02 -.382E+02 -.302E+03   0.446E+02 0.408E+02 0.318E+03   -.415E+01 -.260E+01 -.157E+02   -.377E-02 0.694E-02 0.154E-01
   -.707E+02 -.215E+02 -.329E+03   0.762E+02 0.230E+02 0.345E+03   -.541E+01 -.147E+01 -.155E+02   -.278E-01 -.248E-02 -.195E-01
   0.547E+02 -.361E+02 0.280E+03   -.604E+02 0.384E+02 -.296E+03   0.573E+01 -.222E+01 0.156E+02   -.893E-03 -.303E-03 -.196E-01
   0.642E+02 0.331E+02 0.339E+03   -.696E+02 -.353E+02 -.355E+03   0.539E+01 0.224E+01 0.169E+02   -.107E-01 -.604E-02 -.238E-01
   -.433E+02 -.365E+02 -.288E+03   0.478E+02 0.388E+02 0.303E+03   -.444E+01 -.230E+01 -.154E+02   -.547E-02 -.235E-02 -.567E-02
   -.313E+02 0.308E+02 -.349E+03   0.369E+02 -.327E+02 0.365E+03   -.565E+01 0.191E+01 -.162E+02   0.313E-01 0.370E-02 0.236E-01
   0.538E+02 -.346E+02 0.299E+03   -.597E+02 0.363E+02 -.314E+03   0.582E+01 -.169E+01 0.154E+02   -.155E-02 -.144E-02 0.219E-01
   -.236E+02 0.259E+01 0.308E+03   0.232E+02 -.221E+01 -.321E+03   0.444E+00 -.389E+00 0.137E+02   0.110E-01 0.360E-02 -.253E-01
   -.176E+02 0.323E+01 -.259E+03   0.206E+02 -.305E+01 0.271E+03   -.298E+01 -.182E+00 -.116E+02   0.267E-01 0.467E-02 0.572E-03
   0.279E+02 -.212E+01 -.278E+03   -.293E+02 0.185E+01 0.295E+03   0.137E+01 0.279E+00 -.162E+02   0.285E-01 -.440E-02 -.300E-02
   -.319E+02 -.224E+01 0.313E+03   0.322E+02 0.174E+01 -.328E+03   -.276E+00 0.498E+00 0.150E+02   0.214E-02 -.375E-02 -.212E-01
   -.171E+02 -.238E+02 -.345E+03   0.206E+02 0.249E+02 0.363E+03   -.346E+01 -.106E+01 -.178E+02   -.237E-01 -.103E-01 0.161E-01
   0.135E+02 -.382E+01 0.256E+03   -.167E+02 0.403E+01 -.268E+03   0.322E+01 -.202E+00 0.128E+02   -.272E-01 -.111E-01 0.108E-01
   -.331E+02 0.316E+01 0.275E+03   0.333E+02 -.326E+01 -.292E+03   -.194E+00 0.910E-01 0.169E+02   -.281E-01 0.858E-02 0.111E-01
   0.298E+01 0.300E+02 -.350E+03   -.237E+01 -.322E+02 0.369E+03   -.587E+00 0.211E+01 -.193E+02   -.241E-01 0.124E-01 0.164E-01
   0.735E+02 -.339E+02 0.329E+03   -.791E+02 0.361E+02 -.345E+03   0.559E+01 -.220E+01 0.160E+02   -.220E-01 0.710E-02 -.175E-01
   -.580E+02 0.341E+02 -.280E+03   0.636E+02 -.358E+02 0.295E+03   -.559E+01 0.175E+01 -.158E+02   0.823E-02 0.189E-03 -.141E-01
   0.963E+01 -.379E+02 -.364E+03   -.829E+01 0.409E+02 0.382E+03   -.139E+01 -.298E+01 -.183E+02   0.516E-01 0.579E-03 0.147E-01
   0.435E+02 0.357E+02 0.302E+03   -.478E+02 -.375E+02 -.318E+03   0.427E+01 0.185E+01 0.159E+02   -.164E-01 -.289E-02 0.283E-01
   -.234E+00 0.340E+00 0.227E+00   -.711E-13 -.192E-12 0.455E-12   0.210E+00 -.348E+00 -.219E+00   0.365E-02 -.294E-02 -.898E-02

 POSITION                                       TOTAL-FORCE (eV/Angst)
      1.58401      5.52683      2.37584         0.012870      0.004405      0.000035
      4.79290      0.00121      7.13296        -0.002119     -0.000538      0.003045
      4.29336      1.49411      2.36684         0.023049      0.011213     -0.005844
      2.29045      1.36779      7.10010         0.000214     -0.000908     -0.003530
      1.62128      2.83447      2.37219         0.002585      0.003216      0.000647
      4.77321      2.76890      7.13586         0.000769     -0.000553      0.003060
      6.61900      5.24958      2.40144         0.000615     -0.033489     -0.001367
     -0.23376      0.00459      7.10621         0.001594     -0.000354     -0.002031
      8.96319      1.54159      2.44439        -0.009946      0.009159      0.002253
      7.28159      4.15804      7.15970        -0.000129      0.002876      0.004160
     -0.21600      2.77785      7.09782        -0.004413      0.002621      0.000825
     10.01595     -0.00343      0.08471        -0.000702     -0.001431      0.001368
     -1.14906      1.38076      9.42699        -0.001827      0.017128     -0.002273
      3.87371      1.38556      9.48245        -0.010737     -0.006971     -0.010108
      3.87289      4.16455      9.46730        -0.006253     -0.008220     -0.007378
      2.51253      4.17100      0.04631        -0.004320     -0.000113     -0.004166
      6.38404      2.77320      9.50595         0.000039     -0.000251      0.000512
      1.36388      5.54959      9.41298        -0.001562      0.006785     -0.003930
      1.37362      2.78228      9.43934        -0.002958     -0.004663     -0.007256
      3.19485      5.55287      4.75207         0.001175      0.006556      0.000095
      5.71522      1.39436      4.80893         0.001440      0.007035      0.004157
      0.69301      1.38756      4.73095         0.000977     -0.000269     -0.001952
      0.68238      4.17248      4.74898         0.000353     -0.001947     -0.002474
      5.68611      4.17204      4.75988         0.002527     -0.002850      0.007071
      3.19109      2.78547      4.77181         0.001980     -0.006505      0.000974
     -1.81206      5.56403      4.76122         0.000393      0.003131      0.001432
     -1.82086      2.77923      4.74369        -0.000387     -0.000557      0.004318
      5.05524      0.04585      3.75387         0.001624     -0.000933      0.001796
      1.33505      0.01039      5.77341         0.003465     -0.000101     -0.001365
      3.21694      0.04619      1.01269         0.005464      0.012389      0.004286
      3.18753      0.00775      8.45204        -0.005407     -0.012193     -0.001545
      7.49455      1.37027      3.85355         0.000180      0.001634      0.005186
     -0.97382      1.41023      5.69235         0.004697      0.000705      0.003270
     -1.07516      4.15632      5.74601         0.000650      0.002499      0.005948
      7.38685      4.17469      3.89251        -0.002344     -0.001743      0.005393
      0.69331      1.39433      1.01309        -0.001787      0.003405     -0.005489
      5.52451      1.36172      8.54222        -0.004940     -0.008267     -0.003733
      5.65571      4.17134      8.50869         0.003204     -0.005846      0.001924
      0.85506      4.18705      0.97871         0.004066      0.004850      0.002416
      4.91472      2.74359      3.83289         0.000876      0.000908      0.004801
      1.42394      2.75887      5.74002         0.003731      0.000739     -0.002841
      3.19024      2.72661      1.03111         0.001280      0.011339      0.001141
      3.21531      2.76240      8.44179        -0.000542     -0.011584     -0.006310
     -0.03463      0.00603      3.74525        -0.001919     -0.005386     -0.001574
      6.41144      5.52698      5.79667         0.002832      0.004460      0.004901
      8.17850      0.00317      1.06327        -0.002618     -0.009014      0.003156
     -1.82433      5.51843      8.43548        -0.000305      0.007220      0.001802
      2.40307      1.37456      3.77025        -0.000261     -0.001750     -0.001208
      3.91618      1.37293      5.78764        -0.002428     -0.000022     -0.002006
      4.02325      4.19000      5.71350         0.001489      0.000967      0.005368
      2.39682      4.17641      3.80384         0.005757     -0.003096     -0.004049
      5.79159      1.37392      0.94046        -0.000137     -0.000629     -0.004021
      0.64803      1.39548      8.41312        -0.001930      0.001640     -0.002396
      0.52061      4.15058      8.50625        -0.007731      0.005066     -0.005391
      5.78355      4.18707      0.91927        -0.007220     -0.003163      0.000517
      0.03710      2.77528      3.71345        -0.002070     -0.003080     -0.002402
      6.34202      2.81547      5.82126        -0.001030      0.003786      0.005135
      8.27571      2.77699      0.99320        -0.001798     -0.007820      0.000722
     -1.86525      2.80936      8.46227        -0.000075      0.008512      0.004922
    total drift:                               -0.020236     -0.010449     -0.000471

  FREE ENERGIE OF THE ION-ELECTRON SYSTEM (eV)
  free  energy   TOTEN  =      -359.6535973977 eV

  energy  without entropy=     -359.6453211592  energy(sigma->0) =     -359.64945928

 d Force = 0.2954331E-03[ 0.270E-03, 0.321E-03]  d Energy = 0.2689089E-03 0.265E-04
 d Force = 0.2885496E+00[ 0.288E+00, 0.289E+00]  d Ewald  =-0.2512044E+00 0.540E+00

 Quasi-Newton relaxation of ions (Broydens 2nd method)
  g(Force)  = 0.261E-03   g(Stress)= 0.182E-04

 retain information from N=  2 steps
 eigenvalues of (default step * inverse Hessian matrix)
  average eigenvalue of G=   0.5379
 eigenvalue spectrum of G is  0.5379  0.5379

volume of typ            1:    16.2 %

[...]

volume of typ            3:     9.9 %

total charge

# of ion       s       p       d       tot
    1        2.075   0.244   0.088   2.406
    2        2.081   0.261   0.095   2.438
    3        2.070   0.215   0.081   2.367
    4        2.079   0.245   0.092   2.416
    5        2.080   0.255   0.094   2.429
    6        2.084   0.266   0.099   2.450
    7        2.077   0.243   0.092   2.412
    8        2.084   0.259   0.099   2.442
    9        2.071   0.225   0.083   2.379
   10        2.078   0.242   0.090   2.410
   11        2.079   0.250   0.093   2.423
   12        0.261   0.340   7.868   8.469
   13        0.275   0.370   7.868   8.514
   14        0.295   0.418   7.850   8.562
   15        0.277   0.377   7.851   8.505
   16        0.290   0.408   7.849   8.547
   17        0.264   0.350   7.864   8.478
   18        0.271   0.359   7.865   8.495
   19        0.266   0.349   7.863   8.478
   20        0.262   0.341   7.879   8.482
   21        0.275   0.374   7.858   8.507
   22        0.293   0.414   7.859   8.566
   23        0.275   0.375   7.855   8.506
   24        0.291   0.408   7.844   8.542
   25        0.267   0.354   7.862   8.483
   26        0.271   0.360   7.863   8.494
   27        0.265   0.346   7.878   8.490
   28        1.263   2.776   0.006   4.045
   29        1.263   2.781   0.006   4.050
   30        1.265   2.770   0.006   4.042
   31        1.265   2.778   0.006   4.048
   32        1.264   2.774   0.007   4.046
   33        1.260   2.787   0.007   4.053
   34        1.254   2.803   0.006   4.063
   35        1.266   2.771   0.007   4.044
   36        1.259   2.788   0.006   4.054
   37        1.263   2.780   0.006   4.050
   38        1.258   2.798   0.006   4.062
   39        1.261   2.785   0.006   4.052
   40        1.268   2.766   0.007   4.040
   41        1.264   2.777   0.006   4.047
   42        1.262   2.781   0.006   4.049
   43        1.263   2.782   0.006   4.052
   44        1.267   2.766   0.006   4.040
   45        1.264   2.775   0.006   4.046
   46        1.265   2.774   0.006   4.045
   47        1.262   2.781   0.006   4.050
   48        1.260   2.787   0.006   4.052
   49        1.257   2.797   0.006   4.060
   50        1.263   2.783   0.007   4.053
   51        1.263   2.782   0.007   4.051
   52        1.262   2.778   0.007   4.047
   53        1.254   2.803   0.006   4.062
   54        1.258   2.793   0.007   4.058
   55        1.267   2.770   0.008   4.045
   56        1.264   2.776   0.006   4.047
   57        1.264   2.780   0.006   4.050
   58        1.269   2.764   0.007   4.041
   59        1.263   2.779   0.006   4.048
tot          67.66   97.63  126.99  292.28

magnetization (x)

# of ion       s       p       d       tot
    1        0.005   0.016   0.000   0.022
    2        0.006   0.018   0.000   0.023
    3       -0.004   0.000  -0.000  -0.004
    4        0.004   0.010  -0.000   0.013
    5        0.002   0.009  -0.000   0.011
    6        0.002   0.009  -0.000   0.011
    7        0.002   0.007   0.001   0.011
    8        0.003   0.007   0.001   0.011
    9        0.004   0.009   0.000   0.013
   10        0.003   0.007  -0.001   0.010
   11        0.004   0.008  -0.000   0.012
   12        0.003  -0.001   0.781   0.783
   13        0.003  -0.000   0.516   0.519
   14       -0.001  -0.001  -0.075  -0.077
   15       -0.000  -0.000   0.307   0.306
   16       -0.001  -0.001  -0.099  -0.101
   17        0.001  -0.001   0.631   0.630
   18        0.003  -0.000   0.593   0.596
   19        0.004  -0.001   0.672   0.675
   20        0.004  -0.001   0.699   0.702
   21        0.003   0.000   0.472   0.475
   22       -0.001  -0.000  -0.197  -0.198
   23        0.000   0.000   0.330   0.331
   24       -0.001  -0.000  -0.115  -0.116
   25        0.000  -0.000   0.565   0.565
   26        0.003  -0.000   0.510   0.512
   27       -0.004  -0.000  -0.522  -0.526
   28        0.006   0.087   0.000   0.093
   29        0.006   0.079   0.000   0.085
   30        0.006   0.072   0.000   0.078
   31        0.007   0.070   0.000   0.078
   32        0.005   0.050   0.000   0.056
   33       -0.002  -0.027  -0.000  -0.030
   34        0.003   0.017   0.000   0.020
   35       -0.001  -0.013  -0.000  -0.014
   36        0.009   0.061   0.000   0.071
   37        0.007   0.034   0.000   0.041
   38        0.008   0.025   0.000   0.033
   39        0.006   0.030   0.000   0.037
   40        0.005   0.057   0.000   0.062
   41        0.005   0.031   0.000   0.037
   42        0.007   0.091   0.000   0.098
   43        0.007   0.086   0.000   0.093
   44        0.006   0.063   0.000   0.069
   45        0.006   0.061   0.000   0.067
   46        0.007   0.080   0.000   0.087
   47        0.007   0.077   0.000   0.084
   48        0.003   0.005   0.000   0.008
   49        0.010   0.062   0.000   0.073
   50        0.004   0.012   0.000   0.017
   51        0.009   0.063   0.000   0.073
   52        0.002   0.005   0.000   0.007
   53        0.007   0.059   0.000   0.066
   54        0.001  -0.002   0.000  -0.001
   55        0.005   0.049   0.000   0.055
   56       -0.005  -0.083  -0.000  -0.089
   57       -0.005  -0.081  -0.000  -0.087
   58        0.006   0.061   0.000   0.067
   59        0.005   0.032   0.000   0.037
tot           0.20    1.31    5.07    6.58