 vasp.5.4.4.18Apr17-6-g9f103f2a35 (build May 12 2020 05:39:39) gamma-only

 MD_VERSION_INFO: Compiled 2020-05-12T12:39:39-UTC in devlin.sd.materialsdesign.
 com:/home/medea2/data/build/wwolf/vasp-gpu5.4.4/13047/x86_64/src/src/build/gam
 from svn 13047

 executed on                        Lin64 date 2023.03.07  03:00:16

 INCAR:
 POTCAR:    PAW_PBE Li_sv 10Sep2004
 POTCAR:    PAW_PBE Ni 02Aug2007
 POTCAR:    PAW_PBE O 08Apr2002

 POTCAR:    PAW_PBE Li_sv 10Sep2004

 POTCAR:    PAW_PBE Ni 02Aug2007

 POTCAR:    PAW_PBE O 08Apr2002

 Optimization of the real space projectors (new method)

 maximal supplied QI-value         = 22.11
 optimisation between [QCUT,QGAM] = [ 11.28, 22.77] = [ 35.61,145.23] Ry
 Optimized for a Real-space Cutoff    1.10 Angstroem

   l    n(q)    QCUT    max X(q) W(low)/X(q) W(high)/X(q)  e(spline)
   0      7    11.276    10.506    0.54E-04    0.58E-04    0.16E-07
   0      7    11.276     8.367    0.11E-03    0.14E-03    0.35E-07
   1      7    11.276     8.983    0.23E-03    0.43E-03    0.86E-07
 Optimization of the real space projectors (new method)

[...]

   l    n(q)    QCUT    max X(q) W(low)/X(q) W(high)/X(q)  e(spline)
   2      9    11.376    60.317    0.17E-03    0.16E-04    0.16E-06
   2      9    11.376    55.921    0.17E-03    0.16E-04    0.17E-06
   0     10    11.376    51.690    0.45E-04    0.60E-04    0.21E-06
   0     10    11.376    30.015    0.37E-04    0.55E-04    0.19E-06
   1     10    11.376    18.849    0.83E-04    0.11E-03    0.92E-07
   1     10    11.376    14.624    0.69E-04    0.92E-04    0.82E-07
 Optimization of the real space projectors (new method)

 maximal supplied QI-value         = 24.76
 optimisation between [QCUT,QGAM] = [ 11.39, 22.77] = [ 36.31,145.25] Ry
 Optimized for a Real-space Cutoff    1.10 Angstroem

   l    n(q)    QCUT    max X(q) W(low)/X(q) W(high)/X(q)  e(spline)
   0      7    11.387    20.381    0.22E-03    0.48E-03    0.18E-06
   0      7    11.387    15.268    0.22E-03    0.52E-03    0.19E-06
   1      7    11.387     5.964    0.22E-03    0.73E-03    0.24E-06
   1      7    11.387     5.382    0.19E-03    0.60E-03    0.21E-06

  PAW_PBE Li_sv 10Sep2004               :
  PAW_PBE Ni 02Aug2007                  :
  PAW_PBE O 08Apr2002                   :

 POSCAR: ce15988_1
  positions in direct lattice
 exchange correlation table for  LEXCH =       14
   RHO(1)=    0.500       N(1)  =     2000
   RHO(2)=  100.500       N(2)  =     4000

 ion  position               nearest neighbor table
   1  0.249  0.249  0.502-  47 2.08  35 2.12  23 2.14  25 2.16  43 2.16  37 2.17  16 2.82
   2  0.751  0.249  0.502-  50 2.10  35 2.11  23 2.12  25 2.14  37 2.14  46 2.17
   3  0.512  0.753  0.729-  38 2.01  45 2.04  44 2.11  33 2.18  32 2.26  20 2.78  10 2.84
   4  0.250  0.252  0.000-  27 2.07  31 2.11  53 2.13  41 2.13  39 2.14  51 2.14
   5  0.233  0.750  0.018-  28 2.00  42 2.05  54 2.16  40 2.20  32 2.24   8 2.82  21 2.82
   6  0.750  0.251  0.001-  30 2.09  53 2.13  34 2.13  39 2.13  41 2.14  51 2.15
   7  1.000  0.997  0.997-  34 1.84  31 1.84  33 1.85  32 1.86  42 1.92  41 1.92  12 2.77  12 2.78
                             9 2.80  10 2.80  11 2.84   8 2.84
   8  0.250  0.003  0.252-  42 1.84  54 1.84  37 1.86  25 1.86  48 1.96  31 2.02  11 2.78  11 2.78
                            14 2.79  13 2.79   5 2.82  12 2.83   7 2.84
   9  0.249  0.005  0.752-  26 1.84  38 1.85  41 1.86  53 1.87  47 2.00  32 2.03  10 2.76  10 2.79
                             7 2.80  12 2.81  13 2.83  14 2.84
  10  0.751  0.006  0.752-  26 1.85  38 1.85  41 1.86  53 1.88  33 1.97  50 1.98   9 2.76   9 2.79
                             7 2.80  12 2.82  13 2.83  14 2.84   3 2.84
  11  0.750  0.998  0.250-  42 1.85  54 1.86  37 1.86  25 1.87  49 1.94  34 2.00   8 2.78   8 2.78
                            14 2.79  13 2.80  12 2.82   7 2.84
  12  0.500  0.000  1.000-  32 1.84  33 1.84  34 1.84  31 1.84  54 1.90  53 1.91   7 2.77   7 2.78
                             9 2.81  10 2.82  11 2.82   8 2.83
  13  1.000  0.995  0.497-  48 1.84  49 1.84  47 1.84  50 1.84  26 1.89  25 1.91  14 2.77  14 2.78
                             8 2.79  11 2.80  10 2.83   9 2.83
  14  0.500  0.995  0.496-  48 1.83  49 1.84  47 1.84  50 1.85  37 1.91  38 1.93  13 2.77  13 2.78
                             8 2.79  11 2.79  10 2.84   9 2.84
  15  0.001  0.507  0.503-  43 1.84  46 1.84  44 1.85  45 1.85  24 1.91  23 1.94  20 2.77  20 2.78
                            16 2.80  19 2.81  17 2.82  18 2.82
  16  0.250  0.494  0.747-  52 1.84  40 1.85  23 1.85  35 1.88  44 1.98  27 2.02  19 2.77  19 2.78
                            15 2.80  20 2.82   1 2.82  21 2.84  22 2.84
  17  0.250  0.501  0.250-  24 1.83  36 1.85  51 1.87  39 1.87  28 1.98  43 1.98  18 2.77  18 2.78
                            21 2.81  22 2.81  20 2.81  15 2.82
  18  0.751  0.500  0.250-  24 1.84  36 1.85  51 1.87  39 1.87  29 1.94  46 1.97  17 2.77  17 2.78
                            21 2.80  22 2.80  20 2.81  15 2.82
  19  0.751  0.497  0.749-  52 1.86  23 1.86  40 1.87  35 1.88  45 1.96  30 2.00  16 2.77  16 2.78
                            15 2.81  21 2.82  20 2.82  22 2.83
  20  0.501  0.502  0.500-  44 1.84  45 1.84  43 1.84  46 1.84  36 1.89  35 1.91  15 2.77  15 2.78
                             3 2.78  17 2.81  18 2.81  16 2.82  19 2.82
  21  0.999  0.500  0.001-  30 1.84  29 1.84  28 1.84  27 1.85  40 1.89  39 1.89  22 2.77  22 2.78
                            18 2.80  17 2.81   5 2.82  19 2.82  16 2.84
  22  0.501  0.501  0.002-  29 1.83  30 1.84  28 1.84  27 1.84  51 1.91  52 1.94  21 2.77  21 2.78
                            18 2.80  17 2.81  19 2.83  16 2.84
  23  0.999  0.398  0.632-  16 1.85  19 1.86  15 1.94   2 2.12   1 2.14
  24  0.000  0.598  0.361-  17 1.83  18 1.84  15 1.91
  25  0.998  0.100  0.368-   8 1.86  11 1.87  13 1.91   2 2.14   1 2.16
  26  1.000  0.907  0.639-   9 1.84  10 1.85  13 1.89
  27  0.251  0.397  0.895-  22 1.84  21 1.85  16 2.02   4 2.07
  28  0.250  0.602  0.109-  22 1.84  21 1.84  17 1.98   5 2.00
  29  0.751  0.600  0.112-  22 1.83  21 1.84  18 1.94
  30  0.749  0.398  0.894-  21 1.84  22 1.84  19 2.00   6 2.09
  31  0.248  0.102  0.106-   7 1.84  12 1.84   8 2.02   4 2.11
  32  0.254  0.895  0.890-  12 1.84   7 1.86   9 2.03   5 2.24   3 2.26
  33  0.746  0.899  0.886-  12 1.84   7 1.85  10 1.97   3 2.18
  34  0.753  0.100  0.107-   7 1.84  12 1.84  11 2.00   6 2.13
  35  0.502  0.397  0.629-  19 1.88  16 1.88  20 1.91   2 2.11   1 2.12
  36  0.501  0.596  0.364-  17 1.85  18 1.85  20 1.89
  37  0.503  0.100  0.367-   8 1.86  11 1.86  14 1.91   2 2.14   1 2.17
  38  0.500  0.906  0.642-   9 1.85  10 1.85  14 1.93   3 2.01
  39  0.000  0.400  0.132-  18 1.87  17 1.87  21 1.89   6 2.13   4 2.14
  40  0.004  0.594  0.865-  16 1.85  19 1.87  21 1.89   5 2.20
  41  0.001  0.104  0.869-  10 1.86   9 1.86   7 1.92   4 2.13   6 2.14
  42  0.004  0.904  0.137-   8 1.84  11 1.85   7 1.92   5 2.05
  43  0.247  0.402  0.394-  15 1.84  20 1.84  17 1.98   1 2.16
  44  0.256  0.603  0.614-  20 1.84  15 1.85  16 1.98   3 2.11
  45  0.746  0.603  0.615-  20 1.84  15 1.85  19 1.96   3 2.04
  46  0.754  0.402  0.393-  20 1.84  15 1.84  18 1.97   2 2.17
  47  0.251  0.099  0.603-  13 1.84  14 1.84   9 2.00   1 2.08
  48  0.250  0.897  0.387-  14 1.83  13 1.84   8 1.96
  49  0.750  0.897  0.386-  14 1.84  13 1.84  11 1.94
  50  0.750  0.099  0.604-  13 1.84  14 1.85  10 1.98   2 2.10
  51  0.500  0.400  0.134-  18 1.87  17 1.87  22 1.91   4 2.14   6 2.15
  52  0.497  0.596  0.860-  16 1.84  19 1.86  22 1.94
  53  0.500  0.104  0.870-   9 1.87  10 1.88  12 1.91   6 2.13   4 2.13
  54  0.495  0.904  0.136-   8 1.84  11 1.86  12 1.90   5 2.16

  LATTYP: Found a triclinic cell.
 ALAT       =    11.6003049978
 B/A-ratio  =     0.4784444957
 C/A-ratio  =     0.8449466539
 COS(alpha) =     0.0004595256
 COS(beta)  =     0.2947799636
 COS(gamma) =     0.4770412356

  Lattice vectors:

 A1 = (  -3.5247587573,   5.5420511173,   9.5618419333)
 A2 = (  -0.0011824617,   5.5500995035,  -0.0052098677)
 A3 = (  -9.8010327772,   0.0023136761,  -0.1089776456)

Analysis of symmetry for initial positions (statically):
 Subroutine PRICEL returns:
 Original cell was already a primitive cell.

 Routine SETGRP: Setting up the symmetry group for a
 triclinic supercell.

 Subroutine GETGRP returns: Found  1 space group operations
 (whereof  1 operations were pure point group operations)
 out of a pool of  2 trial point group operations.

The static configuration has the point symmetry C_1 .

Analysis of symmetry for dynamics (positions and initial velocities):
 Subroutine PRICEL returns:
 Original cell was already a primitive cell.

[...]

The dynamic configuration has the point symmetry C_1 .

Analysis of structural, dynamic, and magnetic symmetry:
 Subroutine PRICEL returns:
 Original cell was already a primitive cell.

 Routine SETGRP: Setting up the symmetry group for a
 triclinic supercell.

 Subroutine GETGRP returns: Found  1 space group operations
 (whereof  1 operations were pure point group operations)
 out of a pool of  2 trial point group operations.

The magnetic configuration has the point symmetry C_1 .

 Subroutine INISYM returns: Found  1 space group operations
 (whereof  1 operations are pure point group operations),
 and found     1 'primitive' translations

 KPOINTS: Automatic mesh

Automatic generation of k-mesh.
Space group operators:
 irot       det(A)        alpha          n_x          n_y          n_z        tau_x        tau_y        tau_z
    1     1.000000     0.000001     1.000000     0.000000     0.000000     0.000000     0.000000     0.000000

 Subroutine IBZKPT returns following result:

 Found      1 irreducible k-points:

 Following reciprocal coordinates:
            Coordinates               Weight
  0.000000  0.000000  0.000000      1.000000

 Following cartesian coordinates:
            Coordinates               Weight
  0.000000  0.000000  0.000000      1.000000

 SYSTEM =  unknown system
 POSCAR =  ce15988_1

 Startparameter for this run:
   NWRITE =      1    write-flag & timer
   PREC   = accura    normal or accurate (medium, high low for compatibility)
   ISTART =      0    job   : 0-new  1-cont  2-samecut
   ICHARG =      2    charge: 1-file 2-atom 10-const
   ISPIN  =      2    spin polarized calculation?
   LNONCOLLINEAR =      F non collinear calculations
   LSORBIT =      F    spin-orbit coupling
   INIWAV =      1    electr: 0-lowe 1-rand  2-diag
   LASPH  =      F    aspherical Exc in radial PAW
   METAGGA=      F    non-selfconsistent MetaGGA calc.

 Electronic Relaxation 1
   ENCUT  =  500.0 eV  36.75 Ry    6.06 a.u.  10.12 18.59 17.87*2*pi/ulx,y,z
   ENINI  =  500.0     initial cutoff
   ENAUG  =  628.9 eV  augmentation charge cutoff
   NELM   =     80;   NELMIN=  2; NELMDL= -5     # of ELM steps
   EDIFF  = 0.1E-04   stopping-criterion for ELM
   LREAL  =      T    real-space projection
   NLSPLINE    = F    spline interpolate recip. space projectors
   LCOMPAT=      F    compatible to vasp.4.4
   GGA_COMPAT  = T    GGA compatible to vasp.4.4-vasp.4.6
   LMAXPAW     = -100 max onsite density
   LMAXMIX     =    2 max onsite mixed and CHGCAR
[...]
   -.562E+01 -.512E-01 0.551E+00   0.550E+01 0.505E-01 -.488E+00   0.130E+00 0.179E-02 -.759E-01   -.465E-03 -.136E-02 0.811E-02
   -.152E+02 0.148E+02 0.920E+02   0.156E+02 -.149E+02 -.925E+02   -.438E+00 0.725E-01 0.542E+00   0.135E-01 -.138E-01 -.182E-01
   0.241E+00 -.126E+01 0.114E+02   -.448E+00 0.118E+01 -.119E+02   0.192E+00 0.756E-01 0.540E+00   0.148E-01 0.183E-02 -.199E-01
   0.396E+02 0.958E+01 0.310E+02   -.406E+02 -.970E+01 -.313E+02   0.105E+01 0.131E+00 0.243E+00   -.222E-01 -.695E-02 -.247E-01
   0.457E+02 -.103E+02 0.198E+02   -.467E+02 0.104E+02 -.200E+02   0.969E+00 -.156E+00 0.248E+00   -.227E-01 0.390E-02 -.234E-01
   0.194E+02 0.138E+01 0.685E+02   -.196E+02 -.130E+01 -.696E+02   0.199E+00 -.788E-01 0.114E+01   0.156E-01 -.413E-02 -.208E-01
   -.364E+02 -.142E+02 0.499E+02   0.370E+02 0.142E+02 -.503E+02   -.546E+00 -.286E-01 0.362E+00   0.175E-01 0.113E-01 -.186E-01
   -.250E+02 0.135E+01 0.126E+03   0.258E+02 -.131E+01 -.127E+03   -.823E+00 -.268E-01 0.169E+01   -.158E-01 -.143E-01 -.327E-01
   -.286E+02 -.767E+00 0.129E+03   0.295E+02 0.720E+00 -.131E+03   -.839E+00 0.283E-01 0.157E+01   -.223E-01 0.122E-01 -.299E-01
   0.272E+02 0.998E+00 -.128E+03   -.279E+02 -.950E+00 0.129E+03   0.716E+00 -.474E-01 -.152E+01   -.952E-02 -.343E-02 0.189E-01
   -.123E+02 0.101E+02 0.500E+01   0.128E+02 -.102E+02 -.483E+01   -.518E+00 0.154E+00 -.193E+00   0.201E-02 -.631E-03 0.203E-01
   -.274E+02 -.202E+01 -.713E+02   0.280E+02 0.203E+01 0.725E+02   -.528E+00 -.216E-02 -.121E+01   0.172E-01 0.780E-03 0.323E-01
   -.319E+02 0.179E+01 -.692E+02   0.323E+02 -.179E+01 0.705E+02   -.397E+00 -.443E-02 -.135E+01   0.122E-01 0.216E-02 0.344E-01
   -.291E+02 -.110E+02 -.334E+02   0.297E+02 0.112E+02 0.338E+02   -.516E+00 -.185E+00 -.362E+00   0.576E-02 0.295E-02 0.186E-01
   0.510E+02 -.151E+01 -.661E+02   -.519E+02 0.146E+01 0.668E+02   0.894E+00 0.485E-01 -.743E+00   -.944E-02 0.685E-02 0.185E-01
   0.100E+02 0.141E+02 -.780E+02   -.104E+02 -.141E+02 0.785E+02   0.412E+00 0.956E-01 -.548E+00   0.482E-03 -.133E-01 0.268E-01
   0.141E+02 -.136E+02 -.913E+02   -.144E+02 0.137E+02 0.919E+02   0.350E+00 -.596E-01 -.628E+00   0.209E-02 0.162E-01 0.264E-01
   -.191E+02 0.281E+01 0.312E+03   0.191E+02 -.314E+01 -.330E+03   0.513E-03 0.336E+00 0.180E+02   -.662E-02 -.585E-02 0.189E-01
   0.167E+01 -.336E-01 -.414E+03   -.126E+01 0.387E-02 0.441E+03   -.410E+00 0.432E-01 -.267E+02   0.621E-02 -.939E-02 0.992E-02
   0.337E+02 0.257E+01 -.316E+03   -.352E+02 -.295E+01 0.334E+03   0.141E+01 0.390E+00 -.181E+02   -.176E-02 -.101E-01 -.134E-01
   0.907E+01 -.948E+00 0.408E+03   -.899E+01 0.761E+00 -.434E+03   -.775E-01 0.201E+00 0.258E+02   -.101E-01 -.184E-01 -.226E-01
   0.595E+02 -.151E+01 0.340E+03   -.648E+02 0.169E+01 -.359E+03   0.531E+01 -.188E+00 0.196E+02   0.467E-03 0.890E-02 0.242E-01
   -.613E+02 -.434E+01 -.399E+03   0.667E+02 0.451E+01 0.419E+03   -.542E+01 -.174E+00 -.206E+02   -.318E-02 0.883E-02 0.805E-02
   -.282E+02 0.137E+01 -.428E+03   0.298E+02 -.119E+01 0.454E+03   -.160E+01 -.173E+00 -.261E+02   0.170E-02 -.960E-02 0.423E-02
   0.599E+02 0.290E+01 0.335E+03   -.650E+02 -.322E+01 -.355E+03   0.503E+01 0.330E+00 0.203E+02   -.108E-02 -.897E-02 0.265E-01
   -.620E+02 0.213E+01 -.348E+03   0.670E+02 -.253E+01 0.368E+03   -.499E+01 0.396E+00 -.200E+02   0.206E-01 0.834E-02 0.123E-01
   0.420E+02 0.257E+02 0.384E+03   -.463E+02 -.273E+02 -.402E+03   0.433E+01 0.159E+01 0.189E+02   -.253E-03 0.821E-02 -.373E-01
   0.736E+01 -.262E+02 0.398E+03   -.781E+01 0.280E+02 -.421E+03   0.454E+00 -.176E+01 0.221E+02   -.148E-01 -.622E-02 -.272E-01
   -.660E+02 -.361E+01 -.340E+03   0.710E+02 0.412E+01 0.360E+03   -.509E+01 -.510E+00 -.206E+02   0.259E-01 -.798E-02 0.686E-02
   -.294E+02 -.109E+01 0.320E+03   0.309E+02 0.120E+01 -.338E+03   -.140E+01 -.109E+00 0.176E+02   -.586E-03 0.532E-02 0.168E-01
   0.120E+02 -.134E+01 -.410E+03   -.119E+02 0.145E+01 0.437E+03   -.646E-01 -.120E+00 -.265E+02   -.167E-02 0.859E-02 0.112E-01
   0.314E+02 -.309E+01 -.316E+03   -.325E+02 0.346E+01 0.335E+03   0.112E+01 -.379E+00 -.186E+02   -.116E-01 0.103E-01 -.995E-02
   0.425E+02 0.362E+01 0.377E+03   -.463E+02 -.371E+01 -.398E+03   0.375E+01 0.669E-01 0.204E+02   0.135E-03 0.188E-01 -.262E-01
   -.512E+02 -.458E+00 0.308E+03   0.537E+02 0.735E+00 -.326E+03   -.250E+01 -.267E+00 0.182E+02   0.445E-02 -.979E-02 0.222E-01
   0.187E+02 0.245E+02 -.377E+03   -.199E+02 -.260E+02 0.399E+03   0.117E+01 0.154E+01 -.218E+02   -.131E-02 -.731E-02 0.176E-02
   0.309E+02 -.159E+01 -.311E+03   -.316E+02 0.196E+01 0.329E+03   0.706E+00 -.353E+00 -.182E+02   -.189E-01 -.183E-01 0.517E-02
   -.205E+02 0.326E+02 0.377E+03   0.208E+02 -.346E+02 -.398E+03   -.373E+00 0.206E+01 0.210E+02   0.304E-01 -.999E-02 -.199E-01
   0.565E+02 0.436E+01 0.338E+03   -.612E+02 -.495E+01 -.358E+03   0.473E+01 0.595E+00 0.206E+02   0.319E-02 -.654E-02 0.198E-01
   0.173E+01 0.320E+02 -.396E+03   0.593E-01 -.343E+02 0.417E+03   -.177E+01 0.233E+01 -.212E+02   -.880E-02 -.689E-02 0.135E-02
   0.161E+01 -.343E+02 -.394E+03   -.687E+00 0.369E+02 0.415E+03   -.915E+00 -.256E+01 -.209E+02   -.589E-02 0.614E-02 0.203E-04
   0.539E+02 -.333E+01 0.337E+03   -.582E+02 0.389E+01 -.358E+03   0.436E+01 -.565E+00 0.207E+02   -.250E-02 0.596E-02 0.231E-01
   -.491E+02 -.268E+01 -.327E+03   0.537E+02 0.306E+01 0.347E+03   -.459E+01 -.369E+00 -.197E+02   -.101E-01 -.946E-02 -.579E-03
   0.507E+01 0.881E+00 0.430E+03   -.674E+01 -.110E+01 -.456E+03   0.168E+01 0.224E+00 0.264E+02   -.539E-02 -.879E-02 -.267E-01
   0.977E+01 0.683E+00 0.432E+03   -.111E+02 -.584E+00 -.459E+03   0.139E+01 -.112E+00 0.265E+02   -.120E-01 0.955E-02 -.209E-01
   -.426E+02 0.122E+01 -.328E+03   0.463E+02 -.152E+01 0.348E+03   -.374E+01 0.293E+00 -.198E+02   0.482E-02 0.100E-01 -.890E-02
   -.472E+02 0.126E+01 0.307E+03   0.492E+02 -.158E+01 -.325E+03   -.195E+01 0.310E+00 0.183E+02   -.498E-02 0.947E-02 0.260E-01
   -.127E+02 -.237E+02 -.366E+03   0.146E+02 0.251E+02 0.387E+03   -.196E+01 -.137E+01 -.203E+02   0.856E-02 0.606E-02 -.150E-02
   0.390E+02 0.498E+00 -.316E+03   -.410E+02 -.757E+00 0.334E+03   0.192E+01 0.240E+00 -.177E+02   -.907E-02 0.182E-01 0.347E-02
   -.263E+02 -.294E+02 0.381E+03   0.268E+02 0.312E+02 -.403E+03   -.490E+00 -.179E+01 0.220E+02   0.215E-01 0.112E-01 -.168E-01
   -.162E+00 -.279E+00 0.869E+00   0.124E-12 -.355E-13 0.284E-12   0.162E+00 0.256E+00 -.907E+00   -.677E-02 0.564E-02 0.290E-01

 POSITION                                       TOTAL-FORCE (eV/Angst)
      4.04525      1.38122      2.45441         0.000787      0.000974      0.003661
      4.03483      4.16821      2.44826        -0.003133      0.001710      0.004123
      4.47239      2.82798      7.29766        -0.029322     -0.000014      0.000584
     -0.87395      1.38586      2.40792         0.006457      0.000998     -0.003474
     -2.46387      1.27482      7.19908         0.005693     -0.012797     -0.001555
     -0.86982      4.16499      2.40109         0.006997      0.000059     -0.004071
      6.26080      5.53365      9.67743        -0.002108     -0.005546      0.007378
      2.45797      1.38719      0.06410        -0.000360     -0.003713      0.014055
      7.33760      1.38051      0.13993        -0.002863     -0.000736      0.010963
      7.34328      4.16951      0.14106        -0.002294     -0.001832      0.011223
     -1.07259      4.14996      9.61546        -0.001338     -0.000258      0.014091
      9.79106      2.77512      0.11272        -0.003347     -0.000818      0.006650
      1.36398      5.53803      9.61402        -0.004742     -0.000200      0.019503
      1.35963      2.76092      9.61143        -0.003629     -0.005613      0.020097
      3.14380     -0.00262      4.91062         0.002367     -0.003072     -0.014839
      5.58551      1.38094      4.81908         0.005801      0.009215     -0.006305
      0.69374      1.38240      4.81792        -0.003291      0.006289     -0.020695
      0.68991      4.16357      4.80859        -0.001607     -0.003220     -0.022212
      5.59209      4.16306      4.84123         0.003156     -0.001380     -0.006431
      3.13548      2.77451      4.86074         0.003130      0.007576     -0.015665
     -1.74562      5.54709      4.77995         0.008947      0.007063     -0.009985
     -1.74537      2.77797      4.79692         0.007576     -0.004389     -0.008347
      4.78844      5.54068      3.88266         0.005416      0.000118     -0.001895
      1.44107     -0.00410      5.76359         0.005953      0.004387     -0.009611
      3.24890      5.54007      0.99400        -0.005154      0.000879      0.006232
      3.05974      5.53482      8.78056        -0.006244     -0.004493      0.012109
      7.37972      1.38468      3.89965         0.001658     -0.000496     -0.004439
     -1.04794      1.38327      5.77728         0.002236      0.003836     -0.013696
     -1.01122      4.16548      5.74766         0.005432      0.005387     -0.011591
      7.35805      4.15420      3.90619        -0.000564      0.000558     -0.005666
      0.68766      1.37501      0.98266        -0.003557      0.000977      0.000189
      5.56772      1.39314      8.70335        -0.004041     -0.004292      0.004447
      5.49987      4.12131      8.73965        -0.006187     -0.004059      0.005141
      0.69568      4.17868      0.96718        -0.004361      0.000597     -0.001059
      4.76948      2.78252      3.87121         0.006324      0.000058     -0.000651
      1.46586      2.77540      5.74736         0.004541      0.003738     -0.010885
      3.23679      2.79561      1.00044        -0.005256     -0.000213      0.007641
      3.09541      2.76116      8.76617        -0.007316     -0.003256      0.012085
     -0.10389     -0.00617      3.84444         0.002971     -0.000124     -0.005253
      6.38275      0.01664      5.78820         0.004461      0.003748     -0.007040
      8.13746      0.00336      1.09563        -0.001568     -0.000313      0.001673
     -1.83016      0.00682      8.69208        -0.000662     -0.002977      0.007394
      2.45245      1.36521      3.89056         0.007356      0.000743     -0.007924
      3.88289      1.41731      5.84622         0.004703      0.004835     -0.006503
      3.89485      4.13847      5.83491         0.005366      0.003952     -0.008205
      2.43816      4.17970      3.89046         0.006949      0.000637     -0.004655
      5.55110      1.39131      1.03045        -0.004542      0.001274      0.008630
      0.61789      1.36870      8.67318        -0.003422     -0.003717      0.016975
      0.61989      4.14933      8.66675        -0.004923     -0.003037      0.014536
      5.58239      4.16392      1.01486        -0.003632      0.000727      0.008925
     -0.08929      2.77072      3.84063         0.004559      0.001223     -0.004117
      6.33149      2.75023      5.80183         0.004326      0.003442     -0.009866
      8.15478      2.77039      1.09313        -0.001927      0.000042      0.000500
     -1.85240      2.73084      8.69448        -0.001772     -0.004476      0.007829
    total drift:                               -0.006004     -0.018046     -0.009950

  FREE ENERGIE OF THE ION-ELECTRON SYSTEM (eV)
  free  energy   TOTEN  =      -334.8829298420 eV

  energy  without entropy=     -334.8828365300  energy(sigma->0) =     -334.88288319

 d Force = 0.2466633E-03[ 0.241E-03, 0.252E-03]  d Energy = 0.3152435E-03-0.686E-04
 d Force =-0.9010121E+00[-0.903E+00,-0.899E+00]  d Ewald  =-0.4348018E+01 0.345E+01

 Quasi-Newton relaxation of ions (Broydens 2nd method)
  g(Force)  = 0.394E-03   g(Stress)= 0.232E-04

 retain information from N=  1 steps
 eigenvalues of (default step * inverse Hessian matrix)
  average eigenvalue of G=   0.4500
 eigenvalue spectrum of G is  0.4500

volume of typ            1:     8.9 %

[...]

volume of typ            3:     9.9 %

total charge

# of ion       s       p       d       tot
    1        2.071   0.220   0.082   2.373
    2        2.073   0.220   0.082   2.374
    3        2.067   0.204   0.077   2.349
    4        2.076   0.230   0.087   2.393
    5        2.064   0.204   0.076   2.344
    6        2.072   0.224   0.084   2.380
    7        0.292   0.411   7.849   8.551
    8        0.284   0.388   7.852   8.525
    9        0.277   0.374   7.854   8.505
   10        0.284   0.389   7.849   8.521
   11        0.279   0.379   7.840   8.497
   12        0.301   0.430   7.848   8.580
   13        0.301   0.430   7.837   8.568
   14        0.295   0.420   7.842   8.556
   15        0.293   0.411   7.838   8.542
   16        0.278   0.376   7.858   8.513
   17        0.278   0.378   7.845   8.502
   18        0.284   0.388   7.843   8.515
   19        0.275   0.371   7.848   8.493
   20        0.303   0.433   7.844   8.579
   21        0.303   0.435   7.843   8.581
   22        0.297   0.422   7.847   8.565
   23        1.260   2.787   0.007   4.055
   24        1.285   2.722   0.008   4.015
   25        1.263   2.784   0.007   4.054
   26        1.283   2.729   0.008   4.019
   27        1.273   2.760   0.007   4.040
   28        1.272   2.760   0.007   4.040
   29        1.284   2.725   0.008   4.017
   30        1.273   2.759   0.007   4.039
   31        1.274   2.755   0.007   4.036
   32        1.270   2.763   0.007   4.039
   33        1.274   2.752   0.007   4.033
   34        1.273   2.757   0.007   4.037
   35        1.261   2.786   0.007   4.054
   36        1.284   2.724   0.008   4.017
   37        1.264   2.780   0.007   4.051
   38        1.271   2.763   0.008   4.042
   39        1.262   2.787   0.007   4.056
   40        1.272   2.756   0.008   4.035
   41        1.262   2.786   0.007   4.055
   42        1.272   2.760   0.008   4.040
   43        1.274   2.753   0.007   4.035
   44        1.272   2.756   0.007   4.036
   45        1.271   2.760   0.007   4.038
   46        1.274   2.755   0.007   4.036
   47        1.272   2.761   0.007   4.041
   48        1.285   2.721   0.008   4.014
   49        1.286   2.719   0.008   4.013
   50        1.273   2.759   0.007   4.040
   51        1.262   2.784   0.007   4.053
   52        1.270   2.761   0.007   4.038
   53        1.262   2.786   0.007   4.054
   54        1.273   2.754   0.008   4.035
tot          57.75   96.00  126.26  280.01

magnetization (x)

# of ion       s       p       d       tot
    1        0.004   0.006   0.000   0.010
    2       -0.000  -0.000  -0.000  -0.000
    3       -0.000   0.000   0.000   0.000
    4        0.000   0.001   0.000   0.001
    5        0.004   0.007   0.000   0.011
    6        0.004   0.004   0.000   0.008
    7        0.000  -0.000   0.075   0.075
    8       -0.000   0.000  -0.307  -0.307
    9        0.002   0.000   0.438   0.440
   10       -0.001   0.000  -0.252  -0.252
   11        0.000   0.000   0.220   0.220
   12        0.000  -0.000   0.026   0.026
   13       -0.000  -0.000   0.016   0.015
   14        0.000  -0.000   0.065   0.065
   15       -0.001   0.000  -0.097  -0.097
   16        0.001  -0.000   0.451   0.452
   17        0.002  -0.000   0.381   0.383
   18        0.001  -0.000   0.242   0.242
   19        0.000  -0.000   0.358   0.358
   20       -0.001   0.000  -0.051  -0.052
   21       -0.001   0.000  -0.042  -0.042
   22       -0.001   0.000  -0.090  -0.091
   23        0.001  -0.005   0.000  -0.004
   24        0.000   0.002   0.000   0.002
   25       -0.000   0.001   0.000   0.000
   26        0.000   0.005   0.000   0.005
   27        0.004   0.039   0.000   0.043
   28        0.004   0.033   0.000   0.037
   29        0.002   0.022   0.000   0.024
   30        0.002   0.022   0.000   0.025
   31       -0.002  -0.020  -0.000  -0.023
   32        0.005   0.048   0.000   0.053
   33       -0.002  -0.030  -0.000  -0.032
   34        0.002   0.015   0.000   0.017
   35        0.002   0.005   0.000   0.008
   36        0.001   0.011   0.000   0.012
   37        0.000   0.005   0.000   0.005
   38        0.001   0.008   0.000   0.009
   39        0.002   0.001   0.000   0.003
   40        0.002   0.011   0.000   0.013
   41        0.001   0.010   0.000   0.011
   42        0.000   0.001   0.000   0.001
   43        0.003   0.026   0.000   0.029
   44        0.004   0.063   0.000   0.067
   45        0.003   0.043   0.000   0.046
   46        0.001   0.007   0.000   0.008
   47        0.005   0.044   0.000   0.049
   48       -0.002  -0.041  -0.000  -0.044
   49        0.002   0.036   0.000   0.038
   50       -0.002  -0.015  -0.000  -0.017
   51        0.001  -0.005   0.000  -0.004
   52        0.001  -0.002   0.000  -0.001
   53        0.000   0.004   0.000   0.004
   54       -0.000  -0.004   0.000  -0.004
tot           0.05    0.36    1.44    1.85