 vasp.5.4.4.18Apr17-6-g9f103f2a35 (build May 12 2020 05:39:39) gamma-only

 MD_VERSION_INFO: Compiled 2020-05-12T12:39:39-UTC in devlin.sd.materialsdesign.
 com:/home/medea2/data/build/wwolf/vasp-gpu5.4.4/13047/x86_64/src/src/build/gam
 from svn 13047

 executed on                        Lin64 date 2023.03.07  02:59:55

 INCAR:
 POTCAR:    PAW_PBE Li_sv 10Sep2004
 POTCAR:    PAW_PBE Ni 02Aug2007
 POTCAR:    PAW_PBE O 08Apr2002

 POTCAR:    PAW_PBE Li_sv 10Sep2004

 POTCAR:    PAW_PBE Ni 02Aug2007

 POTCAR:    PAW_PBE O 08Apr2002

 Optimization of the real space projectors (new method)

 maximal supplied QI-value         = 22.11
 optimisation between [QCUT,QGAM] = [ 11.28, 22.77] = [ 35.61,145.23] Ry
 Optimized for a Real-space Cutoff    1.10 Angstroem

   l    n(q)    QCUT    max X(q) W(low)/X(q) W(high)/X(q)  e(spline)
   0      7    11.276    10.506    0.54E-04    0.58E-04    0.16E-07
   0      7    11.276     8.367    0.11E-03    0.14E-03    0.35E-07
   1      7    11.276     8.983    0.23E-03    0.43E-03    0.86E-07
 Optimization of the real space projectors (new method)

[...]

   l    n(q)    QCUT    max X(q) W(low)/X(q) W(high)/X(q)  e(spline)
   2      9    11.376    60.317    0.17E-03    0.16E-04    0.16E-06
   2      9    11.376    55.921    0.17E-03    0.16E-04    0.17E-06
   0     10    11.376    51.690    0.45E-04    0.60E-04    0.21E-06
   0     10    11.376    30.015    0.37E-04    0.55E-04    0.19E-06
   1     10    11.376    18.849    0.83E-04    0.11E-03    0.92E-07
   1     10    11.376    14.624    0.69E-04    0.92E-04    0.82E-07
 Optimization of the real space projectors (new method)

 maximal supplied QI-value         = 24.76
 optimisation between [QCUT,QGAM] = [ 11.39, 22.77] = [ 36.31,145.25] Ry
 Optimized for a Real-space Cutoff    1.10 Angstroem

   l    n(q)    QCUT    max X(q) W(low)/X(q) W(high)/X(q)  e(spline)
   0      7    11.387    20.381    0.22E-03    0.48E-03    0.18E-06
   0      7    11.387    15.268    0.22E-03    0.52E-03    0.19E-06
   1      7    11.387     5.964    0.22E-03    0.73E-03    0.24E-06
   1      7    11.387     5.382    0.19E-03    0.60E-03    0.21E-06

  PAW_PBE Li_sv 10Sep2004               :
  PAW_PBE Ni 02Aug2007                  :
  PAW_PBE O 08Apr2002                   :

 POSCAR: ce15992_1
  positions in direct lattice
 exchange correlation table for  LEXCH =       14
   RHO(1)=    0.500       N(1)  =     2000
   RHO(2)=  100.500       N(2)  =     4000

 ion  position               nearest neighbor table
   1  0.249  0.249  0.502-  46 2.11  34 2.13  22 2.14  24 2.16  42 2.17  36 2.18  15 2.83
   2  0.751  0.249  0.501-  34 2.12  22 2.12  49 2.13  36 2.14  24 2.14  45 2.17
   3  0.514  0.752  0.731-  37 2.01  44 2.03  43 2.12  32 2.17  31 2.26  19 2.78   9 2.84
   4  0.250  0.252  0.001-  26 2.09  30 2.14  50 2.14  40 2.14  52 2.14  38 2.15
   5  0.235  0.750  0.019-  27 1.98  41 2.05  53 2.15  39 2.20  31 2.27   7 2.82  20 2.82
   6  0.999  0.998  0.997-  33 1.83  30 1.84  32 1.85  31 1.87  40 1.91  41 1.93  11 2.76   9 2.78
                            11 2.79   8 2.79  10 2.83   7 2.85
   7  0.250  0.003  0.253-  41 1.84  53 1.84  36 1.86  24 1.86  47 1.93  30 1.98  10 2.78  10 2.78
                            13 2.78  12 2.79   5 2.82  11 2.84   6 2.85
   8  0.249  0.001  0.751-  40 1.83  25 1.84  37 1.84  52 1.85  46 1.98  31 1.98   9 2.76   9 2.79
                             6 2.79  11 2.81  12 2.82  13 2.83
   9  0.751  0.007  0.753-  25 1.84  37 1.85  40 1.85  52 1.86  32 1.93  49 1.95   8 2.76   6 2.78
                             8 2.79  11 2.79  12 2.83  13 2.84   3 2.84
  10  0.750  0.998  0.250-  41 1.85  53 1.85  36 1.86  24 1.87  48 1.92  33 1.95   7 2.78   7 2.78
                            13 2.79  12 2.79  11 2.82   6 2.83
  11  0.501  0.001  0.999-  33 1.83  32 1.84  30 1.85  31 1.85  52 1.90  53 1.92   6 2.76   6 2.79
                             9 2.79   8 2.81  10 2.82   7 2.84
  12  1.000  0.994  0.497-  48 1.84  47 1.84  46 1.84  49 1.85  25 1.90  24 1.91  13 2.77  13 2.78
                             7 2.79  10 2.79   8 2.82   9 2.83
  13  0.501  0.993  0.496-  48 1.83  47 1.84  46 1.85  49 1.85  36 1.92  37 1.94  12 2.77   7 2.78
                            12 2.78  10 2.79   8 2.83   9 2.84
  14  0.001  0.507  0.503-  42 1.84  45 1.84  44 1.85  43 1.86  23 1.90  22 1.94  19 2.78  19 2.78
                            15 2.80  18 2.81  16 2.81  17 2.82
  15  0.250  0.495  0.747-  51 1.84  39 1.85  22 1.85  34 1.88  43 1.96  26 1.99  18 2.77  18 2.78
                            14 2.80  19 2.81   1 2.83  20 2.83  21 2.84
  16  0.250  0.504  0.251-  23 1.84  35 1.84  50 1.85  38 1.85  27 1.96  42 1.98  17 2.77  17 2.78
                            20 2.80  21 2.81  19 2.81  14 2.81
  17  0.751  0.499  0.249-  23 1.84  35 1.85  50 1.86  38 1.86  28 1.92  45 1.96  16 2.77  16 2.78
                            20 2.79  21 2.79  19 2.82  14 2.82
  18  0.751  0.498  0.750-  39 1.86  51 1.86  22 1.86  34 1.88  29 1.94  44 1.95  15 2.77  15 2.78
                            14 2.81  20 2.81  21 2.81  19 2.82
  19  0.501  0.503  0.501-  43 1.84  42 1.84  44 1.84  45 1.84  35 1.89  34 1.92  14 2.78  14 2.78
                             3 2.78  15 2.81  16 2.81  17 2.82  18 2.82
  20  0.999  0.499  0.001-  29 1.83  28 1.84  26 1.85  27 1.85  38 1.88  39 1.90  21 2.76  17 2.79
                            21 2.79  16 2.80  18 2.81   5 2.82  15 2.83
  21  0.502  0.500  0.001-  28 1.83  29 1.83  27 1.85  26 1.85  50 1.90  51 1.95  20 2.76  17 2.79
                            20 2.79  16 2.81  18 2.81  15 2.84
  22  0.998  0.398  0.632-  15 1.85  18 1.86  14 1.94   2 2.12   1 2.14
  23  0.998  0.598  0.362-  16 1.84  17 1.84  14 1.90
  24  0.998  0.100  0.368-   7 1.86  10 1.87  12 1.91   2 2.14   1 2.16
  25  0.996  0.905  0.639-   8 1.84   9 1.84  12 1.90
  26  0.251  0.398  0.893-  21 1.85  20 1.85  15 1.99   4 2.09
  27  0.251  0.602  0.109-  21 1.85  20 1.85  16 1.96   5 1.98
  28  0.751  0.598  0.113-  21 1.83  20 1.84  17 1.92
  29  0.749  0.401  0.890-  21 1.83  20 1.83  18 1.94
  30  0.248  0.100  0.108-   6 1.84  11 1.85   7 1.98   4 2.14
  31  0.254  0.897  0.889-  11 1.85   6 1.87   8 1.98   3 2.26   5 2.27
  32  0.746  0.901  0.885-  11 1.84   6 1.85   9 1.93   3 2.17
  33  0.753  0.097  0.110-   6 1.83  11 1.83  10 1.95
  34  0.502  0.397  0.630-  15 1.88  18 1.88  19 1.92   2 2.12   1 2.13
  35  0.504  0.597  0.364-  16 1.84  17 1.85  19 1.89
  36  0.504  0.100  0.367-   7 1.86  10 1.86  13 1.92   2 2.14   1 2.18
  37  0.503  0.904  0.642-   8 1.84   9 1.85  13 1.94   3 2.01
  38  0.005  0.403  0.135-  16 1.85  17 1.86  20 1.88   4 2.15
  39  0.005  0.594  0.864-  15 1.85  18 1.86  20 1.90   5 2.20
  40  0.006  0.101  0.866-   8 1.83   9 1.85   6 1.91   4 2.14
  41  0.005  0.903  0.138-   7 1.84  10 1.85   6 1.93   5 2.05
  42  0.247  0.403  0.394-  14 1.84  19 1.84  16 1.98   1 2.17
  43  0.256  0.604  0.615-  19 1.84  14 1.86  15 1.96   3 2.12
  44  0.747  0.603  0.616-  19 1.84  14 1.85  18 1.95   3 2.03
  45  0.753  0.403  0.393-  19 1.84  14 1.84  17 1.96   2 2.17
  46  0.251  0.096  0.604-  12 1.84  13 1.85   8 1.98   1 2.11
  47  0.249  0.897  0.384-  13 1.84  12 1.84   7 1.93
  48  0.750  0.897  0.384-  13 1.83  12 1.84  10 1.92
  49  0.750  0.096  0.606-  12 1.85  13 1.85   9 1.95   2 2.13
  50  0.495  0.403  0.136-  16 1.85  17 1.86  21 1.90   4 2.14
  51  0.496  0.597  0.860-  15 1.84  18 1.86  21 1.95
  52  0.495  0.101  0.867-   8 1.85   9 1.86  11 1.90   4 2.14
  53  0.494  0.904  0.137-   7 1.84  10 1.85  11 1.92   5 2.15

  LATTYP: Found a triclinic cell.
 ALAT       =    11.5860946896
 B/A-ratio  =     0.4790284947
 C/A-ratio  =     0.8436562747
 COS(alpha) =     0.0002187276
 COS(beta)  =     0.2930525567
 COS(gamma) =     0.4768198544

  Lattice vectors:

 A1 = (  -3.5092654089,   5.5373075120,   9.5530556349)
 A2 = (  -0.0004804198,   5.5500642392,  -0.0076258821)
 A3 = (  -9.7739814959,   0.0011312258,  -0.1169724344)

Analysis of symmetry for initial positions (statically):
 Subroutine PRICEL returns:
 Original cell was already a primitive cell.

 Routine SETGRP: Setting up the symmetry group for a
 triclinic supercell.

 Subroutine GETGRP returns: Found  1 space group operations
 (whereof  1 operations were pure point group operations)
 out of a pool of  2 trial point group operations.

The static configuration has the point symmetry C_1 .

Analysis of symmetry for dynamics (positions and initial velocities):
 Subroutine PRICEL returns:
 Original cell was already a primitive cell.

[...]

The dynamic configuration has the point symmetry C_1 .

Analysis of structural, dynamic, and magnetic symmetry:
 Subroutine PRICEL returns:
 Original cell was already a primitive cell.

 Routine SETGRP: Setting up the symmetry group for a
 triclinic supercell.

 Subroutine GETGRP returns: Found  1 space group operations
 (whereof  1 operations were pure point group operations)
 out of a pool of  2 trial point group operations.

The magnetic configuration has the point symmetry C_1 .

 Subroutine INISYM returns: Found  1 space group operations
 (whereof  1 operations are pure point group operations),
 and found     1 'primitive' translations

 KPOINTS: Automatic mesh

Automatic generation of k-mesh.
Space group operators:
 irot       det(A)        alpha          n_x          n_y          n_z        tau_x        tau_y        tau_z
    1     1.000000     0.000001     1.000000     0.000000     0.000000     0.000000     0.000000     0.000000

 Subroutine IBZKPT returns following result:

 Found      1 irreducible k-points:

 Following reciprocal coordinates:
            Coordinates               Weight
  0.000000  0.000000  0.000000      1.000000

 Following cartesian coordinates:
            Coordinates               Weight
  0.000000  0.000000  0.000000      1.000000

 SYSTEM =  unknown system
 POSCAR =  ce15992_1

 Startparameter for this run:
   NWRITE =      1    write-flag & timer
   PREC   = accura    normal or accurate (medium, high low for compatibility)
   ISTART =      0    job   : 0-new  1-cont  2-samecut
   ICHARG =      2    charge: 1-file 2-atom 10-const
   ISPIN  =      2    spin polarized calculation?
   LNONCOLLINEAR =      F non collinear calculations
   LSORBIT =      F    spin-orbit coupling
   INIWAV =      1    electr: 0-lowe 1-rand  2-diag
   LASPH  =      F    aspherical Exc in radial PAW
   METAGGA=      F    non-selfconsistent MetaGGA calc.

 Electronic Relaxation 1
   ENCUT  =  500.0 eV  36.75 Ry    6.06 a.u.  10.12 18.57 17.82*2*pi/ulx,y,z
   ENINI  =  500.0     initial cutoff
   ENAUG  =  628.9 eV  augmentation charge cutoff
   NELM   =     80;   NELMIN=  2; NELMDL= -5     # of ELM steps
   EDIFF  = 0.1E-04   stopping-criterion for ELM
   LREAL  =      T    real-space projection
   NLSPLINE    = F    spline interpolate recip. space projectors
   LCOMPAT=      F    compatible to vasp.4.4
   GGA_COMPAT  = T    GGA compatible to vasp.4.4-vasp.4.6
   LMAXPAW     = -100 max onsite density
   LMAXMIX     =    2 max onsite mixed and CHGCAR
   VOSKOWN=      1    Vosko Wilk Nusair interpolation
   ROPT   =   -0.00025  -0.00025  -0.00025
 Ionic relaxation
[...]
   -.544E+01 0.207E+00 0.192E+00   0.534E+01 -.197E+00 -.158E+00   0.117E+00 -.843E-02 -.302E-01   -.157E-02 -.229E-02 -.500E-02
   -.121E+00 0.215E+00 0.229E+01   0.953E+00 -.479E+00 -.241E+01   -.826E+00 0.253E+00 0.120E+00   -.746E-02 -.200E-02 0.212E-02
   -.507E+01 0.274E+02 0.299E+02   0.534E+01 -.276E+02 -.296E+02   -.241E+00 0.185E+00 -.314E+00   -.281E-01 0.922E-03 -.474E-03
   0.147E+02 -.137E+01 -.106E+02   -.152E+02 0.129E+01 0.102E+02   0.534E+00 0.828E-01 0.441E+00   -.246E-01 -.136E-01 0.227E-01
   0.363E+02 0.108E+02 0.144E+02   -.371E+02 -.109E+02 -.143E+02   0.818E+00 0.121E+00 -.130E+00   0.364E-01 -.104E-01 0.317E-01
   0.188E+02 -.106E+02 -.554E+02   -.196E+02 0.107E+02 0.561E+02   0.716E+00 -.133E+00 -.741E+00   0.230E-01 0.756E-02 0.376E-01
   0.292E+02 0.140E+01 0.523E+02   -.297E+02 -.133E+01 -.533E+02   0.548E+00 -.824E-01 0.942E+00   -.143E-01 0.124E-01 0.187E-01
   -.253E+02 -.279E+02 -.139E+02   0.257E+02 0.281E+02 0.144E+02   -.329E+00 -.163E+00 -.558E+00   -.309E-01 -.503E-02 -.226E-02
   -.327E+02 0.283E+00 0.108E+03   0.338E+02 -.264E+00 -.110E+03   -.109E+01 0.158E-01 0.177E+01   0.158E-01 -.278E-01 0.479E-01
   -.367E+02 0.161E+00 0.112E+03   0.379E+02 -.183E+00 -.113E+03   -.114E+01 -.108E-01 0.167E+01   0.181E-01 0.237E-01 0.464E-01
   0.371E+02 -.867E-02 -.107E+03   -.382E+02 -.594E-01 0.108E+03   0.101E+01 0.572E-01 -.153E+01   0.154E-01 0.504E-02 -.270E-01
   -.250E+02 0.106E+02 0.257E+02   0.259E+02 -.108E+02 -.257E+02   -.877E+00 0.138E+00 -.517E-01   0.353E-02 0.104E-01 -.109E-01
   -.209E+02 -.208E+01 -.562E+02   0.211E+02 0.205E+01 0.571E+02   -.177E+00 0.210E-01 -.905E+00   -.784E-02 0.253E-02 -.440E-01
   -.386E+01 0.212E+01 0.568E+01   0.401E+01 -.210E+01 -.524E+01   -.127E+00 -.257E-01 -.416E+00   -.205E-01 0.315E-03 -.393E-01
   -.375E+02 -.112E+02 -.164E+02   0.383E+02 0.114E+02 0.165E+02   -.794E+00 -.188E+00 -.606E-01   0.148E-01 -.781E-02 -.170E-01
   0.609E+02 -.703E+00 -.460E+02   -.621E+02 0.756E+00 0.468E+02   0.118E+01 -.346E-01 -.771E+00   0.187E-01 -.443E-02 -.305E-01
   -.766E+01 0.270E+02 -.149E+02   0.766E+01 -.272E+02 0.146E+02   0.984E-02 0.214E+00 0.304E+00   -.917E-03 -.340E-01 -.227E-01
   -.279E+01 -.263E+02 -.296E+02   0.286E+01 0.264E+02 0.294E+02   -.668E-01 -.162E+00 0.218E+00   -.662E-02 0.360E-01 -.200E-01
   -.253E+02 0.416E+01 0.330E+03   0.257E+02 -.475E+01 -.348E+03   -.404E+00 0.595E+00 0.181E+02   0.216E-01 0.381E-02 -.213E-02
   0.801E+01 0.142E+01 -.402E+03   -.806E+01 -.210E+01 0.428E+03   0.805E-01 0.725E+00 -.261E+02   -.227E-01 -.366E-01 -.912E-02
   0.404E+02 0.367E+01 -.331E+03   -.422E+02 -.431E+01 0.350E+03   0.177E+01 0.650E+00 -.185E+02   -.161E-03 -.113E-01 0.957E-02
   0.530E+01 0.812E+00 0.396E+03   -.512E+01 -.156E+01 -.421E+03   -.211E+00 0.762E+00 0.255E+02   0.247E-01 -.214E-01 0.160E-01
   0.323E+02 -.714E+00 0.366E+03   -.365E+02 0.898E+00 -.387E+03   0.430E+01 -.183E+00 0.202E+02   -.209E-01 -.209E-02 -.136E-01
   -.559E+02 -.395E+01 -.382E+03   0.610E+02 0.411E+01 0.402E+03   -.508E+01 -.163E+00 -.202E+02   -.102E-01 -.263E-02 0.607E-02
   -.236E+02 0.787E+00 -.405E+03   0.247E+02 -.594E+00 0.431E+03   -.111E+01 -.190E+00 -.268E+02   0.250E-01 0.167E-02 -.116E-01
   0.644E+01 0.245E+01 0.383E+03   -.758E+01 -.273E+01 -.409E+03   0.114E+01 0.274E+00 0.256E+02   -.769E-02 0.133E-02 -.158E-01
   -.422E+02 0.166E+01 -.373E+03   0.468E+02 -.200E+01 0.394E+03   -.458E+01 0.371E+00 -.204E+02   -.164E-01 -.248E-01 0.301E-02
   0.322E+02 0.256E+02 0.369E+03   -.356E+02 -.272E+02 -.388E+03   0.338E+01 0.156E+01 0.191E+02   0.167E-02 -.215E-01 0.338E-02
   -.488E+00 -.263E+02 0.376E+03   0.809E+00 0.281E+02 -.398E+03   -.308E+00 -.178E+01 0.227E+02   -.144E-01 0.229E-01 0.149E-01
   -.189E+02 -.304E+01 -.387E+03   0.207E+02 0.350E+01 0.412E+03   -.184E+01 -.491E+00 -.254E+02   -.124E-01 0.252E-01 0.909E-03
   -.344E+02 -.284E+01 0.338E+03   0.361E+02 0.333E+01 -.355E+03   -.175E+01 -.486E+00 0.177E+02   0.140E-01 -.455E-02 0.414E-02
   0.171E+02 -.299E+01 -.398E+03   -.174E+02 0.373E+01 0.424E+03   0.320E+00 -.772E+00 -.260E+02   -.145E-01 0.355E-01 -.130E-01
   0.393E+02 -.435E+01 -.331E+03   -.409E+02 0.497E+01 0.350E+03   0.165E+01 -.635E+00 -.189E+02   -.577E-02 0.124E-01 0.164E-01
   0.385E+02 0.180E+01 0.366E+03   -.420E+02 -.142E+01 -.385E+03   0.352E+01 -.408E+00 0.199E+02   0.296E-01 0.223E-01 0.102E-01
   -.284E+02 0.274E+02 0.360E+03   0.302E+02 -.289E+02 -.382E+03   -.181E+01 0.157E+01 0.225E+02   0.878E-02 -.370E-01 -.704E-02
   0.728E+01 0.249E+02 -.372E+03   -.811E+01 -.260E+02 0.393E+03   0.841E+00 0.113E+01 -.214E+02   -.135E-01 0.237E-02 -.445E-02
   0.118E+02 0.263E+02 -.364E+03   -.121E+02 -.279E+02 0.387E+03   0.312E+00 0.155E+01 -.229E+02   0.767E-02 -.201E-01 -.103E-01
   -.118E+02 0.329E+02 0.369E+03   0.118E+02 -.347E+02 -.390E+03   -.427E-02 0.177E+01 0.207E+02   -.282E-01 -.980E-02 0.701E-02
   0.699E+02 0.425E+01 0.352E+03   -.753E+02 -.484E+01 -.373E+03   0.546E+01 0.577E+00 0.208E+02   0.169E-02 0.614E-02 -.213E-01
   0.946E+01 0.311E+02 -.393E+03   -.886E+01 -.333E+02 0.415E+03   -.626E+00 0.225E+01 -.224E+02   0.307E-01 0.754E-02 0.426E-02
   0.536E+01 -.340E+02 -.389E+03   -.471E+01 0.365E+02 0.410E+03   -.667E+00 -.253E+01 -.212E+02   0.185E-01 -.939E-02 0.718E-02
   0.661E+02 -.279E+01 0.355E+03   -.702E+02 0.336E+01 -.376E+03   0.421E+01 -.566E+00 0.208E+02   -.340E-01 -.817E-02 -.528E-02
   -.605E+02 -.258E+01 -.341E+03   0.657E+02 0.299E+01 0.361E+03   -.523E+01 -.397E+00 -.196E+02   0.121E-01 -.869E-02 0.211E-01
   0.162E+01 0.128E+01 0.425E+03   -.250E+01 -.152E+01 -.453E+03   0.891E+00 0.244E+00 0.272E+02   -.216E-02 -.885E-02 -.674E-02
   0.935E+01 0.694E+00 0.428E+03   -.105E+02 -.589E+00 -.455E+03   0.116E+01 -.118E+00 0.269E+02   -.584E-02 0.967E-02 -.401E-02
   -.534E+02 0.883E+00 -.346E+03   0.569E+02 -.121E+01 0.366E+03   -.352E+01 0.316E+00 -.198E+02   0.323E-01 0.871E-02 0.942E-02
   -.261E+02 -.261E+02 0.358E+03   0.275E+02 0.275E+02 -.380E+03   -.143E+01 -.149E+01 0.224E+02   0.116E-01 0.362E-01 -.594E-02
   -.233E+02 -.241E+02 -.361E+03   0.255E+02 0.249E+02 0.381E+03   -.219E+01 -.836E+00 -.197E+02   -.174E-01 -.389E-02 -.554E-02
   0.188E+02 -.281E+02 -.371E+03   -.201E+02 0.298E+02 0.393E+03   0.133E+01 -.172E+01 -.224E+02   -.135E-01 0.196E-01 0.298E-02
   -.169E+02 -.296E+02 0.372E+03   0.169E+02 0.312E+02 -.394E+03   0.190E-01 -.154E+01 0.216E+02   -.841E-02 0.978E-02 -.729E-02
   0.716E+00 -.363E-01 0.343E+00   0.121E-12 0.604E-13 0.114E-12   -.718E+00 0.499E-01 -.332E+00   0.504E-02 -.138E-01 -.134E-01

 POSITION                                       TOTAL-FORCE (eV/Angst)
      4.04305      1.38047      2.46135         0.002216     -0.000226      0.004413
      4.02829      4.16717      2.45368         0.001101      0.000463      0.003452
      4.48696      2.84731      7.32772        -0.043604      0.009539      0.001198
     -0.86844      1.38433      2.41470         0.006122     -0.001098     -0.001203
     -2.44019      1.28060      7.22430        -0.001071     -0.012545      0.003726
      6.25470      5.52844      9.72020         0.002560     -0.009160     -0.000255
      2.46199      1.38879      0.06079        -0.000399     -0.001785      0.006484
      7.32771      1.38177      0.11209        -0.003784     -0.003510      0.007573
      7.33830      4.17081      0.15612         0.000437     -0.000745      0.009391
     -1.05504      4.14652      9.62915        -0.004292     -0.002359      0.008928
      9.76413      2.78182      0.13199         0.003416      0.006813     -0.001428
      1.37156      5.53324      9.63032        -0.004724      0.007105      0.016435
      1.36550      2.75777      9.62936        -0.004502     -0.009118      0.015494
      3.14560     -0.00600      4.93341         0.003746     -0.005854     -0.014771
      5.56860      1.37944      4.85008         0.005419      0.000963     -0.005098
      0.69813      1.37964      4.86602        -0.000494      0.001365     -0.010596
      0.68495      4.16068      4.81115         0.006346      0.001656     -0.012436
      5.58884      4.16130      4.87400        -0.000920      0.003226     -0.003933
      3.13819      2.77212      4.88312         0.004774      0.013619     -0.015293
     -1.73629      5.54137      4.78810         0.000907      0.017992     -0.000879
     -1.73695      2.77978      4.80680         0.000988     -0.013671     -0.000289
      4.78575      5.53305      3.90500         0.010194      0.001612     -0.005810
      1.45095      5.53414      5.77026         0.001032      0.002164     -0.020959
      3.24582      5.53981      0.99108        -0.011818      0.000195      0.011076
      3.06964      5.51579      8.80410        -0.001079     -0.005132      0.020566
      7.32989      1.38429      3.94829         0.005116     -0.000834      0.001727
     -1.05024      1.38165      5.79628        -0.004410      0.003143     -0.005700
     -0.98652      4.16424      5.74967         0.002923      0.004630     -0.003516
      7.30634      4.15337      3.96545        -0.002540      0.000451     -0.004445
      0.70414      1.37745      0.96903        -0.003994     -0.000168     -0.002765
      5.57153      1.39064      8.73475         0.000259     -0.006393     -0.002751
      5.48538      4.11888      8.78472        -0.001439     -0.003443      0.002193
      0.72933      4.18109      0.93322        -0.002329     -0.000113     -0.006640
      4.77085      2.78311      3.89475         0.012913     -0.000143     -0.006658
      1.47191      2.78910      5.76467         0.002046      0.004707     -0.022027
      3.23768      2.80109      0.99824        -0.007406     -0.000436      0.012703
      3.10148      2.77062      8.79193        -0.004543     -0.002136      0.017571
     -0.09176      0.02100      3.89518        -0.000797     -0.001397     -0.006908
      6.36225      0.01969      5.82026        -0.004119      0.003612     -0.006364
      8.11532      0.03365      1.07627         0.005404     -0.000763      0.003175
     -1.81455      0.00476      8.71747         0.003910     -0.003198      0.003117
      2.45841      1.36246      3.91561         0.009367      0.000497     -0.017285
      3.89822      1.41483      5.86769         0.000128      0.003788     -0.010443
      3.89616      4.13709      5.85481         0.002368      0.003275     -0.014440
      2.42695      4.17569      3.91672         0.009498     -0.001324     -0.011534
      5.53916      1.39360      1.01786        -0.003432      0.000085      0.015614
      0.62005      1.36359      8.68796         0.004618     -0.004756      0.019347
      0.63144      4.14543      8.68067        -0.002090     -0.003586      0.018895
      5.58117      4.16669      1.00298        -0.003282      0.000370      0.018010
     -0.08468      2.73612      3.89050        -0.000291      0.001404     -0.007421
      6.31426      2.74731      5.83619        -0.002076      0.003476     -0.006135
      8.12674      2.74284      1.07283         0.003091      0.000283      0.002794
     -1.83118      2.72441      8.71860         0.008533     -0.002540      0.004100
    total drift:                                0.003205     -0.000264     -0.003172

  FREE ENERGIE OF THE ION-ELECTRON SYSTEM (eV)
  free  energy   TOTEN  =      -329.7764790085 eV

  energy  without entropy=     -329.7710343871  energy(sigma->0) =     -329.77375670

 d Force = 0.2500942E-03[ 0.196E-03, 0.304E-03]  d Energy = 0.2480360E-03 0.206E-05
 d Force =-0.1895429E+01[-0.190E+01,-0.189E+01]  d Ewald  =-0.2215047E+01 0.320E+00

 Quasi-Newton relaxation of ions (Broydens 2nd method)
  g(Force)  = 0.514E-03   g(Stress)= 0.645E-04

 retain information from N=  2 steps
 eigenvalues of (default step * inverse Hessian matrix)
  average eigenvalue of G=   0.4640
 eigenvalue spectrum of G is  0.5829  0.3451

volume of typ            1:     7.4 %

[...]

volume of typ            3:     9.9 %

total charge

# of ion       s       p       d       tot
    1        2.068   0.214   0.078   2.361
    2        2.069   0.212   0.078   2.359
    3        2.066   0.204   0.077   2.347
    4        2.065   0.204   0.077   2.345
    5        2.065   0.207   0.076   2.348
    6        0.294   0.414   7.840   8.548
    7        0.286   0.394   7.850   8.530
    8        0.285   0.392   7.852   8.529
    9        0.286   0.397   7.838   8.521
   10        0.283   0.388   7.838   8.509
   11        0.302   0.432   7.842   8.576
   12        0.302   0.431   7.836   8.569
   13        0.296   0.421   7.840   8.558
   14        0.294   0.413   7.838   8.545
   15        0.283   0.388   7.852   8.523
   16        0.285   0.393   7.845   8.524
   17        0.287   0.396   7.832   8.515
   18        0.281   0.384   7.846   8.511
   19        0.303   0.433   7.844   8.580
   20        0.304   0.435   7.838   8.577
   21        0.298   0.424   7.841   8.563
   22        1.261   2.786   0.007   4.055
   23        1.284   2.727   0.008   4.019
   24        1.262   2.785   0.007   4.054
   25        1.282   2.732   0.008   4.023
   26        1.275   2.754   0.007   4.037
   27        1.272   2.762   0.007   4.042
   28        1.283   2.728   0.008   4.019
   29        1.283   2.731   0.008   4.022
   30        1.276   2.751   0.007   4.034
   31        1.269   2.764   0.007   4.040
   32        1.272   2.756   0.008   4.036
   33        1.283   2.729   0.008   4.020
   34        1.261   2.785   0.007   4.054
   35        1.284   2.729   0.008   4.021
   36        1.263   2.781   0.007   4.051
   37        1.271   2.767   0.007   4.045
   38        1.272   2.762   0.008   4.042
   39        1.274   2.755   0.008   4.036
   40        1.271   2.762   0.008   4.041
   41        1.272   2.760   0.008   4.040
   42        1.274   2.753   0.007   4.035
   43        1.272   2.756   0.007   4.035
   44        1.271   2.764   0.007   4.042
   45        1.275   2.752   0.007   4.035
   46        1.273   2.761   0.007   4.041
   47        1.284   2.722   0.008   4.015
   48        1.285   2.724   0.008   4.017
   49        1.274   2.757   0.007   4.038
   50        1.272   2.760   0.008   4.040
   51        1.270   2.762   0.007   4.039
   52        1.271   2.760   0.008   4.039
   53        1.274   2.755   0.008   4.036
tot          55.77   95.71  126.10  277.58

magnetization (x)

# of ion       s       p       d       tot
    1        0.004   0.006   0.000   0.011
    2       -0.004  -0.002  -0.000  -0.006
    3        0.001  -0.000  -0.000   0.001
    4       -0.004  -0.003  -0.000  -0.007
    5        0.004   0.007   0.000   0.011
    6       -0.000  -0.000   0.008   0.008
    7       -0.000   0.000  -0.231  -0.231
    8        0.003   0.000   0.442   0.445
    9       -0.000  -0.000  -0.156  -0.156
   10        0.000   0.000   0.194   0.194
   11       -0.000  -0.000  -0.001  -0.001
   12       -0.000   0.000   0.020   0.020
   13       -0.000  -0.000   0.043   0.043
   14       -0.000   0.000   0.066   0.066
   15       -0.000   0.000  -0.311  -0.311
   16        0.003   0.000   0.395   0.398
   17       -0.000  -0.000  -0.148  -0.149
   18        0.000   0.000   0.256   0.256
   19       -0.000   0.000   0.036   0.036
   20       -0.000  -0.000   0.010   0.010
   21       -0.000  -0.000   0.034   0.034
   22        0.001   0.005   0.000   0.006
   23        0.001   0.012   0.000   0.013
   24        0.001   0.002   0.000   0.003
   25        0.000   0.008   0.000   0.009
   26       -0.004  -0.033  -0.000  -0.037
   27        0.005   0.034   0.000   0.039
   28       -0.001  -0.014  -0.000  -0.015
   29        0.002   0.032   0.000   0.034
   30       -0.003  -0.024  -0.000  -0.028
   31        0.005   0.040   0.000   0.045
   32       -0.001  -0.016  -0.000  -0.017
   33        0.002   0.020   0.000   0.022
   34        0.001   0.002   0.000   0.003
   35        0.000   0.009   0.000   0.010
   36        0.001   0.003   0.000   0.004
   37        0.001   0.011   0.000   0.011
   38        0.001   0.009  -0.000   0.010
   39       -0.000  -0.003   0.000  -0.003
   40        0.001   0.010  -0.000   0.011
   41       -0.000  -0.004   0.000  -0.005
   42        0.005   0.036   0.000   0.041
   43       -0.001  -0.039  -0.000  -0.041
   44        0.003   0.026   0.000   0.029
   45       -0.002  -0.009  -0.000  -0.010
   46        0.005   0.045   0.000   0.050
   47       -0.001  -0.031  -0.000  -0.032
   48        0.002   0.020   0.000   0.022
   49       -0.002  -0.012  -0.000  -0.014
   50        0.001   0.012   0.000   0.013
   51       -0.000  -0.001   0.000  -0.001
   52        0.001   0.009  -0.000   0.009
   53       -0.000  -0.003   0.000  -0.004
tot           0.03    0.16    0.66    0.85