 vasp.5.4.4.18Apr17-6-g9f103f2a35 (build May 12 2020 05:39:39) gamma-only

 MD_VERSION_INFO: Compiled 2020-05-12T12:39:39-UTC in devlin.sd.materialsdesign.
 com:/home/medea2/data/build/wwolf/vasp-gpu5.4.4/13047/x86_64/src/src/build/gam
 from svn 13047

 executed on                        Lin64 date 2023.03.07  03:03:24

 INCAR:
 POTCAR:    PAW_PBE Li_sv 10Sep2004
 POTCAR:    PAW_PBE Ni 02Aug2007
 POTCAR:    PAW_PBE O 08Apr2002

 POTCAR:    PAW_PBE Li_sv 10Sep2004

 POTCAR:    PAW_PBE Ni 02Aug2007

 POTCAR:    PAW_PBE O 08Apr2002

 Optimization of the real space projectors (new method)

 maximal supplied QI-value         = 22.11
 optimisation between [QCUT,QGAM] = [ 11.28, 22.77] = [ 35.61,145.23] Ry
 Optimized for a Real-space Cutoff    1.10 Angstroem

   l    n(q)    QCUT    max X(q) W(low)/X(q) W(high)/X(q)  e(spline)
   0      7    11.276    10.506    0.54E-04    0.58E-04    0.16E-07
   0      7    11.276     8.367    0.11E-03    0.14E-03    0.35E-07
   1      7    11.276     8.983    0.23E-03    0.43E-03    0.86E-07
 Optimization of the real space projectors (new method)

[...]

   l    n(q)    QCUT    max X(q) W(low)/X(q) W(high)/X(q)  e(spline)
   2      9    11.376    60.317    0.17E-03    0.16E-04    0.16E-06
   2      9    11.376    55.921    0.17E-03    0.16E-04    0.17E-06
   0     10    11.376    51.690    0.45E-04    0.60E-04    0.21E-06
   0     10    11.376    30.015    0.37E-04    0.55E-04    0.19E-06
   1     10    11.376    18.849    0.83E-04    0.11E-03    0.92E-07
   1     10    11.376    14.624    0.69E-04    0.92E-04    0.82E-07
 Optimization of the real space projectors (new method)

 maximal supplied QI-value         = 24.76
 optimisation between [QCUT,QGAM] = [ 11.39, 22.77] = [ 36.31,145.25] Ry
 Optimized for a Real-space Cutoff    1.10 Angstroem

   l    n(q)    QCUT    max X(q) W(low)/X(q) W(high)/X(q)  e(spline)
   0      7    11.387    20.381    0.22E-03    0.48E-03    0.18E-06
   0      7    11.387    15.268    0.22E-03    0.52E-03    0.19E-06
   1      7    11.387     5.964    0.22E-03    0.73E-03    0.24E-06
   1      7    11.387     5.382    0.19E-03    0.60E-03    0.21E-06

  PAW_PBE Li_sv 10Sep2004               :
  PAW_PBE Ni 02Aug2007                  :
  PAW_PBE O 08Apr2002                   :

 POSCAR: ce13439_1
  positions in direct lattice
 exchange correlation table for  LEXCH =       14
   RHO(1)=    0.500       N(1)  =     2000
   RHO(2)=  100.500       N(2)  =     4000

 ion  position               nearest neighbor table
   1  0.250  0.250  0.502-  48 2.09  44 2.11  36 2.14  24 2.14  38 2.16  26 2.16
   2  0.250  0.751  0.501-  49 2.12  45 2.13  27 2.14  39 2.14  25 2.15  37 2.16  10 2.83
   3  0.750  0.751  0.501-  39 2.12  27 2.13  37 2.14  25 2.14  50 2.14  46 2.14
   4  0.750  0.250  0.503-  51 2.04  47 2.13  36 2.13  24 2.13  38 2.16  26 2.17
   5  0.252  0.249  0.998-  32 2.13  28 2.13  54 2.14  42 2.16  52 2.16  40 2.18
   6  0.250  0.749  0.998-  33 2.09  29 2.11  41 2.12  53 2.13  43 2.15  55 2.15
   7  0.750  0.749  0.997-  34 2.05  41 2.12  53 2.12  30 2.14  43 2.15  55 2.16  20 2.84
   8  0.999  1.000  0.001-  34 1.84  35 1.84  32 1.85  33 1.85  42 1.89  43 1.90  13 2.78  13 2.79
                            12 2.80   9 2.80  11 2.83  10 2.83
   9  0.250  1.000  0.249-  26 1.86  43 1.87  55 1.87  38 1.87  32 1.99  49 2.01  12 2.78  12 2.79
                            13 2.80   8 2.80  14 2.82  15 2.82
  10  0.250  0.997  0.749-  42 1.85  54 1.85  27 1.87  39 1.88  33 2.02  48 2.03  11 2.78  11 2.79
                            14 2.82  15 2.82   2 2.83   8 2.83  13 2.84
  11  0.750  0.000  0.750-  54 1.86  42 1.86  27 1.87  39 1.87  34 2.07  51 2.07  10 2.78  10 2.79
                            14 2.83  15 2.83   8 2.83  13 2.83
  12  0.750  0.999  0.249-  43 1.87  55 1.87  26 1.87  38 1.87  35 1.93  50 1.98   9 2.78   9 2.79
                             8 2.80  13 2.80  14 2.82  15 2.82
  13  0.501  0.999  0.001-  34 1.84  35 1.84  32 1.85  33 1.85  54 1.89  55 1.90   8 2.78   8 2.79
                            12 2.80   9 2.80  11 2.83  10 2.84
  14  0.000  0.001  0.500-  51 1.84  48 1.84  49 1.84  50 1.85  27 1.89  26 1.91  15 2.78  15 2.79
                            12 2.82   9 2.82  10 2.82  11 2.83
  15  0.500  0.001  0.500-  51 1.84  48 1.84  49 1.84  50 1.85  39 1.89  38 1.90  14 2.78  14 2.79
                            12 2.82   9 2.82  10 2.82  11 2.83
  16  1.000  0.499  0.500-  47 1.84  44 1.84  46 1.84  45 1.84  25 1.91  24 1.92  21 2.78  21 2.79
                            18 2.82  20 2.82  17 2.82  19 2.82
  17  0.250  0.500  0.750-  24 1.87  36 1.87  53 1.87  41 1.88  28 1.98  45 1.99  20 2.79  20 2.79
                            23 2.81  22 2.81  21 2.82  16 2.82
  18  0.250  0.503  0.251-  52 1.84  40 1.84  37 1.87  25 1.87  29 2.01  44 2.02  19 2.79  19 2.79
                            21 2.82  16 2.82  22 2.83  23 2.83
  19  0.750  0.499  0.250-  52 1.86  40 1.86  25 1.87  37 1.87  30 2.00  47 2.00  18 2.79  18 2.79
                            21 2.82  16 2.82  22 2.83  23 2.83
  20  0.750  0.501  0.751-  53 1.87  24 1.87  41 1.87  36 1.87  31 1.93  46 1.98  17 2.79  17 2.79
                            23 2.80  22 2.80  16 2.82  21 2.82   7 2.84
  21  0.500  0.499  0.500-  47 1.84  44 1.84  46 1.84  45 1.84  37 1.91  36 1.91  16 2.78  16 2.79
                            18 2.82  20 2.82  17 2.82  19 2.82
  22  1.000  0.500  0.999-  31 1.84  30 1.84  28 1.84  29 1.85  40 1.91  41 1.91  23 2.78  23 2.79
                            20 2.80  17 2.81  19 2.83  18 2.83
  23  0.501  0.500  0.999-  31 1.84  30 1.84  28 1.84  29 1.84  53 1.91  52 1.91  22 2.78  22 2.79
                            20 2.80  17 2.81  19 2.83  18 2.83
  24  1.000  0.399  0.634-  17 1.87  20 1.87  16 1.92   4 2.13   1 2.14
  25  0.998  0.600  0.368-  18 1.87  19 1.87  16 1.91   3 2.14   2 2.15
  26  0.000  0.099  0.366-   9 1.86  12 1.87  14 1.91   1 2.16   4 2.17
  27  0.998  0.900  0.630-  10 1.87  11 1.87  14 1.89   3 2.13   2 2.14
  28  0.250  0.398  0.890-  23 1.84  22 1.84  17 1.98   5 2.13
  29  0.250  0.603  0.106-  23 1.84  22 1.85  18 2.01   6 2.11
  30  0.750  0.601  0.108-  23 1.84  22 1.84  19 2.00   7 2.14
  31  0.750  0.402  0.887-  23 1.84  22 1.84  20 1.93
  32  0.250  0.102  0.109-  13 1.85   8 1.85   9 1.99   5 2.13
  33  0.250  0.896  0.894-   8 1.85  13 1.85  10 2.02   6 2.09
  34  0.750  0.895  0.896-   8 1.84  13 1.84   7 2.05  11 2.07
  35  0.750  0.099  0.113-   8 1.84  13 1.84  12 1.93
  36  0.500  0.399  0.633-  17 1.87  20 1.87  21 1.91   4 2.13   1 2.14
  37  0.502  0.600  0.368-  18 1.87  19 1.87  21 1.91   3 2.14   2 2.16
  38  0.500  0.100  0.366-   9 1.87  12 1.87  15 1.90   1 2.16   4 2.16
  39  0.503  0.900  0.630-  11 1.87  10 1.88  15 1.89   3 2.12   2 2.14
  40  0.004  0.404  0.135-  18 1.84  19 1.86  22 1.91   5 2.18
  41  0.000  0.602  0.868-  20 1.87  17 1.88  22 1.91   6 2.12   7 2.12
  42  0.004  0.095  0.866-  10 1.85  11 1.86   8 1.89   5 2.16
  43  0.001  0.899  0.133-   9 1.87  12 1.87   8 1.90   6 2.15   7 2.15
  44  0.250  0.397  0.392-  16 1.84  21 1.84  18 2.02   1 2.11
  45  0.250  0.601  0.609-  16 1.84  21 1.84  17 1.99   2 2.13
  46  0.750  0.600  0.610-  16 1.84  21 1.84  20 1.98   3 2.14
  47  0.750  0.397  0.391-  16 1.84  21 1.84  19 2.00   4 2.13
  48  0.250  0.103  0.607-  14 1.84  15 1.84  10 2.03   1 2.09
  49  0.250  0.898  0.392-  14 1.84  15 1.84   9 2.01   2 2.12
  50  0.750  0.899  0.390-  15 1.85  14 1.85  12 1.98   3 2.14
  51  0.750  0.106  0.604-  14 1.84  15 1.84   4 2.04  11 2.07
  52  0.496  0.404  0.135-  18 1.84  19 1.86  23 1.91   5 2.16
  53  0.500  0.602  0.867-  20 1.87  17 1.87  23 1.91   7 2.12   6 2.13
  54  0.496  0.095  0.866-  10 1.85  11 1.86  13 1.89   5 2.14
  55  0.500  0.899  0.133-   9 1.87  12 1.87  13 1.90   6 2.15   7 2.16

  LATTYP: Found a simple monoclinic cell.
 ALAT       =    10.1872067101
 B/A-ratio  =     0.5468437343
 C/A-ratio  =     1.6078830052
 COS(beta)  =    -0.8269530237

  Lattice vectors:

 A1 = (   3.5604657656,   0.0000184903,  -9.5447506037)
 A2 = (  -0.0000161589,  -5.5708101589,  -0.0000376236)
 A3 = ( -13.3632355391,  -0.0001208298,   9.4722215442)

Analysis of symmetry for initial positions (statically):
 Subroutine PRICEL returns:
 Original cell was already a primitive cell.

 Routine SETGRP: Setting up the symmetry group for a
 simple monoclinic supercell.

 Subroutine GETGRP returns: Found  1 space group operations
 (whereof  1 operations were pure point group operations)
 out of a pool of  4 trial point group operations.

The static configuration has the point symmetry C_1 .

Analysis of symmetry for dynamics (positions and initial velocities):
 Subroutine PRICEL returns:
 Original cell was already a primitive cell.

[...]

The dynamic configuration has the point symmetry C_1 .

Analysis of structural, dynamic, and magnetic symmetry:
 Subroutine PRICEL returns:
 Original cell was already a primitive cell.

 Routine SETGRP: Setting up the symmetry group for a
 simple monoclinic supercell.

 Subroutine GETGRP returns: Found  1 space group operations
 (whereof  1 operations were pure point group operations)
 out of a pool of  4 trial point group operations.

The magnetic configuration has the point symmetry C_1 .

 Subroutine INISYM returns: Found  1 space group operations
 (whereof  1 operations are pure point group operations),
 and found     1 'primitive' translations

 KPOINTS: Automatic mesh

Automatic generation of k-mesh.
Space group operators:
 irot       det(A)        alpha          n_x          n_y          n_z        tau_x        tau_y        tau_z
    1     1.000000     0.000000     1.000000     0.000000     0.000000     0.000000     0.000000     0.000000

 Subroutine IBZKPT returns following result:

 Found      1 irreducible k-points:

 Following reciprocal coordinates:
            Coordinates               Weight
  0.000000  0.000000  0.000000      1.000000

 Following cartesian coordinates:
            Coordinates               Weight
  0.000000  0.000000  0.000000      1.000000

 SYSTEM =  unknown system
 POSCAR =  ce13439_1

 Startparameter for this run:
   NWRITE =      1    write-flag & timer
   PREC   = accura    normal or accurate (medium, high low for compatibility)
   ISTART =      0    job   : 0-new  1-cont  2-samecut
   ICHARG =      2    charge: 1-file 2-atom 10-const
   ISPIN  =      2    spin polarized calculation?
   LNONCOLLINEAR =      F non collinear calculations
   LSORBIT =      F    spin-orbit coupling
   INIWAV =      1    electr: 0-lowe 1-rand  2-diag
   LASPH  =      F    aspherical Exc in radial PAW
   METAGGA=      F    non-selfconsistent MetaGGA calc.

 Electronic Relaxation 1
   ENCUT  =  500.0 eV  36.75 Ry    6.06 a.u.  10.16 18.57 17.87*2*pi/ulx,y,z
   ENINI  =  500.0     initial cutoff
   ENAUG  =  628.9 eV  augmentation charge cutoff
   NELM   =     80;   NELMIN=  2; NELMDL= -5     # of ELM steps
   EDIFF  = 0.1E-04   stopping-criterion for ELM
   LREAL  =      T    real-space projection
   NLSPLINE    = F    spline interpolate recip. space projectors
   LCOMPAT=      F    compatible to vasp.4.4
   GGA_COMPAT  = T    GGA compatible to vasp.4.4-vasp.4.6
[...]
   0.907E+01 0.337E-01 -.165E+02   -.909E+01 -.328E-01 0.165E+02   0.185E-01 0.327E-03 -.763E-01   0.144E-01 0.747E-04 0.540E-02
   -.818E+01 -.333E-01 -.123E+02   0.860E+01 0.354E-01 0.126E+02   -.410E+00 -.136E-02 -.377E+00   -.131E-01 0.116E-04 -.180E-02
   -.287E+02 0.553E-01 -.654E+02   0.291E+02 -.585E-01 0.662E+02   -.381E+00 0.230E-02 -.866E+00   -.128E-01 0.646E-04 -.171E-02
   0.421E+01 -.205E-01 -.119E+02   -.436E+01 0.201E-01 0.121E+02   0.130E+00 -.370E-03 -.201E+00   0.142E-01 -.782E-04 0.571E-02
   0.313E+02 -.153E+02 -.682E+02   -.317E+02 0.154E+02 0.688E+02   0.414E+00 -.109E+00 -.636E+00   0.221E-01 0.316E-02 0.248E-02
   -.199E+02 -.322E-01 -.110E+02   0.200E+02 0.138E+00 0.112E+02   -.880E-01 -.709E-01 -.164E+00   -.234E-01 -.264E-02 0.134E-02
   -.199E+02 0.454E-01 -.109E+02   0.200E+02 -.151E+00 0.111E+02   -.887E-01 0.714E-01 -.164E+00   -.233E-01 0.254E-02 0.133E-02
   0.161E+02 0.114E+01 0.107E+02   -.161E+02 -.109E+01 -.108E+02   0.195E-01 -.735E-01 0.147E+00   0.166E-01 0.628E-02 -.366E-02
   -.921E+01 0.386E-01 0.161E+02   0.926E+01 -.392E-01 -.162E+02   -.295E-01 0.425E-03 0.712E-01   -.187E-01 0.661E-05 -.514E-02
   0.852E+01 -.153E-01 0.129E+02   -.894E+01 0.177E-01 -.132E+02   0.403E+00 -.186E-02 0.380E+00   0.186E-01 -.714E-04 0.943E-03
   0.285E+02 0.345E-01 0.650E+02   -.289E+02 -.365E-01 -.658E+02   0.361E+00 0.220E-02 0.854E+00   0.196E-01 -.155E-05 0.163E-02
   -.384E+01 -.433E-01 0.115E+02   0.400E+01 0.436E-01 -.117E+02   -.145E+00 -.415E-03 0.209E+00   -.178E-01 0.220E-04 -.545E-02
   0.161E+02 -.110E+01 0.106E+02   -.162E+02 0.105E+01 -.108E+02   0.198E-01 0.736E-01 0.147E+00   0.165E-01 -.630E-02 -.367E-02
   -.276E+02 0.155E+02 0.695E+02   0.280E+02 -.156E+02 -.702E+02   -.347E+00 0.943E-01 0.667E+00   -.173E-01 0.646E-02 -.252E-02
   -.276E+02 -.155E+02 0.687E+02   0.280E+02 0.156E+02 -.694E+02   -.345E+00 -.965E-01 0.651E+00   -.174E-01 -.637E-02 -.240E-02
   -.463E+02 0.656E-01 0.332E+03   0.492E+02 -.477E-01 -.349E+03   -.297E+01 -.214E-01 0.169E+02   -.508E-02 0.242E-02 0.685E-02
   0.427E+02 0.249E+01 -.314E+03   -.446E+02 -.286E+01 0.331E+03   0.193E+01 0.360E+00 -.178E+02   0.162E-01 0.107E-01 0.499E-02
   0.465E+02 0.453E+00 -.335E+03   -.495E+02 -.469E+00 0.352E+03   0.307E+01 0.228E-01 -.172E+02   0.156E-04 -.200E-01 -.235E-02
   -.427E+02 0.257E+01 0.311E+03   0.445E+02 -.295E+01 -.329E+03   -.182E+01 0.379E+00 0.176E+02   -.125E-01 0.806E-02 -.141E-01
   0.316E+02 0.188E+00 0.388E+03   -.359E+02 -.204E+00 -.409E+03   0.428E+01 0.158E-01 0.211E+02   -.195E-01 0.469E-05 -.316E-02
   -.623E+02 -.115E-01 -.341E+03   0.673E+02 0.126E-01 0.361E+03   -.500E+01 -.127E-02 -.199E+02   0.420E-02 0.142E-04 0.947E-02
   -.636E+02 -.227E-01 -.334E+03   0.685E+02 0.290E-01 0.355E+03   -.487E+01 -.635E-02 -.207E+02   -.534E-02 -.123E-03 0.176E-01
   -.217E+01 -.105E+00 0.411E+03   0.144E+01 0.106E+00 -.436E+03   0.748E+00 -.153E-02 0.256E+02   -.187E-01 -.201E-03 -.446E-02
   -.280E+02 0.189E+00 -.389E+03   0.319E+02 -.202E+00 0.410E+03   -.393E+01 0.126E-01 -.215E+02   0.138E-01 0.158E-03 0.880E-02
   0.655E+02 0.143E-01 0.340E+03   -.707E+02 -.176E-01 -.359E+03   0.523E+01 0.332E-02 0.197E+02   -.199E-03 0.105E-03 -.143E-01
   0.683E+02 -.359E-02 0.332E+03   -.736E+02 0.714E-02 -.352E+03   0.527E+01 -.439E-02 0.204E+02   0.844E-03 -.466E-04 -.154E-01
   0.503E+01 -.124E+00 -.411E+03   -.453E+01 0.125E+00 0.437E+03   -.538E+00 -.104E-03 -.258E+02   0.309E-01 -.285E-04 -.584E-03
   -.463E+02 -.949E-01 0.332E+03   0.493E+02 0.835E-01 -.349E+03   -.298E+01 0.153E-01 0.169E+02   -.459E-02 -.247E-02 0.677E-02
   0.427E+02 -.252E+01 -.314E+03   -.447E+02 0.289E+01 0.331E+03   0.194E+01 -.366E+00 -.178E+02   0.158E-01 -.106E-01 0.500E-02
   0.465E+02 -.481E+00 -.335E+03   -.495E+02 0.501E+00 0.352E+03   0.306E+01 -.260E-01 -.172E+02   -.211E-03 0.200E-01 -.237E-02
   -.427E+02 -.258E+01 0.311E+03   0.445E+02 0.297E+01 -.329E+03   -.183E+01 -.384E+00 0.176E+02   -.125E-01 -.811E-02 -.141E-01
   -.151E+02 0.285E+02 0.372E+03   0.160E+02 -.304E+02 -.395E+03   -.835E+00 0.184E+01 0.224E+02   0.408E-02 0.126E-01 -.973E-02
   0.350E+02 -.150E+01 -.316E+03   -.377E+02 0.184E+01 0.333E+03   0.275E+01 -.353E+00 -.171E+02   -.174E-01 0.227E-02 -.470E-02
   0.157E+02 0.290E+02 -.370E+03   -.164E+02 -.309E+02 0.393E+03   0.745E+00 0.189E+01 -.222E+02   -.167E-02 0.877E-02 0.153E-01
   -.354E+02 -.987E+00 0.318E+03   0.382E+02 0.129E+01 -.336E+03   -.286E+01 -.296E+00 0.174E+02   0.161E-01 -.199E-01 0.334E-02
   0.786E+02 0.199E-03 0.368E+03   -.846E+02 -.319E-03 -.389E+03   0.601E+01 0.104E-02 0.203E+02   0.105E-01 0.112E-03 0.525E-02
   -.517E+02 -.829E-02 -.360E+03   0.566E+02 0.971E-02 0.380E+03   -.484E+01 -.977E-03 -.203E+02   0.537E-02 0.793E-04 -.130E-01
   -.479E+02 -.988E-02 -.361E+03   0.520E+02 0.964E-02 0.381E+03   -.415E+01 0.961E-03 -.207E+02   0.298E-02 -.917E-06 -.121E-01
   0.791E+02 -.870E-02 0.371E+03   -.843E+02 0.867E-02 -.392E+03   0.514E+01 0.765E-03 0.206E+02   0.205E-01 -.686E-04 -.191E-02
   -.821E+02 0.609E-02 -.366E+03   0.884E+02 -.723E-02 0.386E+03   -.628E+01 0.161E-02 -.200E+02   -.121E-01 -.486E-04 0.299E-02
   0.483E+02 -.723E-02 0.361E+03   -.528E+02 0.806E-02 -.381E+03   0.454E+01 -.718E-03 0.205E+02   -.167E-02 -.124E-03 0.327E-02
   0.451E+02 -.350E-02 0.362E+03   -.490E+02 0.410E-02 -.383E+03   0.394E+01 -.184E-03 0.209E+02   -.180E-01 0.197E-03 0.112E-01
   -.841E+02 0.711E-03 -.369E+03   0.897E+02 -.247E-02 0.390E+03   -.555E+01 0.150E-02 -.203E+02   -.131E-01 0.150E-03 0.583E-02
   -.154E+02 -.287E+02 0.372E+03   0.163E+02 0.306E+02 -.394E+03   -.868E+00 -.186E+01 0.223E+02   0.380E-02 -.125E-01 -.958E-02
   0.349E+02 0.157E+01 -.316E+03   -.377E+02 -.193E+01 0.333E+03   0.275E+01 0.364E+00 -.171E+02   -.169E-01 -.229E-02 -.486E-02
   0.160E+02 -.292E+02 -.370E+03   -.168E+02 0.312E+02 0.392E+03   0.781E+00 -.192E+01 -.221E+02   -.180E-02 -.892E-02 0.154E-01
   -.354E+02 0.102E+01 0.319E+03   0.383E+02 -.133E+01 -.336E+03   -.287E+01 0.303E+00 0.174E+02   0.162E-01 0.200E-01 0.335E-02
   0.883E-01 0.521E-01 0.414E-01   -.142E-12 -.404E-13 -.114E-12   -.857E-01 -.477E-01 -.457E-01   -.153E-02 0.120E-03 -.679E-02

 POSITION                                       TOTAL-FORCE (eV/Angst)
      4.01457      1.39818      2.43598        -0.017669      0.000119     -0.005938
      2.24270      1.39761      7.21185        -0.006930      0.000384     -0.005771
      2.23934      4.19291      7.21143        -0.004431      0.000224     -0.007045
      4.01744      4.19351      2.43756        -0.020069      0.000225     -0.007514
      8.87539      1.40890      2.47076         0.008967     -0.004784      0.008546
      7.11269      1.39708      7.24755         0.016828      0.002872      0.006785
      7.10672      4.19382      7.24764         0.019774     -0.000691      0.006694
     -3.52247      5.58802      9.54530         0.011831      0.008580      0.015715
     -1.09358      1.39804      9.57170         0.005788      0.001198     -0.005118
      3.79538      1.39810      9.58306        -0.002690      0.000664     -0.003364
      7.33390      4.19382      0.07155        -0.000107     -0.000919     -0.004355
     -1.09341      4.19341      9.56366        -0.000378     -0.000938     -0.002881
     -3.52227      2.79908      9.54467         0.012296     -0.007472      0.016298
      4.87693     -0.00078      0.05330        -0.004246      0.032102     -0.022379
      4.87701      2.79703      0.05321        -0.004600     -0.031771     -0.022139
      3.12289      5.59091      4.81496         0.000687     -0.015150     -0.003620
      5.56505      1.39844      4.84488         0.001572     -0.000309      0.002857
      0.67686      1.39822      4.83056        -0.002178      0.000328      0.004026
      0.67067      4.19380      4.79045         0.003743      0.000124      0.002303
      5.56545      4.19377      4.85287        -0.002152     -0.000099      0.001857
      3.12281      2.79623      4.81500         0.000692      0.013986     -0.003451
      7.99917      5.58841      4.86470        -0.017558      0.001909     -0.004521
      7.99897      2.79940      4.86529        -0.017334     -0.002988     -0.004662
      4.77434      5.58971      3.86864         0.003809     -0.001233      0.000243
      1.47472      5.57828      5.76967        -0.003193      0.002126      0.005409
      3.22474     -0.00002      0.99805         0.004066     -0.013281      0.003956
      2.99061      5.57743      8.64972         0.012144      0.005039     -0.011786
      7.29642      1.39872      3.88725        -0.010851     -0.000035      0.032073
     -1.09366      1.39834      5.77143        -0.002240     -0.000187      0.009994
     -1.06961      4.19400      5.75591         0.007955     -0.000203     -0.000363
      7.24839      4.19374      3.91883         0.000313     -0.000403      0.021200
      0.71360      1.39853      0.97057         0.008046     -0.001008     -0.043923
      5.57142      1.39801      8.63786        -0.006534      0.000114     -0.012476
      5.55253      4.19378      8.65134        -0.049806     -0.000977      0.013307
      0.76057      4.19345      0.94014        -0.009151      0.000350     -0.027625
      4.77403      2.79766      3.86863         0.004979      0.001288      0.000035
      1.47466      2.80884      5.76962        -0.004434     -0.001739      0.005158
      3.22483      2.79623      0.99797         0.003443      0.013713      0.003385
      2.99077      2.80954      8.64973         0.012525     -0.004904     -0.011432
     -0.10685      0.02776      3.86875         0.000926      0.004197      0.007015
      6.35426      0.00074      5.82706        -0.009238     -0.002675      0.007098
      8.11751      0.02731      0.98765        -0.009953      0.008859      0.004344
     -1.87598      0.00116      8.58607         0.001482     -0.011644     -0.010614
      2.43592      1.39811      3.83091         0.004514      0.000951      0.011300
      3.81936      1.39817      5.80104         0.017677      0.000439     -0.011016
      3.83578      4.19356      5.79370         0.005065      0.000635     -0.005843
      2.42300      4.19355      3.83302        -0.001879      0.000574      0.023753
      5.56448      1.39815      1.03650         0.001966      0.000330     -0.006199
      0.64573      1.39796      8.61990        -0.006151     -0.000099      0.033999
      0.62984      4.19336      8.62704         0.007024      0.000527      0.011001
      5.57082      4.19349      1.03682         0.052140     -0.000198     -0.020426
     -0.10710      2.76913      3.86882         0.000148     -0.004460      0.005796
      6.35377      2.79630      5.82722        -0.007621      0.002605      0.006464
      8.11784      2.76952      0.98752        -0.009798     -0.008664      0.004713
     -1.87575      2.79499      8.58581         0.000789      0.012367     -0.010861
    total drift:                                0.001047      0.004616     -0.011116

  FREE ENERGIE OF THE ION-ELECTRON SYSTEM (eV)
  free  energy   TOTEN  =      -340.0016189849 eV

  energy  without entropy=     -339.9819719670  energy(sigma->0) =     -339.99179548

 d Force = 0.1591872E-02[ 0.958E-03, 0.223E-02]  d Energy = 0.1638568E-02-0.467E-04
 d Force = 0.2930215E+01[ 0.292E+01, 0.294E+01]  d Ewald  = 0.1866133E+01 0.106E+01

 Quasi-Newton relaxation of ions (Broydens 2nd method)
  g(Force)  = 0.110E-02   g(Stress)= 0.164E-03

 retain information from N=  3 steps
 eigenvalues of (default step * inverse Hessian matrix)
  average eigenvalue of G=   0.9971
 eigenvalue spectrum of G is  1.6691  0.6612  0.6612

volume of typ            1:    10.4 %

[...]

volume of typ            3:    10.0 %

total charge

# of ion       s       p       d       tot
    1        2.071   0.230   0.083   2.384
    2        2.068   0.216   0.080   2.364
    3        2.069   0.219   0.081   2.369
    4        2.070   0.228   0.082   2.381
    5        2.061   0.197   0.073   2.331
    6        2.074   0.237   0.087   2.399
    7        2.071   0.230   0.084   2.385
    8        0.300   0.427   7.843   8.570
    9        0.269   0.361   7.849   8.479
   10        0.274   0.366   7.852   8.492
   11        0.268   0.357   7.840   8.466
   12        0.276   0.373   7.846   8.495
   13        0.300   0.427   7.843   8.570
   14        0.299   0.427   7.851   8.576
   15        0.299   0.427   7.851   8.576
   16        0.299   0.426   7.850   8.576
   17        0.268   0.357   7.849   8.474
   18        0.275   0.369   7.851   8.494
   19        0.270   0.361   7.839   8.470
   20        0.275   0.371   7.847   8.493
   21        0.299   0.426   7.850   8.576
   22        0.300   0.427   7.843   8.570
   23        0.300   0.427   7.843   8.570
   24        1.265   2.778   0.007   4.050
   25        1.261   2.784   0.007   4.052
   26        1.265   2.776   0.007   4.048
   27        1.261   2.785   0.007   4.053
   28        1.274   2.753   0.007   4.034
   29        1.274   2.755   0.007   4.036
   30        1.274   2.754   0.007   4.035
   31        1.283   2.727   0.008   4.018
   32        1.274   2.752   0.007   4.033
   33        1.274   2.756   0.007   4.037
   34        1.273   2.755   0.007   4.036
   35        1.283   2.727   0.008   4.018
   36        1.265   2.778   0.007   4.050
   37        1.261   2.784   0.007   4.052
   38        1.265   2.776   0.007   4.048
   39        1.261   2.785   0.007   4.053
   40        1.272   2.754   0.008   4.034
   41        1.264   2.780   0.007   4.051
   42        1.271   2.756   0.008   4.035
   43        1.265   2.779   0.007   4.050
   44        1.274   2.753   0.007   4.035
   45        1.273   2.756   0.007   4.036
   46        1.273   2.757   0.007   4.037
   47        1.275   2.751   0.007   4.033
   48        1.274   2.754   0.007   4.035
   49        1.273   2.755   0.007   4.035
   50        1.273   2.757   0.007   4.038
   51        1.274   2.753   0.007   4.034
   52        1.272   2.755   0.008   4.035
   53        1.264   2.780   0.007   4.051
   54        1.271   2.757   0.008   4.036
   55        1.265   2.779   0.007   4.050
tot          59.70   96.29  126.35  282.34

magnetization (x)

# of ion       s       p       d       tot
    1        0.006   0.014   0.000   0.020
    2        0.005   0.006   0.000   0.011
    3        0.004   0.004  -0.000   0.008
    4        0.005   0.014   0.000   0.019
    5        0.005   0.006   0.000   0.011
    6        0.006   0.013   0.000   0.019
    7        0.005   0.013  -0.000   0.018
    8       -0.001   0.000  -0.042  -0.043
    9        0.001  -0.000   0.549   0.549
   10        0.002  -0.000   0.540   0.542
   11        0.001  -0.000   0.459   0.460
   12        0.000  -0.000   0.414   0.413
   13       -0.001   0.000  -0.042  -0.043
   14       -0.001   0.000  -0.011  -0.011
   15       -0.001   0.000  -0.011  -0.011
   16       -0.001   0.000  -0.011  -0.012
   17        0.001  -0.000   0.583   0.583
   18        0.002  -0.000   0.524   0.526
   19        0.001  -0.000   0.427   0.428
   20        0.000  -0.000   0.429   0.429
   21       -0.001   0.000  -0.011  -0.012
   22       -0.001   0.000  -0.043  -0.043
   23       -0.001   0.000  -0.043  -0.043
   24        0.006   0.022   0.000   0.028
   25        0.002   0.006   0.000   0.009
   26        0.006   0.022   0.000   0.028
   27        0.002   0.006   0.000   0.009
   28        0.004   0.033   0.000   0.036
   29        0.005   0.050   0.000   0.055
   30        0.004   0.032   0.000   0.036
   31        0.002   0.018   0.000   0.020
   32        0.003   0.028   0.000   0.032
   33        0.005   0.053   0.000   0.058
   34        0.004   0.037   0.000   0.041
   35        0.002   0.015   0.000   0.017
   36        0.006   0.022   0.000   0.028
   37        0.002   0.006   0.000   0.008
   38        0.006   0.022   0.000   0.028
   39        0.002   0.006   0.000   0.009
   40        0.002   0.010   0.000   0.012
   41        0.006   0.021   0.000   0.026
   42        0.002   0.011   0.000   0.013
   43        0.006   0.020   0.000   0.026
   44        0.005   0.052   0.000   0.057
   45        0.004   0.031   0.000   0.035
   46        0.002   0.009   0.000   0.012
   47        0.004   0.034   0.000   0.038
   48        0.005   0.054   0.000   0.060
   49        0.004   0.027   0.000   0.031
   50        0.002   0.008   0.000   0.010
   51        0.004   0.039   0.000   0.043
   52        0.002   0.010   0.000   0.013
   53        0.006   0.020   0.000   0.026
   54        0.002   0.011   0.000   0.013
   55        0.006   0.020   0.000   0.026
tot           0.16    0.82    3.71    4.70