 vasp.5.4.4.18Apr17-6-g9f103f2a35 (build May 12 2020 05:39:39) gamma-only

 MD_VERSION_INFO: Compiled 2020-05-12T12:39:39-UTC in devlin.sd.materialsdesign.
 com:/home/medea2/data/build/wwolf/vasp-gpu5.4.4/13047/x86_64/src/src/build/gam
 from svn 13047

 executed on                        Lin64 date 2023.03.07  02:59:58

 INCAR:
 POTCAR:    PAW_PBE Li_sv 10Sep2004
 POTCAR:    PAW_PBE Ni 02Aug2007
 POTCAR:    PAW_PBE O 08Apr2002

 POTCAR:    PAW_PBE Li_sv 10Sep2004

 POTCAR:    PAW_PBE Ni 02Aug2007

 POTCAR:    PAW_PBE O 08Apr2002

 Optimization of the real space projectors (new method)

 maximal supplied QI-value         = 22.11
 optimisation between [QCUT,QGAM] = [ 11.28, 22.77] = [ 35.61,145.23] Ry
 Optimized for a Real-space Cutoff    1.10 Angstroem

   l    n(q)    QCUT    max X(q) W(low)/X(q) W(high)/X(q)  e(spline)
   0      7    11.276    10.506    0.54E-04    0.58E-04    0.16E-07
   0      7    11.276     8.367    0.11E-03    0.14E-03    0.35E-07
   1      7    11.276     8.983    0.23E-03    0.43E-03    0.86E-07
 Optimization of the real space projectors (new method)

[...]

   l    n(q)    QCUT    max X(q) W(low)/X(q) W(high)/X(q)  e(spline)
   2      9    11.376    60.317    0.17E-03    0.16E-04    0.16E-06
   2      9    11.376    55.921    0.17E-03    0.16E-04    0.17E-06
   0     10    11.376    51.690    0.45E-04    0.60E-04    0.21E-06
   0     10    11.376    30.015    0.37E-04    0.55E-04    0.19E-06
   1     10    11.376    18.849    0.83E-04    0.11E-03    0.92E-07
   1     10    11.376    14.624    0.69E-04    0.92E-04    0.82E-07
 Optimization of the real space projectors (new method)

 maximal supplied QI-value         = 24.76
 optimisation between [QCUT,QGAM] = [ 11.39, 22.77] = [ 36.31,145.25] Ry
 Optimized for a Real-space Cutoff    1.10 Angstroem

   l    n(q)    QCUT    max X(q) W(low)/X(q) W(high)/X(q)  e(spline)
   0      7    11.387    20.381    0.22E-03    0.48E-03    0.18E-06
   0      7    11.387    15.268    0.22E-03    0.52E-03    0.19E-06
   1      7    11.387     5.964    0.22E-03    0.73E-03    0.24E-06
   1      7    11.387     5.382    0.19E-03    0.60E-03    0.21E-06

  PAW_PBE Li_sv 10Sep2004               :
  PAW_PBE Ni 02Aug2007                  :
  PAW_PBE O 08Apr2002                   :

 POSCAR: ce377_1
  positions in direct lattice
 exchange correlation table for  LEXCH =       14
   RHO(1)=    0.500       N(1)  =     2000
   RHO(2)=  100.500       N(2)  =     4000

 ion  position               nearest neighbor table
   1  0.001  0.250  0.251-  38 2.09  53 2.10  50 2.11  41 2.13  32 2.13  46 2.18  22 2.82  14 2.84

   2  0.993  0.748  0.759-  40 2.04  47 2.08  39 2.11  52 2.13  51 2.14  33 2.20  14 2.80  26 2.82

[...]

  11  0.747  0.250  0.002-  37 2.07  41 2.09  58 2.13  60 2.13  46 2.14  48 2.15
  12  0.500  0.249  0.749-  34 2.08  54 2.10  57 2.11  42 2.13  37 2.14  60 2.15  21 2.82  29 2.84

  13  0.505  0.752  0.241-  36 2.03  61 2.06  56 2.12  35 2.12  55 2.14  43 2.22  29 2.80  18 2.82
                            15 2.84
  14  1.000  0.000  0.000-  41 1.87  39 1.87  38 1.89  40 1.89  49 2.06  48 2.07  19 2.79  19 2.79
                             2 2.80   1 2.84  18 2.88  16 2.88  15 2.88  17 2.89
  15  0.250  1.000  0.250-  44 1.85  49 1.85  32 1.85  61 1.86  38 1.94  55 1.99  18 2.79  18 2.79
                            10 2.83   3 2.84  13 2.84  20 2.87  19 2.88  21 2.88  14 2.88
  16  0.250  0.999  0.750-  48 1.86  60 1.87  45 1.87  33 1.87  54 2.06  39 2.07  17 2.79  17 2.79
                             4 2.83  14 2.88  19 2.88  21 2.90  20 2.90
  17  0.750  0.995  0.748-  48 1.85  60 1.86  45 1.88  33 1.88  40 1.93  57 1.94  16 2.79  16 2.79
                             5 2.80  20 2.88  21 2.89  19 2.89  14 2.89
  18  0.750  0.001  0.250-  44 1.86  49 1.86  32 1.87  61 1.87  56 2.06  41 2.06  15 2.79  15 2.79
                            13 2.82   9 2.83  21 2.87  14 2.88  20 2.88  19 2.88
  19  0.500  0.000  0.000-  41 1.87  39 1.88  38 1.90  40 1.90  61 2.03  60 2.03  14 2.79  14 2.79
                             7 2.80   6 2.84  18 2.88  15 2.88  16 2.88  17 2.89
  20  0.999  0.001  0.499-  57 1.88  56 1.88  54 1.89  55 1.90  32 2.03  33 2.08  21 2.78  21 2.80
                             8 2.82  15 2.87  18 2.88  17 2.88  16 2.90
  21  0.501  0.002  0.499-  56 1.87  54 1.87  57 1.88  55 1.89  44 2.06  45 2.11  20 2.78  20 2.80
                            12 2.82  18 2.87  15 2.88  17 2.89  16 2.90
  22  0.999  0.498  0.500-  50 1.86  52 1.86  53 1.88  51 1.90  30 2.11  31 2.16  27 2.78  27 2.80
                             1 2.82  26 2.87  23 2.88  25 2.88  24 2.89
  23  0.251  0.500  0.750-  59 1.85  30 1.85  42 1.86  47 1.86  34 1.90  51 1.95  26 2.79  26 2.79
                            10 2.84   3 2.84  27 2.87  29 2.88  28 2.88  22 2.88
  24  0.250  0.501  0.250-  58 1.85  31 1.86  46 1.87  43 1.87  50 2.13  35 2.14  25 2.79  25 2.79
                             4 2.82  28 2.88  29 2.89  22 2.89  27 2.90
  25  0.750  0.505  0.253-  58 1.85  46 1.86  31 1.87  43 1.89  36 1.91  53 1.91   5 2.79  24 2.79
                            24 2.79  27 2.88  22 2.88  28 2.89  29 2.90
  26  0.751  0.499  0.750-  59 1.85  30 1.85  42 1.86  47 1.87  52 2.11  37 2.12  23 2.79  23 2.79
                             2 2.82   7 2.84  22 2.87  29 2.88  28 2.88  27 2.88
  27  0.501  0.498  0.501-  52 1.88  50 1.88  53 1.90  51 1.91  42 2.03  43 2.06  22 2.78  22 2.80
                             6 2.82  23 2.87  26 2.88  25 2.88  24 2.90
  28  0.000  0.500  0.000-  35 1.86  37 1.86  34 1.93  36 1.93  46 2.01  47 2.02  29 2.79  29 2.79
                             9 2.80  26 2.88  23 2.88  24 2.88  25 2.89
  29  0.500  0.500  1.000-  37 1.85  35 1.85  34 1.89  36 1.89  59 2.10  58 2.11  28 2.79  28 2.79
                            13 2.80  12 2.84  26 2.88  23 2.88  24 2.89  25 2.90
  30  0.002  0.391  0.645-  23 1.85  26 1.85   8 2.07  22 2.11   3 2.13
  31  0.004  0.614  0.358-  24 1.86  25 1.87   4 2.09   5 2.11   9 2.12  22 2.16
  32  0.001  0.106  0.361-  15 1.85  18 1.87  20 2.03   3 2.12   1 2.13
  33  0.004  0.889  0.636-  16 1.87  17 1.88   4 2.07  20 2.08   5 2.11   2 2.20
  34  0.255  0.398  0.876-  29 1.89  23 1.90  28 1.93  12 2.08   8 2.13
  35  0.252  0.611  0.104-  29 1.85  28 1.86  10 2.05  13 2.12   9 2.13  24 2.14
  36  0.745  0.604  0.124-  29 1.89  25 1.91  28 1.93  13 2.03   9 2.07
  37  0.749  0.391  0.895-  29 1.85  28 1.86  11 2.07  26 2.12  12 2.14   8 2.14
  38  0.248  0.103  0.121-  14 1.89  19 1.90  15 1.94   1 2.09   6 2.11
  39  0.250  0.891  0.889-  14 1.87  19 1.88  16 2.07  10 2.09   2 2.11   7 2.12
  40  0.752  0.896  0.879-  14 1.89  19 1.90  17 1.93   2 2.04   7 2.05
  41  0.750  0.109  0.111-  14 1.87  19 1.87  18 2.06  11 2.09   1 2.13   6 2.13
  42  0.500  0.394  0.639-  23 1.86  26 1.86  27 2.03  12 2.13   3 2.14
  43  0.494  0.610  0.366-  24 1.87  25 1.89  27 2.06   4 2.07   5 2.11  13 2.22
  44  0.498  0.107  0.359-  15 1.85  18 1.86  21 2.06   6 2.09   3 2.13
  45  0.497  0.887  0.638-  16 1.87  17 1.88   4 2.09   5 2.11  21 2.11   7 2.13
  46  0.997  0.399  0.138-  25 1.86  24 1.87  28 2.01  11 2.14   1 2.18
  47  0.001  0.604  0.863-  23 1.86  26 1.87  28 2.02   2 2.08  10 2.15
  48  0.996  0.104  0.857-  17 1.85  16 1.86  14 2.07   8 2.10  11 2.15
  49  0.001  0.894  0.141-  15 1.85  18 1.86   9 2.03  14 2.06  10 2.14
  50  0.248  0.389  0.393-  22 1.86  27 1.88   3 2.06   1 2.11   6 2.11  24 2.13
  51  0.247  0.604  0.621-  22 1.90  27 1.91  23 1.95   2 2.14   7 2.17   4 2.23
  52  0.752  0.609  0.608-  22 1.86  27 1.88   5 2.09  26 2.11   2 2.13   7 2.13
  53  0.753  0.400  0.377-  22 1.88  27 1.90  25 1.91   1 2.10   6 2.13
  54  0.252  0.108  0.613-  21 1.87  20 1.89  16 2.06  12 2.10   8 2.11   3 2.12
  55  0.251  0.894  0.382-  21 1.89  20 1.90  15 1.99  13 2.14   9 2.15   4 2.17
  56  0.749  0.892  0.387-  21 1.87  20 1.88  18 2.06   5 2.11  13 2.12   9 2.13
  57  0.749  0.101  0.620-  21 1.88  20 1.88  17 1.94  12 2.11   8 2.11
  58  0.503  0.395  0.146-  25 1.85  24 1.85   6 2.09  29 2.11  11 2.13
  59  0.500  0.608  0.856-  23 1.85  26 1.85   7 2.02  29 2.10  10 2.13
  60  0.504  0.103  0.860-  17 1.86  16 1.87  19 2.03  11 2.13  12 2.15
  61  0.499  0.895  0.138-  15 1.86  18 1.87  19 2.03  13 2.06  10 2.11

  LATTYP: Found a triclinic cell.
 ALAT       =    15.0433073234
 B/A-ratio  =     0.3713950452
 C/A-ratio  =     0.6683498203
 COS(alpha) =     0.0007800054
 COS(beta)  =     0.2456432991
 COS(gamma) =     0.7417804907

  Lattice vectors:

 A1 = (  10.0802639847, -11.1664208640,   0.0204526941)
 A2 = (  -0.0041947843,  -5.5870068019,  -0.0039918200)
 A3 = (   3.7003319399,  -0.0039412405,  -9.3484918399)

Analysis of symmetry for initial positions (statically):
 Subroutine PRICEL returns:
 Original cell was already a primitive cell.

 Routine SETGRP: Setting up the symmetry group for a
 triclinic supercell.

 Subroutine GETGRP returns: Found  1 space group operations
 (whereof  1 operations were pure point group operations)
 out of a pool of  2 trial point group operations.

The static configuration has the point symmetry C_1 .

Analysis of symmetry for dynamics (positions and initial velocities):
 Subroutine PRICEL returns:
 Original cell was already a primitive cell.

[...]

The dynamic configuration has the point symmetry C_1 .

Analysis of structural, dynamic, and magnetic symmetry:
 Subroutine PRICEL returns:
 Original cell was already a primitive cell.

 Routine SETGRP: Setting up the symmetry group for a
 triclinic supercell.

 Subroutine GETGRP returns: Found  1 space group operations
 (whereof  1 operations were pure point group operations)
 out of a pool of  2 trial point group operations.

The magnetic configuration has the point symmetry C_1 .

 Subroutine INISYM returns: Found  1 space group operations
 (whereof  1 operations are pure point group operations),
 and found     1 'primitive' translations

 KPOINTS: Automatic mesh

Automatic generation of k-mesh.
Space group operators:
 irot       det(A)        alpha          n_x          n_y          n_z        tau_x        tau_y        tau_z
    1     1.000000     0.000001     1.000000     0.000000     0.000000     0.000000     0.000000     0.000000

 Subroutine IBZKPT returns following result:

 Found      1 irreducible k-points:

 Following reciprocal coordinates:
            Coordinates               Weight
  0.000000  0.000000  0.000000      1.000000

 Following cartesian coordinates:
            Coordinates               Weight
  0.000000  0.000000  0.000000      1.000000

 SYSTEM =  unknown system
 POSCAR =  ce377_1

 Startparameter for this run:
   NWRITE =      1    write-flag & timer
   PREC   = accura    normal or accurate (medium, high low for compatibility)
   ISTART =      0    job   : 0-new  1-cont  2-samecut
   ICHARG =      2    charge: 1-file 2-atom 10-const
   ISPIN  =      2    spin polarized calculation?
   LNONCOLLINEAR =      F non collinear calculations
   LSORBIT =      F    spin-orbit coupling
   INIWAV =      1    electr: 0-lowe 1-rand  2-diag
   LASPH  =      F    aspherical Exc in radial PAW
   METAGGA=      F    non-selfconsistent MetaGGA calc.

 Electronic Relaxation 1
[...]
   -.296E+01 0.265E+00 0.109E+02   0.318E+01 -.227E+00 -.112E+02   -.332E+00 -.353E-01 0.273E+00   0.120E+00 -.706E-02 0.874E-02
   0.330E+02 0.405E+00 0.568E+02   -.331E+02 -.392E+00 -.574E+02   0.261E+00 -.253E-03 0.634E+00   -.109E+00 -.898E-02 -.142E-02
   0.685E+01 -.518E+00 0.134E+02   -.704E+01 0.504E+00 -.137E+02   0.303E+00 -.626E-03 0.339E+00   -.106E+00 0.157E-01 -.296E-02
   -.158E+02 -.128E+00 0.225E+02   0.156E+02 0.844E-01 -.226E+02   0.712E-01 0.386E-01 0.842E-01   0.120E+00 0.461E-02 0.496E-02
   -.911E+01 -.123E+02 0.545E+02   0.951E+01 0.126E+02 -.552E+02   -.410E+00 -.277E+00 0.749E+00   0.139E-01 -.477E-02 -.666E-04
   -.853E+00 0.158E+00 0.255E+02   0.853E+00 -.227E+00 -.255E+02   0.140E-01 0.621E-01 -.190E-01   -.104E-01 0.724E-02 -.307E-02
   -.124E+01 -.343E+00 0.258E+02   0.126E+01 0.404E+00 -.257E+02   0.461E-02 -.557E-01 -.353E-01   -.151E-01 -.489E-02 0.134E-02
   0.426E+02 0.415E+02 0.309E+03   -.481E+02 -.437E+02 -.325E+03   0.544E+01 0.219E+01 0.161E+02   0.658E-01 0.709E-02 -.150E-01
   -.256E+02 -.105E+02 -.256E+03   0.301E+02 0.104E+02 0.268E+03   -.440E+01 0.507E-01 -.122E+02   -.579E-01 0.375E-02 0.311E-01
   -.375E+02 0.418E+02 -.310E+03   0.421E+02 -.441E+02 0.327E+03   -.463E+01 0.234E+01 -.163E+02   -.587E-02 0.310E-02 -.171E-01
   0.188E+02 -.106E+02 0.257E+03   -.223E+02 0.106E+02 -.269E+03   0.345E+01 0.323E-01 0.123E+02   0.140E-01 -.849E-02 0.139E-01
   -.471E+02 -.569E+00 0.305E+03   0.488E+02 0.417E+00 -.320E+03   -.180E+01 0.159E+00 0.146E+02   0.306E-01 -.174E-01 0.350E-01
   -.222E+02 -.876E+00 -.248E+03   0.264E+02 0.740E+00 0.261E+03   -.410E+01 0.163E+00 -.128E+02   -.470E-01 -.259E-01 -.379E-01
   0.487E+02 0.104E+01 -.276E+03   -.507E+02 -.923E+00 0.289E+03   0.199E+01 -.120E+00 -.134E+02   -.529E-01 0.157E-01 -.253E-01
   0.246E+02 0.841E+00 0.274E+03   -.286E+02 -.676E+00 -.287E+03   0.392E+01 -.190E+00 0.129E+02   0.325E-01 0.255E-01 0.409E-01
   0.461E+02 0.115E+01 -.304E+03   -.478E+02 -.734E+00 0.319E+03   0.166E+01 -.435E+00 -.149E+02   -.558E-02 0.116E-01 -.120E-01
   0.177E+02 0.183E+01 0.248E+03   -.216E+02 -.155E+01 -.260E+03   0.384E+01 -.282E+00 0.124E+02   0.118E-01 0.833E-02 -.626E-02
   -.496E+02 -.184E+01 0.276E+03   0.514E+02 0.136E+01 -.289E+03   -.190E+01 0.491E+00 0.137E+02   0.708E-02 -.942E-02 0.861E-02
   -.227E+02 -.158E+01 -.273E+03   0.266E+02 0.134E+01 0.285E+03   -.393E+01 0.247E+00 -.122E+02   -.690E-02 -.587E-02 -.851E-03
   0.382E+02 -.419E+02 0.312E+03   -.432E+02 0.442E+02 -.328E+03   0.493E+01 -.237E+01 0.163E+02   0.639E-01 -.485E-02 -.178E-01
   -.194E+02 0.109E+02 -.258E+03   0.231E+02 -.109E+02 0.271E+03   -.370E+01 0.579E-01 -.124E+02   -.510E-01 -.637E-02 0.300E-01
   -.483E+02 -.402E+02 -.308E+03   0.540E+02 0.424E+02 0.325E+03   -.571E+01 -.212E+01 -.165E+02   0.468E-03 -.253E-02 -.255E-01
   0.327E+02 0.108E+02 0.254E+03   -.371E+02 -.109E+02 -.267E+03   0.437E+01 0.106E+00 0.128E+02   0.501E-02 0.103E-01 0.262E-01
   0.492E+02 -.410E+02 0.317E+03   -.542E+02 0.428E+02 -.333E+03   0.514E+01 -.186E+01 0.160E+02   -.838E-01 0.458E-02 0.139E-01
   -.528E+02 0.418E+02 -.292E+03   0.583E+02 -.442E+02 0.308E+03   -.561E+01 0.235E+01 -.155E+02   0.694E-01 0.702E-02 -.269E-01
   -.598E+02 -.391E+02 -.315E+03   0.658E+02 0.409E+02 0.332E+03   -.597E+01 -.178E+01 -.163E+02   -.612E-02 -.832E-02 0.172E-01
   0.630E+02 0.405E+02 0.290E+03   -.695E+02 -.429E+02 -.306E+03   0.651E+01 0.231E+01 0.157E+02   0.938E-02 0.413E-02 -.136E-01
   0.358E+02 0.239E+00 0.279E+03   -.395E+02 0.103E+00 -.291E+03   0.374E+01 -.335E+00 0.122E+02   -.306E-01 -.666E-02 -.494E-01
   -.363E+01 0.180E+01 -.263E+03   0.461E+01 -.176E+01 0.276E+03   -.105E+01 -.262E-01 -.128E+02   0.591E-01 -.953E-02 0.391E-01
   -.381E+02 -.777E+00 -.248E+03   0.413E+02 0.424E+00 0.260E+03   -.322E+01 0.347E+00 -.121E+02   0.404E-01 0.691E-02 0.512E-01
   -.241E+02 -.122E+01 0.309E+03   0.247E+02 0.108E+01 -.324E+03   -.544E+00 0.116E+00 0.151E+02   -.416E-01 0.106E-01 -.469E-01
   -.371E+02 -.863E+00 -.281E+03   0.417E+02 0.491E+00 0.293E+03   -.460E+01 0.361E+00 -.127E+02   0.122E-01 0.105E-01 0.518E-02
   0.395E+01 -.106E+01 0.264E+03   -.545E+01 0.793E+00 -.277E+03   0.150E+01 0.260E+00 0.131E+02   -.135E-01 0.936E-02 0.995E-04
   0.400E+02 0.327E+00 0.250E+03   -.439E+02 0.618E-01 -.263E+03   0.396E+01 -.378E+00 0.131E+02   -.163E-01 -.975E-02 -.116E-02
   0.241E+02 0.117E+01 -.310E+03   -.242E+02 -.726E+00 0.325E+03   0.177E+00 -.444E+00 -.155E+02   0.140E-01 -.657E-02 -.237E-03
   0.556E+02 0.402E+02 0.314E+03   -.615E+02 -.420E+02 -.330E+03   0.587E+01 0.177E+01 0.156E+02   -.533E-01 -.667E-02 -.712E-02
   -.584E+02 -.415E+02 -.289E+03   0.645E+02 0.437E+02 0.305E+03   -.616E+01 -.224E+01 -.153E+02   0.432E-01 -.409E-02 -.577E-02
   -.458E+02 0.406E+02 -.318E+03   0.507E+02 -.425E+02 0.334E+03   -.487E+01 0.190E+01 -.158E+02   -.415E-02 0.104E-01 0.150E-01
   0.509E+02 -.421E+02 0.292E+03   -.564E+02 0.446E+02 -.307E+03   0.540E+01 -.249E+01 0.153E+02   0.597E-02 -.286E-02 -.976E-02
   0.260E+00 -.300E+00 -.306E+00   -.995E-13 -.782E-13 -.568E-13   -.279E+00 0.283E+00 0.274E+00   0.110E-01 0.176E-01 0.361E-01

 POSITION                                       TOTAL-FORCE (eV/Angst)
      1.60453      0.00477      2.35207        -0.003477     -0.001252      0.003149
      4.90886      5.54314      7.02782         0.007924      0.000415     -0.003219
      4.13057      1.39150      2.35140        -0.013113      0.009887      0.007329
      2.26702      1.39986      7.04144         0.012809      0.010430     -0.006340
      2.27565      4.18277      7.03944         0.019076     -0.002438     -0.004290
      1.59993      2.78220      2.36169        -0.018495     -0.000926      0.002717
      4.89112      2.83260      7.03064         0.019280      0.001253     -0.002030
      6.67139      5.58276      2.36124        -0.012292      0.004058      0.005443
     -0.35529      5.53308      7.03541         0.011009     -0.000303     -0.003914
      7.32033      1.41894      7.05334         0.007995     -0.016306     -0.003094
     -0.91552      4.16575      2.34399        -0.010726      0.011023      0.002314
      6.66020      2.79168      2.35399        -0.003252      0.000976      0.004927
     -0.36789      2.81946      7.05270        -0.004273      0.000401     -0.006038
      0.00401      5.56840      0.00395        -0.001433     -0.000462     -0.000095
     -1.19181      1.39476      9.37569        -0.005177     -0.004812     -0.006056
      3.87651      1.40022      9.37138        -0.001449      0.000029      0.002169
      3.86314      4.18498      9.34725        -0.001734     -0.002254      0.002283
      2.52905      4.17675      0.01543        -0.004898      0.001956     -0.005842
      0.00185      2.78287      0.00135        -0.001558     -0.002184     -0.001843
      5.05259      5.57006      0.02521        -0.004762     -0.002108      0.001719
      5.04607      2.79582      0.02699        -0.002718     -0.000347      0.000179
      3.21985      5.57006      4.67948         0.001541     -0.000121     -0.000345
      5.73256      1.40410      4.70116        -0.001339     -0.004310      0.001137
      0.67249      1.39511      4.70218         0.002778      0.003784     -0.003075
      0.68441      4.17942      4.73580         0.002685      0.000970     -0.005733
      5.73716      4.18800      4.69812         0.000962     -0.000515      0.001133
      3.21523      2.79450      4.67989        -0.000465     -0.000829      0.000301
     -1.85936      0.00291      4.68916         0.003573      0.000635     -0.000420
      8.26144      2.79598      4.70908         0.002673      0.000537      0.000812
      5.04018      0.01584      3.68693        -0.003061      0.000400      0.008939
      1.37840      0.03003      5.75083         0.013070      0.001714     -0.008968
      3.26510      0.00265      0.99416        -0.001519      0.000239     -0.005796
      3.10813      0.03774      8.35160        -0.011021     -0.000992      0.012032
      7.39066      1.41497      3.74908         0.012890     -0.010186      0.002423
     -1.21176      1.39761      5.73191         0.004034      0.001107     -0.004131
     -0.99447      4.16762      5.66405        -0.008040      0.013958     -0.002766
      7.60728      4.18585      3.67496        -0.001019      0.000484      0.003781
      0.86508      1.37674      0.95470         0.005320     -0.002757      0.000030
      5.73803      1.39688      8.34793         0.001661     -0.000159      0.004283
      5.54552      4.20334      8.42736        -0.008460      0.001609     -0.000940
      0.66916      4.18213      1.04019        -0.004970     -0.003496     -0.004710
      5.00938      2.79503      3.71017         0.009000     -0.002181      0.000695
      1.42273      2.75913      5.72639        -0.007107      0.002828      0.002724
      3.19504      2.78047      1.02271        -0.003396      0.000515     -0.003037
      3.20517      2.76953      8.31565        -0.001704     -0.000953      0.004576
     -0.05181      5.55588      3.73514         0.014034      0.001478     -0.005435
      6.46444      0.01185      5.68319        -0.005027     -0.000935      0.004042
      8.24987      5.55671      1.01062        -0.004130     -0.002752     -0.001184
     -1.86384      0.00456      8.36699         0.001942      0.000229      0.002056
      2.53081      1.39181      3.64392        -0.001647      0.000144     -0.003459
      4.02482      1.39156      5.67426        -0.011149      0.003438      0.004638
      3.89040      4.18986      5.73204         0.004673      0.000179      0.002842
      2.34263      4.18926      3.75792         0.011214     -0.005272     -0.004227
      5.72526      1.40811      1.04639        -0.010361     -0.000937     -0.000986
      0.51768      1.41449      8.40105        -0.008110      0.003141      0.000849
      0.66602      4.17380      8.35539         0.006169      0.000357      0.005732
      5.92018      4.16879      0.94973         0.003856     -0.006080      0.002723
     -0.01627      2.80421      3.71186        -0.006478      0.004146      0.008738
      6.42931      2.79370      5.70821         0.010063     -0.004549     -0.005058
      8.32714      2.80454      0.98043         0.001927     -0.001344     -0.008402
     -1.93247      2.78862      8.39357        -0.003798     -0.000557      0.004717
    total drift:                               -0.008451      0.001408      0.003885

  FREE ENERGIE OF THE ION-ELECTRON SYSTEM (eV)
  free  energy   TOTEN  =      -369.0174209639 eV

  energy  without entropy=     -368.9891047502  energy(sigma->0) =     -369.00326286

 d Force = 0.2909695E-03[ 0.244E-03, 0.338E-03]  d Energy = 0.2640261E-03 0.269E-04
 d Force = 0.4698927E-01[ 0.460E-01, 0.480E-01]  d Ewald  =-0.6107574E+00 0.658E+00

 Quasi-Newton relaxation of ions (Broydens 2nd method)
  g(Force)  = 0.300E-03   g(Stress)= 0.365E-04

 retain information from N=  2 steps
 eigenvalues of (default step * inverse Hessian matrix)
  average eigenvalue of G=   1.3941
 eigenvalue spectrum of G is  0.6648  2.1233

 reached required accuracy - stopping structural energy minimisation

volume of typ            1:    19.2 %

[...]

volume of typ            3:     9.9 %

total charge

# of ion       s       p       d       tot
    1        2.076   0.247   0.090   2.413
    2        2.081   0.259   0.095   2.434
    3        2.084   0.255   0.098   2.436
    4        2.081   0.245   0.094   2.419
    5        2.087   0.265   0.101   2.453
    6        2.081   0.255   0.095   2.430
    7        2.085   0.269   0.101   2.455
    8        2.081   0.252   0.094   2.427
    9        2.086   0.266   0.101   2.453
   10        2.085   0.259   0.099   2.444
   11        2.082   0.250   0.094   2.426
   12        2.076   0.244   0.089   2.409
   13        2.081   0.257   0.095   2.433
   14        0.261   0.338   7.877   8.475
   15        0.291   0.408   7.859   8.557
   16        0.265   0.347   7.880   8.493
   17        0.287   0.399   7.856   8.542
   18        0.268   0.352   7.874   8.494
   19        0.260   0.341   7.861   8.462
   20        0.262   0.344   7.865   8.471
   21        0.263   0.341   7.889   8.494
   22        0.261   0.341   7.874   8.476
   23        0.290   0.408   7.859   8.558
   24        0.265   0.345   7.883   8.493
   25        0.287   0.398   7.858   8.542
   26        0.267   0.351   7.874   8.492
   27        0.260   0.340   7.870   8.471
   28        0.261   0.343   7.859   8.462
   29        0.262   0.342   7.863   8.467
   30        1.262   2.780   0.006   4.049
   31        1.255   2.799   0.006   4.060
   32        1.263   2.776   0.006   4.046
   33        1.256   2.796   0.006   4.057
   34        1.261   2.782   0.006   4.049
   35        1.254   2.803   0.006   4.063
   36        1.259   2.792   0.006   4.057
   37        1.256   2.798   0.006   4.060
   38        1.262   2.780   0.006   4.048
   39        1.255   2.802   0.006   4.062
   40        1.260   2.790   0.006   4.056
   41        1.256   2.798   0.006   4.060
   42        1.263   2.777   0.007   4.046
   43        1.256   2.797   0.006   4.058
   44        1.263   2.778   0.007   4.048
   45        1.256   2.798   0.006   4.059
   46        1.264   2.771   0.006   4.042
   47        1.262   2.781   0.006   4.050
   48        1.264   2.775   0.006   4.045
   49        1.262   2.784   0.006   4.052
   50        1.255   2.800   0.006   4.061
   51        1.257   2.793   0.006   4.055
   52        1.256   2.798   0.006   4.060
   53        1.260   2.786   0.007   4.053
   54        1.255   2.799   0.006   4.060
   55        1.256   2.792   0.006   4.054
   56        1.255   2.798   0.006   4.059
   57        1.260   2.784   0.007   4.051
   58        1.263   2.776   0.006   4.046
   59        1.261   2.785   0.006   4.053
   60        1.264   2.771   0.006   4.041
   61        1.262   2.781   0.006   4.049
tot          71.67   98.28  127.34  297.29

magnetization (x)

# of ion       s       p       d       tot
    1        0.005   0.015  -0.000   0.019
    2        0.005   0.015  -0.000   0.020
    3        0.001   0.004   0.002   0.007
    4        0.006   0.002  -0.000   0.008
    5       -0.001  -0.003  -0.001  -0.006
    6        0.001   0.008  -0.000   0.009
    7        0.002   0.010  -0.000   0.011
    8        0.003   0.010   0.001   0.014
    9        0.003   0.010   0.001   0.014
   10        0.001   0.004   0.002   0.007
   11       -0.001  -0.003  -0.001  -0.006
   12        0.005   0.013  -0.000   0.018
   13        0.005   0.013  -0.000   0.018
   14        0.004  -0.000   0.675   0.679
   15       -0.001   0.000   0.193   0.193
   16        0.004  -0.000   0.581   0.585
   17       -0.000  -0.000   0.243   0.242
   18       -0.006  -0.000  -0.559  -0.565
   19        0.002   0.000   0.651   0.653
   20        0.002   0.000   0.586   0.588
   21       -0.004  -0.000  -0.494  -0.498
   22        0.004   0.000   0.749   0.753
   23       -0.001  -0.000   0.191   0.189
   24        0.004  -0.001   0.586   0.589
   25       -0.001  -0.001   0.233   0.232
   26       -0.007  -0.001  -0.558  -0.566
   27        0.003   0.000   0.694   0.696
   28        0.002  -0.000   0.629   0.631
   29        0.003  -0.000   0.715   0.718
   30        0.006   0.081   0.000   0.087
   31        0.008   0.071   0.000   0.079
   32        0.005   0.051   0.000   0.056
   33        0.008   0.059   0.000   0.067
   34        0.009   0.060   0.000   0.069
   35        0.008   0.083   0.000   0.091
   36        0.009   0.059   0.000   0.068
   37       -0.003  -0.076  -0.000  -0.079
   38        0.008   0.056   0.000   0.065
   39        0.009   0.092   0.000   0.101
   40        0.009   0.053   0.000   0.062
   41       -0.001  -0.071  -0.000  -0.073
   42        0.005   0.050   0.000   0.056
   43        0.007   0.053   0.000   0.061
   44       -0.005  -0.093  -0.000  -0.099
   45       -0.003  -0.070  -0.000  -0.073
   46        0.007   0.056   0.000   0.064
   47        0.005   0.041   0.000   0.046
   48        0.007   0.077   0.000   0.084
   49        0.006   0.075   0.000   0.081
   50        0.009   0.103   0.000   0.112
   51        0.008   0.039   0.000   0.047
   52       -0.001  -0.064  -0.000  -0.065
   53        0.008   0.040   0.000   0.048
   54        0.007   0.084   0.000   0.091
   55        0.004   0.017   0.000   0.021
   56       -0.004  -0.075  -0.000  -0.079
   57        0.004   0.020   0.000   0.025
   58        0.008   0.081   0.000   0.089
   59        0.006   0.074   0.000   0.080
   60        0.008   0.057   0.000   0.065
   61        0.005   0.038   0.000   0.043
tot           0.20    1.22    5.12    6.54