 vasp.5.4.4.18Apr17-6-g9f103f2a35 (build May 12 2020 05:39:39) gamma-only

 MD_VERSION_INFO: Compiled 2020-05-12T12:39:39-UTC in devlin.sd.materialsdesign.
 com:/home/medea2/data/build/wwolf/vasp-gpu5.4.4/13047/x86_64/src/src/build/gam
 from svn 13047

 executed on                        Lin64 date 2023.03.07  03:43:09

 INCAR:
 POTCAR:    PAW_PBE Li_sv 10Sep2004
 POTCAR:    PAW_PBE Ni 02Aug2007
 POTCAR:    PAW_PBE O 08Apr2002

 POTCAR:    PAW_PBE Li_sv 10Sep2004

 POTCAR:    PAW_PBE Ni 02Aug2007

 POTCAR:    PAW_PBE O 08Apr2002

 Optimization of the real space projectors (new method)

 maximal supplied QI-value         = 22.11
 optimisation between [QCUT,QGAM] = [ 11.28, 22.77] = [ 35.61,145.23] Ry
 Optimized for a Real-space Cutoff    1.10 Angstroem

   l    n(q)    QCUT    max X(q) W(low)/X(q) W(high)/X(q)  e(spline)
   0      7    11.276    10.506    0.54E-04    0.58E-04    0.16E-07
   0      7    11.276     8.367    0.11E-03    0.14E-03    0.35E-07
   1      7    11.276     8.983    0.23E-03    0.43E-03    0.86E-07
 Optimization of the real space projectors (new method)

[...]

   l    n(q)    QCUT    max X(q) W(low)/X(q) W(high)/X(q)  e(spline)
   2      9    11.376    60.317    0.17E-03    0.16E-04    0.16E-06
   2      9    11.376    55.921    0.17E-03    0.16E-04    0.17E-06
   0     10    11.376    51.690    0.45E-04    0.60E-04    0.21E-06
   0     10    11.376    30.015    0.37E-04    0.55E-04    0.19E-06
   1     10    11.376    18.849    0.83E-04    0.11E-03    0.92E-07
   1     10    11.376    14.624    0.69E-04    0.92E-04    0.82E-07
 Optimization of the real space projectors (new method)

 maximal supplied QI-value         = 24.76
 optimisation between [QCUT,QGAM] = [ 11.39, 22.77] = [ 36.31,145.25] Ry
 Optimized for a Real-space Cutoff    1.10 Angstroem

   l    n(q)    QCUT    max X(q) W(low)/X(q) W(high)/X(q)  e(spline)
   0      7    11.387    20.381    0.22E-03    0.48E-03    0.18E-06
   0      7    11.387    15.268    0.22E-03    0.52E-03    0.19E-06
   1      7    11.387     5.964    0.22E-03    0.73E-03    0.24E-06
   1      7    11.387     5.382    0.19E-03    0.60E-03    0.21E-06

  PAW_PBE Li_sv 10Sep2004               :
  PAW_PBE Ni 02Aug2007                  :
  PAW_PBE O 08Apr2002                   :

 POSCAR: ce17533_1
  positions in direct lattice
 exchange correlation table for  LEXCH =       14
   RHO(1)=    0.500       N(1)  =     2000
   RHO(2)=  100.500       N(2)  =     4000

 ion  position               nearest neighbor table
   1  0.251  0.249  1.000-  26 2.13  22 2.14  48 2.15  36 2.15  46 2.16  34 2.17
   2  0.999  0.994  0.998-  28 1.84  29 1.84  27 1.85  26 1.85  37 1.87  36 1.88   7 2.78   7 2.79
                             5 2.79   6 2.79   3 2.80   4 2.80
   3  0.250  0.000  0.250-  20 1.84  32 1.84  49 1.85  37 1.85  43 1.88  26 1.92   6 2.78   6 2.79
                             8 2.79   9 2.79   2 2.80   7 2.80
   4  0.250  0.994  0.748-  21 1.84  33 1.84  48 1.85  36 1.85  42 1.89  27 1.90   5 2.79   5 2.79
                             9 2.79   8 2.79   2 2.80   7 2.80
   5  0.750  0.998  0.749-  21 1.84  33 1.84  48 1.86  36 1.86  45 1.89  28 1.91   4 2.79   4 2.79
                             8 2.79   9 2.79   7 2.79   2 2.79
   6  0.750  1.000  0.250-  49 1.84  37 1.84  20 1.85  32 1.85  44 1.88  29 1.89   3 2.78   3 2.79
                             9 2.79   8 2.79   7 2.79   2 2.79
   7  0.501  0.994  0.998-  28 1.84  29 1.84  27 1.85  26 1.85  49 1.87  48 1.88   2 2.78   2 2.79
                             6 2.79   5 2.79   3 2.80   4 2.80
   8  1.000  1.000  0.500-  44 1.84  45 1.84  43 1.84  42 1.84  20 1.88  21 1.88   9 2.78   9 2.79
                             6 2.79   4 2.79   3 2.79   5 2.79
   9  0.500  1.000  0.500-  44 1.84  45 1.84  43 1.84  42 1.84  32 1.88  33 1.88   8 2.78   8 2.79
                             6 2.79   4 2.79   5 2.79   3 2.79
  10  1.000  0.500  0.500-  40 1.84  41 1.84  39 1.84  38 1.84  18 1.88  19 1.89  15 2.78  15 2.79
                            14 2.79  12 2.79  13 2.79  11 2.79
  11  0.250  0.500  0.750-  30 1.84  18 1.84  35 1.85  47 1.85  39 1.88  22 1.92  14 2.79  14 2.79
                            10 2.79  15 2.79  16 2.80  17 2.80
  12  0.250  0.506  0.252-  31 1.84  19 1.84  34 1.85  46 1.85  38 1.89  23 1.90  13 2.79  13 2.79
                            15 2.79  10 2.79  16 2.80  17 2.80
  13  0.750  0.502  0.251-  19 1.84  31 1.84  34 1.86  46 1.86  41 1.89  24 1.91  12 2.79  12 2.79
                            10 2.79  15 2.79  16 2.79  17 2.79
  14  0.750  0.501  0.750-  35 1.84  47 1.84  30 1.85  18 1.85  40 1.88  25 1.89  11 2.79  11 2.79
                            10 2.79  15 2.79  17 2.79  16 2.79
  15  0.500  0.500  0.500-  40 1.84  41 1.84  39 1.84  38 1.84  30 1.88  31 1.88  10 2.78  10 2.79
                            14 2.79  12 2.79  13 2.79  11 2.79
  16  1.000  0.507  0.002-  24 1.84  25 1.84  23 1.85  22 1.85  35 1.87  34 1.88  17 2.78  17 2.79
                            13 2.79  14 2.79  11 2.80  12 2.80
  17  0.501  0.507  0.002-  24 1.84  25 1.84  23 1.85  22 1.85  47 1.87  46 1.88  16 2.78  16 2.79
                            13 2.79  14 2.79  11 2.80  12 2.80
  18  0.000  0.403  0.636-  11 1.84  14 1.85  10 1.88
  19  0.997  0.600  0.366-  13 1.84  12 1.84  10 1.89
  20  0.000  0.098  0.365-   3 1.84   6 1.85   8 1.88
  21  0.997  0.900  0.634-   5 1.84   4 1.84   8 1.88
  22  0.250  0.404  0.892-  17 1.85  16 1.85  11 1.92   1 2.14
  23  0.250  0.605  0.116-  17 1.85  16 1.85  12 1.90
  24  0.750  0.604  0.116-  16 1.84  17 1.84  13 1.91
  25  0.750  0.406  0.889-  17 1.84  16 1.84  14 1.89
  26  0.250  0.096  0.108-   2 1.85   7 1.85   3 1.92   1 2.13
  27  0.250  0.895  0.884-   2 1.85   7 1.85   4 1.90
  28  0.750  0.896  0.884-   2 1.84   7 1.84   5 1.91
  29  0.750  0.094  0.111-   2 1.84   7 1.84   6 1.89
  30  0.500  0.403  0.636-  11 1.84  14 1.85  15 1.88
  31  0.503  0.600  0.366-  13 1.84  12 1.84  15 1.88
  32  0.500  0.098  0.365-   3 1.84   6 1.85   9 1.88
  33  0.503  0.900  0.634-   5 1.84   4 1.84   9 1.88
  34  0.005  0.406  0.135-  12 1.85  13 1.86  16 1.88   1 2.17
  35  0.000  0.600  0.864-  14 1.84  11 1.85  16 1.87
  36  0.005  0.094  0.865-   4 1.85   5 1.86   2 1.88   1 2.15
  37  0.000  0.901  0.136-   6 1.84   3 1.85   2 1.87
  38  0.250  0.404  0.385-  10 1.84  15 1.84  12 1.89
  39  0.250  0.598  0.614-  10 1.84  15 1.84  11 1.88
  40  0.750  0.598  0.614-  10 1.84  15 1.84  14 1.88
  41  0.750  0.403  0.386-  10 1.84  15 1.84  13 1.89
  42  0.250  0.096  0.615-   9 1.84   8 1.84   4 1.89
  43  0.250  0.902  0.386-   9 1.84   8 1.84   3 1.88
  44  0.750  0.902  0.386-   9 1.84   8 1.84   6 1.88
  45  0.750  0.098  0.614-   9 1.84   8 1.84   5 1.89
  46  0.496  0.406  0.135-  12 1.85  13 1.86  17 1.88   1 2.16
  47  0.500  0.600  0.864-  14 1.84  11 1.85  17 1.87
  48  0.496  0.094  0.865-   4 1.85   5 1.86   7 1.88   1 2.15
  49  0.500  0.901  0.137-   6 1.84   3 1.85   7 1.87

  LATTYP: Found a triclinic cell.
 ALAT       =    15.9195218583
 B/A-ratio  =     0.3498997391
 C/A-ratio  =     0.6085498288
 COS(alpha) =     0.0000215190
 COS(beta)  =     0.3982859387
 COS(gamma) =     0.6999229522

  Lattice vectors:

 A1 = (  -6.2157160646, -11.1414271145,  -9.5217987719)
 A2 = (  -0.0000359141,  -5.5702365153,  -0.0005683870)
 A3 = (  -9.6869849346,  -0.0001330182,  -0.1273727519)

Analysis of symmetry for initial positions (statically):
 Subroutine PRICEL returns:
 Original cell was already a primitive cell.

 Routine SETGRP: Setting up the symmetry group for a
 triclinic supercell.

 Subroutine GETGRP returns: Found  1 space group operations
 (whereof  1 operations were pure point group operations)
 out of a pool of  2 trial point group operations.

The static configuration has the point symmetry C_1 .

Analysis of symmetry for dynamics (positions and initial velocities):
 Subroutine PRICEL returns:
 Original cell was already a primitive cell.

[...]

The dynamic configuration has the point symmetry C_1 .

Analysis of structural, dynamic, and magnetic symmetry:
 Subroutine PRICEL returns:
 Original cell was already a primitive cell.

 Routine SETGRP: Setting up the symmetry group for a
 triclinic supercell.

 Subroutine GETGRP returns: Found  1 space group operations
 (whereof  1 operations were pure point group operations)
 out of a pool of  2 trial point group operations.

The magnetic configuration has the point symmetry C_1 .

 Subroutine INISYM returns: Found  1 space group operations
 (whereof  1 operations are pure point group operations),
 and found     1 'primitive' translations

 KPOINTS: Automatic mesh

Automatic generation of k-mesh.
Space group operators:
 irot       det(A)        alpha          n_x          n_y          n_z        tau_x        tau_y        tau_z
    1     1.000000     0.000000     1.000000     0.000000     0.000000     0.000000     0.000000     0.000000

 Subroutine IBZKPT returns following result:

 Found      1 irreducible k-points:

 Following reciprocal coordinates:
            Coordinates               Weight
  0.000000  0.000000  0.000000      1.000000

 Following cartesian coordinates:
            Coordinates               Weight
  0.000000  0.000000  0.000000      1.000000

 SYSTEM =  unknown system
 POSCAR =  ce17533_1

 Startparameter for this run:
   NWRITE =      1    write-flag & timer
   PREC   = accura    normal or accurate (medium, high low for compatibility)
   ISTART =      0    job   : 0-new  1-cont  2-samecut
   ICHARG =      2    charge: 1-file 2-atom 10-const
   ISPIN  =      2    spin polarized calculation?
   LNONCOLLINEAR =      F non collinear calculations
   LSORBIT =      F    spin-orbit coupling
   INIWAV =      1    electr: 0-lowe 1-rand  2-diag
   LASPH  =      F    aspherical Exc in radial PAW
   METAGGA=      F    non-selfconsistent MetaGGA calc.

 Electronic Relaxation 1
   ENCUT  =  500.0 eV  36.75 Ry    6.06 a.u.  10.16 18.26 17.66*2*pi/ulx,y,z
   ENINI  =  500.0     initial cutoff
   ENAUG  =  628.9 eV  augmentation charge cutoff
   NELM   =     80;   NELMIN=  2; NELMDL= -5     # of ELM steps
   EDIFF  = 0.1E-04   stopping-criterion for ELM
   LREAL  =      T    real-space projection
   NLSPLINE    = F    spline interpolate recip. space projectors
   LCOMPAT=      F    compatible to vasp.4.4
   GGA_COMPAT  = T    GGA compatible to vasp.4.4-vasp.4.6
   LMAXPAW     = -100 max onsite density
   LMAXMIX     =    2 max onsite mixed and CHGCAR
   VOSKOWN=      1    Vosko Wilk Nusair interpolation
   ROPT   =   -0.00025  -0.00025  -0.00025
 Ionic relaxation
   EDIFFG = -.2E-01   stopping-criterion for IOM
   NSW    =     20    number of steps for IOM
   NBLOCK =      1;   KBLOCK =     20    inner block; outer block
   IBRION =      1    ionic relax: 0-MD 1-quasi-New 2-CG
   NFREE  =      0    steps in history (QN), initial steepest desc. (CG)
   ISIF   =      3    stress and relaxation
   IWAVPR =     11    prediction:  0-non 1-charg 2-wave 3-comb
   ISYM   =      2    0-nonsym 1-usesym 2-fastsym
   LCORR  =      T    Harris-Foulkes like correction to forces

   POTIM  = 0.5000    time-step for ionic-motion
   TEIN   =    0.0    initial temperature
[...]
  in kB        0.8603160      0.9151644      1.3724556     -0.0003133      0.0051161     -0.0517830

 VOLUME and BASIS-vectors are now :
  energy-cutoff  :      500.00
  volume of cell :      510.07
      direct lattice vectors                 reciprocal lattice vectors
    -0.000000150  5.571375968  0.000546918    -0.000001086  0.179488876 -0.000015764
    -3.468246617  0.000805677  9.412592098    -0.001398317 -0.000010379  0.105725425
     9.679375873  0.000069803  0.128018787     0.102811411 -0.000003716  0.037882799

  length of vectors
     5.571375995 10.031232489  9.680222420     0.179488876  0.105734672  0.109568666

 FORCES acting on ions
    electron-ion (+dipol)            ewald-force                    non-local-force                 convergence-correction
   0.203E+00 0.169E+00 -.113E+01   -.198E+00 -.157E+00 0.113E+01   -.785E-02 -.146E-01 0.171E-01   0.913E-03 -.421E-04 -.306E-02
   -.123E+02 0.127E+02 0.231E+02   0.127E+02 -.129E+02 -.241E+02   -.336E+00 0.187E+00 0.988E+00   -.605E-02 -.387E-02 -.180E-02
   -.225E+01 0.311E-01 -.348E+02   0.236E+01 -.322E-01 0.347E+02   -.115E+00 0.224E-03 0.100E+00   -.107E-02 0.881E-03 0.746E-02
   0.268E+02 -.541E-01 0.337E+02   -.271E+02 0.566E-01 -.346E+02   0.300E+00 -.131E-02 0.865E+00   0.256E-02 0.139E-02 0.795E-03
   0.436E+01 0.877E-01 -.237E+02   -.448E+01 -.920E-01 0.235E+02   0.108E+00 0.973E-03 0.192E+00   0.189E-02 -.123E-02 0.224E-02
   -.645E+01 -.256E-01 -.286E+02   0.647E+01 0.276E-01 0.286E+02   -.153E-01 -.207E-03 -.171E-01   -.235E-02 -.867E-03 0.881E-02
   -.123E+02 -.127E+02 0.235E+02   0.126E+02 0.129E+02 -.245E+02   -.338E+00 -.189E+00 0.997E+00   -.640E-02 0.398E-02 -.178E-02
   0.227E+01 -.246E+01 -.221E+02   -.237E+01 0.246E+01 0.223E+02   0.923E-01 0.462E-02 -.156E+00   0.433E-02 -.313E-02 0.102E-01
   0.224E+01 0.248E+01 -.221E+02   -.234E+01 -.248E+01 0.222E+02   0.911E-01 -.424E-02 -.155E+00   0.474E-02 0.321E-02 0.101E-01
   -.257E+01 -.231E+01 0.224E+02   0.267E+01 0.230E+01 -.225E+02   -.957E-01 0.548E-02 0.160E+00   -.504E-02 -.474E-02 -.109E-01
   0.229E+01 0.166E-01 0.346E+02   -.241E+01 -.161E-01 -.345E+02   0.116E+00 0.719E-03 -.102E+00   0.167E-02 -.527E-03 -.608E-02
   -.266E+02 0.945E-02 -.334E+02   0.269E+02 -.800E-02 0.343E+02   -.294E+00 -.218E-03 -.858E+00   -.108E-02 -.106E-02 -.432E-03
   -.426E+01 -.406E-03 0.237E+02   0.437E+01 -.142E-02 -.235E+02   -.107E+00 0.100E-02 -.191E+00   0.374E-03 0.100E-02 -.181E-02
   0.657E+01 -.502E-01 0.282E+02   -.659E+01 0.511E-01 -.282E+02   0.184E-01 -.132E-03 0.122E-01   0.155E-02 0.524E-03 -.673E-02
   -.258E+01 0.233E+01 0.223E+02   0.268E+01 -.232E+01 -.224E+02   -.950E-01 -.547E-02 0.158E+00   -.479E-02 0.480E-02 -.109E-01
   0.123E+02 0.126E+02 -.230E+02   -.127E+02 -.127E+02 0.240E+02   0.331E+00 0.184E+00 -.981E+00   0.494E-02 -.380E-02 0.257E-02
   0.123E+02 -.126E+02 -.233E+02   -.126E+02 0.128E+02 0.243E+02   0.333E+00 -.185E+00 -.989E+00   0.460E-02 0.374E-02 0.281E-02
   0.200E+01 0.180E+00 0.402E+03   -.152E+01 -.266E+00 -.429E+03   -.467E+00 0.103E+00 0.270E+02   -.540E-02 -.173E-01 -.118E-01
   -.941E+01 0.228E+01 -.382E+03   0.959E+01 -.281E+01 0.409E+03   -.190E+00 0.516E+00 -.274E+02   0.124E-02 0.132E-01 0.343E-02
   -.225E+01 0.208E+00 -.402E+03   0.180E+01 -.323E+00 0.429E+03   0.454E+00 0.107E+00 -.270E+02   -.336E-02 0.766E-02 -.436E-02
   0.950E+01 0.222E+01 0.382E+03   -.971E+01 -.271E+01 -.409E+03   0.202E+00 0.511E+00 0.274E+02   0.879E-02 -.132E-01 0.152E-01
   0.403E+02 0.480E-01 0.376E+03   -.431E+02 -.513E-01 -.398E+03   0.277E+01 0.386E-02 0.224E+02   0.160E-01 -.611E-03 -.483E-02
   -.627E+01 0.593E-01 -.391E+03   0.621E+01 -.646E-01 0.418E+03   0.652E-01 0.542E-02 -.272E+02   0.242E-02 -.613E-03 -.294E-02
   -.135E+02 0.280E-01 -.383E+03   0.147E+02 -.292E-01 0.411E+03   -.114E+01 0.437E-03 -.275E+02   -.143E-01 0.603E-03 0.247E-02
   0.104E+02 -.931E-01 0.398E+03   -.101E+02 0.960E-01 -.425E+03   -.346E+00 -.326E-02 0.266E+02   -.118E-02 0.588E-03 0.106E-02
   -.405E+02 0.123E+00 -.375E+03   0.433E+02 -.130E+00 0.398E+03   -.281E+01 0.831E-02 -.224E+02   0.466E-02 -.649E-03 -.129E-01
   0.615E+01 -.154E-01 0.391E+03   -.608E+01 0.150E-01 -.418E+03   -.830E-01 0.129E-02 0.272E+02   0.407E-02 -.520E-03 0.125E-01
   0.135E+02 -.490E-01 0.383E+03   -.146E+02 0.541E-01 -.410E+03   0.112E+01 -.476E-02 0.275E+02   -.815E-02 0.561E-03 0.185E-01
   -.103E+02 -.440E-01 -.398E+03   0.992E+01 0.433E-01 0.425E+03   0.349E+00 0.523E-03 -.266E+02   -.615E-02 0.705E-03 -.107E-01
   0.201E+01 -.265E+00 0.402E+03   -.154E+01 0.358E+00 -.429E+03   -.465E+00 -.109E+00 0.270E+02   -.380E-02 0.173E-01 -.127E-01
   -.938E+01 -.222E+01 -.382E+03   0.956E+01 0.274E+01 0.409E+03   -.185E+00 -.513E+00 -.274E+02   -.206E-03 -.132E-01 0.457E-02
   -.227E+01 -.125E+00 -.402E+03   0.181E+01 0.233E+00 0.429E+03   0.452E+00 -.100E+00 -.270E+02   -.345E-02 -.764E-02 -.449E-02
   0.944E+01 -.232E+01 0.382E+03   -.964E+01 0.283E+01 -.409E+03   0.193E+00 -.521E+00 0.274E+02   0.909E-02 0.132E-01 0.158E-01
   -.187E+02 0.287E+02 0.373E+03   0.201E+02 -.308E+02 -.395E+03   -.139E+01 0.204E+01 0.227E+02   -.554E-02 0.127E-01 -.313E-02
   0.118E+02 -.103E+01 -.374E+03   -.133E+02 0.127E+01 0.401E+03   0.146E+01 -.229E+00 -.271E+02   0.102E-01 -.165E-01 0.606E-02
   0.191E+02 0.290E+02 -.373E+03   -.205E+02 -.310E+02 0.395E+03   0.142E+01 0.206E+01 -.227E+02   -.121E-02 -.136E-01 -.148E-01
   -.118E+02 -.116E+01 0.374E+03   0.133E+02 0.139E+01 -.401E+03   -.147E+01 -.235E+00 0.271E+02   -.522E-02 0.815E-02 0.122E-01
   -.520E+01 -.269E-01 0.397E+03   0.505E+01 0.313E-01 -.424E+03   0.158E+00 -.312E-02 0.270E+02   -.492E-02 -.179E-02 -.507E-02
   0.158E+01 0.393E-01 -.376E+03   -.174E+01 -.402E-01 0.403E+03   0.175E+00 0.265E-02 -.273E+02   -.131E-01 -.167E-02 0.758E-02
   0.108E+01 0.206E-01 -.377E+03   -.139E+01 -.244E-01 0.405E+03   0.310E+00 0.236E-02 -.275E+02   0.373E-02 0.169E-02 -.707E-03
   0.456E+00 -.453E-01 0.401E+03   -.438E+00 0.451E-01 -.428E+03   -.215E-01 -.994E-03 0.272E+02   0.123E-01 0.179E-02 -.105E-01
   0.506E+01 0.449E-01 -.397E+03   -.490E+01 -.489E-01 0.424E+03   -.166E+00 0.401E-02 -.270E+02   -.524E-03 0.369E-03 -.371E-02
   -.150E+01 -.487E-01 0.376E+03   0.168E+01 0.530E-01 -.403E+03   -.167E+00 -.410E-02 0.273E+02   -.892E-02 0.193E-03 0.102E-01
   -.100E+01 -.554E-01 0.377E+03   0.129E+01 0.605E-01 -.405E+03   -.291E+00 -.449E-02 0.275E+02   0.241E-02 -.183E-03 0.810E-02
   -.727E+00 0.563E-01 -.401E+03   0.697E+00 -.617E-01 0.428E+03   0.113E-01 0.568E-02 -.272E+02   0.131E-01 -.320E-03 -.837E-02
   -.188E+02 -.289E+02 0.372E+03   0.202E+02 0.310E+02 -.395E+03   -.141E+01 -.206E+01 0.227E+02   -.532E-02 -.128E-01 -.358E-02
   0.118E+02 0.113E+01 -.374E+03   -.133E+02 -.139E+01 0.401E+03   0.147E+01 0.240E+00 -.271E+02   0.985E-02 0.165E-01 0.651E-02
   0.192E+02 -.290E+02 -.372E+03   -.207E+02 0.311E+02 0.395E+03   0.144E+01 -.207E+01 -.227E+02   -.255E-02 0.137E-01 -.151E-01
   -.119E+02 0.110E+01 0.374E+03   0.134E+02 -.132E+01 -.401E+03   -.148E+01 0.233E+00 0.271E+02   -.419E-02 -.815E-02 0.119E-01
   0.282E-01 0.311E-01 -.108E+00   -.675E-13 0.422E-13 0.171E-12   -.333E-01 -.256E-01 0.100E+00   0.114E-02 0.514E-03 0.785E-02

 POSITION                                       TOTAL-FORCE (eV/Angst)
      8.81293      1.39873      2.47899        -0.001288     -0.002541      0.012864
      6.21273      5.56948      9.48233        -0.000803     -0.003304      0.004914
      2.42134      1.39341      0.03315         0.001345     -0.000180     -0.010922
      3.78817      1.39434      9.45292        -0.005591      0.002455      0.001560
      3.79115      4.18024      9.49482        -0.007268     -0.004684      0.000242
     -1.04524      4.17988      9.43725        -0.001483      0.000790     -0.010821
      6.21282      2.79081      9.48172        -0.001924      0.001556      0.005524
      1.37130      5.57138      9.47298        -0.000459     -0.000081     -0.011896
      1.37133      2.78853      9.47263         0.000753     -0.000216     -0.011638
      3.10495      5.57133      4.77761         0.002854     -0.007496      0.015963
      5.52367      1.39416      4.80560         0.000591      0.000610      0.009466
      0.68834      1.39414      4.79642         0.001222      0.000054     -0.001549
      0.68534      4.17991      4.75538         0.005507      0.000053     -0.003237
      5.52197      4.17984      4.81483        -0.001247      0.001147      0.010970
      3.10492      2.78822      4.77740         0.002968      0.007033      0.015554
     -1.73624      5.56921      4.76915         0.002692      0.003398     -0.005729
     -1.73631      2.79059      4.76913         0.002846     -0.002577     -0.006056
      4.75584      0.00075      3.87455         0.000747     -0.000900      0.015204
      1.46241      5.55709      5.69786        -0.003005     -0.000347     -0.003502
      3.18949     -0.00009      0.96368        -0.001492     -0.001073     -0.016052
      3.01393      5.55737      8.55267         0.003873     -0.000486      0.001422
      7.22917      1.39450      3.91793        -0.001286     -0.000191      0.002127
     -0.97501      1.39407      5.71046         0.004737     -0.000582     -0.009229
     -0.97545      4.17990      5.69910         0.003195     -0.000258     -0.007749
      7.19673      4.17997      3.94077        -0.004603      0.000146      0.003340
      0.71530      1.39354      0.92051         0.001666      0.000638     -0.002463
      5.45199      1.39448      8.53971        -0.004688      0.000284      0.008281
      5.45247      4.18034      8.55161        -0.004601      0.000785      0.008150
      0.74772      4.17899      0.89829         0.003123      0.000414     -0.005862
      4.75581      2.78772      3.87493         0.001389      0.001196      0.014740
      1.46243      2.80243      5.69758        -0.002758      0.000083     -0.003490
      3.18961      2.78672      0.96394        -0.002511      0.000843     -0.016365
      3.01392      2.80295      8.55223         0.004364      0.001187      0.003549
     -0.09979      0.02698      3.83836         0.002636      0.000579     -0.003548
      6.28172      0.00218      5.75472         0.006539      0.000734      0.001958
      8.04408      0.02628      0.99846        -0.001171      0.000446      0.005217
     -1.80486      0.00220      8.49673        -0.007948      0.002284     -0.005908
      2.32538      1.39420      3.85498         0.006247     -0.000628      0.007443
      3.87313      1.39394      5.70786         0.002948      0.000054      0.011595
      3.87028      4.17967      5.70861         0.001995      0.000187      0.009475
      2.34030      4.17985      3.84096         0.007946      0.000479      0.009624
      5.61948      1.39343      0.98184        -0.006800      0.000286     -0.008774
      0.60289      1.39427      8.54216        -0.004894      0.000247     -0.009382
      0.60550      4.18001      8.54225        -0.000960      0.000361     -0.012838
      5.60429      4.17907      0.99657        -0.004703     -0.000161     -0.010165
     -0.09983      2.76159      3.83869         0.002572     -0.000774     -0.003454
      6.28163      2.78610      5.75511         0.006416     -0.000265      0.002757
      8.04417      2.76082      0.99856        -0.001715     -0.000235      0.005457
     -1.80476      2.78641      8.49692        -0.007972     -0.001346     -0.006768
    total drift:                               -0.004038      0.006019     -0.000054

  FREE ENERGIE OF THE ION-ELECTRON SYSTEM (eV)
  free  energy   TOTEN  =      -308.4876577895 eV

  energy  without entropy=     -308.4656380707  energy(sigma->0) =     -308.47664793

 d Force = 0.2169790E-03[ 0.180E-03, 0.254E-03]  d Energy = 0.2452418E-03-0.283E-04
 d Force =-0.3452680E+01[-0.345E+01,-0.345E+01]  d Ewald  =-0.8323285E+01 0.487E+01

 Quasi-Newton relaxation of ions (Broydens 2nd method)
  g(Force)  = 0.232E-03   g(Stress)= 0.346E-03

 retain information from N=  2 steps
 eigenvalues of (default step * inverse Hessian matrix)
  average eigenvalue of G=   2.0050
 eigenvalue spectrum of G is  2.0050  2.0050

 reached required accuracy - stopping structural energy minimisation

volume of typ            1:     1.5 %

[...]

volume of typ            3:    10.2 %

total charge

# of ion       s       p       d       tot
    1        2.060   0.193   0.073   2.327
    2        0.306   0.436   7.828   8.569
    3        0.298   0.420   7.828   8.547
    4        0.303   0.428   7.833   8.564
    5        0.296   0.414   7.827   8.537
    6        0.303   0.429   7.827   8.559
    7        0.306   0.436   7.828   8.570
    8        0.305   0.433   7.824   8.562
    9        0.305   0.433   7.824   8.562
   10        0.305   0.433   7.824   8.561
   11        0.298   0.420   7.829   8.548
   12        0.303   0.428   7.833   8.564
   13        0.296   0.414   7.828   8.538
   14        0.303   0.429   7.827   8.559
   15        0.305   0.433   7.824   8.561
   16        0.306   0.436   7.828   8.569
   17        0.306   0.436   7.828   8.570
   18        1.284   2.729   0.008   4.021
   19        1.284   2.727   0.008   4.020
   20        1.284   2.729   0.008   4.021
   21        1.284   2.727   0.008   4.020
   22        1.272   2.760   0.008   4.040
   23        1.284   2.725   0.008   4.018
   24        1.284   2.726   0.008   4.019
   25        1.282   2.734   0.008   4.024
   26        1.272   2.761   0.008   4.040
   27        1.284   2.725   0.008   4.018
   28        1.284   2.726   0.008   4.019
   29        1.282   2.734   0.008   4.024
   30        1.284   2.729   0.008   4.021
   31        1.284   2.727   0.008   4.020
   32        1.284   2.729   0.008   4.021
   33        1.284   2.727   0.008   4.020
   34        1.272   2.763   0.008   4.042
   35        1.284   2.730   0.008   4.022
   36        1.272   2.763   0.008   4.043
   37        1.284   2.730   0.008   4.022
   38        1.283   2.731   0.008   4.022
   39        1.285   2.727   0.008   4.020
   40        1.284   2.730   0.009   4.023
   41        1.284   2.728   0.008   4.020
   42        1.283   2.731   0.008   4.022
   43        1.285   2.727   0.008   4.020
   44        1.284   2.730   0.009   4.023
   45        1.284   2.728   0.008   4.020
   46        1.272   2.763   0.008   4.043
   47        1.284   2.730   0.008   4.022
   48        1.272   2.763   0.008   4.043
   49        1.284   2.730   0.008   4.022
tot          47.92   94.57  125.58  268.06

magnetization (x)

# of ion       s       p       d       tot
    1       -0.003   0.000  -0.000  -0.003
    2        0.000  -0.000   0.008   0.007
    3       -0.000   0.000  -0.098  -0.098
    4       -0.000   0.000  -0.065  -0.065
    5       -0.000   0.000  -0.098  -0.098
    6       -0.000   0.000  -0.056  -0.056
    7        0.000  -0.000   0.008   0.007
    8        0.000  -0.001   0.008   0.007
    9        0.000  -0.001   0.008   0.007
   10        0.000  -0.001   0.008   0.007
   11       -0.000   0.000  -0.097  -0.097
   12       -0.000   0.000  -0.065  -0.065
   13       -0.000   0.000  -0.098  -0.098
   14       -0.000   0.000  -0.056  -0.056
   15        0.000  -0.001   0.008   0.007
   16        0.000  -0.000   0.008   0.007
   17        0.000  -0.000   0.008   0.007
   18       -0.001  -0.000  -0.000  -0.001
   19       -0.001  -0.001  -0.000  -0.002
   20       -0.001  -0.000  -0.000  -0.001
   21       -0.001  -0.001  -0.000  -0.002
   22       -0.001  -0.006  -0.000  -0.007
   23       -0.001  -0.004  -0.000  -0.004
   24       -0.001  -0.007  -0.000  -0.008
   25       -0.001  -0.003  -0.000  -0.003
   26       -0.001  -0.006  -0.000  -0.007
   27       -0.001  -0.004  -0.000  -0.004
   28       -0.001  -0.007  -0.000  -0.008
   29       -0.001  -0.003  -0.000  -0.003
   30       -0.001  -0.000  -0.000  -0.001
   31       -0.001  -0.001  -0.000  -0.002
   32       -0.001  -0.000  -0.000  -0.001
   33       -0.001  -0.001  -0.000  -0.002
   34       -0.001  -0.000  -0.000  -0.001
   35       -0.001  -0.000  -0.000  -0.001
   36       -0.001  -0.000  -0.000  -0.001
   37       -0.001  -0.000  -0.000  -0.001
   38       -0.001  -0.004  -0.000  -0.005
   39       -0.001  -0.007  -0.000  -0.008
   40       -0.001  -0.003  -0.000  -0.003
   41       -0.001  -0.007  -0.000  -0.008
   42       -0.001  -0.004  -0.000  -0.005
   43       -0.001  -0.007  -0.000  -0.008
   44       -0.001  -0.003  -0.000  -0.003
   45       -0.001  -0.007  -0.000  -0.008
   46       -0.001  -0.000  -0.000  -0.001
   47       -0.001  -0.000  -0.000  -0.001
   48       -0.001  -0.000  -0.000  -0.001
   49       -0.001  -0.000  -0.000  -0.001
tot          -0.03   -0.09   -0.57   -0.69