 vasp.5.4.4.18Apr17-6-g9f103f2a35 (build May 12 2020 05:39:39) gamma-only

 MD_VERSION_INFO: Compiled 2020-05-12T12:39:39-UTC in devlin.sd.materialsdesign.
 com:/home/medea2/data/build/wwolf/vasp-gpu5.4.4/13047/x86_64/src/src/build/gam
 from svn 13047

 executed on                        Lin64 date 2023.03.07  03:51:48

 INCAR:
 POTCAR:    PAW_PBE Li_sv 10Sep2004
 POTCAR:    PAW_PBE Ni 02Aug2007
 POTCAR:    PAW_PBE O 08Apr2002

 POTCAR:    PAW_PBE Li_sv 10Sep2004

 POTCAR:    PAW_PBE Ni 02Aug2007

 POTCAR:    PAW_PBE O 08Apr2002

 Optimization of the real space projectors (new method)

 maximal supplied QI-value         = 22.11
 optimisation between [QCUT,QGAM] = [ 11.28, 22.77] = [ 35.61,145.23] Ry
 Optimized for a Real-space Cutoff    1.10 Angstroem

   l    n(q)    QCUT    max X(q) W(low)/X(q) W(high)/X(q)  e(spline)
   0      7    11.276    10.506    0.54E-04    0.58E-04    0.16E-07
   0      7    11.276     8.367    0.11E-03    0.14E-03    0.35E-07
   1      7    11.276     8.983    0.23E-03    0.43E-03    0.86E-07
 Optimization of the real space projectors (new method)

[...]

   l    n(q)    QCUT    max X(q) W(low)/X(q) W(high)/X(q)  e(spline)
   2      9    11.376    60.317    0.17E-03    0.16E-04    0.16E-06
   2      9    11.376    55.921    0.17E-03    0.16E-04    0.17E-06
   0     10    11.376    51.690    0.45E-04    0.60E-04    0.21E-06
   0     10    11.376    30.015    0.37E-04    0.55E-04    0.19E-06
   1     10    11.376    18.849    0.83E-04    0.11E-03    0.92E-07
   1     10    11.376    14.624    0.69E-04    0.92E-04    0.82E-07
 Optimization of the real space projectors (new method)

 maximal supplied QI-value         = 24.76
 optimisation between [QCUT,QGAM] = [ 11.39, 22.77] = [ 36.31,145.25] Ry
 Optimized for a Real-space Cutoff    1.10 Angstroem

   l    n(q)    QCUT    max X(q) W(low)/X(q) W(high)/X(q)  e(spline)
   0      7    11.387    20.381    0.22E-03    0.48E-03    0.18E-06
   0      7    11.387    15.268    0.22E-03    0.52E-03    0.19E-06
   1      7    11.387     5.964    0.22E-03    0.73E-03    0.24E-06
   1      7    11.387     5.382    0.19E-03    0.60E-03    0.21E-06

  PAW_PBE Li_sv 10Sep2004               :
  PAW_PBE Ni 02Aug2007                  :
  PAW_PBE O 08Apr2002                   :

 POSCAR: ce11567_1
  positions in direct lattice
 exchange correlation table for  LEXCH =       14
   RHO(1)=    0.500       N(1)  =     2000
   RHO(2)=  100.500       N(2)  =     4000

 ion  position               nearest neighbor table
   1  0.999  0.250  0.250-  26 2.11  32 2.13  35 2.14  44 2.14  40 2.14  47 2.14
   2  0.221  0.752  0.501-  27 2.02  25 2.05  45 2.19  49 2.19  39 2.22  37 2.25  14 2.81
   3  0.500  0.249  0.249-  38 2.03  52 2.12  32 2.14  35 2.15  44 2.15  47 2.15
   4  0.547  0.751  0.750-  34 2.02  46 2.03  39 2.04  53 2.14  11 2.75  20 2.79
   5  0.997  0.247  0.751-  42 2.03  51 2.13  31 2.14  48 2.14  24 2.15  28 2.15
   6  0.209  0.751  0.002-  43 2.00  41 2.02  29 2.17  33 2.19  55 2.27  22 2.81   8 2.81
   7  0.545  0.752  0.251-  50 2.01  30 2.03  37 2.11  55 2.12  12 2.77  19 2.77
   8  0.999  0.002  0.001-  35 1.85  34 1.86  33 1.86  32 1.86  43 2.05  42 2.06  13 2.76  13 2.78
                             6 2.81  12 2.81  10 2.83   9 2.84  11 2.84
   9  0.250  0.999  0.251-  43 1.83  38 1.84  26 1.84  55 1.85  32 1.91  49 1.92  12 2.77  12 2.77
                            14 2.82  15 2.83  13 2.83   8 2.84
  10  0.249  0.998  0.749-  39 1.83  42 1.83  54 1.84  27 1.85  48 1.90  33 1.95  11 2.77  11 2.77
                            15 2.82   8 2.83  13 2.83  14 2.83
  11  0.749  0.997  0.747-  42 1.83  54 1.84  39 1.86  27 1.86  51 1.90  34 1.90   4 2.75  10 2.77
                            10 2.77  15 2.80  14 2.82  13 2.84   8 2.84
  12  0.751  0.999  0.248-  38 1.83  43 1.85  26 1.85  55 1.87  50 1.89  35 1.91   9 2.77   7 2.77
                             9 2.77   8 2.81  13 2.82  14 2.83  15 2.85
  13  0.500  0.003  0.001-  33 1.85  34 1.85  35 1.86  32 1.88  54 1.95  55 2.02   8 2.76   8 2.78
                            12 2.82  10 2.83   9 2.83  11 2.84
  14  1.000  0.000  0.499-  51 1.85  48 1.85  50 1.86  49 1.87  27 1.96  26 2.00  15 2.76  15 2.78
                             2 2.81   9 2.82  11 2.82  12 2.83  10 2.83
  15  0.501  0.007  0.503-  51 1.84  50 1.84  49 1.85  48 1.85  38 2.08  39 2.12  14 2.76  14 2.78
                            11 2.80  10 2.82   9 2.83  12 2.85
  16  0.999  0.497  0.500-  46 1.86  47 1.86  45 1.86  44 1.87  25 1.97  24 1.99  21 2.76  21 2.78
                            19 2.82  17 2.83  20 2.83  18 2.84
  17  0.250  0.500  0.751-  36 1.84  53 1.84  24 1.84  41 1.84  28 1.92  45 1.96  20 2.77  20 2.77
                            23 2.81  16 2.83  22 2.83  21 2.83
  18  0.249  0.503  0.250-  37 1.84  40 1.84  25 1.84  52 1.84  44 1.93  29 1.95  19 2.77  19 2.77
                            22 2.82  23 2.84  21 2.84  16 2.84
  19  0.750  0.504  0.253-  52 1.84  40 1.84  25 1.86  37 1.86  30 1.91  47 1.93  18 2.77  18 2.77
                             7 2.77  21 2.82  16 2.82  22 2.83  23 2.85
  20  0.750  0.501  0.752-  36 1.83  24 1.84  41 1.86  53 1.86  31 1.91  46 1.91  17 2.77  17 2.77
                             4 2.79  23 2.80  22 2.82  16 2.83  21 2.84
  21  0.501  0.496  0.499-  45 1.84  46 1.85  47 1.85  44 1.87  36 1.97  37 2.05  16 2.76  16 2.78
                            19 2.82  17 2.83  18 2.84  20 2.84
  22  0.999  0.500  0.001-  28 1.84  31 1.84  30 1.86  29 1.87  41 1.95  40 1.99  23 2.77  23 2.77
                             6 2.81  18 2.82  20 2.82  17 2.83  19 2.83
  23  0.500  0.495  0.997-  30 1.85  29 1.85  31 1.85  28 1.86  52 2.00  53 2.02  22 2.77  22 2.77
                            20 2.80  17 2.81  18 2.84  19 2.85
  24  0.999  0.399  0.643-  17 1.84  20 1.84  16 1.99   5 2.15
  25  0.003  0.602  0.365-  18 1.84  19 1.86  16 1.97   2 2.05
  26  0.999  0.102  0.358-   9 1.84  12 1.85  14 2.00   1 2.11
  27  0.002  0.897  0.635-  10 1.85  11 1.86  14 1.96   2 2.02
  28  0.244  0.400  0.885-  22 1.84  23 1.86  17 1.92   5 2.15
  29  0.256  0.600  0.110-  23 1.85  22 1.87  18 1.95   6 2.17
  30  0.745  0.596  0.113-  23 1.85  22 1.86  19 1.91   7 2.03
  31  0.754  0.400  0.884-  22 1.84  23 1.85  20 1.91   5 2.14
  32  0.247  0.101  0.119-   8 1.86  13 1.88   9 1.91   1 2.13   3 2.14
  33  0.251  0.902  0.889-  13 1.85   8 1.86  10 1.95   6 2.19
  34  0.749  0.904  0.885-  13 1.85   8 1.86  11 1.90   4 2.02
  35  0.752  0.100  0.117-   8 1.85  13 1.86  12 1.91   1 2.14   3 2.15
  36  0.501  0.400  0.642-  20 1.83  17 1.84  21 1.97
  37  0.495  0.607  0.360-  18 1.84  19 1.86  21 2.05   7 2.11   2 2.25
  38  0.502  0.106  0.350-  12 1.83   9 1.84   3 2.03  15 2.08
  39  0.495  0.890  0.645-  10 1.83  11 1.86   4 2.04  15 2.12   2 2.22
  40  0.998  0.401  0.143-  18 1.84  19 1.84  22 1.99   1 2.14
  41  0.003  0.600  0.864-  17 1.84  20 1.86  22 1.95   6 2.02
  42  0.998  0.103  0.851-  10 1.83  11 1.83   5 2.03   8 2.06
  43  0.004  0.895  0.143-   9 1.83  12 1.85   6 2.00   8 2.05
  44  0.249  0.399  0.382-  16 1.87  21 1.87  18 1.93   1 2.14   3 2.15
  45  0.253  0.598  0.610-  21 1.84  16 1.86  17 1.96   2 2.19
  46  0.747  0.595  0.614-  21 1.85  16 1.86  20 1.91   4 2.03
  47  0.750  0.399  0.383-  21 1.85  16 1.86  19 1.93   1 2.14   3 2.15
  48  0.246  0.098  0.618-  15 1.85  14 1.85  10 1.90   5 2.14
  49  0.258  0.903  0.388-  15 1.85  14 1.87   9 1.92   2 2.19
  50  0.744  0.906  0.386-  15 1.84  14 1.86  12 1.89   7 2.01
  51  0.753  0.098  0.617-  15 1.84  14 1.85  11 1.90   5 2.13
  52  0.501  0.400  0.144-  19 1.84  18 1.84  23 2.00   3 2.12
  53  0.496  0.604  0.860-  17 1.84  20 1.86  23 2.02   4 2.14
  54  0.501  0.098  0.859-  11 1.84  10 1.84  13 1.95
  55  0.496  0.895  0.139-   9 1.85  12 1.87  13 2.02   7 2.12   6 2.27

  LATTYP: Found a triclinic cell.
 ALAT       =    11.3105683901
 B/A-ratio  =     0.4898102884
 C/A-ratio  =     1.0206884068
 COS(alpha) =     0.0001805027
 COS(beta)  =     0.4851691840
 COS(gamma) =     0.4898131277

  Lattice vectors:

 A1 = (  -9.8602546010,   5.5400457557,  -0.1105872241)
 A2 = (  -0.0000039392,   5.5400327321,  -0.0006084901)
 A3 = (  -6.3159571944,   0.0010179286,  -9.6636270882)

Analysis of symmetry for initial positions (statically):
 Subroutine PRICEL returns:
 Original cell was already a primitive cell.

 Routine SETGRP: Setting up the symmetry group for a
 triclinic supercell.

 Subroutine GETGRP returns: Found  1 space group operations
 (whereof  1 operations were pure point group operations)
 out of a pool of  2 trial point group operations.

The static configuration has the point symmetry C_1 .

Analysis of symmetry for dynamics (positions and initial velocities):
 Subroutine PRICEL returns:
 Original cell was already a primitive cell.

[...]

The dynamic configuration has the point symmetry C_1 .

Analysis of structural, dynamic, and magnetic symmetry:
 Subroutine PRICEL returns:
 Original cell was already a primitive cell.

 Routine SETGRP: Setting up the symmetry group for a
 triclinic supercell.

 Subroutine GETGRP returns: Found  1 space group operations
 (whereof  1 operations were pure point group operations)
 out of a pool of  2 trial point group operations.

The magnetic configuration has the point symmetry C_1 .

 Subroutine INISYM returns: Found  1 space group operations
 (whereof  1 operations are pure point group operations),
 and found     1 'primitive' translations

 KPOINTS: Automatic mesh

Automatic generation of k-mesh.
Space group operators:
 irot       det(A)        alpha          n_x          n_y          n_z        tau_x        tau_y        tau_z
    1     1.000000     0.000000     1.000000     0.000000     0.000000     0.000000     0.000000     0.000000

 Subroutine IBZKPT returns following result:

 Found      1 irreducible k-points:

 Following reciprocal coordinates:
            Coordinates               Weight
  0.000000  0.000000  0.000000      1.000000

 Following cartesian coordinates:
            Coordinates               Weight
  0.000000  0.000000  0.000000      1.000000

 SYSTEM =  unknown system
 POSCAR =  ce11567_1

 Startparameter for this run:
   NWRITE =      1    write-flag & timer
   PREC   = accura    normal or accurate (medium, high low for compatibility)
   ISTART =      0    job   : 0-new  1-cont  2-samecut
   ICHARG =      2    charge: 1-file 2-atom 10-const
   ISPIN  =      2    spin polarized calculation?
   LNONCOLLINEAR =      F non collinear calculations
   LSORBIT =      F    spin-orbit coupling
   INIWAV =      1    electr: 0-lowe 1-rand  2-diag
   LASPH  =      F    aspherical Exc in radial PAW
   METAGGA=      F    non-selfconsistent MetaGGA calc.

 Electronic Relaxation 1
   ENCUT  =  500.0 eV  36.75 Ry    6.06 a.u.  10.10 18.58 17.98*2*pi/ulx,y,z
   ENINI  =  500.0     initial cutoff
   ENAUG  =  628.9 eV  augmentation charge cutoff
   NELM   =     80;   NELMIN=  2; NELMDL= -5     # of ELM steps
   EDIFF  = 0.1E-04   stopping-criterion for ELM
   LREAL  =      T    real-space projection
   NLSPLINE    = F    spline interpolate recip. space projectors
   LCOMPAT=      F    compatible to vasp.4.4
[...]
   -.460E+02 0.122E+02 0.159E+02   0.467E+02 -.123E+02 -.161E+02   -.755E+00 0.295E-01 0.198E+00   0.122E-01 -.465E-02 0.514E-02
   -.209E+02 -.430E+00 -.205E+02   0.210E+02 0.595E+00 0.211E+02   -.177E+00 -.157E+00 -.589E+00   -.321E-02 -.115E-01 0.912E-03
   0.799E+01 -.111E+00 0.239E+01   -.795E+01 0.104E+00 -.191E+01   -.373E-01 -.127E-02 -.478E+00   -.442E-02 0.956E-02 0.600E-02
   -.178E+02 -.139E+02 0.386E+02   0.184E+02 0.141E+02 -.389E+02   -.635E+00 -.171E+00 0.301E+00   0.108E-01 0.370E-02 0.966E-02
   0.207E+02 -.755E+01 -.356E+02   -.217E+02 0.774E+01 0.360E+02   0.103E+01 -.183E+00 -.402E+00   0.185E-01 -.758E-02 0.497E-02
   0.286E+02 0.966E+01 -.145E+02   -.289E+02 -.999E+01 0.147E+02   0.293E+00 0.330E+00 -.217E+00   -.670E-02 0.518E-02 0.697E-02
   -.163E+02 -.754E+01 -.889E+02   0.159E+02 0.774E+01 0.900E+02   0.399E+00 -.193E+00 -.107E+01   -.772E-02 -.760E-02 0.237E-02
   -.478E+02 0.970E+01 0.154E+02   0.485E+02 -.995E+01 -.153E+02   -.727E+00 0.262E+00 -.163E-01   0.140E-01 -.556E-02 -.991E-02
   0.235E+02 0.450E+00 0.237E+02   -.238E+02 -.353E+00 -.245E+02   0.271E+00 -.938E-01 0.713E+00   0.181E-02 -.275E-02 -.135E-02
   0.426E+02 0.125E+02 -.198E+02   -.432E+02 -.125E+02 0.200E+02   0.632E+00 0.324E-02 -.255E+00   -.840E-02 -.340E-02 -.216E-02
   0.146E+02 -.138E+02 -.439E+02   -.152E+02 0.139E+02 0.442E+02   0.565E+00 -.139E+00 -.361E+00   -.852E-02 0.283E-02 -.728E-02
   -.274E+01 -.192E+01 0.340E+01   0.260E+01 0.196E+01 -.400E+01   0.127E+00 -.427E-01 0.605E+00   0.285E-02 0.158E-02 -.750E-02
   -.186E+02 -.817E+01 0.363E+02   0.197E+02 0.833E+01 -.368E+02   -.108E+01 -.168E+00 0.470E+00   0.123E-01 0.339E-02 -.433E-02
   -.308E+02 0.101E+02 0.178E+02   0.312E+02 -.104E+02 -.182E+02   -.406E+00 0.315E+00 0.338E+00   -.210E-01 -.521E-02 -.870E-02
   0.125E+02 -.779E+01 0.862E+02   -.121E+02 0.796E+01 -.872E+02   -.377E+00 -.181E+00 0.102E+01   -.214E-01 0.333E-02 -.224E-02
   0.409E+02 0.375E-01 0.370E+03   -.453E+02 -.148E+00 -.391E+03   0.444E+01 0.900E-01 0.209E+02   -.104E-01 0.194E-01 0.851E-03
   -.854E+01 0.277E+02 -.371E+03   0.917E+01 -.300E+02 0.392E+03   -.664E+00 0.226E+01 -.203E+02   0.245E-01 -.260E-01 0.147E-01
   -.729E+02 0.836E-01 -.360E+03   0.782E+02 -.274E+00 0.381E+03   -.531E+01 0.178E+00 -.204E+02   0.171E-01 0.119E-01 -.421E-02
   0.427E+01 0.283E+02 0.361E+03   -.424E+01 -.308E+02 -.381E+03   0.124E-01 0.247E+01 0.200E+02   -.271E-01 0.517E-02 -.241E-02
   -.151E+02 -.278E+02 0.378E+03   0.152E+02 0.297E+02 -.400E+03   -.875E-01 -.197E+01 0.228E+02   -.948E-03 -.101E-02 0.161E-01
   -.768E+01 0.163E+02 -.333E+03   0.103E+02 -.170E+02 0.352E+03   -.264E+01 0.651E+00 -.189E+02   -.413E-01 0.204E-02 0.193E-02
   0.221E+02 -.235E+02 -.342E+03   -.231E+02 0.251E+02 0.362E+03   0.105E+01 -.163E+01 -.199E+02   -.137E-01 -.226E-03 -.125E-01
   -.128E+02 0.276E+02 0.372E+03   0.127E+02 -.295E+02 -.395E+03   0.240E-01 0.188E+01 0.229E+02   0.218E-01 0.200E-02 0.842E-02
   0.490E+02 0.102E+01 -.338E+03   -.505E+02 -.889E+00 0.356E+03   0.149E+01 -.135E+00 -.178E+02   0.387E-02 -.136E-02 -.732E-02
   0.152E+02 0.216E+02 0.339E+03   -.181E+02 -.230E+02 -.358E+03   0.291E+01 0.136E+01 0.189E+02   0.917E-02 -.484E-04 -.545E-02
   -.161E+02 -.289E+02 0.345E+03   0.171E+02 0.313E+02 -.365E+03   -.104E+01 -.241E+01 0.196E+02   0.134E-01 0.179E-02 -.547E-02
   0.453E+02 -.144E+01 -.334E+03   -.465E+02 0.134E+01 0.352E+03   0.127E+01 0.949E-01 -.183E+02   -.594E-02 0.269E-02 0.169E-02
   0.119E+02 0.958E+00 0.400E+03   -.138E+02 -.951E+00 -.425E+03   0.191E+01 0.105E-01 0.249E+02   -.570E-02 -.190E-01 -.543E-03
   -.417E+02 -.223E+02 -.356E+03   0.468E+02 0.237E+02 0.374E+03   -.510E+01 -.140E+01 -.176E+02   0.196E-01 0.250E-01 0.177E-01
   -.846E+02 0.442E+00 -.366E+03   0.916E+02 -.383E+00 0.386E+03   -.704E+01 -.507E-01 -.196E+02   0.123E-02 -.106E-01 0.299E-02
   0.502E+02 -.219E+02 0.337E+03   -.563E+02 0.234E+02 -.355E+03   0.608E+01 -.146E+01 0.172E+02   -.111E-01 -.627E-02 -.147E-01
   0.653E+02 0.573E+00 0.361E+03   -.701E+02 -.753E+00 -.381E+03   0.480E+01 0.209E+00 0.204E+02   -.249E-01 -.284E-01 -.120E-01
   0.412E+01 0.267E+02 -.360E+03   -.470E+01 -.291E+02 0.380E+03   0.564E+00 0.234E+01 -.200E+02   0.145E-01 0.199E-01 -.532E-02
   -.467E+02 -.119E+00 -.370E+03   0.520E+02 -.475E-01 0.390E+03   -.538E+01 0.163E+00 -.204E+02   0.658E-02 0.418E-02 0.130E-01
   0.102E+02 0.283E+02 0.371E+03   -.110E+02 -.306E+02 -.391E+03   0.782E+00 0.236E+01 0.201E+02   -.192E-02 0.130E-01 -.236E-02
   -.395E+02 -.233E+00 0.336E+03   0.403E+02 0.489E+00 -.354E+03   -.857E+00 -.251E+00 0.181E+02   0.425E-01 -.488E-02 -.829E-02
   -.208E+02 0.211E+02 -.337E+03   0.240E+02 -.224E+02 0.356E+03   -.327E+01 0.128E+01 -.192E+02   0.962E-02 -.255E-02 -.126E-01
   0.108E+02 -.278E+02 -.344E+03   -.114E+02 0.299E+02 0.364E+03   0.701E+00 -.213E+01 -.202E+02   -.170E-01 0.404E-02 -.673E-02
   -.367E+02 -.493E+00 0.331E+03   0.375E+02 0.425E+00 -.350E+03   -.843E+00 0.616E-01 0.186E+02   0.133E-01 0.521E-02 0.745E-02
   0.170E+02 -.287E+02 -.373E+03   -.171E+02 0.307E+02 0.395E+03   0.121E+00 -.197E+01 -.224E+02   -.196E-01 -.186E-01 0.538E-03
   0.597E+00 0.168E+02 0.331E+03   -.269E+01 -.175E+02 -.350E+03   0.210E+01 0.669E+00 0.189E+02   -.292E-02 -.156E-01 0.113E-01
   -.289E+02 -.229E+02 0.339E+03   0.304E+02 0.244E+02 -.358E+03   -.149E+01 -.152E+01 0.198E+02   0.102E-01 0.171E-01 0.401E-02
   0.141E+02 0.277E+02 -.367E+03   -.140E+02 -.294E+02 0.390E+03   -.213E-01 0.173E+01 -.226E+02   -.206E-01 0.199E-01 0.142E-02
   0.712E+02 0.267E+00 0.368E+03   -.767E+02 -.220E+00 -.388E+03   0.552E+01 -.772E-01 0.198E+02   -.240E-01 0.287E-01 -.130E-01
   -.366E+02 -.202E+02 -.343E+03   0.414E+02 0.216E+02 0.362E+03   -.477E+01 -.134E+01 -.182E+02   0.143E-01 -.207E-01 -.262E-02
   -.879E+01 0.534E+00 -.402E+03   0.101E+02 -.478E+00 0.427E+03   -.132E+01 -.534E-01 -.251E+02   0.826E-02 -.389E-02 0.146E-01
   0.402E+02 -.214E+02 0.360E+03   -.450E+02 0.228E+02 -.378E+03   0.472E+01 -.138E+01 0.180E+02   -.396E-02 -.128E-01 -.456E-02
   0.184E+01 -.646E-01 0.103E+00   0.341E-12 -.533E-13 0.171E-12   -.184E+01 0.656E-01 -.100E+00   0.659E-02 -.299E-02 -.575E-02

 POSITION                                       TOTAL-FORCE (eV/Angst)
      1.59139      5.53743      2.43957        -0.001230      0.000738      0.001805
      2.30297      1.20537      7.30244         0.002519     -0.017414     -0.001329
      1.57765      2.76964      2.43825         0.000886     -0.000396      0.001995
      4.75883      3.07324      7.32692        -0.000581      0.041229     -0.000491
      6.51692      5.52365      2.49620        -0.003452     -0.000135     -0.000795
     -2.61589      1.13587      7.22071        -0.003646     -0.017844      0.001323
     -0.16671      3.05250      7.26243        -0.002036      0.029980     -0.000860
      0.00425      5.53774      0.02996         0.003371     -0.000503      0.005796
     -1.03456      1.38152      9.65026         0.003448      0.001352      0.001067
      3.89133      1.37940      9.71354         0.006476     -0.002846      0.002321
      3.87510      4.14805      9.70475         0.004819      0.001434      0.004783
     -1.05174      4.15402      9.64222         0.002752     -0.003233      0.004197
      0.00274      2.77199      0.03876         0.004734     -0.001665      0.003017
      4.92300      5.53986      0.08239         0.004057     -0.001306      0.002306
      4.93830      2.77449      0.13962         0.003577     -0.001657      0.000023
      3.17419      5.53790      4.84869        -0.003909     -0.001590     -0.004752
      5.63672      1.38447      4.91776        -0.002879      0.000870      0.000648
      0.70559      1.37988      4.86887        -0.003985     -0.000870     -0.001041
      0.72365      4.15460      4.87647        -0.003084      0.000657     -0.003855
      5.64800      4.15236      4.92376        -0.002278     -0.001188     -0.002527
      3.17095      2.77143      4.83817        -0.003552      0.000039     -0.002180
     -1.75018      5.53642      4.79753        -0.003809     -0.000420     -0.003900
      8.08159      2.77094      4.90294        -0.004326     -0.000782     -0.000794
      4.94577      5.53550      3.92975         0.002409     -0.000675     -0.002054
      1.46243      0.01520      5.84189        -0.007087     -0.001416     -0.002911
      3.15277      5.53678      1.02524        -0.001678     -0.000653      0.002457
      3.13281      0.01043      8.73784         0.009221     -0.001805     -0.000219
      7.30538      1.35329      3.98563         0.001255      0.000153     -0.000168
     -1.02322      1.41452      5.76528        -0.013667     -0.001652     -0.002332
     -0.98491      4.12521      5.73769        -0.007848      0.000710     -0.002848
      7.31125      4.17912      3.98580         0.004275     -0.001643     -0.000632
      0.81543      1.37479      0.99051        -0.000773     -0.000189      0.003792
      5.61538      1.38982      8.81736         0.012860     -0.002724      0.004787
      5.57311      4.14332      8.83966         0.010080     -0.000460      0.003404
      0.79856      4.16240      0.98851        -0.003082     -0.001983      0.004046
      4.93722      2.77500      3.94873         0.001968     -0.001250     -0.000741
      1.40283      2.74450      5.88466        -0.008099      0.002423     -0.002948
      3.08023      2.78109      1.05997        -0.001941     -0.001588      0.000816
      3.23936      2.73973      8.66600         0.009939      0.000637     -0.000202
      0.01604      5.53184      3.87765         0.001621      0.000031     -0.000958
      6.39138      0.01357      5.89471        -0.007738     -0.001936     -0.002527
      8.04881      5.53282      1.09918        -0.004850      0.000462     -0.000795
     -1.74784      0.01327      8.65478         0.009253     -0.001623      0.003943
      2.36321      1.37593      3.89232         0.004258     -0.000343     -0.002809
      3.90940      1.39992      5.82791        -0.011050     -0.002910     -0.005320
      3.94902      4.14222      5.80364        -0.010051      0.000452     -0.005051
      2.37520      4.15722      3.89162         0.002286     -0.001025     -0.001903
      5.74250      1.36085      1.02852        -0.001840     -0.001593     -0.001274
      0.67008      1.42247      8.75762         0.009202     -0.003348      0.001859
      0.63426      4.11856      8.78194         0.007542      0.000932      0.002380
      5.73095      4.17807      1.02918        -0.002271     -0.000634      0.000342
      0.04410      2.77600      3.86571        -0.000887     -0.000799     -0.000370
      6.33106      2.74863      5.93371        -0.007659      0.001207     -0.004313
      8.09440      2.77558      1.06544        -0.002058     -0.001301     -0.000369
     -1.73851      2.74501      8.63331         0.008543      0.000091      0.006162
    total drift:                                0.004926     -0.001970     -0.003165

  FREE ENERGIE OF THE ION-ELECTRON SYSTEM (eV)
  free  energy   TOTEN  =      -340.2177686021 eV

  energy  without entropy=     -340.2171041022  energy(sigma->0) =     -340.21743635

 d Force = 0.1106009E-03[ 0.107E-03, 0.114E-03]  d Energy = 0.1208385E-03-0.102E-04
 d Force =-0.5994648E+00[-0.600E+00,-0.599E+00]  d Ewald  =-0.6441173E+00 0.447E-01

 Quasi-Newton relaxation of ions (Broydens 2nd method)
  g(Force)  = 0.271E-03   g(Stress)= 0.221E-03

 retain information from N=  2 steps
 eigenvalues of (default step * inverse Hessian matrix)
  average eigenvalue of G=   0.7186
 eigenvalue spectrum of G is  0.2100  1.2272

volume of typ            1:    10.3 %

[...]

volume of typ            3:     9.9 %

total charge

# of ion       s       p       d       tot
    1        2.070   0.218   0.081   2.368
    2        2.065   0.198   0.074   2.338
    3        2.076   0.230   0.086   2.392
    4        2.073   0.226   0.084   2.384
    5        2.067   0.207   0.078   2.353
    6        2.066   0.204   0.077   2.347
    7        2.070   0.221   0.082   2.374
    8        0.273   0.367   7.864   8.504
    9        0.298   0.427   7.845   8.571
   10        0.298   0.425   7.841   8.565
   11        0.296   0.420   7.837   8.554
   12        0.297   0.422   7.842   8.561
   13        0.278   0.375   7.860   8.513
   14        0.280   0.381   7.854   8.515
   15        0.272   0.362   7.868   8.503
   16        0.276   0.374   7.850   8.500
   17        0.296   0.420   7.845   8.561
   18        0.295   0.419   7.853   8.567
   19        0.293   0.414   7.847   8.554
   20        0.295   0.416   7.842   8.553
   21        0.278   0.375   7.859   8.512
   22        0.284   0.391   7.849   8.524
   23        0.276   0.375   7.853   8.503
   24        1.275   2.751   0.007   4.033
   25        1.270   2.762   0.007   4.039
   26        1.274   2.754   0.007   4.035
   27        1.270   2.763   0.007   4.040
   28        1.273   2.752   0.008   4.033
   29        1.267   2.771   0.007   4.044
   30        1.269   2.769   0.007   4.045
   31        1.272   2.757   0.008   4.037
   32        1.263   2.781   0.007   4.051
   33        1.267   2.769   0.007   4.044
   34        1.269   2.770   0.007   4.046
   35        1.262   2.786   0.007   4.055
   36        1.285   2.724   0.008   4.017
   37        1.266   2.773   0.007   4.046
   38        1.274   2.755   0.007   4.037
   39        1.266   2.774   0.006   4.046
   40        1.274   2.754   0.007   4.035
   41        1.270   2.765   0.007   4.043
   42        1.275   2.754   0.007   4.036
   43        1.269   2.766   0.007   4.042
   44        1.263   2.779   0.007   4.049
   45        1.268   2.767   0.007   4.042
   46        1.269   2.768   0.007   4.044
   47        1.262   2.783   0.007   4.052
   48        1.272   2.756   0.008   4.036
   49        1.265   2.775   0.007   4.047
   50        1.267   2.775   0.008   4.049
   51        1.271   2.762   0.008   4.041
   52        1.275   2.752   0.007   4.034
   53        1.268   2.769   0.007   4.043
   54        1.284   2.724   0.008   4.016
   55        1.267   2.771   0.007   4.045
tot          59.71   96.30  126.41  282.42

magnetization (x)

# of ion       s       p       d       tot
    1        0.004   0.004   0.000   0.008
    2       -0.001  -0.000  -0.000  -0.001
    3        0.002   0.006   0.001   0.009
    4        0.002   0.007   0.001   0.010
    5        0.000   0.002  -0.000   0.002
    6        0.000  -0.001  -0.000  -0.000
    7        0.004   0.006   0.000   0.010
    8       -0.001   0.000  -0.328  -0.329
    9       -0.000  -0.000  -0.013  -0.014
   10       -0.001  -0.000  -0.019  -0.020
   11       -0.000  -0.000  -0.036  -0.037
   12       -0.000  -0.000   0.008   0.007
   13        0.001   0.000   0.375   0.376
   14        0.001  -0.000   0.311   0.312
   15        0.005  -0.000   0.560   0.565
   16        0.000  -0.000   0.286   0.287
   17       -0.001   0.000  -0.057  -0.058
   18       -0.000   0.000   0.029   0.028
   19       -0.001   0.000  -0.055  -0.055
   20       -0.001   0.000  -0.006  -0.006
   21        0.001   0.000   0.447   0.448
   22        0.001  -0.000   0.252   0.252
   23        0.002   0.000   0.378   0.380
   24        0.002   0.018   0.000   0.020
   25        0.003   0.031   0.000   0.034
   26        0.003   0.021   0.000   0.025
   27        0.003   0.028   0.000   0.030
   28        0.001   0.003   0.000   0.004
   29        0.001   0.009   0.000   0.011
   30        0.000   0.004   0.000   0.004
   31        0.001   0.005   0.000   0.006
   32       -0.000  -0.004   0.000  -0.005
   33       -0.001   0.000   0.000  -0.001
   34       -0.001  -0.003   0.000  -0.004
   35        0.000  -0.002   0.000  -0.002
   36        0.004   0.071   0.000   0.075
   37        0.004   0.038   0.000   0.042
   38        0.006   0.078   0.000   0.084
   39        0.005   0.072   0.000   0.077
   40        0.002   0.016   0.000   0.018
   41        0.002   0.021   0.000   0.023
   42       -0.004  -0.054  -0.000  -0.058
   43       -0.003  -0.051  -0.000  -0.054
   44        0.003   0.011   0.000   0.014
   45        0.001   0.002   0.000   0.003
   46        0.002   0.013   0.000   0.015
   47        0.002  -0.002   0.000  -0.000
   48        0.002   0.013   0.000   0.015
   49        0.001   0.008   0.000   0.009
   50        0.002   0.015   0.000   0.017
   51        0.001   0.008   0.000   0.010
   52        0.003   0.035   0.000   0.038
   53        0.004   0.037   0.000   0.041
   54        0.004   0.060   0.000   0.064
   55        0.004   0.032   0.000   0.036
tot           0.07    0.56    2.13    2.76