 vasp.5.4.4.18Apr17-6-g9f103f2a35 (build May 12 2020 05:39:39) gamma-only

 MD_VERSION_INFO: Compiled 2020-05-12T12:39:39-UTC in devlin.sd.materialsdesign.
 com:/home/medea2/data/build/wwolf/vasp-gpu5.4.4/13047/x86_64/src/src/build/gam
 from svn 13047

 executed on                        Lin64 date 2023.03.07  03:44:16

 INCAR:
 POTCAR:    PAW_PBE Li_sv 10Sep2004
 POTCAR:    PAW_PBE Ni 02Aug2007
 POTCAR:    PAW_PBE O 08Apr2002

 POTCAR:    PAW_PBE Li_sv 10Sep2004

 POTCAR:    PAW_PBE Ni 02Aug2007

 POTCAR:    PAW_PBE O 08Apr2002

 Optimization of the real space projectors (new method)

 maximal supplied QI-value         = 22.11
 optimisation between [QCUT,QGAM] = [ 11.28, 22.77] = [ 35.61,145.23] Ry
 Optimized for a Real-space Cutoff    1.10 Angstroem

   l    n(q)    QCUT    max X(q) W(low)/X(q) W(high)/X(q)  e(spline)
   0      7    11.276    10.506    0.54E-04    0.58E-04    0.16E-07
   0      7    11.276     8.367    0.11E-03    0.14E-03    0.35E-07
   1      7    11.276     8.983    0.23E-03    0.43E-03    0.86E-07
 Optimization of the real space projectors (new method)

[...]

   l    n(q)    QCUT    max X(q) W(low)/X(q) W(high)/X(q)  e(spline)
   2      9    11.376    60.317    0.17E-03    0.16E-04    0.16E-06
   2      9    11.376    55.921    0.17E-03    0.16E-04    0.17E-06
   0     10    11.376    51.690    0.45E-04    0.60E-04    0.21E-06
   0     10    11.376    30.015    0.37E-04    0.55E-04    0.19E-06
   1     10    11.376    18.849    0.83E-04    0.11E-03    0.92E-07
   1     10    11.376    14.624    0.69E-04    0.92E-04    0.82E-07
 Optimization of the real space projectors (new method)

 maximal supplied QI-value         = 24.76
 optimisation between [QCUT,QGAM] = [ 11.39, 22.77] = [ 36.31,145.25] Ry
 Optimized for a Real-space Cutoff    1.10 Angstroem

   l    n(q)    QCUT    max X(q) W(low)/X(q) W(high)/X(q)  e(spline)
   0      7    11.387    20.381    0.22E-03    0.48E-03    0.18E-06
   0      7    11.387    15.268    0.22E-03    0.52E-03    0.19E-06
   1      7    11.387     5.964    0.22E-03    0.73E-03    0.24E-06
   1      7    11.387     5.382    0.19E-03    0.60E-03    0.21E-06

  PAW_PBE Li_sv 10Sep2004               :
  PAW_PBE Ni 02Aug2007                  :
  PAW_PBE O 08Apr2002                   :

 POSCAR: ce13123_1
  positions in direct lattice
 exchange correlation table for  LEXCH =       14
   RHO(1)=    0.500       N(1)  =     2000
   RHO(2)=  100.500       N(2)  =     4000

 ion  position               nearest neighbor table
   1  0.250  0.250  0.501-  41 2.09  31 2.11  43 2.11  53 2.12  29 2.12  49 2.14  22 2.83  14 2.84

   2  0.250  0.750  0.499-  42 2.09  32 2.11  44 2.11  54 2.12  30 2.12  50 2.14  23 2.83  15 2.84

[...]

   4  0.750  0.250  0.501-  41 2.09  31 2.11  43 2.11  56 2.12  29 2.12  52 2.14  25 2.83  17 2.84

   5  0.500  0.250  0.251-  57 2.05  43 2.09  52 2.13  49 2.13  37 2.14  40 2.14  26 2.83
   6  0.500  0.750  0.749-  58 2.05  44 2.09  51 2.13  50 2.13  38 2.14  39 2.14  26 2.83
   7  0.000  0.249  0.750-  29 2.04  47 2.10  53 2.13  56 2.13  36 2.14  33 2.14  19 2.83
   8  0.000  0.751  0.250-  30 2.04  48 2.10  54 2.13  55 2.13  35 2.14  34 2.14  19 2.83
   9  0.250  0.250  0.001-  45 2.10  37 2.11  47 2.12  59 2.12  57 2.13  33 2.13  23 2.84
  10  0.250  0.750  0.999-  46 2.10  38 2.11  48 2.12  60 2.12  58 2.13  34 2.13  22 2.84
  11  0.750  0.750  0.999-  46 2.10  39 2.11  48 2.12  60 2.12  58 2.13  35 2.13  25 2.84
  12  0.750  0.250  0.001-  45 2.10  40 2.11  47 2.12  59 2.12  57 2.13  36 2.13  24 2.84
  13  0.000  0.000  0.000-  37 1.87  38 1.87  39 1.87  40 1.87  47 2.04  48 2.04  18 2.80  18 2.80
                            14 2.87  15 2.87  16 2.87  17 2.87
  14  0.250  0.000  0.250-  43 1.88  48 1.88  60 1.89  31 1.89  54 2.03  37 2.04  17 2.80  17 2.80
                             1 2.84  18 2.87  13 2.87  20 2.87  19 2.87
  15  0.250  1.000  0.750-  44 1.88  47 1.88  59 1.89  32 1.89  53 2.03  38 2.04  16 2.80  16 2.80
                             2 2.84  18 2.87  13 2.87  20 2.87  19 2.87
  16  0.750  1.000  0.750-  44 1.88  47 1.88  59 1.89  32 1.89  56 2.03  39 2.04  15 2.80  15 2.80
                             3 2.84  18 2.87  13 2.87  20 2.87  19 2.87
  17  0.750  0.000  0.250-  43 1.88  48 1.88  60 1.89  31 1.89  55 2.03  40 2.04  14 2.80  14 2.80
                             4 2.84  18 2.87  13 2.87  20 2.87  19 2.87
  18  0.500  0.000  0.000-  37 1.85  38 1.85  39 1.85  40 1.85  59 1.93  60 1.93  13 2.80  13 2.80
                            17 2.87  14 2.87  15 2.87  16 2.87
  19  0.000  0.000  0.500-  53 1.85  54 1.85  55 1.85  56 1.85  31 1.94  32 1.94  20 2.80  20 2.80
                             7 2.83   8 2.83  14 2.87  15 2.87  16 2.87  17 2.87
  20  0.500  0.000  0.500-  53 1.86  54 1.86  55 1.86  56 1.86  43 2.05  44 2.05  19 2.80  19 2.80
                            14 2.87  15 2.87  16 2.87  17 2.87
  21  0.000  0.500  0.500-  49 1.86  50 1.86  51 1.86  52 1.86  29 2.12  30 2.12  26 2.80  26 2.80
                            22 2.87  23 2.87  24 2.87  25 2.87
  22  0.250  0.499  0.750-  29 1.87  58 1.87  46 1.90  41 1.90  50 2.02  33 2.03  25 2.79  25 2.80
                             1 2.83  10 2.84  27 2.87  21 2.87  28 2.87  26 2.87
  23  0.250  0.501  0.250-  30 1.87  57 1.87  45 1.90  42 1.90  49 2.02  34 2.03  24 2.79  24 2.80
                             2 2.83   9 2.84  27 2.87  21 2.87  28 2.87  26 2.87
  24  0.750  0.501  0.250-  30 1.87  57 1.87  45 1.90  42 1.90  52 2.02  35 2.03  23 2.79  23 2.80
                             3 2.83  12 2.84  27 2.87  21 2.87  28 2.87  26 2.87
  25  0.750  0.499  0.750-  29 1.87  58 1.87  46 1.90  41 1.90  51 2.02  36 2.03  22 2.79  22 2.80
                             4 2.83  11 2.84  27 2.87  21 2.87  28 2.87  26 2.87
  26  0.500  0.500  0.500-  49 1.86  50 1.86  51 1.86  52 1.86  41 1.91  42 1.91  21 2.80  21 2.80
                             5 2.83   6 2.83  25 2.87  22 2.87  23 2.87  24 2.87
  27  0.000  0.500  0.000-  33 1.86  34 1.86  35 1.86  36 1.86  45 1.91  46 1.91  28 2.80  28 2.80
                            22 2.87  23 2.87  24 2.87  25 2.87
  28  0.500  0.500  0.000-  33 1.86  34 1.86  35 1.86  36 1.86  57 2.11  58 2.11  27 2.80  27 2.80
                            22 2.87  23 2.87  24 2.87  25 2.87
  29  0.000  0.388  0.644-  22 1.87  25 1.87   7 2.04   4 2.12   1 2.12  21 2.12
  30  0.000  0.612  0.356-  23 1.87  24 1.87   8 2.04   3 2.12   2 2.12  21 2.12
  31  0.000  0.103  0.370-  14 1.89  17 1.89  19 1.94   4 2.11   1 2.11
  32  0.000  0.897  0.630-  15 1.89  16 1.89  19 1.94   3 2.11   2 2.11
  33  0.250  0.395  0.890-  27 1.86  28 1.86  22 2.03   9 2.13   7 2.14
  34  0.250  0.605  0.110-  27 1.86  28 1.86  23 2.03  10 2.13   8 2.14
  35  0.750  0.605  0.110-  27 1.86  28 1.86  24 2.03  11 2.13   8 2.14
  36  0.750  0.395  0.890-  27 1.86  28 1.86  25 2.03  12 2.13   7 2.14
  37  0.252  0.106  0.110-  18 1.85  13 1.87  14 2.04   9 2.11   5 2.14
  38  0.252  0.894  0.890-  18 1.85  13 1.87  15 2.04  10 2.11   6 2.14
  39  0.748  0.894  0.890-  18 1.85  13 1.87  16 2.04  11 2.11   6 2.14
  40  0.748  0.106  0.110-  18 1.85  13 1.87  17 2.04  12 2.11   5 2.14
  41  0.500  0.396  0.627-  22 1.90  25 1.90  26 1.91   4 2.09   1 2.09
  42  0.500  0.604  0.373-  23 1.90  24 1.90  26 1.91   3 2.09   2 2.09
  43  0.500  0.110  0.363-  14 1.88  17 1.88  20 2.05   5 2.09   1 2.11   4 2.11
  44  0.500  0.890  0.637-  15 1.88  16 1.88  20 2.05   6 2.09   2 2.11   3 2.11
  45  0.000  0.397  0.127-  23 1.90  24 1.90  27 1.91  12 2.10   9 2.10
  46  0.000  0.603  0.873-  22 1.90  25 1.90  27 1.91  11 2.10  10 2.10
  47  0.000  0.109  0.863-  15 1.88  16 1.88  13 2.04   7 2.10  12 2.12   9 2.12
  48  0.000  0.891  0.137-  14 1.88  17 1.88  13 2.04   8 2.10  11 2.12  10 2.12
  49  0.250  0.396  0.389-  26 1.86  21 1.86  23 2.02   5 2.13   1 2.14
  50  0.250  0.604  0.611-  26 1.86  21 1.86  22 2.02   6 2.13   2 2.14
  51  0.750  0.604  0.611-  26 1.86  21 1.86  25 2.02   6 2.13   3 2.14
  52  0.750  0.396  0.389-  26 1.86  21 1.86  24 2.02   5 2.13   4 2.14
  53  0.249  0.105  0.611-  19 1.85  20 1.86  15 2.03   1 2.12   7 2.13
  54  0.249  0.895  0.389-  19 1.85  20 1.86  14 2.03   2 2.12   8 2.13
  55  0.751  0.895  0.389-  19 1.85  20 1.86  17 2.03   3 2.12   8 2.13
  56  0.751  0.105  0.611-  19 1.85  20 1.86  16 2.03   4 2.12   7 2.13
  57  0.500  0.389  0.143-  23 1.87  24 1.87   5 2.05  28 2.11  12 2.13   9 2.13
  58  0.500  0.611  0.857-  22 1.87  25 1.87   6 2.05  28 2.11  11 2.13  10 2.13
  59  0.500  0.102  0.869-  15 1.89  16 1.89  18 1.93  12 2.12   9 2.12
  60  0.500  0.898  0.131-  14 1.89  17 1.89  18 1.93  11 2.12  10 2.12

  LATTYP: Found a simple monoclinic cell.
 ALAT       =    11.3591200086
 B/A-ratio  =     0.4922578440
 C/A-ratio  =     1.6695235087
 COS(beta)  =    -0.8999412393

  Lattice vectors:

 A1 = (  -6.3618669791,   0.0000000000,  -9.4104333539)
 A2 = (   0.0000000000,  -5.5916159247,   0.0000000000)
 A3 = (   2.7083880542,   0.0000000000,  18.7699224097)

Analysis of symmetry for initial positions (statically):
 Subroutine PRICEL returns:
 Original cell was already a primitive cell.

 Routine SETGRP: Setting up the symmetry group for a
 simple monoclinic supercell.

 Subroutine GETGRP returns: Found  4 space group operations
 (whereof  4 operations were pure point group operations)
 out of a pool of  4 trial point group operations.

The static configuration has the point symmetry C_2h.

Analysis of symmetry for dynamics (positions and initial velocities):
 Subroutine PRICEL returns:
 Original cell was already a primitive cell.

[...]

The dynamic configuration has the point symmetry C_2h.

Analysis of structural, dynamic, and magnetic symmetry:
 Subroutine PRICEL returns:
 Original cell was already a primitive cell.

 Routine SETGRP: Setting up the symmetry group for a
 simple monoclinic supercell.

 Subroutine GETGRP returns: Found  4 space group operations
 (whereof  4 operations were pure point group operations)
 out of a pool of  4 trial point group operations.

The magnetic configuration has the point symmetry C_2h.

 Subroutine INISYM returns: Found  4 space group operations
 (whereof  4 operations are pure point group operations),
 and found     1 'primitive' translations

 KPOINTS: Automatic mesh

Automatic generation of k-mesh.
Space group operators:
 irot       det(A)        alpha          n_x          n_y          n_z        tau_x        tau_y        tau_z
    1     1.000000     0.000000     1.000000     0.000000     0.000000     0.000000     0.000000     0.000000
    2    -1.000000     0.000000     1.000000     0.000000     0.000000     0.000000     0.000000     0.000000
    3     1.000000   180.000000     0.000000     1.000000     0.000000     0.000000     0.000000     0.000000
    4    -1.000000   180.000000     0.000000     1.000000     0.000000     0.000000     0.000000     0.000000

 Subroutine IBZKPT returns following result:

 Found      1 irreducible k-points:

 Following reciprocal coordinates:
            Coordinates               Weight
  0.000000  0.000000  0.000000      1.000000

 Following cartesian coordinates:
            Coordinates               Weight
[...]
   -.332E-12 -.250E-13 -.201E-12   -.137E-11 -.111E-12 -.129E-12   0.000E+00 0.000E+00 -.162E-24   0.127E-11 0.185E-12 -.127E-11
   0.457E+00 -.293E+00 0.581E+00   -.482E+00 0.279E+00 -.588E+00   0.987E-02 0.943E-02 0.712E-02   0.436E-02 0.464E-02 0.138E-02
   -.457E+00 -.293E+00 -.581E+00   0.482E+00 0.279E+00 0.588E+00   -.987E-02 0.943E-02 -.712E-02   -.436E-02 0.464E-02 -.138E-02
   -.457E+00 0.293E+00 -.581E+00   0.482E+00 -.279E+00 0.588E+00   -.987E-02 -.943E-02 -.712E-02   -.436E-02 -.464E-02 -.138E-02
   0.457E+00 0.293E+00 0.581E+00   -.482E+00 -.279E+00 -.588E+00   0.987E-02 -.943E-02 0.712E-02   0.436E-02 -.464E-02 0.138E-02
   -.343E-11 0.876E-12 0.371E-11   -.344E-11 -.567E-13 -.154E-11   0.000E+00 0.000E+00 -.355E-25   0.127E-11 -.210E-12 -.119E-11
   -.387E-12 -.169E-16 -.163E-12   0.894E-12 0.116E-12 -.384E-12   0.000E+00 0.000E+00 -.937E-25   -.141E-11 0.175E-13 -.726E-12
   -.264E-11 0.910E-12 -.303E-11   0.151E-11 0.524E-13 -.732E-12   0.000E+00 0.000E+00 0.116E-24   -.147E-11 -.331E-13 -.724E-12
   0.268E+02 -.589E-13 0.267E+03   -.301E+02 -.339E-13 -.279E+03   0.324E+01 0.000E+00 0.120E+02   0.290E-02 -.512E-12 0.240E-02
   -.268E+02 0.384E-13 -.267E+03   0.301E+02 -.228E-13 0.279E+03   -.324E+01 0.000E+00 -.120E+02   -.290E-02 0.424E-12 -.240E-02
   0.364E+02 0.194E-13 -.300E+03   -.382E+02 0.499E-13 0.315E+03   0.181E+01 0.000E+00 -.151E+02   0.259E-02 -.882E-13 0.639E-03
   -.364E+02 -.698E-13 0.300E+03   0.382E+02 0.649E-13 -.315E+03   -.181E+01 0.000E+00 0.151E+02   -.259E-02 0.156E-12 -.639E-03
   0.409E+02 -.405E+02 0.306E+03   -.456E+02 0.430E+02 -.323E+03   0.468E+01 -.247E+01 0.161E+02   0.603E-03 0.814E-03 0.357E-02
   -.409E+02 -.405E+02 -.306E+03   0.456E+02 0.430E+02 0.323E+03   -.468E+01 -.247E+01 -.161E+02   -.603E-03 0.814E-03 -.357E-02
   -.409E+02 0.405E+02 -.306E+03   0.456E+02 -.430E+02 0.323E+03   -.468E+01 0.247E+01 -.161E+02   -.603E-03 -.814E-03 -.357E-02
   0.409E+02 0.405E+02 0.306E+03   -.456E+02 -.430E+02 -.323E+03   0.468E+01 0.247E+01 0.161E+02   0.603E-03 -.814E-03 0.357E-02
   -.436E+02 0.378E+02 -.306E+03   0.484E+02 -.404E+02 0.322E+03   -.479E+01 0.257E+01 -.160E+02   -.945E-03 -.131E-02 0.230E-02
   0.436E+02 0.378E+02 0.306E+03   -.484E+02 -.404E+02 -.322E+03   0.479E+01 0.257E+01 0.160E+02   0.945E-03 -.131E-02 -.230E-02
   0.436E+02 -.378E+02 0.306E+03   -.484E+02 0.404E+02 -.322E+03   0.479E+01 -.257E+01 0.160E+02   0.945E-03 0.131E-02 -.230E-02
   -.436E+02 -.378E+02 -.306E+03   0.484E+02 0.404E+02 0.322E+03   -.479E+01 -.257E+01 -.160E+02   -.945E-03 0.131E-02 0.230E-02
   -.410E+02 0.167E-12 0.298E+03   0.436E+02 -.746E-13 -.313E+03   -.254E+01 0.000E+00 0.147E+02   -.838E-03 0.502E-12 0.460E-02
   0.410E+02 0.741E-13 -.298E+03   -.436E+02 -.987E-14 0.313E+03   0.254E+01 0.000E+00 -.147E+02   0.838E-03 -.454E-12 -.460E-02
   -.153E+02 0.118E-12 -.268E+03   0.180E+02 -.533E-13 0.279E+03   -.278E+01 0.000E+00 -.113E+02   -.324E-03 0.509E-13 0.316E-02
   0.153E+02 0.209E-12 0.268E+03   -.180E+02 -.103E-12 -.279E+03   0.278E+01 0.000E+00 0.113E+02   0.324E-03 -.140E-12 -.316E-02
   -.423E+02 0.622E-13 0.299E+03   0.450E+02 0.715E-13 -.314E+03   -.265E+01 0.000E+00 0.148E+02   -.141E-02 0.138E-12 0.200E-02
   0.423E+02 -.526E-13 -.299E+03   -.450E+02 0.404E-13 0.314E+03   0.265E+01 0.000E+00 -.148E+02   0.141E-02 -.226E-12 -.200E-02
   -.143E+02 -.986E-13 -.269E+03   0.170E+02 0.421E-13 0.280E+03   -.266E+01 0.000E+00 -.113E+02   0.110E-02 -.204E-14 0.338E-02
   0.143E+02 0.151E-13 0.269E+03   -.170E+02 0.706E-13 -.280E+03   0.266E+01 0.000E+00 0.113E+02   -.110E-02 -.134E-12 -.338E-02
   0.419E+02 0.406E+02 0.306E+03   -.466E+02 -.431E+02 -.322E+03   0.473E+01 0.249E+01 0.161E+02   -.131E-02 0.803E-02 0.103E-02
   -.419E+02 0.406E+02 -.306E+03   0.466E+02 -.431E+02 0.322E+03   -.473E+01 0.249E+01 -.161E+02   0.131E-02 0.803E-02 -.103E-02
   -.419E+02 -.406E+02 -.306E+03   0.466E+02 0.431E+02 0.322E+03   -.473E+01 -.249E+01 -.161E+02   0.131E-02 -.803E-02 -.103E-02
   0.419E+02 -.406E+02 0.306E+03   -.466E+02 0.431E+02 -.322E+03   0.473E+01 -.249E+01 0.161E+02   -.131E-02 -.803E-02 0.103E-02
   -.441E+02 -.382E+02 -.305E+03   0.488E+02 0.408E+02 0.321E+03   -.479E+01 -.259E+01 -.160E+02   -.757E-03 -.342E-02 0.204E-02
   0.441E+02 -.382E+02 0.305E+03   -.488E+02 0.408E+02 -.321E+03   0.479E+01 -.259E+01 0.160E+02   0.757E-03 -.342E-02 -.204E-02
   0.441E+02 0.382E+02 0.305E+03   -.488E+02 -.408E+02 -.321E+03   0.479E+01 0.259E+01 0.160E+02   0.757E-03 0.342E-02 -.204E-02
   -.441E+02 0.382E+02 -.305E+03   0.488E+02 -.408E+02 0.321E+03   -.479E+01 0.259E+01 -.160E+02   -.757E-03 0.342E-02 0.204E-02
   0.251E+02 0.575E-13 0.269E+03   -.282E+02 -.552E-13 -.281E+03   0.312E+01 0.000E+00 0.120E+02   -.206E-02 -.992E-13 0.423E-02
   -.251E+02 0.160E-12 -.269E+03   0.282E+02 -.606E-14 0.281E+03   -.312E+01 0.000E+00 -.120E+02   0.206E-02 0.189E-12 -.423E-02
   0.368E+02 0.189E-12 -.301E+03   -.387E+02 -.456E-13 0.316E+03   0.189E+01 0.000E+00 -.151E+02   0.662E-03 -.475E-13 0.446E-02
   -.368E+02 0.881E-13 0.301E+03   0.387E+02 -.292E-13 -.316E+03   -.189E+01 0.000E+00 0.151E+02   -.662E-03 0.171E-12 -.446E-02
   0.987E-11 0.242E-10 0.360E-10   0.298E-12 -.179E-12 -.114E-12   -.266E-14 0.000E+00 0.533E-14   -.129E-11 -.450E-12 -.644E-12

 POSITION                                       TOTAL-FORCE (eV/Angst)
      4.10148      1.39583      2.36715         0.001891      0.002129     -0.000045
      2.25996      1.39583      7.04887        -0.001891      0.002129      0.000045
      2.25996      4.19564      7.04887        -0.001891     -0.002129      0.000045
      4.10148      4.19564      2.36715         0.001891     -0.002129     -0.000045
      1.60255      2.79574      2.35015        -0.000808      0.000000     -0.005898
      4.75889      2.79574      7.06587         0.000808      0.000000      0.005898
      6.60682      0.00000      2.36772         0.006346      0.000000      0.004266
     -0.24538      0.00000      7.04831        -0.006346      0.000000     -0.004266
     -0.90297      1.39871      2.34053        -0.001227     -0.000005      0.000998
      7.26441      1.39871      7.07550         0.001227     -0.000005     -0.000998
      7.26441      4.19276      7.07550         0.001227      0.000005     -0.000998
     -0.90297      4.19276      2.34053        -0.001227      0.000005      0.000998
     -0.00000      0.00000      0.00000         0.000000      0.000000      0.000000
      2.50257      1.39791      0.01658        -0.001651      0.003601     -0.005983
      3.85886      1.39791      9.39945         0.001651      0.003601      0.005983
      3.85886      4.19356      9.39945         0.001651     -0.003601      0.005983
      2.50257      4.19356      0.01658        -0.001651     -0.003601     -0.005983
     -0.00000      2.79574      0.00000         0.000000      0.000000      0.000000
      5.00579      0.00000      0.02653         0.000000      0.000000      0.000000
      5.00579      2.79574      0.02653         0.000000      0.000000      0.000000
      3.18072      0.00000      4.70801         0.000000      0.000000      0.000000
      5.68471      1.39775      4.71689        -0.010136      0.000328      0.001827
      0.67672      1.39775      4.69913         0.010136      0.000328     -0.001827
      0.67672      4.19372      4.69913         0.010136     -0.000328     -0.001827
      5.68471      4.19372      4.71689        -0.010136     -0.000328      0.001827
      3.18072      2.79574      4.70801         0.000000      0.000000      0.000000
     -1.82507      0.00000      4.68148         0.000000      0.000000      0.000000
     -1.82507      2.79574      4.68148         0.000000      0.000000      0.000000
      5.01983      0.00000      3.67776        -0.013597      0.000000      0.009711
      1.34161      0.00000      5.73826         0.013597      0.000000     -0.009711
      3.32357      0.00000      0.98455        -0.002480      0.000000     -0.000915
      3.03787      0.00000      8.43148         0.002480      0.000000      0.000915
      7.46504      1.39609      3.74686         0.001564     -0.002165      0.002329
     -1.10360      1.39609      5.66917        -0.001564     -0.002165     -0.002329
     -1.10360      4.19538      5.66917        -0.001564      0.002165     -0.002329
      7.46504      4.19538      3.74686         0.001564      0.002165      0.002329
      0.71760      1.40576      0.99534         0.000515      0.000747     -0.002947
      5.64384      1.40576      8.42068        -0.000515      0.000747      0.002947
      5.64384      4.18571      8.42068        -0.000515     -0.000747      0.002947
      0.71760      4.18571      0.99534         0.000515     -0.000747     -0.002947
      4.83214      2.79574      3.74365         0.006141      0.000000      0.007584
      1.52930      2.79574      5.67238        -0.006141      0.000000     -0.007584
      3.23030      2.79574      1.04335        -0.001530      0.000000     -0.004195
      3.13114      2.79574      8.37267         0.001530      0.000000      0.004195
     -0.17282      0.00000      3.72389         0.005796      0.000000     -0.002517
      6.53426      0.00000      5.69213        -0.005796      0.000000      0.002517
      8.23952      0.00000      1.06177        -0.004770      0.000000      0.002487
     -1.87808      0.00000      8.35426         0.004770      0.000000     -0.002487
      2.45408      1.39892      3.72514         0.003989      0.005496     -0.005720
      3.90736      1.39892      5.69088        -0.003989      0.005496      0.005720
      3.90736      4.19255      5.69088        -0.003989     -0.005496      0.005720
      2.45408      4.19255      3.72514         0.003989     -0.005496     -0.005720
      5.72763      1.39046      1.01837        -0.003801     -0.001330     -0.000576
      0.63380      1.39046      8.39766         0.003801     -0.001330      0.000576
      0.63380      4.20102      8.39766         0.003801      0.001330      0.000576
      5.72763      4.20102      1.01837        -0.003801      0.001330     -0.000576
      0.00947      2.79574      3.66181        -0.015049      0.000000     -0.003659
      6.35197      2.79574      5.75421         0.015049      0.000000      0.003659
      8.32894      2.79574      1.00561        -0.004545      0.000000     -0.000339
     -1.96750      2.79574      8.41041         0.004545      0.000000      0.000339
    total drift:                                0.000000      0.000000      0.000000

  FREE ENERGIE OF THE ION-ELECTRON SYSTEM (eV)
  free  energy   TOTEN  =      -364.2790142643 eV

  energy  without entropy=     -364.2777910804  energy(sigma->0) =     -364.27840267

 d Force = 0.5724169E-03[ 0.366E-03, 0.779E-03]  d Energy = 0.5520487E-03 0.204E-04
 d Force =-0.8564111E+00[-0.864E+00,-0.849E+00]  d Ewald  =-0.2491419E+01 0.164E+01

 Quasi-Newton relaxation of ions (Broydens 2nd method)
  g(Force)  = 0.135E-03   g(Stress)= 0.191E-05

 retain information from N=  2 steps
 eigenvalues of (default step * inverse Hessian matrix)
  average eigenvalue of G=   1.4763
 eigenvalue spectrum of G is  1.2871  1.6655

 reached required accuracy - stopping structural energy minimisation

volume of typ            1:    17.8 %

[...]

volume of typ            3:     9.9 %

total charge

# of ion       s       p       d       tot
    1        2.078   0.254   0.092   2.425
    2        2.078   0.254   0.092   2.425
    3        2.078   0.254   0.092   2.425
    4        2.078   0.254   0.092   2.425
    5        2.082   0.247   0.094   2.423
    6        2.082   0.247   0.094   2.423
    7        2.082   0.248   0.094   2.424
    8        2.082   0.248   0.094   2.424
    9        2.078   0.254   0.092   2.424
   10        2.078   0.254   0.092   2.424
   11        2.078   0.254   0.092   2.424
   12        2.078   0.254   0.092   2.424
   13        0.267   0.358   7.861   8.487
   14        0.261   0.343   7.864   8.468
   15        0.261   0.343   7.864   8.468
   16        0.261   0.343   7.864   8.468
   17        0.261   0.343   7.864   8.468
   18        0.293   0.410   7.863   8.566
   19        0.292   0.409   7.863   8.565
   20        0.267   0.357   7.862   8.486
   21        0.265   0.350   7.888   8.503
   22        0.262   0.345   7.861   8.468
   23        0.262   0.345   7.861   8.468
   24        0.262   0.345   7.861   8.468
   25        0.262   0.345   7.861   8.468
   26        0.295   0.416   7.858   8.569
   27        0.296   0.417   7.858   8.570
   28        0.265   0.351   7.886   8.502
   29        1.258   2.794   0.006   4.058
   30        1.258   2.794   0.006   4.058
   31        1.262   2.782   0.006   4.050
   32        1.262   2.782   0.006   4.050
   33        1.264   2.775   0.007   4.046
   34        1.264   2.775   0.007   4.046
   35        1.264   2.775   0.007   4.046
   36        1.264   2.775   0.007   4.046
   37        1.264   2.777   0.006   4.047
   38        1.264   2.777   0.006   4.047
   39        1.264   2.777   0.006   4.047
   40        1.264   2.777   0.006   4.047
   41        1.262   2.782   0.006   4.050
   42        1.262   2.782   0.006   4.050
   43        1.257   2.796   0.006   4.059
   44        1.257   2.796   0.006   4.059
   45        1.262   2.782   0.006   4.050
   46        1.262   2.782   0.006   4.050
   47        1.257   2.796   0.006   4.059
   48        1.257   2.796   0.006   4.059
   49        1.264   2.775   0.007   4.046
   50        1.264   2.775   0.007   4.046
   51        1.264   2.775   0.007   4.046
   52        1.264   2.775   0.007   4.046
   53        1.264   2.777   0.006   4.047
   54        1.264   2.777   0.006   4.047
   55        1.264   2.777   0.006   4.047
   56        1.264   2.777   0.006   4.047
   57        1.258   2.794   0.006   4.058
   58        1.258   2.794   0.006   4.058
   59        1.262   2.781   0.006   4.050
   60        1.262   2.781   0.006   4.050
tot          69.67   97.88  127.15  294.69

magnetization (x)

# of ion       s       p       d       tot
    1        0.005   0.017  -0.001   0.021
    2        0.005   0.017  -0.001   0.021
    3        0.005   0.017  -0.001   0.021
    4        0.005   0.017  -0.001   0.021
    5        0.001   0.008  -0.000   0.010
    6        0.001   0.008  -0.000   0.010
    7        0.001   0.008  -0.000   0.009
    8        0.001   0.008  -0.000   0.009
    9        0.005   0.017  -0.001   0.022
   10        0.005   0.017  -0.001   0.022
   11        0.005   0.017  -0.001   0.022
   12        0.005   0.017  -0.001   0.022
   13        0.001  -0.000   0.460   0.461
   14        0.001  -0.000   0.699   0.701
   15        0.001  -0.000   0.699   0.701
   16        0.001  -0.000   0.699   0.701
   17        0.001  -0.000   0.699   0.701
   18       -0.001  -0.000   0.238   0.237
   19       -0.001  -0.000   0.241   0.240
   20        0.002  -0.000   0.473   0.474
   21        0.000  -0.000   0.110   0.110
   22        0.002  -0.000   0.680   0.682
   23        0.002  -0.000   0.680   0.682
   24        0.002  -0.000   0.680   0.682
   25        0.002  -0.000   0.680   0.682
   26       -0.001  -0.000   0.138   0.137
   27       -0.001  -0.000   0.136   0.135
   28        0.000  -0.000   0.117   0.117
   29        0.007   0.025   0.000   0.032
   30        0.007   0.025   0.000   0.032
   31        0.009   0.043   0.000   0.052
   32        0.009   0.043   0.000   0.052
   33        0.006   0.043   0.000   0.049
   34        0.006   0.043   0.000   0.049
   35        0.006   0.043   0.000   0.049
   36        0.006   0.043   0.000   0.049
   37        0.007   0.052   0.000   0.059
   38        0.007   0.052   0.000   0.059
   39        0.007   0.052   0.000   0.059
   40        0.007   0.052   0.000   0.059
   41        0.009   0.046   0.000   0.056
   42        0.009   0.046   0.000   0.056
   43        0.011   0.066   0.000   0.077
   44        0.011   0.066   0.000   0.077
   45        0.009   0.046   0.000   0.055
   46        0.009   0.046   0.000   0.055
   47        0.011   0.063   0.000   0.075
   48        0.011   0.063   0.000   0.075
   49        0.006   0.043   0.000   0.049
   50        0.006   0.043   0.000   0.049
   51        0.006   0.043   0.000   0.049
   52        0.006   0.043   0.000   0.049
   53        0.007   0.052   0.000   0.059
   54        0.007   0.052   0.000   0.059
   55        0.007   0.052   0.000   0.059
   56        0.007   0.052   0.000   0.059
   57        0.007   0.025   0.000   0.032
   58        0.007   0.025   0.000   0.032
   59        0.009   0.042   0.000   0.052
   60        0.009   0.042   0.000   0.052
tot           0.30    1.64    7.43    9.37