 vasp.5.4.4.18Apr17-6-g9f103f2a35 (build May 12 2020 05:39:39) gamma-only

 MD_VERSION_INFO: Compiled 2020-05-12T12:39:39-UTC in devlin.sd.materialsdesign.
 com:/home/medea2/data/build/wwolf/vasp-gpu5.4.4/13047/x86_64/src/src/build/gam
 from svn 13047

 executed on                        Lin64 date 2023.03.07  03:47:41

 INCAR:
 POTCAR:    PAW_PBE Li_sv 10Sep2004
 POTCAR:    PAW_PBE Ni 02Aug2007
 POTCAR:    PAW_PBE O 08Apr2002

 POTCAR:    PAW_PBE Li_sv 10Sep2004

 POTCAR:    PAW_PBE Ni 02Aug2007

 POTCAR:    PAW_PBE O 08Apr2002

 Optimization of the real space projectors (new method)

 maximal supplied QI-value         = 22.11
 optimisation between [QCUT,QGAM] = [ 11.28, 22.77] = [ 35.61,145.23] Ry
 Optimized for a Real-space Cutoff    1.10 Angstroem

   l    n(q)    QCUT    max X(q) W(low)/X(q) W(high)/X(q)  e(spline)
   0      7    11.276    10.506    0.54E-04    0.58E-04    0.16E-07
   0      7    11.276     8.367    0.11E-03    0.14E-03    0.35E-07
   1      7    11.276     8.983    0.23E-03    0.43E-03    0.86E-07
 Optimization of the real space projectors (new method)

[...]

   l    n(q)    QCUT    max X(q) W(low)/X(q) W(high)/X(q)  e(spline)
   2      9    11.376    60.317    0.17E-03    0.16E-04    0.16E-06
   2      9    11.376    55.921    0.17E-03    0.16E-04    0.17E-06
   0     10    11.376    51.690    0.45E-04    0.60E-04    0.21E-06
   0     10    11.376    30.015    0.37E-04    0.55E-04    0.19E-06
   1     10    11.376    18.849    0.83E-04    0.11E-03    0.92E-07
   1     10    11.376    14.624    0.69E-04    0.92E-04    0.82E-07
 Optimization of the real space projectors (new method)

 maximal supplied QI-value         = 24.76
 optimisation between [QCUT,QGAM] = [ 11.39, 22.77] = [ 36.31,145.25] Ry
 Optimized for a Real-space Cutoff    1.10 Angstroem

   l    n(q)    QCUT    max X(q) W(low)/X(q) W(high)/X(q)  e(spline)
   0      7    11.387    20.381    0.22E-03    0.48E-03    0.18E-06
   0      7    11.387    15.268    0.22E-03    0.52E-03    0.19E-06
   1      7    11.387     5.964    0.22E-03    0.73E-03    0.24E-06
   1      7    11.387     5.382    0.19E-03    0.60E-03    0.21E-06

  PAW_PBE Li_sv 10Sep2004               :
  PAW_PBE Ni 02Aug2007                  :
  PAW_PBE O 08Apr2002                   :

 POSCAR: ce4104_1
  positions in direct lattice
 exchange correlation table for  LEXCH =       14
   RHO(1)=    0.500       N(1)  =     2000
   RHO(2)=  100.500       N(2)  =     4000

 ion  position               nearest neighbor table
   1  0.000  0.251  0.251-  25 2.09  39 2.10  43 2.15  46 2.15  34 2.16  31 2.16
   2  0.000  0.749  0.749-  26 2.09  40 2.10  44 2.15  45 2.15  33 2.16  32 2.16
   3  0.500  0.251  0.249-  51 2.13  34 2.15  31 2.15  46 2.15  43 2.15  37 2.15
   4  0.500  0.749  0.751-  52 2.13  33 2.15  32 2.15  45 2.15  44 2.15  38 2.15
   5  0.000  0.249  0.751-  41 2.10  23 2.11  47 2.17  50 2.17  30 2.17  27 2.17
   6  0.000  0.751  0.249-  42 2.10  24 2.11  48 2.17  49 2.17  29 2.17  28 2.17
   7  0.000  0.000  0.000-  31 1.88  32 1.88  33 1.88  34 1.88  41 2.00  42 2.00  12 2.79  12 2.79
                             8 2.81   9 2.81  10 2.81  11 2.81
   8  0.251  0.999  0.250-  42 1.84  37 1.84  54 1.84  25 1.85  48 1.89  31 1.90  11 2.78  11 2.79
                            12 2.81  14 2.81   7 2.81  13 2.82
   9  0.251  0.001  0.750-  41 1.84  38 1.84  53 1.84  26 1.85  47 1.89  32 1.90  10 2.78  10 2.79
                            12 2.81  14 2.81   7 2.81  13 2.82
  10  0.749  0.001  0.750-  41 1.84  38 1.84  53 1.84  26 1.85  50 1.89  33 1.90   9 2.78   9 2.79
                            12 2.81  14 2.81   7 2.81  13 2.82
  11  0.749  0.999  0.250-  42 1.84  37 1.84  54 1.84  25 1.85  49 1.89  34 1.90   8 2.78   8 2.79
                            12 2.81  14 2.81   7 2.81  13 2.82
  12  0.500  0.000  0.000-  31 1.87  32 1.87  33 1.87  34 1.87  53 1.93  54 1.93   7 2.79   7 2.79
                            11 2.81   8 2.81   9 2.81  10 2.81
  13  0.000  0.000  0.500-  47 1.84  48 1.84  49 1.84  50 1.84  25 2.02  26 2.02  14 2.79  14 2.79
                             8 2.82   9 2.82  10 2.82  11 2.82
  14  0.500  0.000  0.500-  47 1.86  48 1.86  49 1.86  50 1.86  37 1.97  38 1.97  13 2.79  13 2.79
                             8 2.81   9 2.81  10 2.81  11 2.81
  15  0.000  0.500  0.500-  43 1.87  44 1.87  45 1.87  46 1.87  23 2.01  24 2.01  20 2.79  20 2.79
                            16 2.81  17 2.81  18 2.81  19 2.81
  16  0.251  0.498  0.749-  23 1.84  35 1.84  52 1.84  40 1.85  27 1.89  44 1.90  19 2.78  19 2.79
                            22 2.81  20 2.81  21 2.81  15 2.81
  17  0.251  0.502  0.251-  24 1.84  36 1.84  51 1.84  39 1.85  28 1.89  43 1.90  18 2.78  18 2.79
                            22 2.81  20 2.81  21 2.81  15 2.81
  18  0.749  0.502  0.251-  24 1.84  36 1.84  51 1.84  39 1.85  29 1.89  46 1.90  17 2.78  17 2.79
                            22 2.81  20 2.81  21 2.81  15 2.81
  19  0.749  0.498  0.749-  23 1.84  35 1.84  52 1.84  40 1.85  30 1.89  45 1.90  16 2.78  16 2.79
                            22 2.81  20 2.81  21 2.81  15 2.81
  20  0.500  0.500  0.500-  43 1.87  44 1.87  45 1.87  46 1.87  35 1.93  36 1.93  15 2.79  15 2.79
                            19 2.81  16 2.81  17 2.81  18 2.81
  21  0.000  0.500  0.000-  27 1.84  28 1.84  29 1.84  30 1.84  39 2.01  40 2.01  22 2.79  22 2.79
                            16 2.81  17 2.81  18 2.81  19 2.81
  22  0.500  0.500  0.000-  27 1.86  28 1.86  29 1.86  30 1.86  51 1.96  52 1.96  21 2.79  21 2.79
                            16 2.81  17 2.81  18 2.81  19 2.81
  23  0.000  0.396  0.642-  16 1.84  19 1.84  15 2.01   5 2.11
  24  0.000  0.604  0.358-  17 1.84  18 1.84  15 2.01   6 2.11
  25  0.000  0.103  0.356-   8 1.85  11 1.85  13 2.02   1 2.09
  26  0.000  0.897  0.644-   9 1.85  10 1.85  13 2.02   2 2.09
  27  0.248  0.403  0.885-  21 1.84  22 1.86  16 1.89   5 2.17
  28  0.248  0.597  0.115-  21 1.84  22 1.86  17 1.89   6 2.17
  29  0.752  0.597  0.115-  21 1.84  22 1.86  18 1.89   6 2.17
  30  0.752  0.403  0.885-  21 1.84  22 1.86  19 1.89   5 2.17
  31  0.251  0.100  0.117-  12 1.87   7 1.88   8 1.90   3 2.15   1 2.16
  32  0.251  0.900  0.883-  12 1.87   7 1.88   9 1.90   4 2.15   2 2.16
  33  0.749  0.900  0.883-  12 1.87   7 1.88  10 1.90   4 2.15   2 2.16
  34  0.749  0.100  0.117-  12 1.87   7 1.88  11 1.90   3 2.15   1 2.16
  35  0.500  0.400  0.637-  16 1.84  19 1.84  20 1.93
  36  0.500  0.600  0.363-  17 1.84  18 1.84  20 1.93
  37  0.500  0.100  0.359-   8 1.84  11 1.84  14 1.97   3 2.15
  38  0.500  0.900  0.641-   9 1.84  10 1.84  14 1.97   4 2.15
  39  0.000  0.399  0.144-  17 1.85  18 1.85  21 2.01   1 2.10
  40  0.000  0.601  0.856-  16 1.85  19 1.85  21 2.01   2 2.10
  41  0.000  0.102  0.858-   9 1.84  10 1.84   7 2.00   5 2.10
  42  0.000  0.898  0.142-   8 1.84  11 1.84   7 2.00   6 2.10
  43  0.251  0.401  0.382-  20 1.87  15 1.87  17 1.90   1 2.15   3 2.15
  44  0.251  0.599  0.618-  20 1.87  15 1.87  16 1.90   2 2.15   4 2.15
  45  0.749  0.599  0.618-  20 1.87  15 1.87  19 1.90   2 2.15   4 2.15
  46  0.749  0.401  0.382-  20 1.87  15 1.87  18 1.90   1 2.15   3 2.15
  47  0.248  0.097  0.615-  13 1.84  14 1.86   9 1.89   5 2.17
  48  0.248  0.903  0.385-  13 1.84  14 1.86   8 1.89   6 2.17
  49  0.752  0.903  0.385-  13 1.84  14 1.86  11 1.89   6 2.17
  50  0.752  0.097  0.615-  13 1.84  14 1.86  10 1.89   5 2.17
  51  0.500  0.401  0.141-  17 1.84  18 1.84  22 1.96   3 2.13
  52  0.500  0.599  0.859-  16 1.84  19 1.84  22 1.96   4 2.13
  53  0.500  0.099  0.863-   9 1.84  10 1.84  12 1.93
  54  0.500  0.901  0.137-   8 1.84  11 1.84  12 1.93

  LATTYP: Found a simple monoclinic cell.
 ALAT       =    11.5120571052
 B/A-ratio  =     0.4839240575
 C/A-ratio  =     1.6881829048
 COS(beta)  =    -0.9076819597

  Lattice vectors:

 A1 = (  -6.2453217345,   0.0000000000,  -9.6707504996)
 A2 = (   0.0000000000,  -5.5709613851,   0.0000000000)
 A3 = (   2.7185668251,   0.0000000000,  19.2433768431)

Analysis of symmetry for initial positions (statically):
 Subroutine PRICEL returns:
 Original cell was already a primitive cell.

 Routine SETGRP: Setting up the symmetry group for a
 simple monoclinic supercell.

 Subroutine GETGRP returns: Found  4 space group operations
 (whereof  4 operations were pure point group operations)
 out of a pool of  4 trial point group operations.

The static configuration has the point symmetry C_2h.

Analysis of symmetry for dynamics (positions and initial velocities):
 Subroutine PRICEL returns:
 Original cell was already a primitive cell.

[...]

The dynamic configuration has the point symmetry C_2h.

Analysis of structural, dynamic, and magnetic symmetry:
 Subroutine PRICEL returns:
 Original cell was already a primitive cell.

 Routine SETGRP: Setting up the symmetry group for a
 simple monoclinic supercell.

 Subroutine GETGRP returns: Found  4 space group operations
 (whereof  4 operations were pure point group operations)
 out of a pool of  4 trial point group operations.

The magnetic configuration has the point symmetry C_2h.

 Subroutine INISYM returns: Found  4 space group operations
 (whereof  4 operations are pure point group operations),
 and found     1 'primitive' translations

 KPOINTS: Automatic mesh

Automatic generation of k-mesh.
Space group operators:
 irot       det(A)        alpha          n_x          n_y          n_z        tau_x        tau_y        tau_z
    1     1.000000     0.000001     1.000000     0.000000     0.000000     0.000000     0.000000     0.000000
    2    -1.000000     0.000001     1.000000     0.000000     0.000000     0.000000     0.000000     0.000000
    3     1.000000   180.000000     0.000000     1.000000     0.000000     0.000000     0.000000     0.000000
    4    -1.000000   180.000000     0.000000     1.000000     0.000000     0.000000     0.000000     0.000000

 Subroutine IBZKPT returns following result:

 Found      1 irreducible k-points:

 Following reciprocal coordinates:
            Coordinates               Weight
  0.000000  0.000000  0.000000      1.000000

 Following cartesian coordinates:
            Coordinates               Weight
  0.000000  0.000000  0.000000      1.000000

 SYSTEM =  unknown system
 POSCAR =  ce4104_1

 Startparameter for this run:
   NWRITE =      1    write-flag & timer
   PREC   = accura    normal or accurate (medium, high low for compatibility)
   ISTART =      0    job   : 0-new  1-cont  2-samecut
   ICHARG =      2    charge: 1-file 2-atom 10-const
   ISPIN  =      2    spin polarized calculation?
   LNONCOLLINEAR =      F non collinear calculations
   LSORBIT =      F    spin-orbit coupling
   INIWAV =      1    electr: 0-lowe 1-rand  2-diag
   LASPH  =      F    aspherical Exc in radial PAW
   METAGGA=      F    non-selfconsistent MetaGGA calc.

 Electronic Relaxation 1
   ENCUT  =  500.0 eV  36.75 Ry    6.06 a.u.  10.16 18.60 17.82*2*pi/ulx,y,z
   ENINI  =  500.0     initial cutoff
   ENAUG  =  628.9 eV  augmentation charge cutoff
   NELM   =     80;   NELMIN=  2; NELMDL= -5     # of ELM steps
   EDIFF  = 0.1E-04   stopping-criterion for ELM
   LREAL  =      T    real-space projection
[...]
   0.146E-12 -.519E-13 -.177E-12   -.121E-12 0.678E-13 0.213E-13   0.000E+00 0.000E+00 0.711E-25   0.181E-11 0.188E-11 -.658E-12
   -.198E+02 -.148E+02 0.399E+02   0.202E+02 0.149E+02 -.408E+02   -.437E+00 -.636E-01 0.898E+00   0.101E-01 0.158E-01 -.417E-02
   0.198E+02 -.148E+02 -.399E+02   -.202E+02 0.149E+02 0.408E+02   0.437E+00 -.636E-01 -.898E+00   -.101E-01 0.158E-01 0.417E-02
   0.198E+02 0.148E+02 -.399E+02   -.202E+02 -.149E+02 0.408E+02   0.437E+00 0.636E-01 -.898E+00   -.101E-01 -.158E-01 0.417E-02
   -.198E+02 0.148E+02 0.399E+02   0.202E+02 -.149E+02 -.408E+02   -.437E+00 0.636E-01 0.898E+00   0.101E-01 -.158E-01 -.417E-02
   -.142E-10 0.952E-12 -.103E-11   -.199E-12 0.453E-14 0.142E-13   0.000E+00 0.000E+00 -.113E-25   0.181E-11 -.197E-11 -.600E-12
   0.152E-11 -.769E-13 0.700E-12   0.711E-14 -.557E-13 -.888E-13   -.775E-25 0.000E+00 -.967E-25   -.272E-11 -.229E-11 0.168E-11
   0.126E-11 0.917E-12 -.149E-11   0.284E-13 -.104E-15 -.959E-13   0.000E+00 0.000E+00 0.808E-26   -.198E-11 0.223E-11 0.187E-11
   0.177E-11 -.702E-13 -.325E-12   -.145E-12 -.121E-12 0.602E-13   -.207E-24 0.000E+00 0.194E-25   0.263E-11 0.270E-12 -.114E-11
   -.188E+02 -.150E+02 0.434E+02   0.192E+02 0.151E+02 -.444E+02   -.404E+00 -.881E-01 0.955E+00   0.475E-01 0.600E-02 0.243E-02
   0.188E+02 -.150E+02 -.434E+02   -.192E+02 0.151E+02 0.444E+02   0.404E+00 -.881E-01 -.955E+00   -.475E-01 0.600E-02 -.243E-02
   0.188E+02 0.150E+02 -.434E+02   -.192E+02 -.151E+02 0.444E+02   0.404E+00 0.881E-01 -.955E+00   -.475E-01 -.600E-02 -.243E-02
   -.188E+02 0.150E+02 0.434E+02   0.192E+02 -.151E+02 -.444E+02   -.404E+00 0.881E-01 0.955E+00   0.475E-01 -.600E-02 0.243E-02
   -.122E-11 0.965E-12 0.373E-11   -.977E-14 -.336E-13 0.659E-13   0.207E-24 0.000E+00 -.646E-26   0.190E-11 -.302E-12 -.162E-11
   -.396E-13 -.508E-13 0.451E-12   0.115E-13 0.815E-13 -.497E-13   0.323E-25 0.000E+00 -.165E-25   -.309E-12 -.614E-12 0.144E-11
   -.126E-11 0.961E-12 -.222E-11   -.604E-13 0.112E-12 0.497E-13   0.000E+00 0.000E+00 -.323E-26   -.674E-12 0.560E-12 0.129E-11
   0.449E+02 -.382E-13 0.380E+03   -.502E+02 0.161E-13 -.401E+03   0.527E+01 0.000E+00 0.211E+02   0.265E-01 -.612E-12 -.138E-01
   -.449E+02 -.143E-12 -.380E+03   0.502E+02 -.180E-13 0.401E+03   -.527E+01 0.000E+00 -.211E+02   -.265E-01 0.128E-11 0.138E-01
   -.635E+02 -.423E-14 -.362E+03   0.689E+02 -.443E-13 0.382E+03   -.542E+01 0.000E+00 -.202E+02   -.140E-02 -.841E-12 -.156E-01
   0.635E+02 -.339E-13 0.362E+03   -.689E+02 -.652E-13 -.382E+03   0.542E+01 0.000E+00 0.202E+02   0.140E-02 -.684E-12 0.156E-01
   -.217E+02 -.310E+02 0.364E+03   0.228E+02 0.333E+02 -.387E+03   -.113E+01 -.228E+01 0.224E+02   0.225E-01 0.549E-02 0.171E-01
   0.217E+02 -.310E+02 -.364E+03   -.228E+02 0.333E+02 0.387E+03   0.113E+01 -.228E+01 -.224E+02   -.225E-01 0.549E-02 -.171E-01
   0.217E+02 0.310E+02 -.364E+03   -.228E+02 -.333E+02 0.387E+03   0.113E+01 0.228E+01 -.224E+02   -.225E-01 -.549E-02 -.171E-01
   -.217E+02 0.310E+02 0.364E+03   0.228E+02 -.333E+02 -.387E+03   -.113E+01 0.228E+01 0.224E+02   0.225E-01 -.549E-02 0.171E-01
   0.359E+02 0.168E+01 -.332E+03   -.377E+02 -.206E+01 0.350E+03   0.178E+01 0.372E+00 -.176E+02   -.841E-03 0.896E-02 -.105E-01
   -.359E+02 0.168E+01 0.332E+03   0.377E+02 -.206E+01 -.350E+03   -.178E+01 0.372E+00 0.176E+02   0.841E-03 0.896E-02 0.105E-01
   -.359E+02 -.168E+01 0.332E+03   0.377E+02 0.206E+01 -.350E+03   -.178E+01 -.372E+00 0.176E+02   0.841E-03 -.896E-02 0.105E-01
   0.359E+02 -.168E+01 -.332E+03   -.377E+02 0.206E+01 0.350E+03   0.178E+01 -.372E+00 -.176E+02   -.841E-03 -.896E-02 -.105E-01
   0.101E+02 0.138E-12 0.403E+03   -.115E+02 -.314E-13 -.429E+03   0.141E+01 0.000E+00 0.256E+02   0.212E-01 0.604E-12 -.134E-01
   -.101E+02 0.195E-12 -.403E+03   0.115E+02 -.144E-13 0.429E+03   -.141E+01 0.000E+00 -.256E+02   -.212E-01 -.131E-11 0.134E-01
   -.672E+02 0.179E-12 -.358E+03   0.719E+02 -.449E-13 0.380E+03   -.470E+01 0.000E+00 -.212E+02   0.146E-01 0.834E-12 -.247E-01
   0.672E+02 0.220E-12 0.358E+03   -.719E+02 -.717E-13 -.380E+03   0.470E+01 0.000E+00 0.212E+02   -.146E-01 0.637E-12 0.247E-01
   0.606E+02 -.123E-12 0.363E+03   -.655E+02 -.472E-13 -.383E+03   0.502E+01 0.000E+00 0.203E+02   -.303E-01 0.331E-12 0.593E-02
   -.606E+02 -.508E-13 -.363E+03   0.655E+02 -.618E-13 0.383E+03   -.502E+01 0.000E+00 -.203E+02   0.303E-01 -.934E-12 -.593E-02
   -.435E+02 -.496E-13 -.379E+03   0.486E+02 -.250E-13 0.400E+03   -.509E+01 0.000E+00 -.210E+02   -.635E-02 0.818E-12 -.333E-02
   0.435E+02 0.812E-14 0.379E+03   -.486E+02 -.181E-13 -.400E+03   0.509E+01 0.000E+00 0.210E+02   0.635E-02 -.891E-14 0.333E-02
   -.342E+02 -.145E+00 0.332E+03   0.358E+02 0.598E-01 -.349E+03   -.159E+01 0.805E-01 0.177E+02   -.141E-01 0.648E-02 -.194E-01
   0.342E+02 -.145E+00 -.332E+03   -.358E+02 0.598E-01 0.349E+03   0.159E+01 0.805E-01 -.177E+02   0.141E-01 0.648E-02 0.194E-01
   0.342E+02 0.145E+00 -.332E+03   -.358E+02 -.598E-01 0.349E+03   0.159E+01 -.805E-01 -.177E+02   0.141E-01 -.648E-02 0.194E-01
   -.342E+02 0.145E+00 0.332E+03   0.358E+02 -.598E-01 -.349E+03   -.159E+01 -.805E-01 0.177E+02   -.141E-01 -.648E-02 -.194E-01
   0.208E+02 -.309E+02 -.363E+03   -.219E+02 0.331E+02 0.385E+03   0.104E+01 -.227E+01 -.224E+02   -.144E-02 0.218E-01 -.152E-01
   -.208E+02 -.309E+02 0.363E+03   0.219E+02 0.331E+02 -.385E+03   -.104E+01 -.227E+01 0.224E+02   0.144E-02 0.218E-01 0.152E-01
   -.208E+02 0.309E+02 0.363E+03   0.219E+02 -.331E+02 -.385E+03   -.104E+01 0.227E+01 0.224E+02   0.144E-02 -.218E-01 0.152E-01
   0.208E+02 0.309E+02 -.363E+03   -.219E+02 -.331E+02 0.385E+03   0.104E+01 0.227E+01 -.224E+02   -.144E-02 -.218E-01 -.152E-01
   0.656E+02 0.231E-12 0.358E+03   -.701E+02 0.440E-14 -.379E+03   0.459E+01 0.000E+00 0.211E+02   -.333E-01 -.336E-12 0.696E-02
   -.656E+02 0.116E-12 -.358E+03   0.701E+02 -.258E-13 0.379E+03   -.459E+01 0.000E+00 -.211E+02   0.333E-01 0.949E-12 -.696E-02
   -.787E+01 0.220E-12 -.404E+03   0.902E+01 -.103E-12 0.429E+03   -.115E+01 0.000E+00 -.256E+02   -.251E-02 -.855E-12 -.799E-02
   0.787E+01 0.159E-12 0.404E+03   -.902E+01 -.649E-13 -.429E+03   0.115E+01 0.000E+00 0.256E+02   0.251E-02 -.904E-13 0.799E-02
   0.672E-10 0.848E-11 0.135E-10   -.995E-13 -.468E-13 0.625E-12   0.000E+00 0.888E-15 -.711E-14   -.588E-11 -.651E-12 0.464E-12

 POSITION                                       TOTAL-FORCE (eV/Angst)
      1.56734      0.00000      2.42886        -0.001455      0.000000     -0.002690
      4.68759      0.00000      7.27040         0.001455      0.000000      0.002690
      1.54884      2.78277      2.42803         0.001544      0.000000     -0.005909
      4.70609      2.78277      7.27123        -0.001544      0.000000      0.005909
      6.45863      0.00000      2.47245        -0.003538      0.000000      0.002029
     -0.20370      0.00000      7.22681         0.003538      0.000000     -0.002029
      0.00000      0.00000      0.00000        -0.000000      0.000000     -0.000000
     -1.07712      1.39559      9.61052         0.001665     -0.006371      0.001838
      7.33205      1.39559      0.08874        -0.001665     -0.006371     -0.001838
      7.33205      4.16995      0.08874        -0.001665      0.006371     -0.001838
     -1.07712      4.16995      9.61052         0.001665      0.006371      0.001838
      0.00000      2.78277      0.00000        -0.000000      0.000000     -0.000000
      4.88816      0.00000      0.05269        -0.000000      0.000000     -0.000000
      4.88816      2.78277      0.05269        -0.000000      0.000000     -0.000000
      3.12747      0.00000      4.84963        -0.000000      0.000000     -0.000000
      5.57337      1.39533      4.85441         0.000607     -0.006954      0.008686
      0.68156      1.39533      4.84485        -0.000607     -0.006954     -0.008686
      0.68156      4.17021      4.84485        -0.000607      0.006954     -0.008686
      5.57337      4.17021      4.85441         0.000607      0.006954      0.008686
      3.12747      2.78277      4.84963        -0.000000      0.000000     -0.000000
     -1.76069      0.00000      4.79694        -0.000000      0.000000     -0.000000
     -1.76069      2.78277      4.79694        -0.000000      0.000000     -0.000000
      4.88189      0.00000      3.87051         0.000790      0.000000      0.011306
      1.37304      0.00000      5.82875        -0.000790      0.000000     -0.011306
      3.12863      0.00000      1.01471        -0.019096      0.000000     -0.001983
      3.12630      0.00000      8.68455         0.019096      0.000000      0.001983
      7.23917      1.37983      3.95477        -0.000242     -0.000710      0.009054
     -0.98424      1.37983      5.74449         0.000242     -0.000710     -0.009054
     -0.98424      4.18571      5.74449         0.000242      0.000710     -0.009054
      7.23917      4.18571      3.95477        -0.000242      0.000710      0.009054
      0.78853      1.39316      0.97115        -0.004938      0.003151     -0.004628
      5.46640      1.39316      8.72811         0.004938      0.003151      0.004628
      5.46640      4.17238      8.72811         0.004938     -0.003151      0.004628
      0.78853      4.17238      0.97115        -0.004938     -0.003151     -0.004628
      4.82376      2.78277      3.90642         0.004432      0.000000      0.008041
      1.43117      2.78277      5.79284        -0.004432      0.000000     -0.008041
      3.15453      2.78277      0.99950         0.002839      0.000000     -0.009763
      3.10040      2.78277      8.69976        -0.002839      0.000000      0.009763
     -0.00636      0.00000      3.84812         0.012886      0.000000     -0.002769
      6.26130      0.00000      5.85114        -0.012886      0.000000      0.002769
      8.02360      0.00000      1.07277        -0.001718      0.000000     -0.002296
     -1.76867      0.00000      8.62649         0.001718      0.000000      0.002296
      2.33386      1.38960      3.88530         0.010025      0.002008     -0.000733
      3.92107      1.38960      5.81396        -0.010025      0.002008      0.000733
      3.92107      4.17594      5.81396        -0.010025     -0.002008      0.000733
      2.33386      4.17594      3.88530         0.010025     -0.002008     -0.000733
      5.67171      1.37941      0.99372        -0.003766     -0.001433     -0.004754
      0.58322      1.37941      8.70554         0.003766     -0.001433      0.004754
      0.58322      4.18613      8.70554         0.003766      0.001433      0.004754
      5.67171      4.18613      0.99372        -0.003766      0.001433     -0.004754
     -0.02613      2.78277      3.86024         0.000481      0.000000     -0.000646
      6.28106      2.78277      5.83901        -0.000481      0.000000      0.000646
      8.08050      2.78277      1.03892        -0.001378      0.000000     -0.000874
     -1.82557      2.78277      8.66034         0.001378      0.000000      0.000874
    total drift:                                0.000000      0.000000      0.000000

  FREE ENERGIE OF THE ION-ELECTRON SYSTEM (eV)
  free  energy   TOTEN  =      -334.8979818879 eV

  energy  without entropy=     -334.8749689759  energy(sigma->0) =     -334.88647543

 d Force = 0.1834223E-03[ 0.147E-03, 0.220E-03]  d Energy = 0.2276018E-03-0.442E-04
 d Force =-0.2846653E+01[-0.285E+01,-0.285E+01]  d Ewald  =-0.4531814E+01 0.169E+01

 Quasi-Newton relaxation of ions (Broydens 2nd method)
  g(Force)  = 0.177E-03   g(Stress)= 0.225E-03

 retain information from N=  1 steps
 eigenvalues of (default step * inverse Hessian matrix)
  average eigenvalue of G=   0.1671
 eigenvalue spectrum of G is  0.1671

 reached required accuracy - stopping structural energy minimisation

volume of typ            1:     8.9 %

[...]

volume of typ            3:     9.9 %

total charge

# of ion       s       p       d       tot
    1        2.070   0.215   0.079   2.364
    2        2.070   0.215   0.079   2.364
    3        2.066   0.208   0.076   2.351
    4        2.066   0.208   0.076   2.351
    5        2.064   0.201   0.076   2.340
    6        2.064   0.201   0.076   2.340
    7        0.269   0.359   7.852   8.480
    8        0.301   0.429   7.845   8.575
    9        0.301   0.429   7.845   8.575
   10        0.301   0.429   7.845   8.575
   11        0.301   0.429   7.845   8.575
   12        0.281   0.385   7.845   8.511
   13        0.284   0.390   7.851   8.525
   14        0.275   0.373   7.831   8.478
   15        0.270   0.361   7.853   8.484
   16        0.301   0.429   7.845   8.575
   17        0.301   0.429   7.845   8.575
   18        0.301   0.429   7.845   8.575
   19        0.301   0.429   7.845   8.575
   20        0.280   0.382   7.846   8.508
   21        0.285   0.392   7.849   8.526
   22        0.275   0.374   7.831   8.480
   23        1.274   2.753   0.007   4.034
   24        1.274   2.753   0.007   4.034
   25        1.274   2.755   0.007   4.036
   26        1.274   2.755   0.007   4.036
   27        1.273   2.757   0.008   4.038
   28        1.273   2.757   0.008   4.038
   29        1.273   2.757   0.008   4.038
   30        1.273   2.757   0.008   4.038
   31        1.263   2.780   0.007   4.051
   32        1.263   2.780   0.007   4.051
   33        1.263   2.780   0.007   4.051
   34        1.263   2.780   0.007   4.051
   35        1.283   2.729   0.008   4.020
   36        1.283   2.729   0.008   4.020
   37        1.274   2.753   0.007   4.034
   38        1.274   2.753   0.007   4.034
   39        1.274   2.755   0.007   4.036
   40        1.274   2.755   0.007   4.036
   41        1.274   2.754   0.007   4.036
   42        1.274   2.754   0.007   4.036
   43        1.263   2.780   0.007   4.051
   44        1.263   2.780   0.007   4.051
   45        1.263   2.780   0.007   4.051
   46        1.263   2.780   0.007   4.051
   47        1.272   2.758   0.008   4.038
   48        1.272   2.758   0.008   4.038
   49        1.272   2.758   0.008   4.038
   50        1.272   2.758   0.008   4.038
   51        1.274   2.755   0.007   4.036
   52        1.274   2.755   0.007   4.036
   53        1.283   2.729   0.008   4.020
   54        1.283   2.729   0.008   4.020
tot          57.73   95.97  126.22  279.91

magnetization (x)

# of ion       s       p       d       tot
    1       -0.000   0.001  -0.000   0.001
    2       -0.000   0.001  -0.000   0.001
    3        0.000   0.001  -0.000   0.001
    4        0.000   0.001  -0.000   0.001
    5        0.000   0.000  -0.000   0.000
    6        0.000   0.000  -0.000   0.000
    7        0.001  -0.000   0.498   0.498
    8       -0.000  -0.000   0.005   0.005
    9       -0.000  -0.000   0.005   0.005
   10       -0.000  -0.000   0.005   0.005
   11       -0.000  -0.000   0.005   0.005
   12       -0.000  -0.000  -0.164  -0.164
   13       -0.003   0.000  -0.445  -0.448
   14        0.001   0.000   0.247   0.248
   15       -0.001   0.000  -0.421  -0.422
   16       -0.000   0.000   0.003   0.003
   17       -0.000   0.000   0.003   0.003
   18       -0.000   0.000   0.003   0.003
   19       -0.000   0.000   0.003   0.003
   20        0.000  -0.000   0.263   0.263
   21        0.002  -0.000   0.416   0.418
   22       -0.001  -0.000  -0.243  -0.244
   23       -0.004  -0.048  -0.000  -0.053
   24       -0.004  -0.048  -0.000  -0.053
   25       -0.005  -0.043  -0.000  -0.048
   26       -0.005  -0.043  -0.000  -0.048
   27        0.000   0.006  -0.000   0.007
   28        0.000   0.006  -0.000   0.007
   29        0.000   0.006  -0.000   0.007
   30        0.000   0.006  -0.000   0.007
   31        0.001   0.008   0.000   0.009
   32        0.001   0.008   0.000   0.009
   33        0.001   0.008   0.000   0.009
   34        0.001   0.008   0.000   0.009
   35        0.002   0.022   0.000   0.024
   36        0.002   0.022   0.000   0.024
   37        0.003   0.018   0.000   0.021
   38        0.003   0.018   0.000   0.021
   39        0.005   0.038   0.000   0.043
   40        0.005   0.038   0.000   0.043
   41        0.004   0.047   0.000   0.051
   42        0.004   0.047   0.000   0.051
   43        0.001   0.001   0.000   0.002
   44        0.001   0.001   0.000   0.002
   45        0.001   0.001   0.000   0.002
   46        0.001   0.001   0.000   0.002
   47       -0.000  -0.006   0.000  -0.007
   48       -0.000  -0.006   0.000  -0.007
   49       -0.000  -0.006   0.000  -0.007
   50       -0.000  -0.006   0.000  -0.007
   51       -0.003  -0.018  -0.000  -0.021
   52       -0.003  -0.018  -0.000  -0.021
   53       -0.002  -0.021  -0.000  -0.023
   54       -0.002  -0.021  -0.000  -0.023
tot           0.01    0.03    0.18    0.23