 vasp.5.4.4.18Apr17-6-g9f103f2a35 (build May 12 2020 05:39:39) gamma-only

 MD_VERSION_INFO: Compiled 2020-05-12T12:39:39-UTC in devlin.sd.materialsdesign.
 com:/home/medea2/data/build/wwolf/vasp-gpu5.4.4/13047/x86_64/src/src/build/gam
 from svn 13047

 executed on                        Lin64 date 2023.03.07  03:47:19

 INCAR:
 POTCAR:    PAW_PBE Li_sv 10Sep2004
 POTCAR:    PAW_PBE Ni 02Aug2007
 POTCAR:    PAW_PBE O 08Apr2002

 POTCAR:    PAW_PBE Li_sv 10Sep2004

 POTCAR:    PAW_PBE Ni 02Aug2007

 POTCAR:    PAW_PBE O 08Apr2002

 Optimization of the real space projectors (new method)

 maximal supplied QI-value         = 22.11
 optimisation between [QCUT,QGAM] = [ 11.28, 22.77] = [ 35.61,145.23] Ry
 Optimized for a Real-space Cutoff    1.10 Angstroem

   l    n(q)    QCUT    max X(q) W(low)/X(q) W(high)/X(q)  e(spline)
   0      7    11.276    10.506    0.54E-04    0.58E-04    0.16E-07
   0      7    11.276     8.367    0.11E-03    0.14E-03    0.35E-07
   1      7    11.276     8.983    0.23E-03    0.43E-03    0.86E-07
 Optimization of the real space projectors (new method)

[...]

   l    n(q)    QCUT    max X(q) W(low)/X(q) W(high)/X(q)  e(spline)
   2      9    11.376    60.317    0.17E-03    0.16E-04    0.16E-06
   2      9    11.376    55.921    0.17E-03    0.16E-04    0.17E-06
   0     10    11.376    51.690    0.45E-04    0.60E-04    0.21E-06
   0     10    11.376    30.015    0.37E-04    0.55E-04    0.19E-06
   1     10    11.376    18.849    0.83E-04    0.11E-03    0.92E-07
   1     10    11.376    14.624    0.69E-04    0.92E-04    0.82E-07
 Optimization of the real space projectors (new method)

 maximal supplied QI-value         = 24.76
 optimisation between [QCUT,QGAM] = [ 11.39, 22.77] = [ 36.31,145.25] Ry
 Optimized for a Real-space Cutoff    1.10 Angstroem

   l    n(q)    QCUT    max X(q) W(low)/X(q) W(high)/X(q)  e(spline)
   0      7    11.387    20.381    0.22E-03    0.48E-03    0.18E-06
   0      7    11.387    15.268    0.22E-03    0.52E-03    0.19E-06
   1      7    11.387     5.964    0.22E-03    0.73E-03    0.24E-06
   1      7    11.387     5.382    0.19E-03    0.60E-03    0.21E-06

  PAW_PBE Li_sv 10Sep2004               :
  PAW_PBE Ni 02Aug2007                  :
  PAW_PBE O 08Apr2002                   :

 POSCAR: ce14588_1
  positions in direct lattice
 exchange correlation table for  LEXCH =       14
   RHO(1)=    0.500       N(1)  =     2000
   RHO(2)=  100.500       N(2)  =     4000

 ion  position               nearest neighbor table
   1  0.199  0.250  0.500-  27 2.03  25 2.04  49 2.11  45 2.12  15 2.79  17 2.80
   2  0.199  0.750  0.500-  28 2.03  26 2.04  50 2.11  46 2.12  15 2.79  17 2.80
   3  0.553  0.250  0.250-  36 2.02  48 2.03  53 2.12  39 2.13  20 2.79  13 2.79
   4  0.553  0.750  0.750-  35 2.02  47 2.03  54 2.12  40 2.13  21 2.79  12 2.79
   5  0.195  0.250  0.000-  43 2.01  41 2.02  33 2.12  29 2.12   9 2.78  23 2.79
   6  0.195  0.750  1.000-  44 2.01  42 2.02  34 2.12  30 2.12   9 2.78  23 2.79
   7  0.553  0.250  0.750-  32 2.02  52 2.03  55 2.12  37 2.12  21 2.79  12 2.79
   8  0.553  0.750  0.250-  31 2.02  51 2.03  56 2.12  38 2.12  20 2.79  13 2.79
   9  1.000  0.000  0.000-  33 1.86  34 1.86  35 1.86  36 1.86  43 1.94  44 1.94  14 2.76  14 2.76
                             6 2.78   5 2.78  13 2.83  12 2.83  11 2.83  10 2.83
  10  0.250  1.000  0.250-  27 1.83  39 1.84  44 1.84  56 1.84  33 2.03  50 2.04  13 2.76  13 2.77
                            14 2.83   9 2.83  16 2.84  15 2.84
  11  0.250  0.000  0.750-  28 1.83  40 1.84  43 1.84  55 1.84  34 2.03  49 2.04  12 2.76  12 2.77
                            14 2.83   9 2.83  16 2.84  15 2.84
  12  0.751  0.000  0.750-  40 1.85  28 1.86  43 1.86  55 1.86  52 1.93  35 1.94  11 2.76  11 2.77
                             7 2.79   4 2.79  15 2.83   9 2.83  16 2.84  14 2.84
  13  0.751  1.000  0.250-  39 1.85  27 1.86  44 1.86  56 1.86  51 1.93  36 1.94  10 2.76  10 2.77
                             8 2.79   3 2.79  15 2.83   9 2.83  16 2.84  14 2.84
  14  0.500  0.000  0.000-  33 1.84  34 1.84  35 1.84  36 1.84  55 2.03  56 2.03   9 2.76   9 2.76
                            11 2.83  10 2.83  13 2.84  12 2.84
  15  0.999  0.000  0.500-  49 1.86  50 1.86  51 1.86  52 1.86  27 1.94  28 1.94  16 2.76  16 2.77
                             2 2.79   1 2.79  13 2.83  12 2.83  11 2.84  10 2.84
  16  0.501  0.000  0.500-  49 1.84  50 1.84  51 1.84  52 1.84  39 2.02  40 2.02  15 2.76  15 2.77
                            12 2.84  13 2.84  10 2.84  11 2.84
  17  0.999  0.500  0.500-  47 1.85  48 1.85  45 1.86  46 1.86  25 1.93  26 1.93  22 2.76  22 2.77
                             2 2.80   1 2.80  21 2.83  20 2.83  19 2.84  18 2.84
  18  0.250  0.501  0.750-  54 1.83  37 1.84  42 1.84  25 1.84  29 2.03  46 2.03  21 2.76  21 2.77
                            24 2.83  22 2.84  23 2.84  17 2.84
  19  0.250  0.499  0.250-  53 1.83  38 1.84  41 1.84  26 1.84  30 2.03  45 2.03  20 2.76  20 2.77
                            24 2.83  22 2.84  23 2.84  17 2.84
  20  0.752  0.500  0.250-  26 1.85  41 1.86  38 1.86  53 1.86  31 1.93  48 1.93  19 2.76  19 2.77
                             8 2.79   3 2.79  23 2.83  17 2.83  24 2.84  22 2.84
  21  0.752  0.500  0.750-  25 1.85  42 1.86  37 1.86  54 1.86  32 1.93  47 1.93  18 2.76  18 2.77
                             7 2.79   4 2.79  23 2.83  17 2.83  24 2.84  22 2.84
  22  0.500  0.500  0.500-  45 1.83  46 1.83  47 1.84  48 1.84  37 2.03  38 2.03  17 2.76  17 2.77
                            19 2.84  18 2.84  21 2.84  20 2.84
  23  0.999  0.500  0.000-  29 1.86  30 1.86  31 1.86  32 1.86  41 1.94  42 1.94  24 2.76  24 2.77
                             6 2.79   5 2.79  21 2.83  20 2.83  19 2.84  18 2.84
  24  0.500  0.500  0.000-  29 1.84  30 1.84  31 1.84  32 1.84  53 2.03  54 2.03  23 2.76  23 2.77
                            18 2.83  19 2.83  20 2.84  21 2.84
  25  0.003  0.403  0.638-  18 1.84  21 1.85  17 1.93   1 2.04
  26  0.003  0.597  0.362-  19 1.84  20 1.85  17 1.93   2 2.04
  27  0.003  0.097  0.361-  10 1.83  13 1.86  15 1.94   1 2.03
  28  0.003  0.903  0.639-  11 1.83  12 1.86  15 1.94   2 2.03
  29  0.252  0.397  0.895-  24 1.84  23 1.86  18 2.03   5 2.12
  30  0.252  0.603  0.105-  24 1.84  23 1.86  19 2.03   6 2.12
  31  0.747  0.597  0.112-  24 1.84  23 1.86  20 1.93   8 2.02
  32  0.747  0.403  0.888-  24 1.84  23 1.86  21 1.93   7 2.02
  33  0.253  0.103  0.106-  14 1.84   9 1.86  10 2.03   5 2.12
  34  0.253  0.897  0.894-  14 1.84   9 1.86  11 2.03   6 2.12
  35  0.748  0.902  0.888-  14 1.84   9 1.86  12 1.94   4 2.02
  36  0.748  0.098  0.112-  14 1.84   9 1.86  13 1.94   3 2.02
  37  0.498  0.398  0.645-  18 1.84  21 1.86  22 2.03   7 2.12
  38  0.498  0.602  0.355-  19 1.84  20 1.86  22 2.03   8 2.12
  39  0.499  0.102  0.356-  10 1.84  13 1.85  16 2.02   3 2.13
  40  0.499  0.898  0.644-  11 1.84  12 1.85  16 2.02   4 2.13
  41  0.003  0.402  0.138-  19 1.84  20 1.86  23 1.94   5 2.02
  42  0.003  0.598  0.862-  18 1.84  21 1.86  23 1.94   6 2.02
  43  0.003  0.098  0.862-  11 1.84  12 1.86   9 1.94   5 2.01
  44  0.003  0.902  0.138-  10 1.84  13 1.86   9 1.94   6 2.01
  45  0.252  0.397  0.395-  22 1.83  17 1.86  19 2.03   1 2.12
  46  0.252  0.603  0.605-  22 1.83  17 1.86  18 2.03   2 2.12
  47  0.748  0.597  0.612-  22 1.84  17 1.85  21 1.93   4 2.03
  48  0.748  0.403  0.388-  22 1.84  17 1.85  20 1.93   3 2.03
  49  0.252  0.103  0.605-  16 1.84  15 1.86  11 2.04   1 2.11
  50  0.252  0.897  0.395-  16 1.84  15 1.86  10 2.04   2 2.11
  51  0.748  0.902  0.388-  16 1.84  15 1.86  13 1.93   8 2.03
  52  0.748  0.098  0.612-  16 1.84  15 1.86  12 1.93   7 2.03
  53  0.498  0.397  0.144-  19 1.83  20 1.86  24 2.03   3 2.12
  54  0.498  0.603  0.856-  18 1.83  21 1.86  24 2.03   4 2.12
  55  0.499  0.103  0.856-  11 1.84  12 1.86  14 2.03   7 2.12
  56  0.499  0.897  0.144-  10 1.84  13 1.86  14 2.03   8 2.12

  LATTYP: Found a simple monoclinic cell.
 ALAT       =    11.7454108066
 B/A-ratio  =     0.4704454321
 C/A-ratio  =     1.6785713636
 COS(beta)  =    -0.9096064801

  Lattice vectors:

 A1 = (  -6.4118511519,   0.0000000000,  -9.8408759681)
 A2 = (   0.0000000000,  -5.5255748624,   0.0000000000)
 A3 = (   2.9268644059,   0.0000000000,  19.4970461483)

Analysis of symmetry for initial positions (statically):
 Subroutine PRICEL returns:
 Original cell was already a primitive cell.

 Routine SETGRP: Setting up the symmetry group for a
 simple monoclinic supercell.

 Subroutine GETGRP returns: Found  2 space group operations
 (whereof  2 operations were pure point group operations)
 out of a pool of  4 trial point group operations.

The static configuration has the point symmetry C_2 .

Analysis of symmetry for dynamics (positions and initial velocities):
 Subroutine PRICEL returns:
 Original cell was already a primitive cell.

[...]

The dynamic configuration has the point symmetry C_2 .

Analysis of structural, dynamic, and magnetic symmetry:
 Subroutine PRICEL returns:
 Original cell was already a primitive cell.

 Routine SETGRP: Setting up the symmetry group for a
 simple monoclinic supercell.

 Subroutine GETGRP returns: Found  2 space group operations
 (whereof  2 operations were pure point group operations)
 out of a pool of  4 trial point group operations.

The magnetic configuration has the point symmetry C_2 .

 Subroutine INISYM returns: Found  2 space group operations
 (whereof  2 operations are pure point group operations),
 and found     1 'primitive' translations

 KPOINTS: Automatic mesh

Automatic generation of k-mesh.
Space group operators:
 irot       det(A)        alpha          n_x          n_y          n_z        tau_x        tau_y        tau_z
    1     1.000000     0.000000     1.000000     0.000000     0.000000     0.000000     0.000000     0.000000
    2     1.000000   180.000000     0.000000     1.000000     0.000000     0.000000     0.000000     0.000000

 Subroutine IBZKPT returns following result:

 Found      1 irreducible k-points:

 Following reciprocal coordinates:
            Coordinates               Weight
  0.000000  0.000000  0.000000      1.000000

 Following cartesian coordinates:
            Coordinates               Weight
  0.000000  0.000000  0.000000      1.000000

 SYSTEM =  unknown system
 POSCAR =  ce14588_1

 Startparameter for this run:
   NWRITE =      1    write-flag & timer
   PREC   = accura    normal or accurate (medium, high low for compatibility)
   ISTART =      0    job   : 0-new  1-cont  2-samecut
   ICHARG =      2    charge: 1-file 2-atom 10-const
   ISPIN  =      2    spin polarized calculation?
   LNONCOLLINEAR =      F non collinear calculations
   LSORBIT =      F    spin-orbit coupling
   INIWAV =      1    electr: 0-lowe 1-rand  2-diag
   LASPH  =      F    aspherical Exc in radial PAW
   METAGGA=      F    non-selfconsistent MetaGGA calc.

 Electronic Relaxation 1
   ENCUT  =  500.0 eV  36.75 Ry    6.06 a.u.  10.07 18.72 18.05*2*pi/ulx,y,z
   ENINI  =  500.0     initial cutoff
   ENAUG  =  628.9 eV  augmentation charge cutoff
   NELM   =     80;   NELMIN=  2; NELMDL= -5     # of ELM steps
   EDIFF  = 0.1E-04   stopping-criterion for ELM
[...]
   0.240E+01 0.211E+02 -.127E+01   -.243E+01 -.211E+02 0.126E+01   0.692E-01 0.670E-01 0.987E-02   -.445E-01 0.324E-02 -.911E-02
   0.234E+01 -.267E+02 -.248E+00   -.236E+01 0.270E+02 0.234E+00   0.756E-01 -.289E+00 0.176E-01   -.500E-01 -.306E-02 -.594E-02
   -.234E+01 -.267E+02 0.248E+00   0.236E+01 0.270E+02 -.234E+00   -.756E-01 -.289E+00 -.176E-01   0.500E-01 -.306E-02 0.594E-02
   0.442E-05 -.220E+02 -.930E-06   0.279E-10 0.221E+02 0.000E+00   0.103E-24 -.107E-01 -.969E-26   0.666E-11 -.974E-02 0.716E-11
   -.301E-05 0.277E+02 0.630E-06   -.139E-11 -.279E+02 0.239E-11   0.000E+00 0.233E+00 0.646E-26   0.282E-10 0.278E-03 -.422E-11
   0.694E-05 -.221E+02 -.146E-05   -.223E-11 0.220E+02 0.384E-11   0.000E+00 -.438E-02 -.646E-26   0.484E-11 -.666E-03 -.463E-11
   -.532E-05 0.279E+02 0.113E-05   0.144E-11 -.281E+02 -.947E-12   0.000E+00 0.197E+00 0.452E-25   0.660E-13 0.645E-02 0.165E-11
   -.107E+01 0.218E+02 0.887E+00   0.111E+01 -.219E+02 -.880E+00   -.319E-01 0.193E-01 -.138E-02   -.487E-02 0.234E-04 -.661E-02
   0.107E+01 0.218E+02 -.887E+00   -.111E+01 -.219E+02 0.880E+00   0.319E-01 0.193E-01 0.138E-02   0.487E-02 0.234E-04 0.661E-02
   0.122E+01 -.277E+02 -.334E+00   -.127E+01 0.280E+02 0.310E+00   0.458E-01 -.234E+00 0.178E-01   0.418E-02 0.248E-03 0.741E-02
   -.122E+01 -.277E+02 0.334E+00   0.127E+01 0.280E+02 -.310E+00   -.458E-01 -.234E+00 -.178E-01   -.418E-02 0.248E-03 -.741E-02
   0.387E-05 -.222E+02 -.822E-06   0.326E-11 0.222E+02 0.228E-12   0.000E+00 0.131E-01 -.129E-25   -.118E-10 -.643E-02 0.150E-11
   -.644E-05 0.280E+02 0.136E-05   -.142E-11 -.282E+02 -.250E-11   0.000E+00 0.216E+00 0.226E-25   -.745E-11 0.522E-02 -.166E-11
   0.265E-05 -.221E+02 -.561E-06   -.215E-11 0.221E+02 -.414E-11   -.202E-27 -.411E-02 0.184E-26   0.193E-11 -.533E-02 0.318E-11
   -.142E+02 0.242E+02 0.359E+03   0.151E+02 -.260E+02 -.379E+03   -.899E+00 0.181E+01 0.203E+02   0.481E-02 0.620E-02 -.385E-02
   0.142E+02 0.242E+02 -.359E+03   -.151E+02 -.260E+02 0.379E+03   0.899E+00 0.181E+01 -.203E+02   -.481E-02 0.620E-02 0.385E-02
   0.117E+02 0.242E+02 -.358E+03   -.123E+02 -.260E+02 0.378E+03   0.640E+00 0.188E+01 -.203E+02   0.160E-01 0.380E-02 -.896E-02
   -.117E+02 0.242E+02 0.358E+03   0.123E+02 -.260E+02 -.378E+03   -.640E+00 0.188E+01 0.203E+02   -.160E-01 0.380E-02 0.896E-02
   0.286E+02 0.144E+02 0.357E+03   -.337E+02 -.151E+02 -.375E+03   0.508E+01 0.732E+00 0.182E+02   -.740E-02 -.699E-02 0.259E-02
   -.286E+02 0.144E+02 -.357E+03   0.337E+02 -.151E+02 0.375E+03   -.508E+01 0.732E+00 -.182E+02   0.740E-02 -.699E-02 -.259E-02
   0.133E+02 -.240E+02 -.358E+03   -.143E+02 0.259E+02 0.378E+03   0.909E+00 -.186E+01 -.202E+02   0.384E-02 0.675E-02 0.101E-02
   -.133E+02 -.240E+02 0.358E+03   0.143E+02 0.259E+02 -.378E+03   -.909E+00 -.186E+01 0.202E+02   -.384E-02 0.675E-02 -.101E-02
   -.290E+02 0.149E+02 -.358E+03   0.340E+02 -.156E+02 0.376E+03   -.501E+01 0.685E+00 -.181E+02   0.262E-01 0.780E-02 0.242E-01
   0.290E+02 0.149E+02 0.358E+03   -.340E+02 -.156E+02 -.376E+03   0.501E+01 0.685E+00 0.181E+02   -.262E-01 0.780E-02 -.242E-01
   -.125E+02 -.244E+02 0.359E+03   0.135E+02 0.262E+02 -.380E+03   -.953E+00 -.185E+01 0.202E+02   -.277E-01 -.772E-02 -.243E-01
   0.125E+02 -.244E+02 -.359E+03   -.135E+02 0.262E+02 0.380E+03   0.953E+00 -.185E+01 -.202E+02   0.277E-01 -.772E-02 0.243E-01
   0.272E+02 -.146E+02 0.357E+03   -.323E+02 0.153E+02 -.376E+03   0.506E+01 -.679E+00 0.183E+02   -.948E-03 -.609E-02 -.135E-02
   -.272E+02 -.146E+02 -.357E+03   0.323E+02 0.153E+02 0.376E+03   -.506E+01 -.679E+00 -.183E+02   0.948E-03 -.609E-02 0.135E-02
   -.289E+02 -.146E+02 -.356E+03   0.339E+02 0.152E+02 0.374E+03   -.504E+01 -.669E+00 -.183E+02   0.139E-01 -.363E-02 -.825E-02
   0.289E+02 -.146E+02 0.356E+03   -.339E+02 0.152E+02 -.374E+03   0.504E+01 -.669E+00 0.183E+02   -.139E-01 -.363E-02 0.825E-02
   -.122E+02 0.243E+02 0.357E+03   0.129E+02 -.261E+02 -.378E+03   -.745E+00 0.183E+01 0.202E+02   0.124E-02 0.642E-02 0.102E-01
   0.122E+02 0.243E+02 -.357E+03   -.129E+02 -.261E+02 0.378E+03   0.745E+00 0.183E+01 -.202E+02   -.124E-02 0.642E-02 -.102E-01
   0.149E+02 0.240E+02 -.359E+03   -.157E+02 -.259E+02 0.379E+03   0.826E+00 0.184E+01 -.203E+02   -.417E-01 0.474E-02 0.664E-02
   -.149E+02 0.240E+02 0.359E+03   0.157E+02 -.259E+02 -.379E+03   -.826E+00 0.184E+01 0.203E+02   0.417E-01 0.474E-02 -.664E-02
   0.283E+02 0.146E+02 0.357E+03   -.333E+02 -.153E+02 -.375E+03   0.507E+01 0.725E+00 0.182E+02   -.539E-03 0.477E-02 0.821E-03
   -.283E+02 0.146E+02 -.357E+03   0.333E+02 -.153E+02 0.375E+03   -.507E+01 0.725E+00 -.182E+02   0.539E-03 0.477E-02 -.821E-03
   0.138E+02 -.241E+02 -.358E+03   -.148E+02 0.260E+02 0.379E+03   0.942E+00 -.187E+01 -.204E+02   -.322E-02 -.475E-02 0.148E-02
   -.138E+02 -.241E+02 0.358E+03   0.148E+02 0.260E+02 -.379E+03   -.942E+00 -.187E+01 0.204E+02   0.322E-02 -.475E-02 -.148E-02
   -.286E+02 0.147E+02 -.357E+03   0.336E+02 -.154E+02 0.375E+03   -.499E+01 0.689E+00 -.180E+02   -.606E-02 -.229E-02 -.140E-01
   0.286E+02 0.147E+02 0.357E+03   -.336E+02 -.154E+02 -.375E+03   0.499E+01 0.689E+00 0.180E+02   0.606E-02 -.229E-02 0.140E-01
   -.129E+02 -.242E+02 0.358E+03   0.138E+02 0.261E+02 -.378E+03   -.893E+00 -.190E+01 0.200E+02   0.900E-02 0.187E-02 0.123E-01
   0.129E+02 -.242E+02 -.358E+03   -.138E+02 0.261E+02 0.378E+03   0.893E+00 -.190E+01 -.200E+02   -.900E-02 0.187E-02 -.123E-01
   0.296E+02 -.146E+02 0.356E+03   -.348E+02 0.153E+02 -.374E+03   0.517E+01 -.700E+00 0.182E+02   0.781E-02 -.641E-02 0.737E-02
   -.296E+02 -.146E+02 -.356E+03   0.348E+02 0.153E+02 0.374E+03   -.517E+01 -.700E+00 -.182E+02   -.781E-02 -.641E-02 -.737E-02
   -.242E+02 -.148E+02 -.358E+03   0.290E+02 0.155E+02 0.377E+03   -.478E+01 -.697E+00 -.186E+02   -.324E-01 -.437E-02 0.229E-04
   0.242E+02 -.148E+02 0.358E+03   -.290E+02 0.155E+02 -.377E+03   0.478E+01 -.697E+00 0.186E+02   0.324E-01 -.437E-02 -.229E-04
   0.407E-04 0.149E+00 -.589E-05   0.199E-12 -.284E-13 0.796E-12   0.000E+00 -.136E+00 0.000E+00   0.788E-11 -.125E-02 0.741E-11

 POSITION                                       TOTAL-FORCE (eV/Angst)
      4.09167      1.06391      2.56956         0.000584     -0.030425     -0.000482
      2.40253      1.06391      7.41875        -0.000584     -0.030425      0.000482
      1.62411      3.08606      2.49939         0.000965      0.026952      0.001534
      4.87009      3.08606      7.48892        -0.000965      0.026952     -0.001534
     -0.84333      1.05719      2.42825        -0.001612     -0.028519     -0.001740
      7.33753      1.05719      7.56007         0.001612     -0.028519      0.001740
      6.55453      3.09489      2.64470         0.000696      0.031723     -0.001949
     -0.06033      3.09489      7.34362        -0.000696      0.031723      0.001949
      0.00000      5.52948     -0.00000         0.000000     -0.006414     -0.000000
     -0.90866      1.38330      9.77260         0.001038      0.001795      0.001049
      7.40286      1.38330      0.21572        -0.001038      0.001795     -0.001049
      7.40372      4.15703      0.21436         0.001732     -0.000695     -0.001666
     -0.90952      4.15703      9.77395        -0.001732     -0.000695      0.001666
      0.00000      2.76976     -0.00000         0.000000      0.006871     -0.000000
      4.93437      5.53078      0.14409         0.000000      0.003940     -0.000000
      4.93437      2.77166      0.14409         0.000000     -0.007613      0.000000
      3.24710      5.52906      4.99416         0.000000     -0.000404      0.000000
      5.71376      1.38370      5.06721         0.000146      0.001756     -0.001400
      0.78044      1.38370      4.92110        -0.000146      0.001756      0.001400
      0.78145      4.15701      4.92023         0.000597      0.000266      0.000950
      5.71276      4.15701      5.06809        -0.000597      0.000266     -0.000950
      3.24710      2.76936      4.99416         0.000000      0.000873      0.000000
     -1.68727      5.52821      4.85007         0.000000      0.001604     -0.000000
     -1.68727      2.76846      4.85007         0.000000     -0.002183     -0.000000
      4.95293      0.01622      4.09633         0.010226      0.000711      0.002297
      1.54127      0.01622      5.89199        -0.010226      0.000711     -0.002297
      3.22537      0.01668      1.04287        -0.007890     -0.000314     -0.000107
      3.26883      0.01668      8.94545         0.007890     -0.000314      0.000107
      7.51201      1.39188      4.11688         0.009358     -0.001383      0.003268
     -1.01781      1.39188      5.87143        -0.009358     -0.001383     -0.003268
     -0.92378      4.13596      5.81883        -0.009275      0.000940     -0.001041
      7.41798      4.13596      4.16949         0.009275      0.000940      0.001041
      0.66613      1.39247      1.02258        -0.007685     -0.001343     -0.001464
      5.82807      1.39247      8.96574         0.007685     -0.001343      0.001464
      5.73619      4.13757      9.01570         0.008938     -0.002016      0.001997
      0.75801      4.13757      0.97262        -0.008938     -0.002016     -0.001997
      5.04384      2.76036      4.04584         0.009341      0.001819      0.003292
      1.45036      2.76036      5.94248        -0.009341      0.001819     -0.003292
      3.13836      2.76054      1.09299        -0.008018      0.000658     -0.001979
      3.35584      2.76054      8.89533         0.008018      0.000658      0.001979
      0.02142      0.01653      3.94938         0.008490      0.000854      0.002445
      6.47278      0.01653      6.03893        -0.008490      0.000854     -0.002445
      8.16246      0.01540      1.18699        -0.011190      0.000328     -0.003739
     -1.66826      0.01540      8.80133         0.011190      0.000328      0.003739
      2.58058      1.39223      3.97123         0.007226     -0.001012      0.003846
      3.91362      1.39223      6.01709        -0.007226     -0.001012     -0.003846
      4.00737      4.13719      5.96575        -0.008928     -0.000303     -0.002117
      2.48683      4.13719      4.02257         0.008928     -0.000303      0.002117
      5.60469      1.39519      1.16469        -0.007991     -0.002281     -0.004569
      0.88951      1.39519      8.82363         0.007991     -0.002281      0.004569
      0.79621      4.13810      8.87536         0.008005      0.000405      0.001820
      5.69799      4.13810      1.11295        -0.008005      0.000405     -0.001820
      0.11272      2.76065      3.89872         0.009350      0.001072      0.004180
      6.38148      2.76065      6.08960        -0.009350      0.001072     -0.004180
      8.08339      2.76006      1.23091        -0.009641      0.000674     -0.005799
     -1.58918      2.76006      8.75740         0.009641      0.000674      0.005799
    total drift:                                0.000041      0.011689     -0.000006

  FREE ENERGIE OF THE ION-ELECTRON SYSTEM (eV)
  free  energy   TOTEN  =      -345.5095956431 eV

  energy  without entropy=     -345.5095215936  energy(sigma->0) =     -345.50955862

 d Force = 0.2066872E-04[ 0.197E-04, 0.217E-04]  d Energy = 0.2344066E-04-0.277E-05
 d Force =-0.6712606E-01[-0.671E-01,-0.671E-01]  d Ewald  =-0.8403383E-01 0.169E-01

 Quasi-Newton relaxation of ions (Broydens 2nd method)
  g(Force)  = 0.485E-03   g(Stress)= 0.122E-03

 retain information from N=  1 steps
 eigenvalues of (default step * inverse Hessian matrix)
  average eigenvalue of G=   0.0305
 eigenvalue spectrum of G is  0.0305

volume of typ            1:    11.7 %

[...]

volume of typ            3:     9.7 %

total charge

# of ion       s       p       d       tot
    1        2.067   0.215   0.080   2.362
    2        2.067   0.215   0.080   2.362
    3        2.068   0.215   0.080   2.362
    4        2.068   0.215   0.080   2.362
    5        2.068   0.216   0.080   2.364
    6        2.068   0.216   0.080   2.364
    7        2.068   0.211   0.079   2.358
    8        2.068   0.211   0.079   2.358
    9        0.288   0.401   7.844   8.533
   10        0.283   0.387   7.857   8.527
   11        0.283   0.387   7.857   8.527
   12        0.287   0.401   7.842   8.530
   13        0.287   0.401   7.842   8.530
   14        0.284   0.391   7.857   8.532
   15        0.287   0.399   7.844   8.530
   16        0.283   0.388   7.859   8.530
   17        0.288   0.401   7.843   8.532
   18        0.283   0.387   7.858   8.528
   19        0.283   0.387   7.858   8.528
   20        0.288   0.401   7.842   8.531
   21        0.288   0.401   7.842   8.531
   22        0.283   0.387   7.859   8.529
   23        0.287   0.399   7.844   8.530
   24        0.283   0.387   7.859   8.528
   25        1.267   2.771   0.007   4.045
   26        1.267   2.771   0.007   4.045
   27        1.268   2.770   0.007   4.045
   28        1.268   2.770   0.007   4.045
   29        1.266   2.771   0.007   4.044
   30        1.266   2.771   0.007   4.044
   31        1.267   2.771   0.007   4.045
   32        1.267   2.771   0.007   4.045
   33        1.267   2.770   0.007   4.044
   34        1.267   2.770   0.007   4.044
   35        1.268   2.769   0.007   4.045
   36        1.268   2.769   0.007   4.045
   37        1.266   2.771   0.007   4.044
   38        1.266   2.771   0.007   4.044
   39        1.266   2.770   0.007   4.043
   40        1.266   2.770   0.007   4.043
   41        1.267   2.770   0.007   4.045
   42        1.267   2.770   0.007   4.045
   43        1.267   2.770   0.007   4.045
   44        1.267   2.770   0.007   4.045
   45        1.266   2.771   0.007   4.044
   46        1.266   2.771   0.007   4.044
   47        1.267   2.770   0.007   4.045
   48        1.267   2.770   0.007   4.045
   49        1.266   2.771   0.007   4.044
   50        1.266   2.771   0.007   4.044
   51        1.267   2.771   0.007   4.045
   52        1.267   2.771   0.007   4.045
   53        1.266   2.771   0.007   4.044
   54        1.266   2.771   0.007   4.044
   55        1.266   2.769   0.007   4.043
   56        1.266   2.769   0.007   4.043
tot          61.64   96.67  126.47  284.78

magnetization (x)

# of ion       s       p       d       tot
    1        0.005   0.007   0.001   0.013
    2        0.005   0.007   0.001   0.013
    3        0.005   0.007   0.000   0.012
    4        0.005   0.007   0.000   0.012
    5        0.005   0.007   0.001   0.013
    6        0.005   0.007   0.001   0.013
    7       -0.000   0.001   0.000   0.001
    8       -0.000   0.001   0.000   0.001
    9       -0.000   0.000   0.131   0.130
   10        0.004  -0.000   0.573   0.577
   11        0.004  -0.000   0.573   0.577
   12        0.000  -0.000   0.189   0.189
   13        0.000  -0.000   0.189   0.189
   14       -0.004   0.000  -0.520  -0.524
   15       -0.001   0.000  -0.170  -0.170
   16        0.003   0.000   0.511   0.514
   17       -0.000   0.000   0.152   0.152
   18        0.003   0.000   0.551   0.554
   19        0.003   0.000   0.551   0.554
   20       -0.000  -0.000   0.158   0.158
   21       -0.000  -0.000   0.158   0.158
   22        0.003   0.000   0.528   0.531
   23       -0.000   0.000   0.142   0.142
   24        0.003   0.000   0.544   0.547
   25        0.003   0.013   0.000   0.017
   26        0.003   0.013   0.000   0.017
   27        0.000  -0.006  -0.000  -0.006
   28        0.000  -0.006  -0.000  -0.006
   29        0.007   0.071   0.000   0.079
   30        0.007   0.071   0.000   0.079
   31        0.003   0.014   0.000   0.018
   32        0.003   0.014   0.000   0.018
   33        0.006   0.058   0.000   0.064
   34        0.006   0.058   0.000   0.064
   35        0.001  -0.001   0.000  -0.001
   36        0.001  -0.001   0.000  -0.001
   37        0.007   0.067   0.000   0.075
   38        0.007   0.067   0.000   0.075
   39        0.007   0.066   0.000   0.074
   40        0.007   0.066   0.000   0.074
   41        0.003   0.013   0.000   0.016
   42        0.003   0.013   0.000   0.016
   43        0.003   0.020   0.000   0.024
   44        0.003   0.020   0.000   0.024
   45        0.007   0.070   0.000   0.078
   46        0.007   0.070   0.000   0.078
   47        0.003   0.012   0.000   0.015
   48        0.003   0.012   0.000   0.015
   49        0.006   0.070   0.000   0.076
   50        0.006   0.070   0.000   0.076
   51        0.002   0.019   0.000   0.021
   52        0.002   0.019   0.000   0.021
   53        0.008   0.070   0.000   0.078
   54        0.008   0.070   0.000   0.078
   55       -0.003  -0.046  -0.000  -0.049
   56       -0.003  -0.046  -0.000  -0.049
tot           0.17    1.07    4.27    5.51