 vasp.5.4.4.18Apr17-6-g9f103f2a35 (build May 12 2020 05:39:39) gamma-only

 MD_VERSION_INFO: Compiled 2020-05-12T12:39:39-UTC in devlin.sd.materialsdesign.
 com:/home/medea2/data/build/wwolf/vasp-gpu5.4.4/13047/x86_64/src/src/build/gam
 from svn 13047

 executed on                        Lin64 date 2023.03.07  03:41:21

 INCAR:
 POTCAR:    PAW_PBE Li_sv 10Sep2004
 POTCAR:    PAW_PBE Ni 02Aug2007
 POTCAR:    PAW_PBE O 08Apr2002

 POTCAR:    PAW_PBE Li_sv 10Sep2004

 POTCAR:    PAW_PBE Ni 02Aug2007

 POTCAR:    PAW_PBE O 08Apr2002

 Optimization of the real space projectors (new method)

 maximal supplied QI-value         = 22.11
 optimisation between [QCUT,QGAM] = [ 11.28, 22.77] = [ 35.61,145.23] Ry
 Optimized for a Real-space Cutoff    1.10 Angstroem

   l    n(q)    QCUT    max X(q) W(low)/X(q) W(high)/X(q)  e(spline)
   0      7    11.276    10.506    0.54E-04    0.58E-04    0.16E-07
   0      7    11.276     8.367    0.11E-03    0.14E-03    0.35E-07
   1      7    11.276     8.983    0.23E-03    0.43E-03    0.86E-07
 Optimization of the real space projectors (new method)

[...]

   l    n(q)    QCUT    max X(q) W(low)/X(q) W(high)/X(q)  e(spline)
   2      9    11.376    60.317    0.17E-03    0.16E-04    0.16E-06
   2      9    11.376    55.921    0.17E-03    0.16E-04    0.17E-06
   0     10    11.376    51.690    0.45E-04    0.60E-04    0.21E-06
   0     10    11.376    30.015    0.37E-04    0.55E-04    0.19E-06
   1     10    11.376    18.849    0.83E-04    0.11E-03    0.92E-07
   1     10    11.376    14.624    0.69E-04    0.92E-04    0.82E-07
 Optimization of the real space projectors (new method)

 maximal supplied QI-value         = 24.76
 optimisation between [QCUT,QGAM] = [ 11.39, 22.77] = [ 36.31,145.25] Ry
 Optimized for a Real-space Cutoff    1.10 Angstroem

   l    n(q)    QCUT    max X(q) W(low)/X(q) W(high)/X(q)  e(spline)
   0      7    11.387    20.381    0.22E-03    0.48E-03    0.18E-06
   0      7    11.387    15.268    0.22E-03    0.52E-03    0.19E-06
   1      7    11.387     5.964    0.22E-03    0.73E-03    0.24E-06
   1      7    11.387     5.382    0.19E-03    0.60E-03    0.21E-06

  PAW_PBE Li_sv 10Sep2004               :
  PAW_PBE Ni 02Aug2007                  :
  PAW_PBE O 08Apr2002                   :

 POSCAR: ce14982_1
  positions in direct lattice
 exchange correlation table for  LEXCH =       14
   RHO(1)=    0.500       N(1)  =     2000
   RHO(2)=  100.500       N(2)  =     4000

 ion  position               nearest neighbor table
   1  0.250  0.250  0.500-  45 2.15  41 2.15  21 2.16  33 2.16  23 2.16  35 2.16
   2  0.250  0.750  0.500-  46 2.15  42 2.15  22 2.16  34 2.16  24 2.16  36 2.16
   3  0.253  0.250  1.000-  29 2.15  25 2.15  51 2.16  49 2.16  39 2.18  37 2.18
   4  0.253  0.750  0.000-  30 2.15  26 2.15  52 2.16  50 2.16  40 2.18  38 2.18
   5  0.998  0.000  0.000-  31 1.83  32 1.83  29 1.85  30 1.85  39 1.91  40 1.91  10 2.76   9 2.80
                             8 2.80  10 2.80   7 2.81   6 2.81
   6  0.250  0.001  0.250-  40 1.84  52 1.84  35 1.84  23 1.84  46 1.95  29 1.95   9 2.78   9 2.78
                            12 2.81  11 2.81  10 2.81   5 2.81
   7  0.250  0.999  0.750-  39 1.84  51 1.84  36 1.84  24 1.84  45 1.95  30 1.95   8 2.78   8 2.78
                            12 2.81  11 2.81  10 2.81   5 2.81
   8  0.750  0.999  0.750-  51 1.86  39 1.86  24 1.86  36 1.86  48 1.91  31 1.91   7 2.78   7 2.78
                            10 2.80   5 2.80  12 2.80  11 2.80
   9  0.750  0.001  0.250-  52 1.86  40 1.86  23 1.86  35 1.86  47 1.91  32 1.91   6 2.78   6 2.78
                            10 2.80   5 2.80  12 2.80  11 2.80
  10  0.502  0.000  0.000-  31 1.83  32 1.83  29 1.85  30 1.85  51 1.91  52 1.91   5 2.76   8 2.80
                             9 2.80   5 2.80   7 2.81   6 2.81
  11  0.998  0.000  0.500-  47 1.83  48 1.83  45 1.85  46 1.85  23 1.91  24 1.91  12 2.76  12 2.80
                             9 2.80   8 2.80   7 2.81   6 2.81
  12  0.502  0.000  0.500-  47 1.83  48 1.83  45 1.85  46 1.85  35 1.91  36 1.91  11 2.76  11 2.80
                             8 2.80   9 2.80   6 2.81   7 2.81
  13  0.998  0.500  0.500-  43 1.83  44 1.83  41 1.85  42 1.85  21 1.91  22 1.91  18 2.76  18 2.80
                            17 2.80  16 2.80  15 2.81  14 2.81
  14  0.250  0.500  0.750-  38 1.84  50 1.84  21 1.84  33 1.84  42 1.94  25 1.95  17 2.78  17 2.78
                            19 2.81  18 2.81  20 2.81  13 2.81
  15  0.250  0.500  0.250-  37 1.84  49 1.84  22 1.84  34 1.84  41 1.94  26 1.95  16 2.78  16 2.78
                            19 2.81  18 2.81  20 2.81  13 2.81
  16  0.750  0.500  0.250-  37 1.86  49 1.86  22 1.86  34 1.86  44 1.91  27 1.91  15 2.78  15 2.78
                            20 2.80  13 2.80  19 2.80  18 2.80
  17  0.750  0.500  0.750-  38 1.86  50 1.86  21 1.86  33 1.86  43 1.91  28 1.91  14 2.78  14 2.78
                            20 2.80  13 2.80  19 2.80  18 2.80
  18  0.502  0.500  0.500-  43 1.83  44 1.83  41 1.85  42 1.85  33 1.91  34 1.91  13 2.76  13 2.80
                            17 2.80  16 2.80  15 2.81  14 2.81
  19  0.998  0.500  0.000-  27 1.83  28 1.83  25 1.85  26 1.85  37 1.91  38 1.91  20 2.76  20 2.80
                            17 2.80  16 2.80  15 2.81  14 2.81
  20  0.502  0.500  0.000-  27 1.83  28 1.83  25 1.85  26 1.85  49 1.91  50 1.91  19 2.76  19 2.80
                            16 2.80  17 2.80  14 2.81  15 2.81
  21  0.002  0.402  0.636-  14 1.84  17 1.86  13 1.91   1 2.16
  22  0.002  0.598  0.364-  15 1.84  16 1.86  13 1.91   2 2.16
  23  0.002  0.099  0.364-   6 1.84   9 1.86  11 1.91   1 2.16
  24  0.002  0.901  0.636-   7 1.84   8 1.86  11 1.91   2 2.16
  25  0.250  0.400  0.889-  19 1.85  20 1.85  14 1.95   3 2.15
  26  0.250  0.600  0.111-  19 1.85  20 1.85  15 1.95   4 2.15
  27  0.750  0.597  0.112-  20 1.83  19 1.83  16 1.91
  28  0.750  0.403  0.888-  20 1.83  19 1.83  17 1.91
  29  0.250  0.100  0.111-  10 1.85   5 1.85   6 1.95   3 2.15
  30  0.250  0.900  0.889-  10 1.85   5 1.85   7 1.95   4 2.15
  31  0.750  0.903  0.888-   5 1.83  10 1.83   8 1.91
  32  0.750  0.097  0.112-   5 1.83  10 1.83   9 1.91
  33  0.498  0.402  0.636-  14 1.84  17 1.86  18 1.91   1 2.16
  34  0.498  0.598  0.364-  15 1.84  16 1.86  18 1.91   2 2.16
  35  0.498  0.099  0.364-   6 1.84   9 1.86  12 1.91   1 2.16
  36  0.498  0.901  0.636-   7 1.84   8 1.86  12 1.91   2 2.16
  37  0.002  0.402  0.136-  15 1.84  16 1.86  19 1.91   3 2.18
  38  0.002  0.598  0.864-  14 1.84  17 1.86  19 1.91   4 2.18
  39  0.003  0.097  0.864-   7 1.84   8 1.86   5 1.91   3 2.18
  40  0.003  0.903  0.136-   6 1.84   9 1.86   5 1.91   4 2.18
  41  0.250  0.401  0.389-  13 1.85  18 1.85  15 1.94   1 2.15
  42  0.250  0.599  0.611-  13 1.85  18 1.85  14 1.94   2 2.15
  43  0.750  0.597  0.613-  18 1.83  13 1.83  17 1.91
  44  0.750  0.403  0.387-  18 1.83  13 1.83  16 1.91
  45  0.250  0.099  0.611-  11 1.85  12 1.85   7 1.95   1 2.15
  46  0.250  0.901  0.389-  11 1.85  12 1.85   6 1.95   2 2.15
  47  0.750  0.903  0.387-  11 1.83  12 1.83   9 1.91
  48  0.750  0.097  0.613-  11 1.83  12 1.83   8 1.91
  49  0.498  0.402  0.136-  15 1.84  16 1.86  20 1.91   3 2.16
  50  0.498  0.598  0.864-  14 1.84  17 1.86  20 1.91   4 2.16
  51  0.498  0.098  0.864-   7 1.84   8 1.86  10 1.91   3 2.16
  52  0.498  0.902  0.136-   6 1.84   9 1.86  10 1.91   4 2.16

  LATTYP: Found a simple monoclinic cell.
 ALAT       =    11.5399735026
 B/A-ratio  =     0.4813777735
 C/A-ratio  =     1.6887923386
 COS(beta)  =    -0.9088273837

  Lattice vectors:

 A1 = (  -6.2422240410,   0.0000000000,  -9.7059583485)
 A2 = (   0.0000000000,  -5.5550867505,   0.0000000000)
 A3 = (   2.7426772744,   0.0000000000,  19.2946621012)

Analysis of symmetry for initial positions (statically):
 Subroutine PRICEL returns:
 Original cell was already a primitive cell.

 Routine SETGRP: Setting up the symmetry group for a
 simple monoclinic supercell.

 Subroutine GETGRP returns: Found  2 space group operations
 (whereof  2 operations were pure point group operations)
 out of a pool of  4 trial point group operations.

The static configuration has the point symmetry C_2 .

Analysis of symmetry for dynamics (positions and initial velocities):
 Subroutine PRICEL returns:
 Original cell was already a primitive cell.

[...]

The dynamic configuration has the point symmetry C_2 .

Analysis of structural, dynamic, and magnetic symmetry:
 Subroutine PRICEL returns:
 Original cell was already a primitive cell.

 Routine SETGRP: Setting up the symmetry group for a
 simple monoclinic supercell.

 Subroutine GETGRP returns: Found  2 space group operations
 (whereof  2 operations were pure point group operations)
 out of a pool of  4 trial point group operations.

The magnetic configuration has the point symmetry C_2 .

 Subroutine INISYM returns: Found  2 space group operations
 (whereof  2 operations are pure point group operations),
 and found     1 'primitive' translations

 KPOINTS: Automatic mesh

Automatic generation of k-mesh.
Space group operators:
 irot       det(A)        alpha          n_x          n_y          n_z        tau_x        tau_y        tau_z
    1     1.000000     0.000001     1.000000     0.000000     0.000000     0.000000     0.000000     0.000000
    2     1.000000   179.999999     0.000000     1.000000     0.000000     0.000000     0.000000     0.000000

 Subroutine IBZKPT returns following result:

 Found      1 irreducible k-points:

 Following reciprocal coordinates:
            Coordinates               Weight
  0.000000  0.000000  0.000000      1.000000

 Following cartesian coordinates:
            Coordinates               Weight
  0.000000  0.000000  0.000000      1.000000

 SYSTEM =  unknown system
 POSCAR =  ce14982_1

 Startparameter for this run:
   NWRITE =      1    write-flag & timer
   PREC   = accura    normal or accurate (medium, high low for compatibility)
   ISTART =      0    job   : 0-new  1-cont  2-samecut
   ICHARG =      2    charge: 1-file 2-atom 10-const
   ISPIN  =      2    spin polarized calculation?
   LNONCOLLINEAR =      F non collinear calculations
   LSORBIT =      F    spin-orbit coupling
   INIWAV =      1    electr: 0-lowe 1-rand  2-diag
   LASPH  =      F    aspherical Exc in radial PAW
   METAGGA=      F    non-selfconsistent MetaGGA calc.

 Electronic Relaxation 1
   ENCUT  =  500.0 eV  36.75 Ry    6.06 a.u.  10.13 18.61 17.76*2*pi/ulx,y,z
   ENINI  =  500.0     initial cutoff
   ENAUG  =  628.9 eV  augmentation charge cutoff
   NELM   =     80;   NELMIN=  2; NELMDL= -5     # of ELM steps
   EDIFF  = 0.1E-04   stopping-criterion for ELM
   LREAL  =      T    real-space projection
   NLSPLINE    = F    spline interpolate recip. space projectors
   LCOMPAT=      F    compatible to vasp.4.4
   GGA_COMPAT  = T    GGA compatible to vasp.4.4-vasp.4.6
   LMAXPAW     = -100 max onsite density
   LMAXMIX     =    2 max onsite mixed and CHGCAR
   VOSKOWN=      1    Vosko Wilk Nusair interpolation
   ROPT   =   -0.00025  -0.00025  -0.00025
 Ionic relaxation
   EDIFFG = -.2E-01   stopping-criterion for IOM
   NSW    =     20    number of steps for IOM
[...]
   0.348E-01 -.125E-01 0.573E-01   -.379E-01 0.128E-01 -.265E-01   0.411E-02 0.105E-02 -.273E-02   -.924E-03 -.266E-03 -.270E-01
   0.123E+00 0.503E+00 -.390E+00   -.122E+00 -.468E+00 0.359E+00   -.658E-03 -.406E-01 0.648E-02   0.482E-03 0.300E-03 0.275E-01
   -.123E+00 0.503E+00 0.390E+00   0.122E+00 -.468E+00 -.359E+00   0.658E-03 -.406E-01 -.648E-02   -.482E-03 0.300E-03 -.275E-01
   -.865E-05 0.220E+02 0.168E-05   -.163E-12 -.224E+02 0.000E+00   0.000E+00 0.382E+00 -.620E-24   0.354E-11 -.469E-02 0.226E-11
   0.111E+01 0.126E+00 -.161E+01   -.111E+01 -.129E+00 0.161E+01   0.722E-02 -.947E-03 -.723E-02   0.141E-02 -.307E-03 0.113E-02
   -.111E+01 0.126E+00 0.161E+01   0.111E+01 -.129E+00 -.161E+01   -.722E-02 -.947E-03 0.723E-02   -.141E-02 -.307E-03 -.113E-02
   -.877E+00 -.563E-01 0.174E+01   0.872E+00 0.581E-01 -.175E+01   -.912E-03 0.242E-02 0.120E-01   -.138E-02 0.383E-03 -.823E-03
   0.877E+00 -.563E-01 -.174E+01   -.872E+00 0.581E-01 0.175E+01   0.912E-03 0.242E-02 -.120E-01   0.138E-02 0.383E-03 0.823E-03
   0.113E-04 -.222E+02 -.220E-05   -.568E-13 0.226E+02 0.711E-13   0.000E+00 -.389E+00 -.511E-24   0.184E-11 0.489E-02 0.220E-11
   -.894E-05 0.225E+02 0.182E-05   0.000E+00 -.229E+02 -.249E-13   0.000E+00 0.388E+00 0.362E-24   -.445E-11 -.415E-02 0.142E-11
   0.106E-04 -.225E+02 -.217E-05   0.149E-12 0.229E+02 0.107E-13   0.165E-23 -.389E+00 0.258E-25   -.261E-11 0.432E-02 0.139E-11
   -.890E-05 0.225E+02 0.180E-05   -.178E-14 -.229E+02 0.207E-13   -.517E-25 0.389E+00 -.428E-25   -.131E-11 0.656E-02 -.261E-11
   -.106E+01 -.155E-01 0.834E+00   0.105E+01 0.198E-01 -.824E+00   -.171E-02 -.158E-02 -.597E-02   0.110E-02 0.327E-03 -.603E-03
   0.106E+01 -.155E-01 -.834E+00   -.105E+01 0.198E-01 0.824E+00   0.171E-02 -.158E-02 0.597E-02   -.110E-02 0.327E-03 0.603E-03
   0.801E+00 0.575E-01 -.135E+01   -.796E+00 -.616E-01 0.135E+01   -.937E-03 0.281E-02 -.763E-02   -.119E-02 -.313E-03 0.477E-03
   -.801E+00 0.575E-01 0.135E+01   0.796E+00 -.616E-01 -.135E+01   0.937E-03 0.281E-02 0.763E-02   0.119E-02 -.313E-03 -.477E-03
   0.107E-04 -.224E+02 -.217E-05   0.426E-13 0.228E+02 0.517E-13   0.000E+00 -.388E+00 0.582E-25   -.958E-12 -.641E-02 -.263E-11
   -.829E-05 0.222E+02 0.162E-05   0.666E-13 -.226E+02 -.995E-13   0.207E-24 0.382E+00 0.325E-24   0.136E-11 0.625E-02 -.733E-12
   0.114E-04 -.223E+02 -.223E-05   0.870E-13 0.227E+02 0.497E-13   0.000E+00 -.390E+00 0.291E-24   0.446E-12 -.622E-02 -.806E-12
   -.127E+02 0.308E+02 0.371E+03   0.135E+02 -.331E+02 -.393E+03   -.793E+00 0.234E+01 0.224E+02   0.106E-01 0.664E-02 0.451E-01
   0.127E+02 0.308E+02 -.371E+03   -.135E+02 -.331E+02 0.393E+03   0.793E+00 0.234E+01 -.224E+02   -.106E-01 0.664E-02 -.451E-01
   0.125E+02 0.308E+02 -.371E+03   -.133E+02 -.331E+02 0.393E+03   0.779E+00 0.234E+01 -.224E+02   0.695E-02 -.493E-02 0.398E-01
   -.125E+02 0.308E+02 0.371E+03   0.133E+02 -.331E+02 -.393E+03   -.779E+00 0.234E+01 0.224E+02   -.695E-02 -.493E-02 -.398E-01
   0.329E+02 0.236E+00 0.377E+03   -.363E+02 -.257E+00 -.398E+03   0.343E+01 0.197E-01 0.217E+02   -.140E-01 0.482E-03 0.411E-01
   -.329E+02 0.236E+00 -.377E+03   0.363E+02 -.257E+00 0.398E+03   -.343E+01 0.197E-01 -.217E+02   0.140E-01 0.482E-03 -.411E-01
   -.146E+02 -.157E+00 -.396E+03   0.157E+02 0.166E+00 0.423E+03   -.107E+01 -.888E-02 -.263E+02   0.914E-02 -.474E-03 -.365E-01
   0.146E+02 -.157E+00 0.396E+03   -.157E+02 0.166E+00 -.423E+03   0.107E+01 -.888E-02 0.263E+02   -.914E-02 -.474E-03 0.365E-01
   -.328E+02 0.251E+00 -.376E+03   0.362E+02 -.280E+00 0.398E+03   -.344E+01 0.243E-01 -.217E+02   -.842E-02 0.285E-02 0.394E-01
   0.328E+02 0.251E+00 0.376E+03   -.362E+02 -.280E+00 -.398E+03   0.344E+01 0.243E-01 0.217E+02   0.842E-02 0.285E-02 -.394E-01
   0.145E+02 -.135E+00 0.396E+03   -.156E+02 0.146E+00 -.423E+03   0.106E+01 -.907E-02 0.263E+02   0.477E-02 -.264E-02 -.360E-01
   -.145E+02 -.135E+00 -.396E+03   0.156E+02 0.146E+00 0.423E+03   -.106E+01 -.907E-02 -.263E+02   -.477E-02 -.264E-02 0.360E-01
   -.127E+02 -.309E+02 0.371E+03   0.135E+02 0.332E+02 -.393E+03   -.806E+00 -.235E+01 0.224E+02   0.114E-01 -.663E-02 0.451E-01
   0.127E+02 -.309E+02 -.371E+03   -.135E+02 0.332E+02 0.393E+03   0.806E+00 -.235E+01 -.224E+02   -.114E-01 -.663E-02 -.451E-01
   0.126E+02 -.309E+02 -.371E+03   -.135E+02 0.332E+02 0.393E+03   0.795E+00 -.235E+01 -.224E+02   0.394E-02 0.490E-02 0.412E-01
   -.126E+02 -.309E+02 0.371E+03   0.135E+02 0.332E+02 -.393E+03   -.795E+00 -.235E+01 0.224E+02   -.394E-02 0.490E-02 -.412E-01
   -.125E+02 0.304E+02 0.372E+03   0.134E+02 -.327E+02 -.394E+03   -.869E+00 0.230E+01 0.225E+02   0.923E-02 0.663E-02 0.456E-01
   0.125E+02 0.304E+02 -.372E+03   -.134E+02 -.327E+02 0.394E+03   0.869E+00 0.230E+01 -.225E+02   -.923E-02 0.663E-02 -.456E-01
   0.128E+02 0.305E+02 -.372E+03   -.137E+02 -.328E+02 0.394E+03   0.893E+00 0.230E+01 -.225E+02   0.249E-02 -.493E-02 0.417E-01
   -.128E+02 0.305E+02 0.372E+03   0.137E+02 -.328E+02 -.394E+03   -.893E+00 0.230E+01 0.225E+02   -.249E-02 -.493E-02 -.417E-01
   0.340E+02 -.612E-02 0.376E+03   -.375E+02 0.719E-02 -.398E+03   0.347E+01 0.255E-03 0.218E+02   -.147E-01 -.644E-03 0.399E-01
   -.340E+02 -.612E-02 -.376E+03   0.375E+02 0.719E-02 0.398E+03   -.347E+01 0.255E-03 -.218E+02   0.147E-01 -.644E-03 -.399E-01
   -.159E+02 0.829E-02 -.396E+03   0.170E+02 -.115E-01 0.422E+03   -.115E+01 0.427E-02 -.263E+02   0.101E-01 0.586E-03 -.354E-01
   0.159E+02 0.829E-02 0.396E+03   -.170E+02 -.115E-01 -.422E+03   0.115E+01 0.427E-02 0.263E+02   -.101E-01 0.586E-03 0.354E-01
   -.344E+02 0.366E-01 -.376E+03   0.380E+02 -.329E-01 0.398E+03   -.351E+01 0.794E-03 -.217E+02   -.933E-02 -.245E-02 0.387E-01
   0.344E+02 0.366E-01 0.376E+03   -.380E+02 -.329E-01 -.398E+03   0.351E+01 0.794E-03 0.217E+02   0.933E-02 -.245E-02 -.387E-01
   0.162E+02 -.380E-01 0.396E+03   -.174E+02 0.331E-01 -.422E+03   0.118E+01 0.323E-02 0.263E+02   0.548E-02 0.239E-02 -.352E-01
   -.162E+02 -.380E-01 -.396E+03   0.174E+02 0.331E-01 0.422E+03   -.118E+01 0.323E-02 -.263E+02   -.548E-02 0.239E-02 0.352E-01
   -.130E+02 -.306E+02 0.371E+03   0.139E+02 0.329E+02 -.393E+03   -.927E+00 -.233E+01 0.224E+02   0.883E-02 -.660E-02 0.458E-01
   0.130E+02 -.306E+02 -.371E+03   -.139E+02 0.329E+02 0.393E+03   0.927E+00 -.233E+01 -.224E+02   -.883E-02 -.660E-02 -.458E-01
   0.131E+02 -.307E+02 -.371E+03   -.140E+02 0.330E+02 0.393E+03   0.936E+00 -.233E+01 -.224E+02   0.606E-02 0.509E-02 0.404E-01
   -.131E+02 -.307E+02 0.371E+03   0.140E+02 0.330E+02 -.393E+03   -.936E+00 -.233E+01 0.224E+02   -.606E-02 0.509E-02 -.404E-01
   0.204E-04 0.177E+00 -.505E-05   0.320E-12 -.782E-13 -.341E-12   0.888E-15 -.172E+00 0.142E-13   -.111E-11 0.137E-02 0.627E-12

 POSITION                                       TOTAL-FORCE (eV/Angst)
      3.99633      1.38948      2.46034        -0.000088      0.001050     -0.001104
      2.24428      1.38948      7.26029         0.000088      0.001050      0.001104
      8.86029      1.40379      2.51806         0.000750     -0.005902      0.002276
     -2.61967      1.40379      7.20256        -0.000750     -0.005902     -0.002276
      0.00000      5.54747      0.00000         0.000000      0.019635     -0.000000
      2.43411      1.39033      0.03500         0.006641     -0.004931      0.001551
      3.80650      1.39033      9.68563        -0.006641     -0.004931     -0.001551
      3.80660      4.16850      9.68559        -0.007508      0.004519      0.000243
      2.43401      4.16850      0.03503         0.007508      0.004519     -0.000243
      0.00000      2.79004      0.00000         0.000000     -0.014345     -0.000000
      4.86815      5.54723      0.05966         0.000000     -0.000081     -0.000000
      4.86815      2.78914      0.05966         0.000000     -0.001235     -0.000000
      3.12031      5.54727      4.86031         0.000000      0.004271     -0.000000
      5.55467      1.39029      4.88681        -0.002850      0.002920      0.003046
      0.68595      1.39029      4.83382         0.002850      0.002920     -0.003046
      0.68606      4.16875      4.83412         0.002601     -0.001669     -0.003524
      5.55456      4.16875      4.88650        -0.002601     -0.001669      0.003524
      3.12031      2.78925      4.86031         0.000000     -0.003253     -0.000000
     -1.74785      5.54790      4.80065         0.000000      0.005532     -0.000000
     -1.74785      2.79009      4.80065         0.000000     -0.007113     -0.000000
      4.78716      0.01366      3.93277         0.007209      0.000502      0.012667
      1.45345      0.01366      5.78786        -0.007209      0.000502     -0.012667
      3.20158      0.01329      0.98888        -0.005044      0.002114     -0.018510
      3.03903      0.01329      8.73175         0.005044      0.002114      0.018510
      7.25772      1.39079      3.94860         0.000486     -0.000689      0.013005
     -1.01711      1.39079      5.77203        -0.000486     -0.000689     -0.013005
     -0.99269      4.16899      5.74782        -0.001709     -0.000888     -0.010908
      7.23330      4.16899      3.97280         0.001709     -0.000888      0.010908
      0.72956      1.39071      0.97237        -0.000151     -0.001713     -0.017227
      5.51105      1.39071      8.74826         0.000151     -0.001713      0.017227
      5.48653      4.16877      8.77257        -0.001723     -0.001579      0.011034
      0.75408      4.16877      0.94806         0.001723     -0.001579     -0.011034
      4.78700      2.76682      3.93275         0.007592      0.000153      0.013595
      1.45362      2.76682      5.78788        -0.007592      0.000153     -0.013595
      3.20249      2.76685      0.98865        -0.010866     -0.000077     -0.015622
      3.03812      2.76685      8.73198         0.010866     -0.000077      0.015622
     -0.07982      0.01372      3.87940         0.003528     -0.000648      0.002559
      6.32043      0.01372      5.84123        -0.003528     -0.000648     -0.002559
      8.06780      0.01377      1.03872        -0.001295     -0.001479      0.001294
     -1.82719      0.01377      8.68191         0.001295     -0.001479     -0.001294
      2.38586      1.39003      3.89249         0.006429      0.000573      0.006434
      3.85475      1.39003      5.82814        -0.006429      0.000573     -0.006434
      3.87907      4.16825      5.80400        -0.006666      0.001511     -0.006310
      2.36155      4.16825      3.91662         0.006666      0.001511      0.006310
      5.60247      1.38983      1.02727        -0.003065      0.001942     -0.007402
      0.63815      1.38983      8.69336         0.003065      0.001942      0.007402
      0.61359      4.16825      8.71764         0.004781      0.000589      0.007977
      5.62702      4.16825      1.00299        -0.004781      0.000589     -0.007977
     -0.07973      2.76751      3.87922         0.003964      0.000197      0.003382
      6.32034      2.76751      5.84141        -0.003964      0.000197     -0.003382
      8.06709      2.76725      1.03907         0.002822      0.001800      0.000741
     -1.82648      2.76725      8.68155        -0.002822      0.001800     -0.000741
    total drift:                                0.000020      0.005953     -0.000005

  FREE ENERGIE OF THE ION-ELECTRON SYSTEM (eV)
  free  energy   TOTEN  =      -324.7516845583 eV

  energy  without entropy=     -324.7293496683  energy(sigma->0) =     -324.74051711

 d Force = 0.5120925E-03[ 0.106E-03, 0.918E-03]  d Energy = 0.7095475E-03-0.197E-03
 d Force =-0.7438845E+01[-0.745E+01,-0.743E+01]  d Ewald  =-0.1098631E+02 0.355E+01

 Quasi-Newton relaxation of ions (Broydens 2nd method)
  g(Force)  = 0.279E-03   g(Stress)= 0.689E-03

 retain information from N=  2 steps
 eigenvalues of (default step * inverse Hessian matrix)
  average eigenvalue of G=   0.3835
 eigenvalue spectrum of G is  0.3144  0.4526

 reached required accuracy - stopping structural energy minimisation

volume of typ            1:     6.0 %

[...]

volume of typ            3:    10.0 %

total charge

# of ion       s       p       d       tot
    1        2.060   0.185   0.070   2.316
    2        2.060   0.185   0.070   2.316
    3        2.059   0.184   0.070   2.313
    4        2.059   0.184   0.070   2.313
    5        0.300   0.425   7.844   8.569
    6        0.293   0.411   7.845   8.549
    7        0.293   0.411   7.845   8.549
    8        0.287   0.399   7.827   8.514
    9        0.287   0.399   7.827   8.514
   10        0.300   0.425   7.844   8.569
   11        0.299   0.425   7.844   8.569
   12        0.300   0.425   7.844   8.569
   13        0.299   0.425   7.844   8.568
   14        0.293   0.411   7.844   8.547
   15        0.293   0.411   7.844   8.547
   16        0.287   0.399   7.826   8.513
   17        0.287   0.399   7.826   8.513
   18        0.299   0.425   7.844   8.568
   19        0.300   0.425   7.844   8.569
   20        0.300   0.425   7.844   8.569
   21        1.274   2.755   0.008   4.037
   22        1.274   2.755   0.008   4.037
   23        1.274   2.755   0.008   4.036
   24        1.274   2.755   0.008   4.036
   25        1.274   2.753   0.007   4.035
   26        1.274   2.753   0.007   4.035
   27        1.284   2.730   0.008   4.022
   28        1.284   2.730   0.008   4.022
   29        1.274   2.753   0.007   4.035
   30        1.274   2.753   0.007   4.035
   31        1.284   2.730   0.008   4.022
   32        1.284   2.730   0.008   4.022
   33        1.274   2.755   0.008   4.036
   34        1.274   2.755   0.008   4.036
   35        1.274   2.755   0.008   4.037
   36        1.274   2.755   0.008   4.037
   37        1.274   2.755   0.008   4.036
   38        1.274   2.755   0.008   4.036
   39        1.274   2.755   0.008   4.037
   40        1.274   2.755   0.008   4.037
   41        1.274   2.753   0.007   4.035
   42        1.274   2.753   0.007   4.035
   43        1.284   2.730   0.008   4.023
   44        1.284   2.730   0.008   4.023
   45        1.274   2.753   0.007   4.035
   46        1.274   2.753   0.007   4.035
   47        1.284   2.730   0.008   4.023
   48        1.284   2.730   0.008   4.023
   49        1.274   2.756   0.008   4.037
   50        1.274   2.756   0.008   4.037
   51        1.274   2.756   0.008   4.037
   52        1.274   2.756   0.008   4.037
tot          53.80   95.33  125.97  275.10

magnetization (x)

# of ion       s       p       d       tot
    1        0.000  -0.000   0.000  -0.000
    2        0.000  -0.000   0.000  -0.000
    3        0.000  -0.000   0.000  -0.000
    4        0.000  -0.000   0.000  -0.000
    5        0.000  -0.000   0.000   0.000
    6       -0.000   0.000  -0.006  -0.006
    7       -0.000   0.000  -0.006  -0.006
    8       -0.000   0.000  -0.003  -0.003
    9       -0.000   0.000  -0.003  -0.003
   10        0.000  -0.000   0.000   0.000
   11        0.000  -0.000   0.000   0.000
   12        0.000  -0.000   0.000   0.000
   13       -0.000   0.000  -0.000  -0.000
   14        0.000  -0.000   0.005   0.005
   15        0.000  -0.000   0.005   0.005
   16        0.000  -0.000   0.003   0.003
   17        0.000  -0.000   0.003   0.003
   18       -0.000   0.000  -0.000  -0.000
   19       -0.000   0.000  -0.000  -0.000
   20       -0.000   0.000  -0.000  -0.000
   21        0.000   0.000   0.000   0.000
   22        0.000   0.000   0.000   0.000
   23       -0.000  -0.000  -0.000  -0.000
   24       -0.000  -0.000  -0.000  -0.000
   25        0.000   0.000   0.000   0.000
   26        0.000   0.000   0.000   0.000
   27        0.000   0.000   0.000   0.000
   28        0.000   0.000   0.000   0.000
   29       -0.000  -0.000  -0.000  -0.001
   30       -0.000  -0.000  -0.000  -0.001
   31       -0.000  -0.000  -0.000  -0.000
   32       -0.000  -0.000  -0.000  -0.000
   33        0.000   0.000   0.000   0.000
   34        0.000   0.000   0.000   0.000
   35       -0.000  -0.000  -0.000  -0.000
   36       -0.000  -0.000  -0.000  -0.000
   37        0.000   0.000   0.000   0.000
   38        0.000   0.000   0.000   0.000
   39       -0.000  -0.000  -0.000  -0.000
   40       -0.000  -0.000  -0.000  -0.000
   41        0.000   0.000   0.000   0.000
   42        0.000   0.000   0.000   0.000
   43        0.000   0.000   0.000   0.000
   44        0.000   0.000   0.000   0.000
   45       -0.000  -0.000  -0.000  -0.001
   46       -0.000  -0.000  -0.000  -0.001
   47       -0.000  -0.000  -0.000  -0.000
   48       -0.000  -0.000  -0.000  -0.000
   49        0.000   0.000   0.000   0.000
   50        0.000   0.000   0.000   0.000
   51       -0.000  -0.000  -0.000  -0.000
   52       -0.000  -0.000  -0.000  -0.000
tot          -0.00   -0.00   -0.00   -0.00