 vasp.5.4.4.18Apr17-6-g9f103f2a35 (build May 12 2020 05:39:39) gamma-only

 MD_VERSION_INFO: Compiled 2020-05-12T12:39:39-UTC in devlin.sd.materialsdesign.
 com:/home/medea2/data/build/wwolf/vasp-gpu5.4.4/13047/x86_64/src/src/build/gam
 from svn 13047

 executed on                        Lin64 date 2023.03.07  04:33:45

 INCAR:
 POTCAR:    PAW_PBE Li_sv 10Sep2004
 POTCAR:    PAW_PBE Ni 02Aug2007
 POTCAR:    PAW_PBE O 08Apr2002

 POTCAR:    PAW_PBE Li_sv 10Sep2004

 POTCAR:    PAW_PBE Ni 02Aug2007

 POTCAR:    PAW_PBE O 08Apr2002

 Optimization of the real space projectors (new method)

 maximal supplied QI-value         = 22.11
 optimisation between [QCUT,QGAM] = [ 11.28, 22.77] = [ 35.61,145.23] Ry
 Optimized for a Real-space Cutoff    1.10 Angstroem

   l    n(q)    QCUT    max X(q) W(low)/X(q) W(high)/X(q)  e(spline)
   0      7    11.276    10.506    0.54E-04    0.58E-04    0.16E-07
   0      7    11.276     8.367    0.11E-03    0.14E-03    0.35E-07
   1      7    11.276     8.983    0.23E-03    0.43E-03    0.86E-07
 Optimization of the real space projectors (new method)

[...]

   l    n(q)    QCUT    max X(q) W(low)/X(q) W(high)/X(q)  e(spline)
   2      9    11.376    60.317    0.17E-03    0.16E-04    0.16E-06
   2      9    11.376    55.921    0.17E-03    0.16E-04    0.17E-06
   0     10    11.376    51.690    0.45E-04    0.60E-04    0.21E-06
   0     10    11.376    30.015    0.37E-04    0.55E-04    0.19E-06
   1     10    11.376    18.849    0.83E-04    0.11E-03    0.92E-07
   1     10    11.376    14.624    0.69E-04    0.92E-04    0.82E-07
 Optimization of the real space projectors (new method)

 maximal supplied QI-value         = 24.76
 optimisation between [QCUT,QGAM] = [ 11.39, 22.77] = [ 36.31,145.25] Ry
 Optimized for a Real-space Cutoff    1.10 Angstroem

   l    n(q)    QCUT    max X(q) W(low)/X(q) W(high)/X(q)  e(spline)
   0      7    11.387    20.381    0.22E-03    0.48E-03    0.18E-06
   0      7    11.387    15.268    0.22E-03    0.52E-03    0.19E-06
   1      7    11.387     5.964    0.22E-03    0.73E-03    0.24E-06
   1      7    11.387     5.382    0.19E-03    0.60E-03    0.21E-06

  PAW_PBE Li_sv 10Sep2004               :
  PAW_PBE Ni 02Aug2007                  :
  PAW_PBE O 08Apr2002                   :

 POSCAR: ce13433_1
  positions in direct lattice
 exchange correlation table for  LEXCH =       14
   RHO(1)=    0.500       N(1)  =     2000
   RHO(2)=  100.500       N(2)  =     4000

 ion  position               nearest neighbor table
   1  0.245  0.249  0.485-  47 2.01  29 2.07  41 2.10  27 2.16  39 2.20  51 2.21  12 2.77  19 2.83

   2  0.245  0.751  0.515-  48 2.01  30 2.07  42 2.10  28 2.16  40 2.20  52 2.21  13 2.77  19 2.83

[...]

   8  0.756  0.250  0.015-  38 2.02  43 2.06  55 2.10  45 2.15  57 2.21  34 2.21  22 2.77  11 2.83

   9  0.500  0.250  0.751-  57 2.11  34 2.13  31 2.13  39 2.14  54 2.14  51 2.14  26 2.84
  10  0.500  0.750  0.249-  58 2.11  33 2.13  32 2.13  40 2.14  53 2.14  52 2.14  26 2.84
  11  0.000  0.000  0.000-  35 1.85  36 1.85  37 1.85  38 1.85  45 1.89  46 1.89  16 2.81  16 2.81
                             5 2.83   6 2.83   7 2.83   8 2.83  12 2.83  13 2.83  14 2.83  15 2.83
  12  0.249  1.000  0.249-  29 1.88  58 1.89  46 1.89  41 1.90  35 2.00  52 2.04   1 2.77  15 2.80
                            15 2.82  11 2.83  16 2.84  17 2.85  18 2.86
  13  0.249  0.000  0.751-  30 1.88  57 1.89  45 1.89  42 1.90  36 2.00  51 2.04   2 2.77  14 2.80
                            14 2.82  11 2.83  16 2.84  17 2.85  18 2.86
  14  0.751  0.000  0.751-  30 1.88  57 1.89  45 1.89  42 1.90  37 2.00  54 2.04   3 2.77  13 2.80
                            13 2.82  11 2.83  16 2.84  17 2.85  18 2.86
  15  0.751  1.000  0.249-  29 1.88  58 1.89  46 1.89  41 1.90  38 2.00  53 2.04   4 2.77  12 2.80
                            12 2.82  11 2.83  16 2.84  17 2.85  18 2.86
  16  0.500  0.000  0.000-  35 1.85  36 1.85  37 1.85  38 1.85  57 2.00  58 2.00  11 2.81  11 2.81
                            15 2.84  12 2.84  13 2.84  14 2.84
  17  0.000  0.000  0.500-  51 1.87  52 1.87  53 1.87  54 1.87  29 1.93  30 1.93  18 2.81  18 2.81
                            12 2.85  13 2.85  14 2.85  15 2.85
  18  0.500  0.000  0.500-  51 1.85  52 1.85  53 1.85  54 1.85  41 1.89  42 1.89  17 2.81  17 2.81
                            12 2.86  13 2.86  14 2.86  15 2.86
  19  0.000  0.500  0.500-  47 1.85  48 1.85  49 1.85  50 1.85  27 1.89  28 1.89  24 2.81  24 2.81
                            20 2.83  21 2.83  22 2.83  23 2.83   1 2.83   2 2.83   3 2.83   4 2.83
  20  0.249  0.500  0.749-  44 1.88  27 1.89  39 1.89  56 1.89  48 2.00  31 2.04   6 2.77  23 2.80
                            23 2.82  19 2.83  24 2.83  25 2.85  26 2.86
  21  0.249  0.500  0.251-  43 1.88  28 1.89  40 1.89  55 1.89  47 2.00  32 2.04   5 2.77  22 2.80
                            22 2.82  19 2.83  24 2.83  25 2.85  26 2.86
  22  0.751  0.500  0.251-  43 1.88  28 1.89  40 1.89  55 1.89  50 2.00  33 2.04   8 2.77  21 2.80
                            21 2.82  19 2.83  24 2.83  25 2.85  26 2.86
  23  0.751  0.500  0.749-  44 1.88  27 1.89  39 1.89  56 1.89  49 2.00  34 2.04   7 2.77  20 2.80
                            20 2.82  19 2.83  24 2.83  25 2.85  26 2.86
  24  0.500  0.500  0.500-  47 1.85  48 1.85  49 1.85  50 1.85  39 1.98  40 1.98  19 2.81  19 2.81
                            23 2.83  20 2.83  21 2.83  22 2.83
  25  0.000  0.500  0.000-  31 1.88  32 1.88  33 1.88  34 1.88  43 1.92  44 1.92  26 2.81  26 2.81
                            20 2.85  21 2.85  22 2.85  23 2.85
  26  0.500  0.500  0.000-  31 1.85  32 1.85  33 1.85  34 1.85  55 1.90  56 1.90  25 2.81  25 2.81
                             9 2.84  10 2.84  20 2.86  21 2.86  22 2.86  23 2.86
  27  0.000  0.399  0.629-  19 1.89  20 1.89  23 1.89   4 2.16   1 2.16
  28  0.000  0.601  0.371-  19 1.89  21 1.89  22 1.89   3 2.16   2 2.16
  29  0.000  0.101  0.366-  12 1.88  15 1.88  17 1.93   4 2.07   1 2.07
  30  0.000  0.899  0.634-  13 1.88  14 1.88  17 1.93   3 2.07   2 2.07
  31  0.253  0.394  0.891-  26 1.85  25 1.88  20 2.04   9 2.13   5 2.21
  32  0.253  0.606  0.109-  26 1.85  25 1.88  21 2.04  10 2.13   6 2.21
  33  0.747  0.606  0.109-  26 1.85  25 1.88  22 2.04  10 2.13   7 2.21
  34  0.747  0.394  0.891-  26 1.85  25 1.88  23 2.04   9 2.13   8 2.21
  35  0.251  0.102  0.109-  16 1.85  11 1.85  12 2.00   5 2.02
  36  0.251  0.898  0.891-  16 1.85  11 1.85  13 2.00   6 2.02
  37  0.749  0.898  0.891-  16 1.85  11 1.85  14 2.00   7 2.02
  38  0.749  0.102  0.109-  16 1.85  11 1.85  15 2.00   8 2.02
  39  0.500  0.393  0.634-  20 1.89  23 1.89  24 1.98   9 2.14   1 2.20   4 2.20
  40  0.500  0.607  0.366-  21 1.89  22 1.89  24 1.98  10 2.14   2 2.20   3 2.20
  41  0.500  0.101  0.370-  18 1.89  15 1.90  12 1.90   4 2.10   1 2.10
  42  0.500  0.899  0.630-  18 1.89  14 1.90  13 1.90   3 2.10   2 2.10
  43  0.000  0.399  0.133-  21 1.88  22 1.88  25 1.92   8 2.06   5 2.06
  44  0.000  0.601  0.867-  20 1.88  23 1.88  25 1.92   7 2.06   6 2.06
  45  0.000  0.102  0.872-  11 1.89  13 1.89  14 1.89   8 2.15   5 2.15
  46  0.000  0.898  0.128-  11 1.89  12 1.89  15 1.89   7 2.15   6 2.15
  47  0.251  0.397  0.391-  24 1.85  19 1.85  21 2.00   1 2.01
  48  0.251  0.603  0.609-  24 1.85  19 1.85  20 2.00   2 2.01
  49  0.749  0.603  0.609-  24 1.85  19 1.85  23 2.00   3 2.01
  50  0.749  0.397  0.391-  24 1.85  19 1.85  22 2.00   4 2.01
  51  0.252  0.106  0.609-  18 1.85  17 1.87  13 2.04   9 2.14   1 2.21
  52  0.252  0.894  0.391-  18 1.85  17 1.87  12 2.04  10 2.14   2 2.21
  53  0.748  0.894  0.391-  18 1.85  17 1.87  15 2.04  10 2.14   3 2.21
  54  0.748  0.106  0.609-  18 1.85  17 1.87  14 2.04   9 2.14   4 2.21
  55  0.500  0.399  0.131-  21 1.89  22 1.89  26 1.90   8 2.10   5 2.10
  56  0.500  0.601  0.869-  20 1.89  23 1.89  26 1.90   7 2.10   6 2.10
  57  0.500  0.108  0.864-  13 1.89  14 1.89  16 2.00   9 2.11   5 2.21   8 2.21
  58  0.500  0.892  0.136-  12 1.89  15 1.89  16 2.00  10 2.11   6 2.21   7 2.21

  LATTYP: Found a simple monoclinic cell.
 ALAT       =    11.3812124139
 B/A-ratio  =     0.4939154205
 C/A-ratio  =     1.6774348522
 COS(beta)  =    -0.9029794482

  Lattice vectors:

 A1 = (  -6.2933020778,   0.0000000000,  -9.4829502249)
 A2 = (   0.0000000000,  -5.6213563153,   0.0000000000)
 A3 = (   2.6974040150,   0.0000000000,  18.8997234518)

Analysis of symmetry for initial positions (statically):
 Subroutine PRICEL returns:
 Original cell was already a primitive cell.

 Routine SETGRP: Setting up the symmetry group for a
 simple monoclinic supercell.

 Subroutine GETGRP returns: Found  4 space group operations
 (whereof  4 operations were pure point group operations)
 out of a pool of  4 trial point group operations.

The static configuration has the point symmetry C_2h.

Analysis of symmetry for dynamics (positions and initial velocities):
 Subroutine PRICEL returns:
 Original cell was already a primitive cell.

[...]

The dynamic configuration has the point symmetry C_2h.

Analysis of structural, dynamic, and magnetic symmetry:
 Subroutine PRICEL returns:
 Original cell was already a primitive cell.

 Routine SETGRP: Setting up the symmetry group for a
 simple monoclinic supercell.

 Subroutine GETGRP returns: Found  4 space group operations
 (whereof  4 operations were pure point group operations)
 out of a pool of  4 trial point group operations.

The magnetic configuration has the point symmetry C_2h.

 Subroutine INISYM returns: Found  4 space group operations
 (whereof  4 operations are pure point group operations),
 and found     1 'primitive' translations

 KPOINTS: Automatic mesh

Automatic generation of k-mesh.
Space group operators:
 irot       det(A)        alpha          n_x          n_y          n_z        tau_x        tau_y        tau_z
    1     1.000000     0.000000     1.000000     0.000000     0.000000     0.000000     0.000000     0.000000
    2    -1.000000     0.000000     1.000000     0.000000     0.000000     0.000000     0.000000     0.000000
    3     1.000000   180.000000     0.000000     1.000000     0.000000     0.000000     0.000000     0.000000
    4    -1.000000   180.000000     0.000000     1.000000     0.000000     0.000000     0.000000     0.000000

 Subroutine IBZKPT returns following result:

 Found      1 irreducible k-points:

 Following reciprocal coordinates:
            Coordinates               Weight
  0.000000  0.000000  0.000000      1.000000

 Following cartesian coordinates:
            Coordinates               Weight
  0.000000  0.000000  0.000000      1.000000

 SYSTEM =  unknown system
 POSCAR =  ce13433_1

 Startparameter for this run:
   NWRITE =      1    write-flag & timer
   PREC   = accura    normal or accurate (medium, high low for compatibility)
   ISTART =      0    job   : 0-new  1-cont  2-samecut
   ICHARG =      2    charge: 1-file 2-atom 10-const
   ISPIN  =      2    spin polarized calculation?
   LNONCOLLINEAR =      F non collinear calculations
   LSORBIT =      F    spin-orbit coupling
   INIWAV =      1    electr: 0-lowe 1-rand  2-diag
   LASPH  =      F    aspherical Exc in radial PAW
[...]
   -.155E-10 0.101E-11 -.223E-11   -.199E-12 0.510E-13 0.206E-11   0.000E+00 0.000E+00 0.303E-27   0.206E-11 -.106E-11 0.992E-12
   0.146E-11 -.487E-13 -.150E-12   -.110E-11 -.595E-13 -.603E-11   0.000E+00 0.000E+00 -.452E-25   -.907E-12 -.125E-11 -.952E-12
   0.116E-11 0.975E-12 -.231E-11   -.119E-11 0.256E-12 -.870E-11   0.000E+00 0.000E+00 0.000E+00   -.819E-12 0.124E-11 -.951E-12
   0.207E-11 -.660E-13 0.107E-12   -.475E-11 0.591E-13 0.305E-11   0.000E+00 0.000E+00 0.162E-26   -.223E-11 -.473E-12 -.335E-12
   0.983E+01 0.122E+02 -.250E+02   -.102E+02 -.125E+02 0.256E+02   0.332E+00 0.297E+00 -.575E+00   0.226E-02 -.855E-02 -.232E-02
   -.983E+01 0.122E+02 0.250E+02   0.102E+02 -.125E+02 -.256E+02   -.332E+00 0.297E+00 0.575E+00   -.226E-02 -.855E-02 0.232E-02
   -.983E+01 -.122E+02 0.250E+02   0.102E+02 0.125E+02 -.256E+02   -.332E+00 -.297E+00 0.575E+00   -.226E-02 0.855E-02 0.232E-02
   0.983E+01 -.122E+02 -.250E+02   -.102E+02 0.125E+02 0.256E+02   0.332E+00 -.297E+00 -.575E+00   0.226E-02 0.855E-02 -.232E-02
   -.951E-12 0.933E-12 0.117E-11   0.197E-10 -.113E-12 -.361E-11   0.000E+00 0.000E+00 0.162E-26   -.215E-11 0.471E-12 -.133E-12
   0.186E-13 0.553E-13 0.247E-12   0.210E-10 -.146E-13 -.205E-10   0.000E+00 0.000E+00 -.808E-26   0.319E-11 0.577E-12 0.232E-12
   -.142E-11 0.106E-11 -.487E-11   0.214E-10 -.163E-12 -.211E-10   0.000E+00 0.000E+00 0.202E-26   0.317E-11 -.556E-12 0.153E-12
   -.379E+02 0.439E-13 0.305E+03   0.415E+02 0.939E-15 -.322E+03   -.359E+01 0.000E+00 0.166E+02   -.137E-01 0.132E-12 -.784E-03
   0.379E+02 0.128E-12 -.305E+03   -.415E+02 0.122E-13 0.322E+03   0.359E+01 0.000E+00 -.166E+02   0.137E-01 -.763E-12 0.784E-03
   0.385E+02 0.808E-13 -.304E+03   -.406E+02 -.417E-13 0.319E+03   0.210E+01 0.000E+00 -.150E+02   0.865E-03 0.747E-13 -.526E-02
   -.385E+02 -.634E-14 0.304E+03   0.406E+02 0.390E-14 -.319E+03   -.210E+01 0.000E+00 0.150E+02   -.865E-03 -.176E-12 0.526E-02
   0.414E+02 0.376E+02 0.320E+03   -.455E+02 -.403E+02 -.336E+03   0.403E+01 0.276E+01 0.160E+02   0.119E-01 -.174E-01 0.845E-02
   -.414E+02 0.376E+02 -.320E+03   0.455E+02 -.403E+02 0.336E+03   -.403E+01 0.276E+01 -.160E+02   -.119E-01 -.174E-01 -.845E-02
   -.414E+02 -.376E+02 -.320E+03   0.455E+02 0.403E+02 0.336E+03   -.403E+01 -.276E+01 -.160E+02   -.119E-01 0.174E-01 -.845E-02
   0.414E+02 -.376E+02 0.320E+03   -.455E+02 0.403E+02 -.336E+03   0.403E+01 -.276E+01 0.160E+02   0.119E-01 0.174E-01 0.845E-02
   -.620E+02 -.474E+01 -.343E+03   0.675E+02 0.495E+01 0.363E+03   -.547E+01 -.192E+00 -.192E+02   0.166E-02 -.205E-01 -.181E-02
   0.620E+02 -.474E+01 0.343E+03   -.675E+02 0.495E+01 -.363E+03   0.547E+01 -.192E+00 0.192E+02   -.166E-02 -.205E-01 0.181E-02
   0.620E+02 0.474E+01 0.343E+03   -.675E+02 -.495E+01 -.363E+03   0.547E+01 0.192E+00 0.192E+02   -.166E-02 0.205E-01 0.181E-02
   -.620E+02 0.474E+01 -.343E+03   0.675E+02 -.495E+01 0.363E+03   -.547E+01 0.192E+00 -.192E+02   0.166E-02 0.205E-01 -.181E-02
   0.438E+01 0.293E-12 0.281E+03   -.533E+01 0.825E-14 -.294E+03   0.972E+00 0.000E+00 0.132E+02   -.847E-02 -.143E-12 -.465E-02
   -.438E+01 0.303E-12 -.281E+03   0.533E+01 -.752E-14 0.294E+03   -.972E+00 0.000E+00 -.132E+02   0.847E-02 0.815E-12 0.465E-02
   0.565E+02 0.236E-12 -.313E+03   -.596E+02 0.539E-13 0.328E+03   0.318E+01 0.000E+00 -.152E+02   -.580E-02 -.349E-13 0.259E-02
   -.565E+02 0.223E-12 0.313E+03   0.596E+02 0.419E-13 -.328E+03   -.318E+01 0.646E-26 0.152E+02   0.580E-02 0.193E-12 -.259E-02
   -.375E+02 0.601E-13 0.304E+03   0.394E+02 0.647E-13 -.319E+03   -.188E+01 0.000E+00 0.147E+02   -.204E-01 -.730E-12 0.510E-02
   0.375E+02 0.103E-12 -.304E+03   -.394E+02 0.720E-13 0.319E+03   0.188E+01 0.000E+00 -.147E+02   0.204E-01 0.132E-11 -.510E-02
   0.366E+02 0.236E-13 -.304E+03   -.403E+02 0.512E-13 0.321E+03   0.367E+01 0.000E+00 -.164E+02   0.844E-02 -.500E-13 -.541E-02
   -.366E+02 -.102E-13 0.304E+03   0.403E+02 0.637E-13 -.321E+03   -.367E+01 0.000E+00 0.164E+02   -.844E-02 0.382E-12 0.541E-02
   0.637E+02 -.360E+01 0.345E+03   -.692E+02 0.382E+01 -.364E+03   0.555E+01 -.219E+00 0.192E+02   0.939E-02 -.624E-02 0.634E-02
   -.637E+02 -.360E+01 -.345E+03   0.692E+02 0.382E+01 0.364E+03   -.555E+01 -.219E+00 -.192E+02   -.939E-02 -.624E-02 -.634E-02
   -.637E+02 0.360E+01 -.345E+03   0.692E+02 -.382E+01 0.364E+03   -.555E+01 0.219E+00 -.192E+02   -.939E-02 0.624E-02 -.634E-02
   0.637E+02 0.360E+01 0.345E+03   -.692E+02 -.382E+01 -.364E+03   0.555E+01 0.219E+00 0.192E+02   0.939E-02 0.624E-02 0.634E-02
   -.412E+02 0.374E+02 -.321E+03   0.452E+02 -.400E+02 0.337E+03   -.403E+01 0.259E+01 -.163E+02   0.109E-02 -.116E-01 0.548E-03
   0.412E+02 0.374E+02 0.321E+03   -.452E+02 -.400E+02 -.337E+03   0.403E+01 0.259E+01 0.163E+02   -.109E-02 -.116E-01 -.548E-03
   0.412E+02 -.374E+02 0.321E+03   -.452E+02 0.400E+02 -.337E+03   0.403E+01 -.259E+01 0.163E+02   -.109E-02 0.116E-01 -.548E-03
   -.412E+02 -.374E+02 -.321E+03   0.452E+02 0.400E+02 0.337E+03   -.403E+01 -.259E+01 -.163E+02   0.109E-02 0.116E-01 0.548E-03
   -.535E+02 0.239E-12 0.314E+03   0.564E+02 -.284E-13 -.329E+03   -.289E+01 0.000E+00 0.153E+02   -.710E-02 0.717E-12 -.227E-02
   0.535E+02 0.336E-12 -.314E+03   -.564E+02 -.751E-13 0.329E+03   0.289E+01 0.000E+00 -.153E+02   0.710E-02 -.129E-11 0.227E-02
   -.122E+02 0.281E-12 -.280E+03   0.138E+02 0.215E-13 0.293E+03   -.153E+01 0.000E+00 -.132E+02   -.106E-01 0.159E-12 0.618E-02
   0.122E+02 0.187E-12 0.280E+03   -.138E+02 0.106E-13 -.293E+03   0.153E+01 0.000E+00 0.132E+02   0.106E-01 -.370E-12 -.618E-02
   -.205E-10 0.140E-10 -.174E-10   0.711E-14 0.113E-12 0.227E-12   0.178E-14 0.000E+00 -.178E-14   -.939E-12 0.510E-12 0.323E-11

 POSITION                                       TOTAL-FORCE (eV/Angst)
      3.89046      1.38165      2.38215        -0.008420      0.001640     -0.005185
      2.39207      1.38165      7.11655         0.008420      0.001640      0.005185
      2.39207      4.24283      7.11655         0.008420     -0.001640      0.005185
      3.89046      4.24283      2.38215        -0.008420     -0.001640     -0.005185
     -0.74893      1.37778      2.36683         0.007252      0.004268      0.005026
      7.03145      1.37778      7.13188        -0.007252      0.004268     -0.005026
      7.03145      4.24670      7.13188        -0.007252     -0.004268     -0.005026
     -0.74893      4.24670      2.36683         0.007252     -0.004268      0.005026
      6.51312      2.81224      2.41275        -0.001817     -0.000000     -0.000166
     -0.23060      2.81224      7.08596         0.001817     -0.000000      0.000166
      0.00000     -0.00000     -0.00000         0.000000     -0.000000     -0.000000
     -1.13439      1.40213      9.44152        -0.001282      0.006951     -0.013177
      7.41692      1.40213      0.05718         0.001282      0.006951      0.013177
      7.41692      4.22235      0.05718         0.001282     -0.006951      0.013177
     -1.13439      4.22235      9.44152        -0.001282     -0.006951     -0.013177
      0.00000      2.81224     -0.00000         0.000000     -0.000000     -0.000000
      4.93656     -0.00000      0.03286         0.000000     -0.000000     -0.000000
      4.93656      2.81224      0.03286         0.000000     -0.000000     -0.000000
      3.14126     -0.00000      4.74935         0.000000     -0.000000     -0.000000
      5.59468      1.40178      4.76300        -0.001059      0.004738     -0.011386
      0.68785      1.40178      4.73571         0.001059      0.004738      0.011386
      0.68785      4.22269      4.73571         0.001059     -0.004738      0.011386
      5.59468      4.22269      4.76300        -0.001059     -0.004738     -0.011386
      3.14126      2.81224      4.74935         0.000000     -0.000000     -0.000000
     -1.79530     -0.00000      4.71649         0.000000     -0.000000     -0.000000
     -1.79530      2.81224      4.71649         0.000000     -0.000000     -0.000000
      4.76868     -0.00000      3.79728        -0.005347     -0.000000     -0.008708
      1.51384     -0.00000      5.70143         0.005347     -0.000000      0.008708
      3.25468     -0.00000      0.96667        -0.007204     -0.000000     -0.008701
      3.02784     -0.00000      8.53203         0.007204     -0.000000      0.008701
      7.37884      1.42254      3.77823         0.004185     -0.003336      0.001113
     -1.09631      1.42254      5.72047        -0.004185     -0.003336     -0.001113
     -1.09631      4.20193      5.72047        -0.004185      0.003336     -0.001113
      7.37884      4.20193      3.77823         0.004185      0.003336      0.001113
      0.71281      1.41084      0.96970         0.005799     -0.000234     -0.007057
      5.56971      1.41084      8.52900        -0.005799     -0.000234      0.007057
      5.56971      4.21363      8.52900        -0.005799      0.000234      0.007057
      0.71281      4.21363      0.96970         0.005799      0.000234     -0.007057
      4.84828      2.81224      3.74646         0.007834     -0.000000     -0.008362
      1.43425      2.81224      5.75224        -0.007834     -0.000000      0.008362
      3.29251      2.81224      0.96904        -0.002029     -0.000000     -0.008723
      2.99002      2.81224      8.52967         0.002029     -0.000000      0.008723
     -0.11549     -0.00000      3.77747         0.004312     -0.000000      0.011073
      6.39802     -0.00000      5.72123        -0.004312     -0.000000     -0.011073
      8.25000     -0.00000      1.02485         0.005478     -0.000000      0.009237
     -1.96748     -0.00000      8.47386        -0.005478     -0.000000     -0.009237
      2.43585      1.40974      3.77421        -0.004502      0.000625      0.008485
      3.84667      1.40974      5.72449         0.004502      0.000625     -0.008485
      3.84667      4.21474      5.72449         0.004502     -0.000625     -0.008485
      2.43585      4.21474      3.77421        -0.004502     -0.000625      0.008485
      5.63237      1.42119      1.03787        -0.004470     -0.003264      0.000891
      0.65015      1.42119      8.46084         0.004470     -0.003264     -0.000891
      0.65015      4.20328      8.46084         0.004470      0.003264     -0.000891
      5.63237      4.20328      1.03787        -0.004470      0.003264      0.000891
     -0.14477      2.81224      3.78162         0.003769     -0.000000      0.007303
      6.42730      2.81224      5.71708        -0.003769     -0.000000     -0.007303
      8.14083      2.81224      1.07799        -0.012040     -0.000000      0.013371
     -1.85830      2.81224      8.42072         0.012040     -0.000000     -0.013371
    total drift:                               -0.000000      0.000000     -0.000000

  FREE ENERGIE OF THE ION-ELECTRON SYSTEM (eV)
  free  energy   TOTEN  =      -354.7169992154 eV

  energy  without entropy=     -354.7063907729  energy(sigma->0) =     -354.71169499

 d Force = 0.9809679E-03[ 0.855E-03, 0.111E-02]  d Energy = 0.9577816E-03 0.232E-04
 d Force =-0.3591844E+01[-0.360E+01,-0.358E+01]  d Ewald  =-0.1144291E+02 0.785E+01

 Quasi-Newton relaxation of ions (Broydens 2nd method)
  g(Force)  = 0.262E-03   g(Stress)= 0.916E-05

 retain information from N=  2 steps
 eigenvalues of (default step * inverse Hessian matrix)
  average eigenvalue of G=   1.5675
 eigenvalue spectrum of G is  1.5675  1.5675

 reached required accuracy - stopping structural energy minimisation

volume of typ            1:    14.8 %

[...]

volume of typ            3:     9.9 %

total charge

# of ion       s       p       d       tot
    1        2.076   0.249   0.090   2.416
    2        2.076   0.249   0.090   2.416
    3        2.076   0.249   0.090   2.416
    4        2.076   0.249   0.090   2.416
    5        2.076   0.248   0.090   2.413
    6        2.076   0.248   0.090   2.413
    7        2.076   0.248   0.090   2.413
    8        2.076   0.248   0.090   2.413
    9        2.075   0.227   0.085   2.388
   10        2.075   0.227   0.085   2.388
   11        0.300   0.426   7.843   8.569
   12        0.262   0.343   7.859   8.463
   13        0.262   0.343   7.859   8.463
   14        0.262   0.343   7.859   8.463
   15        0.262   0.343   7.859   8.463
   16        0.283   0.390   7.859   8.532
   17        0.281   0.386   7.846   8.513
   18        0.300   0.428   7.850   8.578
   19        0.300   0.427   7.842   8.570
   20        0.261   0.342   7.861   8.464
   21        0.261   0.342   7.861   8.464
   22        0.261   0.342   7.861   8.464
   23        0.261   0.342   7.861   8.464
   24        0.285   0.397   7.855   8.536
   25        0.280   0.385   7.845   8.509
   26        0.300   0.426   7.851   8.577
   27        1.264   2.779   0.007   4.049
   28        1.264   2.779   0.007   4.049
   29        1.262   2.786   0.007   4.055
   30        1.262   2.786   0.007   4.055
   31        1.267   2.768   0.006   4.042
   32        1.267   2.768   0.006   4.042
   33        1.267   2.768   0.006   4.042
   34        1.267   2.768   0.006   4.042
   35        1.270   2.763   0.007   4.040
   36        1.270   2.763   0.007   4.040
   37        1.270   2.763   0.007   4.040
   38        1.270   2.763   0.007   4.040
   39        1.260   2.787   0.006   4.052
   40        1.260   2.787   0.006   4.052
   41        1.262   2.784   0.006   4.053
   42        1.262   2.784   0.006   4.053
   43        1.262   2.788   0.007   4.056
   44        1.262   2.788   0.007   4.056
   45        1.263   2.778   0.007   4.049
   46        1.263   2.778   0.007   4.049
   47        1.270   2.763   0.007   4.040
   48        1.270   2.763   0.007   4.040
   49        1.270   2.763   0.007   4.040
   50        1.270   2.763   0.007   4.040
   51        1.267   2.768   0.006   4.041
   52        1.267   2.768   0.006   4.041
   53        1.267   2.768   0.006   4.041
   54        1.267   2.768   0.006   4.041
   55        1.262   2.784   0.007   4.052
   56        1.262   2.784   0.007   4.052
   57        1.259   2.787   0.006   4.053
   58        1.259   2.787   0.006   4.053
tot          65.67   97.24  126.77  289.67

magnetization (x)

# of ion       s       p       d       tot
    1        0.005   0.017  -0.000   0.021
    2        0.005   0.017  -0.000   0.021
    3        0.005   0.017  -0.000   0.021
    4        0.005   0.017  -0.000   0.021
    5        0.005   0.016  -0.000   0.021
    6        0.005   0.016  -0.000   0.021
    7        0.005   0.016  -0.000   0.021
    8        0.005   0.016  -0.000   0.021
    9       -0.000   0.004  -0.000   0.003
   10       -0.000   0.004  -0.000   0.003
   11       -0.001  -0.000  -0.002  -0.003
   12        0.001  -0.000   0.708   0.709
   13        0.001  -0.000   0.708   0.709
   14        0.001  -0.000   0.708   0.709
   15        0.001  -0.000   0.708   0.709
   16       -0.004  -0.000  -0.413  -0.417
   17       -0.001  -0.000  -0.009  -0.010
   18       -0.001  -0.000   0.069   0.068
   19       -0.001  -0.000   0.027   0.026
   20        0.001   0.000   0.701   0.702
   21        0.001   0.000   0.701   0.702
   22        0.001   0.000   0.701   0.702
   23        0.001   0.000   0.701   0.702
   24        0.001  -0.000   0.299   0.300
   25       -0.001  -0.000   0.259   0.258
   26       -0.001  -0.000   0.106   0.105
   27        0.007   0.025   0.000   0.032
   28        0.007   0.025   0.000   0.032
   29        0.007   0.021   0.000   0.027
   30        0.007   0.021   0.000   0.027
   31        0.008   0.051   0.000   0.059
   32        0.008   0.051   0.000   0.059
   33        0.008   0.051   0.000   0.059
   34        0.008   0.051   0.000   0.059
   35        0.004   0.040   0.000   0.044
   36        0.004   0.040   0.000   0.044
   37        0.004   0.040   0.000   0.044
   38        0.004   0.040   0.000   0.044
   39        0.010   0.045   0.000   0.055
   40        0.010   0.045   0.000   0.055
   41        0.008   0.034   0.000   0.042
   42        0.008   0.034   0.000   0.042
   43        0.009   0.040   0.000   0.049
   44        0.009   0.040   0.000   0.049
   45        0.007   0.032   0.000   0.040
   46        0.007   0.032   0.000   0.040
   47        0.006   0.050   0.000   0.056
   48        0.006   0.050   0.000   0.056
   49        0.006   0.050   0.000   0.056
   50        0.006   0.050   0.000   0.056
   51        0.006   0.044   0.000   0.050
   52        0.006   0.044   0.000   0.050
   53        0.006   0.044   0.000   0.050
   54        0.006   0.044   0.000   0.050
   55        0.008   0.029   0.000   0.037
   56        0.008   0.029   0.000   0.037
   57        0.002  -0.018  -0.000  -0.016
   58        0.002  -0.018  -0.000  -0.016
tot           0.25    1.29    5.98    7.52