 vasp.5.4.4.18Apr17-6-g9f103f2a35 (build May 12 2020 05:39:39) gamma-only

 MD_VERSION_INFO: Compiled 2020-05-12T12:39:39-UTC in devlin.sd.materialsdesign.
 com:/home/medea2/data/build/wwolf/vasp-gpu5.4.4/13047/x86_64/src/src/build/gam
 from svn 13047

 executed on                        Lin64 date 2023.03.07  04:25:15

 INCAR:
 POTCAR:    PAW_PBE Li_sv 10Sep2004
 POTCAR:    PAW_PBE Ni 02Aug2007
 POTCAR:    PAW_PBE O 08Apr2002

 POTCAR:    PAW_PBE Li_sv 10Sep2004

 POTCAR:    PAW_PBE Ni 02Aug2007

 POTCAR:    PAW_PBE O 08Apr2002

 Optimization of the real space projectors (new method)

 maximal supplied QI-value         = 22.11
 optimisation between [QCUT,QGAM] = [ 11.28, 22.77] = [ 35.61,145.23] Ry
 Optimized for a Real-space Cutoff    1.10 Angstroem

   l    n(q)    QCUT    max X(q) W(low)/X(q) W(high)/X(q)  e(spline)
   0      7    11.276    10.506    0.54E-04    0.58E-04    0.16E-07
   0      7    11.276     8.367    0.11E-03    0.14E-03    0.35E-07
   1      7    11.276     8.983    0.23E-03    0.43E-03    0.86E-07
 Optimization of the real space projectors (new method)

[...]

   l    n(q)    QCUT    max X(q) W(low)/X(q) W(high)/X(q)  e(spline)
   2      9    11.376    60.317    0.17E-03    0.16E-04    0.16E-06
   2      9    11.376    55.921    0.17E-03    0.16E-04    0.17E-06
   0     10    11.376    51.690    0.45E-04    0.60E-04    0.21E-06
   0     10    11.376    30.015    0.37E-04    0.55E-04    0.19E-06
   1     10    11.376    18.849    0.83E-04    0.11E-03    0.92E-07
   1     10    11.376    14.624    0.69E-04    0.92E-04    0.82E-07
 Optimization of the real space projectors (new method)

 maximal supplied QI-value         = 24.76
 optimisation between [QCUT,QGAM] = [ 11.39, 22.77] = [ 36.31,145.25] Ry
 Optimized for a Real-space Cutoff    1.10 Angstroem

   l    n(q)    QCUT    max X(q) W(low)/X(q) W(high)/X(q)  e(spline)
   0      7    11.387    20.381    0.22E-03    0.48E-03    0.18E-06
   0      7    11.387    15.268    0.22E-03    0.52E-03    0.19E-06
   1      7    11.387     5.964    0.22E-03    0.73E-03    0.24E-06
   1      7    11.387     5.382    0.19E-03    0.60E-03    0.21E-06

  PAW_PBE Li_sv 10Sep2004               :
  PAW_PBE Ni 02Aug2007                  :
  PAW_PBE O 08Apr2002                   :

 POSCAR: ce1368_1
  positions in direct lattice
 exchange correlation table for  LEXCH =       14
   RHO(1)=    0.500       N(1)  =     2000
   RHO(2)=  100.500       N(2)  =     4000

 ion  position               nearest neighbor table
   1  0.991  0.250  0.250-  40 2.09  52 2.09  31 2.11  45 2.12  49 2.15  37 2.15
   2  0.991  0.750  0.750-  39 2.09  51 2.09  32 2.11  46 2.12  50 2.15  38 2.15
   3  0.250  0.250  0.500-  53 2.08  49 2.08  43 2.13  41 2.13  31 2.13  29 2.13  14 2.84  22 2.84

   4  0.250  0.750  0.500-  54 2.08  50 2.08  44 2.13  42 2.13  32 2.13  30 2.13  15 2.84  23 2.84

   5  0.509  0.251  0.250-  52 2.09  40 2.09  43 2.11  57 2.12  49 2.15  37 2.16  26 2.84
   6  0.509  0.749  0.750-  51 2.09  39 2.09  44 2.11  58 2.12  50 2.15  38 2.16  26 2.84
   7  0.991  0.249  0.750-  56 2.09  36 2.09  47 2.11  29 2.12  53 2.15  33 2.15  19 2.84
   8  0.991  0.751  0.250-  55 2.09  35 2.09  48 2.11  30 2.12  54 2.15  34 2.15  19 2.84
   9  0.252  0.250  0.000-  37 2.06  33 2.06  59 2.13  57 2.14  47 2.14  45 2.15
  10  0.252  0.750  1.000-  38 2.06  34 2.06  60 2.13  58 2.14  48 2.14  46 2.15
  11  0.509  0.249  0.750-  56 2.09  36 2.09  59 2.12  41 2.12  53 2.15  33 2.16  20 2.84
  12  0.509  0.751  0.250-  55 2.09  35 2.09  60 2.12  42 2.12  54 2.15  34 2.16  20 2.84
  13  0.999  0.000  0.000-  39 1.88  40 1.88  37 1.89  38 1.89  47 2.02  48 2.02  18 2.79  18 2.81
                            17 2.86  16 2.86  15 2.86  14 2.86
  14  0.250  0.001  0.250-  43 1.85  31 1.85  60 1.85  48 1.85  54 2.06  37 2.06  17 2.80  17 2.80
                             3 2.84  18 2.86  13 2.86  20 2.87  19 2.87
  15  0.250  0.999  0.750-  44 1.85  32 1.85  59 1.85  47 1.85  53 2.06  38 2.06  16 2.80  16 2.80
                             4 2.84  18 2.86  13 2.86  20 2.87  19 2.87
  16  0.750  0.999  0.750-  32 1.87  59 1.87  44 1.87  47 1.87  56 1.93  39 1.93  15 2.80  15 2.80
                            13 2.86  18 2.86  19 2.86  20 2.86
  17  0.750  0.001  0.250-  31 1.87  60 1.87  43 1.87  48 1.87  55 1.93  40 1.93  14 2.80  14 2.80
                            13 2.86  18 2.86  19 2.86  20 2.86
  18  0.501  0.000  0.000-  39 1.88  40 1.88  37 1.89  38 1.89  59 2.02  60 2.02  13 2.79  13 2.81
                            17 2.86  16 2.86  15 2.86  14 2.86
  19  0.999  0.000  0.500-  55 1.88  56 1.88  53 1.89  54 1.89  31 2.03  32 2.03  20 2.79  20 2.81
                             8 2.84   7 2.84  17 2.86  16 2.86  15 2.87  14 2.87
  20  0.501  0.000  0.500-  55 1.88  56 1.88  53 1.89  54 1.89  43 2.03  44 2.03  19 2.79  19 2.81
                            11 2.84  12 2.84  16 2.86  17 2.86  14 2.87  15 2.87
  21  0.999  0.500  0.500-  51 1.88  52 1.88  49 1.89  50 1.89  29 2.03  30 2.03  26 2.79  26 2.81
                            25 2.86  24 2.86  23 2.87  22 2.87
  22  0.250  0.499  0.750-  41 1.85  29 1.85  46 1.85  58 1.85  50 2.06  33 2.06  25 2.80  25 2.80
                             3 2.84  27 2.86  28 2.86  21 2.87  26 2.87
  23  0.250  0.501  0.250-  42 1.85  30 1.85  45 1.85  57 1.85  49 2.06  34 2.06  24 2.80  24 2.80
                             4 2.84  27 2.86  28 2.86  21 2.87  26 2.87
  24  0.750  0.501  0.250-  30 1.87  42 1.87  45 1.87  57 1.87  52 1.93  35 1.93  23 2.80  23 2.80
                            28 2.86  27 2.86  21 2.86  26 2.86
  25  0.750  0.499  0.750-  29 1.87  41 1.87  46 1.87  58 1.87  51 1.93  36 1.93  22 2.80  22 2.80
                            28 2.86  27 2.86  21 2.86  26 2.86
  26  0.501  0.500  0.500-  51 1.88  52 1.88  49 1.89  50 1.89  41 2.03  42 2.03  21 2.79  21 2.81
                             5 2.84   6 2.84  25 2.86  24 2.86  23 2.87  22 2.87
  27  0.999  0.500  0.000-  35 1.88  36 1.88  33 1.89  34 1.89  45 2.02  46 2.02  28 2.79  28 2.81
                            25 2.86  24 2.86  23 2.86  22 2.86
  28  0.501  0.500  0.000-  35 1.88  36 1.88  33 1.89  34 1.89  57 2.02  58 2.02  27 2.79  27 2.81
                            24 2.86  25 2.86  22 2.86  23 2.86
  29  0.003  0.394  0.640-  22 1.85  25 1.87  21 2.03   7 2.12   3 2.13
  30  0.003  0.606  0.360-  23 1.85  24 1.87  21 2.03   8 2.12   4 2.13
  31  0.003  0.106  0.360-  14 1.85  17 1.87  19 2.03   1 2.11   3 2.13
  32  0.003  0.894  0.640-  15 1.85  16 1.87  19 2.03   2 2.11   4 2.13
  33  0.250  0.389  0.890-  28 1.89  27 1.89  22 2.06   9 2.06   7 2.15  11 2.16
  34  0.250  0.611  0.110-  28 1.89  27 1.89  23 2.06  10 2.06   8 2.15  12 2.16
  35  0.750  0.603  0.118-  28 1.88  27 1.88  24 1.93   8 2.09  12 2.09
  36  0.750  0.397  0.882-  28 1.88  27 1.88  25 1.93   7 2.09  11 2.09
  37  0.250  0.111  0.110-  13 1.89  18 1.89   9 2.06  14 2.06   1 2.15   5 2.16
  38  0.250  0.889  0.890-  13 1.89  18 1.89  10 2.06  15 2.06   2 2.15   6 2.16
  39  0.750  0.897  0.882-  13 1.88  18 1.88  16 1.93   2 2.09   6 2.09
  40  0.750  0.103  0.118-  13 1.88  18 1.88  17 1.93   1 2.09   5 2.09
  41  0.497  0.394  0.640-  22 1.85  25 1.87  26 2.03  11 2.12   3 2.13
  42  0.497  0.606  0.360-  23 1.85  24 1.87  26 2.03  12 2.12   4 2.13
  43  0.497  0.106  0.360-  14 1.85  17 1.87  20 2.03   5 2.11   3 2.13
  44  0.497  0.894  0.640-  15 1.85  16 1.87  20 2.03   6 2.11   4 2.13
  45  0.003  0.396  0.140-  23 1.85  24 1.87  27 2.02   1 2.12   9 2.15
  46  0.003  0.604  0.860-  22 1.85  25 1.87  27 2.02   2 2.12  10 2.15
  47  0.003  0.104  0.860-  15 1.85  16 1.87  13 2.02   7 2.11   9 2.14
  48  0.003  0.896  0.140-  14 1.85  17 1.87  13 2.02   8 2.11  10 2.14
  49  0.250  0.390  0.389-  21 1.89  26 1.89  23 2.06   3 2.08   5 2.15   1 2.15
  50  0.250  0.610  0.611-  21 1.89  26 1.89  22 2.06   4 2.08   6 2.15   2 2.15
  51  0.750  0.601  0.619-  21 1.88  26 1.88  25 1.93   6 2.09   2 2.09
  52  0.750  0.399  0.381-  21 1.88  26 1.88  24 1.93   5 2.09   1 2.09
  53  0.250  0.110  0.611-  20 1.89  19 1.89  15 2.06   3 2.08  11 2.15   7 2.15
  54  0.250  0.890  0.389-  20 1.89  19 1.89  14 2.06   4 2.08  12 2.15   8 2.15
  55  0.750  0.899  0.381-  20 1.88  19 1.88  17 1.93  12 2.09   8 2.09
  56  0.750  0.101  0.619-  20 1.88  19 1.88  16 1.93  11 2.09   7 2.09
  57  0.497  0.396  0.140-  23 1.85  24 1.87  28 2.02   5 2.12   9 2.14
  58  0.497  0.604  0.860-  22 1.85  25 1.87  28 2.02   6 2.12  10 2.14
  59  0.497  0.104  0.860-  15 1.85  16 1.87  18 2.02  11 2.12   9 2.13
  60  0.497  0.896  0.140-  14 1.85  17 1.87  18 2.02  12 2.12  10 2.13

  LATTYP: Found a simple monoclinic cell.
 ALAT       =    11.3931746204
 B/A-ratio  =     0.4918345778
 C/A-ratio  =     1.6699286223
 COS(beta)  =    -0.9014013995

  Lattice vectors:

 A1 = (  -6.3627220746,   0.0000000000,  -9.4509362358)
 A2 = (   0.0000000000,  -5.6035572295,   0.0000000000)
 A3 = (   2.7441241341,   0.0000000000,  18.8268533449)

Analysis of symmetry for initial positions (statically):
 Subroutine PRICEL returns:
 Original cell was already a primitive cell.

 Routine SETGRP: Setting up the symmetry group for a
 simple monoclinic supercell.

 Subroutine GETGRP returns: Found  2 space group operations
 (whereof  2 operations were pure point group operations)
 out of a pool of  4 trial point group operations.

The static configuration has the point symmetry C_2 .

Analysis of symmetry for dynamics (positions and initial velocities):
 Subroutine PRICEL returns:
 Original cell was already a primitive cell.

[...]

The dynamic configuration has the point symmetry C_2 .

Analysis of structural, dynamic, and magnetic symmetry:
 Subroutine PRICEL returns:
 Original cell was already a primitive cell.

 Routine SETGRP: Setting up the symmetry group for a
 simple monoclinic supercell.

 Subroutine GETGRP returns: Found  2 space group operations
 (whereof  2 operations were pure point group operations)
 out of a pool of  4 trial point group operations.

The magnetic configuration has the point symmetry C_2 .

 Subroutine INISYM returns: Found  2 space group operations
 (whereof  2 operations are pure point group operations),
 and found     1 'primitive' translations

 KPOINTS: Automatic mesh

Automatic generation of k-mesh.
Space group operators:
 irot       det(A)        alpha          n_x          n_y          n_z        tau_x        tau_y        tau_z
    1     1.000000     0.000001     1.000000     0.000000     0.000000     0.000000     0.000000     0.000000
    2     1.000000   180.000000     0.000000     1.000000     0.000000     0.000000     0.000000     0.000000

 Subroutine IBZKPT returns following result:

 Found      1 irreducible k-points:

 Following reciprocal coordinates:
            Coordinates               Weight
  0.000000  0.000000  0.000000      1.000000

 Following cartesian coordinates:
            Coordinates               Weight
  0.000000  0.000000  0.000000      1.000000

 SYSTEM =  unknown system
 POSCAR =  ce1368_1

 Startparameter for this run:
   NWRITE =      1    write-flag & timer
   PREC   = accura    normal or accurate (medium, high low for compatibility)
[...]
   -.584E-05 0.302E+02 0.103E-05   -.870E-13 -.304E+02 0.182E-13   0.000E+00 0.232E+00 -.116E-22   0.695E-11 -.146E-01 -.149E-11
   0.146E+01 0.610E-01 0.119E+01   -.145E+01 -.743E-01 -.120E+01   0.395E-01 -.257E-03 0.205E-01   -.558E-01 0.144E-01 -.346E-02
   -.146E+01 0.610E-01 -.119E+01   0.145E+01 -.743E-01 0.120E+01   -.395E-01 -.257E-03 -.205E-01   0.558E-01 0.144E-01 0.346E-02
   -.179E+01 -.270E-01 -.184E+01   0.177E+01 0.426E-01 0.187E+01   -.333E-01 -.112E-02 -.398E-01   0.567E-01 -.136E-01 0.263E-02
   0.179E+01 -.270E-01 0.184E+01   -.177E+01 0.426E-01 -.187E+01   0.333E-01 -.112E-02 0.398E-01   -.567E-01 -.136E-01 -.263E-02
   0.783E-05 -.302E+02 -.139E-05   -.137E-12 0.304E+02 0.107E-12   0.000E+00 -.233E+00 0.993E-23   0.508E-11 0.151E-01 -.346E-12
   -.518E-05 0.302E+02 0.878E-06   -.266E-13 -.304E+02 0.711E-13   0.000E+00 0.241E+00 -.331E-23   0.521E-11 -.123E-01 0.944E-12
   0.826E-05 -.303E+02 -.140E-05   -.266E-13 0.305E+02 0.568E-13   0.000E+00 -.245E+00 -.414E-22   0.610E-11 0.113E-01 -.139E-11
   0.419E+02 0.317E+02 0.306E+03   -.467E+02 -.341E+02 -.322E+03   0.485E+01 0.237E+01 0.161E+02   -.197E-01 -.186E-01 -.564E-02
   -.419E+02 0.317E+02 -.306E+03   0.467E+02 -.341E+02 0.322E+03   -.485E+01 0.237E+01 -.161E+02   0.197E-01 -.186E-01 0.564E-02
   -.421E+02 0.317E+02 -.306E+03   0.470E+02 -.340E+02 0.322E+03   -.488E+01 0.236E+01 -.161E+02   0.216E-02 -.100E-01 -.120E-01
   0.421E+02 0.317E+02 0.306E+03   -.470E+02 -.340E+02 -.322E+03   0.488E+01 0.236E+01 0.161E+02   -.216E-02 -.100E-01 0.120E-01
   0.932E+01 0.364E-01 0.278E+03   -.118E+02 -.772E-01 -.290E+03   0.254E+01 0.762E-02 0.118E+02   -.257E-01 0.342E-01 -.480E-01
   -.932E+01 0.364E-01 -.278E+03   0.118E+02 -.772E-01 0.290E+03   -.254E+01 0.762E-02 -.118E+02   0.257E-01 0.342E-01 0.480E-01
   0.291E+02 -.945E-02 -.294E+03   -.314E+02 0.478E-01 0.309E+03   0.227E+01 -.515E-02 -.147E+02   0.428E-01 -.346E-01 0.378E-01
   -.291E+02 -.945E-02 0.294E+03   0.314E+02 0.478E-01 -.309E+03   -.227E+01 -.515E-02 0.147E+02   -.428E-01 -.346E-01 -.378E-01
   -.936E+01 -.135E-01 -.278E+03   0.119E+02 -.599E-02 0.290E+03   -.257E+01 -.241E-02 -.118E+02   0.150E-02 0.248E-01 -.172E-01
   0.936E+01 -.135E-01 0.278E+03   -.119E+02 -.599E-02 -.290E+03   0.257E+01 -.241E-02 0.118E+02   -.150E-02 0.248E-01 0.172E-01
   -.295E+02 0.560E-01 0.295E+03   0.318E+02 -.431E-01 -.309E+03   -.228E+01 0.130E-01 0.147E+02   -.790E-02 -.256E-01 0.176E-01
   0.295E+02 0.560E-01 -.295E+03   -.318E+02 -.431E-01 0.309E+03   0.228E+01 0.130E-01 -.147E+02   0.790E-02 -.256E-01 -.176E-01
   0.418E+02 -.318E+02 0.306E+03   -.467E+02 0.342E+02 -.322E+03   0.484E+01 -.237E+01 0.161E+02   -.121E-01 0.182E-01 -.383E-02
   -.418E+02 -.318E+02 -.306E+03   0.467E+02 0.342E+02 0.322E+03   -.484E+01 -.237E+01 -.161E+02   0.121E-01 0.182E-01 0.383E-02
   -.419E+02 -.317E+02 -.306E+03   0.468E+02 0.341E+02 0.322E+03   -.486E+01 -.237E+01 -.160E+02   -.112E-01 0.103E-01 -.654E-02
   0.419E+02 -.317E+02 0.306E+03   -.468E+02 0.341E+02 -.322E+03   0.486E+01 -.237E+01 0.160E+02   0.112E-01 0.103E-01 0.654E-02
   0.378E+02 0.313E+02 0.307E+03   -.424E+02 -.336E+02 -.324E+03   0.456E+01 0.233E+01 0.162E+02   0.559E-01 -.180E-01 -.239E-01
   -.378E+02 0.313E+02 -.307E+03   0.424E+02 -.336E+02 0.324E+03   -.456E+01 0.233E+01 -.162E+02   -.559E-01 -.180E-01 0.239E-01
   -.384E+02 0.314E+02 -.307E+03   0.430E+02 -.338E+02 0.323E+03   -.459E+01 0.235E+01 -.161E+02   -.119E-01 -.943E-02 -.242E-01
   0.384E+02 0.314E+02 0.307E+03   -.430E+02 -.338E+02 -.323E+03   0.459E+01 0.235E+01 0.161E+02   0.119E-01 -.943E-02 0.242E-01
   0.102E+02 0.122E+00 0.277E+03   -.128E+02 -.130E+00 -.288E+03   0.265E+01 0.111E-01 0.118E+02   0.102E-01 -.422E-03 -.390E-02
   -.102E+02 0.122E+00 -.277E+03   0.128E+02 -.130E+00 0.288E+03   -.265E+01 0.111E-01 -.118E+02   -.102E-01 -.422E-03 0.390E-02
   0.277E+02 -.135E+00 -.292E+03   -.298E+02 0.146E+00 0.307E+03   0.209E+01 -.120E-01 -.147E+02   0.232E-03 0.246E-03 -.292E-02
   -.277E+02 -.135E+00 0.292E+03   0.298E+02 0.146E+00 -.307E+03   -.209E+01 -.120E-01 0.147E+02   -.232E-03 0.246E-03 0.292E-02
   -.100E+02 0.158E+00 -.277E+03   0.127E+02 -.163E+00 0.289E+03   -.265E+01 0.122E-01 -.118E+02   -.298E-02 -.939E-02 -.134E-01
   0.100E+02 0.158E+00 0.277E+03   -.127E+02 -.163E+00 -.289E+03   0.265E+01 0.122E-01 0.118E+02   0.298E-02 -.939E-02 0.134E-01
   -.279E+02 -.143E+00 0.292E+03   0.300E+02 0.146E+00 -.307E+03   -.210E+01 -.109E-01 0.147E+02   -.403E-02 0.961E-02 0.173E-01
   0.279E+02 -.143E+00 -.292E+03   -.300E+02 0.146E+00 0.307E+03   0.210E+01 -.109E-01 -.147E+02   0.403E-02 0.961E-02 -.173E-01
   0.378E+02 -.314E+02 0.307E+03   -.424E+02 0.338E+02 -.323E+03   0.454E+01 -.234E+01 0.161E+02   0.272E-01 0.190E-01 -.107E-01
   -.378E+02 -.314E+02 -.307E+03   0.424E+02 0.338E+02 0.323E+03   -.454E+01 -.234E+01 -.161E+02   -.272E-01 0.190E-01 0.107E-01
   -.380E+02 -.315E+02 -.307E+03   0.425E+02 0.339E+02 0.323E+03   -.454E+01 -.236E+01 -.161E+02   0.115E-01 0.110E-01 -.320E-01
   0.380E+02 -.315E+02 0.307E+03   -.425E+02 0.339E+02 -.323E+03   0.454E+01 -.236E+01 0.161E+02   -.115E-01 0.110E-01 0.320E-01
   0.158E-04 0.110E+00 -.424E-05   -.114E-12 0.178E-12 -.512E-12   0.000E+00 -.128E+00 -.355E-14   -.654E-11 0.181E-01 0.346E-11

 POSITION                                       TOTAL-FORCE (eV/Angst)
      1.58688      5.55515      2.36673         0.001631      0.011533      0.005009
      4.77342      5.55515      7.08357        -0.001631      0.011533     -0.005009
      4.08568      1.40344      2.38010        -0.001818     -0.001665      0.004028
      2.27463      1.40344      7.07021         0.001818     -0.001665     -0.004028
      1.58838      2.85372      2.37044         0.002682     -0.010611     -0.007695
      4.77193      2.85372      7.07987        -0.002682     -0.010611      0.007695
      6.58607      5.55549      2.39090        -0.005046      0.010265      0.013127
     -0.22576      5.55549      7.05940         0.005046      0.010265     -0.013127
     -0.90316      1.40971      2.34061        -0.004393     -0.005986      0.013530
      7.26346      1.40971      7.10969         0.004393     -0.005986     -0.013530
      6.58212      2.85384      2.39156        -0.003354     -0.010611      0.010663
     -0.22181      2.85384      7.05874         0.003354     -0.010611     -0.010663
     -0.00000      5.59975      0.00000        -0.000000     -0.003687      0.000000
      2.49235      1.40234      0.02673         0.005259      0.004369     -0.004495
      3.86796      1.40234      9.42357        -0.005259      0.004369      0.004495
      3.86775      4.20446      9.42290        -0.005680     -0.000416      0.008383
      2.49256      4.20446      0.02740         0.005680     -0.000416     -0.008383
     -0.00000      2.80935      0.00000        -0.000000      0.000013      0.000000
      4.98922      5.59925      0.03720        -0.000000      0.007829      0.000000
      4.98922      2.80936      0.03720        -0.000000     -0.004877      0.000000
      3.18015      5.59899      4.72515        -0.000000      0.002412      0.000000
      5.67722      1.40181      4.73545        -0.003092      0.000842      0.006494
      0.68309      1.40181      4.71486         0.003092      0.000842     -0.006494
      0.68350      4.20406      4.71526         0.001578      0.000869     -0.005266
      5.67680      4.20406      4.73505        -0.001578      0.000869      0.005266
      3.18015      2.80877      4.72515        -0.000000     -0.001010      0.000000
     -1.80907      5.59959      4.68795        -0.000000      0.001603      0.000000
     -1.80907      2.80912      4.68795        -0.000000     -0.002648      0.000000
      4.95885      0.01801      3.74516        -0.002101     -0.000417      0.002022
      1.40145      0.01801      5.70514         0.002101     -0.000417     -0.002022
      3.21014      0.01852      1.01725         0.005244     -0.001545     -0.001207
      3.15017      0.01852      8.43306        -0.005244     -0.001545      0.001207
      7.47041      1.40238      3.71287        -0.004087      0.001097     -0.000997
     -1.11010      1.40238      5.73743         0.004087      0.001097      0.000997
     -0.99915      4.20423      5.65878         0.008104     -0.001381     -0.005474
      7.35946      4.20423      3.79152        -0.008104     -0.001381      0.005474
      0.69952      1.40236      1.04912         0.003410      0.002909      0.000699
      5.66079      1.40236      8.40118        -0.003410      0.002909     -0.000699
      5.54983      4.20449      8.47985        -0.001861      0.000320      0.004621
      0.81047      4.20449      0.97045         0.001861      0.000320     -0.004621
      4.95873      2.78563      3.74520        -0.002099      0.002040      0.001760
      1.40158      2.78563      5.70511         0.002099      0.002040     -0.001760
      3.21020      2.78623      1.01786         0.002661     -0.000305     -0.006361
      3.15011      2.78623      8.43244        -0.002661     -0.000305      0.006361
     -0.03726      0.01774      3.72566         0.010071     -0.000001     -0.015597
      6.39756      0.01774      5.72464        -0.010071     -0.000001      0.015597
      8.20530      0.01816      1.03783        -0.001990     -0.000803      0.007144
     -1.84499      0.01816      8.41248         0.001990     -0.000803     -0.007144
      2.46971      1.40168      3.68590         0.007368      0.001992     -0.010296
      3.89060      1.40168      5.76441        -0.007368      0.001992      0.010296
      4.00015      4.20409      5.68515        -0.002326     -0.000782      0.002538
      2.36016      4.20409      3.76516         0.002326     -0.000782     -0.002538
      5.69958      1.40252      1.07656        -0.007038     -0.001975      0.007418
      0.66073      1.40252      8.37374         0.007038     -0.001975     -0.007418
      0.55087      4.20415      8.45355         0.004288      0.001971     -0.006283
      5.80943      4.20415      0.99676        -0.004288      0.001971      0.006283
     -0.03643      2.78632      3.72509         0.005703      0.000360     -0.011934
      6.39674      2.78632      5.72521        -0.005703      0.000360      0.011934
      8.20538      2.78698      1.03744        -0.003027     -0.001882      0.011771
     -1.84508      2.78698      8.41287         0.003027     -0.001882     -0.011771
    total drift:                                0.000016     -0.000149     -0.000004

  FREE ENERGIE OF THE ION-ELECTRON SYSTEM (eV)
  free  energy   TOTEN  =      -364.3127577753 eV

  energy  without entropy=     -364.3101677015  energy(sigma->0) =     -364.31146274

 d Force = 0.1261766E-03[ 0.993E-04, 0.153E-03]  d Energy = 0.1065367E-03 0.196E-04
 d Force =-0.7806310E-01[-0.787E-01,-0.774E-01]  d Ewald  = 0.2092182E+01-0.217E+01

 Quasi-Newton relaxation of ions (Broydens 2nd method)
  g(Force)  = 0.269E-03   g(Stress)= 0.102E-03

 retain information from N=  1 steps
 eigenvalues of (default step * inverse Hessian matrix)
  average eigenvalue of G=   0.2424
 eigenvalue spectrum of G is  0.2424

 reached required accuracy - stopping structural energy minimisation

volume of typ            1:    17.8 %

[...]

volume of typ            3:     9.9 %

total charge

# of ion       s       p       d       tot
    1        2.077   0.252   0.091   2.421
    2        2.077   0.252   0.091   2.421
    3        2.079   0.249   0.094   2.422
    4        2.079   0.249   0.094   2.422
    5        2.078   0.252   0.091   2.421
    6        2.078   0.252   0.091   2.421
    7        2.077   0.252   0.091   2.421
    8        2.077   0.252   0.091   2.421
    9        2.079   0.250   0.094   2.423
   10        2.079   0.250   0.094   2.423
   11        2.078   0.252   0.091   2.421
   12        2.078   0.252   0.091   2.421
   13        0.262   0.346   7.862   8.470
   14        0.280   0.379   7.871   8.530
   15        0.280   0.379   7.871   8.530
   16        0.282   0.387   7.847   8.516
   17        0.282   0.387   7.847   8.516
   18        0.262   0.346   7.861   8.468
   19        0.261   0.343   7.862   8.467
   20        0.261   0.344   7.863   8.468
   21        0.261   0.344   7.862   8.467
   22        0.280   0.379   7.871   8.530
   23        0.280   0.379   7.871   8.530
   24        0.281   0.387   7.846   8.515
   25        0.281   0.387   7.846   8.515
   26        0.261   0.343   7.862   8.467
   27        0.262   0.346   7.864   8.472
   28        0.262   0.346   7.862   8.470
   29        1.263   2.778   0.006   4.047
   30        1.263   2.778   0.006   4.047
   31        1.263   2.778   0.006   4.048
   32        1.263   2.778   0.006   4.048
   33        1.257   2.793   0.005   4.056
   34        1.257   2.793   0.005   4.056
   35        1.262   2.785   0.006   4.053
   36        1.262   2.785   0.006   4.053
   37        1.257   2.794   0.005   4.056
   38        1.257   2.794   0.005   4.056
   39        1.262   2.785   0.006   4.053
   40        1.262   2.785   0.006   4.053
   41        1.263   2.778   0.006   4.048
   42        1.263   2.778   0.006   4.048
   43        1.263   2.778   0.006   4.048
   44        1.263   2.778   0.006   4.048
   45        1.263   2.778   0.007   4.048
   46        1.263   2.778   0.007   4.048
   47        1.263   2.779   0.007   4.048
   48        1.263   2.779   0.007   4.048
   49        1.257   2.793   0.006   4.056
   50        1.257   2.793   0.006   4.056
   51        1.261   2.786   0.006   4.054
   52        1.261   2.786   0.006   4.054
   53        1.257   2.794   0.006   4.056
   54        1.257   2.794   0.006   4.056
   55        1.261   2.786   0.006   4.054
   56        1.261   2.786   0.006   4.054
   57        1.263   2.779   0.007   4.048
   58        1.263   2.779   0.007   4.048
   59        1.263   2.779   0.007   4.048
   60        1.263   2.779   0.007   4.048
tot          69.63   97.92  127.07  294.63

magnetization (x)

# of ion       s       p       d       tot
    1        0.005   0.017  -0.001   0.021
    2        0.005   0.017  -0.001   0.021
    3        0.006   0.011   0.001   0.017
    4        0.006   0.011   0.001   0.017
    5        0.005   0.017  -0.001   0.021
    6        0.005   0.017  -0.001   0.021
    7        0.005   0.017  -0.001   0.021
    8        0.005   0.017  -0.001   0.021
    9        0.006   0.011   0.001   0.018
   10        0.006   0.011   0.001   0.018
   11        0.005   0.017  -0.001   0.021
   12        0.005   0.017  -0.001   0.021
   13        0.001  -0.000   0.668   0.669
   14        0.004  -0.000   0.608   0.612
   15        0.004  -0.000   0.608   0.612
   16       -0.001  -0.000   0.244   0.243
   17       -0.001  -0.000   0.244   0.243
   18        0.001  -0.000   0.669   0.670
   19        0.001  -0.000   0.685   0.686
   20        0.001  -0.000   0.684   0.685
   21        0.001  -0.000   0.682   0.683
   22        0.004  -0.000   0.607   0.611
   23        0.004  -0.000   0.607   0.611
   24       -0.001  -0.000   0.245   0.243
   25       -0.001  -0.000   0.245   0.243
   26        0.001  -0.000   0.683   0.684
   27        0.001  -0.000   0.665   0.666
   28        0.001  -0.000   0.667   0.667
   29        0.008   0.054   0.000   0.062
   30        0.008   0.054   0.000   0.062
   31        0.008   0.054   0.000   0.062
   32        0.008   0.054   0.000   0.062
   33        0.012   0.089   0.000   0.101
   34        0.012   0.089   0.000   0.101
   35        0.009   0.037   0.000   0.046
   36        0.009   0.037   0.000   0.046
   37        0.012   0.089   0.000   0.101
   38        0.012   0.089   0.000   0.101
   39        0.009   0.037   0.000   0.046
   40        0.009   0.037   0.000   0.046
   41        0.008   0.054   0.000   0.062
   42        0.008   0.054   0.000   0.062
   43        0.008   0.054   0.000   0.062
   44        0.008   0.054   0.000   0.062
   45        0.008   0.050   0.000   0.057
   46        0.008   0.050   0.000   0.057
   47        0.008   0.050   0.000   0.058
   48        0.008   0.050   0.000   0.058
   49        0.012   0.089   0.000   0.101
   50        0.012   0.089   0.000   0.101
   51        0.009   0.036   0.000   0.045
   52        0.009   0.036   0.000   0.045
   53        0.012   0.089   0.000   0.101
   54        0.012   0.089   0.000   0.101
   55        0.009   0.036   0.000   0.045
   56        0.009   0.036   0.000   0.045
   57        0.008   0.050   0.000   0.058
   58        0.008   0.050   0.000   0.058
   59        0.008   0.050   0.000   0.058
   60        0.008   0.050   0.000   0.058
tot           0.38    2.01    8.81   11.20