 vasp.5.4.4.18Apr17-6-g9f103f2a35 (build May 12 2020 05:39:39) gamma-only

 MD_VERSION_INFO: Compiled 2020-05-12T12:39:39-UTC in devlin.sd.materialsdesign.
 com:/home/medea2/data/build/wwolf/vasp-gpu5.4.4/13047/x86_64/src/src/build/gam
 from svn 13047

 executed on                        Lin64 date 2023.03.07  04:26:12

 INCAR:
 POTCAR:    PAW_PBE Li_sv 10Sep2004
 POTCAR:    PAW_PBE Ni 02Aug2007
 POTCAR:    PAW_PBE O 08Apr2002

 POTCAR:    PAW_PBE Li_sv 10Sep2004

 POTCAR:    PAW_PBE Ni 02Aug2007

 POTCAR:    PAW_PBE O 08Apr2002

 Optimization of the real space projectors (new method)

 maximal supplied QI-value         = 22.11
 optimisation between [QCUT,QGAM] = [ 11.28, 22.77] = [ 35.61,145.23] Ry
 Optimized for a Real-space Cutoff    1.10 Angstroem

   l    n(q)    QCUT    max X(q) W(low)/X(q) W(high)/X(q)  e(spline)
   0      7    11.276    10.506    0.54E-04    0.58E-04    0.16E-07
   0      7    11.276     8.367    0.11E-03    0.14E-03    0.35E-07
   1      7    11.276     8.983    0.23E-03    0.43E-03    0.86E-07
 Optimization of the real space projectors (new method)

[...]

   l    n(q)    QCUT    max X(q) W(low)/X(q) W(high)/X(q)  e(spline)
   2      9    11.376    60.317    0.17E-03    0.16E-04    0.16E-06
   2      9    11.376    55.921    0.17E-03    0.16E-04    0.17E-06
   0     10    11.376    51.690    0.45E-04    0.60E-04    0.21E-06
   0     10    11.376    30.015    0.37E-04    0.55E-04    0.19E-06
   1     10    11.376    18.849    0.83E-04    0.11E-03    0.92E-07
   1     10    11.376    14.624    0.69E-04    0.92E-04    0.82E-07
 Optimization of the real space projectors (new method)

 maximal supplied QI-value         = 24.76
 optimisation between [QCUT,QGAM] = [ 11.39, 22.77] = [ 36.31,145.25] Ry
 Optimized for a Real-space Cutoff    1.10 Angstroem

   l    n(q)    QCUT    max X(q) W(low)/X(q) W(high)/X(q)  e(spline)
   0      7    11.387    20.381    0.22E-03    0.48E-03    0.18E-06
   0      7    11.387    15.268    0.22E-03    0.52E-03    0.19E-06
   1      7    11.387     5.964    0.22E-03    0.73E-03    0.24E-06
   1      7    11.387     5.382    0.19E-03    0.60E-03    0.21E-06

  PAW_PBE Li_sv 10Sep2004               :
  PAW_PBE Ni 02Aug2007                  :
  PAW_PBE O 08Apr2002                   :

 POSCAR: ce349_1
  positions in direct lattice
 exchange correlation table for  LEXCH =       14
   RHO(1)=    0.500       N(1)  =     2000
   RHO(2)=  100.500       N(2)  =     4000

 ion  position               nearest neighbor table
   1  0.992  0.250  0.251-  53 2.07  41 2.09  32 2.11  38 2.15  50 2.16  46 2.16  22 2.83  14 2.84

   2  0.995  0.748  0.758-  40 2.08  47 2.09  39 2.09  52 2.13  51 2.13  33 2.19  14 2.80  26 2.83

[...]

  13  0.504  0.752  0.240-  61 2.04  36 2.07  35 2.10  56 2.12  55 2.15  43 2.20  29 2.80  18 2.82

  14  0.999  1.000  1.000-  41 1.88  40 1.88  38 1.89  39 1.90  48 2.03  49 2.03  19 2.79   2 2.80
                            19 2.81   1 2.84  17 2.87  18 2.87  15 2.87  16 2.88
  15  0.250  0.001  0.250-  44 1.85  32 1.85  49 1.85  61 1.85  55 2.06  38 2.06  18 2.80  18 2.80
                             3 2.84  11 2.84  20 2.87  21 2.87  14 2.87  19 2.87
  16  0.250  0.995  0.747-  48 1.85  60 1.85  33 1.87  45 1.87  39 2.06  54 2.07   4 2.79  17 2.80
                            17 2.80  21 2.87  20 2.87  14 2.88  19 2.89
  17  0.750  0.999  0.750-  48 1.87  60 1.87  33 1.88  45 1.88  57 1.94  40 1.94  16 2.80  16 2.80
                             5 2.83  14 2.87  19 2.87  20 2.88  21 2.88
  18  0.750  1.000  0.250-  32 1.87  44 1.87  61 1.87  49 1.87  41 1.95  56 2.00  15 2.80  15 2.80
                             9 2.82  13 2.82  20 2.86  21 2.86  19 2.87  14 2.87
  19  0.501  1.000  1.000-  41 1.88  40 1.88  38 1.89  39 1.90  60 2.03  61 2.03  14 2.79   7 2.81
                            14 2.81   6 2.84  17 2.87  18 2.87  15 2.87  16 2.89
  20  1.000  0.001  0.500-  54 1.88  57 1.88  56 1.89  55 1.89  32 2.03  33 2.06  21 2.80  21 2.81
                             8 2.84  18 2.86  15 2.87  16 2.87  17 2.88
  21  0.501  0.001  0.500-  54 1.88  57 1.88  56 1.89  55 1.89  44 2.03  45 2.06  20 2.80  20 2.81
                            12 2.84  18 2.86  15 2.87  16 2.87  17 2.88
  22  1.000  0.500  0.501-  50 1.87  52 1.87  53 1.90  51 1.90  30 2.01  31 2.06  27 2.80  27 2.81
                             1 2.83  23 2.87  26 2.87  24 2.88  25 2.89
  23  0.250  0.499  0.750-  42 1.85  30 1.85  47 1.85  59 1.85  51 2.07  34 2.07  26 2.80  26 2.80
                             3 2.82  11 2.84  27 2.87  22 2.87  28 2.88  29 2.88
  24  0.250  0.505  0.252-  46 1.84  58 1.84  43 1.86  31 1.86  35 2.12  50 2.13   4 2.80  25 2.80
                            25 2.80  27 2.88  22 2.88  28 2.88  29 2.88
  25  0.750  0.501  0.250-  46 1.88  58 1.88  31 1.88  43 1.88  53 1.92  36 1.92  24 2.80  24 2.80
                             5 2.83  29 2.86  28 2.86  22 2.89  27 2.89
  26  0.750  0.499  0.750-  30 1.87  42 1.87  59 1.87  47 1.87  37 2.04  52 2.11  23 2.80  23 2.80
                             7 2.83   2 2.83  29 2.87  28 2.87  22 2.87  27 2.87
  27  0.501  0.500  0.501-  50 1.87  52 1.87  53 1.90  51 1.90  42 2.01  43 2.06  22 2.80  22 2.81
                             6 2.83  23 2.87  26 2.87  24 2.88  25 2.89
  28  0.999  0.500  0.000-  37 1.86  35 1.88  36 1.90  34 1.90  47 2.00  46 2.01  29 2.79   9 2.79
                            29 2.81   8 2.83  25 2.86  26 2.87  23 2.88  24 2.88
  29  0.501  0.500  0.000-  37 1.86  35 1.88  36 1.89  34 1.90  59 2.00  58 2.01  28 2.79  13 2.80
                            28 2.81  12 2.83  25 2.86  26 2.87  23 2.88  24 2.88
  30  0.001  0.396  0.638-  23 1.85  26 1.87  22 2.01   3 2.13   8 2.17
  31  1.000  0.610  0.364-  24 1.86  25 1.88  22 2.06   5 2.10   4 2.11   9 2.21
  32  0.002  0.105  0.360-  15 1.85  18 1.87  20 2.03   1 2.11   3 2.14
  33  0.999  0.890  0.636-  16 1.87  17 1.88  20 2.06   5 2.09   4 2.10   2 2.19
  34  0.250  0.387  0.888-  29 1.90  28 1.90  10 2.07  23 2.07   8 2.13  12 2.13
  35  0.250  0.613  0.106-  29 1.88  28 1.88  11 2.03   9 2.10  13 2.10  24 2.12
  36  0.750  0.604  0.121-  29 1.89  28 1.90  25 1.92   9 2.07  13 2.07
  37  0.750  0.393  0.890-  29 1.86  28 1.86  26 2.04   8 2.09  12 2.09
  38  0.250  0.110  0.111-  19 1.89  14 1.89  15 2.06  10 2.09   1 2.15   6 2.15
  39  0.250  0.888  0.887-  19 1.90  14 1.90  16 2.06  11 2.07   2 2.09   7 2.10
  40  0.750  0.897  0.881-  19 1.88  14 1.88  17 1.94   2 2.08   7 2.08
  41  0.750  0.102  0.119-  19 1.88  14 1.88  18 1.95   1 2.09   6 2.09
  42  0.499  0.396  0.638-  23 1.85  26 1.87  27 2.01   3 2.13  12 2.16
  43  0.501  0.610  0.363-  24 1.86  25 1.88  27 2.06   5 2.10   4 2.11  13 2.20
  44  0.498  0.106  0.360-  15 1.85  18 1.87  21 2.03   6 2.11   3 2.13
  45  0.502  0.890  0.636-  16 1.87  17 1.88  21 2.06   5 2.09   4 2.10   7 2.19
  46  0.007  0.399  0.140-  24 1.84  25 1.88  28 2.01  10 2.15   1 2.16
  47  0.002  0.602  0.862-  23 1.85  26 1.87  28 2.00   2 2.09  11 2.14
  48  0.006  0.102  0.859-  16 1.85  17 1.87  14 2.03   8 2.12  10 2.13
  49  0.003  0.895  0.139-  15 1.85  18 1.87  14 2.03   9 2.04  11 2.14
  50  0.250  0.389  0.393-  22 1.87  27 1.87   3 2.05  24 2.13   6 2.16   1 2.16
  51  0.250  0.612  0.614-  22 1.90  27 1.90  23 2.07   4 2.09   7 2.13   2 2.13
  52  0.750  0.611  0.609-  22 1.87  27 1.87   5 2.06  26 2.11   7 2.13   2 2.13
  53  0.750  0.398  0.378-  22 1.90  27 1.90  25 1.92   6 2.07   1 2.07
  54  0.250  0.109  0.613-  21 1.88  20 1.88  16 2.07   3 2.10  12 2.15   8 2.15
  55  0.250  0.891  0.387-  21 1.89  20 1.89  15 2.06   4 2.11  13 2.15   9 2.16
  56  0.750  0.893  0.384-  21 1.89  20 1.89  18 2.00  13 2.12   9 2.13   5 2.16
  57  0.750  0.102  0.620-  20 1.88  21 1.88  17 1.94  12 2.08   8 2.08
  58  0.493  0.399  0.140-  24 1.84  25 1.88  29 2.01  10 2.13   6 2.16
  59  0.498  0.602  0.862-  23 1.85  26 1.87  29 2.00   7 2.09  11 2.12
  60  0.494  0.102  0.859-  16 1.85  17 1.87  19 2.03  10 2.12  12 2.12
  61  0.497  0.895  0.139-  15 1.85  18 1.87  19 2.03  13 2.04  11 2.12

  LATTYP: Found a simple monoclinic cell.
 ALAT       =    11.3409994661
 B/A-ratio  =     0.4940581928
 C/A-ratio  =     1.6674180124
 COS(beta)  =    -0.8988085357

  Lattice vectors:

 A1 = (  -6.3595203152,   0.0000417725,  -9.3901421847)
 A2 = (   0.0000504987,   5.6031137005,  -0.0000570433)
 A3 = (  16.3941865739,   0.0000497715,   9.4247446100)

Analysis of symmetry for initial positions (statically):
 Subroutine PRICEL returns:
 Original cell was already a primitive cell.

 Routine SETGRP: Setting up the symmetry group for a
 simple monoclinic supercell.

 Subroutine GETGRP returns: Found  1 space group operations
 (whereof  1 operations were pure point group operations)
 out of a pool of  4 trial point group operations.

The static configuration has the point symmetry C_1 .

Analysis of symmetry for dynamics (positions and initial velocities):
 Subroutine PRICEL returns:
 Original cell was already a primitive cell.

[...]

The dynamic configuration has the point symmetry C_1 .

Analysis of structural, dynamic, and magnetic symmetry:
 Subroutine PRICEL returns:
 Original cell was already a primitive cell.

 Routine SETGRP: Setting up the symmetry group for a
 simple monoclinic supercell.

 Subroutine GETGRP returns: Found  1 space group operations
 (whereof  1 operations were pure point group operations)
 out of a pool of  4 trial point group operations.

The magnetic configuration has the point symmetry C_1 .

 Subroutine INISYM returns: Found  1 space group operations
 (whereof  1 operations are pure point group operations),
 and found     1 'primitive' translations

 KPOINTS: Automatic mesh

Automatic generation of k-mesh.
Space group operators:
 irot       det(A)        alpha          n_x          n_y          n_z        tau_x        tau_y        tau_z
    1     1.000000     0.000000     1.000000     0.000000     0.000000     0.000000     0.000000     0.000000

 Subroutine IBZKPT returns following result:

 Found      1 irreducible k-points:

 Following reciprocal coordinates:
            Coordinates               Weight
  0.000000  0.000000  0.000000      1.000000

 Following cartesian coordinates:
            Coordinates               Weight
  0.000000  0.000000  0.000000      1.000000

 SYSTEM =  unknown system
 POSCAR =  ce349_1

 Startparameter for this run:
   NWRITE =      1    write-flag & timer
   PREC   = accura    normal or accurate (medium, high low for compatibility)
   ISTART =      0    job   : 0-new  1-cont  2-samecut
   ICHARG =      2    charge: 1-file 2-atom 10-const
   ISPIN  =      2    spin polarized calculation?
   LNONCOLLINEAR =      F non collinear calculations
   LSORBIT =      F    spin-orbit coupling
   INIWAV =      1    electr: 0-lowe 1-rand  2-diag
   LASPH  =      F    aspherical Exc in radial PAW
   METAGGA=      F    non-selfconsistent MetaGGA calc.

 Electronic Relaxation 1
   ENCUT  =  500.0 eV  36.75 Ry    6.06 a.u.  10.22 18.33 18.30*2*pi/ulx,y,z
   ENINI  =  500.0     initial cutoff
   ENAUG  =  628.9 eV  augmentation charge cutoff
   NELM   =     80;   NELMIN=  2; NELMDL= -5     # of ELM steps
[...]
   0.152E+02 -.170E+02 -.609E+02   -.156E+02 0.171E+02 0.615E+02   0.381E+00 -.927E-01 -.659E+00   -.629E-02 -.121E-01 0.127E-01
   -.197E+02 0.177E+02 0.608E+02   0.202E+02 -.178E+02 -.614E+02   -.550E+00 0.106E+00 0.613E+00   0.192E-01 -.101E-02 -.969E-02
   -.949E+01 0.913E-01 0.219E+02   0.957E+01 -.103E+00 -.221E+02   -.376E-01 -.966E-03 0.138E+00   -.505E-01 0.142E-01 -.132E-01
   0.262E+01 0.136E+00 0.174E+02   -.304E+01 -.144E+00 -.179E+02   0.372E+00 -.306E-02 0.420E+00   0.465E-01 0.119E-01 0.109E-01
   0.271E+02 -.100E+00 0.603E+02   -.275E+02 0.110E+00 -.609E+02   0.328E+00 0.130E-02 0.558E+00   0.463E-01 -.115E-01 0.108E-01
   0.737E+00 -.851E-01 0.143E+02   -.162E+00 0.981E-01 -.148E+02   -.528E+00 0.272E-02 0.473E+00   -.468E-01 -.142E-01 -.163E-01
   -.196E+02 -.177E+02 0.607E+02   0.201E+02 0.178E+02 -.613E+02   -.549E+00 -.105E+00 0.611E+00   0.203E-01 0.845E-03 -.988E-02
   0.982E+01 0.279E+02 0.180E+02   -.997E+01 -.282E+02 -.181E+02   0.174E+00 0.339E+00 0.145E+00   -.172E-01 -.648E-02 0.682E-02
   0.984E+01 -.279E+02 0.180E+02   -.999E+01 0.283E+02 -.182E+02   0.174E+00 -.343E+00 0.144E+00   -.183E-01 0.688E-02 0.665E-02
   0.311E+02 0.370E+02 0.308E+03   -.354E+02 -.395E+02 -.324E+03   0.423E+01 0.246E+01 0.166E+02   -.220E-02 0.129E-01 -.509E-02
   -.152E+02 -.196E+01 -.257E+03   0.185E+02 0.150E+01 0.269E+03   -.339E+01 0.457E+00 -.126E+02   0.168E-01 -.502E-02 0.157E-01
   -.375E+02 0.330E+02 -.312E+03   0.422E+02 -.355E+02 0.328E+03   -.466E+01 0.246E+01 -.162E+02   0.445E-01 0.398E-01 0.533E-02
   0.179E+02 0.672E+00 0.256E+03   -.213E+02 -.107E+01 -.268E+03   0.341E+01 0.407E+00 0.121E+02   -.427E-01 -.142E-01 -.684E-02
   0.132E+02 0.239E+00 0.279E+03   -.159E+02 -.241E+00 -.291E+03   0.269E+01 0.126E-01 0.114E+02   -.290E-01 -.125E-01 0.664E-03
   -.878E+01 0.277E+00 -.259E+03   0.116E+02 -.279E+00 0.271E+03   -.278E+01 0.119E-01 -.113E+02   -.411E-02 -.133E-01 0.146E-01
   0.451E+02 -.211E+00 -.276E+03   -.474E+02 0.205E+00 0.290E+03   0.234E+01 -.448E-02 -.142E+02   0.128E-02 0.130E-01 0.911E-02
   -.712E+01 -.182E+00 0.297E+03   0.738E+01 0.175E+00 -.312E+03   -.255E+00 -.246E-02 0.147E+02   -.231E-01 0.133E-01 0.430E-04
   -.738E+01 0.329E+00 -.284E+03   0.982E+01 -.328E+00 0.296E+03   -.247E+01 0.137E-01 -.119E+02   0.246E-01 -.189E-01 0.877E-03
   -.238E+01 0.270E+00 0.260E+03   -.179E+00 -.263E+00 -.270E+03   0.256E+01 0.770E-02 0.104E+02   0.898E-02 -.182E-01 -.253E-01
   -.404E+02 -.239E+00 0.277E+03   0.419E+02 0.221E+00 -.291E+03   -.157E+01 0.696E-02 0.141E+02   -.932E-02 0.191E-01 -.191E-01
   0.275E+02 -.313E+00 -.298E+03   -.288E+02 0.311E+00 0.312E+03   0.138E+01 -.926E-02 -.138E+02   -.977E-02 0.188E-01 0.214E-01
   0.313E+02 -.371E+02 0.307E+03   -.355E+02 0.396E+02 -.324E+03   0.423E+01 -.248E+01 0.165E+02   -.401E-01 -.124E-01 0.166E-01
   -.154E+02 0.189E+01 -.257E+03   0.188E+02 -.143E+01 0.269E+03   -.340E+01 -.463E+00 -.126E+02   0.527E-01 0.514E-02 -.519E-02
   -.374E+02 -.331E+02 -.312E+03   0.420E+02 0.356E+02 0.328E+03   -.463E+01 -.248E+01 -.162E+02   0.390E-01 -.398E-01 0.166E-01
   0.179E+02 -.630E+00 0.255E+03   -.212E+02 0.102E+01 -.267E+03   0.339E+01 -.408E+00 0.121E+02   -.378E-01 0.146E-01 -.173E-01
   0.368E+02 0.255E+02 0.319E+03   -.411E+02 -.275E+02 -.335E+03   0.433E+01 0.194E+01 0.161E+02   0.187E-03 -.606E-02 -.134E-02
   -.383E+02 0.365E+02 -.289E+03   0.429E+02 -.388E+02 0.305E+03   -.456E+01 0.229E+01 -.160E+02   -.161E-01 0.122E-01 -.122E-01
   -.466E+02 0.291E+02 -.314E+03   0.513E+02 -.311E+02 0.329E+03   -.476E+01 0.207E+01 -.154E+02   -.102E-02 -.158E-01 0.810E-02
   0.511E+02 0.326E+02 0.290E+03   -.564E+02 -.350E+02 -.306E+03   0.529E+01 0.239E+01 0.155E+02   0.490E-02 0.398E-01 -.517E-02
   0.282E+02 0.772E-02 0.288E+03   -.321E+02 -.542E-01 -.301E+03   0.388E+01 0.692E-02 0.124E+02   0.392E-01 0.439E-01 0.124E-01
   -.289E+02 0.157E-02 -.252E+03   0.313E+02 -.475E-01 0.264E+03   -.245E+01 0.671E-02 -.117E+02   -.635E-02 0.420E-01 -.328E-01
   -.468E+02 -.525E-01 -.245E+03   0.499E+02 0.105E+00 0.256E+03   -.309E+01 -.109E-01 -.118E+02   -.122E-01 -.442E-01 -.293E-01
   -.270E+02 -.251E-01 0.312E+03   0.291E+02 0.722E-01 -.326E+03   -.215E+01 -.633E-02 0.140E+02   0.391E-01 -.424E-01 0.169E-01
   -.160E+02 0.119E+00 -.291E+03   0.194E+02 -.120E+00 0.303E+03   -.335E+01 0.125E-01 -.117E+02   -.514E-01 -.120E-01 -.807E-02
   0.230E+02 0.126E+00 0.257E+03   -.254E+02 -.120E+00 -.269E+03   0.237E+01 0.318E-02 0.119E+02   0.145E-01 -.117E-01 0.365E-01
   0.217E+02 -.186E+00 0.251E+03   -.229E+02 0.190E+00 -.262E+03   0.123E+01 -.129E-01 0.113E+02   0.497E-01 0.121E-01 0.168E-01
   0.237E+02 -.670E-01 -.313E+03   -.253E+02 0.607E-01 0.328E+03   0.159E+01 -.380E-02 -.142E+02   -.367E-01 0.117E-01 -.137E-01
   0.366E+02 -.257E+02 0.318E+03   -.409E+02 0.276E+02 -.334E+03   0.431E+01 -.195E+01 0.160E+02   0.190E-01 0.549E-02 -.342E-02
   -.381E+02 -.367E+02 -.289E+03   0.426E+02 0.390E+02 0.304E+03   -.453E+01 -.231E+01 -.159E+02   -.346E-01 -.124E-01 -.110E-01
   -.460E+02 -.292E+02 -.314E+03   0.507E+02 0.312E+02 0.329E+03   -.471E+01 -.209E+01 -.154E+02   -.154E-01 0.147E-01 0.163E-01
   0.505E+02 -.327E+02 0.290E+03   -.558E+02 0.351E+02 -.305E+03   0.523E+01 -.240E+01 0.154E+02   0.186E-01 -.401E-01 -.132E-01
   0.956E+00 0.161E+00 -.314E+00   0.199E-12 0.185E-12 0.398E-12   -.963E+00 -.148E+00 0.318E+00   0.394E-02 -.220E-02 -.371E-02

 POSITION                                       TOTAL-FORCE (eV/Angst)
      1.59917      5.55616      2.34725        -0.000766      0.003602      0.007485
      4.85680      5.57761      7.02477         0.002494     -0.003351     -0.001544
      4.10642      1.40430      2.35886         0.003139     -0.003127      0.006006
      2.26988      1.40071      7.03780        -0.000171      0.000525     -0.000506
      2.26205      4.20273      7.03616        -0.005809      0.001131      0.001997
      1.59869      2.85053      2.34946         0.001291     -0.003602     -0.000115
      4.85384      2.83099      7.02269         0.002347      0.001695      0.006681
      6.62949      5.55218      2.35777         0.003122      0.003305      0.000816
     -0.35482      5.58231      7.04437         0.001131      0.000298     -0.012360
      9.10744      1.41121      2.36689         0.002282     -0.006917      0.006402
      7.26949      1.41240      7.05245         0.002359     -0.006281     -0.011696
      6.62593      2.85551      2.35839         0.004768     -0.003247     -0.000663
     -0.35054      2.82478      7.04406        -0.000834     -0.000132     -0.010888
      6.35928      5.59860      9.38960        -0.002047     -0.004545      0.001479
      2.50317      1.40176      0.01606         0.000317      0.006606     -0.014696
      3.84071      1.40173      9.33853        -0.009031      0.016561      0.001832
      3.85387      4.20376      9.37096         0.001701     -0.009361     -0.008544
     -1.16666      4.20330      9.36188        -0.010680      0.001621     -0.000860
      6.35934      2.80891      9.38967        -0.004253      0.001884     -0.000637
      5.00728      5.60173      0.03056         0.001727      0.002283      0.002471
      5.00729      2.80494      0.03058         0.004225     -0.000499      0.000732
      3.18765      5.60074      4.69143         0.002373      0.008248     -0.002480
      5.69102      1.40170      4.69486        -0.001832      0.001320      0.002361
      0.67739      1.40142      4.73314        -0.003468      0.000496     -0.011676
      0.66328      4.20322      4.69949         0.003117     -0.000393     -0.010546
      5.69626      4.20352      4.69612         0.000986      0.001356     -0.000007
      3.18750      2.80519      4.69153         0.002662     -0.006130     -0.002878
     -1.83580      5.59873      4.67412         0.002955      0.013964      0.003929
     -1.83584      2.80853      4.67409         0.003138     -0.013956      0.004217
      4.94912      0.00788      3.72680        -0.003151      0.000061      0.000594
      1.40674      5.60104      5.71724         0.005014     -0.000308      0.002941
      3.22560      0.01284      0.99921        -0.000471     -0.000820      0.006304
      3.11307      5.59541      8.34490        -0.003531     -0.002656      0.006099
      7.48437      1.40236      3.65380         0.000324     -0.002132     -0.002879
     -1.18548      1.40234      5.73858         0.001623     -0.002804     -0.004425
     -1.00374      4.20323      5.65025         0.000826      0.001820     -0.003339
      7.48404      4.20349      3.70414        -0.015032      0.003217     -0.005113
      0.71269      1.40248      1.03652         0.001497     -0.003960      0.002648
      5.64187      1.40266      8.33900         0.003431     -0.004078      0.002319
      5.54817      4.20323      8.42291        -0.006655      0.008070      0.006803
      0.81376      4.20321      0.96248        -0.004479      0.006630      0.002704
      4.94950      2.79539      3.72682        -0.005667      0.001067      0.000294
      1.40601      2.80468      5.71716         0.007619      0.003081      0.004150
      3.22547      2.79048      0.99954        -0.000213     -0.000933      0.001321
      3.11314      2.81147      8.34410        -0.001113     -0.000529      0.016732
     -0.05747      0.03974      3.73654         0.008320     -0.000137     -0.008586
      6.44031      0.01263      5.66529         0.004464      0.000132      0.009524
      8.24530      0.03478      0.98617         0.003108     -0.003684      0.004256
     -1.89313      0.01785      8.37983        -0.008013      0.002171     -0.003642
      2.51748      1.40115      3.65504         0.007409      0.004128     -0.000600
      3.91340      1.40124      5.74817        -0.003121      0.002670      0.003661
      3.85965      4.20318      5.73974         0.006393     -0.002490      0.003571
      2.32365      4.20311      3.74104         0.015888     -0.001824     -0.003251
      5.74498      1.40192      1.04552        -0.006142     -0.001340      0.002193
      0.61073      1.40167      8.34485        -0.011761     -0.002256      0.000215
      0.56940      4.20296      8.37071         0.001628      0.002739     -0.006830
      5.84571      4.20339      0.97496        -0.011821      0.001511      0.004771
     -0.05666      2.76366      3.73538         0.008265      0.000612     -0.004798
      6.43955      2.79152      5.66611         0.004601     -0.000853      0.007767
      8.24517      2.77013      0.98659        -0.004605     -0.002591      0.000291
     -1.89286      2.78632      8.37911        -0.001880     -0.007865     -0.002005
    total drift:                               -0.002939      0.011025      0.000414

  FREE ENERGIE OF THE ION-ELECTRON SYSTEM (eV)
  free  energy   TOTEN  =      -368.9017562414 eV

  energy  without entropy=     -368.8998835248  energy(sigma->0) =     -368.90081988

 Quasi-Newton relaxation of ions (Broydens 2nd method)
  g(Force)  = 0.257E-03   g(Stress)= 0.317E-03

 Reset! Starting new Quasi-Newton update for ions

 reached required accuracy - stopping structural energy minimisation

volume of typ            1:    19.2 %

[...]

volume of typ            3:     9.9 %

total charge

# of ion       s       p       d       tot
    1        2.076   0.249   0.090   2.416
    2        2.080   0.257   0.094   2.431
    3        2.081   0.249   0.095   2.426
    4        2.085   0.261   0.100   2.446
    5        2.087   0.266   0.102   2.455
    6        2.077   0.249   0.090   2.416
    7        2.080   0.258   0.094   2.431
    8        2.076   0.249   0.090   2.416
    9        2.081   0.263   0.096   2.441
   10        2.080   0.245   0.093   2.417
   11        2.085   0.259   0.099   2.444
   12        2.077   0.250   0.090   2.416
   13        2.081   0.263   0.097   2.441
   14        0.260   0.342   7.862   8.465
   15        0.279   0.378   7.872   8.530
   16        0.272   0.364   7.875   8.511
   17        0.278   0.379   7.856   8.513
   18        0.275   0.374   7.855   8.503
   19        0.261   0.343   7.863   8.467
   20        0.260   0.340   7.869   8.469
   21        0.260   0.340   7.870   8.470
   22        0.262   0.346   7.864   8.472
   23        0.277   0.372   7.874   8.523
   24        0.272   0.358   7.891   8.521
   25        0.281   0.385   7.853   8.519
   26        0.267   0.350   7.874   8.491
   27        0.262   0.345   7.861   8.469
   28        0.264   0.351   7.855   8.471
   29        0.264   0.352   7.856   8.472
   30        1.262   2.778   0.007   4.046
   31        1.257   2.795   0.006   4.058
   32        1.262   2.779   0.007   4.048
   33        1.257   2.796   0.006   4.059
   34        1.257   2.792   0.005   4.055
   35        1.256   2.800   0.005   4.061
   36        1.261   2.786   0.006   4.054
   37        1.262   2.781   0.006   4.049
   38        1.257   2.792   0.006   4.055
   39        1.256   2.797   0.005   4.059
   40        1.261   2.787   0.006   4.054
   41        1.262   2.783   0.006   4.052
   42        1.262   2.778   0.007   4.046
   43        1.257   2.795   0.006   4.058
   44        1.262   2.779   0.007   4.048
   45        1.257   2.796   0.006   4.059
   46        1.265   2.773   0.007   4.044
   47        1.261   2.782   0.007   4.050
   48        1.265   2.775   0.006   4.046
   49        1.261   2.784   0.006   4.052
   50        1.257   2.794   0.006   4.057
   51        1.256   2.793   0.005   4.054
   52        1.256   2.799   0.006   4.061
   53        1.261   2.785   0.006   4.052
   54        1.257   2.793   0.006   4.056
   55        1.257   2.792   0.006   4.054
   56        1.257   2.797   0.006   4.060
   57        1.261   2.786   0.006   4.053
   58        1.265   2.774   0.007   4.045
   59        1.261   2.783   0.007   4.050
   60        1.264   2.775   0.006   4.046
   61        1.261   2.784   0.006   4.052
tot          71.66   98.22  127.27  297.15

magnetization (x)

# of ion       s       p       d       tot
    1        0.005   0.016  -0.000   0.020
    2        0.005   0.016  -0.000   0.021
    3        0.002   0.008   0.001   0.011
    4        0.000   0.004  -0.001   0.004
    5        0.001   0.004  -0.001   0.004
    6        0.005   0.016  -0.000   0.021
    7        0.005   0.016  -0.000   0.021
    8        0.005   0.016  -0.000   0.021
    9        0.005   0.016  -0.000   0.021
   10        0.000   0.004  -0.000   0.004
   11        0.002   0.008   0.001   0.012
   12        0.006   0.016  -0.000   0.021
   13        0.005   0.016  -0.000   0.021
   14        0.001  -0.000   0.704   0.704
   15        0.004  -0.000   0.553   0.556
   16        0.003  -0.000   0.583   0.585
   17       -0.001  -0.000   0.291   0.290
   18       -0.000  -0.000   0.330   0.329
   19        0.001  -0.000   0.703   0.704
   20        0.002  -0.000   0.740   0.741
   21        0.002  -0.000   0.739   0.740
   22        0.002  -0.000   0.682   0.684
   23       -0.006   0.000  -0.633  -0.639
   24        0.004  -0.000   0.570   0.574
   25       -0.001  -0.000   0.063   0.061
   26       -0.003  -0.000  -0.575  -0.578
   27        0.002  -0.000   0.684   0.686
   28        0.002  -0.000   0.628   0.629
   29        0.002  -0.000   0.630   0.632
   30        0.003   0.033   0.000   0.037
   31        0.007   0.049   0.000   0.056
   32        0.007   0.064   0.000   0.071
   33        0.009   0.056   0.000   0.065
   34        0.000  -0.045  -0.000  -0.045
   35        0.011   0.098   0.000   0.109
   36        0.008   0.035   0.000   0.043
   37        0.000  -0.080   0.000  -0.080
   38        0.011   0.075   0.000   0.086
   39        0.012   0.085   0.000   0.097
   40        0.009   0.037   0.000   0.046
   41        0.011   0.064   0.000   0.075
   42        0.003   0.034   0.000   0.037
   43        0.007   0.049   0.000   0.056
   44        0.007   0.064   0.000   0.071
   45        0.009   0.056   0.000   0.065
   46        0.007   0.050   0.000   0.057
   47        0.003   0.020   0.000   0.023
   48        0.009   0.061   0.000   0.070
   49        0.007   0.056   0.000   0.064
   50        0.010   0.091   0.000   0.101
   51        0.000  -0.039  -0.000  -0.039
   52        0.000  -0.053  -0.000  -0.052
   53        0.008   0.033   0.000   0.041
   54        0.012   0.085   0.000   0.097
   55        0.011   0.081   0.000   0.093
   56        0.010   0.043   0.000   0.054
   57        0.009   0.039   0.000   0.048
   58        0.007   0.051   0.000   0.058
   59        0.003   0.020   0.000   0.023
   60        0.009   0.062   0.000   0.071
   61        0.007   0.057   0.000   0.064
tot           0.29    1.48    6.69    8.47