 vasp.5.4.4.18Apr17-6-g9f103f2a35 (build May 12 2020 05:39:39) gamma-only

 MD_VERSION_INFO: Compiled 2020-05-12T12:39:39-UTC in devlin.sd.materialsdesign.
 com:/home/medea2/data/build/wwolf/vasp-gpu5.4.4/13047/x86_64/src/src/build/gam
 from svn 13047

 executed on                        Lin64 date 2023.03.07  05:17:43

 INCAR:
 POTCAR:    PAW_PBE Li_sv 10Sep2004
 POTCAR:    PAW_PBE Ni 02Aug2007
 POTCAR:    PAW_PBE O 08Apr2002

 POTCAR:    PAW_PBE Li_sv 10Sep2004

 POTCAR:    PAW_PBE Ni 02Aug2007

 POTCAR:    PAW_PBE O 08Apr2002

 Optimization of the real space projectors (new method)

 maximal supplied QI-value         = 22.11
 optimisation between [QCUT,QGAM] = [ 11.28, 22.77] = [ 35.61,145.23] Ry
 Optimized for a Real-space Cutoff    1.10 Angstroem

   l    n(q)    QCUT    max X(q) W(low)/X(q) W(high)/X(q)  e(spline)
   0      7    11.276    10.506    0.54E-04    0.58E-04    0.16E-07
   0      7    11.276     8.367    0.11E-03    0.14E-03    0.35E-07
   1      7    11.276     8.983    0.23E-03    0.43E-03    0.86E-07
 Optimization of the real space projectors (new method)

[...]

   l    n(q)    QCUT    max X(q) W(low)/X(q) W(high)/X(q)  e(spline)
   2      9    11.376    60.317    0.17E-03    0.16E-04    0.16E-06
   2      9    11.376    55.921    0.17E-03    0.16E-04    0.17E-06
   0     10    11.376    51.690    0.45E-04    0.60E-04    0.21E-06
   0     10    11.376    30.015    0.37E-04    0.55E-04    0.19E-06
   1     10    11.376    18.849    0.83E-04    0.11E-03    0.92E-07
   1     10    11.376    14.624    0.69E-04    0.92E-04    0.82E-07
 Optimization of the real space projectors (new method)

 maximal supplied QI-value         = 24.76
 optimisation between [QCUT,QGAM] = [ 11.39, 22.77] = [ 36.31,145.25] Ry
 Optimized for a Real-space Cutoff    1.10 Angstroem

   l    n(q)    QCUT    max X(q) W(low)/X(q) W(high)/X(q)  e(spline)
   0      7    11.387    20.381    0.22E-03    0.48E-03    0.18E-06
   0      7    11.387    15.268    0.22E-03    0.52E-03    0.19E-06
   1      7    11.387     5.964    0.22E-03    0.73E-03    0.24E-06
   1      7    11.387     5.382    0.19E-03    0.60E-03    0.21E-06

  PAW_PBE Li_sv 10Sep2004               :
  PAW_PBE Ni 02Aug2007                  :
  PAW_PBE O 08Apr2002                   :

 POSCAR: ce1394_1
  positions in direct lattice
 exchange correlation table for  LEXCH =       14
   RHO(1)=    0.500       N(1)  =     2000
   RHO(2)=  100.500       N(2)  =     4000

 ion  position               nearest neighbor table
   1  0.994  0.251  0.238-  43 2.04  38 2.06  35 2.11  50 2.15  47 2.18  29 2.18  11 2.78
   2  0.994  0.749  0.762-  44 2.04  37 2.06  36 2.11  49 2.15  48 2.18  30 2.18  11 2.78
   3  0.248  0.251  0.501-  27 2.10  29 2.10  39 2.11  41 2.12  51 2.18  47 2.19  20 2.84
   4  0.248  0.749  0.499-  28 2.10  30 2.10  40 2.11  42 2.12  52 2.18  48 2.19  21 2.84
   5  0.506  0.250  0.238-  55 1.98  38 2.06  35 2.11  50 2.17  41 2.18  47 2.20  16 2.78
   6  0.506  0.750  0.762-  56 1.98  37 2.06  36 2.11  49 2.17  42 2.18  48 2.20  16 2.78
   7  0.994  0.249  0.762-  45 2.03  34 2.08  27 2.12  31 2.14  54 2.15  51 2.18  25 2.79
   8  0.994  0.751  0.238-  46 2.03  33 2.08  28 2.12  32 2.14  53 2.15  52 2.18  25 2.79
   9  0.506  0.248  0.762-  57 2.02  34 2.07  31 2.11  54 2.15  51 2.18  39 2.20  26 2.79
  10  0.506  0.752  0.238-  58 2.02  33 2.07  32 2.11  53 2.15  52 2.18  40 2.20  26 2.79
  11  1.000  0.000  0.000-  35 1.88  36 1.88  37 1.89  38 1.89  45 2.01  46 2.01   1 2.78   2 2.78
                            16 2.80  16 2.81  13 2.85  12 2.85  15 2.85  14 2.85
  12  0.250  0.001  0.250-  41 1.85  29 1.85  58 1.85  46 1.85  35 1.91  52 1.96  15 2.80  15 2.80
                            16 2.85  11 2.85  18 2.86  17 2.86
  13  0.250  0.999  0.750-  42 1.85  30 1.85  57 1.85  45 1.85  36 1.91  51 1.96  14 2.80  14 2.80
                            16 2.85  11 2.85  18 2.86  17 2.86
  14  0.750  0.995  0.748-  57 1.85  45 1.85  30 1.87  42 1.87  54 1.91  37 1.91  13 2.80  13 2.80
                            18 2.84  17 2.84  11 2.85  16 2.85
  15  0.750  0.005  0.252-  58 1.85  46 1.85  29 1.87  41 1.87  53 1.91  38 1.91  12 2.80  12 2.80
                            18 2.84  17 2.84  11 2.85  16 2.85
  16  0.500  0.000  0.000-  35 1.89  36 1.89  37 1.89  38 1.89  57 2.02  58 2.02   5 2.78   6 2.78
                            11 2.80  11 2.81  13 2.85  12 2.85  15 2.85  14 2.85
  17  0.999  0.000  0.500-  53 1.88  54 1.88  51 1.90  52 1.90  29 2.05  30 2.05  18 2.78  18 2.82
                            15 2.84  14 2.84  13 2.86  12 2.86
  18  0.502  0.000  0.500-  53 1.87  54 1.87  51 1.89  52 1.89  41 2.05  42 2.05  17 2.78  17 2.82
                            14 2.84  15 2.84  12 2.86  13 2.86
  19  0.998  0.500  0.500-  49 1.86  50 1.86  47 1.88  48 1.88  27 2.12  28 2.12  24 2.78  24 2.82
                            23 2.84  22 2.84  21 2.86  20 2.86
  20  0.250  0.500  0.750-  56 1.84  27 1.84  39 1.85  44 1.85  31 1.91  48 1.95  23 2.80  23 2.80
                             3 2.84  26 2.85  25 2.85  24 2.86  19 2.86
  21  0.250  0.500  0.250-  55 1.84  28 1.84  40 1.85  43 1.85  32 1.91  47 1.95  22 2.80  22 2.80
                             4 2.84  26 2.85  25 2.85  24 2.86  19 2.86
  22  0.750  0.504  0.252-  55 1.84  43 1.85  28 1.87  40 1.88  50 1.91  33 1.91  21 2.80  21 2.80
                            19 2.84  24 2.84  25 2.85  26 2.86
  23  0.750  0.496  0.748-  56 1.84  44 1.85  27 1.87  39 1.88  49 1.91  34 1.91  20 2.80  20 2.80
                            19 2.84  24 2.84  25 2.85  26 2.86
  24  0.502  0.500  0.500-  49 1.88  50 1.88  47 1.90  48 1.90  39 2.04  40 2.04  19 2.78  19 2.82
                            23 2.84  22 2.84  21 2.86  20 2.86
  25  0.000  0.500  0.000-  31 1.89  32 1.89  33 1.89  34 1.89  43 2.01  44 2.01   7 2.79   8 2.79
                            26 2.80  26 2.80  21 2.85  20 2.85  23 2.85  22 2.85
  26  0.500  0.500  0.000-  31 1.87  32 1.87  33 1.87  34 1.87  55 2.08  56 2.08   9 2.79  10 2.79
                            25 2.80  25 2.80  20 2.85  21 2.85  22 2.86  23 2.86
  27  0.006  0.388  0.645-  20 1.84  23 1.87   3 2.10  19 2.12   7 2.12
  28  0.006  0.612  0.355-  21 1.84  22 1.87   4 2.10  19 2.12   8 2.12
  29  0.006  0.109  0.360-  12 1.85  15 1.87  17 2.05   3 2.10   1 2.18
  30  0.006  0.891  0.640-  13 1.85  14 1.87  17 2.05   4 2.10   2 2.18
  31  0.253  0.400  0.882-  26 1.87  25 1.89  20 1.91   9 2.11   7 2.14
  32  0.253  0.600  0.118-  26 1.87  25 1.89  21 1.91  10 2.11   8 2.14
  33  0.748  0.601  0.118-  26 1.87  25 1.89  22 1.91  10 2.07   8 2.08
  34  0.748  0.399  0.882-  26 1.87  25 1.89  23 1.91   9 2.07   7 2.08
  35  0.250  0.102  0.119-  11 1.88  16 1.89  12 1.91   5 2.11   1 2.11
  36  0.250  0.898  0.881-  11 1.88  16 1.89  13 1.91   6 2.11   2 2.11
  37  0.750  0.897  0.881-  11 1.89  16 1.89  14 1.91   6 2.06   2 2.06
  38  0.750  0.103  0.119-  11 1.89  16 1.89  15 1.91   5 2.06   1 2.06
  39  0.495  0.392  0.639-  20 1.85  23 1.88  24 2.04   3 2.11   9 2.20
  40  0.495  0.608  0.361-  21 1.85  22 1.88  24 2.04   4 2.11  10 2.20
  41  0.494  0.109  0.360-  12 1.85  15 1.87  18 2.05   3 2.12   5 2.18
  42  0.494  0.891  0.640-  13 1.85  14 1.87  18 2.05   4 2.12   6 2.18
  43  0.998  0.399  0.142-  21 1.85  22 1.85  25 2.01   1 2.04
  44  0.998  0.601  0.858-  20 1.85  23 1.85  25 2.01   2 2.04
  45  0.997  0.101  0.857-  13 1.85  14 1.85  11 2.01   7 2.03
  46  0.997  0.899  0.143-  12 1.85  15 1.85  11 2.01   8 2.03
  47  0.248  0.397  0.383-  19 1.88  24 1.90  21 1.95   1 2.18   3 2.19   5 2.20
  48  0.248  0.603  0.617-  19 1.88  24 1.90  20 1.95   2 2.18   4 2.19   6 2.20
  49  0.752  0.599  0.620-  19 1.86  24 1.88  23 1.91   2 2.15   6 2.17
  50  0.752  0.401  0.380-  19 1.86  24 1.88  22 1.91   1 2.15   5 2.17
  51  0.251  0.104  0.618-  18 1.89  17 1.90  13 1.96   3 2.18   9 2.18   7 2.18
  52  0.251  0.896  0.382-  18 1.89  17 1.90  12 1.96   4 2.18  10 2.18   8 2.18
  53  0.750  0.901  0.380-  18 1.87  17 1.88  15 1.91   8 2.15  10 2.15
  54  0.750  0.099  0.620-  18 1.87  17 1.88  14 1.91   7 2.15   9 2.15
  55  0.503  0.396  0.147-  21 1.84  22 1.84   5 1.98  26 2.08
  56  0.503  0.604  0.853-  20 1.84  23 1.84   6 1.98  26 2.08
  57  0.503  0.101  0.857-  13 1.85  14 1.85  16 2.02   9 2.02
  58  0.503  0.899  0.143-  12 1.85  15 1.85  16 2.02  10 2.02

  LATTYP: Found a simple monoclinic cell.
 ALAT       =    11.3859988408
 B/A-ratio  =     0.4922555404
 C/A-ratio  =     1.6768953889
 COS(beta)  =    -0.9023207289

  Lattice vectors:

 A1 = (  -6.3070408102,   0.0000000000,  -9.4795678077)
 A2 = (   0.0000000000,  -5.6048210119,   0.0000000000)
 A3 = (   2.6908483251,   0.0000000000,  18.9025635442)

Analysis of symmetry for initial positions (statically):
 Subroutine PRICEL returns:
 Original cell was already a primitive cell.

 Routine SETGRP: Setting up the symmetry group for a
 simple monoclinic supercell.

 Subroutine GETGRP returns: Found  2 space group operations
 (whereof  2 operations were pure point group operations)
 out of a pool of  4 trial point group operations.

The static configuration has the point symmetry C_2 .

Analysis of symmetry for dynamics (positions and initial velocities):
 Subroutine PRICEL returns:
 Original cell was already a primitive cell.

[...]

The dynamic configuration has the point symmetry C_2 .

Analysis of structural, dynamic, and magnetic symmetry:
 Subroutine PRICEL returns:
 Original cell was already a primitive cell.

 Routine SETGRP: Setting up the symmetry group for a
 simple monoclinic supercell.

 Subroutine GETGRP returns: Found  2 space group operations
 (whereof  2 operations were pure point group operations)
 out of a pool of  4 trial point group operations.

The magnetic configuration has the point symmetry C_2 .

 Subroutine INISYM returns: Found  2 space group operations
 (whereof  2 operations are pure point group operations),
 and found     1 'primitive' translations

 KPOINTS: Automatic mesh

Automatic generation of k-mesh.
Space group operators:
 irot       det(A)        alpha          n_x          n_y          n_z        tau_x        tau_y        tau_z
    1     1.000000     0.000000     1.000000     0.000000     0.000000     0.000000     0.000000     0.000000
    2     1.000000   180.000000     0.000000     1.000000     0.000000     0.000000     0.000000     0.000000

 Subroutine IBZKPT returns following result:

 Found      1 irreducible k-points:

 Following reciprocal coordinates:
            Coordinates               Weight
  0.000000  0.000000  0.000000      1.000000

 Following cartesian coordinates:
            Coordinates               Weight
  0.000000  0.000000  0.000000      1.000000

 SYSTEM =  unknown system
 POSCAR =  ce1394_1

 Startparameter for this run:
   NWRITE =      1    write-flag & timer
   PREC   = accura    normal or accurate (medium, high low for compatibility)
   ISTART =      0    job   : 0-new  1-cont  2-samecut
   ICHARG =      2    charge: 1-file 2-atom 10-const
   ISPIN  =      2    spin polarized calculation?
   LNONCOLLINEAR =      F non collinear calculations
   LSORBIT =      F    spin-orbit coupling
[...]
   0.798E-06 0.552E+00 -.152E-06   0.284E-13 -.406E+00 -.568E-13   0.000E+00 -.142E+00 0.000E+00   -.209E-10 -.680E-02 -.845E-13
   -.822E-05 0.211E+02 0.177E-05   -.853E-13 -.216E+02 0.131E-12   0.000E+00 0.454E+00 0.100E-24   0.137E-10 -.250E-02 0.214E-11
   0.106E-04 -.204E+02 -.229E-05   -.128E-12 0.208E+02 0.639E-13   0.000E+00 -.412E+00 -.949E-26   0.179E-10 -.255E-02 0.932E-12
   -.998E-05 0.212E+02 0.207E-05   -.533E-13 -.217E+02 -.317E-14   0.000E+00 0.468E+00 0.372E-25   -.692E-11 0.122E-02 0.479E-11
   -.300E+02 -.107E+00 -.432E+02   0.304E+02 0.111E+00 0.436E+02   -.417E+00 0.442E-02 -.315E+00   0.788E-02 -.748E-02 -.117E-01
   0.300E+02 -.107E+00 0.432E+02   -.304E+02 0.111E+00 -.436E+02   0.417E+00 0.442E-02 0.315E+00   -.788E-02 -.748E-02 0.117E-01
   0.119E+02 0.251E+00 -.176E+02   -.119E+02 -.251E+00 0.175E+02   0.566E-01 -.111E-01 0.744E-01   -.685E-02 0.127E-01 0.103E-01
   -.119E+02 0.251E+00 0.176E+02   0.119E+02 -.251E+00 -.175E+02   -.566E-01 -.111E-01 -.744E-01   0.685E-02 0.127E-01 -.103E-01
   0.944E-05 -.218E+02 -.196E-05   -.178E-13 0.223E+02 0.994E-14   0.517E-25 -.500E+00 -.969E-26   -.695E-11 0.419E-02 0.140E-11
   0.630E-06 -.600E+00 -.125E-06   -.453E-13 0.459E+00 0.355E-13   -.103E-24 0.140E+00 0.339E-25   -.461E-12 0.210E-02 -.573E-11
   0.334E-05 -.358E-01 -.661E-06   0.897E-13 0.193E+00 0.000E+00   0.000E+00 -.158E+00 0.000E+00   -.552E-11 0.166E-02 -.182E-11
   0.484E+02 0.314E+02 0.316E+03   -.535E+02 -.335E+02 -.332E+03   0.509E+01 0.210E+01 0.163E+02   -.457E-02 -.139E-02 0.344E-02
   -.484E+02 0.314E+02 -.316E+03   0.535E+02 -.335E+02 0.332E+03   -.509E+01 0.210E+01 -.163E+02   0.457E-02 -.139E-02 -.344E-02
   -.407E+02 0.318E+02 -.318E+03   0.447E+02 -.340E+02 0.334E+03   -.398E+01 0.221E+01 -.164E+02   0.233E-02 0.261E-02 0.116E-01
   0.407E+02 0.318E+02 0.318E+03   -.447E+02 -.340E+02 -.334E+03   0.398E+01 0.221E+01 0.164E+02   -.233E-02 0.261E-02 -.116E-01
   -.550E+02 0.148E+00 0.300E+03   0.562E+02 -.512E+00 -.316E+03   -.119E+01 0.383E+00 0.164E+02   0.123E-01 -.181E-01 0.133E-01
   0.550E+02 0.148E+00 -.300E+03   -.562E+02 -.512E+00 0.316E+03   0.119E+01 0.383E+00 -.164E+02   -.123E-01 -.181E-01 -.133E-01
   0.512E+02 0.344E+00 -.299E+03   -.530E+02 -.918E-01 0.315E+03   0.182E+01 -.266E+00 -.158E+02   -.111E-01 0.160E-01 -.125E-01
   -.512E+02 0.344E+00 0.299E+03   0.530E+02 -.918E-01 -.315E+03   -.182E+01 -.266E+00 0.158E+02   0.111E-01 0.160E-01 0.125E-01
   0.584E+02 0.373E+00 -.298E+03   -.604E+02 0.502E-01 0.314E+03   0.198E+01 -.414E+00 -.158E+02   0.970E-02 -.145E-01 0.174E-01
   -.584E+02 0.373E+00 0.298E+03   0.604E+02 0.502E-01 -.314E+03   -.198E+01 -.414E+00 0.158E+02   -.970E-02 -.145E-01 -.174E-01
   -.547E+02 -.739E+00 0.297E+03   0.572E+02 0.413E+00 -.312E+03   -.255E+01 0.306E+00 0.151E+02   -.847E-02 0.197E-01 -.194E-01
   0.547E+02 -.739E+00 -.297E+03   -.572E+02 0.413E+00 0.312E+03   0.255E+01 0.306E+00 -.151E+02   0.847E-02 0.197E-01 0.194E-01
   0.390E+02 -.317E+02 0.320E+03   -.430E+02 0.339E+02 -.336E+03   0.407E+01 -.220E+01 0.163E+02   -.345E-02 -.785E-03 0.472E-03
   -.390E+02 -.317E+02 -.320E+03   0.430E+02 0.339E+02 0.336E+03   -.407E+01 -.220E+01 -.163E+02   0.345E-02 -.785E-03 -.472E-03
   -.509E+02 -.312E+02 -.315E+03   0.561E+02 0.333E+02 0.331E+03   -.517E+01 -.208E+01 -.165E+02   0.607E-02 0.794E-03 0.111E-01
   0.509E+02 -.312E+02 0.315E+03   -.561E+02 0.333E+02 -.331E+03   0.517E+01 -.208E+01 0.165E+02   -.607E-02 0.794E-03 -.111E-01
   0.762E+02 0.122E+01 0.350E+03   -.823E+02 -.160E+01 -.369E+03   0.620E+01 0.381E+00 0.187E+02   -.218E-01 -.169E-02 0.840E-02
   -.762E+02 0.122E+01 -.350E+03   0.823E+02 -.160E+01 0.369E+03   -.620E+01 0.381E+00 -.187E+02   0.218E-01 -.169E-02 -.840E-02
   -.836E+02 0.137E+01 -.349E+03   0.911E+02 -.185E+01 0.367E+03   -.745E+01 0.478E+00 -.185E+02   -.163E-02 0.268E-02 0.200E-01
   0.836E+02 0.137E+01 0.349E+03   -.911E+02 -.185E+01 -.367E+03   0.745E+01 0.478E+00 0.185E+02   0.163E-02 0.268E-02 -.200E-01
   0.294E+01 0.602E+00 0.291E+03   -.385E+01 -.238E+00 -.305E+03   0.897E+00 -.354E+00 0.138E+02   0.101E-01 -.894E-02 0.561E-02
   -.294E+01 0.602E+00 -.291E+03   0.385E+01 -.238E+00 0.305E+03   -.897E+00 -.354E+00 -.138E+02   -.101E-01 -.894E-02 -.561E-02
   0.219E+02 -.379E-01 -.305E+03   -.233E+02 -.400E+00 0.322E+03   0.137E+01 0.433E+00 -.171E+02   -.989E-02 0.660E-02 -.530E-02
   -.219E+02 -.379E-01 0.305E+03   0.233E+02 -.400E+00 -.322E+03   -.137E+01 0.433E+00 0.171E+02   0.989E-02 0.660E-02 0.530E-02
   -.542E+01 -.634E+00 -.294E+03   0.687E+01 0.398E+00 0.308E+03   -.145E+01 0.238E+00 -.145E+02   -.161E-02 -.431E-02 0.155E-01
   0.542E+01 -.634E+00 0.294E+03   -.687E+01 0.398E+00 -.308E+03   0.145E+01 0.238E+00 0.145E+02   0.161E-02 -.431E-02 -.155E-01
   -.191E+02 0.823E-01 0.307E+03   0.197E+02 0.250E+00 -.325E+03   -.668E+00 -.340E+00 0.177E+02   0.156E-02 0.679E-02 -.163E-01
   0.191E+02 0.823E-01 -.307E+03   -.197E+02 0.250E+00 0.325E+03   0.668E+00 -.340E+00 -.177E+02   -.156E-02 0.679E-02 0.163E-01
   0.850E+02 -.131E+01 0.348E+03   -.924E+02 0.176E+01 -.367E+03   0.738E+01 -.450E+00 0.188E+02   -.814E-02 -.511E-04 0.232E-02
   -.850E+02 -.131E+01 -.348E+03   0.924E+02 0.176E+01 0.367E+03   -.738E+01 -.450E+00 -.188E+02   0.814E-02 -.511E-04 -.232E-02
   -.744E+02 -.124E+01 -.352E+03   0.807E+02 0.163E+01 0.370E+03   -.625E+01 -.392E+00 -.185E+02   -.170E-01 0.174E-02 0.266E-01
   0.744E+02 -.124E+01 0.352E+03   -.807E+02 0.163E+01 -.370E+03   0.625E+01 -.392E+00 0.185E+02   0.170E-01 0.174E-02 -.266E-01
   0.139E-04 -.194E+00 -.137E-05   0.213E-12 -.775E-13 0.114E-12   0.888E-15 0.194E+00 -.142E-13   -.389E-10 -.639E-02 -.193E-11

 POSITION                                       TOTAL-FORCE (eV/Angst)
      1.43560      5.55703      2.38683        -0.017818      0.002921     -0.000894
      4.88938      5.55703      7.11838         0.017818      0.002921      0.000894
      4.06598      1.38920      2.39566        -0.006514      0.009769      0.001750
      2.25900      1.38920      7.10955         0.006514      0.009769     -0.001750
      1.45542      2.81928      2.37414        -0.007233      0.001101     -0.000363
      4.86956      2.81928      7.13107         0.007233      0.001101      0.000363
      6.69200      5.55408      2.40365         0.000772      0.002304      0.003639
     -0.36701      5.55408      7.10157        -0.000772      0.002304     -0.003639
      6.70624      2.81704      2.39165         0.018829     -0.003268     -0.000274
     -0.38125      2.81704      7.11356        -0.018829     -0.003268      0.000274
     -0.00000      5.58219     -0.00000         0.000000     -0.002652     -0.000000
      2.48445      1.39313      0.02614        -0.000546     -0.003814      0.003999
      3.84054      1.39313      9.47907         0.000546     -0.003814     -0.003999
      3.83018      4.18488      9.43879         0.000068     -0.001331     -0.003865
      2.49480      4.18488      0.06643        -0.000068     -0.001331      0.003865
     -0.00000      2.79237     -0.00000         0.000000     -0.002495     -0.000000
      4.97684      5.57523      0.02763         0.000000     -0.001183     -0.000000
      4.97684      2.80233      0.02763         0.000000     -0.001516     -0.000000
      3.16249      5.57332      4.75261         0.000000      0.001232     -0.000000
      5.65515      1.39960      4.76138        -0.000722      0.001280     -0.003006
      0.66984      1.39960      4.74383         0.000722      0.001280      0.003006
      0.67933      4.19101      4.78417         0.000519      0.001355      0.003008
      5.64565      4.19101      4.72104        -0.000519      0.001355     -0.003008
      3.16249      2.80113      4.75261         0.000000      0.001366     -0.000000
     -1.81435      0.00055      4.72498         0.000000      0.001188     -0.000000
     -1.81435      2.79458      4.72498         0.000000      0.000834     -0.000000
      5.00879      0.03657      3.70500         0.000214      0.001141     -0.002977
      1.31620      0.03657      5.80021        -0.000214      0.001141      0.002977
      3.20070      0.03078      1.04997         0.001441     -0.002083      0.001959
      3.12428      0.03078      8.45524        -0.001441     -0.002083     -0.001959
      7.32762      1.41008      3.83204         0.002959      0.000361     -0.000707
     -1.00264      1.41008      5.67317        -0.002959      0.000361      0.000707
     -1.00759      4.17783      5.68562        -0.002654      0.001987      0.000378
      7.33258      4.17783      3.81959         0.002654      0.001987     -0.000378
      0.81679      1.38394      0.95458        -0.002769     -0.005024      0.003251
      5.50819      1.38394      8.55064         0.002769     -0.005024     -0.003251
      5.51221      4.19775      8.54010         0.002187     -0.001229     -0.002499
      0.81278      4.19775      0.96511        -0.002187     -0.001229      0.002499
      4.94045      2.76186      3.73475         0.001003      0.001642     -0.003223
      1.38453      2.76186      5.77046        -0.001003      0.001642      0.003223
      3.13229      2.75569      1.07924        -0.002762     -0.002429      0.004903
      3.19270      2.75569      8.42598         0.002762     -0.002429     -0.004903
     -0.02978      5.57012      3.77614        -0.000435      0.001376      0.003973
      6.35476      5.57012      5.72907         0.000435      0.001376     -0.003973
      8.11222      5.56429      1.01985        -0.001718     -0.002325     -0.005043
     -1.78724      5.56429      8.48536         0.001718     -0.002325      0.005043
      2.36476      1.38340      3.77729        -0.000674      0.001212      0.002884
      3.96022      1.38340      5.72792         0.000674      0.001212     -0.002884
      3.99895      4.19962      5.68365         0.000367      0.001787     -0.002691
      2.32603      4.19962      3.82156        -0.000367      0.001787      0.002691
      5.76949      1.40906      0.99940         0.000561     -0.001981     -0.003100
      0.55550      1.40906      8.50582        -0.000561     -0.001981      0.003100
      0.51699      4.17651      8.55148        -0.000629     -0.001489      0.003049
      5.80799      4.17651      0.95374         0.000629     -0.001489     -0.003049
      0.02657      2.81199      3.75538         0.000844      0.001065      0.002743
      6.29842      2.81199      5.74984        -0.000844      0.001065     -0.002743
      8.16884      2.80608      0.99896         0.001378     -0.002715     -0.006206
     -1.84386      2.80608      8.50626        -0.001378     -0.002715      0.006206
    total drift:                                0.000014     -0.006334     -0.000001

  FREE ENERGIE OF THE ION-ELECTRON SYSTEM (eV)
  free  energy   TOTEN  =      -354.8650029568 eV

  energy  without entropy=     -354.8413259679  energy(sigma->0) =     -354.85316446

 d Force = 0.5924858E-04[ 0.525E-04, 0.660E-04]  d Energy = 0.5641053E-04 0.284E-05
 d Force =-0.1445646E+00[-0.145E+00,-0.144E+00]  d Ewald  =-0.5678851E+00 0.423E+00

 Quasi-Newton relaxation of ions (Broydens 2nd method)
  g(Force)  = 0.125E-03   g(Stress)= 0.135E-03

 retain information from N=  1 steps
 eigenvalues of (default step * inverse Hessian matrix)
  average eigenvalue of G=   0.0907
 eigenvalue spectrum of G is  0.0907

 reached required accuracy - stopping structural energy minimisation

volume of typ            1:    14.8 %

[...]

volume of typ            3:     9.9 %

total charge

# of ion       s       p       d       tot
    1        2.076   0.248   0.090   2.414
    2        2.076   0.248   0.090   2.414
    3        2.074   0.223   0.085   2.383
    4        2.074   0.223   0.085   2.383
    5        2.083   0.257   0.096   2.435
    6        2.083   0.257   0.096   2.435
    7        2.082   0.252   0.095   2.428
    8        2.082   0.252   0.095   2.428
    9        2.076   0.242   0.088   2.406
   10        2.076   0.242   0.088   2.406
   11        0.261   0.340   7.868   8.469
   12        0.294   0.417   7.853   8.564
   13        0.294   0.417   7.853   8.564
   14        0.291   0.410   7.844   8.546
   15        0.291   0.410   7.844   8.546
   16        0.260   0.340   7.857   8.457
   17        0.262   0.342   7.864   8.468
   18        0.263   0.341   7.886   8.491
   19        0.261   0.338   7.884   8.483
   20        0.294   0.417   7.853   8.563
   21        0.294   0.417   7.853   8.563
   22        0.291   0.410   7.844   8.546
   23        0.291   0.410   7.844   8.546
   24        0.259   0.338   7.868   8.465
   25        0.262   0.343   7.852   8.458
   26        0.264   0.345   7.869   8.477
   27        1.265   2.776   0.006   4.047
   28        1.265   2.776   0.006   4.047
   29        1.266   2.772   0.006   4.044
   30        1.266   2.772   0.006   4.044
   31        1.262   2.783   0.007   4.051
   32        1.262   2.783   0.007   4.051
   33        1.260   2.790   0.007   4.056
   34        1.260   2.790   0.007   4.056
   35        1.263   2.782   0.007   4.051
   36        1.263   2.782   0.007   4.051
   37        1.261   2.789   0.007   4.057
   38        1.261   2.789   0.007   4.057
   39        1.266   2.771   0.006   4.043
   40        1.266   2.771   0.006   4.043
   41        1.265   2.775   0.006   4.046
   42        1.265   2.775   0.006   4.046
   43        1.273   2.757   0.007   4.036
   44        1.273   2.757   0.007   4.036
   45        1.272   2.761   0.007   4.040
   46        1.272   2.761   0.007   4.040
   47        1.258   2.791   0.006   4.055
   48        1.258   2.791   0.006   4.055
   49        1.263   2.781   0.007   4.051
   50        1.263   2.781   0.007   4.051
   51        1.257   2.791   0.006   4.054
   52        1.257   2.791   0.006   4.054
   53        1.262   2.782   0.007   4.051
   54        1.262   2.782   0.007   4.051
   55        1.273   2.759   0.007   4.039
   56        1.273   2.759   0.007   4.039
   57        1.272   2.757   0.007   4.036
   58        1.272   2.757   0.007   4.036
tot          65.69   97.31  126.86  289.85

magnetization (x)

# of ion       s       p       d       tot
    1        0.005   0.016  -0.000   0.021
    2        0.005   0.016  -0.000   0.021
    3       -0.000   0.001  -0.000   0.000
    4       -0.000   0.001  -0.000   0.000
    5       -0.001  -0.000  -0.002  -0.003
    6       -0.001  -0.000  -0.002  -0.003
    7        0.001   0.005   0.001   0.008
    8        0.001   0.005   0.001   0.008
    9        0.005   0.012  -0.000   0.017
   10        0.005   0.012  -0.000   0.017
   11        0.003  -0.000   0.717   0.719
   12       -0.001  -0.000   0.009   0.008
   13       -0.001  -0.000   0.009   0.008
   14       -0.001  -0.000   0.015   0.014
   15       -0.001  -0.000   0.015   0.014
   16        0.001  -0.000   0.685   0.686
   17        0.002   0.000   0.590   0.592
   18       -0.004  -0.000  -0.521  -0.525
   19        0.004  -0.000   0.696   0.700
   20       -0.000  -0.000   0.009   0.008
   21       -0.000  -0.000   0.009   0.008
   22       -0.000  -0.000  -0.001  -0.002
   23       -0.000  -0.000  -0.001  -0.002
   24        0.002  -0.000   0.702   0.704
   25        0.001  -0.000   0.575   0.576
   26       -0.003   0.000  -0.532  -0.534
   27        0.005   0.082   0.000   0.087
   28        0.005   0.082   0.000   0.087
   29        0.006   0.057   0.000   0.063
   30        0.006   0.057   0.000   0.063
   31        0.001   0.002   0.000   0.004
   32        0.001   0.002   0.000   0.004
   33        0.001   0.001   0.000   0.002
   34        0.001   0.001   0.000   0.002
   35        0.006   0.028   0.000   0.034
   36        0.006   0.028   0.000   0.034
   37        0.006   0.029   0.000   0.035
   38        0.006   0.029   0.000   0.035
   39        0.005   0.051   0.000   0.056
   40        0.005   0.051   0.000   0.056
   41       -0.005  -0.088  -0.000  -0.093
   42       -0.005  -0.088  -0.000  -0.093
   43        0.006   0.056   0.000   0.062
   44        0.006   0.056   0.000   0.062
   45        0.006   0.079   0.000   0.085
   46        0.006   0.079   0.000   0.085
   47        0.005   0.021   0.000   0.026
   48        0.005   0.021   0.000   0.026
   49        0.005   0.024   0.000   0.029
   50        0.005   0.024   0.000   0.029
   51        0.001   0.001   0.000   0.002
   52        0.001   0.001   0.000   0.002
   53        0.001   0.002   0.000   0.003
   54        0.001   0.002   0.000   0.003
   55       -0.006  -0.088  -0.000  -0.095
   56       -0.006  -0.088  -0.000  -0.095
   57        0.006   0.047   0.000   0.052
   58        0.006   0.047   0.000   0.052
tot           0.12    0.67    2.98    3.77