 vasp.5.4.4.18Apr17-6-g9f103f2a35 (build May 12 2020 05:39:39) gamma-only

 MD_VERSION_INFO: Compiled 2020-05-12T12:39:39-UTC in devlin.sd.materialsdesign.
 com:/home/medea2/data/build/wwolf/vasp-gpu5.4.4/13047/x86_64/src/src/build/gam
 from svn 13047

 executed on                        Lin64 date 2023.03.07  05:13:39

 INCAR:
 POTCAR:    PAW_PBE Li_sv 10Sep2004
 POTCAR:    PAW_PBE Ni 02Aug2007
 POTCAR:    PAW_PBE O 08Apr2002

 POTCAR:    PAW_PBE Li_sv 10Sep2004

 POTCAR:    PAW_PBE Ni 02Aug2007

 POTCAR:    PAW_PBE O 08Apr2002

 Optimization of the real space projectors (new method)

 maximal supplied QI-value         = 22.11
 optimisation between [QCUT,QGAM] = [ 11.28, 22.77] = [ 35.61,145.23] Ry
 Optimized for a Real-space Cutoff    1.10 Angstroem

   l    n(q)    QCUT    max X(q) W(low)/X(q) W(high)/X(q)  e(spline)
   0      7    11.276    10.506    0.54E-04    0.58E-04    0.16E-07
   0      7    11.276     8.367    0.11E-03    0.14E-03    0.35E-07
   1      7    11.276     8.983    0.23E-03    0.43E-03    0.86E-07
 Optimization of the real space projectors (new method)

[...]

   l    n(q)    QCUT    max X(q) W(low)/X(q) W(high)/X(q)  e(spline)
   2      9    11.376    60.317    0.17E-03    0.16E-04    0.16E-06
   2      9    11.376    55.921    0.17E-03    0.16E-04    0.17E-06
   0     10    11.376    51.690    0.45E-04    0.60E-04    0.21E-06
   0     10    11.376    30.015    0.37E-04    0.55E-04    0.19E-06
   1     10    11.376    18.849    0.83E-04    0.11E-03    0.92E-07
   1     10    11.376    14.624    0.69E-04    0.92E-04    0.82E-07
 Optimization of the real space projectors (new method)

 maximal supplied QI-value         = 24.76
 optimisation between [QCUT,QGAM] = [ 11.39, 22.77] = [ 36.31,145.25] Ry
 Optimized for a Real-space Cutoff    1.10 Angstroem

   l    n(q)    QCUT    max X(q) W(low)/X(q) W(high)/X(q)  e(spline)
   0      7    11.387    20.381    0.22E-03    0.48E-03    0.18E-06
   0      7    11.387    15.268    0.22E-03    0.52E-03    0.19E-06
   1      7    11.387     5.964    0.22E-03    0.73E-03    0.24E-06
   1      7    11.387     5.382    0.19E-03    0.60E-03    0.21E-06

  PAW_PBE Li_sv 10Sep2004               :
  PAW_PBE Ni 02Aug2007                  :
  PAW_PBE O 08Apr2002                   :

 POSCAR: ce251_1
  positions in direct lattice
 exchange correlation table for  LEXCH =       14
   RHO(1)=    0.500       N(1)  =     2000
   RHO(2)=  100.500       N(2)  =     4000

 ion  position               nearest neighbor table
   1  0.000  0.251  0.250-  31 2.08  45 2.08  49 2.13  52 2.13  40 2.14  37 2.14  21 2.84
   2  0.000  0.749  0.750-  32 2.08  46 2.08  50 2.13  51 2.13  39 2.14  38 2.14  21 2.84
   3  0.259  0.250  0.500-  43 2.09  41 2.09  53 2.11  49 2.12  31 2.15  29 2.15  14 2.84  22 2.84

   4  0.259  0.750  0.500-  44 2.09  42 2.09  54 2.11  50 2.12  32 2.15  30 2.15  15 2.84  23 2.84

[...]

   6  0.741  0.250  0.500-  43 2.09  41 2.09  56 2.11  52 2.12  31 2.15  29 2.15  17 2.84  25 2.84

   7  0.000  0.249  0.750-  29 2.08  47 2.08  53 2.13  56 2.13  36 2.14  33 2.14  19 2.84
   8  0.000  0.751  0.250-  30 2.08  48 2.08  54 2.13  55 2.13  35 2.14  34 2.14  19 2.84
   9  0.258  0.250  0.000-  59 2.10  57 2.10  37 2.10  33 2.11  47 2.15  45 2.15
  10  0.258  0.750  1.000-  60 2.10  58 2.10  38 2.10  34 2.11  48 2.15  46 2.15
  11  0.742  0.750  1.000-  60 2.10  58 2.10  39 2.10  35 2.11  48 2.15  46 2.15
  12  0.742  0.250  0.000-  59 2.10  57 2.10  40 2.10  36 2.11  47 2.15  45 2.15
  13  0.000  0.000  0.000-  37 1.85  38 1.85  39 1.85  40 1.85  47 2.05  48 2.05  18 2.80  18 2.80
                            14 2.86  15 2.86  16 2.86  17 2.86
  14  0.251  0.001  0.250-  60 1.88  43 1.88  31 1.89  48 1.89  54 2.03  37 2.03  17 2.79  17 2.82
                             3 2.84  18 2.86  20 2.86  13 2.86  19 2.87
  15  0.251  0.999  0.750-  59 1.88  44 1.88  32 1.89  47 1.89  53 2.03  38 2.03  16 2.79  16 2.82
                             4 2.84  18 2.86  20 2.86  13 2.86  19 2.87
  16  0.749  0.999  0.750-  59 1.88  44 1.88  32 1.89  47 1.89  56 2.03  39 2.03  15 2.79  15 2.82
                             5 2.84  18 2.86  20 2.86  13 2.86  19 2.87
  17  0.749  0.001  0.250-  60 1.88  43 1.88  31 1.89  48 1.89  55 2.03  40 2.03  14 2.79  14 2.82
                             6 2.84  18 2.86  20 2.86  13 2.86  19 2.87
  18  0.500  0.000  0.000-  37 1.87  38 1.87  39 1.87  40 1.87  59 1.92  60 1.92  13 2.80  13 2.80
                            17 2.86  14 2.86  15 2.86  16 2.86
  19  0.000  0.000  0.500-  53 1.85  54 1.85  55 1.85  56 1.85  31 2.06  32 2.06  20 2.80  20 2.80
                             7 2.84   8 2.84  14 2.87  15 2.87  16 2.87  17 2.87
  20  0.500  0.000  0.500-  53 1.87  54 1.87  55 1.87  56 1.87  43 1.93  44 1.93  19 2.80  19 2.80
                            14 2.86  15 2.86  16 2.86  17 2.86
  21  0.000  0.500  0.500-  49 1.85  50 1.85  51 1.85  52 1.85  29 2.06  30 2.06  26 2.80  26 2.80
                             1 2.84   2 2.84  22 2.87  23 2.87  24 2.87  25 2.87
  22  0.251  0.499  0.750-  58 1.88  41 1.88  29 1.89  46 1.89  50 2.03  33 2.03  25 2.79  25 2.82
                             3 2.84  28 2.86  26 2.86  27 2.86  21 2.87
  23  0.251  0.501  0.250-  57 1.88  42 1.88  30 1.89  45 1.89  49 2.03  34 2.03  24 2.79  24 2.82
                             4 2.84  28 2.86  26 2.86  27 2.86  21 2.87
  24  0.749  0.501  0.250-  57 1.88  42 1.88  30 1.89  45 1.89  52 2.03  35 2.03  23 2.79  23 2.82
                             5 2.84  28 2.86  26 2.86  27 2.86  21 2.87
  25  0.749  0.499  0.750-  58 1.88  41 1.88  29 1.89  46 1.89  51 2.03  36 2.03  22 2.79  22 2.82
                             6 2.84  28 2.86  26 2.86  27 2.86  21 2.87
  26  0.500  0.500  0.500-  49 1.87  50 1.87  51 1.87  52 1.87  41 1.93  42 1.93  21 2.80  21 2.80
                            25 2.86  22 2.86  23 2.86  24 2.86
  27  0.000  0.500  0.000-  33 1.85  34 1.85  35 1.85  36 1.85  45 2.05  46 2.05  28 2.80  28 2.80
                            22 2.86  23 2.86  24 2.86  25 2.86
  28  0.500  0.500  0.000-  33 1.87  34 1.87  35 1.87  36 1.87  57 1.92  58 1.92  27 2.80  27 2.80
                            22 2.86  23 2.86  24 2.86  25 2.86
  29  0.000  0.389  0.639-  22 1.89  25 1.89  21 2.06   7 2.08   3 2.15   6 2.15
  30  0.000  0.611  0.361-  23 1.89  24 1.89  21 2.06   8 2.08   4 2.15   5 2.15
  31  0.000  0.111  0.361-  14 1.89  17 1.89  19 2.06   1 2.08   6 2.15   3 2.15
  32  0.000  0.889  0.639-  15 1.89  16 1.89  19 2.06   2 2.08   5 2.15   4 2.15
  33  0.247  0.394  0.891-  27 1.85  28 1.87  22 2.03   9 2.11   7 2.14
  34  0.247  0.606  0.109-  27 1.85  28 1.87  23 2.03  10 2.11   8 2.14
  35  0.753  0.606  0.109-  27 1.85  28 1.87  24 2.03  11 2.11   8 2.14
  36  0.753  0.394  0.891-  27 1.85  28 1.87  25 2.03  12 2.11   7 2.14
  37  0.247  0.106  0.109-  13 1.85  18 1.87  14 2.03   9 2.10   1 2.14
  38  0.247  0.894  0.891-  13 1.85  18 1.87  15 2.03  10 2.10   2 2.14
  39  0.753  0.894  0.891-  13 1.85  18 1.87  16 2.03  11 2.10   2 2.14
  40  0.753  0.106  0.109-  13 1.85  18 1.87  17 2.03  12 2.10   1 2.14
  41  0.500  0.397  0.631-  22 1.88  25 1.88  26 1.93   6 2.09   3 2.09
  42  0.500  0.603  0.369-  23 1.88  24 1.88  26 1.93   5 2.09   4 2.09
  43  0.500  0.103  0.369-  14 1.88  17 1.88  20 1.93   6 2.09   3 2.09
  44  0.500  0.897  0.631-  15 1.88  16 1.88  20 1.93   5 2.09   4 2.09
  45  0.000  0.390  0.138-  23 1.89  24 1.89  27 2.05   1 2.08  12 2.15   9 2.15
  46  0.000  0.610  0.862-  22 1.89  25 1.89  27 2.05   2 2.08  11 2.15  10 2.15
  47  0.000  0.110  0.862-  15 1.89  16 1.89  13 2.05   7 2.08  12 2.15   9 2.15
  48  0.000  0.890  0.138-  14 1.89  17 1.89  13 2.05   8 2.08  11 2.15  10 2.15
  49  0.247  0.395  0.390-  21 1.85  26 1.87  23 2.03   3 2.12   1 2.13
  50  0.247  0.605  0.610-  21 1.85  26 1.87  22 2.03   4 2.12   2 2.13
  51  0.753  0.605  0.610-  21 1.85  26 1.87  25 2.03   5 2.12   2 2.13
  52  0.753  0.395  0.390-  21 1.85  26 1.87  24 2.03   6 2.12   1 2.13
  53  0.247  0.105  0.610-  19 1.85  20 1.87  15 2.03   3 2.11   7 2.13
  54  0.247  0.895  0.390-  19 1.85  20 1.87  14 2.03   4 2.11   8 2.13
  55  0.753  0.895  0.390-  19 1.85  20 1.87  17 2.03   5 2.11   8 2.13
  56  0.753  0.105  0.610-  19 1.85  20 1.87  16 2.03   6 2.11   7 2.13
  57  0.500  0.399  0.131-  23 1.88  24 1.88  28 1.92  12 2.10   9 2.10
  58  0.500  0.601  0.869-  22 1.88  25 1.88  28 1.92  11 2.10  10 2.10
  59  0.500  0.101  0.869-  15 1.88  16 1.88  18 1.92  12 2.10   9 2.10
  60  0.500  0.899  0.131-  14 1.88  17 1.88  18 1.92  11 2.10  10 2.10

  LATTYP: Found a simple monoclinic cell.
 ALAT       =    11.3829566444
 B/A-ratio  =     0.4923899414
 C/A-ratio  =     1.6694249792
 COS(beta)  =    -0.9011200545

  Lattice vectors:

 A1 = (  -6.3629931670,   0.0000000000,  -9.4384331288)
 A2 = (   0.0000000000,  -5.6048533547,   0.0000000000)
 A3 = (   2.7405322811,   0.0000000000,  18.8043397599)

Analysis of symmetry for initial positions (statically):
 Subroutine PRICEL returns:
 Original cell was already a primitive cell.

 Routine SETGRP: Setting up the symmetry group for a
 simple monoclinic supercell.

 Subroutine GETGRP returns: Found  4 space group operations
 (whereof  4 operations were pure point group operations)
 out of a pool of  4 trial point group operations.

The static configuration has the point symmetry C_2h.

Analysis of symmetry for dynamics (positions and initial velocities):
 Subroutine PRICEL returns:
 Original cell was already a primitive cell.

[...]

The dynamic configuration has the point symmetry C_2h.

Analysis of structural, dynamic, and magnetic symmetry:
 Subroutine PRICEL returns:
 Original cell was already a primitive cell.

 Routine SETGRP: Setting up the symmetry group for a
 simple monoclinic supercell.

 Subroutine GETGRP returns: Found  4 space group operations
 (whereof  4 operations were pure point group operations)
 out of a pool of  4 trial point group operations.

The magnetic configuration has the point symmetry C_2h.

 Subroutine INISYM returns: Found  4 space group operations
 (whereof  4 operations are pure point group operations),
 and found     1 'primitive' translations

 KPOINTS: Automatic mesh

Automatic generation of k-mesh.
Space group operators:
 irot       det(A)        alpha          n_x          n_y          n_z        tau_x        tau_y        tau_z
    1     1.000000     0.000000     1.000000     0.000000     0.000000     0.000000     0.000000     0.000000
    2    -1.000000     0.000000     1.000000     0.000000     0.000000     0.000000     0.000000     0.000000
    3     1.000000   180.000000     0.000000     1.000000     0.000000     0.000000     0.000000     0.000000
    4    -1.000000   180.000000     0.000000     1.000000     0.000000     0.000000     0.000000     0.000000

 Subroutine IBZKPT returns following result:

 Found      1 irreducible k-points:

 Following reciprocal coordinates:
            Coordinates               Weight
  0.000000  0.000000  0.000000      1.000000

 Following cartesian coordinates:
            Coordinates               Weight
  0.000000  0.000000  0.000000      1.000000

 SYSTEM =  unknown system
 POSCAR =  ce251_1

[...]
   0.510E-13 -.572E-13 -.338E-13   0.400E-13 -.813E-13 -.648E-13   0.000E+00 0.000E+00 -.165E-23   0.540E-12 -.338E-12 -.200E-11
   -.178E+00 -.296E+02 0.187E+01   0.147E+00 0.299E+02 -.185E+01   0.135E-01 -.231E+00 -.208E-01   0.105E-01 -.128E-01 0.566E-02
   0.178E+00 -.296E+02 -.187E+01   -.147E+00 0.299E+02 0.185E+01   -.135E-01 -.231E+00 0.208E-01   -.105E-01 -.128E-01 -.566E-02
   0.178E+00 0.296E+02 -.187E+01   -.147E+00 -.299E+02 0.185E+01   -.135E-01 0.231E+00 0.208E-01   -.105E-01 0.128E-01 -.566E-02
   -.178E+00 0.296E+02 0.187E+01   0.147E+00 -.299E+02 -.185E+01   0.135E-01 0.231E+00 -.208E-01   0.105E-01 0.128E-01 0.566E-02
   -.301E-11 0.945E-12 0.146E-11   -.302E-13 -.591E-13 -.826E-13   -.662E-23 0.000E+00 0.106E-22   0.957E-12 0.335E-12 -.182E-11
   0.300E-12 -.723E-13 -.148E-12   -.240E-13 0.243E-13 0.426E-13   0.662E-23 0.000E+00 0.657E-23   -.733E-12 0.335E-12 -.333E-12
   -.173E-11 0.914E-12 -.423E-11   0.329E-13 -.329E-13 0.711E-14   0.132E-22 0.000E+00 -.403E-23   -.913E-12 -.372E-12 -.963E-12
   0.721E+01 -.177E-12 0.277E+03   -.954E+01 0.432E-13 -.289E+03   0.234E+01 0.103E-24 0.119E+02   -.117E-01 -.522E-12 0.131E-01
   -.721E+01 -.223E-12 -.277E+03   0.954E+01 -.625E-15 0.289E+03   -.234E+01 -.103E-24 -.119E+02   0.117E-01 0.327E-12 -.131E-01
   -.113E+02 -.490E-13 -.276E+03   0.141E+02 0.866E-14 0.288E+03   -.272E+01 0.000E+00 -.119E+02   -.203E-01 0.668E-12 0.125E-01
   0.113E+02 -.154E-12 0.276E+03   -.141E+02 0.180E-14 -.288E+03   0.272E+01 0.000E+00 0.119E+02   0.203E-01 0.335E-12 -.125E-01
   0.409E+02 -.311E+02 0.307E+03   -.455E+02 0.334E+02 -.323E+03   0.459E+01 -.225E+01 0.161E+02   0.119E-02 -.113E-01 0.702E-02
   -.409E+02 -.311E+02 -.307E+03   0.455E+02 0.334E+02 0.323E+03   -.459E+01 -.225E+01 -.161E+02   -.119E-02 -.113E-01 -.702E-02
   -.409E+02 0.311E+02 -.307E+03   0.455E+02 -.334E+02 0.323E+03   -.459E+01 0.225E+01 -.161E+02   -.119E-02 0.113E-01 -.702E-02
   0.409E+02 0.311E+02 0.307E+03   -.455E+02 -.334E+02 -.323E+03   0.459E+01 0.225E+01 0.161E+02   0.119E-02 0.113E-01 0.702E-02
   -.406E+02 -.319E+02 -.307E+03   0.453E+02 0.342E+02 0.323E+03   -.469E+01 -.231E+01 -.160E+02   -.139E-01 0.286E-02 -.121E-01
   0.406E+02 -.319E+02 0.307E+03   -.453E+02 0.342E+02 -.323E+03   0.469E+01 -.231E+01 0.160E+02   0.139E-01 0.286E-02 0.121E-01
   0.406E+02 0.319E+02 0.307E+03   -.453E+02 -.342E+02 -.323E+03   0.469E+01 0.231E+01 0.160E+02   0.139E-01 -.286E-02 0.121E-01
   -.406E+02 0.319E+02 -.307E+03   0.453E+02 -.342E+02 0.323E+03   -.469E+01 0.231E+01 -.160E+02   -.139E-01 -.286E-02 -.121E-01
   -.288E+02 -.158E-13 0.293E+03   0.310E+02 -.835E-14 -.307E+03   -.220E+01 0.207E-24 0.147E+02   0.141E-01 0.472E-12 0.610E-03
   0.288E+02 0.446E-13 -.293E+03   -.310E+02 -.371E-14 0.307E+03   0.220E+01 -.207E-24 -.147E+02   -.141E-01 -.321E-12 -.610E-03
   0.273E+02 0.161E-12 -.292E+03   -.293E+02 -.826E-13 0.306E+03   0.200E+01 0.000E+00 -.145E+02   -.225E-01 -.683E-12 0.122E-01
   -.273E+02 0.278E-12 0.292E+03   0.293E+02 -.173E-13 -.306E+03   -.200E+01 -.258E-25 0.145E+02   0.225E-01 -.313E-12 -.122E-01
   0.797E+01 -.181E-12 0.276E+03   -.104E+02 -.718E-13 -.288E+03   0.248E+01 0.000E+00 0.118E+02   -.501E-03 0.605E-12 -.148E-02
   -.797E+01 -.163E-12 -.276E+03   0.104E+02 -.556E-13 0.288E+03   -.248E+01 -.207E-24 -.118E+02   0.501E-03 -.752E-12 0.148E-02
   -.625E+01 -.165E-12 -.277E+03   0.867E+01 0.158E-13 0.289E+03   -.244E+01 -.129E-25 -.118E+02   0.179E-01 0.163E-12 0.405E-02
   0.625E+01 -.143E-13 0.277E+03   -.867E+01 -.290E-13 -.289E+03   0.244E+01 0.258E-25 0.118E+02   -.179E-01 -.480E-12 -.405E-02
   0.413E+02 -.322E+02 0.306E+03   -.460E+02 0.345E+02 -.322E+03   0.470E+01 -.229E+01 0.159E+02   -.312E-02 -.217E-01 -.117E-02
   -.413E+02 -.322E+02 -.306E+03   0.460E+02 0.345E+02 0.322E+03   -.470E+01 -.229E+01 -.159E+02   0.312E-02 -.217E-01 0.117E-02
   -.413E+02 0.322E+02 -.306E+03   0.460E+02 -.345E+02 0.322E+03   -.470E+01 0.229E+01 -.159E+02   0.312E-02 0.217E-01 0.117E-02
   0.413E+02 0.322E+02 0.306E+03   -.460E+02 -.345E+02 -.322E+03   0.470E+01 0.229E+01 0.159E+02   -.312E-02 0.217E-01 -.117E-02
   -.407E+02 -.317E+02 -.305E+03   0.454E+02 0.341E+02 0.321E+03   -.473E+01 -.245E+01 -.160E+02   0.142E-01 -.216E-02 0.216E-01
   0.407E+02 -.317E+02 0.305E+03   -.454E+02 0.341E+02 -.321E+03   0.473E+01 -.245E+01 0.160E+02   -.142E-01 -.216E-02 -.216E-01
   0.407E+02 0.317E+02 0.305E+03   -.454E+02 -.341E+02 -.321E+03   0.473E+01 0.245E+01 0.160E+02   -.142E-01 0.216E-02 -.216E-01
   -.407E+02 0.317E+02 -.305E+03   0.454E+02 -.341E+02 0.321E+03   -.473E+01 0.245E+01 -.160E+02   0.142E-01 0.216E-02 0.216E-01
   -.308E+02 0.449E-13 0.293E+03   0.333E+02 0.249E-13 -.308E+03   -.252E+01 -.207E-24 0.149E+02   -.433E-02 -.631E-12 -.578E-02
   0.308E+02 0.810E-14 -.293E+03   -.333E+02 0.324E-13 0.308E+03   0.252E+01 0.207E-24 -.149E+02   0.433E-02 0.779E-12 0.578E-02
   0.299E+02 0.289E-12 -.294E+03   -.321E+02 0.629E-13 0.308E+03   0.220E+01 -.414E-24 -.149E+02   0.247E-01 -.135E-12 -.667E-03
   -.299E+02 0.150E-12 0.294E+03   0.321E+02 0.603E-13 -.308E+03   -.220E+01 0.207E-24 0.149E+02   -.247E-01 0.527E-12 0.667E-03
   -.330E-10 0.112E-10 0.512E-11   -.320E-12 0.180E-12 -.568E-13   0.133E-14 -.207E-24 0.355E-14   -.298E-11 0.480E-13 0.400E-11

 POSITION                                       TOTAL-FORCE (eV/Angst)
      1.58707      0.00000      2.36461         0.000972     -0.000000     -0.005708
      4.77382      0.00000      7.07985        -0.000972     -0.000000      0.005708
      4.08559      1.45188      2.37758        -0.001308     -0.002056     -0.001396
      2.27530      1.45188      7.06688         0.001308     -0.002056      0.001396
      2.27530      4.15407      7.06688         0.001308      0.002056      0.001396
      4.08559      4.15407      2.37758        -0.001308      0.002056     -0.001396
      6.58137      0.00000      2.38933        -0.004993     -0.000000      0.004921
     -0.22048      0.00000      7.05513         0.004993     -0.000000     -0.004921
     -0.90326      1.44879      2.34062        -0.001652      0.001532      0.002149
      7.26415      1.44879      7.10384         0.001652      0.001532     -0.002149
      7.26415      4.15715      7.10384         0.001652     -0.001532     -0.002149
     -0.90326      4.15715      2.34062        -0.001652     -0.001532      0.002149
     -0.00000      0.00000     -0.00000        -0.000000     -0.000000     -0.000000
      2.49259      1.40778      0.02407         0.002266     -0.006150     -0.000929
      3.86830      1.40778      9.42039        -0.002266     -0.006150      0.000929
      3.86830      4.19817      9.42039        -0.002266      0.006150      0.000929
      2.49259      4.19817      0.02407         0.002266      0.006150     -0.000929
     -0.00000      2.80297     -0.00000        -0.000000     -0.000000     -0.000000
      4.98937      0.00000      0.03744        -0.000000     -0.000000     -0.000000
      4.98937      2.80297      0.03744        -0.000000     -0.000000      0.000000
      3.18045      0.00000      4.72223        -0.000000     -0.000000      0.000000
      5.67688      1.40797      4.73632        -0.007417     -0.001248      0.003934
      0.68401      1.40797      4.70814         0.007417     -0.001248     -0.003934
      0.68401      4.19798      4.70814         0.007417      0.001248     -0.003934
      5.67688      4.19798      4.73632        -0.007417      0.001248      0.003934
      3.18045      2.80297      4.72223        -0.000000     -0.000000      0.000000
     -1.80892      0.00000      4.68479        -0.000000     -0.000000     -0.000000
     -1.80892      2.80297      4.68479        -0.000000     -0.000000      0.000000
      4.95881      0.00000      3.69765        -0.006925     -0.000000      0.008735
      1.40208      0.00000      5.74681         0.006925     -0.000000     -0.008735
      3.19554      0.00000      1.06575         0.002376     -0.000000     -0.004498
      3.16535      0.00000      8.37871        -0.002376     -0.000000      0.004498
      7.45501      1.38427      3.76659        -0.004766     -0.000708      0.003575
     -1.09411      1.38427      5.67787         0.004766     -0.000708     -0.003575
     -1.09411      4.22168      5.67787         0.004766      0.000708     -0.003575
      7.45501      4.22168      3.76659        -0.004766      0.000708      0.003575
      0.71216      1.38541      0.99502         0.001521      0.000764     -0.000197
      5.64873      1.38541      8.44944        -0.001521      0.000764      0.000197
      5.64873      4.22054      8.44944        -0.001521     -0.000764      0.000197
      0.71216      4.22054      0.99502         0.001521     -0.000764     -0.000197
      4.85816      2.80297      3.77382         0.006018     -0.000000      0.004661
      1.50273      2.80297      5.67064        -0.006018     -0.000000     -0.004661
      3.30853      2.80297      0.99013         0.000624     -0.000000     -0.001731
      3.05237      2.80297      8.45433        -0.000624     -0.000000      0.001731
     -0.02352      0.00000      3.66475         0.007339     -0.000000     -0.008630
      6.38441      0.00000      5.77971        -0.007339     -0.000000      0.008630
      8.19819      0.00000      1.09340        -0.002228     -0.000000      0.005705
     -1.83730      0.00000      8.35106         0.002228     -0.000000     -0.005705
      2.46063      1.38428      3.73428         0.009627      0.002361     -0.006545
      3.90026      1.38428      5.71018        -0.009627      0.002361      0.006545
      3.90026      4.22167      5.71018        -0.009627     -0.002361      0.006545
      2.46063      4.22167      3.73428         0.009627     -0.002361     -0.006545
      5.71002      1.38397      1.02643        -0.002854      0.001620      0.003581
      0.65087      1.38397      8.41803         0.002854      0.001620     -0.003581
      0.65087      4.22198      8.41803         0.002854     -0.001620     -0.003581
      5.71002      4.22198      1.02643        -0.002854     -0.001620      0.003581
     -0.13688      2.80297      3.74421         0.000223     -0.000000     -0.011151
      6.49777      2.80297      5.70025        -0.000223     -0.000000      0.011151
      8.29692      2.80297      1.01578         0.004405     -0.000000      0.004480
     -1.93602      2.80297      8.42868        -0.004405     -0.000000     -0.004480
    total drift:                               -0.000000      0.000000      0.000000

  FREE ENERGIE OF THE ION-ELECTRON SYSTEM (eV)
  free  energy   TOTEN  =      -364.3288725974 eV

  energy  without entropy=     -364.3285346159  energy(sigma->0) =     -364.32870361

 d Force = 0.5750833E-03[ 0.356E-03, 0.794E-03]  d Energy = 0.5077831E-03 0.673E-04
 d Force =-0.1033089E+01[-0.105E+01,-0.102E+01]  d Ewald  =-0.1952417E+01 0.919E+00

 Quasi-Newton relaxation of ions (Broydens 2nd method)
  g(Force)  = 0.125E-03   g(Stress)= 0.151E-03

 retain information from N=  4 steps
 eigenvalues of (default step * inverse Hessian matrix)
  average eigenvalue of G=   4.1908
 eigenvalue spectrum of G is  6.2522  6.2522  1.0170  3.2419

 reached required accuracy - stopping structural energy minimisation

volume of typ            1:    17.8 %

[...]

volume of typ            3:     9.9 %

total charge

# of ion       s       p       d       tot
    1        2.079   0.249   0.094   2.422
    2        2.079   0.249   0.094   2.422
    3        2.078   0.254   0.092   2.423
    4        2.078   0.254   0.092   2.423
    5        2.078   0.254   0.092   2.423
    6        2.078   0.254   0.092   2.423
    7        2.080   0.244   0.093   2.417
    8        2.080   0.244   0.093   2.417
    9        2.078   0.253   0.092   2.423
   10        2.078   0.253   0.092   2.423
   11        2.078   0.253   0.092   2.423
   12        2.078   0.253   0.092   2.423
   13        0.280   0.380   7.871   8.532
   14        0.261   0.344   7.862   8.468
   15        0.261   0.344   7.862   8.468
   16        0.261   0.344   7.862   8.468
   17        0.261   0.344   7.862   8.468
   18        0.282   0.388   7.847   8.516
   19        0.280   0.378   7.873   8.531
   20        0.280   0.385   7.850   8.515
   21        0.281   0.382   7.870   8.532
   22        0.261   0.343   7.862   8.466
   23        0.261   0.343   7.862   8.466
   24        0.261   0.343   7.862   8.466
   25        0.261   0.343   7.862   8.466
   26        0.282   0.388   7.847   8.516
   27        0.281   0.380   7.871   8.532
   28        0.283   0.390   7.847   8.519
   29        1.257   2.792   0.005   4.055
   30        1.257   2.792   0.005   4.055
   31        1.257   2.793   0.006   4.056
   32        1.257   2.793   0.006   4.056
   33        1.263   2.778   0.006   4.047
   34        1.263   2.778   0.006   4.047
   35        1.263   2.778   0.006   4.047
   36        1.263   2.778   0.006   4.047
   37        1.263   2.778   0.006   4.048
   38        1.263   2.778   0.006   4.048
   39        1.263   2.778   0.006   4.048
   40        1.263   2.778   0.006   4.048
   41        1.262   2.785   0.006   4.053
   42        1.262   2.785   0.006   4.053
   43        1.262   2.785   0.006   4.053
   44        1.262   2.785   0.006   4.053
   45        1.257   2.794   0.006   4.056
   46        1.257   2.794   0.006   4.056
   47        1.257   2.793   0.006   4.056
   48        1.257   2.793   0.006   4.056
   49        1.264   2.777   0.006   4.047
   50        1.264   2.777   0.006   4.047
   51        1.264   2.777   0.006   4.047
   52        1.264   2.777   0.006   4.047
   53        1.263   2.778   0.006   4.048
   54        1.263   2.778   0.006   4.048
   55        1.263   2.778   0.006   4.048
   56        1.263   2.778   0.006   4.048
   57        1.262   2.785   0.007   4.053
   58        1.262   2.785   0.007   4.053
   59        1.262   2.785   0.007   4.053
   60        1.262   2.785   0.007   4.053
tot          69.64   97.90  127.08  294.63

magnetization (x)

# of ion       s       p       d       tot
    1        0.005   0.011   0.000   0.017
    2        0.005   0.011   0.000   0.017
    3        0.005   0.017  -0.000   0.022
    4        0.005   0.017  -0.000   0.022
    5        0.005   0.017  -0.000   0.022
    6        0.005   0.017  -0.000   0.022
    7        0.000   0.003  -0.000   0.003
    8        0.000   0.003  -0.000   0.003
    9        0.005   0.017  -0.001   0.022
   10        0.005   0.017  -0.001   0.022
   11        0.005   0.017  -0.001   0.022
   12        0.005   0.017  -0.001   0.022
   13        0.003  -0.000   0.567   0.570
   14        0.001  -0.000   0.681   0.682
   15        0.001  -0.000   0.681   0.682
   16        0.001  -0.000   0.681   0.682
   17        0.001  -0.000   0.681   0.682
   18       -0.001  -0.000   0.230   0.229
   19        0.005  -0.000   0.599   0.604
   20       -0.001  -0.000   0.221   0.219
   21       -0.005  -0.000  -0.552  -0.557
   22        0.002  -0.000   0.714   0.715
   23        0.002  -0.000   0.714   0.715
   24        0.002  -0.000   0.714   0.715
   25        0.002  -0.000   0.714   0.715
   26       -0.001  -0.000   0.199   0.198
   27        0.004  -0.000   0.585   0.588
   28       -0.001  -0.000  -0.025  -0.026
   29        0.001  -0.040  -0.000  -0.039
   30        0.001  -0.040  -0.000  -0.039
   31        0.012   0.087   0.000   0.099
   32        0.012   0.087   0.000   0.099
   33        0.006   0.052   0.000   0.059
   34        0.006   0.052   0.000   0.059
   35        0.006   0.052   0.000   0.059
   36        0.006   0.052   0.000   0.059
   37        0.007   0.052   0.000   0.060
   38        0.007   0.052   0.000   0.060
   39        0.007   0.052   0.000   0.060
   40        0.007   0.052   0.000   0.060
   41        0.009   0.040   0.000   0.049
   42        0.009   0.040   0.000   0.049
   43        0.009   0.038   0.000   0.047
   44        0.009   0.038   0.000   0.047
   45        0.012   0.089   0.000   0.102
   46        0.012   0.089   0.000   0.102
   47        0.012   0.082   0.000   0.094
   48        0.012   0.082   0.000   0.094
   49        0.006   0.040   0.000   0.046
   50        0.006   0.040   0.000   0.046
   51        0.006   0.040   0.000   0.046
   52        0.006   0.040   0.000   0.046
   53        0.007   0.053   0.000   0.061
   54        0.007   0.053   0.000   0.061
   55        0.007   0.053   0.000   0.061
   56        0.007   0.053   0.000   0.061
   57        0.007   0.024   0.000   0.031
   58        0.007   0.024   0.000   0.031
   59        0.009   0.034   0.000   0.043
   60        0.009   0.034   0.000   0.043
tot           0.31    1.66    7.41    9.38