 vasp.5.4.4.18Apr17-6-g9f103f2a35 (build May 12 2020 05:39:39) gamma-only

 MD_VERSION_INFO: Compiled 2020-05-12T12:39:39-UTC in devlin.sd.materialsdesign.
 com:/home/medea2/data/build/wwolf/vasp-gpu5.4.4/13047/x86_64/src/src/build/gam
 from svn 13047

 executed on                        Lin64 date 2023.03.07  06:05:45

 INCAR:
 POTCAR:    PAW_PBE Li_sv 10Sep2004
 POTCAR:    PAW_PBE Ni 02Aug2007
 POTCAR:    PAW_PBE O 08Apr2002

 POTCAR:    PAW_PBE Li_sv 10Sep2004

 POTCAR:    PAW_PBE Ni 02Aug2007

 POTCAR:    PAW_PBE O 08Apr2002

 Optimization of the real space projectors (new method)

 maximal supplied QI-value         = 22.11
 optimisation between [QCUT,QGAM] = [ 11.28, 22.77] = [ 35.61,145.23] Ry
 Optimized for a Real-space Cutoff    1.10 Angstroem

   l    n(q)    QCUT    max X(q) W(low)/X(q) W(high)/X(q)  e(spline)
   0      7    11.276    10.506    0.54E-04    0.58E-04    0.16E-07
   0      7    11.276     8.367    0.11E-03    0.14E-03    0.35E-07
   1      7    11.276     8.983    0.23E-03    0.43E-03    0.86E-07
 Optimization of the real space projectors (new method)

[...]

   l    n(q)    QCUT    max X(q) W(low)/X(q) W(high)/X(q)  e(spline)
   2      9    11.376    60.317    0.17E-03    0.16E-04    0.16E-06
   2      9    11.376    55.921    0.17E-03    0.16E-04    0.17E-06
   0     10    11.376    51.690    0.45E-04    0.60E-04    0.21E-06
   0     10    11.376    30.015    0.37E-04    0.55E-04    0.19E-06
   1     10    11.376    18.849    0.83E-04    0.11E-03    0.92E-07
   1     10    11.376    14.624    0.69E-04    0.92E-04    0.82E-07
 Optimization of the real space projectors (new method)

 maximal supplied QI-value         = 24.76
 optimisation between [QCUT,QGAM] = [ 11.39, 22.77] = [ 36.31,145.25] Ry
 Optimized for a Real-space Cutoff    1.10 Angstroem

   l    n(q)    QCUT    max X(q) W(low)/X(q) W(high)/X(q)  e(spline)
   0      7    11.387    20.381    0.22E-03    0.48E-03    0.18E-06
   0      7    11.387    15.268    0.22E-03    0.52E-03    0.19E-06
   1      7    11.387     5.964    0.22E-03    0.73E-03    0.24E-06
   1      7    11.387     5.382    0.19E-03    0.60E-03    0.21E-06

  PAW_PBE Li_sv 10Sep2004               :
  PAW_PBE Ni 02Aug2007                  :
  PAW_PBE O 08Apr2002                   :

 POSCAR: ce1886_1
  positions in direct lattice
 exchange correlation table for  LEXCH =       14
   RHO(1)=    0.500       N(1)  =     2000
   RHO(2)=  100.500       N(2)  =     4000

 ion  position               nearest neighbor table
   1  0.980  0.250  0.233-  39 2.00  34 2.04  46 2.18  31 2.19  25 2.21   7 2.80  18 2.84
   2  0.980  0.750  0.767-  40 2.00  33 2.04  45 2.18  32 2.19  26 2.21   7 2.80  19 2.84
   3  0.250  0.250  0.500-  35 2.14  25 2.14  23 2.14  37 2.14  47 2.16  43 2.17
   4  0.250  0.750  0.500-  36 2.14  26 2.14  24 2.14  38 2.14  48 2.16  44 2.17
   5  0.519  0.250  0.767-  53 2.00  30 2.04  50 2.18  27 2.19  35 2.21  22 2.80
   6  0.519  0.750  0.233-  54 2.00  29 2.04  49 2.18  28 2.19  36 2.21  22 2.80
   7  1.000  0.000  0.000-  31 1.85  32 1.85  33 1.85  34 1.85  41 1.92  42 1.92  12 2.77  12 2.77
                             1 2.80   2 2.80   8 2.82   9 2.82  10 2.82  11 2.82
   8  0.250  0.999  0.249-  54 1.84  25 1.84  42 1.84  37 1.85  31 1.91  48 1.96  11 2.77  11 2.77
                             7 2.82  12 2.82  14 2.83  13 2.83
   9  0.250  0.001  0.751-  53 1.84  26 1.84  41 1.84  38 1.85  32 1.91  47 1.96  10 2.77  10 2.77
                             7 2.82  12 2.82  14 2.83  13 2.83
  10  0.750  0.996  0.748-  53 1.84  41 1.85  26 1.86  38 1.87  33 1.91  50 1.92   9 2.77   9 2.77
                            13 2.82  14 2.82   7 2.82  12 2.83
  11  0.750  0.004  0.252-  54 1.84  42 1.85  25 1.86  37 1.87  34 1.91  49 1.92   8 2.77   8 2.77
                            13 2.82  14 2.82   7 2.82  12 2.83
  12  0.500  0.000  0.000-  31 1.85  32 1.85  33 1.86  34 1.86  53 2.01  54 2.01   7 2.77   7 2.77
                             8 2.82   9 2.82  10 2.83  11 2.83
  13  0.998  0.000  0.500-  49 1.85  50 1.85  47 1.87  48 1.87  25 2.04  26 2.04  14 2.76  14 2.78
                            11 2.82  10 2.82   9 2.83   8 2.83
  14  0.501  0.000  0.500-  49 1.84  50 1.84  47 1.85  48 1.85  37 1.92  38 1.92  13 2.76  13 2.78
                            10 2.82  11 2.82   8 2.83   9 2.83
  15  0.999  0.500  0.500-  45 1.84  46 1.84  43 1.85  44 1.85  23 1.92  24 1.92  20 2.76  20 2.78
                            19 2.82  18 2.82  17 2.83  16 2.83
  16  0.250  0.501  0.751-  40 1.84  35 1.84  52 1.84  23 1.85  27 1.91  44 1.95  19 2.77  19 2.77
                            22 2.82  21 2.82  15 2.83  20 2.83
  17  0.250  0.499  0.249-  39 1.84  36 1.84  51 1.84  24 1.85  28 1.91  43 1.95  18 2.77  18 2.77
                            22 2.82  21 2.82  15 2.83  20 2.83
  18  0.750  0.504  0.252-  39 1.84  51 1.85  36 1.86  24 1.87  29 1.91  46 1.92  17 2.77  17 2.77
                            20 2.82  15 2.82  22 2.83  21 2.83   1 2.84
  19  0.750  0.496  0.748-  40 1.84  52 1.85  35 1.86  23 1.87  30 1.91  45 1.92  16 2.77  16 2.77
                            20 2.82  15 2.82  22 2.83  21 2.83   2 2.84
  20  0.502  0.500  0.500-  45 1.85  46 1.85  43 1.86  44 1.86  35 2.04  36 2.04  15 2.76  15 2.78
                            19 2.82  18 2.82  17 2.83  16 2.83
  21  0.000  0.500  0.000-  27 1.85  28 1.85  29 1.86  30 1.86  39 2.01  40 2.01  22 2.77  22 2.77
                            16 2.82  17 2.82  18 2.83  19 2.83
  22  0.500  0.500  0.000-  27 1.85  28 1.85  29 1.85  30 1.85  51 1.92  52 1.92  21 2.77  21 2.77
                             6 2.80   5 2.80  17 2.82  16 2.82  19 2.83  18 2.83
  23  0.005  0.400  0.634-  16 1.85  19 1.87  15 1.92   3 2.14
  24  0.005  0.600  0.366-  17 1.85  18 1.87  15 1.92   4 2.14
  25  0.006  0.106  0.358-   8 1.84  11 1.86  13 2.04   3 2.14   1 2.21
  26  0.006  0.894  0.642-   9 1.84  10 1.86  13 2.04   4 2.14   2 2.21
  27  0.251  0.403  0.885-  22 1.85  21 1.85  16 1.91   5 2.19
  28  0.251  0.597  0.115-  22 1.85  21 1.85  17 1.91   6 2.19
  29  0.749  0.598  0.114-  22 1.85  21 1.86  18 1.91   6 2.04
  30  0.749  0.402  0.886-  22 1.85  21 1.86  19 1.91   5 2.04
  31  0.249  0.097  0.114-   7 1.85  12 1.85   8 1.91   1 2.19
  32  0.249  0.903  0.886-   7 1.85  12 1.85   9 1.91   2 2.19
  33  0.751  0.902  0.886-   7 1.85  12 1.86  10 1.91   2 2.04
  34  0.751  0.098  0.114-   7 1.85  12 1.86  11 1.91   1 2.04
  35  0.494  0.394  0.642-  16 1.84  19 1.86  20 2.04   3 2.14   5 2.21
  36  0.494  0.606  0.358-  17 1.84  18 1.86  20 2.04   4 2.14   6 2.21
  37  0.495  0.100  0.366-   8 1.85  11 1.87  14 1.92   3 2.14
  38  0.495  0.900  0.634-   9 1.85  10 1.87  14 1.92   4 2.14
  39  0.997  0.399  0.144-  17 1.84  18 1.84   1 2.00  21 2.01
  40  0.997  0.601  0.856-  16 1.84  19 1.84   2 2.00  21 2.01
  41  0.997  0.096  0.863-   9 1.84  10 1.85   7 1.92
  42  0.997  0.904  0.137-   8 1.84  11 1.85   7 1.92
  43  0.249  0.399  0.388-  15 1.85  20 1.86  17 1.95   3 2.17
  44  0.249  0.601  0.612-  15 1.85  20 1.86  16 1.95   4 2.17
  45  0.751  0.597  0.615-  15 1.84  20 1.85  19 1.92   2 2.18
  46  0.751  0.403  0.385-  15 1.84  20 1.85  18 1.92   1 2.18
  47  0.251  0.101  0.612-  14 1.85  13 1.87   9 1.96   3 2.16
  48  0.251  0.899  0.388-  14 1.85  13 1.87   8 1.96   4 2.16
  49  0.749  0.903  0.385-  14 1.84  13 1.85  11 1.92   6 2.18
  50  0.749  0.097  0.615-  14 1.84  13 1.85  10 1.92   5 2.18
  51  0.503  0.404  0.137-  17 1.84  18 1.85  22 1.92
  52  0.503  0.596  0.863-  16 1.84  19 1.85  22 1.92
  53  0.503  0.101  0.856-   9 1.84  10 1.84   5 2.00  12 2.01
  54  0.503  0.899  0.144-   8 1.84  11 1.84   6 2.00  12 2.01

  LATTYP: Found a simple monoclinic cell.
 ALAT       =    11.5714482266
 B/A-ratio  =     0.4788352590
 C/A-ratio  =     1.6840127586
 COS(beta)  =    -0.9074323452

  Lattice vectors:

 A1 = (  -6.3058864070,   0.0000000000,  -9.7022786336)
 A2 = (   0.0000000000,  -5.5408174084,   0.0000000000)
 A3 = (   2.7706811660,   0.0000000000,  19.2884862171)

Analysis of symmetry for initial positions (statically):
 Subroutine PRICEL returns:
 Original cell was already a primitive cell.

 Routine SETGRP: Setting up the symmetry group for a
 simple monoclinic supercell.

 Subroutine GETGRP returns: Found  2 space group operations
 (whereof  2 operations were pure point group operations)
 out of a pool of  4 trial point group operations.

The static configuration has the point symmetry C_2 .

Analysis of symmetry for dynamics (positions and initial velocities):
 Subroutine PRICEL returns:
 Original cell was already a primitive cell.

[...]

The dynamic configuration has the point symmetry C_2 .

Analysis of structural, dynamic, and magnetic symmetry:
 Subroutine PRICEL returns:
 Original cell was already a primitive cell.

 Routine SETGRP: Setting up the symmetry group for a
 simple monoclinic supercell.

 Subroutine GETGRP returns: Found  2 space group operations
 (whereof  2 operations were pure point group operations)
 out of a pool of  4 trial point group operations.

The magnetic configuration has the point symmetry C_2 .

 Subroutine INISYM returns: Found  2 space group operations
 (whereof  2 operations are pure point group operations),
 and found     1 'primitive' translations

 KPOINTS: Automatic mesh

Automatic generation of k-mesh.
Space group operators:
 irot       det(A)        alpha          n_x          n_y          n_z        tau_x        tau_y        tau_z
    1     1.000000     0.000001     1.000000     0.000000     0.000000     0.000000     0.000000     0.000000
    2     1.000000   180.000000     0.000000     1.000000     0.000000     0.000000     0.000000     0.000000

 Subroutine IBZKPT returns following result:

 Found      1 irreducible k-points:

 Following reciprocal coordinates:
            Coordinates               Weight
  0.000000  0.000000  0.000000      1.000000

 Following cartesian coordinates:
            Coordinates               Weight
  0.000000  0.000000  0.000000      1.000000

 SYSTEM =  unknown system
 POSCAR =  ce1886_1

 Startparameter for this run:
   NWRITE =      1    write-flag & timer
   PREC   = accura    normal or accurate (medium, high low for compatibility)
   ISTART =      0    job   : 0-new  1-cont  2-samecut
   ICHARG =      2    charge: 1-file 2-atom 10-const
   ISPIN  =      2    spin polarized calculation?
   LNONCOLLINEAR =      F non collinear calculations
   LSORBIT =      F    spin-orbit coupling
   INIWAV =      1    electr: 0-lowe 1-rand  2-diag
   LASPH  =      F    aspherical Exc in radial PAW
   METAGGA=      F    non-selfconsistent MetaGGA calc.

 Electronic Relaxation 1
   ENCUT  =  500.0 eV  36.75 Ry    6.06 a.u.  10.10 18.63 17.94*2*pi/ulx,y,z
   ENINI  =  500.0     initial cutoff
   ENAUG  =  628.9 eV  augmentation charge cutoff
   NELM   =     80;   NELMIN=  2; NELMDL= -5     # of ELM steps
   EDIFF  = 0.1E-04   stopping-criterion for ELM
   LREAL  =      T    real-space projection
   NLSPLINE    = F    spline interpolate recip. space projectors
   LCOMPAT=      F    compatible to vasp.4.4
   GGA_COMPAT  = T    GGA compatible to vasp.4.4-vasp.4.6
   LMAXPAW     = -100 max onsite density
[...]
   0.105E+02 -.451E+00 -.149E+01   -.111E+02 0.823E+00 0.161E+01   0.652E+00 -.347E+00 -.120E+00   -.733E-02 -.769E-03 -.504E-02
   -.479E-05 -.355E+01 0.113E-05   0.711E-14 0.346E+01 0.121E-12   0.000E+00 0.876E-01 0.000E+00   -.104E-10 0.166E-02 0.665E-11
   0.305E+02 -.116E+00 0.479E+02   -.309E+02 0.692E-01 -.483E+02   0.464E+00 0.313E-01 0.396E+00   -.380E-01 0.140E-01 -.110E-01
   -.305E+02 -.116E+00 -.479E+02   0.309E+02 0.692E-01 0.483E+02   -.464E+00 0.313E-01 -.396E+00   0.380E-01 0.140E-01 0.110E-01
   -.134E+02 0.139E+01 0.141E+02   0.136E+02 -.137E+01 -.140E+02   -.172E+00 -.260E-02 -.454E-01   0.372E-01 -.146E-01 0.104E-01
   0.134E+02 0.139E+01 -.141E+02   -.136E+02 -.137E+01 0.140E+02   0.172E+00 -.260E-02 0.454E-01   -.372E-01 -.146E-01 -.104E-01
   -.603E-05 0.193E+01 0.142E-05   -.284E-13 -.176E+01 0.171E-12   0.000E+00 -.165E+00 0.452E-25   -.479E-11 -.223E-02 0.603E-11
   -.150E-04 0.208E+02 0.336E-05   0.497E-13 -.212E+02 0.142E-12   0.000E+00 0.356E+00 0.194E-25   0.741E-11 0.804E-03 0.147E-11
   0.414E-06 -.238E+02 -.930E-07   -.284E-13 0.242E+02 0.224E-12   0.000E+00 -.372E+00 0.129E-25   0.145E-11 -.177E-02 0.165E-11
   0.848E-07 0.238E+02 -.191E-07   0.533E-13 -.242E+02 -.269E-12   0.000E+00 0.371E+00 0.808E-26   -.215E-11 0.375E-02 -.193E-11
   -.306E+02 0.485E-01 -.481E+02   0.310E+02 -.535E-02 0.485E+02   -.464E+00 -.317E-01 -.401E+00   0.334E-01 -.102E-01 0.111E-01
   0.306E+02 0.485E-01 0.481E+02   -.310E+02 -.535E-02 -.485E+02   0.464E+00 -.317E-01 0.401E+00   -.334E-01 -.102E-01 -.111E-01
   0.135E+02 -.135E+01 -.141E+02   -.136E+02 0.134E+01 0.140E+02   0.173E+00 0.279E-02 0.463E-01   -.327E-01 0.108E-01 -.111E-01
   -.135E+02 -.135E+01 0.141E+02   0.136E+02 0.134E+01 -.140E+02   -.173E+00 0.279E-02 -.463E-01   0.327E-01 0.108E-01 0.111E-01
   0.153E-04 -.208E+02 -.343E-05   -.853E-13 0.211E+02 -.186E-12   0.258E-25 -.356E+00 0.000E+00   -.148E-11 -.242E-02 -.147E-11
   0.666E-05 -.191E+01 -.157E-05   -.817E-13 0.174E+01 -.327E-12   0.000E+00 0.163E+00 0.101E-25   0.666E-12 0.449E-02 -.411E-11
   0.546E-05 0.358E+01 -.129E-05   0.320E-13 -.349E+01 -.227E-12   0.000E+00 -.875E-01 -.267E-25   0.368E-11 -.338E-02 -.455E-11
   -.227E+02 0.278E+02 0.369E+03   0.242E+02 -.298E+02 -.390E+03   -.148E+01 0.196E+01 0.210E+02   0.203E-01 0.471E-02 0.135E-01
   0.227E+02 0.278E+02 -.369E+03   -.242E+02 -.298E+02 0.390E+03   0.148E+01 0.196E+01 -.210E+02   -.203E-01 0.471E-02 -.135E-01
   -.385E+02 0.261E+02 -.342E+03   0.433E+02 -.278E+02 0.360E+03   -.477E+01 0.163E+01 -.177E+02   -.193E-01 0.364E-02 0.818E-02
   0.385E+02 0.261E+02 0.342E+03   -.433E+02 -.278E+02 -.360E+03   0.477E+01 0.163E+01 0.177E+02   0.193E-01 0.364E-02 -.818E-02
   -.287E+02 0.367E+02 0.364E+03   0.286E+02 -.391E+02 -.386E+03   0.106E+00 0.247E+01 0.223E+02   0.584E-02 -.120E-01 0.178E-01
   0.287E+02 0.367E+02 -.364E+03   -.286E+02 -.391E+02 0.386E+03   -.106E+00 0.247E+01 -.223E+02   -.584E-02 -.120E-01 -.178E-01
   0.278E+02 -.406E+02 -.360E+03   -.286E+02 0.436E+02 0.381E+03   0.851E+00 -.309E+01 -.209E+02   -.950E-02 0.119E-01 -.146E-01
   -.278E+02 -.406E+02 0.360E+03   0.286E+02 0.436E+02 -.381E+03   -.851E+00 -.309E+01 0.209E+02   0.950E-02 0.119E-01 0.146E-01
   0.288E+02 -.367E+02 -.364E+03   -.287E+02 0.391E+02 0.387E+03   -.100E+00 -.247E+01 -.223E+02   -.174E-01 0.161E-01 -.929E-02
   -.288E+02 -.367E+02 0.364E+03   0.287E+02 0.391E+02 -.387E+03   0.100E+00 -.247E+01 0.223E+02   0.174E-01 0.161E-01 0.929E-02
   -.279E+02 0.405E+02 0.360E+03   0.288E+02 -.436E+02 -.381E+03   -.858E+00 0.309E+01 0.209E+02   0.198E-01 -.158E-01 0.761E-02
   0.279E+02 0.405E+02 -.360E+03   -.288E+02 -.436E+02 0.381E+03   0.858E+00 0.309E+01 -.209E+02   -.198E-01 -.158E-01 -.761E-02
   0.384E+02 -.262E+02 0.343E+03   -.432E+02 0.278E+02 -.360E+03   0.477E+01 -.163E+01 0.178E+02   0.233E-01 -.525E-02 0.992E-02
   -.384E+02 -.262E+02 -.343E+03   0.432E+02 0.278E+02 0.360E+03   -.477E+01 -.163E+01 -.178E+02   -.233E-01 -.525E-02 -.992E-02
   0.225E+02 -.278E+02 -.369E+03   -.240E+02 0.297E+02 0.390E+03   0.147E+01 -.195E+01 -.210E+02   -.129E-01 -.305E-02 0.189E-02
   -.225E+02 -.278E+02 0.369E+03   0.240E+02 0.297E+02 -.390E+03   -.147E+01 -.195E+01 0.210E+02   0.129E-01 -.305E-02 -.189E-02
   0.762E+02 -.730E+00 0.371E+03   -.833E+02 0.405E+00 -.391E+03   0.708E+01 0.320E+00 0.199E+02   -.150E-01 0.571E-02 0.121E-01
   -.762E+02 -.730E+00 -.371E+03   0.833E+02 0.405E+00 0.391E+03   -.708E+01 0.320E+00 -.199E+02   0.150E-01 0.571E-02 -.121E-01
   -.116E+02 0.893E-01 -.408E+03   0.116E+02 -.507E+00 0.433E+03   0.397E-01 0.413E+00 -.254E+02   0.155E-01 0.342E-02 0.101E-01
   0.116E+02 0.893E-01 0.408E+03   -.116E+02 -.507E+00 -.433E+03   -.397E-01 0.413E+00 0.254E+02   -.155E-01 0.342E-02 -.101E-01
   0.331E+02 -.344E+02 0.357E+03   -.362E+02 0.365E+02 -.376E+03   0.310E+01 -.202E+01 0.191E+02   -.231E-01 -.816E-02 -.449E-02
   -.331E+02 -.344E+02 -.357E+03   0.362E+02 0.365E+02 0.376E+03   -.310E+01 -.202E+01 -.191E+02   0.231E-01 -.816E-02 0.449E-02
   -.648E+01 0.353E+02 -.365E+03   0.697E+01 -.374E+02 0.387E+03   -.503E+00 0.210E+01 -.220E+02   0.200E-01 0.841E-02 0.685E-02
   0.648E+01 0.353E+02 0.365E+03   -.697E+01 -.374E+02 -.387E+03   0.503E+00 0.210E+01 0.220E+02   -.200E-01 0.841E-02 -.685E-02
   -.332E+02 0.344E+02 -.357E+03   0.363E+02 -.364E+02 0.376E+03   -.312E+01 0.201E+01 -.191E+02   0.153E-01 0.112E-01 0.163E-01
   0.332E+02 0.344E+02 0.357E+03   -.363E+02 -.364E+02 -.376E+03   0.312E+01 0.201E+01 0.191E+02   -.153E-01 0.112E-01 -.163E-01
   0.653E+01 -.352E+02 0.365E+03   -.703E+01 0.373E+02 -.387E+03   0.511E+00 -.209E+01 0.220E+02   -.132E-01 -.114E-01 -.175E-01
   -.653E+01 -.352E+02 -.365E+03   0.703E+01 0.373E+02 0.387E+03   -.511E+00 -.209E+01 -.220E+02   0.132E-01 -.114E-01 0.175E-01
   0.117E+02 -.632E-01 0.408E+03   -.117E+02 0.481E+00 -.433E+03   -.335E-01 -.412E+00 0.254E+02   -.503E-02 -.536E-02 0.425E-02
   -.117E+02 -.632E-01 -.408E+03   0.117E+02 0.481E+00 0.433E+03   0.335E-01 -.412E+00 -.254E+02   0.503E-02 -.536E-02 -.425E-02
   -.761E+02 0.734E+00 -.371E+03   0.832E+02 -.412E+00 0.391E+03   -.708E+01 -.318E+00 -.198E+02   0.261E-01 -.394E-02 0.184E-02
   0.761E+02 0.734E+00 0.371E+03   -.832E+02 -.412E+00 -.391E+03   0.708E+01 -.318E+00 0.198E+02   -.261E-01 -.394E-02 -.184E-02
   0.539E-05 -.188E-01 -.775E-06   -.341E-12 -.542E-13 0.171E-12   0.888E-15 0.148E-01 -.178E-13   0.396E-11 0.932E-03 0.767E-11

 POSITION                                       TOTAL-FORCE (eV/Angst)
      1.40462      5.40626      2.43825        -0.004861     -0.024028      0.003115
      4.89645      5.40626      7.34930         0.004861     -0.024028     -0.003115
      4.03856      1.38336      2.47376        -0.000603      0.000458      0.000039
      2.26251      1.38336      7.31379         0.000603      0.000458     -0.000039
      6.67091      2.90038      2.50957         0.004267      0.024421     -0.003570
     -0.36984      2.90038      7.27798        -0.004267      0.024421      0.003570
      0.00000      5.53425     -0.00000         0.000000     -0.001311      0.000000
     -1.08750      1.38345      9.70424         0.000241     -0.001159      0.004213
      7.38857      1.38345      0.08331        -0.000241     -0.001159     -0.004213
      3.83600      4.15651      9.71866         0.000080     -0.001048     -0.004369
      2.46506      4.15651      0.06889        -0.000080     -0.001048      0.004369
      0.00000      2.76435     -0.00000         0.000000     -0.002992      0.000000
      4.92386      5.52506      0.05391         0.000000     -0.003234      0.000000
      4.92386      2.76928      0.05391         0.000000     -0.003102      0.000000
      3.15053      5.53795      4.89378         0.000000      0.002505     -0.000000
      5.61517      1.38595      4.92373         0.002113      0.001299     -0.004500
      0.68589      1.38595      4.86382        -0.002113      0.001299      0.004500
      0.69175      4.15072      4.90833        -0.002125      0.001519      0.003650
      5.60932      4.15072      4.87922         0.002125      0.001519     -0.003650
      3.15053      2.78211      4.89378         0.000000      0.001100      0.000000
     -1.77333      0.00510      4.83986         0.000000      0.001306      0.000000
     -1.77333      2.77311      4.83986         0.000000     -0.000596     -0.000000
      4.79220      0.02907      3.95373         0.002875      0.002210     -0.002257
      1.50886      0.02907      5.83382        -0.002875      0.002210      0.002257
      3.09438      0.03233      1.08577        -0.000910     -0.001428      0.002518
      3.20669      0.03233      8.70178         0.000910     -0.001428     -0.002518
      7.29115      1.38690      4.00697         0.003949      0.001910      0.000112
     -0.99009      1.38690      5.78058        -0.003949      0.001910     -0.000112
     -0.99880      4.15807      5.79131        -0.004658      0.000712      0.000538
      7.29987      4.15807      3.99624         0.004658      0.000712     -0.000538
      0.78313      1.38248      0.94095        -0.006081     -0.001328     -0.000637
      5.51793      1.38248      8.84660         0.006081     -0.001328      0.000637
      5.52665      4.14925      8.83588         0.006048     -0.000632     -0.000465
      0.77442      4.14925      0.95167        -0.006048     -0.000632      0.000465
      4.98010      2.73698      3.86238         0.000362      0.001144     -0.002333
      1.32097      2.73698      5.92517        -0.000362      0.001144      0.002333
      3.28228      2.74030      0.99429        -0.001798     -0.001951      0.002893
      3.01879      2.74030      8.79326         0.001798     -0.001951     -0.002893
      0.04345      5.52109      3.88083        -0.000138      0.000628      0.011920
      6.25762      5.52109      5.90672         0.000138      0.000628     -0.011920
      8.17931      5.52293      1.00308        -0.005203     -0.001362     -0.006466
     -1.87824      5.52293      8.78447         0.005203     -0.001362      0.006466
      2.39747      1.39000      3.92427        -0.000203      0.002335      0.006017
      3.90360      1.39000      5.86328         0.000203      0.002335     -0.006017
      3.94221      4.15688      5.82535         0.000408      0.001819     -0.004326
      2.35886      4.15688      3.96220        -0.000408      0.001819      0.004326
      5.67722      1.37928      1.02321        -0.001154     -0.001400     -0.005388
      0.62385      1.37928      8.76434         0.001154     -0.001400      0.005388
      0.58527      4.15030      8.80225         0.001078     -0.001628      0.003986
      5.71580      4.15030      0.98530        -0.001078     -0.001628     -0.003986
     -0.10510      2.78443      3.94405         0.006897      0.001440      0.008546
      6.40617      2.78443      5.84350        -0.006897      0.001440     -0.008546
      8.03108      2.78620      1.06622         0.000646     -0.000769     -0.009363
     -1.73002      2.78620      8.72133        -0.000646     -0.000769      0.009363
    total drift:                                0.000005     -0.003058     -0.000001

  FREE ENERGIE OF THE ION-ELECTRON SYSTEM (eV)
  free  energy   TOTEN  =      -335.3622059513 eV

  energy  without entropy=     -335.3620698070  energy(sigma->0) =     -335.36213788

 d Force = 0.2006995E-03[ 0.196E-03, 0.205E-03]  d Energy = 0.2172498E-03-0.166E-04
 d Force =-0.1404412E+01[-0.140E+01,-0.140E+01]  d Ewald  =-0.2945530E+01 0.154E+01

 Quasi-Newton relaxation of ions (Broydens 2nd method)
  g(Force)  = 0.198E-03   g(Stress)= 0.116E-04

 retain information from N=  2 steps
 eigenvalues of (default step * inverse Hessian matrix)
  average eigenvalue of G=   1.0740
 eigenvalue spectrum of G is  0.0127  2.1352

volume of typ            1:     8.8 %

[...]

volume of typ            3:     9.8 %

total charge

# of ion       s       p       d       tot
    1        2.070   0.219   0.081   2.370
    2        2.070   0.219   0.081   2.370
    3        2.063   0.194   0.072   2.329
    4        2.063   0.194   0.072   2.329
    5        2.070   0.219   0.081   2.370
    6        2.070   0.219   0.081   2.370
    7        0.300   0.424   7.840   8.564
    8        0.295   0.416   7.846   8.557
    9        0.295   0.416   7.846   8.557
   10        0.293   0.411   7.840   8.544
   11        0.293   0.411   7.840   8.544
   12        0.272   0.364   7.851   8.487
   13        0.271   0.361   7.873   8.504
   14        0.301   0.427   7.845   8.573
   15        0.301   0.427   7.845   8.573
   16        0.295   0.416   7.845   8.556
   17        0.295   0.416   7.845   8.556
   18        0.293   0.411   7.840   8.544
   19        0.293   0.411   7.840   8.544
   20        0.271   0.361   7.873   8.504
   21        0.272   0.364   7.851   8.487
   22        0.300   0.424   7.840   8.565
   23        1.271   2.760   0.007   4.039
   24        1.271   2.760   0.007   4.039
   25        1.266   2.774   0.007   4.046
   26        1.266   2.774   0.007   4.046
   27        1.274   2.753   0.008   4.035
   28        1.274   2.753   0.008   4.035
   29        1.270   2.766   0.008   4.044
   30        1.270   2.766   0.008   4.044
   31        1.274   2.753   0.008   4.035
   32        1.274   2.753   0.008   4.035
   33        1.270   2.766   0.008   4.044
   34        1.270   2.766   0.008   4.044
   35        1.266   2.773   0.007   4.046
   36        1.266   2.773   0.007   4.046
   37        1.271   2.760   0.007   4.039
   38        1.271   2.760   0.007   4.039
   39        1.273   2.761   0.007   4.042
   40        1.273   2.761   0.007   4.042
   41        1.283   2.729   0.008   4.020
   42        1.283   2.729   0.008   4.020
   43        1.267   2.771   0.007   4.044
   44        1.267   2.771   0.007   4.044
   45        1.271   2.761   0.008   4.040
   46        1.271   2.761   0.008   4.040
   47        1.266   2.771   0.007   4.044
   48        1.266   2.771   0.007   4.044
   49        1.271   2.761   0.008   4.040
   50        1.271   2.761   0.008   4.040
   51        1.283   2.729   0.008   4.020
   52        1.283   2.729   0.008   4.020
   53        1.273   2.761   0.007   4.042
   54        1.273   2.761   0.007   4.042
tot          57.74   96.03  126.26  280.03

magnetization (x)

# of ion       s       p       d       tot
    1        0.001   0.004   0.001   0.006
    2        0.001   0.004   0.001   0.006
    3        0.000  -0.000  -0.000  -0.000
    4        0.000  -0.000  -0.000  -0.000
    5       -0.001  -0.004  -0.001  -0.006
    6       -0.001  -0.004  -0.001  -0.006
    7        0.000  -0.000  -0.013  -0.013
    8       -0.000  -0.000  -0.090  -0.091
    9       -0.000  -0.000  -0.090  -0.091
   10       -0.000  -0.000  -0.079  -0.079
   11       -0.000  -0.000  -0.079  -0.079
   12       -0.002  -0.000  -0.485  -0.488
   13        0.004  -0.000   0.519   0.523
   14        0.000  -0.001   0.002   0.002
   15       -0.000   0.001  -0.002  -0.002
   16        0.000   0.000   0.090   0.091
   17        0.000   0.000   0.090   0.091
   18        0.000   0.000   0.079   0.079
   19        0.000   0.000   0.079   0.079
   20       -0.004   0.000  -0.519  -0.523
   21        0.002   0.000   0.486   0.488
   22       -0.000   0.000   0.013   0.013
   23        0.001   0.008   0.000   0.009
   24        0.001   0.008   0.000   0.009
   25        0.005   0.075   0.000   0.079
   26        0.005   0.075   0.000   0.079
   27        0.002   0.018   0.000   0.020
   28        0.002   0.018   0.000   0.020
   29        0.002   0.016   0.000   0.018
   30        0.002   0.016   0.000   0.018
   31       -0.002  -0.018  -0.000  -0.020
   32       -0.002  -0.018  -0.000  -0.020
   33       -0.002  -0.016  -0.000  -0.018
   34       -0.002  -0.016  -0.000  -0.018
   35       -0.005  -0.074  -0.000  -0.079
   36       -0.005  -0.074  -0.000  -0.079
   37       -0.001  -0.008  -0.000  -0.009
   38       -0.001  -0.008  -0.000  -0.009
   39        0.006   0.067   0.000   0.073
   40        0.006   0.067   0.000   0.073
   41       -0.001  -0.006  -0.000  -0.007
   42       -0.001  -0.006  -0.000  -0.007
   43       -0.000  -0.004   0.000  -0.004
   44       -0.000  -0.004   0.000  -0.004
   45       -0.000  -0.004   0.000  -0.005
   46       -0.000  -0.004   0.000  -0.005
   47        0.000   0.004  -0.000   0.004
   48        0.000   0.004  -0.000   0.004
   49        0.000   0.004  -0.000   0.005
   50        0.000   0.004  -0.000   0.005
   51        0.001   0.006   0.000   0.007
   52        0.001   0.006   0.000   0.007
   53       -0.006  -0.067  -0.000  -0.073
   54       -0.006  -0.067  -0.000  -0.073
tot          -0.00    0.00   -0.00    0.00