 vasp.5.4.4.18Apr17-6-g9f103f2a35 (build May 12 2020 05:39:39) gamma-only

 MD_VERSION_INFO: Compiled 2020-05-12T12:39:39-UTC in devlin.sd.materialsdesign.
 com:/home/medea2/data/build/wwolf/vasp-gpu5.4.4/13047/x86_64/src/src/build/gam
 from svn 13047

 executed on                        Lin64 date 2023.03.07  06:04:45

 INCAR:
 POTCAR:    PAW_PBE Li_sv 10Sep2004
 POTCAR:    PAW_PBE Ni 02Aug2007
 POTCAR:    PAW_PBE O 08Apr2002

 POTCAR:    PAW_PBE Li_sv 10Sep2004

 POTCAR:    PAW_PBE Ni 02Aug2007

 POTCAR:    PAW_PBE O 08Apr2002

 Optimization of the real space projectors (new method)

 maximal supplied QI-value         = 22.11
 optimisation between [QCUT,QGAM] = [ 11.28, 22.77] = [ 35.61,145.23] Ry
 Optimized for a Real-space Cutoff    1.10 Angstroem

   l    n(q)    QCUT    max X(q) W(low)/X(q) W(high)/X(q)  e(spline)
   0      7    11.276    10.506    0.54E-04    0.58E-04    0.16E-07
   0      7    11.276     8.367    0.11E-03    0.14E-03    0.35E-07
   1      7    11.276     8.983    0.23E-03    0.43E-03    0.86E-07
 Optimization of the real space projectors (new method)

[...]

   l    n(q)    QCUT    max X(q) W(low)/X(q) W(high)/X(q)  e(spline)
   2      9    11.376    60.317    0.17E-03    0.16E-04    0.16E-06
   2      9    11.376    55.921    0.17E-03    0.16E-04    0.17E-06
   0     10    11.376    51.690    0.45E-04    0.60E-04    0.21E-06
   0     10    11.376    30.015    0.37E-04    0.55E-04    0.19E-06
   1     10    11.376    18.849    0.83E-04    0.11E-03    0.92E-07
   1     10    11.376    14.624    0.69E-04    0.92E-04    0.82E-07
 Optimization of the real space projectors (new method)

 maximal supplied QI-value         = 24.76
 optimisation between [QCUT,QGAM] = [ 11.39, 22.77] = [ 36.31,145.25] Ry
 Optimized for a Real-space Cutoff    1.10 Angstroem

   l    n(q)    QCUT    max X(q) W(low)/X(q) W(high)/X(q)  e(spline)
   0      7    11.387    20.381    0.22E-03    0.48E-03    0.18E-06
   0      7    11.387    15.268    0.22E-03    0.52E-03    0.19E-06
   1      7    11.387     5.964    0.22E-03    0.73E-03    0.24E-06
   1      7    11.387     5.382    0.19E-03    0.60E-03    0.21E-06

  PAW_PBE Li_sv 10Sep2004               :
  PAW_PBE Ni 02Aug2007                  :
  PAW_PBE O 08Apr2002                   :

 POSCAR: ce7853_1
  positions in direct lattice
 exchange correlation table for  LEXCH =       14
   RHO(1)=    0.500       N(1)  =     2000
   RHO(2)=  100.500       N(2)  =     4000

 ion  position               nearest neighbor table
   1  0.982  0.251  0.223-  40 1.99  35 2.03  32 2.14  47 2.21   8 2.81  19 2.82
   2  0.250  0.250  0.501-  48 2.11  44 2.12  24 2.15  36 2.17  38 2.18  26 2.18
   3  0.206  0.750  0.500-  25 2.01  27 2.02  49 2.12  45 2.15  16 2.80  14 2.82
   4  0.544  0.751  0.750-  34 2.02  46 2.03  39 2.19  53 2.20  11 2.80  20 2.84
   5  0.199  0.750  1.000-  43 2.00  41 2.03  29 2.11  33 2.14   8 2.78  22 2.82
   6  0.519  0.250  0.775-  54 1.97  31 2.03  28 2.15  51 2.22  23 2.80  11 2.82
   7  0.547  0.750  0.251-  30 2.03  50 2.03  37 2.12  55 2.13  19 2.77  12 2.81
   8  0.999  0.997  0.998-  32 1.84  35 1.84  34 1.86  33 1.86  42 1.90  43 1.92  13 2.76  13 2.77
                             5 2.78  10 2.81   1 2.81  11 2.82  12 2.84   9 2.85
   9  0.251  0.998  0.250-  55 1.83  26 1.83  38 1.85  43 1.86  32 1.97  49 2.02  12 2.76  12 2.77
                            13 2.82  14 2.82  15 2.83   8 2.85
  10  0.248  0.000  0.751-  27 1.83  42 1.84  54 1.84  39 1.85  33 2.02  48 2.03  11 2.75  11 2.78
                             8 2.81  14 2.83  15 2.83  13 2.84
  11  0.751  0.998  0.748-  54 1.84  27 1.84  42 1.85  39 1.88  34 1.93  51 1.94  10 2.75  10 2.78
                             4 2.80  15 2.81  14 2.81   8 2.82   6 2.82  13 2.85
  12  0.751  1.000  0.251-  55 1.85  26 1.86  38 1.86  43 1.87  35 1.94  50 1.94   9 2.76   9 2.77
                             7 2.81  14 2.82  15 2.82  13 2.82   8 2.84
  13  0.500  0.004  0.003-  33 1.84  34 1.85  35 1.85  32 1.85  54 2.00  55 2.04   8 2.76   8 2.77
                             9 2.82  12 2.82  10 2.84  11 2.85
  14  1.000  0.001  0.500-  50 1.85  51 1.85  48 1.85  49 1.86  27 1.94  26 1.97  15 2.76  15 2.77
                            11 2.81  12 2.82   3 2.82   9 2.82  10 2.83
  15  0.501  0.998  0.500-  50 1.84  51 1.84  48 1.84  49 1.84  38 1.91  39 1.94  14 2.76  14 2.77
                            11 2.81  12 2.82  10 2.83   9 2.83
  16  1.000  0.502  0.502-  44 1.84  47 1.85  46 1.86  45 1.87  25 1.90  24 1.91  21 2.76  21 2.77
                             3 2.80  20 2.82  17 2.82  19 2.83  18 2.84
  17  0.249  0.500  0.750-  41 1.83  36 1.83  24 1.85  53 1.85  28 1.97  45 2.01  20 2.76  20 2.77
                            16 2.82  22 2.82  23 2.83  21 2.84
  18  0.251  0.502  0.250-  37 1.83  40 1.83  52 1.84  25 1.86  44 2.03  29 2.03  19 2.76  19 2.77
                            23 2.82  22 2.82  21 2.82  16 2.84
  19  0.751  0.504  0.251-  40 1.84  37 1.85  52 1.85  25 1.87  30 1.94  47 1.94  18 2.76  18 2.77
                             7 2.77  21 2.81  22 2.82   1 2.82  23 2.83  16 2.83
  20  0.751  0.498  0.750-  41 1.85  36 1.85  24 1.86  53 1.87  31 1.93  46 1.94  17 2.76  17 2.77
                            23 2.82  16 2.82  22 2.82   4 2.84  21 2.84
  21  0.501  0.497  0.498-  46 1.84  45 1.84  47 1.85  44 1.86  36 2.03  37 2.03  16 2.76  16 2.77
                            19 2.81  18 2.82  17 2.84  20 2.84
  22  0.000  0.498  1.000-  28 1.85  31 1.85  29 1.86  30 1.86  40 1.95  41 1.95  23 2.76  23 2.77
                             5 2.82  19 2.82  18 2.82  20 2.82  17 2.82
  23  0.501  0.502  0.000-  29 1.84  28 1.84  31 1.84  30 1.85  52 1.90  53 1.95  22 2.76  22 2.77
                             6 2.80  20 2.82  18 2.82  17 2.83  19 2.83
  24  0.004  0.402  0.634-  17 1.85  20 1.86  16 1.91   2 2.15
  25  0.004  0.599  0.368-  18 1.86  19 1.87  16 1.90   3 2.01
  26  0.004  0.099  0.359-   9 1.83  12 1.86  14 1.97   2 2.18
  27  0.004  0.902  0.637-  10 1.83  11 1.84  14 1.94   3 2.02
  28  0.255  0.401  0.890-  23 1.84  22 1.85  17 1.97   6 2.15
  29  0.250  0.604  0.106-  23 1.84  22 1.86  18 2.03   5 2.11
  30  0.751  0.600  0.112-  23 1.85  22 1.86  19 1.94   7 2.03
  31  0.748  0.402  0.888-  23 1.84  22 1.85  20 1.93   6 2.03
  32  0.243  0.099  0.112-   8 1.84  13 1.85   9 1.97   1 2.14
  33  0.258  0.897  0.893-  13 1.84   8 1.86  10 2.02   5 2.14
  34  0.743  0.902  0.887-  13 1.85   8 1.86  11 1.93   4 2.02
  35  0.755  0.098  0.114-   8 1.84  13 1.85  12 1.94   1 2.03
  36  0.497  0.397  0.643-  17 1.83  20 1.85  21 2.03   2 2.17
  37  0.496  0.604  0.358-  18 1.83  19 1.85  21 2.03   7 2.12
  38  0.498  0.096  0.366-   9 1.85  12 1.86  15 1.91   2 2.18
  39  0.495  0.899  0.636-  10 1.85  11 1.88  15 1.94   4 2.19
  40  0.001  0.404  0.142-  18 1.83  19 1.84  22 1.95   1 1.99
  41  0.000  0.596  0.862-  17 1.83  20 1.85  22 1.95   5 2.03
  42  0.998  0.094  0.864-  10 1.84  11 1.85   8 1.90
  43  0.001  0.901  0.134-   9 1.86  12 1.87   8 1.92   5 2.00
  44  0.245  0.397  0.392-  16 1.84  21 1.86  18 2.03   2 2.12
  45  0.257  0.602  0.608-  21 1.84  16 1.87  17 2.01   3 2.15
  46  0.744  0.597  0.614-  21 1.84  16 1.86  20 1.94   4 2.03
  47  0.755  0.403  0.386-  21 1.85  16 1.85  19 1.94   1 2.21
  48  0.253  0.103  0.607-  15 1.84  14 1.85  10 2.03   2 2.11
  49  0.252  0.896  0.393-  15 1.84  14 1.86   9 2.02   3 2.12
  50  0.751  0.901  0.388-  15 1.84  14 1.85  12 1.94   7 2.03
  51  0.747  0.098  0.613-  15 1.84  14 1.85  11 1.94   6 2.22
  52  0.503  0.407  0.136-  18 1.84  19 1.85  23 1.90
  53  0.498  0.601  0.863-  17 1.85  20 1.87  23 1.95   4 2.20
  54  0.501  0.099  0.856-  11 1.84  10 1.84   6 1.97  13 2.00
  55  0.500  0.897  0.144-   9 1.83  12 1.85  13 2.04   7 2.13

  LATTYP: Found a triclinic cell.
 ALAT       =    11.6354232634
 B/A-ratio  =     0.8469205221
 C/A-ratio  =     0.4752578231
 COS(alpha) =     0.0012518661
 COS(beta)  =     0.0024840996
 COS(gamma) =     0.5515452891

  Lattice vectors:

 A1 = (   6.3094126098,   0.0145228068,   9.7762045870)
 A2 = (   9.8536706242,   0.0062548504,   0.1092963633)
 A3 = (   0.0033465749,   5.5298216913,   0.0059745221)

Analysis of symmetry for initial positions (statically):
 Subroutine PRICEL returns:
 Original cell was already a primitive cell.

 Routine SETGRP: Setting up the symmetry group for a
 triclinic supercell.

 Subroutine GETGRP returns: Found  1 space group operations
 (whereof  1 operations were pure point group operations)
 out of a pool of  2 trial point group operations.

The static configuration has the point symmetry C_1 .

Analysis of symmetry for dynamics (positions and initial velocities):
 Subroutine PRICEL returns:
 Original cell was already a primitive cell.

[...]

The dynamic configuration has the point symmetry C_1 .

Analysis of structural, dynamic, and magnetic symmetry:
 Subroutine PRICEL returns:
 Original cell was already a primitive cell.

 Routine SETGRP: Setting up the symmetry group for a
 triclinic supercell.

 Subroutine GETGRP returns: Found  1 space group operations
 (whereof  1 operations were pure point group operations)
 out of a pool of  2 trial point group operations.

The magnetic configuration has the point symmetry C_1 .

 Subroutine INISYM returns: Found  1 space group operations
 (whereof  1 operations are pure point group operations),
 and found     1 'primitive' translations

 KPOINTS: Automatic mesh

Automatic generation of k-mesh.
Space group operators:
 irot       det(A)        alpha          n_x          n_y          n_z        tau_x        tau_y        tau_z
    1     1.000000     0.000001     1.000000     0.000000     0.000000     0.000000     0.000000     0.000000

 Subroutine IBZKPT returns following result:

 Found      1 irreducible k-points:

 Following reciprocal coordinates:
            Coordinates               Weight
  0.000000  0.000000  0.000000      1.000000

 Following cartesian coordinates:
            Coordinates               Weight
  0.000000  0.000000  0.000000      1.000000

 SYSTEM =  unknown system
 POSCAR =  ce7853_1

 Startparameter for this run:
   NWRITE =      1    write-flag & timer
   PREC   = accura    normal or accurate (medium, high low for compatibility)
   ISTART =      0    job   : 0-new  1-cont  2-samecut
   ICHARG =      2    charge: 1-file 2-atom 10-const
   ISPIN  =      2    spin polarized calculation?
   LNONCOLLINEAR =      F non collinear calculations
   LSORBIT =      F    spin-orbit coupling
   INIWAV =      1    electr: 0-lowe 1-rand  2-diag
   LASPH  =      F    aspherical Exc in radial PAW
   METAGGA=      F    non-selfconsistent MetaGGA calc.

 Electronic Relaxation 1
   ENCUT  =  500.0 eV  36.75 Ry    6.06 a.u.  10.08 18.77 17.97*2*pi/ulx,y,z
   ENINI  =  500.0     initial cutoff
   ENAUG  =  628.9 eV  augmentation charge cutoff
   NELM   =     80;   NELMIN=  2; NELMDL= -5     # of ELM steps
   EDIFF  = 0.1E-04   stopping-criterion for ELM
   LREAL  =      T    real-space projection
   NLSPLINE    = F    spline interpolate recip. space projectors
   LCOMPAT=      F    compatible to vasp.4.4
   GGA_COMPAT  = T    GGA compatible to vasp.4.4-vasp.4.6
[...]
   0.123E+02 -.897E+00 -.125E+02   -.127E+02 0.859E+00 0.127E+02   0.406E+00 0.341E-01 -.161E+00   0.183E-01 0.187E-02 -.722E-02
   -.329E+02 0.214E+02 -.503E+02   0.334E+02 -.216E+02 0.509E+02   -.452E+00 0.190E+00 -.592E+00   -.281E-01 0.576E-03 0.388E-02
   -.125E+02 -.241E+02 -.140E+02   0.128E+02 0.245E+02 0.144E+02   -.263E+00 -.371E+00 -.371E+00   -.336E-01 0.144E-02 0.379E-02
   0.158E+02 -.152E-01 -.384E+02   -.161E+02 0.845E-01 0.387E+02   0.268E+00 -.710E-01 -.281E+00   0.233E-01 0.123E-02 -.151E-01
   -.725E+01 -.110E+02 -.937E+02   0.682E+01 0.109E+02 0.947E+02   0.408E+00 0.213E-01 -.100E+01   0.307E-01 0.159E-01 0.132E-01
   0.248E+01 0.267E+02 -.386E+02   -.229E+01 -.269E+02 0.388E+02   -.130E+00 0.226E+00 -.133E+00   -.514E-01 -.200E-01 -.225E-01
   -.107E+02 -.261E+02 -.974E+01   0.108E+02 0.262E+02 0.989E+01   -.390E-01 -.128E+00 -.122E+00   -.533E-01 0.265E-01 -.196E-01
   -.142E+02 0.273E+02 -.104E+02   0.142E+02 -.276E+02 0.104E+02   -.313E-01 0.252E+00 -.222E-01   -.117E-01 -.163E-01 0.326E-02
   0.382E+01 0.221E+02 0.774E+01   -.371E+01 -.223E+02 -.804E+01   -.131E+00 0.164E+00 0.290E+00   0.125E-01 0.135E-02 0.741E-02
   0.163E+02 -.200E+01 0.540E+02   -.164E+02 0.204E+01 -.544E+02   0.130E+00 -.370E-01 0.424E+00   0.425E-02 0.270E-02 0.153E-02
   -.352E+01 0.121E-01 0.195E+02   0.365E+01 0.432E-01 -.198E+02   -.137E+00 -.455E-01 0.247E+00   0.413E-02 -.720E-02 0.531E-02
   -.335E+00 -.245E+02 0.327E+02   0.216E+00 0.248E+02 -.331E+02   0.101E+00 -.325E+00 0.379E+00   0.111E-01 -.745E-02 0.109E-01
   0.250E+02 -.244E+02 0.606E+02   -.251E+02 0.245E+02 -.608E+02   0.112E+00 -.141E+00 0.210E+00   -.125E-01 0.114E-01 -.143E-02
   -.192E+02 0.135E+02 0.742E+02   0.194E+02 -.136E+02 -.751E+02   -.286E+00 0.729E-01 0.954E+00   0.287E-01 -.162E-01 0.134E-01
   -.108E+02 -.131E+02 0.288E+02   0.112E+02 0.131E+02 -.292E+02   -.411E+00 0.191E-01 0.419E+00   0.298E-01 0.129E-01 0.790E-02
   -.129E+02 0.281E+02 0.372E+03   0.130E+02 -.300E+02 -.394E+03   -.680E-01 0.188E+01 0.215E+02   -.707E-02 -.135E-01 -.125E-01
   0.145E+02 0.269E+02 -.348E+03   -.155E+02 -.289E+02 0.368E+03   0.102E+01 0.199E+01 -.197E+02   -.181E-01 -.118E-01 0.402E-02
   -.138E+02 0.290E+02 -.365E+03   0.163E+02 -.308E+02 0.384E+03   -.251E+01 0.181E+01 -.194E+02   0.724E-02 -.193E-01 -.279E-01
   -.115E+02 0.249E+02 0.347E+03   0.112E+02 -.266E+02 -.368E+03   0.279E+00 0.179E+01 0.204E+02   -.327E-01 -.206E-01 -.377E-02
   -.144E+02 0.304E+02 0.394E+03   0.131E+02 -.323E+02 -.415E+03   0.128E+01 0.193E+01 0.214E+02   0.136E-01 0.883E-02 0.970E-03
   -.345E+02 0.259E+02 -.337E+03   0.394E+02 -.277E+02 0.355E+03   -.492E+01 0.178E+01 -.183E+02   0.475E-02 0.529E-02 0.656E-02
   0.782E+01 -.321E+02 -.345E+03   -.872E+01 0.349E+02 0.366E+03   0.870E+00 -.284E+01 -.202E+02   0.111E-01 -.506E-02 0.337E-02
   -.155E+02 -.352E+02 0.383E+03   0.159E+02 0.375E+02 -.404E+03   -.368E+00 -.237E+01 0.211E+02   0.516E-02 -.630E-02 0.643E-02
   0.114E+02 -.319E+02 -.392E+03   -.101E+02 0.338E+02 0.413E+03   -.133E+01 -.196E+01 -.211E+02   0.218E-01 0.145E-02 0.198E-02
   0.322E+02 0.114E+02 0.335E+03   -.366E+02 -.118E+02 -.353E+03   0.445E+01 0.332E+00 0.178E+02   0.235E-01 -.965E-03 -.859E-02
   -.761E+01 -.205E+02 0.345E+03   0.843E+01 0.219E+02 -.364E+03   -.816E+00 -.138E+01 0.197E+02   0.122E-01 -.466E-03 -.224E-02
   0.117E+02 0.350E+02 -.381E+03   -.117E+02 -.373E+02 0.402E+03   -.145E-01 0.232E+01 -.206E+02   0.338E-01 -.352E-02 -.718E-02
   0.280E+02 -.280E+02 0.364E+03   -.318E+02 0.297E+02 -.382E+03   0.380E+01 -.169E+01 0.186E+02   -.163E-01 0.168E-01 -.724E-02
   -.355E+02 -.174E+02 -.331E+03   0.408E+02 0.183E+02 0.350E+03   -.528E+01 -.957E+00 -.185E+02   -.802E-02 0.145E-01 -.229E-02
   0.259E+02 -.267E+02 -.383E+03   -.263E+02 0.283E+02 0.404E+03   0.392E+00 -.159E+01 -.213E+02   0.124E-01 0.177E-01 -.308E-01
   0.348E+01 -.207E+02 0.347E+03   -.576E+01 0.217E+02 -.366E+03   0.232E+01 -.107E+01 0.187E+02   -.366E-01 0.193E-01 -.180E-02
   0.430E+02 -.306E+01 0.381E+03   -.475E+02 0.329E+01 -.402E+03   0.448E+01 -.213E+00 0.205E+02   0.678E-02 -.104E-01 0.794E-02
   0.394E+01 0.295E+02 -.349E+03   -.351E+01 -.318E+02 0.370E+03   -.449E+00 0.237E+01 -.202E+02   0.607E-02 -.151E-01 0.987E-02
   -.902E+01 0.113E+00 -.404E+03   0.991E+01 -.370E+00 0.430E+03   -.888E+00 0.269E+00 -.257E+02   0.732E-02 -.184E-01 0.973E-02
   -.868E+01 0.269E+02 0.351E+03   0.971E+01 -.290E+02 -.371E+03   -.104E+01 0.210E+01 0.194E+02   0.320E-01 -.199E-01 0.135E-01
   0.483E+02 -.277E+02 0.370E+03   -.531E+02 0.290E+02 -.388E+03   0.486E+01 -.133E+01 0.182E+02   -.101E-01 0.143E-01 -.485E-02
   -.316E+02 0.150E+02 -.349E+03   0.358E+02 -.158E+02 0.367E+03   -.417E+01 0.782E+00 -.180E+02   -.196E-01 0.114E-01 0.300E-02
   0.775E+00 -.202E+02 -.351E+03   -.963E+00 0.217E+02 0.371E+03   0.185E+00 -.154E+01 -.200E+02   -.999E-02 -.948E-02 -.210E-02
   0.100E+02 0.266E+02 0.382E+03   -.104E+02 -.279E+02 -.404E+03   0.381E+00 0.129E+01 0.218E+02   -.162E-01 -.124E-01 0.145E-02
   -.458E+02 0.270E+02 -.371E+03   0.505E+02 -.283E+02 0.390E+03   -.475E+01 0.130E+01 -.183E+02   -.367E-01 0.382E-02 -.211E-01
   0.335E+02 0.251E+02 0.350E+03   -.380E+02 -.267E+02 -.368E+03   0.453E+01 0.160E+01 0.181E+02   0.194E-02 0.269E-02 0.220E-01
   -.407E+00 -.336E+02 0.352E+03   0.589E+00 0.363E+02 -.372E+03   -.163E+00 -.276E+01 0.204E+02   -.812E-02 -.579E-02 0.305E-01
   -.705E+01 -.275E+02 -.383E+03   0.712E+01 0.290E+02 0.405E+03   -.405E-01 -.150E+01 -.221E+02   -.276E-01 -.552E-02 -.287E-01
   -.403E+01 0.432E+00 0.415E+03   0.343E+01 -.339E+00 -.440E+03   0.592E+00 -.100E+00 0.255E+02   0.223E-02 0.117E-01 0.127E-01
   -.122E+02 -.207E+02 -.352E+03   0.148E+02 0.219E+02 0.371E+03   -.262E+01 -.123E+01 -.188E+02   0.831E-02 0.175E-01 0.505E-02
   -.568E+02 0.430E+01 -.382E+03   0.627E+02 -.462E+01 0.401E+03   -.591E+01 0.293E+00 -.197E+02   0.762E-02 0.173E-01 0.961E-02
   0.445E+02 -.212E+02 0.336E+03   -.501E+02 0.227E+02 -.355E+03   0.558E+01 -.148E+01 0.189E+02   0.308E-01 0.196E-01 0.161E-01
   0.407E+00 0.253E+00 0.457E-01   0.995E-13 -.167E-12 0.171E-12   -.391E+00 -.267E+00 -.531E-01   -.752E-03 0.935E-02 0.138E-01

 POSITION                                       TOTAL-FORCE (eV/Angst)
      1.30635      5.44007      2.47776        -0.015264     -0.002865     -0.004163
      4.04455      1.39342      2.50231        -0.003955      0.000283     -0.001344
      2.29207      1.14336      7.36300         0.000935     -0.021027     -0.001723
      4.75638      3.04468      7.39696         0.008134      0.022144     -0.003980
      7.20635      1.09330      7.41937        -0.003312     -0.040202     -0.001267
      6.76165      2.88826      2.54869         0.013319      0.007312      0.002602
     -0.16630      3.06114      7.34005        -0.002607      0.026357      0.006355
      6.33455      5.55532      9.84237         0.008066     -0.001268     -0.000495
     -1.03670      1.40644      9.73877         0.009396     -0.001898      0.003523
      7.39721      1.37910      0.10767         0.007583     -0.001645     -0.007048
      3.87549      4.18044      9.81002         0.007190     -0.001010     -0.005270
     -1.03393      4.17439      9.76538         0.009299     -0.000412      0.007121
      0.02152      2.76425      0.03820         0.008345     -0.003505     -0.004979
      4.93594      5.53377      0.09558         0.009603     -0.002851      0.004724
      1.42961      2.79493      9.77833         0.010980     -0.003412      0.003226
      3.17059      5.54800      4.95870        -0.008095      0.002525     -0.002745
      5.62238      1.39706      4.96435        -0.008758      0.002824     -0.000116
      0.69072      1.40298      4.91446        -0.010368      0.002617      0.001887
      0.69876      4.16699      4.94331        -0.009573      0.002679     -0.000073
      5.62868      4.17195      4.94920        -0.007925      0.003697     -0.002560
      3.14900      2.78971      4.90724        -0.008669      0.002480      0.000267
      8.08637      0.02058      4.97782        -0.008834      0.002810     -0.000832
     -1.76522      2.78416      4.89040        -0.010562      0.001419      0.002516
      4.82632      0.03950      3.99874        -0.000907      0.004483     -0.001769
      1.50403      0.03629      5.86862        -0.012414     -0.001676     -0.000553
      3.18513      0.02385      1.01722         0.000566     -0.005356      0.002404
      3.12075      0.04609      8.85808         0.013098     -0.001003     -0.001131
      7.35832      1.42815      4.02608        -0.001049      0.007155      0.003489
     -1.09455      1.39375      5.88904        -0.014173     -0.001673      0.000748
     -1.00924      4.16695      5.85213        -0.013126     -0.000663      0.002059
      7.33641      4.15564      4.04099         0.000785      0.003021      0.001570
      0.74866      1.34230      0.97369        -0.000852     -0.004728     -0.002028
      5.65955      1.44985      8.84326         0.016825     -0.000501     -0.001620
      5.57691      4.13889      8.90106         0.015599      0.002034     -0.001614
      0.77695      4.17213      0.97003        -0.000471     -0.003920     -0.001133
      4.93983      2.76867      3.95286        -0.003392      0.006155     -0.001074
      1.39195      2.75891      5.92333        -0.012886      0.001468     -0.000446
      3.27758      2.75172      0.98928         0.002967     -0.004050      0.001394
      3.11870      2.76595      8.83228         0.013876      0.002296     -0.000343
     -0.01994      0.01602      3.95016        -0.000742      0.004195      0.004839
      6.37260      0.01919      5.90855        -0.015180     -0.002008     -0.002810
      8.18486      5.53090      1.04253         0.001556     -0.005444     -0.004633
     -1.83415      0.02430      8.78207         0.016383     -0.002229      0.004517
      2.46475      1.37174      3.92139        -0.002711      0.005500      0.001915
      3.85944      1.43775      5.93535        -0.013452     -0.000726     -0.004822
      3.93528      4.13284      5.88535        -0.014025      0.000168     -0.004931
      2.38103      4.19482      3.98189        -0.003659      0.004900      0.001442
      5.61685      1.40080      1.08632         0.002779     -0.003936     -0.002070
      0.73782      1.41274      8.77386         0.012750     -0.000089      0.004773
      0.66759      4.17688      8.83046         0.011466     -0.000360      0.005698
      5.70131      4.13576      1.04227         0.003296     -0.006314     -0.002389
     -0.09739      2.79340      3.99257        -0.001329      0.005108      0.006477
      6.37024      2.77706      5.95552        -0.015932      0.002348     -0.003129
      8.08773      2.77666      1.07827         0.004339     -0.003675     -0.004986
     -1.72095      2.78662      8.75569         0.015084      0.002468      0.004528
    total drift:                                0.015657     -0.005118      0.006471

  FREE ENERGIE OF THE ION-ELECTRON SYSTEM (eV)
  free  energy   TOTEN  =      -340.3739691632 eV

  energy  without entropy=     -340.3739188048  energy(sigma->0) =     -340.37394398

 d Force =-0.1999237E-03[-0.190E-03,-0.210E-03]  d Energy =-0.2210116E-03 0.211E-04
 d Force = 0.4595581E+00[ 0.460E+00, 0.460E+00]  d Ewald  = 0.5216255E+00-0.621E-01

 Quasi-Newton relaxation of ions (Broydens 2nd method)
  g(Force)  = 0.464E-03   g(Stress)= 0.297E-04

 retain information from N=  3 steps
 eigenvalues of (default step * inverse Hessian matrix)
  average eigenvalue of G=   3.8229
 eigenvalue spectrum of G is  0.1422  5.6633  5.6633

volume of typ            1:    10.3 %

[...]

volume of typ            3:     9.8 %

total charge

# of ion       s       p       d       tot
    1        2.064   0.202   0.075   2.341
    2        2.064   0.198   0.073   2.334
    3        2.071   0.217   0.082   2.369
    4        2.064   0.197   0.074   2.334
    5        2.070   0.217   0.081   2.368
    6        2.066   0.207   0.076   2.349
    7        2.068   0.211   0.078   2.357
    8        0.295   0.416   7.840   8.552
    9        0.287   0.396   7.862   8.544
   10        0.283   0.389   7.860   8.532
   11        0.290   0.405   7.848   8.544
   12        0.284   0.393   7.843   8.520
   13        0.279   0.381   7.847   8.508
   14        0.282   0.390   7.845   8.517
   15        0.297   0.422   7.845   8.564
   16        0.294   0.415   7.842   8.552
   17        0.288   0.398   7.862   8.548
   18        0.283   0.387   7.859   8.529
   19        0.289   0.403   7.848   8.541
   20        0.285   0.395   7.843   8.523
   21        0.279   0.381   7.856   8.516
   22        0.282   0.391   7.838   8.511
   23        0.298   0.423   7.843   8.564
   24        1.271   2.759   0.008   4.038
   25        1.267   2.773   0.007   4.048
   26        1.267   2.770   0.007   4.044
   27        1.268   2.772   0.008   4.048
   28        1.274   2.753   0.007   4.034
   29        1.268   2.768   0.007   4.043
   30        1.269   2.767   0.007   4.043
   31        1.271   2.764   0.007   4.042
   32        1.272   2.755   0.007   4.034
   33        1.266   2.770   0.007   4.043
   34        1.268   2.769   0.007   4.045
   35        1.270   2.764   0.007   4.041
   36        1.267   2.767   0.007   4.041
   37        1.266   2.774   0.007   4.046
   38        1.272   2.756   0.007   4.036
   39        1.265   2.774   0.007   4.046
   40        1.269   2.770   0.008   4.047
   41        1.269   2.769   0.008   4.046
   42        1.281   2.734   0.008   4.023
   43        1.268   2.770   0.007   4.046
   44        1.267   2.767   0.007   4.041
   45        1.266   2.771   0.007   4.044
   46        1.268   2.770   0.007   4.046
   47        1.273   2.754   0.008   4.034
   48        1.268   2.766   0.007   4.041
   49        1.267   2.770   0.007   4.044
   50        1.269   2.767   0.007   4.044
   51        1.273   2.754   0.008   4.034
   52        1.281   2.732   0.008   4.021
   53        1.267   2.770   0.007   4.044
   54        1.270   2.767   0.007   4.044
   55        1.267   2.770   0.007   4.044
tot          59.69   96.29  126.35  282.33

magnetization (x)

# of ion       s       p       d       tot
    1        0.003   0.004  -0.000   0.006
    2        0.000  -0.000  -0.000  -0.000
    3        0.000  -0.000  -0.000  -0.000
    4       -0.004   0.001  -0.000  -0.003
    5        0.000  -0.001  -0.000  -0.001
    6        0.003   0.006   0.000   0.010
    7        0.004   0.006   0.000   0.010
    8       -0.000  -0.000  -0.094  -0.095
    9       -0.002  -0.000  -0.450  -0.452
   10        0.004  -0.000   0.486   0.490
   11       -0.000  -0.000  -0.167  -0.167
   12        0.000  -0.000   0.149   0.149
   13        0.002  -0.000   0.432   0.435
   14        0.000  -0.000   0.205   0.205
   15       -0.000  -0.000  -0.151  -0.151
   16       -0.000   0.000  -0.112  -0.112
   17        0.001  -0.000   0.426   0.427
   18       -0.004  -0.000  -0.512  -0.516
   19        0.000  -0.000   0.158   0.158
   20       -0.000  -0.000  -0.155  -0.156
   21        0.003   0.000   0.433   0.436
   22        0.000   0.000   0.199   0.200
   23       -0.000   0.000  -0.128  -0.128
   24       -0.001  -0.005  -0.000  -0.006
   25       -0.001  -0.019  -0.000  -0.020
   26        0.001   0.008   0.000   0.009
   27        0.002   0.029   0.000   0.031
   28        0.005   0.063   0.000   0.068
   29       -0.005  -0.053  -0.000  -0.059
   30        0.001   0.015   0.000   0.017
   31       -0.001  -0.017  -0.000  -0.018
   32       -0.004  -0.057  -0.000  -0.061
   33        0.005   0.061   0.000   0.067
   34       -0.001  -0.004  -0.000  -0.004
   35        0.002   0.021   0.000   0.023
   36        0.005   0.049   0.000   0.054
   37        0.004   0.040   0.000   0.044
   38       -0.003  -0.030  -0.000  -0.033
   39       -0.001  -0.006  -0.000  -0.007
   40        0.001   0.006   0.000   0.007
   41        0.003   0.028   0.000   0.031
   42       -0.001  -0.007  -0.000  -0.008
   43       -0.002  -0.020  -0.000  -0.022
   44       -0.005  -0.050  -0.000  -0.055
   45        0.004   0.045   0.000   0.049
   46       -0.001  -0.007  -0.000  -0.008
   47        0.002   0.023   0.000   0.025
   48        0.005   0.054   0.000   0.059
   49       -0.004  -0.038  -0.000  -0.043
   50        0.001   0.015   0.000   0.016
   51       -0.002  -0.019  -0.000  -0.020
   52       -0.002  -0.024  -0.000  -0.026
   53       -0.001  -0.003  -0.000  -0.004
   54        0.005   0.049   0.000   0.054
   55        0.004   0.039   0.000   0.043
tot           0.03    0.20    0.72    0.94