 vasp.5.4.4.18Apr17-6-g9f103f2a35 (build May 12 2020 05:39:39) gamma-only

 MD_VERSION_INFO: Compiled 2020-05-12T12:39:39-UTC in devlin.sd.materialsdesign.
 com:/home/medea2/data/build/wwolf/vasp-gpu5.4.4/13047/x86_64/src/src/build/gam
 from svn 13047

 executed on                        Lin64 date 2023.03.07  06:04:46

 INCAR:
 POTCAR:    PAW_PBE Li_sv 10Sep2004
 POTCAR:    PAW_PBE Ni 02Aug2007
 POTCAR:    PAW_PBE O 08Apr2002

 POTCAR:    PAW_PBE Li_sv 10Sep2004

 POTCAR:    PAW_PBE Ni 02Aug2007

 POTCAR:    PAW_PBE O 08Apr2002

 Optimization of the real space projectors (new method)

 maximal supplied QI-value         = 22.11
 optimisation between [QCUT,QGAM] = [ 11.28, 22.77] = [ 35.61,145.23] Ry
 Optimized for a Real-space Cutoff    1.10 Angstroem

   l    n(q)    QCUT    max X(q) W(low)/X(q) W(high)/X(q)  e(spline)
   0      7    11.276    10.506    0.54E-04    0.58E-04    0.16E-07
   0      7    11.276     8.367    0.11E-03    0.14E-03    0.35E-07
   1      7    11.276     8.983    0.23E-03    0.43E-03    0.86E-07
 Optimization of the real space projectors (new method)

[...]

   l    n(q)    QCUT    max X(q) W(low)/X(q) W(high)/X(q)  e(spline)
   2      9    11.376    60.317    0.17E-03    0.16E-04    0.16E-06
   2      9    11.376    55.921    0.17E-03    0.16E-04    0.17E-06
   0     10    11.376    51.690    0.45E-04    0.60E-04    0.21E-06
   0     10    11.376    30.015    0.37E-04    0.55E-04    0.19E-06
   1     10    11.376    18.849    0.83E-04    0.11E-03    0.92E-07
   1     10    11.376    14.624    0.69E-04    0.92E-04    0.82E-07
 Optimization of the real space projectors (new method)

 maximal supplied QI-value         = 24.76
 optimisation between [QCUT,QGAM] = [ 11.39, 22.77] = [ 36.31,145.25] Ry
 Optimized for a Real-space Cutoff    1.10 Angstroem

   l    n(q)    QCUT    max X(q) W(low)/X(q) W(high)/X(q)  e(spline)
   0      7    11.387    20.381    0.22E-03    0.48E-03    0.18E-06
   0      7    11.387    15.268    0.22E-03    0.52E-03    0.19E-06
   1      7    11.387     5.964    0.22E-03    0.73E-03    0.24E-06
   1      7    11.387     5.382    0.19E-03    0.60E-03    0.21E-06

  PAW_PBE Li_sv 10Sep2004               :
  PAW_PBE Ni 02Aug2007                  :
  PAW_PBE O 08Apr2002                   :

 POSCAR: ce6797_1
  positions in direct lattice
 exchange correlation table for  LEXCH =       14
   RHO(1)=    0.500       N(1)  =     2000
   RHO(2)=  100.500       N(2)  =     4000

 ion  position               nearest neighbor table
   1  0.974  0.251  0.233-  42 2.00  37 2.01  49 2.12  34 2.15  28 2.23  21 2.76  10 2.83
   2  0.251  0.250  0.501-  50 2.10  46 2.11  26 2.12  38 2.12  28 2.13  40 2.14  19 2.83
   3  0.200  0.751  0.500-  29 2.01  27 2.02  51 2.13  47 2.13  18 2.78  16 2.78
   4  0.752  0.249  0.502-  38 2.10  53 2.11  28 2.11  26 2.12  40 2.13  49 2.17
   5  0.542  0.750  0.750-  48 2.02  36 2.03  55 2.15  41 2.15  22 2.82  13 2.82
   6  0.252  0.250  0.999-  30 2.08  34 2.09  56 2.11  42 2.15  54 2.16  44 2.16
   7  0.203  0.750  1.000-  45 2.03  43 2.04  31 2.12  35 2.14  10 2.78  24 2.81
   8  0.528  0.250  0.766-  56 1.99  33 2.01  53 2.12  30 2.17  38 2.19  13 2.76  25 2.82
   9  0.546  0.750  0.251-  52 2.03  32 2.03  39 2.11  57 2.14  21 2.79  14 2.81
  10  0.998  0.999  0.999-  37 1.84  34 1.84  36 1.85  35 1.87  44 1.94  45 1.95  15 2.75  15 2.78
                             7 2.78  13 2.82   1 2.83  12 2.83  14 2.85  11 2.87
  11  0.250  0.005  0.253-  57 1.84  45 1.85  40 1.86  28 1.86  34 2.04  51 2.04  14 2.76  14 2.77
                            17 2.83  16 2.84  15 2.84  10 2.87
  12  0.248  0.001  0.752-  44 1.83  29 1.83  41 1.84  56 1.85  35 2.03  50 2.04  13 2.75  13 2.78
                            10 2.83  16 2.84  15 2.85  17 2.86
  13  0.750  0.003  0.752-  44 1.85  41 1.86  29 1.86  56 1.87  36 1.96  53 2.01  12 2.75   8 2.76
                            12 2.78  10 2.82   5 2.82  17 2.85  15 2.86  16 2.86
  14  0.750  0.002  0.251-  45 1.86  57 1.86  40 1.86  28 1.88  52 1.95  37 1.95  11 2.76  11 2.77
                             9 2.81  15 2.83  16 2.84  17 2.84  10 2.85
  15  0.500  0.005  0.003-  35 1.84  36 1.84  37 1.84  34 1.87  56 2.03  57 2.04  10 2.75  10 2.78
                            14 2.83  11 2.84  12 2.85  13 2.86
  16  0.001  0.002  0.501-  52 1.85  50 1.85  51 1.86  53 1.87  29 1.96  28 2.03  17 2.76  17 2.77
                             3 2.78  11 2.84  14 2.84  12 2.84  13 2.86
  17  0.501  0.999  0.500-  51 1.84  50 1.84  52 1.85  53 1.85  40 1.97  41 2.00  16 2.76  16 2.77
                            11 2.83  14 2.84  13 2.85  12 2.86
  18  1.000  0.502  0.502-  46 1.84  48 1.85  49 1.86  47 1.86  27 1.95  26 1.97  23 2.76  23 2.77
                             3 2.78  19 2.82  22 2.83  21 2.86  20 2.87
  19  0.250  0.494  0.746-  43 1.84  55 1.84  26 1.85  38 1.87  47 2.05  30 2.05  22 2.76  22 2.77
                            18 2.82   2 2.83  23 2.85  24 2.86  25 2.87
  20  0.251  0.500  0.249-  39 1.84  54 1.84  27 1.84  42 1.84  31 2.03  46 2.04  21 2.76  21 2.77
                            23 2.82  25 2.84  24 2.84  18 2.87
  21  0.750  0.498  0.249-  54 1.85  27 1.85  39 1.86  42 1.87  32 1.94  49 1.99   1 2.76  20 2.76
                            20 2.77   9 2.79  25 2.82  23 2.83  24 2.85  18 2.86
  22  0.751  0.497  0.749-  43 1.85  55 1.86  26 1.86  38 1.87  48 1.94  33 1.94  19 2.76  19 2.77
                             5 2.82  18 2.83  24 2.84  25 2.85  23 2.87
  23  0.500  0.498  0.497-  47 1.83  48 1.84  46 1.85  49 1.86  39 2.03  38 2.08  18 2.76  18 2.77
                            20 2.82  21 2.83  19 2.85  22 2.87
  24  0.001  0.497  0.998-  33 1.84  31 1.86  32 1.86  30 1.87  43 1.97  42 2.00  25 2.76  25 2.77
                             7 2.81  22 2.84  20 2.84  21 2.85  19 2.86
  25  0.502  0.500  0.001-  31 1.84  32 1.84  30 1.84  33 1.84  54 1.97  55 2.02  24 2.76  24 2.77
                             8 2.82  21 2.82  20 2.84  22 2.85  19 2.87
  26  1.000  0.395  0.633-  19 1.85  22 1.86  18 1.97   4 2.12   2 2.12
  27  0.001  0.598  0.362-  20 1.84  21 1.85  18 1.95   3 2.02
  28  0.999  0.110  0.363-  11 1.86  14 1.88  16 2.03   4 2.11   2 2.13   1 2.23
  29  0.001  0.903  0.639-  12 1.83  13 1.86  16 1.96   3 2.01
  30  0.257  0.393  0.893-  25 1.84  24 1.87  19 2.05   6 2.08   8 2.17
  31  0.251  0.603  0.106-  25 1.84  24 1.86  20 2.03   7 2.12
  32  0.752  0.598  0.114-  25 1.84  24 1.86  21 1.94   9 2.03
  33  0.749  0.400  0.887-  25 1.84  24 1.84  22 1.94   8 2.01
  34  0.241  0.107  0.109-  10 1.84  15 1.87  11 2.04   6 2.09   1 2.15
  35  0.257  0.898  0.894-  15 1.84  10 1.87  12 2.03   7 2.14
  36  0.744  0.903  0.889-  15 1.84  10 1.85  13 1.96   5 2.03
  37  0.753  0.101  0.114-  15 1.84  10 1.84  14 1.95   1 2.01
  38  0.503  0.388  0.638-  19 1.87  22 1.87  23 2.08   4 2.10   2 2.12   8 2.19
  39  0.499  0.604  0.356-  20 1.84  21 1.86  23 2.03   9 2.11
  40  0.502  0.104  0.366-  14 1.86  11 1.86  17 1.97   4 2.13   2 2.14
  41  0.499  0.900  0.643-  12 1.84  13 1.86  17 2.00   5 2.15
  42  0.005  0.396  0.139-  20 1.84  21 1.87   1 2.00  24 2.00   6 2.15
  43  0.004  0.596  0.859-  19 1.84  22 1.85  24 1.97   7 2.04
  44  0.002  0.100  0.865-  12 1.83  13 1.85  10 1.94   6 2.16
  45  0.004  0.905  0.139-  11 1.85  14 1.86  10 1.95   7 2.03
  46  0.244  0.395  0.392-  18 1.84  23 1.85  20 2.04   2 2.11
  47  0.257  0.603  0.607-  23 1.83  18 1.86  19 2.05   3 2.13
  48  0.744  0.596  0.613-  23 1.84  18 1.85  22 1.94   5 2.02
  49  0.755  0.397  0.388-  18 1.86  23 1.86  21 1.99   1 2.12   4 2.17
  50  0.253  0.105  0.608-  17 1.84  16 1.85  12 2.04   2 2.10
  51  0.252  0.897  0.392-  17 1.84  16 1.86  11 2.04   3 2.13
  52  0.752  0.902  0.387-  17 1.85  16 1.85  14 1.95   9 2.03
  53  0.747  0.105  0.611-  17 1.85  16 1.87  13 2.01   4 2.11   8 2.12
  54  0.498  0.399  0.138-  20 1.84  21 1.85  25 1.97   6 2.16
  55  0.496  0.599  0.856-  19 1.84  22 1.86  25 2.02   5 2.15
  56  0.496  0.107  0.860-  12 1.85  13 1.87   8 1.99  15 2.03   6 2.11
  57  0.496  0.899  0.145-  11 1.84  14 1.86  15 2.04   9 2.14

  LATTYP: Found a triclinic cell.
 ALAT       =    15.0698665570
 B/A-ratio  =     0.3668471492
 C/A-ratio  =     0.7685346953
 COS(alpha) =     0.0017723143
 COS(beta)  =     0.3998809867
 COS(gamma) =     0.7366215105

  Lattice vectors:

 A1 = (   3.5776202916, -11.0786567897,  -9.5689536957)
 A2 = (   0.0066107494,  -5.5283239809,  -0.0103300761)
 A3 = (  -6.3786785631,  -0.0100908287,  -9.6668757789)

Analysis of symmetry for initial positions (statically):
 Subroutine PRICEL returns:
 Original cell was already a primitive cell.

 Routine SETGRP: Setting up the symmetry group for a
 triclinic supercell.

 Subroutine GETGRP returns: Found  1 space group operations
 (whereof  1 operations were pure point group operations)
 out of a pool of  2 trial point group operations.

The static configuration has the point symmetry C_1 .

Analysis of symmetry for dynamics (positions and initial velocities):
 Subroutine PRICEL returns:
 Original cell was already a primitive cell.

[...]

The dynamic configuration has the point symmetry C_1 .

Analysis of structural, dynamic, and magnetic symmetry:
 Subroutine PRICEL returns:
 Original cell was already a primitive cell.

 Routine SETGRP: Setting up the symmetry group for a
 triclinic supercell.

 Subroutine GETGRP returns: Found  1 space group operations
 (whereof  1 operations were pure point group operations)
 out of a pool of  2 trial point group operations.

The magnetic configuration has the point symmetry C_1 .

 Subroutine INISYM returns: Found  1 space group operations
 (whereof  1 operations are pure point group operations),
 and found     1 'primitive' translations

 KPOINTS: Automatic mesh

Automatic generation of k-mesh.
Space group operators:
 irot       det(A)        alpha          n_x          n_y          n_z        tau_x        tau_y        tau_z
    1     1.000000     0.000001     1.000000     0.000000     0.000000     0.000000     0.000000     0.000000

 Subroutine IBZKPT returns following result:

 Found      1 irreducible k-points:

 Following reciprocal coordinates:
            Coordinates               Weight
  0.000000  0.000000  0.000000      1.000000

 Following cartesian coordinates:
            Coordinates               Weight
  0.000000  0.000000  0.000000      1.000000

 SYSTEM =  unknown system
 POSCAR =  ce6797_1

 Startparameter for this run:
   NWRITE =      1    write-flag & timer
   PREC   = accura    normal or accurate (medium, high low for compatibility)
   ISTART =      0    job   : 0-new  1-cont  2-samecut
   ICHARG =      2    charge: 1-file 2-atom 10-const
   ISPIN  =      2    spin polarized calculation?
   LNONCOLLINEAR =      F non collinear calculations
   LSORBIT =      F    spin-orbit coupling
   INIWAV =      1    electr: 0-lowe 1-rand  2-diag
   LASPH  =      F    aspherical Exc in radial PAW
   METAGGA=      F    non-selfconsistent MetaGGA calc.

 Electronic Relaxation 1
   ENCUT  =  500.0 eV  36.75 Ry    6.06 a.u.  10.08 18.58 18.13*2*pi/ulx,y,z
   ENINI  =  500.0     initial cutoff
   ENAUG  =  628.9 eV  augmentation charge cutoff
[...]
   -.391E+01 -.236E+02 0.311E+02   0.405E+01 0.239E+02 -.313E+02   -.159E+00 -.312E+00 0.248E+00   0.234E-01 0.131E-01 0.780E-02
   0.323E+02 -.186E+01 0.716E+02   -.326E+02 0.186E+01 -.721E+02   0.410E+00 -.963E-02 0.573E+00   -.121E-01 0.110E-01 -.202E-02
   -.182E+02 -.219E+02 0.926E+01   0.182E+02 0.221E+02 -.912E+01   0.869E-02 -.176E+00 -.134E+00   0.278E-01 0.111E-01 0.109E-02
   -.129E+02 0.146E+02 0.651E+02   0.137E+02 -.148E+02 -.659E+02   -.770E+00 0.140E+00 0.793E+00   -.187E-01 -.126E-01 0.774E-03
   -.282E+02 -.135E+02 0.991E+02   0.287E+02 0.135E+02 -.998E+02   -.468E+00 -.372E-01 0.686E+00   -.188E-01 0.865E-02 -.144E-02
   -.222E+01 0.146E+02 -.115E+03   0.194E+01 -.147E+02 0.116E+03   0.275E+00 0.129E+00 -.810E+00   -.608E-03 -.137E-01 -.105E-01
   -.703E+01 0.215E+02 -.412E+02   0.732E+01 -.217E+02 0.416E+02   -.314E+00 0.211E+00 -.438E+00   0.231E-01 0.758E-03 0.630E-02
   0.778E+01 0.117E+01 -.469E+02   -.780E+01 -.112E+01 0.472E+02   0.455E-01 -.542E-01 -.237E+00   -.340E-01 0.604E-02 -.981E-02
   0.242E+01 -.174E+01 -.278E+02   -.271E+01 0.173E+01 0.281E+02   0.323E+00 0.223E-01 -.291E+00   -.350E-01 -.366E-02 -.110E-01
   -.255E+02 -.244E+02 -.761E+02   0.258E+02 0.248E+02 0.766E+02   -.329E+00 -.354E+00 -.513E+00   0.247E-01 0.389E-02 0.300E-02
   0.356E+02 -.120E+02 -.470E+02   -.363E+02 0.120E+02 0.478E+02   0.643E+00 0.111E-01 -.765E+00   -.323E-02 0.158E-01 -.705E-02
   -.103E+02 0.254E+02 -.261E+02   0.102E+02 -.257E+02 0.260E+02   0.751E-01 0.315E+00 0.732E-01   -.982E-02 -.162E-01 0.353E-02
   0.197E+01 -.242E+02 -.633E+02   -.155E+01 0.243E+02 0.634E+02   -.429E+00 -.131E+00 -.607E-01   -.574E-02 0.179E-01 0.530E-02
   -.253E+02 -.196E+01 0.293E+03   0.251E+02 0.194E+01 -.310E+03   0.181E+00 0.453E-01 0.172E+02   0.125E-01 -.186E-01 -.302E-02
   0.117E+02 0.285E+02 -.371E+03   -.119E+02 -.309E+02 0.391E+03   0.191E+00 0.238E+01 -.198E+02   -.103E-01 -.185E-01 0.934E-02
   -.308E+01 -.145E+01 -.278E+03   0.528E+01 0.144E+01 0.292E+03   -.220E+01 0.257E-01 -.139E+02   -.547E-02 -.132E-01 -.113E-01
   -.932E+01 0.275E+02 0.367E+03   0.866E+01 -.300E+02 -.387E+03   0.692E+00 0.254E+01 0.195E+02   -.144E-01 -.100E-01 -.993E-02
   0.199E+02 0.290E+02 0.314E+03   -.244E+02 -.310E+02 -.331E+03   0.447E+01 0.204E+01 0.168E+02   0.197E-01 -.849E-02 0.125E-01
   -.306E+02 0.225E+02 -.364E+03   0.358E+02 -.239E+02 0.382E+03   -.519E+01 0.141E+01 -.180E+02   -.214E-01 -.687E-02 -.268E-02
   0.608E+01 -.294E+02 -.367E+03   -.563E+01 0.322E+02 0.387E+03   -.458E+00 -.280E+01 -.195E+02   -.115E-01 0.736E-02 -.116E-01
   -.183E+02 -.331E+02 0.322E+03   0.182E+02 0.354E+02 -.342E+03   0.391E-01 -.240E+01 0.202E+02   0.886E-02 0.862E-02 0.215E-01
   -.229E+02 -.301E+02 -.313E+03   0.276E+02 0.321E+02 0.330E+03   -.464E+01 -.199E+01 -.165E+02   -.443E-02 -.938E-02 -.462E-02
   0.287E+02 0.151E+02 0.365E+03   -.334E+02 -.158E+02 -.383E+03   0.470E+01 0.700E+00 0.177E+02   0.248E-01 -.757E-02 -.496E-02
   -.511E+01 -.231E+02 0.370E+03   0.502E+01 0.245E+02 -.389E+03   0.926E-01 -.136E+01 0.198E+02   0.209E-01 0.882E-02 -.657E-03
   0.157E+02 0.323E+02 -.322E+03   -.157E+02 -.345E+02 0.342E+03   -.872E-01 0.215E+01 -.200E+02   0.537E-02 0.948E-02 -.106E-01
   0.984E+01 0.237E+01 0.278E+03   -.127E+02 -.249E+01 -.292E+03   0.285E+01 0.110E+00 0.132E+02   0.488E-02 0.167E-01 0.346E-02
   -.316E+02 -.195E+02 -.357E+03   0.368E+02 0.209E+02 0.375E+03   -.523E+01 -.143E+01 -.182E+02   -.284E-02 0.181E-01 0.522E-02
   0.309E+02 0.247E+01 -.302E+03   -.307E+02 -.250E+01 0.319E+03   -.152E+00 0.100E-01 -.173E+02   -.195E-01 0.148E-01 -.793E-03
   0.190E+02 -.213E+02 0.365E+03   -.233E+02 0.227E+02 -.383E+03   0.434E+01 -.139E+01 0.183E+02   -.902E-03 0.997E-02 -.204E-01
   0.349E+02 0.255E+02 0.306E+03   -.388E+02 -.274E+02 -.322E+03   0.399E+01 0.196E+01 0.162E+02   -.241E-01 -.193E-01 -.256E-02
   0.755E+00 0.260E+02 -.373E+03   -.228E+00 -.279E+02 0.393E+03   -.568E+00 0.187E+01 -.193E+02   0.272E-01 -.182E-01 -.238E-02
   0.218E+01 0.273E+02 -.331E+03   -.150E+01 -.292E+02 0.353E+03   -.703E+00 0.188E+01 -.220E+02   0.247E-01 -.105E-01 0.148E-01
   -.260E+01 0.224E+02 0.377E+03   0.266E+01 -.238E+02 -.397E+03   -.324E-01 0.148E+01 0.199E+02   -.902E-02 -.137E-01 0.240E-02
   0.521E+02 -.279E+02 0.308E+03   -.575E+02 0.294E+02 -.325E+03   0.541E+01 -.153E+01 0.175E+02   0.336E-02 0.572E-02 -.150E-01
   -.366E+02 0.180E+02 -.372E+03   0.420E+02 -.191E+02 0.390E+03   -.536E+01 0.105E+01 -.180E+02   0.372E-02 0.803E-02 0.899E-02
   0.190E+01 -.224E+02 -.383E+03   -.178E+01 0.241E+02 0.403E+03   -.147E+00 -.168E+01 -.200E+02   0.160E-01 -.718E-02 -.804E-03
   0.459E+02 0.289E+02 0.297E+03   -.492E+02 -.306E+02 -.313E+03   0.330E+01 0.176E+01 0.165E+02   -.845E-02 -.752E-02 -.616E-02
   -.537E+02 0.267E+02 -.308E+03   0.591E+02 -.280E+02 0.325E+03   -.545E+01 0.124E+01 -.172E+02   -.142E-01 -.165E-01 0.121E-01
   0.365E+02 0.217E+02 0.374E+03   -.418E+02 -.232E+02 -.392E+03   0.531E+01 0.157E+01 0.182E+02   -.123E-01 -.154E-01 -.778E-02
   -.218E+01 -.309E+02 0.383E+03   0.210E+01 0.335E+02 -.403E+03   0.115E+00 -.266E+01 0.199E+02   -.223E-01 0.170E-01 -.794E-03
   -.480E+02 -.299E+02 -.295E+03   0.516E+02 0.317E+02 0.311E+03   -.357E+01 -.184E+01 -.159E+02   -.922E-02 0.179E-01 0.872E-02
   -.797E+00 -.268E+02 0.337E+03   -.751E+00 0.286E+02 -.358E+03   0.156E+01 -.185E+01 0.209E+02   -.155E-01 0.193E-01 -.446E-02
   -.298E+02 -.157E+02 -.372E+03   0.341E+02 0.164E+02 0.390E+03   -.435E+01 -.628E+00 -.187E+02   0.193E-01 0.168E-01 0.168E-02
   -.381E+02 -.253E+02 -.309E+03   0.427E+02 0.271E+02 0.325E+03   -.464E+01 -.181E+01 -.158E+02   0.185E-01 0.105E-01 0.207E-01
   0.409E+02 -.178E+02 0.363E+03   -.461E+02 0.188E+02 -.381E+03   0.527E+01 -.922E+00 0.183E+02   -.568E-02 0.139E-01 -.380E-02
   0.383E+00 -.523E-02 -.193E+00   -.213E-12 -.174E-12 0.341E-12   -.368E+00 -.203E-01 0.213E+00   -.399E-02 0.618E-02 -.113E-01

 POSITION                                       TOTAL-FORCE (eV/Angst)
      1.44854      5.38445      2.46337         0.005683     -0.010995     -0.000829
      4.08619      1.39428      2.48486         0.000838      0.002124      0.000957
      2.31373      1.10545      7.27039        -0.007796     -0.030559     -0.002665
      4.08742      4.15655      2.49120        -0.005389     -0.001869      0.001948
      4.79604      3.02746      7.31247        -0.004436      0.020262      0.001113
      9.04892      1.39845      2.56153         0.005323      0.008242      0.002471
      7.28790      1.11456      7.34364         0.004167     -0.033309      0.000611
      6.70138      2.93409      2.52467        -0.003903      0.012298     -0.001047
     -0.15030      3.06605      7.23953         0.003378      0.034955      0.000495
      6.39749      5.54289      9.75511         0.007253     -0.000573      0.004477
      2.50279      1.38073      0.09400         0.007590     -0.001599      0.003980
      7.46438      1.36657      0.13375         0.008632     -0.000056      0.000887
      7.46326      4.14574      0.15493         0.008698     -0.000759      0.001703
      2.48771      4.14497      0.07889         0.007310     -0.002425      0.006258
      0.02018      2.76451      0.04919         0.007922     -0.001637      0.000558
      4.97361     -0.00441      0.09898         0.008340     -0.002212      0.004795
      1.44678      2.79532      9.66965         0.007487     -0.003499      0.002711
      3.19436      5.54222      4.89766        -0.006858      0.002202     -0.006090
      5.66806      1.39480      4.85728        -0.007021      0.004121     -0.002155
      0.70476      1.40248      4.83565        -0.008462      0.000028     -0.002143
      0.70714      4.16266      4.82673        -0.008376      0.001845     -0.004025
      5.67430      4.16804      4.89066        -0.006688      0.001547     -0.004830
      3.17615      2.77956      4.85130        -0.006664      0.001621     -0.002903
      8.16040      0.01293      4.91817        -0.008793      0.001421     -0.002980
     -1.78102      2.79701      4.80439        -0.009951      0.000444     -0.000508
      4.89678      5.54152      3.90783         0.001633      0.004036     -0.003159
      1.47637      0.01980      5.78218        -0.012075     -0.002439     -0.006776
      3.21085      5.51914      1.12808         0.000202     -0.004507      0.003718
      3.17258      0.03199      8.76450         0.010656     -0.001261      0.004291
      7.46889      1.42566      3.91384        -0.003194      0.002925      0.003004
     -1.09643      1.40591      5.79800        -0.018000     -0.003694     -0.004846
     -1.01079      4.17023      5.75800        -0.016077      0.001408     -0.004204
      7.39461      4.15314      3.98372        -0.002741      0.003257      0.001358
      0.69715      1.33581      1.04183         0.001854     -0.002091     -0.000814
      5.72705      1.44302      8.75221         0.017449     -0.002312      0.004905
      5.64504      4.13496      8.80954         0.015864      0.002029      0.002374
      0.77038      4.16141      0.99153         0.001454     -0.003878      0.000346
      4.97719      2.79437      3.81996         0.001390      0.005437     -0.003060
      1.40164      2.77149      5.84136        -0.015438      0.002289     -0.006879
      3.26504      2.77185      1.06691         0.001556     -0.003753      0.002895
      3.21662      2.78412      8.74476         0.016170      0.002743      0.005519
     -0.01750      0.04102      3.82123        -0.005900      0.001907      0.000522
      6.43431      0.03726      5.83417        -0.013577     -0.001778     -0.005810
      8.23818      0.00433      1.08596         0.003004     -0.003189     -0.000458
     -1.79658      0.05075      8.70429         0.014888     -0.002934      0.008766
      2.49890      1.36709      3.85316        -0.000673      0.004862     -0.002182
      3.89559      1.42972      5.86558        -0.012923     -0.001330     -0.010345
      3.96871      4.12805      5.81928        -0.010532      0.001522     -0.009459
      2.46113      4.18925      3.86517        -0.000402      0.002555     -0.003770
      5.66046      1.39351      1.10170         0.002299     -0.004823     -0.000998
      0.74886      1.41462      8.67373         0.013772     -0.004661      0.009894
      0.66811      4.18131      8.73502         0.012315      0.000598      0.009468
      5.69522      4.12110      1.10412         0.001955     -0.003844      0.000809
     -0.04893      2.77097      3.87314        -0.006658      0.003275      0.000900
      6.36372      2.75731      5.88289        -0.017709      0.005046     -0.007835
      8.16730      2.73368      1.15862         0.004582     -0.001457     -0.000881
     -1.71992      2.77143      8.66462         0.016572      0.002445      0.009919
    total drift:                                0.011505     -0.019349      0.009294

  FREE ENERGIE OF THE ION-ELECTRON SYSTEM (eV)
  free  energy   TOTEN  =      -350.1106181887 eV

  energy  without entropy=     -350.1018708393  energy(sigma->0) =     -350.10624451

 d Force = 0.2443040E-03[ 0.236E-03, 0.253E-03]  d Energy = 0.2522722E-03-0.797E-05
 d Force =-0.7564882E+00[-0.757E+00,-0.756E+00]  d Ewald  =-0.1586405E+01 0.830E+00

 Quasi-Newton relaxation of ions (Broydens 2nd method)
  g(Force)  = 0.505E-03   g(Stress)= 0.119E-03

 retain information from N=  1 steps
 eigenvalues of (default step * inverse Hessian matrix)
  average eigenvalue of G=   0.1697
 eigenvalue spectrum of G is  0.1697

volume of typ            1:    13.2 %

[...]

volume of typ            3:     9.8 %

total charge

# of ion       s       p       d       tot
    1        2.075   0.235   0.087   2.397
    2        2.076   0.237   0.088   2.402
    3        2.066   0.215   0.079   2.360
    4        2.076   0.238   0.088   2.401
    5        2.068   0.208   0.078   2.354
    6        2.072   0.225   0.084   2.381
    7        2.067   0.213   0.078   2.358
    8        2.077   0.240   0.090   2.407
    9        2.067   0.214   0.078   2.359
   10        0.289   0.404   7.850   8.543
   11        0.276   0.373   7.860   8.508
   12        0.283   0.387   7.860   8.531
   13        0.279   0.382   7.847   8.508
   14        0.283   0.390   7.847   8.520
   15        0.278   0.379   7.855   8.511
   16        0.278   0.380   7.856   8.515
   17        0.288   0.400   7.865   8.553
   18        0.286   0.398   7.860   8.544
   19        0.276   0.374   7.859   8.509
   20        0.283   0.386   7.861   8.530
   21        0.279   0.382   7.847   8.508
   22        0.283   0.391   7.847   8.520
   23        0.276   0.374   7.864   8.515
   24        0.279   0.384   7.845   8.507
   25        0.288   0.399   7.861   8.548
   26        1.261   2.786   0.007   4.053
   27        1.267   2.770   0.007   4.045
   28        1.257   2.795   0.006   4.058
   29        1.268   2.767   0.007   4.043
   30        1.264   2.777   0.007   4.048
   31        1.266   2.769   0.007   4.042
   32        1.269   2.764   0.007   4.041
   33        1.268   2.771   0.007   4.046
   34        1.264   2.777   0.007   4.048
   35        1.266   2.770   0.007   4.042
   36        1.269   2.766   0.007   4.042
   37        1.268   2.769   0.007   4.045
   38        1.257   2.796   0.006   4.058
   39        1.265   2.771   0.007   4.043
   40        1.261   2.782   0.007   4.050
   41        1.266   2.770   0.007   4.043
   42        1.261   2.787   0.007   4.055
   43        1.269   2.763   0.007   4.040
   44        1.270   2.762   0.008   4.039
   45        1.269   2.765   0.007   4.041
   46        1.265   2.774   0.007   4.045
   47        1.266   2.769   0.007   4.042
   48        1.267   2.771   0.007   4.045
   49        1.262   2.783   0.007   4.051
   50        1.266   2.773   0.007   4.045
   51        1.266   2.769   0.007   4.042
   52        1.268   2.769   0.007   4.044
   53        1.263   2.782   0.007   4.052
   54        1.271   2.759   0.007   4.037
   55        1.266   2.769   0.007   4.042
   56        1.262   2.786   0.006   4.054
   57        1.268   2.764   0.007   4.039
tot          63.64   96.95  126.66  287.25

magnetization (x)

# of ion       s       p       d       tot
    1        0.004   0.007  -0.000   0.011
    2        0.005   0.008   0.000   0.014
    3        0.005   0.008   0.000   0.013
    4        0.004   0.007  -0.000   0.011
    5       -0.000   0.000   0.000   0.000
    6        0.005   0.009   0.000   0.014
    7        0.005   0.008   0.001   0.014
    8        0.005   0.010   0.000   0.014
    9        0.004   0.009   0.000   0.013
   10       -0.001   0.000  -0.190  -0.191
   11        0.003  -0.000   0.547   0.550
   12        0.004  -0.000   0.545   0.549
   13        0.001  -0.000   0.316   0.316
   14        0.000  -0.001   0.258   0.257
   15        0.002   0.000   0.460   0.462
   16        0.000   0.000   0.315   0.315
   17       -0.002   0.000  -0.367  -0.369
   18       -0.000  -0.000   0.249   0.249
   19        0.002  -0.000   0.524   0.526
   20        0.004   0.000   0.531   0.535
   21        0.000  -0.000   0.310   0.311
   22       -0.000  -0.000   0.237   0.236
   23        0.003   0.000   0.522   0.525
   24       -0.000  -0.000   0.308   0.308
   25        0.001   0.000   0.355   0.356
   26        0.004   0.024   0.000   0.028
   27        0.004   0.029   0.000   0.034
   28        0.006   0.028   0.000   0.034
   29        0.006   0.062   0.000   0.068
   30        0.007   0.064   0.000   0.071
   31        0.007   0.064   0.000   0.071
   32        0.005   0.046   0.000   0.051
   33        0.004   0.019   0.000   0.023
   34        0.005   0.056   0.000   0.062
   35        0.005   0.061   0.000   0.067
   36        0.004   0.043   0.000   0.047
   37        0.002   0.018   0.000   0.020
   38        0.008   0.061   0.000   0.069
   39        0.007   0.075   0.000   0.082
   40       -0.001  -0.039  -0.000  -0.040
   41       -0.002  -0.027  -0.000  -0.029
   42        0.006   0.031   0.000   0.036
   43        0.006   0.052   0.000   0.059
   44        0.000  -0.015  -0.000  -0.015
   45        0.000  -0.006  -0.000  -0.006
   46        0.007   0.060   0.000   0.067
   47        0.007   0.066   0.000   0.072
   48        0.003   0.024   0.000   0.027
   49        0.005   0.022   0.000   0.027
   50        0.005   0.051   0.000   0.056
   51        0.006   0.058   0.000   0.064
   52        0.002   0.014   0.000   0.016
   53        0.003   0.014   0.000   0.017
   54        0.005   0.054   0.000   0.060
   55        0.005   0.033   0.000   0.039
   56        0.008   0.063   0.000   0.071
   57        0.007   0.061   0.000   0.069
tot           0.20    1.23    4.93    6.36