 vasp.5.4.4.18Apr17-6-g9f103f2a35 (build May 12 2020 05:39:39) gamma-only

 MD_VERSION_INFO: Compiled 2020-05-12T12:39:39-UTC in devlin.sd.materialsdesign.
 com:/home/medea2/data/build/wwolf/vasp-gpu5.4.4/13047/x86_64/src/src/build/gam
 from svn 13047

 executed on                        Lin64 date 2023.03.07  06:05:46

 INCAR:
 POTCAR:    PAW_PBE Li_sv 10Sep2004
 POTCAR:    PAW_PBE Ni 02Aug2007
 POTCAR:    PAW_PBE O 08Apr2002

 POTCAR:    PAW_PBE Li_sv 10Sep2004

 POTCAR:    PAW_PBE Ni 02Aug2007

 POTCAR:    PAW_PBE O 08Apr2002

 Optimization of the real space projectors (new method)

 maximal supplied QI-value         = 22.11
 optimisation between [QCUT,QGAM] = [ 11.28, 22.77] = [ 35.61,145.23] Ry
 Optimized for a Real-space Cutoff    1.10 Angstroem

   l    n(q)    QCUT    max X(q) W(low)/X(q) W(high)/X(q)  e(spline)
   0      7    11.276    10.506    0.54E-04    0.58E-04    0.16E-07
   0      7    11.276     8.367    0.11E-03    0.14E-03    0.35E-07
   1      7    11.276     8.983    0.23E-03    0.43E-03    0.86E-07
 Optimization of the real space projectors (new method)

[...]

   l    n(q)    QCUT    max X(q) W(low)/X(q) W(high)/X(q)  e(spline)
   2      9    11.376    60.317    0.17E-03    0.16E-04    0.16E-06
   2      9    11.376    55.921    0.17E-03    0.16E-04    0.17E-06
   0     10    11.376    51.690    0.45E-04    0.60E-04    0.21E-06
   0     10    11.376    30.015    0.37E-04    0.55E-04    0.19E-06
   1     10    11.376    18.849    0.83E-04    0.11E-03    0.92E-07
   1     10    11.376    14.624    0.69E-04    0.92E-04    0.82E-07
 Optimization of the real space projectors (new method)

 maximal supplied QI-value         = 24.76
 optimisation between [QCUT,QGAM] = [ 11.39, 22.77] = [ 36.31,145.25] Ry
 Optimized for a Real-space Cutoff    1.10 Angstroem

   l    n(q)    QCUT    max X(q) W(low)/X(q) W(high)/X(q)  e(spline)
   0      7    11.387    20.381    0.22E-03    0.48E-03    0.18E-06
   0      7    11.387    15.268    0.22E-03    0.52E-03    0.19E-06
   1      7    11.387     5.964    0.22E-03    0.73E-03    0.24E-06
   1      7    11.387     5.382    0.19E-03    0.60E-03    0.21E-06

  PAW_PBE Li_sv 10Sep2004               :
  PAW_PBE Ni 02Aug2007                  :
  PAW_PBE O 08Apr2002                   :

 POSCAR: ce320_1
  positions in direct lattice
 exchange correlation table for  LEXCH =       14
   RHO(1)=    0.500       N(1)  =     2000
   RHO(2)=  100.500       N(2)  =     4000

 ion  position               nearest neighbor table
   1  0.982  0.252  0.239-  43 2.02  38 2.06  50 2.12  29 2.12  35 2.17  47 2.25  22 2.80  11 2.82

   2  0.982  0.748  0.761-  44 2.02  37 2.06  49 2.12  30 2.12  36 2.17  48 2.25  23 2.80  11 2.82

[...]

  10  0.519  0.750  0.241-  58 2.02  33 2.06  53 2.12  40 2.14  32 2.16  52 2.25  26 2.81  15 2.82

  11  0.998  0.000  0.000-  37 1.84  38 1.84  35 1.85  36 1.85  45 1.90  46 1.90  16 2.75  16 2.77
                             2 2.82   1 2.82  15 2.85  14 2.85  13 2.87  12 2.87
  12  0.249  0.005  0.252-  58 1.82  29 1.84  46 1.86  41 1.88  35 2.06  52 2.07  15 2.76  15 2.77
                             3 2.82  17 2.85  18 2.86  16 2.87  11 2.87
  13  0.249  0.995  0.748-  57 1.82  30 1.84  45 1.86  42 1.88  36 2.06  51 2.07  14 2.76  14 2.77
                             4 2.82  17 2.85  18 2.86  16 2.87  11 2.87
  14  0.750  0.999  0.750-  57 1.84  30 1.85  45 1.87  42 1.89  37 1.97  54 2.02  13 2.76  13 2.77
                             9 2.82  11 2.85  16 2.85  18 2.87  17 2.87
  15  0.750  0.001  0.250-  58 1.84  29 1.85  46 1.87  41 1.89  38 1.97  53 2.02  12 2.76  12 2.77
                            10 2.82  11 2.85  16 2.85  18 2.87  17 2.87
  16  0.500  0.000  0.000-  37 1.84  38 1.84  35 1.85  36 1.85  57 2.10  58 2.10  11 2.75  11 2.77
                            15 2.85  14 2.85  13 2.87  12 2.87
  17  0.001  0.000  0.500-  51 1.84  52 1.84  53 1.85  54 1.85  29 2.15  30 2.15  18 2.76  18 2.76
                            12 2.85  13 2.85  14 2.87  15 2.87
  18  0.501  0.000  0.500-  51 1.84  52 1.84  53 1.85  54 1.85  41 1.91  42 1.91  17 2.76  17 2.76
                            13 2.86  12 2.86  15 2.87  14 2.87
  19  0.999  0.500  0.500-  47 1.84  48 1.84  49 1.85  50 1.85  27 1.95  28 1.95  24 2.76  24 2.76
                            20 2.87  21 2.87  22 2.87  23 2.87
  20  0.251  0.495  0.748-  44 1.83  56 1.85  39 1.86  27 1.87  31 2.06  48 2.07  23 2.76  23 2.77
                             3 2.83  24 2.86  25 2.86  19 2.87  26 2.87
  21  0.251  0.505  0.252-  43 1.83  55 1.85  40 1.86  28 1.87  32 2.06  47 2.07  22 2.76  22 2.77
                             4 2.83  24 2.86  25 2.86  19 2.87  26 2.87
  22  0.750  0.500  0.249-  43 1.85  55 1.86  40 1.86  28 1.88  33 1.97  50 2.02  21 2.76  21 2.77
                             1 2.80  26 2.85  25 2.86  19 2.87  24 2.87
  23  0.750  0.500  0.751-  44 1.85  56 1.86  39 1.86  27 1.88  34 1.97  49 2.02  20 2.76  20 2.77
                             2 2.80  26 2.85  25 2.86  19 2.87  24 2.87
  24  0.499  0.500  0.500-  47 1.84  48 1.84  49 1.86  50 1.86  39 2.11  40 2.11  19 2.76  19 2.76
                            20 2.86  21 2.86  22 2.87  23 2.87
  25  0.001  0.500  0.000-  33 1.84  34 1.84  31 1.86  32 1.86  43 2.06  44 2.06  26 2.75  26 2.77
                            23 2.86  22 2.86  21 2.86  20 2.86
  26  0.503  0.500  0.000-  33 1.84  34 1.84  31 1.85  32 1.85  55 1.92  56 1.92  25 2.75  25 2.77
                             9 2.81  10 2.81  22 2.85  23 2.85  20 2.87  21 2.87
  27  0.998  0.397  0.631-  20 1.87  23 1.88  19 1.95   6 2.10   3 2.12
  28  0.998  0.603  0.369-  21 1.87  22 1.88  19 1.95   5 2.10   4 2.12
  29  0.997  0.113  0.355-  12 1.84  15 1.85   6 2.11   1 2.12   3 2.13  17 2.15
  30  0.997  0.887  0.645-  13 1.84  14 1.85   5 2.11   2 2.12   4 2.13  17 2.15
  31  0.253  0.393  0.893-  26 1.85  25 1.86  20 2.06   7 2.10   9 2.16
  32  0.253  0.607  0.107-  26 1.85  25 1.86  21 2.06   8 2.10  10 2.16
  33  0.752  0.600  0.113-  25 1.84  26 1.84  22 1.97  10 2.06
  34  0.752  0.400  0.887-  25 1.84  26 1.84  23 1.97   9 2.06
  35  0.249  0.106  0.107-  11 1.85  16 1.85  12 2.06   7 2.10   1 2.17
  36  0.249  0.894  0.893-  11 1.85  16 1.85  13 2.06   8 2.10   2 2.17
  37  0.749  0.900  0.888-  16 1.84  11 1.84  14 1.97   2 2.06
  38  0.749  0.100  0.112-  16 1.84  11 1.84  15 1.97   1 2.06
  39  0.503  0.388  0.641-  20 1.86  23 1.86  24 2.11   6 2.11   3 2.13   9 2.14
  40  0.503  0.612  0.359-  21 1.86  22 1.86  24 2.11   5 2.11   4 2.13  10 2.14
  41  0.502  0.103  0.373-  12 1.88  15 1.89  18 1.91   6 2.09   3 2.11
  42  0.502  0.897  0.627-  13 1.88  14 1.89  18 1.91   5 2.09   4 2.11
  43  0.006  0.397  0.144-  21 1.83  22 1.85   1 2.02  25 2.06   7 2.15
  44  0.006  0.603  0.856-  20 1.83  23 1.85   2 2.02  25 2.06   8 2.15
  45  0.004  0.096  0.868-  13 1.86  14 1.87  11 1.90   7 2.14
  46  0.004  0.904  0.132-  12 1.86  15 1.87  11 1.90   8 2.14
  47  0.249  0.395  0.391-  19 1.84  24 1.84  21 2.07   3 2.12   1 2.25
  48  0.249  0.605  0.609-  19 1.84  24 1.84  20 2.07   4 2.12   2 2.25
  49  0.750  0.603  0.612-  19 1.85  24 1.86  23 2.02   2 2.12   5 2.16
  50  0.750  0.397  0.388-  19 1.85  24 1.86  22 2.02   1 2.12   6 2.16
  51  0.251  0.104  0.609-  17 1.84  18 1.84  13 2.07   3 2.13   9 2.25
  52  0.251  0.896  0.391-  17 1.84  18 1.84  12 2.07   4 2.13  10 2.25
  53  0.751  0.897  0.388-  17 1.85  18 1.85  15 2.02  10 2.12   5 2.16
  54  0.751  0.103  0.612-  17 1.85  18 1.85  14 2.02   9 2.12   6 2.16
  55  0.496  0.404  0.134-  21 1.85  22 1.86  26 1.92   7 2.14
  56  0.496  0.596  0.866-  20 1.85  23 1.86  26 1.92   8 2.14
  57  0.494  0.104  0.853-  13 1.82  14 1.84   9 2.02  16 2.10   7 2.15
  58  0.494  0.896  0.147-  12 1.82  15 1.84  10 2.02  16 2.10   8 2.15

  LATTYP: Found a simple monoclinic cell.
 ALAT       =    11.4632852893
 B/A-ratio  =     0.4818416254
 C/A-ratio  =     1.6753023454
 COS(beta)  =    -0.9015871559

  Lattice vectors:

 A1 = (  -6.3681345917,   0.0000000000,  -9.5317244739)
 A2 = (   0.0000000000,  -5.5234880157,   0.0000000000)
 A3 = (   2.7106863371,   0.0000000000,  19.0122013143)

Analysis of symmetry for initial positions (statically):
 Subroutine PRICEL returns:
 Original cell was already a primitive cell.

 Routine SETGRP: Setting up the symmetry group for a
 simple monoclinic supercell.

 Subroutine GETGRP returns: Found  2 space group operations
 (whereof  2 operations were pure point group operations)
 out of a pool of  4 trial point group operations.

The static configuration has the point symmetry C_2 .

Analysis of symmetry for dynamics (positions and initial velocities):
 Subroutine PRICEL returns:
 Original cell was already a primitive cell.

[...]

The dynamic configuration has the point symmetry C_2 .

Analysis of structural, dynamic, and magnetic symmetry:
 Subroutine PRICEL returns:
 Original cell was already a primitive cell.

 Routine SETGRP: Setting up the symmetry group for a
 simple monoclinic supercell.

 Subroutine GETGRP returns: Found  2 space group operations
 (whereof  2 operations were pure point group operations)
 out of a pool of  4 trial point group operations.

The magnetic configuration has the point symmetry C_2 .

 Subroutine INISYM returns: Found  2 space group operations
 (whereof  2 operations are pure point group operations),
 and found     1 'primitive' translations

 KPOINTS: Automatic mesh

Automatic generation of k-mesh.
Space group operators:
 irot       det(A)        alpha          n_x          n_y          n_z        tau_x        tau_y        tau_z
    1     1.000000     0.000000     1.000000     0.000000     0.000000     0.000000     0.000000     0.000000
    2     1.000000   180.000000     0.000000     1.000000     0.000000     0.000000     0.000000     0.000000

 Subroutine IBZKPT returns following result:

 Found      1 irreducible k-points:

 Following reciprocal coordinates:
            Coordinates               Weight
  0.000000  0.000000  0.000000      1.000000

 Following cartesian coordinates:
            Coordinates               Weight
  0.000000  0.000000  0.000000      1.000000

 SYSTEM =  unknown system
 POSCAR =  ce320_1

 Startparameter for this run:
   NWRITE =      1    write-flag & timer
   PREC   = accura    normal or accurate (medium, high low for compatibility)
   ISTART =      0    job   : 0-new  1-cont  2-samecut
   ICHARG =      2    charge: 1-file 2-atom 10-const
   ISPIN  =      2    spin polarized calculation?
   LNONCOLLINEAR =      F non collinear calculations
   LSORBIT =      F    spin-orbit coupling
   INIWAV =      1    electr: 0-lowe 1-rand  2-diag
   LASPH  =      F    aspherical Exc in radial PAW
   METAGGA=      F    non-selfconsistent MetaGGA calc.

 Electronic Relaxation 1
   ENCUT  =  500.0 eV  36.75 Ry    6.06 a.u.  10.07 18.53 18.28*2*pi/ulx,y,z
   ENINI  =  500.0     initial cutoff
   ENAUG  =  628.9 eV  augmentation charge cutoff
   NELM   =     80;   NELMIN=  2; NELMDL= -5     # of ELM steps
   EDIFF  = 0.1E-04   stopping-criterion for ELM
   LREAL  =      T    real-space projection
   NLSPLINE    = F    spline interpolate recip. space projectors
[...]
   0.308E+02 -.468E+00 0.461E+02   -.314E+02 0.493E+00 -.465E+02   0.576E+00 -.363E-01 0.377E+00   -.376E-02 0.670E-02 0.484E-02
   -.355E-05 -.238E+02 0.829E-06   0.142E-12 0.240E+02 -.298E-12   0.000E+00 -.154E+00 0.134E-28   0.137E-10 0.437E-02 -.150E-11
   0.643E-05 0.414E+01 -.140E-05   0.114E-12 -.396E+01 -.220E-12   0.000E+00 -.177E+00 -.133E-25   -.620E-11 -.116E-01 -.305E-11
   0.382E-05 -.379E+01 -.830E-06   0.568E-13 0.359E+01 -.302E-12   0.000E+00 0.197E+00 -.396E-25   -.123E-10 0.344E-02 -.189E-11
   -.861E-06 0.386E+01 0.187E-06   -.133E-10 -.370E+01 -.305E-13   0.000E+00 -.197E+00 -.355E-25   -.114E-10 0.327E-01 0.765E-12
   -.174E+02 0.118E+01 0.531E+01   0.177E+02 -.117E+01 -.499E+01   -.345E+00 -.158E-01 -.316E+00   -.334E-02 0.783E-02 -.643E-02
   0.174E+02 0.118E+01 -.531E+01   -.177E+02 -.117E+01 0.499E+01   0.345E+00 -.158E-01 0.316E+00   0.334E-02 0.783E-02 0.643E-02
   0.306E+02 0.511E+00 0.461E+02   -.311E+02 -.544E+00 -.465E+02   0.569E+00 0.326E-01 0.369E+00   -.866E-03 0.519E-02 0.958E-02
   -.306E+02 0.511E+00 -.461E+02   0.311E+02 -.544E+00 0.465E+02   -.569E+00 0.326E-01 -.369E+00   0.866E-03 0.519E-02 -.958E-02
   -.371E-05 -.422E+01 0.805E-06   -.131E-10 0.407E+01 0.858E-14   0.000E+00 0.175E+00 0.307E-25   -.963E-11 -.165E-01 0.167E-11
   0.698E-05 0.238E+02 -.164E-05   -.130E-10 -.240E+02 -.142E-13   0.000E+00 0.149E+00 -.137E-25   0.364E-11 0.277E-01 0.216E-12
   0.176E-04 -.288E+02 -.412E-05   -.134E-10 0.289E+02 -.284E-13   0.000E+00 -.990E-01 -.151E-27   0.488E-11 -.158E-01 0.166E-11
   -.403E+02 0.267E+00 0.309E+03   0.412E+02 -.461E+00 -.324E+03   -.880E+00 0.182E+00 0.157E+02   -.399E-02 0.179E-01 -.130E-01
   0.403E+02 0.267E+00 -.309E+03   -.412E+02 -.461E+00 0.324E+03   0.880E+00 0.182E+00 -.157E+02   0.399E-02 0.179E-01 0.130E-01
   -.218E+02 0.806E-01 -.281E+03   0.256E+02 -.279E+00 0.295E+03   -.383E+01 0.203E+00 -.139E+02   0.453E-03 -.814E-02 -.774E-02
   0.218E+02 0.806E-01 0.281E+03   -.256E+02 -.279E+00 -.295E+03   0.383E+01 0.203E+00 0.139E+02   -.453E-03 -.814E-02 0.774E-02
   0.232E+02 0.400E+02 0.326E+03   -.283E+02 -.424E+02 -.343E+03   0.512E+01 0.238E+01 0.171E+02   -.150E-02 -.451E-02 -.747E-03
   -.232E+02 0.400E+02 -.326E+03   0.283E+02 -.424E+02 0.343E+03   -.512E+01 0.238E+01 -.171E+02   0.150E-02 -.451E-02 0.747E-03
   0.123E+02 -.409E+02 -.334E+03   -.112E+02 0.436E+02 0.355E+03   -.109E+01 -.269E+01 -.203E+02   -.142E-01 0.427E-03 0.126E-01
   -.123E+02 -.409E+02 0.334E+03   0.112E+02 0.436E+02 -.355E+03   0.109E+01 -.269E+01 0.203E+02   0.142E-01 0.427E-03 -.126E-01
   -.236E+02 -.399E+02 -.326E+03   0.288E+02 0.423E+02 0.343E+03   -.515E+01 -.237E+01 -.170E+02   -.473E-02 -.510E-02 0.103E-03
   0.236E+02 -.399E+02 0.326E+03   -.288E+02 0.423E+02 -.343E+03   0.515E+01 -.237E+01 0.170E+02   0.473E-02 -.510E-02 -.103E-03
   -.119E+02 0.409E+02 0.334E+03   0.108E+02 -.436E+02 -.354E+03   0.111E+01 0.268E+01 0.203E+02   -.582E-02 0.116E-01 0.112E-01
   0.119E+02 0.409E+02 -.334E+03   -.108E+02 -.436E+02 0.354E+03   -.111E+01 0.268E+01 -.203E+02   0.582E-02 0.116E-01 -.112E-01
   0.219E+02 -.728E-01 0.281E+03   -.258E+02 0.311E+00 -.295E+03   0.384E+01 -.211E+00 0.139E+02   -.105E-01 -.230E-01 -.939E-02
   -.219E+02 -.728E-01 -.281E+03   0.258E+02 0.311E+00 0.295E+03   -.384E+01 -.211E+00 -.139E+02   0.105E-01 -.230E-01 0.939E-02
   0.410E+02 -.325E+00 -.309E+03   -.419E+02 0.493E+00 0.324E+03   0.927E+00 -.184E+00 -.157E+02   -.809E-02 0.126E-01 0.562E-03
   -.410E+02 -.325E+00 0.309E+03   0.419E+02 0.493E+00 -.324E+03   -.927E+00 -.184E+00 0.157E+02   0.809E-02 0.126E-01 -.562E-03
   0.608E+02 0.243E+02 0.321E+03   -.668E+02 -.258E+02 -.337E+03   0.600E+01 0.143E+01 0.165E+02   -.783E-02 0.189E-01 -.149E-01
   -.608E+02 0.243E+02 -.321E+03   0.668E+02 -.258E+02 0.337E+03   -.600E+01 0.143E+01 -.165E+02   0.783E-02 0.189E-01 0.149E-01
   0.794E+01 0.264E+02 -.355E+03   -.830E+01 -.279E+02 0.376E+03   0.349E+00 0.156E+01 -.207E+02   0.465E-02 -.944E-02 -.762E-02
   -.794E+01 0.264E+02 0.355E+03   0.830E+01 -.279E+02 -.376E+03   -.349E+00 0.156E+01 0.207E+02   -.465E-02 -.944E-02 0.762E-02
   0.620E+02 -.372E+02 0.326E+03   -.684E+02 0.389E+02 -.344E+03   0.645E+01 -.170E+01 0.177E+02   0.258E-02 0.167E-02 -.214E-03
   -.620E+02 -.372E+02 -.326E+03   0.684E+02 0.389E+02 0.344E+03   -.645E+01 -.170E+01 -.177E+02   -.258E-02 0.167E-02 0.214E-03
   -.543E+02 0.401E+02 -.322E+03   0.585E+02 -.423E+02 0.339E+03   -.427E+01 0.225E+01 -.171E+02   -.177E-01 -.795E-02 0.112E-01
   0.543E+02 0.401E+02 0.322E+03   -.585E+02 -.423E+02 -.339E+03   0.427E+01 0.225E+01 0.171E+02   0.177E-01 -.795E-02 -.112E-01
   -.624E+02 0.374E+02 -.326E+03   0.689E+02 -.391E+02 0.344E+03   -.647E+01 0.171E+01 -.177E+02   -.336E-02 -.131E-01 0.539E-02
   0.624E+02 0.374E+02 0.326E+03   -.689E+02 -.391E+02 -.344E+03   0.647E+01 0.171E+01 0.177E+02   0.336E-02 -.131E-01 -.539E-02
   0.546E+02 -.403E+02 0.322E+03   -.589E+02 0.426E+02 -.339E+03   0.427E+01 -.226E+01 0.171E+02   -.569E-02 0.170E-01 0.573E-02
   -.546E+02 -.403E+02 -.322E+03   0.589E+02 0.426E+02 0.339E+03   -.427E+01 -.226E+01 -.171E+02   0.569E-02 0.170E-01 -.573E-02
   -.741E+01 -.263E+02 0.355E+03   0.774E+01 0.279E+02 -.376E+03   -.324E+00 -.156E+01 0.207E+02   -.513E-02 -.240E-01 -.147E-01
   0.741E+01 -.263E+02 -.355E+03   -.774E+01 0.279E+02 0.376E+03   0.324E+00 -.156E+01 -.207E+02   0.513E-02 -.240E-01 0.147E-01
   -.604E+02 -.245E+02 -.320E+03   0.664E+02 0.259E+02 0.337E+03   -.594E+01 -.144E+01 -.165E+02   -.118E-02 0.124E-01 -.234E-02
   0.604E+02 -.245E+02 0.320E+03   -.664E+02 0.259E+02 -.337E+03   0.594E+01 -.144E+01 0.165E+02   0.118E-02 0.124E-01 0.234E-02
   0.171E-04 0.509E-01 -.452E-05   0.185E-12 -.284E-12 0.739E-12   0.000E+00 -.598E-01 -.107E-13   -.315E-11 0.398E-02 -.111E-10

 POSITION                                       TOTAL-FORCE (eV/Angst)
      1.47701      5.40245      2.40193         0.000157     -0.020929      0.000447
      4.88240      5.40245      7.16597        -0.000157     -0.020929     -0.000447
      4.09307      1.37969      2.40447         0.001215      0.002292     -0.001272
      2.26634      1.37969      7.16343        -0.001215      0.002292      0.001272
      2.26780      4.14167      7.16302        -0.002340     -0.001503      0.001131
      4.09161      4.14167      2.40488         0.002340     -0.001503     -0.001131
      9.10221      1.38839      2.42739         0.001500     -0.005584     -0.000040
     -2.74280      1.38839      7.14052        -0.001500     -0.005584      0.000040
      6.70462      2.88087      2.40620         0.011061      0.019238     -0.002665
     -0.34521      2.88087      7.16171        -0.011061      0.019238      0.002665
     -0.00000      5.50752     -0.00000         0.000000     -0.003310     -0.000000
      2.50485      1.37266      0.06136        -0.001057     -0.001773     -0.000142
      3.85456      1.37266      9.50654         0.001057     -0.001773      0.000142
      3.86322      4.13651      9.54762         0.002548     -0.004547     -0.000419
      2.49619      4.13651      0.02029        -0.002548     -0.004547      0.000419
     -0.00000      2.75750     -0.00000         0.000000     -0.009082     -0.000000
      5.00846      0.00472      0.02403         0.000000     -0.002115     -0.000000
      5.00846      2.76309      0.02403         0.000000     -0.003910     -0.000000
      3.17971      5.51999      4.78395         0.000000      0.000060     -0.000000
      5.68359      1.39003      4.74733        -0.000404      0.003581     -0.002999
      0.67582      1.39003      4.82057         0.000404      0.003581      0.002999
      0.66700      4.14695      4.77963         0.002092      0.004616      0.003912
      5.69242      4.14695      4.78827        -0.002092      0.004616     -0.003912
      3.17971      2.75763      4.78395         0.000000      0.007018     -0.000000
     -1.82875      0.00597      4.75992         0.000000      0.004057     -0.000000
     -1.82875      2.77663      4.75992         0.000000      0.004498     -0.000000
      4.84167      5.51355      3.80787        -0.006233      0.005548     -0.000655
      1.51774      5.51355      5.76004         0.006233      0.005548      0.000655
      3.14300      5.50162      1.09307         0.001424     -0.003394      0.001427
      3.21641      5.50162      8.47483        -0.001424     -0.003394     -0.001427
      7.50088      1.39411      3.79380         0.002717      0.003225      0.000046
     -1.14147      1.39411      5.77410        -0.002717      0.003225     -0.000046
     -1.05916      4.15648      5.71400        -0.006074      0.004860      0.001902
      7.41857      4.15648      3.85390         0.006074      0.004860     -0.001902
      0.68550      1.36951      1.01521         0.000331     -0.004675     -0.002445
      5.67391      1.36951      8.55269        -0.000331     -0.004675      0.002445
      5.59094      4.12725      8.61341         0.000207     -0.005143     -0.000727
      0.76847      4.12725      0.95449        -0.000207     -0.005143      0.000727
      5.04405      2.78154      3.71562         0.002010      0.004453     -0.002538
      1.31536      2.78154      5.85228        -0.002010      0.004453      0.002538
      3.34983      2.76938      0.99972        -0.004829     -0.003687      0.002882
      3.00958      2.76938      8.56818         0.004829     -0.003687     -0.002882
      0.02506      0.03854      3.78050         0.002069      0.005003      0.003950
      6.33435      0.03854      5.78740        -0.002069      0.005003     -0.003950
      8.34092      0.02139      0.95505        -0.003133     -0.005297     -0.001443
     -1.98151      0.02139      8.61285         0.003133     -0.005297      0.001443
      2.46936      1.37960      3.79138        -0.000747      0.006201      0.003192
      3.89005      1.37960      5.77652         0.000747      0.006201     -0.003192
      3.93067      4.13736      5.76249        -0.001364      0.004902     -0.002298
      2.42874      4.13736      3.80542         0.001364      0.004902      0.002298
      5.71724      1.38265      1.01737         0.003844     -0.004566     -0.004071
      0.64218      1.38265      8.55054        -0.003844     -0.004566      0.004071
      0.60121      4.14584      8.56512        -0.002987     -0.001758      0.001921
      5.75820      4.14584      1.00279         0.002987     -0.001758     -0.001921
     -0.15115      2.74189      3.85160        -0.002500      0.003701      0.004415
      6.51056      2.74189      5.71630         0.002500      0.003701     -0.004415
      8.16123      2.72446      1.02724         0.000977     -0.003372     -0.003452
     -1.80182      2.72446      8.54066        -0.000977     -0.003372      0.003452
    total drift:                                0.000017     -0.004960     -0.000005

  FREE ENERGIE OF THE ION-ELECTRON SYSTEM (eV)
  free  energy   TOTEN  =      -354.9774362471 eV

  energy  without entropy=     -354.9759464802  energy(sigma->0) =     -354.97669136

 d Force = 0.1830325E-03[ 0.178E-03, 0.188E-03]  d Energy = 0.1740130E-03 0.902E-05
 d Force =-0.6389174E+00[-0.639E+00,-0.639E+00]  d Ewald  =-0.1294275E+01 0.655E+00

 Quasi-Newton relaxation of ions (Broydens 2nd method)
  g(Force)  = 0.172E-03   g(Stress)= 0.691E-05

 retain information from N=  1 steps
 eigenvalues of (default step * inverse Hessian matrix)
  average eigenvalue of G=   0.0661
 eigenvalue spectrum of G is  0.0661

volume of typ            1:    14.8 %

[...]

volume of typ            3:     9.9 %

total charge

# of ion       s       p       d       tot
    1        2.079   0.244   0.092   2.415
    2        2.079   0.244   0.092   2.415
    3        2.077   0.234   0.087   2.398
    4        2.077   0.234   0.087   2.398
    5        2.078   0.234   0.088   2.400
    6        2.078   0.234   0.088   2.400
    7        2.073   0.220   0.082   2.375
    8        2.073   0.220   0.082   2.375
    9        2.079   0.244   0.092   2.415
   10        2.079   0.244   0.092   2.415
   11        0.299   0.425   7.848   8.572
   12        0.274   0.367   7.870   8.510
   13        0.274   0.367   7.870   8.510
   14        0.275   0.373   7.854   8.502
   15        0.275   0.373   7.854   8.502
   16        0.272   0.363   7.858   8.493
   17        0.271   0.358   7.882   8.511
   18        0.295   0.419   7.862   8.576
   19        0.295   0.418   7.862   8.575
   20        0.274   0.367   7.869   8.510
   21        0.274   0.367   7.869   8.510
   22        0.275   0.374   7.855   8.504
   23        0.275   0.374   7.855   8.504
   24        0.271   0.358   7.882   8.511
   25        0.272   0.363   7.857   8.493
   26        0.299   0.425   7.848   8.572
   27        1.261   2.786   0.006   4.053
   28        1.261   2.786   0.006   4.053
   29        1.256   2.799   0.006   4.061
   30        1.256   2.799   0.006   4.061
   31        1.265   2.775   0.007   4.046
   32        1.265   2.775   0.007   4.046
   33        1.270   2.762   0.007   4.040
   34        1.270   2.762   0.007   4.040
   35        1.265   2.775   0.007   4.046
   36        1.265   2.775   0.007   4.046
   37        1.270   2.762   0.007   4.040
   38        1.270   2.762   0.007   4.040
   39        1.256   2.799   0.006   4.061
   40        1.256   2.799   0.006   4.061
   41        1.261   2.786   0.006   4.053
   42        1.261   2.786   0.006   4.053
   43        1.263   2.783   0.007   4.053
   44        1.263   2.783   0.007   4.053
   45        1.271   2.758   0.007   4.036
   46        1.271   2.758   0.007   4.036
   47        1.265   2.772   0.007   4.044
   48        1.265   2.772   0.007   4.044
   49        1.262   2.779   0.007   4.049
   50        1.262   2.779   0.007   4.049
   51        1.265   2.772   0.007   4.044
   52        1.265   2.772   0.007   4.044
   53        1.262   2.779   0.007   4.048
   54        1.262   2.779   0.007   4.048
   55        1.270   2.758   0.007   4.036
   56        1.270   2.758   0.007   4.036
   57        1.263   2.783   0.007   4.053
   58        1.263   2.783   0.007   4.053
tot          65.69   97.30  126.90  289.88

magnetization (x)

# of ion       s       p       d       tot
    1       -0.001  -0.001  -0.000  -0.002
    2       -0.001  -0.001  -0.000  -0.002
    3        0.003   0.007   0.000   0.010
    4        0.003   0.007   0.000   0.010
    5        0.002   0.004  -0.000   0.005
    6        0.002   0.004  -0.000   0.005
    7        0.003   0.007   0.000   0.010
    8        0.003   0.007   0.000   0.010
    9       -0.001  -0.001  -0.000  -0.002
   10       -0.001  -0.001  -0.000  -0.002
   11       -0.001   0.000   0.090   0.090
   12        0.003   0.000   0.463   0.466
   13        0.003   0.000   0.463   0.466
   14        0.000   0.000   0.117   0.117
   15        0.000   0.000   0.117   0.117
   16       -0.005  -0.000  -0.583  -0.588
   17        0.006  -0.000   0.538   0.543
   18       -0.000  -0.000   0.219   0.218
   19       -0.000  -0.000   0.230   0.229
   20        0.003   0.000   0.462   0.465
   21        0.003   0.000   0.462   0.465
   22        0.000   0.000   0.126   0.127
   23        0.000   0.000   0.126   0.127
   24        0.006  -0.000   0.539   0.545
   25       -0.005  -0.000  -0.585  -0.590
   26       -0.001   0.000   0.096   0.096
   27        0.004   0.032   0.000   0.037
   28        0.004   0.032   0.000   0.037
   29        0.005   0.083   0.000   0.088
   30        0.005   0.083   0.000   0.088
   31        0.004   0.042   0.000   0.046
   32        0.004   0.042   0.000   0.046
   33        0.000  -0.006   0.000  -0.006
   34        0.000  -0.006   0.000  -0.006
   35        0.004   0.042   0.000   0.046
   36        0.004   0.042   0.000   0.046
   37       -0.000  -0.007   0.000  -0.007
   38       -0.000  -0.007   0.000  -0.007
   39        0.005   0.083   0.000   0.088
   40        0.005   0.083   0.000   0.088
   41        0.004   0.031   0.000   0.035
   42        0.004   0.031   0.000   0.035
   43       -0.005  -0.081  -0.000  -0.087
   44       -0.005  -0.081  -0.000  -0.087
   45        0.003   0.031   0.000   0.033
   46        0.003   0.031   0.000   0.033
   47        0.006   0.056   0.000   0.062
   48        0.006   0.056   0.000   0.062
   49        0.003   0.010   0.000   0.012
   50        0.003   0.010   0.000   0.012
   51        0.006   0.057   0.000   0.063
   52        0.006   0.057   0.000   0.063
   53        0.002   0.009   0.000   0.011
   54        0.002   0.009   0.000   0.011
   55        0.003   0.032   0.000   0.034
   56        0.003   0.032   0.000   0.034
   57       -0.005  -0.081  -0.000  -0.086
   58       -0.005  -0.081  -0.000  -0.086
tot           0.10    0.69    2.88    3.68