 vasp.5.4.4.18Apr17-6-g9f103f2a35 (build May 12 2020 05:39:39) gamma-only

 MD_VERSION_INFO: Compiled 2020-05-12T12:39:39-UTC in devlin.sd.materialsdesign.
 com:/home/medea2/data/build/wwolf/vasp-gpu5.4.4/13047/x86_64/src/src/build/gam
 from svn 13047

 executed on                        Lin64 date 2023.03.07  06:03:25

 INCAR:
 POTCAR:    PAW_PBE Li_sv 10Sep2004
 POTCAR:    PAW_PBE Ni 02Aug2007
 POTCAR:    PAW_PBE O 08Apr2002

 POTCAR:    PAW_PBE Li_sv 10Sep2004

 POTCAR:    PAW_PBE Ni 02Aug2007

 POTCAR:    PAW_PBE O 08Apr2002

 Optimization of the real space projectors (new method)

 maximal supplied QI-value         = 22.11
 optimisation between [QCUT,QGAM] = [ 11.28, 22.77] = [ 35.61,145.23] Ry
 Optimized for a Real-space Cutoff    1.10 Angstroem

   l    n(q)    QCUT    max X(q) W(low)/X(q) W(high)/X(q)  e(spline)
   0      7    11.276    10.506    0.54E-04    0.58E-04    0.16E-07
   0      7    11.276     8.367    0.11E-03    0.14E-03    0.35E-07
   1      7    11.276     8.983    0.23E-03    0.43E-03    0.86E-07
 Optimization of the real space projectors (new method)

[...]

   l    n(q)    QCUT    max X(q) W(low)/X(q) W(high)/X(q)  e(spline)
   2      9    11.376    60.317    0.17E-03    0.16E-04    0.16E-06
   2      9    11.376    55.921    0.17E-03    0.16E-04    0.17E-06
   0     10    11.376    51.690    0.45E-04    0.60E-04    0.21E-06
   0     10    11.376    30.015    0.37E-04    0.55E-04    0.19E-06
   1     10    11.376    18.849    0.83E-04    0.11E-03    0.92E-07
   1     10    11.376    14.624    0.69E-04    0.92E-04    0.82E-07
 Optimization of the real space projectors (new method)

 maximal supplied QI-value         = 24.76
 optimisation between [QCUT,QGAM] = [ 11.39, 22.77] = [ 36.31,145.25] Ry
 Optimized for a Real-space Cutoff    1.10 Angstroem

   l    n(q)    QCUT    max X(q) W(low)/X(q) W(high)/X(q)  e(spline)
   0      7    11.387    20.381    0.22E-03    0.48E-03    0.18E-06
   0      7    11.387    15.268    0.22E-03    0.52E-03    0.19E-06
   1      7    11.387     5.964    0.22E-03    0.73E-03    0.24E-06
   1      7    11.387     5.382    0.19E-03    0.60E-03    0.21E-06

  PAW_PBE Li_sv 10Sep2004               :
  PAW_PBE Ni 02Aug2007                  :
  PAW_PBE O 08Apr2002                   :

 POSCAR: ce669_1
  positions in direct lattice
 exchange correlation table for  LEXCH =       14
   RHO(1)=    0.500       N(1)  =     2000
   RHO(2)=  100.500       N(2)  =     4000

 ion  position               nearest neighbor table
   1  0.992  0.251  0.252-  30 2.07  44 2.09  51 2.09  39 2.12  48 2.15  36 2.16  20 2.80  12 2.84

   2  0.984  0.750  0.760-  45 2.02  38 2.07  31 2.13  50 2.14  37 2.16  49 2.26  24 2.82
   3  0.252  0.251  0.500-  52 2.07  48 2.09  28 2.13  42 2.13  40 2.13  30 2.14  20 2.84  19 2.84

[...]

   5  0.750  0.750  0.499-  29 2.10  41 2.11  31 2.11  43 2.12  54 2.17  50 2.19
   6  0.507  0.251  0.251-  51 2.06  39 2.09  48 2.12  42 2.13  36 2.13  56 2.18  25 2.84
   7  0.993  0.250  0.749-  55 2.06  35 2.09  28 2.11  52 2.12  32 2.13  46 2.17  18 2.84
   8  0.249  0.250  0.000-  36 2.07  32 2.07  56 2.13  46 2.14  44 2.15  58 2.15
   9  0.250  0.750  1.000-  37 2.09  33 2.10  45 2.14  59 2.14  57 2.15  47 2.15
  10  0.509  0.248  0.749-  40 2.06  58 2.08  55 2.09  35 2.12  52 2.14  32 2.17  19 2.80  27 2.84

  11  0.517  0.752  0.239-  59 2.01  34 2.07  41 2.12  54 2.15  33 2.17  53 2.25  16 2.80
  12  0.997  0.005  0.003-  37 1.84  38 1.85  39 1.85  36 1.87  47 1.96  46 2.00  17 2.75  17 2.78
                             1 2.84  16 2.85  15 2.87  13 2.87  14 2.89
  13  0.249  0.001  0.250-  47 1.83  30 1.84  59 1.84  42 1.85  53 2.05  36 2.09  16 2.75  16 2.77
                            18 2.86  12 2.87  17 2.87  19 2.88
  14  0.251  0.994  0.748-  58 1.84  46 1.85  43 1.85  31 1.86  37 2.07  52 2.13  15 2.76  15 2.77
                             4 2.83  17 2.87  19 2.88  18 2.88  12 2.89
  15  0.750  0.998  0.750-  58 1.86  43 1.86  46 1.87  31 1.87  38 1.95  55 1.95  14 2.76  14 2.77
                            17 2.86  12 2.87  19 2.87  18 2.89
  16  0.751  0.000  0.250-  47 1.85  30 1.86  59 1.86  42 1.86  39 1.98  54 2.01  13 2.75  13 2.77
                            11 2.80  12 2.85  18 2.87  19 2.87  17 2.87
  17  0.499  0.000  0.000-  38 1.85  37 1.85  39 1.85  36 1.87  59 2.07  58 2.09  12 2.75  12 2.78
                            15 2.86  13 2.87  14 2.87  16 2.87
  18  0.001  0.003  0.500-  52 1.85  54 1.85  53 1.86  55 1.86  30 2.08  31 2.14  19 2.76  19 2.77
                             7 2.84  13 2.86  16 2.87  14 2.88  15 2.89
  19  0.502  0.006  0.502-  54 1.85  53 1.85  52 1.86  55 1.87  43 2.00  42 2.02  18 2.76  18 2.77
                            10 2.80   3 2.84  16 2.87  15 2.87  14 2.88  13 2.88
  20  0.999  0.493  0.498-  49 1.85  50 1.85  48 1.86  51 1.87  29 2.01  28 2.03  25 2.75  25 2.77
                             1 2.80   3 2.84  24 2.87  22 2.88  23 2.88  21 2.88
  21  0.251  0.499  0.750-  40 1.83  45 1.83  57 1.84  28 1.85  49 2.04  32 2.09  24 2.75  24 2.77
                            27 2.86  25 2.86  26 2.87  20 2.88
  22  0.250  0.506  0.252-  44 1.83  41 1.85  56 1.86  29 1.86  33 2.06  48 2.11  23 2.76  23 2.77
                             4 2.81  26 2.87  20 2.88  27 2.88  25 2.88
  23  0.751  0.502  0.250-  44 1.85  41 1.86  29 1.87  56 1.87  34 1.95  51 1.96  22 2.76  22 2.77
                            26 2.86  27 2.86  20 2.88  25 2.89
  24  0.750  0.500  0.750-  40 1.85  45 1.85  57 1.86  28 1.87  35 1.97  50 2.00  21 2.75  21 2.77
                             2 2.82  27 2.85  25 2.87  26 2.87  20 2.87
  25  0.501  0.497  0.500-  50 1.85  48 1.85  51 1.85  49 1.85  40 2.12  41 2.18  20 2.75  20 2.77
                             6 2.84  21 2.86  24 2.87  22 2.88  23 2.89
  26  1.000  0.499  1.000-  34 1.84  35 1.85  33 1.85  32 1.86  45 2.10  44 2.11  27 2.75  27 2.78
                            23 2.86  24 2.87  22 2.87  21 2.87
  27  0.502  0.495  0.998-  33 1.84  34 1.85  35 1.86  32 1.87  57 1.95  56 1.99  26 2.75  26 2.78
                            10 2.84  24 2.85  23 2.86  21 2.86  22 2.88
  28  0.003  0.393  0.640-  21 1.85  24 1.87  20 2.03   7 2.11   3 2.13
  29  0.999  0.604  0.368-  22 1.86  23 1.87  20 2.01   5 2.10   4 2.11
  30  0.002  0.108  0.357-  13 1.84  16 1.86   1 2.07  18 2.08   3 2.14
  31  0.998  0.887  0.641-  14 1.86  15 1.87   5 2.11   4 2.12   2 2.13  18 2.14
  32  0.247  0.389  0.890-  26 1.86  27 1.87   8 2.07  21 2.09   7 2.13  10 2.17
  33  0.255  0.604  0.105-  27 1.84  26 1.85  22 2.06   9 2.10  11 2.17
  34  0.749  0.597  0.113-  26 1.84  27 1.85  23 1.95  11 2.07
  35  0.755  0.396  0.883-  26 1.85  27 1.86  24 1.97   7 2.09  10 2.12
  36  0.253  0.112  0.110-  17 1.87  12 1.87   8 2.07  13 2.09   6 2.13   1 2.16
  37  0.244  0.895  0.896-  12 1.84  17 1.85  14 2.07   9 2.09   2 2.16
  38  0.751  0.903  0.887-  17 1.85  12 1.85  15 1.95   2 2.07
  39  0.745  0.104  0.116-  17 1.85  12 1.85  16 1.98   6 2.09   1 2.12
  40  0.498  0.391  0.647-  21 1.83  24 1.85  10 2.06  25 2.12   3 2.13
  41  0.502  0.615  0.355-  22 1.85  23 1.86   5 2.11  11 2.12   4 2.12  25 2.18
  42  0.498  0.105  0.360-  13 1.85  16 1.86  19 2.02   6 2.13   3 2.13
  43  0.502  0.897  0.633-  14 1.85  15 1.86  19 2.00   5 2.12   4 2.13
  44  0.006  0.395  0.148-  22 1.83  23 1.85   1 2.09  26 2.11   8 2.15
  45  0.004  0.606  0.856-  21 1.83  24 1.85   2 2.02  26 2.10   9 2.14
  46  0.006  0.101  0.860-  14 1.85  15 1.87  12 2.00   8 2.14   7 2.17
  47  0.002  0.903  0.135-  13 1.83  16 1.85  12 1.96   9 2.15
  48  0.254  0.390  0.389-  25 1.85  20 1.86   3 2.09  22 2.11   6 2.12   1 2.15
  49  0.246  0.600  0.607-  20 1.85  25 1.85  21 2.04   4 2.15   2 2.26
  50  0.753  0.599  0.611-  20 1.85  25 1.85  24 2.00   2 2.14   5 2.19
  51  0.745  0.398  0.380-  25 1.85  20 1.87  23 1.96   6 2.06   1 2.09
  52  0.248  0.112  0.609-  18 1.85  19 1.86   3 2.07   7 2.12  14 2.13  10 2.14
  53  0.255  0.899  0.393-  19 1.85  18 1.86  13 2.05   4 2.15  11 2.25
  54  0.748  0.900  0.391-  19 1.85  18 1.85  16 2.01  11 2.15   5 2.17
  55  0.756  0.103  0.620-  18 1.86  19 1.87  15 1.95   7 2.06  10 2.09
  56  0.495  0.399  0.139-  22 1.86  23 1.87  27 1.99   8 2.13   6 2.18
  57  0.498  0.597  0.866-  21 1.84  24 1.86  27 1.95   9 2.15
  58  0.495  0.105  0.855-  14 1.84  15 1.86  10 2.08  17 2.09   8 2.15
  59  0.497  0.895  0.142-  13 1.84  16 1.86  11 2.01  17 2.07   9 2.14

  LATTYP: Found a triclinic cell.
 ALAT       =    14.9460341503
 B/A-ratio  =     0.3697843268
 C/A-ratio  =     0.7673424739
 COS(alpha) =     0.0001898106
 COS(beta)  =     0.3793370056
 COS(gamma) =     0.7392567699

  Lattice vectors:

 A1 = ( -10.0622804479,  11.0512691573,  -0.0624421484)
 A2 = (   0.0012789076,   5.5268088264,  -0.0014950030)
 A3 = (  -6.4018037562,   0.0010842684,  -9.5157029349)

Analysis of symmetry for initial positions (statically):
 Subroutine PRICEL returns:
 Original cell was already a primitive cell.

 Routine SETGRP: Setting up the symmetry group for a
 triclinic supercell.

 Subroutine GETGRP returns: Found  1 space group operations
 (whereof  1 operations were pure point group operations)
 out of a pool of  2 trial point group operations.

The static configuration has the point symmetry C_1 .

Analysis of symmetry for dynamics (positions and initial velocities):
 Subroutine PRICEL returns:
 Original cell was already a primitive cell.

[...]

The dynamic configuration has the point symmetry C_1 .

Analysis of structural, dynamic, and magnetic symmetry:
 Subroutine PRICEL returns:
 Original cell was already a primitive cell.

 Routine SETGRP: Setting up the symmetry group for a
 triclinic supercell.

 Subroutine GETGRP returns: Found  1 space group operations
 (whereof  1 operations were pure point group operations)
 out of a pool of  2 trial point group operations.

The magnetic configuration has the point symmetry C_1 .

 Subroutine INISYM returns: Found  1 space group operations
 (whereof  1 operations are pure point group operations),
 and found     1 'primitive' translations

 KPOINTS: Automatic mesh

Automatic generation of k-mesh.
Space group operators:
 irot       det(A)        alpha          n_x          n_y          n_z        tau_x        tau_y        tau_z
    1     1.000000     0.000000     1.000000     0.000000     0.000000     0.000000     0.000000     0.000000

 Subroutine IBZKPT returns following result:

 Found      1 irreducible k-points:

 Following reciprocal coordinates:
            Coordinates               Weight
  0.000000  0.000000  0.000000      1.000000

 Following cartesian coordinates:
            Coordinates               Weight
  0.000000  0.000000  0.000000      1.000000

 SYSTEM =  unknown system
 POSCAR =  ce669_1

 Startparameter for this run:
   NWRITE =      1    write-flag & timer
   PREC   = accura    normal or accurate (medium, high low for compatibility)
   ISTART =      0    job   : 0-new  1-cont  2-samecut
   ICHARG =      2    charge: 1-file 2-atom 10-const
   ISPIN  =      2    spin polarized calculation?
   LNONCOLLINEAR =      F non collinear calculations
   LSORBIT =      F    spin-orbit coupling
[...]
   0.308E+02 0.168E+02 0.248E+02   -.317E+02 -.168E+02 -.247E+02   0.920E+00 0.236E-02 -.104E+00   0.658E-02 -.519E-02 0.255E-03
   0.228E+02 -.182E+02 -.248E+02   -.234E+02 0.182E+02 0.248E+02   0.525E+00 -.234E-01 -.106E-01   0.810E-02 0.513E-02 -.186E-02
   -.223E+02 0.176E+02 0.246E+02   0.228E+02 -.177E+02 -.246E+02   -.500E+00 0.104E-01 -.623E-02   0.147E-02 0.454E-02 -.222E-02
   0.301E+01 -.104E+02 -.689E+02   -.355E+01 0.105E+02 0.697E+02   0.501E+00 -.489E-01 -.748E+00   0.294E-01 0.118E-01 0.237E-02
   0.205E+02 0.112E+02 -.733E+02   -.213E+02 -.112E+02 0.737E+02   0.876E+00 0.445E-01 -.366E+00   -.300E-01 0.114E-01 -.275E-02
   0.428E+02 -.116E+02 -.273E+02   -.434E+02 0.117E+02 0.273E+02   0.649E+00 -.124E+00 -.693E-01   -.311E-01 -.114E-01 -.269E-02
   0.128E+02 0.112E+02 -.738E+02   -.129E+02 -.113E+02 0.743E+02   0.116E+00 0.577E-01 -.490E+00   0.288E-01 -.120E-01 0.274E-02
   -.296E+02 -.161E+02 -.260E+02   0.305E+02 0.161E+02 0.259E+02   -.881E+00 0.370E-01 0.871E-01   0.641E-03 -.454E-02 -.697E-04
   -.199E+02 0.254E+02 -.584E+02   0.201E+02 -.256E+02 0.593E+02   -.230E+00 0.149E+00 -.891E+00   0.989E-03 0.482E-02 -.936E-03
   -.648E+01 -.290E+02 -.787E+01   0.658E+01 0.291E+02 0.845E+01   -.993E-01 -.779E-01 -.579E+00   -.281E-03 -.497E-02 -.213E-03
   0.260E+02 0.329E+02 0.293E+03   -.298E+02 -.353E+02 -.309E+03   0.377E+01 0.239E+01 0.161E+02   0.198E-01 0.514E-02 -.215E-01
   0.229E+02 -.559E+00 -.322E+03   -.220E+02 0.227E+00 0.338E+03   -.871E+00 0.331E+00 -.158E+02   -.201E-01 0.416E-02 0.231E-01
   -.449E+02 0.320E+02 -.285E+03   0.506E+02 -.343E+02 0.301E+03   -.568E+01 0.234E+01 -.160E+02   0.735E-02 -.791E-02 -.123E-01
   0.218E+02 -.179E+01 0.300E+03   -.261E+02 0.157E+01 -.313E+03   0.430E+01 0.220E+00 0.131E+02   -.278E-02 -.212E-02 0.190E-01
   0.112E+02 0.766E+01 0.271E+03   -.153E+02 -.779E+01 -.284E+03   0.410E+01 0.117E+00 0.132E+02   0.649E-02 0.513E-02 -.945E-03
   -.259E+02 0.350E+02 -.332E+03   0.312E+02 -.367E+02 0.349E+03   -.526E+01 0.167E+01 -.168E+02   -.714E-02 0.488E-02 -.270E-02
   0.138E+02 -.363E+02 -.342E+03   -.132E+02 0.383E+02 0.362E+03   -.534E+00 -.196E+01 -.202E+02   -.106E-01 -.500E-02 0.127E-02
   -.201E+02 -.738E+01 0.285E+03   0.201E+02 0.794E+01 -.302E+03   0.144E-01 -.558E+00 0.166E+02   0.118E-01 -.498E-02 -.451E-02
   -.119E+02 -.625E+01 -.271E+03   0.158E+02 0.646E+01 0.285E+03   -.392E+01 -.210E+00 -.131E+02   -.291E-02 0.346E-02 -.132E-02
   0.301E+02 -.327E+02 0.332E+03   -.354E+02 0.344E+02 -.349E+03   0.532E+01 -.168E+01 0.167E+02   -.738E-02 0.338E-02 0.413E-02
   -.130E+02 0.349E+02 0.342E+03   0.126E+02 -.371E+02 -.362E+03   0.367E+00 0.219E+01 0.199E+02   -.850E-02 -.385E-02 0.728E-02
   0.192E+02 0.558E+01 -.286E+03   -.194E+02 -.616E+01 0.303E+03   0.185E+00 0.586E+00 -.166E+02   0.451E-02 -.313E-02 -.548E-02
   0.510E+02 -.321E+02 0.284E+03   -.567E+02 0.344E+02 -.301E+03   0.565E+01 -.227E+01 0.166E+02   0.104E-01 -.475E-02 -.159E-01
   -.283E+02 0.930E+00 -.299E+03   0.324E+02 -.796E+00 0.313E+03   -.415E+01 -.126E+00 -.136E+02   -.945E-02 -.373E-02 0.157E-01
   -.274E+02 -.326E+02 -.294E+03   0.314E+02 0.350E+02 0.310E+03   -.401E+01 -.235E+01 -.161E+02   0.168E-01 0.823E-02 -.173E-01
   -.216E+02 0.101E+01 0.324E+03   0.205E+02 -.624E+00 -.340E+03   0.115E+01 -.387E+00 0.161E+02   -.125E-01 0.202E-02 0.254E-01
   0.603E+02 0.266E+02 0.291E+03   -.661E+02 -.283E+02 -.308E+03   0.582E+01 0.166E+01 0.165E+02   -.154E-01 0.437E-02 -.775E-02
   -.556E+02 0.285E+02 -.334E+03   0.620E+02 -.307E+02 0.350E+03   -.640E+01 0.216E+01 -.160E+02   0.146E-01 0.489E-02 0.802E-02
   -.357E+02 0.256E+02 -.300E+03   0.396E+02 -.269E+02 0.316E+03   -.388E+01 0.123E+01 -.162E+02   -.114E-01 -.136E-02 -.538E-02
   0.244E+01 0.303E+02 0.364E+03   -.414E+01 -.324E+02 -.385E+03   0.170E+01 0.208E+01 0.212E+02   0.626E-02 -.803E-02 0.186E-02
   0.269E+02 -.711E+01 0.274E+03   -.320E+02 0.712E+01 -.287E+03   0.510E+01 -.290E-01 0.134E+02   -.782E-02 0.120E-01 -.198E-01
   -.492E+02 -.331E+02 -.329E+03   0.548E+02 0.344E+02 0.346E+03   -.554E+01 -.136E+01 -.173E+02   0.900E-02 0.123E-01 0.205E-01
   -.472E+02 0.341E+02 -.318E+03   0.512E+02 -.355E+02 0.335E+03   -.395E+01 0.143E+01 -.170E+02   0.532E-02 -.122E-01 0.235E-01
   -.124E+02 0.769E+01 0.295E+03   0.122E+02 -.781E+01 -.311E+03   0.147E+00 0.139E+00 0.163E+02   -.681E-02 -.121E-01 -.223E-01
   -.295E+02 0.556E+01 -.274E+03   0.345E+02 -.561E+01 0.288E+03   -.499E+01 0.306E-01 -.136E+02   0.779E-03 0.116E-01 -.178E-01
   0.507E+02 0.314E+02 0.329E+03   -.561E+02 -.328E+02 -.346E+03   0.539E+01 0.139E+01 0.172E+02   0.111E-01 0.116E-01 0.148E-01
   0.505E+02 -.325E+02 0.317E+03   -.546E+02 0.342E+02 -.334E+03   0.407E+01 -.162E+01 0.166E+02   0.389E-02 -.118E-01 0.188E-01
   0.125E+02 -.606E+01 -.296E+03   -.125E+02 0.637E+01 0.312E+03   0.495E-01 -.301E+00 -.160E+02   -.257E-03 -.120E-01 -.199E-01
   0.330E+02 -.267E+02 0.300E+03   -.366E+02 0.280E+02 -.317E+03   0.357E+01 -.132E+01 0.161E+02   -.171E-01 -.328E-02 -.317E-02
   -.101E+01 -.306E+02 -.364E+03   0.238E+01 0.327E+02 0.385E+03   -.138E+01 -.214E+01 -.213E+02   0.164E-01 -.466E-02 0.319E-02
   -.554E+02 -.260E+02 -.291E+03   0.614E+02 0.277E+02 0.307E+03   -.596E+01 -.173E+01 -.161E+02   -.118E-01 0.195E-02 -.866E-02
   0.488E+02 -.291E+02 0.335E+03   -.549E+02 0.312E+02 -.351E+03   0.606E+01 -.213E+01 0.159E+02   0.663E-02 0.798E-02 0.400E-02
   -.172E+00 0.222E+00 0.374E+00   -.185E-12 0.533E-13 -.739E-12   0.171E+00 -.238E+00 -.379E+00   -.178E-02 0.778E-02 0.547E-02

 POSITION                                       TOTAL-FORCE (eV/Angst)
      1.62094      5.48172      2.37801         0.005609      0.004330     -0.001904
      4.91091      5.40449      7.13512         0.004163     -0.027745      0.003619
      4.11714      1.39079      2.39743        -0.001350      0.001955      0.001656
      2.28464      1.37864      7.11949         0.000640      0.000993      0.000301
      2.28134      4.13966      7.11888         0.000670      0.000794     -0.002257
      1.59763      2.80367      2.38340        -0.007859      0.002056      0.000237
      6.62548      5.48952      2.40381         0.003916     -0.002609      0.002815
     -0.91044      1.37303      2.36376         0.000697     -0.003985      0.000469
      7.31457      1.36909      7.15165         0.002697     -0.005212     -0.001627
      6.63593      2.81057      2.39335         0.000350     -0.001837      0.005469
     -0.34987      2.87617      7.11351        -0.006701      0.027368     -0.008446
      0.01427      5.51266      0.03920         0.005664     -0.003076      0.004019
      2.51214      1.37680      0.01376        -0.004446     -0.000117     -0.009923
      3.88241      1.37814      9.44782         0.001613     -0.003318      0.006110
      3.89636      4.13512      9.48461        -0.000576     -0.002537      0.007298
      2.50587      4.15126      0.00851        -0.002519     -0.001016     -0.006555
      0.00258      2.76004      0.00328         0.003284      0.000196      0.004227
      5.02261      0.00284      0.06116         0.002274     -0.002625      0.001594
      5.03571      2.77228      0.08518         0.002976     -0.002455      0.000631
      3.19812      5.52132      4.69965        -0.000352      0.003366      0.002731
      5.72055      1.38507      4.77373        -0.004185      0.002716      0.003775
      0.69211      1.37575      4.79761        -0.001230     -0.000574     -0.005575
      0.68056      4.14589      4.75569        -0.000805      0.007707     -0.007239
      5.72319      4.13714      4.77454        -0.001591     -0.001195      0.003285
      3.21212      2.76477      4.72917        -0.000487      0.000983      0.002892
      8.23440      5.52598      4.77587        -0.000178      0.004118     -0.002952
      8.21872      2.77526      4.74421        -0.000470      0.001390     -0.002809
      4.96823      0.00722      3.78156        -0.003423     -0.001152      0.006009
      1.51457      5.51662      5.72833         0.001036      0.002948      0.000102
      3.18906      0.01146      1.03910         0.002364     -0.000007     -0.000475
      3.20405      5.50655      8.42299        -0.001238     -0.002660      0.001062
      7.52749      1.35904      3.72833        -0.004038      0.000127     -0.001261
     -1.15698      1.41015      5.71263        -0.002875      0.003360     -0.000419
     -1.05184      4.13991      5.64523         0.000876      0.003863     -0.002319
      7.43564      4.17176      3.79783         0.001017      0.000296     -0.003280
      0.70769      1.39761      1.06491         0.001367      0.001809     -0.001924
      5.74316      1.33680      8.52620        -0.009329     -0.002613      0.001930
      5.62416      4.14162      8.59147        -0.001554     -0.003430      0.000060
      0.79108      4.11776      0.98924         0.010225      0.001673     -0.005857
      5.07850      2.74769      3.73951        -0.000853     -0.001460      0.006329
      1.32853      2.77350      5.82908         0.000983      0.003944      0.000323
      3.25040      2.75584      1.00397        -0.000322      0.000730     -0.001236
      3.07586      2.76409      8.51411         0.002039     -0.002701     -0.001415
      0.05676      0.02787      3.73977         0.004233      0.001229     -0.002785
      6.38274      0.01413      5.79042        -0.000267     -0.000488      0.007087
      8.27975      0.03570      1.01517        -0.007672     -0.000779      0.005481
     -1.94119      0.00291      8.53319         0.009041     -0.002570     -0.007406
      2.49608      1.40328      3.69967         0.005364      0.001022     -0.006060
      3.90107      1.36186      5.72149        -0.005135      0.002841      0.005559
      3.94180      4.15716      5.70518        -0.008357      0.001725      0.008921
      2.37969      4.11775      3.77820         0.001812      0.000101     -0.004180
      5.72337      1.36652      1.10062         0.004766      0.000513     -0.002700
      0.67719      1.39670      8.52033         0.005757     -0.002307     -0.002802
      0.64251      4.12341      8.53215        -0.005957     -0.002700     -0.001892
      5.85748      4.17246      1.00857        -0.004676     -0.002255      0.000983
     -0.06261      2.72925      3.77158        -0.003753      0.001355     -0.002802
      6.52895      2.74696      5.71275         0.005498      0.001241      0.004377
      8.21354      2.73535      1.03920        -0.000877     -0.001329      0.003671
     -1.84310      2.73556      8.46005         0.002145     -0.001997     -0.004919
    total drift:                               -0.002826     -0.007861      0.000566

  FREE ENERGIE OF THE ION-ELECTRON SYSTEM (eV)
  free  energy   TOTEN  =      -359.5290647674 eV

  energy  without entropy=     -359.5275643155  energy(sigma->0) =     -359.52831454

 d Force = 0.1302373E-03[ 0.106E-03, 0.154E-03]  d Energy = 0.1298807E-03 0.357E-06
 d Force = 0.1553262E+00[ 0.155E+00, 0.156E+00]  d Ewald  = 0.1338686E+01-0.118E+01

 Quasi-Newton relaxation of ions (Broydens 2nd method)
  g(Force)  = 0.191E-03   g(Stress)= 0.456E-05

 retain information from N=  2 steps
 eigenvalues of (default step * inverse Hessian matrix)
  average eigenvalue of G=   0.8461
 eigenvalue spectrum of G is  0.0436  1.6485

volume of typ            1:    16.3 %

[...]

volume of typ            3:     9.9 %

total charge

# of ion       s       p       d       tot
    1        2.082   0.255   0.097   2.434
    2        2.077   0.241   0.091   2.409
    3        2.082   0.245   0.094   2.420
    4        2.076   0.236   0.088   2.401
    5        2.078   0.235   0.088   2.401
    6        2.083   0.238   0.092   2.414
    7        2.083   0.239   0.092   2.414
    8        2.078   0.240   0.090   2.409
    9        2.076   0.228   0.086   2.389
   10        2.083   0.255   0.097   2.435
   11        2.077   0.239   0.090   2.407
   12        0.281   0.385   7.861   8.527
   13        0.282   0.382   7.872   8.536
   14        0.272   0.363   7.882   8.517
   15        0.280   0.385   7.852   8.517
   16        0.275   0.375   7.857   8.507
   17        0.269   0.359   7.857   8.485
   18        0.269   0.356   7.866   8.492
   19        0.279   0.382   7.869   8.530
   20        0.279   0.383   7.868   8.530
   21        0.282   0.384   7.870   8.537
   22        0.273   0.366   7.878   8.517
   23        0.280   0.385   7.852   8.516
   24        0.276   0.377   7.854   8.507
   25        0.268   0.352   7.882   8.502
   26        0.268   0.354   7.870   8.492
   27        0.282   0.387   7.858   8.527
   28        1.263   2.778   0.006   4.048
   29        1.262   2.781   0.006   4.049
   30        1.262   2.784   0.007   4.053
   31        1.255   2.798   0.006   4.059
   32        1.256   2.798   0.006   4.060
   33        1.265   2.772   0.007   4.044
   34        1.270   2.761   0.007   4.039
   35        1.260   2.786   0.007   4.053
   36        1.256   2.798   0.006   4.060
   37        1.265   2.773   0.007   4.045
   38        1.269   2.762   0.007   4.039
   39        1.260   2.786   0.007   4.053
   40        1.262   2.784   0.007   4.053
   41        1.256   2.798   0.006   4.060
   42        1.263   2.779   0.007   4.048
   43        1.262   2.780   0.007   4.049
   44        1.264   2.779   0.007   4.049
   45        1.262   2.785   0.007   4.054
   46        1.264   2.776   0.007   4.046
   47        1.271   2.757   0.008   4.035
   48        1.255   2.800   0.006   4.061
   49        1.266   2.769   0.007   4.041
   50        1.264   2.774   0.007   4.045
   51        1.258   2.791   0.007   4.057
   52        1.255   2.801   0.006   4.062
   53        1.266   2.769   0.007   4.041
   54        1.264   2.774   0.007   4.045
   55        1.258   2.792   0.007   4.057
   56        1.264   2.775   0.006   4.045
   57        1.271   2.756   0.007   4.034
   58        1.264   2.779   0.007   4.049
   59        1.262   2.785   0.006   4.053
tot          67.69   97.61  127.06  292.36

magnetization (x)

# of ion       s       p       d       tot
    1        0.001   0.004  -0.000   0.005
    2        0.001   0.002  -0.000   0.003
    3        0.001   0.007   0.001   0.009
    4        0.004   0.008   0.000   0.012
    5        0.000   0.004  -0.001   0.003
    6       -0.000  -0.001  -0.000  -0.001
    7       -0.000  -0.000  -0.000  -0.001
    8        0.004   0.008   0.001   0.013
    9        0.001   0.007   0.001   0.009
   10        0.003   0.007   0.001   0.011
   11        0.003   0.007   0.001   0.011
   12       -0.001  -0.000  -0.136  -0.137
   13        0.005  -0.000   0.544   0.549
   14        0.004  -0.000   0.514   0.518
   15       -0.000  -0.001   0.167   0.166
   16       -0.000  -0.001  -0.027  -0.028
   17        0.003  -0.000   0.568   0.570
   18        0.004  -0.000   0.597   0.601
   19       -0.000  -0.000   0.105   0.104
   20       -0.000  -0.000   0.127   0.126
   21        0.006   0.000   0.535   0.541
   22        0.004  -0.000   0.505   0.509
   23        0.000  -0.000   0.156   0.156
   24        0.000  -0.000   0.041   0.041
   25        0.005  -0.000   0.530   0.534
   26       -0.005  -0.000  -0.558  -0.562
   27       -0.001  -0.000  -0.127  -0.127
   28        0.002   0.026   0.000   0.028
   29        0.004   0.025   0.000   0.029
   30        0.006   0.094   0.000   0.101
   31        0.007   0.079   0.000   0.086
   32        0.004   0.049   0.000   0.053
   33        0.004   0.057   0.000   0.061
   34       -0.000  -0.006   0.000  -0.006
   35       -0.001  -0.013   0.000  -0.014
   36        0.005   0.059   0.000   0.064
   37        0.005   0.072   0.000   0.077
   38        0.002   0.013   0.000   0.015
   39        0.000  -0.005   0.000  -0.005
   40        0.006   0.097   0.000   0.103
   41        0.005   0.078   0.000   0.083
   42        0.001   0.020   0.000   0.021
   43        0.004   0.019   0.000   0.023
   44       -0.004  -0.078  -0.000  -0.082
   45       -0.005  -0.085  -0.000  -0.090
   46       -0.001  -0.000   0.000  -0.002
   47       -0.001  -0.015  -0.000  -0.016
   48        0.005   0.060   0.000   0.065
   49        0.006   0.072   0.000   0.079
   50        0.001  -0.001   0.000   0.000
   51        0.002   0.017   0.000   0.020
   52        0.005   0.061   0.000   0.066
   53        0.007   0.074   0.000   0.081
   54        0.000  -0.013   0.000  -0.013
   55        0.003   0.017   0.000   0.020
   56       -0.001   0.009   0.000   0.008
   57       -0.000  -0.001   0.000  -0.001
   58        0.007   0.076   0.000   0.083
   59        0.007   0.084   0.000   0.091
tot           0.13    0.99    3.55    4.67