 vasp.5.4.4.18Apr17-6-g9f103f2a35 (build May 12 2020 05:39:39) gamma-only

 MD_VERSION_INFO: Compiled 2020-05-12T12:39:39-UTC in devlin.sd.materialsdesign.
 com:/home/medea2/data/build/wwolf/vasp-gpu5.4.4/13047/x86_64/src/src/build/gam
 from svn 13047

 executed on                        Lin64 date 2023.03.07  06:39:53

 INCAR:
 POTCAR:    PAW_PBE Li_sv 10Sep2004
 POTCAR:    PAW_PBE Ni 02Aug2007
 POTCAR:    PAW_PBE O 08Apr2002

 POTCAR:    PAW_PBE Li_sv 10Sep2004

 POTCAR:    PAW_PBE Ni 02Aug2007

 POTCAR:    PAW_PBE O 08Apr2002

 Optimization of the real space projectors (new method)

 maximal supplied QI-value         = 22.11
 optimisation between [QCUT,QGAM] = [ 11.28, 22.77] = [ 35.61,145.23] Ry
 Optimized for a Real-space Cutoff    1.10 Angstroem

   l    n(q)    QCUT    max X(q) W(low)/X(q) W(high)/X(q)  e(spline)
   0      7    11.276    10.506    0.54E-04    0.58E-04    0.16E-07
   0      7    11.276     8.367    0.11E-03    0.14E-03    0.35E-07
   1      7    11.276     8.983    0.23E-03    0.43E-03    0.86E-07
 Optimization of the real space projectors (new method)

[...]

   l    n(q)    QCUT    max X(q) W(low)/X(q) W(high)/X(q)  e(spline)
   2      9    11.376    60.317    0.17E-03    0.16E-04    0.16E-06
   2      9    11.376    55.921    0.17E-03    0.16E-04    0.17E-06
   0     10    11.376    51.690    0.45E-04    0.60E-04    0.21E-06
   0     10    11.376    30.015    0.37E-04    0.55E-04    0.19E-06
   1     10    11.376    18.849    0.83E-04    0.11E-03    0.92E-07
   1     10    11.376    14.624    0.69E-04    0.92E-04    0.82E-07
 Optimization of the real space projectors (new method)

 maximal supplied QI-value         = 24.76
 optimisation between [QCUT,QGAM] = [ 11.39, 22.77] = [ 36.31,145.25] Ry
 Optimized for a Real-space Cutoff    1.10 Angstroem

   l    n(q)    QCUT    max X(q) W(low)/X(q) W(high)/X(q)  e(spline)
   0      7    11.387    20.381    0.22E-03    0.48E-03    0.18E-06
   0      7    11.387    15.268    0.22E-03    0.52E-03    0.19E-06
   1      7    11.387     5.964    0.22E-03    0.73E-03    0.24E-06
   1      7    11.387     5.382    0.19E-03    0.60E-03    0.21E-06

  PAW_PBE Li_sv 10Sep2004               :
  PAW_PBE Ni 02Aug2007                  :
  PAW_PBE O 08Apr2002                   :

 POSCAR: ce17224_1
  positions in direct lattice
 exchange correlation table for  LEXCH =       14
   RHO(1)=    0.500       N(1)  =     2000
   RHO(2)=  100.500       N(2)  =     4000

 ion  position               nearest neighbor table
   1  0.500  0.251  0.249-  49 2.11  35 2.12  29 2.18  32 2.18  44 2.18  41 2.18
   2  0.500  0.749  0.751-  50 2.11  36 2.12  30 2.18  31 2.18  43 2.18  42 2.18
   3  0.000  0.249  0.751-  39 2.11  21 2.12  28 2.18  25 2.18  45 2.18  48 2.18
   4  0.000  0.751  0.249-  40 2.11  22 2.12  27 2.18  26 2.18  46 2.18  47 2.18
   5  0.000  0.000  0.000-  29 1.86  30 1.86  31 1.86  32 1.86  39 1.99  40 1.99  10 2.77  10 2.77
                             6 2.81   7 2.81   8 2.81   9 2.81
   6  0.250  0.001  0.250-  35 1.83  40 1.83  52 1.85  23 1.85  46 1.89  29 1.89   9 2.77   9 2.77
                            10 2.81   5 2.81  12 2.81  11 2.81
   7  0.250  0.999  0.750-  36 1.83  39 1.83  51 1.85  24 1.85  45 1.89  30 1.89   8 2.77   8 2.77
                            10 2.81   5 2.81  12 2.81  11 2.81
   8  0.750  0.999  0.750-  36 1.83  39 1.83  51 1.85  24 1.85  48 1.89  31 1.89   7 2.77   7 2.77
                            10 2.81   5 2.81  12 2.81  11 2.81
   9  0.750  0.001  0.250-  35 1.83  40 1.83  52 1.85  23 1.85  47 1.89  32 1.89   6 2.77   6 2.77
                            10 2.81   5 2.81  12 2.81  11 2.81
  10  0.500  0.000  0.000-  29 1.85  30 1.85  31 1.85  32 1.85  51 1.90  52 1.90   5 2.77   5 2.77
                             9 2.81   6 2.81   7 2.81   8 2.81
  11  0.000  0.000  0.500-  45 1.85  46 1.85  47 1.85  48 1.85  23 1.90  24 1.90  12 2.77  12 2.77
                             6 2.81   7 2.81   8 2.81   9 2.81
  12  0.500  0.000  0.500-  45 1.86  46 1.86  47 1.86  48 1.86  35 2.01  36 2.01  11 2.77  11 2.77
                             6 2.81   7 2.81   8 2.81   9 2.81
  13  0.000  0.500  0.500-  41 1.86  42 1.86  43 1.86  44 1.86  21 2.00  22 2.00  18 2.77  18 2.77
                            14 2.81  15 2.81  16 2.81  17 2.81
  14  0.250  0.499  0.750-  21 1.83  50 1.83  38 1.85  33 1.85  42 1.89  25 1.89  17 2.77  17 2.77
                            19 2.81  20 2.81  13 2.81  18 2.81
  15  0.250  0.501  0.250-  22 1.83  49 1.83  37 1.85  34 1.85  41 1.89  26 1.89  16 2.77  16 2.77
                            19 2.81  20 2.81  13 2.81  18 2.81
  16  0.750  0.501  0.250-  22 1.83  49 1.83  37 1.85  34 1.85  44 1.89  27 1.89  15 2.77  15 2.77
                            19 2.81  20 2.81  13 2.81  18 2.81
  17  0.750  0.499  0.750-  21 1.83  50 1.83  38 1.85  33 1.85  43 1.89  28 1.89  14 2.77  14 2.77
                            19 2.81  20 2.81  13 2.81  18 2.81
  18  0.500  0.500  0.500-  41 1.85  42 1.85  43 1.85  44 1.85  33 1.90  34 1.90  13 2.77  13 2.77
                            17 2.81  14 2.81  15 2.81  16 2.81
  19  0.000  0.500  0.000-  25 1.85  26 1.85  27 1.85  28 1.85  37 1.90  38 1.90  20 2.77  20 2.77
                            14 2.81  15 2.81  16 2.81  17 2.81
  20  0.500  0.500  0.000-  25 1.86  26 1.86  27 1.86  28 1.86  49 1.99  50 1.99  19 2.77  19 2.77
                            14 2.81  15 2.81  16 2.81  17 2.81
  21  0.000  0.398  0.643-  14 1.83  17 1.83  13 2.00   3 2.12
  22  0.000  0.602  0.357-  15 1.83  16 1.83  13 2.00   4 2.12
  23  0.000  0.097  0.365-   6 1.85   9 1.85  11 1.90
  24  0.000  0.903  0.635-   7 1.85   8 1.85  11 1.90
  25  0.249  0.403  0.885-  19 1.85  20 1.86  14 1.89   3 2.18
  26  0.249  0.597  0.115-  19 1.85  20 1.86  15 1.89   4 2.18
  27  0.751  0.597  0.115-  19 1.85  20 1.86  16 1.89   4 2.18
  28  0.751  0.403  0.885-  19 1.85  20 1.86  17 1.89   3 2.18
  29  0.251  0.097  0.115-  10 1.85   5 1.86   6 1.89   1 2.18
  30  0.251  0.903  0.885-  10 1.85   5 1.86   7 1.89   2 2.18
  31  0.749  0.903  0.885-  10 1.85   5 1.86   8 1.89   2 2.18
  32  0.749  0.097  0.115-  10 1.85   5 1.86   9 1.89   1 2.18
  33  0.500  0.403  0.635-  14 1.85  17 1.85  18 1.90
  34  0.500  0.597  0.365-  15 1.85  16 1.85  18 1.90
  35  0.500  0.102  0.357-   6 1.83   9 1.83  12 2.01   1 2.12
  36  0.500  0.898  0.643-   7 1.83   8 1.83  12 2.01   2 2.12
  37  0.000  0.404  0.136-  15 1.85  16 1.85  19 1.90
  38  0.000  0.596  0.864-  14 1.85  17 1.85  19 1.90
  39  0.000  0.100  0.856-   7 1.83   8 1.83   5 1.99   3 2.11
  40  0.000  0.900  0.144-   6 1.83   9 1.83   5 1.99   4 2.11
  41  0.251  0.404  0.385-  18 1.85  13 1.86  15 1.89   1 2.18
  42  0.251  0.596  0.615-  18 1.85  13 1.86  14 1.89   2 2.18
  43  0.749  0.596  0.615-  18 1.85  13 1.86  17 1.89   2 2.18
  44  0.749  0.404  0.385-  18 1.85  13 1.86  16 1.89   1 2.18
  45  0.249  0.096  0.615-  11 1.85  12 1.86   7 1.89   3 2.18
  46  0.249  0.904  0.385-  11 1.85  12 1.86   6 1.89   4 2.18
  47  0.751  0.904  0.385-  11 1.85  12 1.86   9 1.89   4 2.18
  48  0.751  0.096  0.615-  11 1.85  12 1.86   8 1.89   3 2.18
  49  0.500  0.400  0.144-  15 1.83  16 1.83  20 1.99   1 2.11
  50  0.500  0.600  0.856-  14 1.83  17 1.83  20 1.99   2 2.11
  51  0.500  0.096  0.864-   7 1.85   8 1.85  10 1.90
  52  0.500  0.904  0.136-   6 1.85   9 1.85  10 1.90

  LATTYP: Found a simple monoclinic cell.
 ALAT       =    11.5930043941
 B/A-ratio  =     0.4786163607
 C/A-ratio  =     1.6919161611
 COS(beta)  =    -0.9094097004

  Lattice vectors:

 A1 = (  -6.2448577900,   0.0000000000,  -9.7672668677)
 A2 = (   0.0000000000,  -5.5486015726,   0.0000000000)
 A3 = (   2.7356829723,   0.0000000000,  19.4226772665)

Analysis of symmetry for initial positions (statically):
 Subroutine PRICEL returns:
 Original cell was already a primitive cell.

 Routine SETGRP: Setting up the symmetry group for a
 simple monoclinic supercell.

 Subroutine GETGRP returns: Found  4 space group operations
 (whereof  4 operations were pure point group operations)
 out of a pool of  4 trial point group operations.

The static configuration has the point symmetry C_2h.

Analysis of symmetry for dynamics (positions and initial velocities):
 Subroutine PRICEL returns:
 Original cell was already a primitive cell.

[...]

The dynamic configuration has the point symmetry C_2h.

Analysis of structural, dynamic, and magnetic symmetry:
 Subroutine PRICEL returns:
 Original cell was already a primitive cell.

 Routine SETGRP: Setting up the symmetry group for a
 simple monoclinic supercell.

 Subroutine GETGRP returns: Found  4 space group operations
 (whereof  4 operations were pure point group operations)
 out of a pool of  4 trial point group operations.

The magnetic configuration has the point symmetry C_2h.

 Subroutine INISYM returns: Found  4 space group operations
 (whereof  4 operations are pure point group operations),
 and found     1 'primitive' translations

 KPOINTS: Automatic mesh

Automatic generation of k-mesh.
Space group operators:
 irot       det(A)        alpha          n_x          n_y          n_z        tau_x        tau_y        tau_z
    1     1.000000     0.000000     1.000000     0.000000     0.000000     0.000000     0.000000     0.000000
    2    -1.000000     0.000000     1.000000     0.000000     0.000000     0.000000     0.000000     0.000000
    3     1.000000   180.000000     0.000000     1.000000     0.000000     0.000000     0.000000     0.000000
    4    -1.000000   180.000000     0.000000     1.000000     0.000000     0.000000     0.000000     0.000000

 Subroutine IBZKPT returns following result:

 Found      1 irreducible k-points:

 Following reciprocal coordinates:
            Coordinates               Weight
  0.000000  0.000000  0.000000      1.000000

 Following cartesian coordinates:
            Coordinates               Weight
  0.000000  0.000000  0.000000      1.000000

 SYSTEM =  unknown system
 POSCAR =  ce17224_1

 Startparameter for this run:
   NWRITE =      1    write-flag & timer
   PREC   = accura    normal or accurate (medium, high low for compatibility)
   ISTART =      0    job   : 0-new  1-cont  2-samecut
   ICHARG =      2    charge: 1-file 2-atom 10-const
   ISPIN  =      2    spin polarized calculation?
   LNONCOLLINEAR =      F non collinear calculations
   LSORBIT =      F    spin-orbit coupling
   INIWAV =      1    electr: 0-lowe 1-rand  2-diag
   LASPH  =      F    aspherical Exc in radial PAW
   METAGGA=      F    non-selfconsistent MetaGGA calc.

 Electronic Relaxation 1
   ENCUT  =  500.0 eV  36.75 Ry    6.06 a.u.  10.12 18.73 17.79*2*pi/ulx,y,z
   ENINI  =  500.0     initial cutoff
   ENAUG  =  628.9 eV  augmentation charge cutoff
   NELM   =     80;   NELMIN=  2; NELMDL= -5     # of ELM steps
   EDIFF  = 0.1E-04   stopping-criterion for ELM
   LREAL  =      T    real-space projection
   NLSPLINE    = F    spline interpolate recip. space projectors
   LCOMPAT=      F    compatible to vasp.4.4
   GGA_COMPAT  = T    GGA compatible to vasp.4.4-vasp.4.6
   LMAXPAW     = -100 max onsite density
   LMAXMIX     =    2 max onsite mixed and CHGCAR
[...]
   -.321E+00 0.326E-13 -.529E+00   0.322E+00 0.153E-13 0.533E+00   -.484E-02 0.000E+00 0.965E-02   -.764E-03 0.283E-12 -.867E-02
   -.182E+00 -.577E-14 -.645E+00   0.191E+00 -.270E-13 0.627E+00   -.167E-01 0.000E+00 0.144E-01   -.343E-03 0.179E-12 0.998E-02
   0.182E+00 -.540E-14 0.645E+00   -.191E+00 0.969E-14 -.627E+00   0.167E-01 0.000E+00 -.144E-01   0.343E-03 0.114E-13 -.998E-02
   -.444E-13 0.433E-13 -.187E-12   0.114E-12 0.110E-12 0.291E-12   0.000E+00 0.000E+00 0.170E-25   -.181E-11 0.294E-12 0.258E-12
   -.259E+00 0.298E+00 -.227E+01   0.294E+00 -.278E+00 0.230E+01   -.182E-01 -.358E-02 -.274E-01   -.136E-01 -.106E-01 -.134E-02
   0.259E+00 0.298E+00 0.227E+01   -.294E+00 -.278E+00 -.230E+01   0.182E-01 -.358E-02 0.274E-01   0.136E-01 -.106E-01 0.134E-02
   0.259E+00 -.298E+00 0.227E+01   -.294E+00 0.278E+00 -.230E+01   0.182E-01 0.358E-02 0.274E-01   0.136E-01 0.106E-01 0.134E-02
   -.259E+00 -.298E+00 -.227E+01   0.294E+00 0.278E+00 0.230E+01   -.182E-01 0.358E-02 -.274E-01   -.136E-01 0.106E-01 -.134E-02
   -.470E-11 -.170E-12 -.646E-12   0.000E+00 -.369E-14 0.156E-12   0.000E+00 0.000E+00 0.485E-26   -.154E-11 -.383E-12 0.181E-12
   0.158E-11 0.260E-13 -.962E-13   0.782E-13 0.200E-15 0.213E-13   0.000E+00 0.000E+00 0.162E-26   0.190E-11 -.352E-12 0.217E-12
   0.207E-11 -.211E-12 0.167E-11   0.000E+00 0.862E-13 0.142E-13   0.000E+00 0.000E+00 -.234E-25   0.172E-11 0.277E-12 0.244E-12
   0.143E-11 0.242E-13 0.101E-12   0.169E-13 0.856E-13 -.566E-13   0.323E-25 0.000E+00 -.356E-25   0.122E-11 -.139E-12 0.394E-12
   -.179E-01 -.368E+00 0.218E+01   0.125E-01 0.370E+00 -.220E+01   0.156E-01 0.545E-02 0.272E-01   -.107E-01 -.524E-02 -.131E-02
   0.179E-01 -.368E+00 -.218E+01   -.125E-01 0.370E+00 0.220E+01   -.156E-01 0.545E-02 -.272E-01   0.107E-01 -.524E-02 0.131E-02
   0.179E-01 0.368E+00 -.218E+01   -.125E-01 -.370E+00 0.220E+01   -.156E-01 -.545E-02 -.272E-01   0.107E-01 0.524E-02 0.131E-02
   -.179E-01 0.368E+00 0.218E+01   0.125E-01 -.370E+00 -.220E+01   0.156E-01 -.545E-02 0.272E-01   -.107E-01 0.524E-02 -.131E-02
   -.169E-11 -.214E-12 0.659E-11   0.515E-13 -.574E-13 -.175E-13   0.000E+00 0.000E+00 0.565E-25   0.144E-11 0.559E-13 0.874E-12
   -.334E-12 -.722E-14 0.622E-13   -.799E-13 -.231E-13 0.782E-13   0.000E+00 0.000E+00 -.226E-25   -.201E-11 0.553E-12 0.124E-12
   -.397E-11 -.256E-12 0.625E-11   0.608E-13 -.275E-13 -.853E-13   0.000E+00 0.000E+00 0.113E-25   -.187E-11 -.648E-12 -.153E-12
   0.562E+02 -.135E-15 0.380E+03   -.616E+02 0.636E-13 -.402E+03   0.540E+01 0.000E+00 0.218E+02   -.236E-01 0.202E-12 0.171E-01
   -.562E+02 -.741E-13 -.380E+03   0.616E+02 0.749E-13 0.402E+03   -.540E+01 0.000E+00 -.218E+02   0.236E-01 0.946E-13 -.171E-01
   -.574E+01 0.885E-14 -.409E+03   0.601E+01 -.107E-13 0.435E+03   -.270E+00 0.000E+00 -.260E+02   -.149E-01 -.913E-12 0.248E-01
   0.574E+01 -.186E-13 0.409E+03   -.601E+01 -.658E-13 -.435E+03   0.270E+00 0.000E+00 0.260E+02   0.149E-01 -.114E-12 -.248E-01
   -.182E+02 -.338E+02 0.377E+03   0.192E+02 0.363E+02 -.400E+03   -.103E+01 -.251E+01 0.226E+02   0.343E-02 0.151E-01 0.121E-01
   0.182E+02 -.338E+02 -.377E+03   -.192E+02 0.363E+02 0.400E+03   0.103E+01 -.251E+01 -.226E+02   -.343E-02 0.151E-01 -.121E-01
   0.182E+02 0.338E+02 -.377E+03   -.192E+02 -.363E+02 0.400E+03   0.103E+01 0.251E+01 -.226E+02   -.343E-02 -.151E-01 -.121E-01
   -.182E+02 0.338E+02 0.377E+03   0.192E+02 -.363E+02 -.400E+03   -.103E+01 0.251E+01 0.226E+02   0.343E-02 -.151E-01 0.121E-01
   0.183E+02 0.338E+02 -.377E+03   -.194E+02 -.362E+02 0.400E+03   0.104E+01 0.250E+01 -.226E+02   0.239E-02 -.171E-01 0.179E-01
   -.183E+02 0.338E+02 0.377E+03   0.194E+02 -.362E+02 -.400E+03   -.104E+01 0.250E+01 0.226E+02   -.239E-02 -.171E-01 -.179E-01
   -.183E+02 -.338E+02 0.377E+03   0.194E+02 0.362E+02 -.400E+03   -.104E+01 -.250E+01 0.226E+02   -.239E-02 0.171E-01 -.179E-01
   0.183E+02 -.338E+02 -.377E+03   -.194E+02 0.362E+02 0.400E+03   0.104E+01 -.250E+01 -.226E+02   0.239E-02 0.171E-01 0.179E-01
   0.534E+01 0.986E-13 0.409E+03   -.558E+01 -.445E-13 -.435E+03   0.247E+00 0.000E+00 0.260E+02   -.200E-02 -.261E-12 0.784E-02
   -.534E+01 0.915E-13 -.409E+03   0.558E+01 -.193E-13 0.435E+03   -.247E+00 0.000E+00 -.260E+02   0.200E-02 -.109E-12 -.784E-02
   -.567E+02 0.123E-12 -.380E+03   0.621E+02 -.462E-14 0.402E+03   -.544E+01 0.000E+00 -.218E+02   -.134E-01 0.900E-12 0.228E-01
   0.567E+02 0.197E-12 0.380E+03   -.621E+02 0.360E-13 -.402E+03   0.544E+01 0.000E+00 0.218E+02   0.134E-01 0.553E-13 -.228E-01
   0.412E+01 -.609E-13 0.409E+03   -.420E+01 -.104E-13 -.435E+03   0.717E-01 0.000E+00 0.260E+02   0.642E-02 0.381E-12 0.576E-02
   -.412E+01 -.442E-13 -.409E+03   0.420E+01 0.909E-14 0.435E+03   -.717E-01 0.000E+00 -.260E+02   -.642E-02 -.423E-12 -.576E-02
   -.543E+02 -.594E-13 -.380E+03   0.595E+02 0.290E-13 0.402E+03   -.516E+01 0.000E+00 -.217E+02   0.102E-01 0.743E-12 0.929E-02
   0.543E+02 0.210E-13 0.380E+03   -.595E+02 0.900E-14 -.402E+03   0.516E+01 0.000E+00 0.217E+02   -.102E-01 0.304E-12 -.929E-02
   -.169E+02 0.338E+02 0.376E+03   0.178E+02 -.363E+02 -.399E+03   -.928E+00 0.251E+01 0.226E+02   0.961E-02 -.211E-01 0.194E-01
   0.169E+02 0.338E+02 -.376E+03   -.178E+02 -.363E+02 0.399E+03   0.928E+00 0.251E+01 -.226E+02   -.961E-02 -.211E-01 -.194E-01
   0.169E+02 -.338E+02 -.376E+03   -.178E+02 0.363E+02 0.399E+03   0.928E+00 -.251E+01 -.226E+02   -.961E-02 0.211E-01 -.194E-01
   -.169E+02 -.338E+02 0.376E+03   0.178E+02 0.363E+02 -.399E+03   -.928E+00 -.251E+01 0.226E+02   0.961E-02 0.211E-01 0.194E-01
   0.168E+02 -.337E+02 -.376E+03   -.177E+02 0.362E+02 0.399E+03   0.920E+00 -.250E+01 -.226E+02   0.122E-01 -.204E-02 0.278E-01
   -.168E+02 -.337E+02 0.376E+03   0.177E+02 0.362E+02 -.399E+03   -.920E+00 -.250E+01 0.226E+02   -.122E-01 -.204E-02 -.278E-01
   -.168E+02 0.337E+02 0.376E+03   0.177E+02 -.362E+02 -.399E+03   -.920E+00 0.250E+01 0.226E+02   -.122E-01 0.204E-02 -.278E-01
   0.168E+02 0.337E+02 -.376E+03   -.177E+02 -.362E+02 0.399E+03   0.920E+00 0.250E+01 -.226E+02   0.122E-01 0.204E-02 0.278E-01
   0.547E+02 0.124E-12 0.380E+03   -.598E+02 -.411E-14 -.402E+03   0.517E+01 0.000E+00 0.218E+02   -.125E-01 -.454E-12 0.151E-01
   -.547E+02 0.705E-13 -.380E+03   0.598E+02 0.126E-13 0.402E+03   -.517E+01 0.000E+00 -.218E+02   0.125E-01 0.469E-12 -.151E-01
   -.380E+01 0.148E-12 -.410E+03   0.386E+01 -.426E-13 0.436E+03   -.581E-01 0.000E+00 -.260E+02   -.738E-02 -.728E-12 0.186E-01
   0.380E+01 0.133E-12 0.410E+03   -.386E+01 -.273E-14 -.436E+03   0.581E-01 0.000E+00 0.260E+02   0.738E-02 -.390E-12 -.186E-01
   -.423E-10 -.161E-11 0.710E-12   -.533E-13 0.484E-13 -.398E-12   0.888E-15 -.888E-15 0.107E-13   0.286E-11 0.111E-13 0.955E-11

 POSITION                                       TOTAL-FORCE (eV/Angst)
      1.55567      2.77496      2.46277         0.004433      0.000000     -0.004958
      4.69560      2.77496      7.36787        -0.004433      0.000000      0.004958
      6.44689      0.00000      2.51405        -0.007642      0.000000      0.006212
     -0.19562      0.00000      7.31658         0.007642      0.000000     -0.006212
      0.00000      0.00000      0.00000        -0.000000      0.000000     -0.000000
      2.43607      1.38747      0.03760         0.002973      0.005964     -0.003237
      3.81520      1.38747      9.79303        -0.002973      0.005964      0.003237
      3.81520      4.16245      9.79303        -0.002973     -0.005964      0.003237
      2.43607      4.16245      0.03760         0.002973     -0.005964     -0.003237
      0.00000      2.77496      0.00000        -0.000000      0.000000     -0.000000
      4.87360      0.00000      0.06167        -0.000000      0.000000     -0.000000
      4.87360      2.77496      0.06167        -0.000000      0.000000     -0.000000
      3.12563      0.00000      4.91532        -0.000000      0.000000     -0.000000
      5.56303      1.38733      4.94041        -0.000558      0.002709      0.005810
      0.68823      1.38733      4.89022         0.000558      0.002709     -0.005810
      0.68823      4.16259      4.89022         0.000558     -0.002709     -0.005810
      5.56303      4.16259      4.94041        -0.000558     -0.002709      0.005810
      3.12563      2.77496      4.91532        -0.000000      0.000000     -0.000000
     -1.74797      0.00000      4.85365        -0.000000      0.000000     -0.000000
     -1.74797      2.77496      4.85365        -0.000000      0.000000     -0.000000
      4.88162      0.00000      3.95266         0.004618      0.000000      0.012288
      1.36965      0.00000      5.87798        -0.004618      0.000000     -0.012288
      3.21154      0.00000      0.98392        -0.008160      0.000000     -0.016074
      3.03973      0.00000      8.84672         0.008160      0.000000      0.016074
      7.22239      1.38012      4.02684         0.002504      0.001178      0.011937
     -0.97112      1.38012      5.80380        -0.002504      0.001178     -0.011937
     -0.97112      4.16980      5.80380        -0.002504     -0.001178     -0.011937
      7.22239      4.16980      4.02684         0.002504     -0.001178      0.011937
      0.77630      1.39486      0.95065        -0.001871     -0.001761     -0.011453
      5.47497      1.39486      8.87998         0.001871     -0.001761      0.011453
      5.47497      4.15505      8.87998         0.001871      0.001761      0.011453
      0.77630      4.15505      0.95065        -0.001871      0.001761     -0.011453
      4.78791      2.77496      3.99408         0.006815      0.000000      0.014224
      1.46336      2.77496      5.83656        -0.006815      0.000000     -0.014224
      3.11741      2.77496      1.02547        -0.007794      0.000000     -0.016034
      3.13386      2.77496      8.80517         0.007794      0.000000      0.016034
     -0.08372      0.00000      3.94187         0.004204      0.000000      0.006180
      6.33499      0.00000      5.88876        -0.004204      0.000000     -0.006180
      7.99414      0.00000      1.07330        -0.004691      0.000000      0.000427
     -1.74287      0.00000      8.75733         0.004691      0.000000     -0.000427
      2.34287      1.39447      3.97122         0.006866     -0.000543      0.006828
      3.90840      1.39447      5.85942        -0.006866     -0.000543     -0.006828
      3.90840      4.15545      5.85942        -0.006866      0.000543     -0.006828
      2.34287      4.15545      3.97122         0.006866      0.000543      0.006828
      5.65700      1.38046      1.00521        -0.007593     -0.000168     -0.005413
      0.59426      1.38046      8.82542         0.007593     -0.000168      0.005413
      0.59426      4.16946      8.82542         0.007593      0.000168      0.005413
      5.65700      4.16946      1.00521        -0.007593      0.000168     -0.005413
      0.00532      2.77496      3.90246         0.005941      0.000000      0.005305
      6.24595      2.77496      5.92817        -0.005941      0.000000     -0.005305
      8.08273      2.77496      1.03418        -0.005022      0.000000     -0.003697
     -1.83146      2.77496      8.79645         0.005022      0.000000      0.003697
    total drift:                               -0.000000     -0.000000      0.000000

  FREE ENERGIE OF THE ION-ELECTRON SYSTEM (eV)
  free  energy   TOTEN  =      -325.0218014693 eV

  energy  without entropy=     -325.0054616059  energy(sigma->0) =     -325.01363154

 d Force = 0.2459848E-03[ 0.224E-03, 0.268E-03]  d Energy = 0.5515172E-03-0.306E-03
 d Force =-0.5849741E+01[-0.585E+01,-0.585E+01]  d Ewald  =-0.1511995E+02 0.927E+01

 Quasi-Newton relaxation of ions (Broydens 2nd method)
  g(Force)  = 0.243E-03   g(Stress)= 0.341E-03

 retain information from N=  2 steps
 eigenvalues of (default step * inverse Hessian matrix)
  average eigenvalue of G=   0.7802
 eigenvalue spectrum of G is  0.6185  0.9419

 reached required accuracy - stopping structural energy minimisation

volume of typ            1:     5.9 %

[...]

volume of typ            3:     9.9 %

total charge

# of ion       s       p       d       tot
    1        2.060   0.188   0.069   2.317
    2        2.060   0.188   0.069   2.317
    3        2.060   0.187   0.069   2.316
    4        2.060   0.187   0.069   2.316
    5        0.274   0.372   7.841   8.487
    6        0.303   0.433   7.837   8.573
    7        0.303   0.433   7.837   8.573
    8        0.303   0.433   7.837   8.573
    9        0.303   0.433   7.837   8.573
   10        0.301   0.425   7.841   8.568
   11        0.301   0.424   7.841   8.566
   12        0.274   0.370   7.843   8.487
   13        0.274   0.370   7.841   8.485
   14        0.303   0.433   7.837   8.573
   15        0.303   0.433   7.837   8.573
   16        0.303   0.433   7.837   8.573
   17        0.303   0.433   7.837   8.573
   18        0.301   0.424   7.841   8.566
   19        0.301   0.425   7.841   8.567
   20        0.274   0.371   7.841   8.486
   21        1.275   2.753   0.008   4.035
   22        1.275   2.753   0.008   4.035
   23        1.283   2.731   0.008   4.021
   24        1.283   2.731   0.008   4.021
   25        1.273   2.757   0.008   4.038
   26        1.273   2.757   0.008   4.038
   27        1.273   2.757   0.008   4.038
   28        1.273   2.757   0.008   4.038
   29        1.273   2.757   0.008   4.038
   30        1.273   2.757   0.008   4.038
   31        1.273   2.757   0.008   4.038
   32        1.273   2.757   0.008   4.038
   33        1.283   2.731   0.008   4.021
   34        1.283   2.731   0.008   4.021
   35        1.275   2.753   0.008   4.035
   36        1.275   2.753   0.008   4.035
   37        1.283   2.732   0.008   4.022
   38        1.283   2.732   0.008   4.022
   39        1.274   2.755   0.008   4.036
   40        1.274   2.755   0.008   4.036
   41        1.273   2.757   0.008   4.038
   42        1.273   2.757   0.008   4.038
   43        1.273   2.757   0.008   4.038
   44        1.273   2.757   0.008   4.038
   45        1.273   2.757   0.008   4.038
   46        1.273   2.757   0.008   4.038
   47        1.273   2.757   0.008   4.038
   48        1.273   2.757   0.008   4.038
   49        1.274   2.754   0.008   4.036
   50        1.274   2.754   0.008   4.036
   51        1.283   2.732   0.008   4.022
   52        1.283   2.732   0.008   4.022
tot          53.78   95.39  125.96  275.13

magnetization (x)

# of ion       s       p       d       tot
    1       -0.003  -0.005  -0.000  -0.008
    2       -0.003  -0.005  -0.000  -0.008
    3       -0.003  -0.005  -0.000  -0.008
    4       -0.003  -0.005  -0.000  -0.008
    5       -0.001   0.000  -0.289  -0.290
    6        0.000   0.000   0.092   0.092
    7        0.000   0.000   0.092   0.092
    8        0.000   0.000   0.092   0.092
    9        0.000   0.000   0.092   0.092
   10       -0.000   0.001   0.061   0.061
   11       -0.000   0.001   0.061   0.061
   12       -0.001   0.000  -0.316  -0.316
   13       -0.001   0.000  -0.314  -0.315
   14        0.000   0.000   0.092   0.092
   15        0.000   0.000   0.092   0.092
   16        0.000   0.000   0.092   0.092
   17        0.000   0.000   0.092   0.092
   18       -0.000   0.001   0.060   0.061
   19       -0.000   0.001   0.060   0.061
   20       -0.001   0.000  -0.293  -0.293
   21       -0.002  -0.027  -0.000  -0.029
   22       -0.002  -0.027  -0.000  -0.029
   23        0.002   0.010   0.000   0.012
   24        0.002   0.010   0.000   0.012
   25        0.000   0.003   0.000   0.004
   26        0.000   0.003   0.000   0.004
   27        0.000   0.003   0.000   0.004
   28        0.000   0.003   0.000   0.004
   29        0.000   0.003   0.000   0.004
   30        0.000   0.003   0.000   0.004
   31        0.000   0.003   0.000   0.004
   32        0.000   0.003   0.000   0.004
   33        0.002   0.010   0.000   0.012
   34        0.002   0.010   0.000   0.012
   35       -0.002  -0.027  -0.000  -0.029
   36       -0.002  -0.027  -0.000  -0.029
   37        0.002   0.010   0.000   0.012
   38        0.002   0.010   0.000   0.012
   39       -0.002  -0.023  -0.000  -0.025
   40       -0.002  -0.023  -0.000  -0.025
   41        0.000   0.003   0.000   0.003
   42        0.000   0.003   0.000   0.003
   43        0.000   0.003   0.000   0.003
   44        0.000   0.003   0.000   0.003
   45        0.000   0.003   0.000   0.003
   46        0.000   0.003   0.000   0.003
   47        0.000   0.003   0.000   0.003
   48        0.000   0.003   0.000   0.003
   49       -0.002  -0.024  -0.000  -0.026
   50       -0.002  -0.024  -0.000  -0.026
   51        0.002   0.010   0.000   0.012
   52        0.002   0.010   0.000   0.012
tot          -0.01   -0.09   -0.24   -0.33