 vasp.5.4.4.18Apr17-6-g9f103f2a35 (build May 12 2020 05:39:39) gamma-only

 MD_VERSION_INFO: Compiled 2020-05-12T12:39:39-UTC in devlin.sd.materialsdesign.
 com:/home/medea2/data/build/wwolf/vasp-gpu5.4.4/13047/x86_64/src/src/build/gam
 from svn 13047

 executed on                        Lin64 date 2023.03.07  06:38:04

 INCAR:
 POTCAR:    PAW_PBE Li_sv 10Sep2004
 POTCAR:    PAW_PBE Ni 02Aug2007
 POTCAR:    PAW_PBE O 08Apr2002

 POTCAR:    PAW_PBE Li_sv 10Sep2004

 POTCAR:    PAW_PBE Ni 02Aug2007

 POTCAR:    PAW_PBE O 08Apr2002

 Optimization of the real space projectors (new method)

 maximal supplied QI-value         = 22.11
 optimisation between [QCUT,QGAM] = [ 11.28, 22.77] = [ 35.61,145.23] Ry
 Optimized for a Real-space Cutoff    1.10 Angstroem

   l    n(q)    QCUT    max X(q) W(low)/X(q) W(high)/X(q)  e(spline)
   0      7    11.276    10.506    0.54E-04    0.58E-04    0.16E-07
   0      7    11.276     8.367    0.11E-03    0.14E-03    0.35E-07
   1      7    11.276     8.983    0.23E-03    0.43E-03    0.86E-07
 Optimization of the real space projectors (new method)

[...]

   l    n(q)    QCUT    max X(q) W(low)/X(q) W(high)/X(q)  e(spline)
   2      9    11.376    60.317    0.17E-03    0.16E-04    0.16E-06
   2      9    11.376    55.921    0.17E-03    0.16E-04    0.17E-06
   0     10    11.376    51.690    0.45E-04    0.60E-04    0.21E-06
   0     10    11.376    30.015    0.37E-04    0.55E-04    0.19E-06
   1     10    11.376    18.849    0.83E-04    0.11E-03    0.92E-07
   1     10    11.376    14.624    0.69E-04    0.92E-04    0.82E-07
 Optimization of the real space projectors (new method)

 maximal supplied QI-value         = 24.76
 optimisation between [QCUT,QGAM] = [ 11.39, 22.77] = [ 36.31,145.25] Ry
 Optimized for a Real-space Cutoff    1.10 Angstroem

   l    n(q)    QCUT    max X(q) W(low)/X(q) W(high)/X(q)  e(spline)
   0      7    11.387    20.381    0.22E-03    0.48E-03    0.18E-06
   0      7    11.387    15.268    0.22E-03    0.52E-03    0.19E-06
   1      7    11.387     5.964    0.22E-03    0.73E-03    0.24E-06
   1      7    11.387     5.382    0.19E-03    0.60E-03    0.21E-06

  PAW_PBE Li_sv 10Sep2004               :
  PAW_PBE Ni 02Aug2007                  :
  PAW_PBE O 08Apr2002                   :

 POSCAR: ce16318_1
  positions in direct lattice
 exchange correlation table for  LEXCH =       14
   RHO(1)=    0.500       N(1)  =     2000
   RHO(2)=  100.500       N(2)  =     4000

 ion  position               nearest neighbor table
   1  0.202  0.250  0.500-  26 2.00  24 2.04  44 2.11  48 2.13  14 2.79  16 2.83
   2  0.547  0.250  0.249-  35 2.02  47 2.03  52 2.11  38 2.16  19 2.77  12 2.81
   3  0.519  0.751  0.727-  39 1.99  46 2.03  45 2.16  34 2.19  21 2.81  11 2.82
   4  0.983  0.748  0.275-  25 1.99  50 2.03  49 2.14  30 2.20  14 2.81  19 2.82
   5  0.203  0.250  1.000-  40 2.00  42 2.01  32 2.12  28 2.14  22 2.79   8 2.81
   6  0.252  0.750  0.000-  33 2.11  29 2.12  41 2.16  55 2.16  53 2.17  43 2.17
   7  0.544  0.249  0.751-  51 2.02  31 2.02  54 2.15  36 2.21  11 2.78
   8  1.000  0.999  0.999-  33 1.85  35 1.85  34 1.85  32 1.86  42 1.94  43 1.97  13 2.76  13 2.77
                             5 2.81  11 2.81  12 2.82   9 2.82  10 2.83
   9  0.251  0.002  0.250-  38 1.83  43 1.83  55 1.85  26 1.85  49 1.98  32 2.03  12 2.76  12 2.77
                            15 2.81   8 2.82  13 2.83  14 2.84
  10  0.249  1.000  0.749-  27 1.83  42 1.83  39 1.84  54 1.85  48 2.03  33 2.03  11 2.75  11 2.78
                            14 2.81   8 2.83  13 2.83  15 2.84
  11  0.751  0.002  0.751-  39 1.84  27 1.84  42 1.85  54 1.88  51 1.93  34 1.94  10 2.75  10 2.78
                             7 2.78  13 2.81   8 2.81   3 2.82  14 2.82  15 2.85
  12  0.751  1.000  0.249-  38 1.85  55 1.86  43 1.86  26 1.86  50 1.93  35 1.94   9 2.76   9 2.77
                             2 2.81  15 2.82   8 2.82  13 2.82  14 2.83
  13  0.501  0.002  1.000-  34 1.84  35 1.84  32 1.84  33 1.84  55 1.93  54 1.96   8 2.76   8 2.77
                            11 2.81  12 2.82  10 2.83   9 2.83
  14  0.999  0.002  0.501-  49 1.84  50 1.85  51 1.86  48 1.86  27 1.92  26 1.93  15 2.76  15 2.77
                             1 2.79  10 2.81   4 2.81  11 2.82  12 2.83   9 2.84
  15  0.499  0.996  0.497-  48 1.84  51 1.85  50 1.85  49 1.85  39 1.98  38 2.02  14 2.76  14 2.77
                             9 2.81  12 2.82  10 2.84  11 2.85
  16  0.001  0.503  0.501-  45 1.85  46 1.85  47 1.86  44 1.86  24 1.94  25 1.95  21 2.76  21 2.77
                            17 2.81  20 2.82  18 2.82   1 2.83  19 2.83
  17  0.249  0.500  0.750-  24 1.83  53 1.84  41 1.85  36 1.85  45 1.98  28 2.03  20 2.76  20 2.77
                            16 2.81  21 2.82  22 2.82  23 2.85
  18  0.252  0.498  0.251-  52 1.83  25 1.83  37 1.84  40 1.86  29 2.03  44 2.03  19 2.76  19 2.77
                            21 2.82  23 2.82  16 2.82  22 2.85
  19  0.751  0.496  0.249-  25 1.84  37 1.85  52 1.85  40 1.87  30 1.94  47 1.94  18 2.76   2 2.77
                            18 2.77  23 2.80   4 2.82  16 2.83  22 2.83  21 2.83
  20  0.751  0.502  0.751-  24 1.85  53 1.85  41 1.86  36 1.87  46 1.93  31 1.93  17 2.76  17 2.77
                            21 2.81  22 2.82  16 2.82  23 2.85
  21  0.501  0.498  0.500-  44 1.84  45 1.84  46 1.84  47 1.85  37 1.90  36 1.95  16 2.76  16 2.77
                             3 2.81  20 2.81  18 2.82  17 2.82  19 2.83
  22  1.000  0.498  0.999-  29 1.84  30 1.85  31 1.85  28 1.86  40 1.90  41 1.91  23 2.76  23 2.77
                             5 2.79  20 2.82  17 2.82  19 2.83  18 2.85
  23  0.501  0.502  0.003-  28 1.84  31 1.84  30 1.85  29 1.86  52 2.02  53 2.03  22 2.76  22 2.77
                            19 2.80  18 2.82  20 2.85  17 2.85
  24  0.000  0.404  0.638-  17 1.83  20 1.85  16 1.94   1 2.04
  25  0.001  0.596  0.359-  18 1.83  19 1.84  16 1.95   4 1.99
  26  0.001  0.099  0.365-   9 1.85  12 1.86  14 1.93   1 2.00
  27  0.998  0.905  0.637-  10 1.83  11 1.84  14 1.92
  28  0.257  0.397  0.893-  23 1.84  22 1.86  17 2.03   5 2.14
  29  0.244  0.603  0.109-  22 1.84  23 1.86  18 2.03   6 2.12
  30  0.755  0.598  0.114-  23 1.85  22 1.85  19 1.94   4 2.20
  31  0.744  0.403  0.886-  23 1.84  22 1.85  20 1.93   7 2.02
  32  0.252  0.104  0.107-  13 1.84   8 1.86   9 2.03   5 2.12
  33  0.253  0.897  0.893-  13 1.84   8 1.85  10 2.03   6 2.11
  34  0.747  0.902  0.887-  13 1.84   8 1.85  11 1.94   3 2.19
  35  0.751  0.099  0.113-  13 1.84   8 1.85  12 1.94   2 2.02
  36  0.498  0.399  0.638-  17 1.85  20 1.87  21 1.95   7 2.21
  37  0.503  0.593  0.364-  18 1.84  19 1.85  21 1.90
  38  0.500  0.102  0.358-   9 1.83  12 1.85  15 2.02   2 2.16
  39  0.501  0.901  0.642-  11 1.84  10 1.84  15 1.98   3 1.99
  40  0.004  0.401  0.133-  18 1.86  19 1.87  22 1.90   5 2.00
  41  0.004  0.598  0.866-  17 1.85  20 1.86  22 1.91   6 2.16
  42  0.004  0.098  0.863-  10 1.83  11 1.85   8 1.94   5 2.01
  43  0.004  0.900  0.139-   9 1.83  12 1.86   8 1.97   6 2.17
  44  0.251  0.395  0.395-  21 1.84  16 1.86  18 2.03   1 2.11
  45  0.255  0.601  0.610-  21 1.84  16 1.85  17 1.98   3 2.16
  46  0.748  0.599  0.613-  21 1.84  16 1.85  20 1.93   3 2.03
  47  0.751  0.401  0.388-  21 1.85  16 1.86  19 1.94   2 2.03
  48  0.257  0.103  0.606-  15 1.84  14 1.86  10 2.03   1 2.13
  49  0.242  0.900  0.388-  14 1.84  15 1.85   9 1.98   4 2.14
  50  0.754  0.902  0.385-  14 1.85  15 1.85  12 1.93   4 2.03
  51  0.743  0.098  0.613-  15 1.85  14 1.86  11 1.93   7 2.02
  52  0.496  0.395  0.142-  18 1.83  19 1.85  23 2.02   2 2.11
  53  0.497  0.603  0.857-  17 1.84  20 1.85  23 2.03   6 2.17
  54  0.495  0.102  0.862-  10 1.85  11 1.88  13 1.96   7 2.15
  55  0.498  0.903  0.135-   9 1.85  12 1.86  13 1.93   6 2.16

  LATTYP: Found a triclinic cell.
 ALAT       =    11.6705027876
 B/A-ratio  =     0.4738093430
 C/A-ratio  =     0.8444803113
 COS(alpha) =     0.0014316770
 COS(beta)  =     0.2956467611
 COS(gamma) =     0.4726323956

  Lattice vectors:

 A1 = (  -3.5503416289,   5.5228209602,   9.6485314051)
 A2 = (  -0.0038490274,   5.5295892769,  -0.0054047007)
 A3 = (  -9.8549369653,   0.0071464825,  -0.1060202122)

Analysis of symmetry for initial positions (statically):
 Subroutine PRICEL returns:
 Original cell was already a primitive cell.

 Routine SETGRP: Setting up the symmetry group for a
 triclinic supercell.

 Subroutine GETGRP returns: Found  1 space group operations
 (whereof  1 operations were pure point group operations)
 out of a pool of  2 trial point group operations.

The static configuration has the point symmetry C_1 .

Analysis of symmetry for dynamics (positions and initial velocities):
 Subroutine PRICEL returns:
 Original cell was already a primitive cell.

[...]

The dynamic configuration has the point symmetry C_1 .

Analysis of structural, dynamic, and magnetic symmetry:
 Subroutine PRICEL returns:
 Original cell was already a primitive cell.

 Routine SETGRP: Setting up the symmetry group for a
 triclinic supercell.

 Subroutine GETGRP returns: Found  1 space group operations
 (whereof  1 operations were pure point group operations)
 out of a pool of  2 trial point group operations.

The magnetic configuration has the point symmetry C_1 .

 Subroutine INISYM returns: Found  1 space group operations
 (whereof  1 operations are pure point group operations),
 and found     1 'primitive' translations

 KPOINTS: Automatic mesh

Automatic generation of k-mesh.
Space group operators:
 irot       det(A)        alpha          n_x          n_y          n_z        tau_x        tau_y        tau_z
    1     1.000000     0.000000     1.000000     0.000000     0.000000     0.000000     0.000000     0.000000

 Subroutine IBZKPT returns following result:

 Found      1 irreducible k-points:

 Following reciprocal coordinates:
            Coordinates               Weight
  0.000000  0.000000  0.000000      1.000000

 Following cartesian coordinates:
            Coordinates               Weight
  0.000000  0.000000  0.000000      1.000000

 SYSTEM =  unknown system
 POSCAR =  ce16318_1

 Startparameter for this run:
   NWRITE =      1    write-flag & timer
   PREC   = accura    normal or accurate (medium, high low for compatibility)
   ISTART =      0    job   : 0-new  1-cont  2-samecut
   ICHARG =      2    charge: 1-file 2-atom 10-const
   ISPIN  =      2    spin polarized calculation?
   LNONCOLLINEAR =      F non collinear calculations
   LSORBIT =      F    spin-orbit coupling
   INIWAV =      1    electr: 0-lowe 1-rand  2-diag
   LASPH  =      F    aspherical Exc in radial PAW
   METAGGA=      F    non-selfconsistent MetaGGA calc.

 Electronic Relaxation 1
   ENCUT  =  500.0 eV  36.75 Ry    6.06 a.u.  10.08 18.75 17.97*2*pi/ulx,y,z
   ENINI  =  500.0     initial cutoff
   ENAUG  =  628.9 eV  augmentation charge cutoff
   NELM   =     80;   NELMIN=  2; NELMDL= -5     # of ELM steps
   EDIFF  = 0.1E-04   stopping-criterion for ELM
   LREAL  =      T    real-space projection
   NLSPLINE    = F    spline interpolate recip. space projectors
   LCOMPAT=      F    compatible to vasp.4.4
   GGA_COMPAT  = T    GGA compatible to vasp.4.4-vasp.4.6
[...]
   -.365E+00 0.278E+02 0.366E+02   0.150E+00 -.280E+02 -.367E+02   0.207E+00 0.175E+00 0.171E+00   -.152E-02 -.112E-01 -.465E-02
   -.138E+02 -.165E+01 0.111E+02   0.143E+02 0.168E+01 -.112E+02   -.507E+00 0.700E-02 0.158E+00   0.227E-01 -.185E-01 -.588E-03
   0.320E+02 0.210E+02 0.475E+02   -.323E+02 -.212E+02 -.481E+02   0.434E+00 0.208E+00 0.571E+00   -.554E-01 -.203E-02 -.625E-02
   0.121E+02 -.240E+02 0.141E+02   -.123E+02 0.244E+02 -.145E+02   0.240E+00 -.399E+00 0.356E+00   -.664E-01 -.862E-02 -.461E-02
   -.172E+02 0.808E+00 0.385E+02   0.175E+02 -.782E+00 -.388E+02   -.297E+00 -.552E-01 0.319E+00   0.342E-01 0.106E-01 -.108E-01
   0.120E+02 -.269E+02 0.519E+01   -.121E+02 0.270E+02 -.528E+01   0.105E+00 -.703E-01 0.924E-01   -.165E-01 0.380E-03 0.286E-02
   -.353E+02 0.152E+02 0.117E+02   0.358E+02 -.152E+02 -.120E+02   -.531E+00 0.541E-01 0.341E+00   -.186E-01 -.321E-01 -.702E-03
   0.759E+01 -.118E+02 0.920E+02   -.725E+01 0.117E+02 -.930E+02   -.334E+00 0.117E+00 0.974E+00   -.124E-01 0.239E-01 0.607E-03
   0.227E+02 0.130E+02 -.733E+02   -.231E+02 -.131E+02 0.743E+02   0.456E+00 0.119E+00 -.940E+00   0.242E-02 -.198E-01 -.780E-02
   -.378E+01 0.221E+02 -.504E+01   0.376E+01 -.222E+02 0.528E+01   0.148E-01 0.132E+00 -.246E+00   0.107E-01 -.294E-02 0.906E-05
   -.170E+02 -.139E+01 -.512E+02   0.171E+02 0.141E+01 0.517E+02   -.107E+00 -.335E-01 -.410E+00   0.169E-01 0.607E-02 -.178E-02
   0.234E+01 -.301E+00 -.177E+02   -.242E+01 0.387E+00 0.180E+02   0.756E-01 -.763E-01 -.265E+00   0.167E-01 -.186E-03 0.167E-02
   0.688E+00 -.243E+02 -.319E+02   -.580E+00 0.246E+02 0.323E+02   -.113E+00 -.316E+00 -.398E+00   0.852E-02 0.814E-02 0.502E-02
   0.146E+02 -.128E+02 -.270E+02   -.150E+02 0.128E+02 0.274E+02   0.475E+00 -.119E-01 -.383E+00   -.445E-02 0.323E-01 -.169E-01
   0.107E+02 0.265E+02 0.103E+02   -.107E+02 -.267E+02 -.102E+02   -.451E-01 0.241E+00 -.391E-01   0.280E-01 -.252E-01 0.149E-01
   -.269E+02 -.237E+02 -.582E+02   0.271E+02 0.238E+02 0.584E+02   -.211E+00 -.110E+00 -.211E+00   0.304E-01 0.290E-01 0.917E-02
   -.398E+01 0.299E+02 0.352E+03   0.379E+01 -.323E+02 -.372E+03   0.209E+00 0.244E+01 0.205E+02   -.108E-01 -.215E-01 -.546E-03
   -.432E+02 -.402E+01 -.380E+03   0.478E+02 0.418E+01 0.400E+03   -.453E+01 -.138E+00 -.203E+02   -.412E-02 -.262E-01 -.691E-02
   0.103E+02 0.256E+02 -.351E+03   -.114E+02 -.276E+02 0.371E+03   0.109E+01 0.201E+01 -.197E+02   0.272E-01 -.144E-01 -.108E-01
   0.751E+01 0.480E+00 0.404E+03   -.839E+01 -.756E+00 -.430E+03   0.901E+00 0.290E+00 0.258E+02   -.261E-01 -.197E-01 0.705E-02
   0.258E+02 0.148E+02 0.352E+03   -.296E+02 -.155E+02 -.370E+03   0.379E+01 0.703E+00 0.181E+02   0.194E-02 -.108E-01 0.265E-02
   -.510E+02 -.278E+02 -.368E+03   0.562E+02 0.293E+02 0.386E+03   -.518E+01 -.144E+01 -.180E+02   -.183E-02 -.165E-01 -.166E-02
   -.102E+02 0.258E+02 -.381E+03   0.105E+02 -.271E+02 0.403E+03   -.268E+00 0.120E+01 -.219E+02   0.128E-01 0.129E-01 -.125E-01
   -.389E+01 -.192E+02 0.352E+03   0.426E+01 0.207E+02 -.372E+03   -.349E+00 -.147E+01 0.201E+02   -.836E-02 0.128E-01 0.126E-01
   -.347E+02 0.239E+02 -.352E+03   0.394E+02 -.254E+02 0.370E+03   -.475E+01 0.150E+01 -.181E+02   0.202E-01 0.826E-02 0.218E-01
   0.483E+02 0.270E+02 0.370E+03   -.533E+02 -.283E+02 -.388E+03   0.498E+01 0.133E+01 0.181E+02   -.747E-02 0.883E-02 -.222E-01
   0.810E+01 -.275E+02 0.381E+03   -.811E+01 0.290E+02 -.402E+03   0.132E-01 -.153E+01 0.220E+02   -.210E-01 -.629E-02 -.129E-01
   0.184E+01 -.331E+02 -.354E+03   -.227E+01 0.359E+02 0.374E+03   0.391E+00 -.273E+01 -.205E+02   0.291E-01 -.657E-02 0.140E-01
   0.139E+02 -.201E+02 0.354E+03   -.167E+02 0.212E+02 -.372E+03   0.280E+01 -.108E+01 0.186E+02   -.141E-01 0.192E-01 -.212E-02
   0.238E+01 0.603E+00 -.414E+03   -.170E+01 -.438E+00 0.439E+03   -.666E+00 -.183E+00 -.255E+02   -.343E-02 0.225E-01 -.594E-02
   -.434E+02 -.202E+02 -.336E+03   0.490E+02 0.215E+02 0.355E+03   -.565E+01 -.131E+01 -.188E+02   0.246E-01 0.143E-01 -.835E-02
   0.549E+02 0.500E+01 0.381E+03   -.606E+02 -.549E+01 -.401E+03   0.572E+01 0.468E+00 0.200E+02   -.214E-01 0.215E-01 0.700E-02
   -.140E+02 0.263E+02 0.349E+03   0.149E+02 -.283E+02 -.368E+03   -.959E+00 0.201E+01 0.195E+02   -.545E-02 -.226E-01 0.193E-01
   0.129E+02 0.280E+02 -.372E+03   -.130E+02 -.297E+02 0.394E+03   0.154E+00 0.173E+01 -.215E+02   0.686E-02 -.234E-01 -.118E-01
   0.122E+02 0.240E+02 -.348E+03   -.118E+02 -.257E+02 0.368E+03   -.311E+00 0.174E+01 -.204E+02   -.238E-01 -.181E-01 0.672E-02
   0.116E+02 0.290E+02 0.363E+03   -.140E+02 -.309E+02 -.383E+03   0.243E+01 0.187E+01 0.197E+02   0.337E-01 -.143E-01 -.754E-02
   0.371E+02 0.252E+02 0.337E+03   -.422E+02 -.269E+02 -.356E+03   0.509E+01 0.177E+01 0.183E+02   0.160E-02 0.123E-02 0.294E-02
   0.207E+02 0.298E+02 -.394E+03   -.200E+02 -.316E+02 0.415E+03   -.718E+00 0.172E+01 -.216E+02   -.165E-01 -.128E-02 -.363E-02
   0.187E+02 -.351E+02 -.383E+03   -.192E+02 0.374E+02 0.404E+03   0.449E+00 -.234E+01 -.211E+02   -.438E-02 -.125E-02 -.143E-01
   -.758E+01 -.311E+02 0.345E+03   0.842E+01 0.339E+02 -.365E+03   -.822E+00 -.287E+01 0.200E+02   -.126E-01 -.325E-02 0.164E-01
   -.336E+02 0.103E+02 -.336E+03   0.382E+02 -.106E+02 0.353E+03   -.460E+01 0.223E+00 -.176E+02   -.162E-01 0.197E-02 -.155E-01
   -.109E+02 -.320E+02 0.391E+03   0.933E+01 0.341E+02 -.412E+03   0.158E+01 -.211E+01 0.208E+02   0.193E-01 -.621E-03 0.159E-01
   -.132E+02 0.353E+02 0.381E+03   0.134E+02 -.377E+02 -.402E+03   -.198E+00 0.238E+01 0.207E+02   0.108E-01 0.408E-02 0.228E-01
   0.783E+01 -.203E+02 -.345E+03   -.878E+01 0.217E+02 0.364E+03   0.948E+00 -.144E+01 -.198E+02   -.602E-02 0.145E-02 -.258E-01
   0.350E+02 -.159E+02 0.333E+03   -.402E+02 0.166E+02 -.351E+03   0.523E+01 -.745E+00 0.185E+02   0.652E-02 0.205E-01 0.111E-01
   -.279E+02 -.287E+02 -.364E+03   0.318E+02 0.303E+02 0.382E+03   -.381E+01 -.159E+01 -.185E+02   -.596E-02 0.201E-01 -.404E-02
   -.274E+01 -.200E+02 -.348E+03   0.508E+01 0.210E+02 0.367E+03   -.234E+01 -.100E+01 -.189E+02   -.154E-01 0.175E-01 0.244E-02
   -.279E+02 -.262E+02 0.381E+03   0.283E+02 0.277E+02 -.402E+03   -.387E+00 -.160E+01 0.216E+02   0.263E-01 0.159E-01 -.225E-02
   -.254E-01 0.379E+00 -.126E+00   -.497E-13 0.711E-13 0.512E-12   0.306E-01 -.376E+00 0.154E+00   -.811E-02 -.115E-01 -.256E-01

 POSITION                                       TOTAL-FORCE (eV/Angst)
      4.05517      1.05557      2.50855         0.001987     -0.030511      0.000351
      1.58357      3.04658      2.44577        -0.000762      0.019566     -0.003544
      4.51477      2.86234      7.38561        -0.011122      0.008333      0.000499
      0.12824      5.42214      7.30942         0.016692     -0.000812      0.001972
      8.97194      1.09082      2.57940        -0.003125     -0.017164      0.000810
     -2.61576      1.36688      7.28268        -0.000146     -0.001942      0.002258
      6.50293      3.03074      2.54108        -0.006574      0.021732      0.000172
      6.33480      5.49454      9.83867        -0.010021     -0.006764      0.000336
      2.43765      1.37964      0.04760         0.001349      0.019085      0.007877
      3.87117      1.33986      9.82854        -0.007147      0.004372      0.003692
      7.37154      4.14718      0.12608        -0.002889     -0.002826      0.003012
     -1.05585      4.12237      9.73194        -0.002719     -0.018894      0.003210
      9.81852      2.76080      0.16445        -0.004488      0.007992      0.001375
      4.91309      5.52407      0.08875        -0.006839      0.004131     -0.005567
      1.40507      2.73381      9.75211        -0.012331     -0.009623     -0.000554
      3.19237     -0.00999      4.95261         0.007932      0.006346      0.004878
      5.64821      1.36518      4.97283         0.003369      0.004737     -0.002781
      0.73892      1.37720      4.87395         0.012999     -0.003122      0.003470
      0.72587      4.14067      4.84492         0.012392      0.010022      0.006493
      5.64456      4.14024      4.98698         0.003805     -0.000795     -0.000082
      3.19353      2.75992      4.89906         0.015005     -0.003489      0.004971
      8.09900      5.51647      4.98863         0.003095      0.007796     -0.003103
     -1.72181      2.76704      4.88094         0.001006     -0.004817     -0.006584
      4.90768     -0.01443      4.02316         0.011771     -0.000714      0.002884
      1.45133     -0.00996      5.83875         0.005719      0.003711     -0.005657
      3.23431     -0.00148      1.00609        -0.011037     -0.003773     -0.001503
      3.08416      5.49312      8.88999        -0.008824     -0.005166     -0.000390
      7.40086      1.40592      4.01857         0.017275     -0.001776      0.005769
     -1.04505      1.34906      5.87100         0.009241      0.003377      0.002101
     -0.95159      4.17122      5.80593         0.011063      0.002935      0.004019
      7.34157      4.10267      4.05756         0.011614      0.001581      0.004602
      0.65414      1.38770      1.01713        -0.010310     -0.002701      0.001126
      5.66041      1.36012      8.84887        -0.008485     -0.005970     -0.001899
      5.57093      4.09457      8.89213        -0.010433     -0.004764      0.000826
      0.73787      4.15252      0.95303        -0.007320     -0.000405     -0.002632
      4.91242      2.74777      3.97608         0.011865      0.002521      0.004874
      1.51991      2.76712      5.79516         0.009177      0.004869     -0.004001
      3.12216      2.76146      1.03080        -0.012809     -0.001210     -0.009760
      3.18129      2.73601      8.85422        -0.011492     -0.005141      0.000792
     -0.07454      0.01241      3.92411         0.007753     -0.000763     -0.000581
      6.43568      0.00745      5.94603         0.011428      0.004053      0.004503
      8.12787      0.01199      1.08254        -0.013733     -0.003717      0.002190
     -1.76093     -0.00923      8.76362        -0.008421     -0.005157     -0.010595
      2.53269      1.36778      3.89991         0.009680     -0.000702     -0.004621
      3.92774      1.39968      5.90238         0.000166      0.008065     -0.004025
      3.93307      4.12399      5.88861         0.004988      0.003992     -0.001743
      2.43285      4.14324      3.93869         0.007863      0.005754     -0.006653
      5.58065      1.41870      1.09729        -0.013251     -0.003237     -0.000670
      0.68732      1.31194      8.81251        -0.004641     -0.005710      0.001125
      0.64711      4.13932      8.81677        -0.005974     -0.004580     -0.001685
      5.66817      4.11015      1.03549        -0.010818      0.001758      0.002568
      0.03195      2.73123      3.86629         0.009519      0.002900     -0.004505
      6.32564      2.73677      5.98770         0.008406      0.002716      0.003003
      8.12875      2.73453      1.10514        -0.015668     -0.000173     -0.000303
     -1.85541      2.71980      8.79271        -0.005780     -0.005925     -0.002325
    total drift:                               -0.002914     -0.008543      0.002810

  FREE ENERGIE OF THE ION-ELECTRON SYSTEM (eV)
  free  energy   TOTEN  =      -340.3519987652 eV

  energy  without entropy=     -340.3517461819  energy(sigma->0) =     -340.35187247

 d Force = 0.3144673E-03[ 0.254E-03, 0.375E-03]  d Energy = 0.3067483E-03 0.772E-05
 d Force =-0.9976069E-01[-0.101E+00,-0.986E-01]  d Ewald  = 0.5265334E+00-0.626E+00

 Quasi-Newton relaxation of ions (Broydens 2nd method)
  g(Force)  = 0.459E-03   g(Stress)= 0.245E-03

 retain information from N=  1 steps
 eigenvalues of (default step * inverse Hessian matrix)
  average eigenvalue of G=   0.1191
 eigenvalue spectrum of G is  0.1191

volume of typ            1:    10.3 %

[...]

volume of typ            3:     9.8 %

total charge

# of ion       s       p       d       tot
    1        2.070   0.220   0.082   2.372
    2        2.067   0.211   0.078   2.357
    3        2.066   0.206   0.076   2.348
    4        2.064   0.203   0.075   2.342
    5        2.071   0.217   0.082   2.369
    6        2.064   0.202   0.074   2.340
    7        2.064   0.198   0.074   2.335
    8        0.282   0.390   7.846   8.519
    9        0.286   0.393   7.864   8.542
   10        0.283   0.387   7.859   8.529
   11        0.290   0.405   7.849   8.543
   12        0.285   0.394   7.841   8.521
   13        0.298   0.423   7.845   8.566
   14        0.296   0.417   7.839   8.552
   15        0.279   0.382   7.846   8.507
   16        0.282   0.391   7.838   8.510
   17        0.290   0.403   7.859   8.551
   18        0.283   0.386   7.861   8.530
   19        0.290   0.404   7.848   8.542
   20        0.285   0.396   7.843   8.525
   21        0.297   0.420   7.844   8.562
   22        0.294   0.414   7.842   8.550
   23        0.279   0.380   7.858   8.517
   24        1.269   2.768   0.008   4.045
   25        1.269   2.770   0.008   4.047
   26        1.268   2.770   0.007   4.046
   27        1.280   2.735   0.008   4.023
   28        1.267   2.770   0.007   4.044
   29        1.268   2.767   0.007   4.041
   30        1.273   2.754   0.008   4.034
   31        1.268   2.771   0.007   4.046
   32        1.267   2.771   0.007   4.045
   33        1.269   2.766   0.007   4.042
   34        1.273   2.754   0.007   4.034
   35        1.269   2.768   0.007   4.044
   36        1.267   2.770   0.007   4.044
   37        1.281   2.732   0.008   4.021
   38        1.267   2.770   0.007   4.044
   39        1.270   2.766   0.007   4.044
   40        1.267   2.773   0.007   4.048
   41        1.272   2.759   0.008   4.038
   42        1.268   2.773   0.008   4.048
   43        1.267   2.770   0.007   4.044
   44        1.268   2.769   0.007   4.043
   45        1.274   2.753   0.007   4.034
   46        1.271   2.764   0.008   4.042
   47        1.270   2.766   0.007   4.043
   48        1.266   2.771   0.007   4.044
   49        1.272   2.756   0.007   4.036
   50        1.270   2.763   0.007   4.041
   51        1.268   2.770   0.007   4.045
   52        1.266   2.774   0.007   4.046
   53        1.268   2.766   0.007   4.041
   54        1.265   2.774   0.007   4.046
   55        1.272   2.757   0.008   4.036
tot          59.69   96.30  126.36  282.34

magnetization (x)

# of ion       s       p       d       tot
    1        0.004   0.007   0.001   0.012
    2        0.003   0.007   0.000   0.010
    3        0.003   0.006   0.000   0.009
    4        0.003   0.005  -0.000   0.007
    5       -0.000   0.001   0.000   0.001
    6        0.004   0.007   0.001   0.012
    7       -0.004  -0.001  -0.000  -0.004
    8       -0.000   0.000   0.196   0.196
    9        0.002  -0.000   0.485   0.486
   10        0.004  -0.000   0.533   0.537
   11        0.000  -0.000   0.156   0.156
   12        0.000  -0.000   0.179   0.179
   13       -0.001   0.000  -0.152  -0.153
   14       -0.001   0.000  -0.103  -0.104
   15        0.002   0.000   0.411   0.413
   16        0.000  -0.000   0.197   0.197
   17       -0.001  -0.000  -0.387  -0.388
   18        0.004  -0.000   0.514   0.518
   19       -0.000  -0.000  -0.159  -0.160
   20       -0.000  -0.000   0.123   0.123
   21       -0.000  -0.000  -0.160  -0.160
   22       -0.000  -0.000  -0.127  -0.127
   23        0.003  -0.000   0.428   0.430
   24        0.001   0.015   0.000   0.016
   25        0.002   0.018   0.000   0.021
   26        0.002   0.008   0.000   0.009
   27        0.000  -0.001   0.000  -0.001
   28       -0.004  -0.026  -0.000  -0.030
   29        0.006   0.063   0.000   0.069
   30       -0.002  -0.016  -0.000  -0.017
   31        0.002   0.019   0.000   0.021
   32        0.005   0.046   0.000   0.051
   33        0.006   0.061   0.000   0.067
   34        0.001   0.010   0.000   0.011
   35        0.001   0.007   0.000   0.009
   36       -0.003  -0.020  -0.000  -0.022
   37       -0.002  -0.009  -0.000  -0.011
   38        0.005   0.040   0.000   0.045
   39        0.006   0.051   0.000   0.057
   40       -0.001  -0.002  -0.000  -0.004
   41       -0.002  -0.022  -0.000  -0.024
   42        0.003   0.027   0.000   0.030
   43        0.003   0.012   0.000   0.016
   44        0.005   0.058   0.000   0.063
   45       -0.004  -0.051  -0.000  -0.055
   46        0.001   0.011   0.000   0.012
   47       -0.001  -0.011  -0.000  -0.013
   48        0.006   0.066   0.000   0.072
   49        0.005   0.077   0.000   0.083
   50        0.002   0.014   0.000   0.016
   51        0.002   0.015   0.000   0.017
   52        0.004   0.051   0.000   0.055
   53        0.003   0.037   0.000   0.040
   54       -0.000  -0.004  -0.000  -0.005
   55        0.001  -0.004   0.000  -0.003
tot           0.08    0.57    2.14    2.79