 vasp.5.4.4.18Apr17-6-g9f103f2a35 (build May 12 2020 05:39:39) gamma-only

 MD_VERSION_INFO: Compiled 2020-05-12T12:39:39-UTC in devlin.sd.materialsdesign.
 com:/home/medea2/data/build/wwolf/vasp-gpu5.4.4/13047/x86_64/src/src/build/gam
 from svn 13047

 executed on                        Lin64 date 2023.03.07  07:21:27

 INCAR:
 POTCAR:    PAW_PBE Li_sv 10Sep2004
 POTCAR:    PAW_PBE Ni 02Aug2007
 POTCAR:    PAW_PBE O 08Apr2002

 POTCAR:    PAW_PBE Li_sv 10Sep2004

 POTCAR:    PAW_PBE Ni 02Aug2007

 POTCAR:    PAW_PBE O 08Apr2002

 Optimization of the real space projectors (new method)

 maximal supplied QI-value         = 22.11
 optimisation between [QCUT,QGAM] = [ 11.28, 22.77] = [ 35.61,145.23] Ry
 Optimized for a Real-space Cutoff    1.10 Angstroem

   l    n(q)    QCUT    max X(q) W(low)/X(q) W(high)/X(q)  e(spline)
   0      7    11.276    10.506    0.54E-04    0.58E-04    0.16E-07
   0      7    11.276     8.367    0.11E-03    0.14E-03    0.35E-07
   1      7    11.276     8.983    0.23E-03    0.43E-03    0.86E-07
 Optimization of the real space projectors (new method)

[...]

   l    n(q)    QCUT    max X(q) W(low)/X(q) W(high)/X(q)  e(spline)
   2      9    11.376    60.317    0.17E-03    0.16E-04    0.16E-06
   2      9    11.376    55.921    0.17E-03    0.16E-04    0.17E-06
   0     10    11.376    51.690    0.45E-04    0.60E-04    0.21E-06
   0     10    11.376    30.015    0.37E-04    0.55E-04    0.19E-06
   1     10    11.376    18.849    0.83E-04    0.11E-03    0.92E-07
   1     10    11.376    14.624    0.69E-04    0.92E-04    0.82E-07
 Optimization of the real space projectors (new method)

 maximal supplied QI-value         = 24.76
 optimisation between [QCUT,QGAM] = [ 11.39, 22.77] = [ 36.31,145.25] Ry
 Optimized for a Real-space Cutoff    1.10 Angstroem

   l    n(q)    QCUT    max X(q) W(low)/X(q) W(high)/X(q)  e(spline)
   0      7    11.387    20.381    0.22E-03    0.48E-03    0.18E-06
   0      7    11.387    15.268    0.22E-03    0.52E-03    0.19E-06
   1      7    11.387     5.964    0.22E-03    0.73E-03    0.24E-06
   1      7    11.387     5.382    0.19E-03    0.60E-03    0.21E-06

  PAW_PBE Li_sv 10Sep2004               :
  PAW_PBE Ni 02Aug2007                  :
  PAW_PBE O 08Apr2002                   :

 POSCAR: ce1860_1
  positions in direct lattice
 exchange correlation table for  LEXCH =       14
   RHO(1)=    0.500       N(1)  =     2000
   RHO(2)=  100.500       N(2)  =     4000

 ion  position               nearest neighbor table
   1  0.948  0.249  0.249-  36 2.01  48 2.03  27 2.11  41 2.11  13 2.77  20 2.78
   2  0.948  0.751  0.751-  35 2.01  47 2.03  28 2.11  42 2.11  12 2.77  21 2.78
   3  0.249  0.249  0.499-  49 2.09  45 2.10  27 2.16  25 2.17  39 2.17  37 2.18
   4  0.249  0.751  0.501-  50 2.09  46 2.10  28 2.16  26 2.17  40 2.17  38 2.18
   5  0.252  0.249  1.000-  33 2.10  29 2.10  55 2.15  53 2.16  43 2.17  41 2.18
   6  0.252  0.751  0.000-  34 2.10  30 2.10  56 2.15  54 2.16  44 2.17  42 2.18
   7  0.552  0.249  0.750-  52 2.01  32 2.02  55 2.09  37 2.13  12 2.76  21 2.79
   8  0.552  0.751  0.250-  51 2.01  31 2.02  56 2.09  38 2.13  13 2.76  20 2.79
   9  0.998  0.000  0.000-  33 1.84  34 1.84  35 1.85  36 1.85  43 1.91  44 1.91  14 2.76  14 2.77
                            13 2.83  12 2.83  11 2.85  10 2.85
  10  0.250  1.000  0.250-  27 1.84  56 1.84  39 1.85  44 1.85  50 2.04  33 2.04  13 2.76  13 2.76
                            15 2.83  14 2.84  16 2.84   9 2.85
  11  0.250  0.000  0.750-  28 1.84  55 1.84  40 1.85  43 1.85  49 2.04  34 2.04  12 2.76  12 2.76
                            15 2.83  14 2.84  16 2.84   9 2.85
  12  0.750  0.000  0.750-  55 1.86  28 1.86  43 1.87  40 1.87  35 1.94  52 1.95  11 2.76  11 2.76
                             7 2.76   2 2.77   9 2.83  16 2.83  14 2.84  15 2.84
  13  0.750  1.000  0.250-  56 1.86  27 1.86  44 1.87  39 1.87  36 1.94  51 1.95  10 2.76  10 2.76
                             8 2.76   1 2.77   9 2.83  16 2.83  14 2.84  15 2.84
  14  0.499  0.000  0.000-  35 1.85  36 1.85  33 1.85  34 1.85  55 2.05  56 2.05   9 2.76   9 2.77
                            11 2.84  10 2.84  13 2.84  12 2.84
  15  0.001  0.000  0.500-  51 1.84  52 1.84  49 1.85  50 1.85  27 2.05  28 2.05  16 2.75  16 2.77
                            11 2.83  10 2.83  13 2.84  12 2.84
  16  0.503  0.000  0.500-  49 1.85  50 1.85  51 1.85  52 1.85  39 1.90  40 1.90  15 2.75  15 2.77
                            12 2.83  13 2.83  10 2.84  11 2.84
  17  0.999  0.500  0.500-  45 1.84  46 1.84  47 1.85  48 1.85  25 1.91  26 1.91  22 2.76  22 2.77
                            21 2.83  20 2.83  19 2.84  18 2.84
  18  0.250  0.500  0.750-  42 1.83  37 1.83  25 1.85  54 1.85  29 2.04  46 2.04  21 2.76  21 2.76
                            22 2.84  23 2.84  17 2.84  24 2.84
  19  0.250  0.500  0.250-  41 1.83  38 1.83  26 1.85  53 1.85  30 2.04  45 2.04  20 2.76  20 2.76
                            22 2.84  23 2.84  17 2.84  24 2.84
  20  0.750  0.500  0.250-  41 1.86  38 1.86  26 1.87  53 1.87  48 1.93  31 1.94  19 2.76  19 2.76
                             1 2.78   8 2.79  17 2.83  24 2.83  22 2.84  23 2.84
  21  0.750  0.500  0.750-  42 1.86  37 1.86  25 1.87  54 1.87  47 1.93  32 1.94  18 2.76  18 2.76
                             2 2.78   7 2.79  17 2.83  24 2.83  22 2.84  23 2.84
  22  0.500  0.500  0.500-  47 1.85  48 1.85  45 1.85  46 1.85  37 2.04  38 2.04  17 2.76  17 2.77
                            19 2.84  18 2.84  21 2.84  20 2.84
  23  0.001  0.500  0.000-  31 1.85  32 1.85  29 1.85  30 1.85  41 2.05  42 2.05  24 2.75  24 2.77
                            19 2.84  18 2.84  21 2.84  20 2.84
  24  0.502  0.500  0.000-  29 1.84  30 1.84  31 1.85  32 1.85  53 1.91  54 1.91  23 2.75  23 2.77
                            20 2.83  21 2.83  18 2.84  19 2.84
  25  0.002  0.402  0.634-  18 1.85  21 1.87  17 1.91   3 2.17
  26  0.002  0.598  0.366-  19 1.85  20 1.87  17 1.91   4 2.17
  27  0.003  0.104  0.356-  10 1.84  13 1.86  15 2.05   1 2.11   3 2.16
  28  0.003  0.896  0.644-  11 1.84  12 1.86  15 2.05   2 2.11   4 2.16
  29  0.252  0.396  0.893-  24 1.84  23 1.85  18 2.04   5 2.10
  30  0.252  0.604  0.107-  24 1.84  23 1.85  19 2.04   6 2.10
  31  0.751  0.598  0.113-  24 1.85  23 1.85  20 1.94   8 2.02
  32  0.751  0.402  0.887-  24 1.85  23 1.85  21 1.94   7 2.02
  33  0.248  0.104  0.107-   9 1.84  14 1.85  10 2.04   5 2.10
  34  0.248  0.896  0.893-   9 1.84  14 1.85  11 2.04   6 2.10
  35  0.749  0.902  0.887-   9 1.85  14 1.85  12 1.94   2 2.01
  36  0.749  0.098  0.113-   9 1.85  14 1.85  13 1.94   1 2.01
  37  0.498  0.396  0.644-  18 1.83  21 1.86  22 2.04   7 2.13   3 2.18
  38  0.498  0.604  0.356-  19 1.83  20 1.86  22 2.04   8 2.13   4 2.18
  39  0.498  0.097  0.366-  10 1.85  13 1.87  16 1.90   3 2.17
  40  0.498  0.903  0.634-  11 1.85  12 1.87  16 1.90   4 2.17
  41  0.003  0.396  0.144-  19 1.83  20 1.86  23 2.05   1 2.11   5 2.18
  42  0.003  0.604  0.856-  18 1.83  21 1.86  23 2.05   2 2.11   6 2.18
  43  0.002  0.098  0.866-  11 1.85  12 1.87   9 1.91   5 2.17
  44  0.002  0.902  0.134-  10 1.85  13 1.87   9 1.91   6 2.17
  45  0.248  0.396  0.394-  17 1.84  22 1.85  19 2.04   3 2.10
  46  0.248  0.604  0.606-  17 1.84  22 1.85  18 2.04   4 2.10
  47  0.749  0.598  0.613-  17 1.85  22 1.85  21 1.93   2 2.03
  48  0.749  0.402  0.387-  17 1.85  22 1.85  20 1.93   1 2.03
  49  0.253  0.104  0.606-  16 1.85  15 1.85  11 2.04   3 2.09
  50  0.253  0.896  0.394-  16 1.85  15 1.85  10 2.04   4 2.09
  51  0.752  0.901  0.388-  15 1.84  16 1.85  13 1.95   8 2.01
  52  0.752  0.099  0.612-  15 1.84  16 1.85  12 1.95   7 2.01
  53  0.498  0.402  0.134-  19 1.85  20 1.87  24 1.91   5 2.16
  54  0.498  0.598  0.866-  18 1.85  21 1.87  24 1.91   6 2.16
  55  0.498  0.105  0.856-  11 1.84  12 1.86  14 2.05   7 2.09   5 2.15
  56  0.498  0.895  0.144-  10 1.84  13 1.86  14 2.05   8 2.09   6 2.15

  LATTYP: Found a simple monoclinic cell.
 ALAT       =    11.6336144722
 B/A-ratio  =     0.4748354635
 C/A-ratio  =     1.6777858758
 COS(beta)  =    -0.9071608451

  Lattice vectors:

 A1 = (  -6.3832898694,   0.0000000000,  -9.7259753305)
 A2 = (   0.0000000000,  -5.5240527205,   0.0000000000)
 A3 = (   2.8491077977,   0.0000000000,  19.3096551693)

Analysis of symmetry for initial positions (statically):
 Subroutine PRICEL returns:
 Original cell was already a primitive cell.

 Routine SETGRP: Setting up the symmetry group for a
 simple monoclinic supercell.

 Subroutine GETGRP returns: Found  2 space group operations
 (whereof  2 operations were pure point group operations)
 out of a pool of  4 trial point group operations.

The static configuration has the point symmetry C_2 .

Analysis of symmetry for dynamics (positions and initial velocities):
 Subroutine PRICEL returns:
 Original cell was already a primitive cell.

[...]

The dynamic configuration has the point symmetry C_2 .

Analysis of structural, dynamic, and magnetic symmetry:
 Subroutine PRICEL returns:
 Original cell was already a primitive cell.

 Routine SETGRP: Setting up the symmetry group for a
 simple monoclinic supercell.

 Subroutine GETGRP returns: Found  2 space group operations
 (whereof  2 operations were pure point group operations)
 out of a pool of  4 trial point group operations.

The magnetic configuration has the point symmetry C_2 .

 Subroutine INISYM returns: Found  2 space group operations
 (whereof  2 operations are pure point group operations),
 and found     1 'primitive' translations

 KPOINTS: Automatic mesh

Automatic generation of k-mesh.
Space group operators:
 irot       det(A)        alpha          n_x          n_y          n_z        tau_x        tau_y        tau_z
    1     1.000000     0.000001     1.000000     0.000000     0.000000     0.000000     0.000000     0.000000
    2     1.000000   180.000000     0.000000     1.000000     0.000000     0.000000     0.000000     0.000000

 Subroutine IBZKPT returns following result:

 Found      1 irreducible k-points:

 Following reciprocal coordinates:
            Coordinates               Weight
  0.000000  0.000000  0.000000      1.000000

 Following cartesian coordinates:
            Coordinates               Weight
  0.000000  0.000000  0.000000      1.000000

 SYSTEM =  unknown system
 POSCAR =  ce1860_1

 Startparameter for this run:
   NWRITE =      1    write-flag & timer
   PREC   = accura    normal or accurate (medium, high low for compatibility)
   ISTART =      0    job   : 0-new  1-cont  2-samecut
   ICHARG =      2    charge: 1-file 2-atom 10-const
   ISPIN  =      2    spin polarized calculation?
   LNONCOLLINEAR =      F non collinear calculations
   LSORBIT =      F    spin-orbit coupling
   INIWAV =      1    electr: 0-lowe 1-rand  2-diag
   LASPH  =      F    aspherical Exc in radial PAW
   METAGGA=      F    non-selfconsistent MetaGGA calc.

 Electronic Relaxation 1
   ENCUT  =  500.0 eV  36.75 Ry    6.06 a.u.  10.07 18.62 18.08*2*pi/ulx,y,z
   ENINI  =  500.0     initial cutoff
   ENAUG  =  628.9 eV  augmentation charge cutoff
   NELM   =     80;   NELMIN=  2; NELMDL= -5     # of ELM steps
   EDIFF  = 0.1E-04   stopping-criterion for ELM
[...]
   -.692E-01 -.248E+00 -.405E+00   0.344E-01 0.245E+00 0.400E+00   0.901E-02 -.243E-02 -.117E-01   0.246E-01 0.502E-02 0.150E-01
   -.617E-01 0.197E+00 -.256E+00   -.789E-02 -.188E+00 0.255E+00   0.451E-01 -.343E-02 -.161E-01   0.246E-01 -.522E-02 0.152E-01
   0.617E-01 0.197E+00 0.256E+00   0.789E-02 -.188E+00 -.255E+00   -.451E-01 -.343E-02 0.161E-01   -.246E-01 -.522E-02 -.152E-01
   0.460E-06 -.248E+02 -.104E-06   -.824E-12 0.250E+02 -.568E-12   0.000E+00 -.216E+00 0.517E-25   0.476E-11 0.375E-02 -.472E-11
   0.392E-05 0.250E+02 -.895E-06   0.341E-12 -.253E+02 0.407E-11   0.505E-26 0.237E+00 0.106E-25   0.254E-11 -.575E-02 0.247E-11
   0.128E-04 -.285E+02 -.293E-05   -.185E-12 0.287E+02 0.388E-11   0.000E+00 -.184E+00 0.000E+00   0.103E-11 -.125E-03 0.338E-11
   -.658E-05 0.281E+02 0.148E-05   -.249E-10 -.283E+02 0.269E-10   -.103E-24 0.175E+00 0.113E-24   0.287E-11 0.246E-02 -.547E-12
   -.319E+00 -.214E-01 -.177E+00   0.246E+00 0.555E-01 0.159E+00   -.137E-01 0.111E-02 0.186E-02   0.871E-01 -.347E-01 0.144E-01
   0.319E+00 -.214E-01 0.177E+00   -.246E+00 0.555E-01 -.159E+00   0.137E-01 0.111E-02 -.186E-02   -.871E-01 -.347E-01 -.144E-01
   0.455E+00 0.140E+00 0.343E+00   -.381E+00 -.169E+00 -.335E+00   0.174E-01 -.749E-02 0.575E-02   -.927E-01 0.351E-01 -.120E-01
   -.455E+00 0.140E+00 -.343E+00   0.381E+00 -.169E+00 0.335E+00   -.174E-01 -.749E-02 -.575E-02   0.927E-01 0.351E-01 0.120E-01
   0.382E-05 -.251E+02 -.861E-06   -.620E-12 0.253E+02 0.617E-11   0.000E+00 -.198E+00 0.000E+00   0.711E-11 -.118E-02 -.128E-11
   0.124E-05 0.251E+02 -.279E-06   -.644E-11 -.253E+02 -.231E-11   0.000E+00 0.210E+00 -.646E-26   -.793E-11 -.823E-02 0.364E-12
   0.113E-04 -.282E+02 -.253E-05   -.310E-11 0.284E+02 -.109E-11   0.000E+00 -.175E+00 0.000E+00   -.111E-10 0.650E-02 -.931E-12
   -.235E+02 0.257E+02 0.366E+03   0.245E+02 -.276E+02 -.387E+03   -.106E+01 0.191E+01 0.212E+02   0.319E-01 0.164E-02 -.119E-02
   0.235E+02 0.257E+02 -.366E+03   -.245E+02 -.276E+02 0.387E+03   0.106E+01 0.191E+01 -.212E+02   -.319E-01 0.164E-02 0.119E-02
   -.456E+02 0.220E+02 -.335E+03   0.512E+02 -.235E+02 0.353E+03   -.555E+01 0.151E+01 -.173E+02   -.173E-01 0.168E-02 -.640E-02
   0.456E+02 0.220E+02 0.335E+03   -.512E+02 -.235E+02 -.353E+03   0.555E+01 0.151E+01 0.173E+02   0.173E-01 0.168E-02 0.640E-02
   0.352E+02 0.342E+02 0.351E+03   -.406E+02 -.359E+02 -.369E+03   0.535E+01 0.174E+01 0.180E+02   0.307E-01 -.335E-01 0.321E-01
   -.352E+02 0.342E+02 -.351E+03   0.406E+02 -.359E+02 0.369E+03   -.535E+01 0.174E+01 -.180E+02   -.307E-01 -.335E-01 -.321E-01
   0.399E+01 -.387E+02 -.353E+03   -.425E+01 0.412E+02 0.373E+03   0.286E+00 -.254E+01 -.200E+02   -.361E-01 0.345E-01 -.330E-01
   -.399E+01 -.387E+02 0.353E+03   0.425E+01 0.412E+02 -.373E+03   -.286E+00 -.254E+01 0.200E+02   0.361E-01 0.345E-01 0.330E-01
   -.353E+02 -.345E+02 -.351E+03   0.408E+02 0.362E+02 0.369E+03   -.546E+01 -.166E+01 -.182E+02   -.106E-01 0.482E-02 -.705E-02
   0.353E+02 -.345E+02 0.351E+03   -.408E+02 0.362E+02 -.369E+03   0.546E+01 -.166E+01 0.182E+02   0.106E-01 0.482E-02 0.705E-02
   -.460E+01 0.393E+02 0.352E+03   0.490E+01 -.418E+02 -.372E+03   -.302E+00 0.256E+01 0.202E+02   0.140E-01 -.564E-02 0.788E-02
   0.460E+01 0.393E+02 -.352E+03   -.490E+01 -.418E+02 0.372E+03   0.302E+00 0.256E+01 -.202E+02   -.140E-01 -.564E-02 -.788E-02
   0.442E+02 -.217E+02 0.338E+03   -.496E+02 0.231E+02 -.356E+03   0.539E+01 -.141E+01 0.179E+02   0.599E-01 -.239E-02 -.201E-01
   -.442E+02 -.217E+02 -.338E+03   0.496E+02 0.231E+02 0.356E+03   -.539E+01 -.141E+01 -.179E+02   -.599E-01 -.239E-02 0.201E-01
   0.236E+02 -.255E+02 -.366E+03   -.247E+02 0.274E+02 0.387E+03   0.112E+01 -.190E+01 -.212E+02   -.694E-02 -.120E-02 -.131E-01
   -.236E+02 -.255E+02 0.366E+03   0.247E+02 0.274E+02 -.387E+03   -.112E+01 -.190E+01 0.212E+02   0.694E-02 -.120E-02 0.131E-01
   0.452E+02 0.217E+02 0.337E+03   -.506E+02 -.231E+02 -.355E+03   0.547E+01 0.144E+01 0.178E+02   -.627E-01 0.524E-03 0.163E-01
   -.452E+02 0.217E+02 -.337E+03   0.506E+02 -.231E+02 0.355E+03   -.547E+01 0.144E+01 -.178E+02   0.627E-01 0.524E-03 -.163E-01
   0.234E+02 0.255E+02 -.366E+03   -.245E+02 -.274E+02 0.387E+03   0.110E+01 0.186E+01 -.212E+02   0.104E-01 0.793E-03 0.124E-01
   -.234E+02 0.255E+02 0.366E+03   0.245E+02 -.274E+02 -.387E+03   -.110E+01 0.186E+01 0.212E+02   -.104E-01 0.793E-03 -.124E-01
   0.350E+02 -.340E+02 0.352E+03   -.403E+02 0.358E+02 -.370E+03   0.533E+01 -.177E+01 0.180E+02   -.332E-01 -.378E-01 -.350E-01
   -.350E+02 -.340E+02 -.352E+03   0.403E+02 0.358E+02 0.370E+03   -.533E+01 -.177E+01 -.180E+02   0.332E-01 -.378E-01 0.350E-01
   0.446E+01 0.385E+02 -.353E+03   -.484E+01 -.411E+02 0.373E+03   0.338E+00 0.251E+01 -.200E+02   0.338E-01 0.368E-01 0.357E-01
   -.446E+01 0.385E+02 0.353E+03   0.484E+01 -.411E+02 -.373E+03   -.338E+00 0.251E+01 0.200E+02   -.338E-01 0.368E-01 -.357E-01
   -.346E+02 0.343E+02 -.351E+03   0.400E+02 -.360E+02 0.369E+03   -.538E+01 0.167E+01 -.182E+02   0.164E-01 0.924E-02 0.535E-02
   0.346E+02 0.343E+02 0.351E+03   -.400E+02 -.360E+02 -.369E+03   0.538E+01 0.167E+01 0.182E+02   -.164E-01 0.924E-02 -.535E-02
   -.525E+01 -.391E+02 0.352E+03   0.551E+01 0.417E+02 -.372E+03   -.238E+00 -.258E+01 0.201E+02   -.133E-01 -.744E-02 -.651E-02
   0.525E+01 -.391E+02 -.352E+03   -.551E+01 0.417E+02 0.372E+03   0.238E+00 -.258E+01 -.201E+02   0.133E-01 -.744E-02 0.651E-02
   -.228E+02 -.258E+02 0.365E+03   0.239E+02 0.277E+02 -.386E+03   -.102E+01 -.190E+01 0.211E+02   -.373E-01 -.423E-03 -.140E-02
   0.228E+02 -.258E+02 -.365E+03   -.239E+02 0.277E+02 0.386E+03   0.102E+01 -.190E+01 -.211E+02   0.373E-01 -.423E-03 0.140E-02
   -.459E+02 -.219E+02 -.335E+03   0.514E+02 0.233E+02 0.352E+03   -.552E+01 -.145E+01 -.174E+02   0.120E-01 -.203E-02 0.653E-02
   0.459E+02 -.219E+02 0.335E+03   -.514E+02 0.233E+02 -.352E+03   0.552E+01 -.145E+01 0.174E+02   -.120E-01 -.203E-02 -.653E-02
   0.347E-04 0.202E-01 -.524E-05   -.234E-12 -.462E-13 0.227E-12   0.000E+00 -.276E-01 0.107E-13   0.577E-11 -.874E-02 -.861E-11

 POSITION                                       TOTAL-FORCE (eV/Angst)
      1.60597      5.21532      2.44629         0.000897     -0.024970      0.004057
      4.80615      5.21532      7.37838        -0.000897     -0.024970     -0.004057
      4.08020      1.36829      2.49134         0.003130      0.000089      0.005253
      2.33192      1.36829      7.33333        -0.003130      0.000089     -0.005253
      9.04283      1.39698      2.57754         0.000709      0.000632      0.003042
     -2.63071      1.39698      7.24712        -0.000709      0.000632     -0.003042
      6.56750      3.07087      2.53316        -0.001856      0.026552      0.002549
     -0.15538      3.07087      7.29150         0.001856      0.026552     -0.002549
     -0.00000      5.51441      0.00000         0.000000     -0.002407     -0.000000
     -1.03041      1.38153      9.69631         0.001145      0.000241      0.000949
      7.44253      1.38153      0.12835        -0.001145      0.000241     -0.000949
      7.44454      4.14245      0.12796         0.000188      0.000149     -0.001455
     -1.03243      4.14245      9.69670        -0.000188      0.000149      0.001455
     -0.00000      2.76118      0.00000         0.000000      0.001149     -0.000000
      4.96213      0.00315      0.08428         0.000000      0.001025     -0.000000
      4.96213      2.77153      0.08428         0.000000     -0.004178     -0.000000
      3.20606      5.51659      4.91233         0.000000     -0.001568     -0.000000
      5.68660      1.38155      4.95582        -0.000132      0.000794     -0.001610
      0.72551      1.38155      4.86885         0.000132      0.000794      0.001610
      0.72587      4.14245      4.86856        -0.001608     -0.000567      0.001542
      5.68625      4.14245      4.95611         0.001608     -0.000567     -0.001542
      3.20606      2.76374      4.91233        -0.000000      0.002419     -0.000000
     -1.75607      0.00097      4.82805         0.000000      0.000221     -0.000000
     -1.75607      2.76992      4.82805         0.000000     -0.000060     -0.000000
      4.85668      0.01541      4.00024         0.000567      0.000618      0.001257
      1.55544      0.01541      5.82442        -0.000567      0.000618     -0.001257
      3.10555      0.01544      1.07686         0.000103     -0.000529     -0.002330
      3.30657      0.01544      8.74780        -0.000103     -0.000529      0.002330
      7.48020      1.38535      3.99293         0.004388     -0.002642      0.004330
     -1.06808      1.38535      5.83173        -0.004388     -0.002642     -0.004330
     -0.98139      4.15151      5.77984        -0.006712     -0.000475     -0.001180
      7.39350      4.15151      4.04482         0.006712     -0.000475      0.001180
      0.68660      1.37719      1.00556        -0.004461      0.002077     -0.002453
      5.72552      1.37719      8.81910         0.004461      0.002077      0.002453
      5.63899      4.13154      8.87146         0.004507      0.002623      0.001882
      0.77313      4.13154      0.95320        -0.004507      0.002623     -0.001882
      5.05368      2.74725      3.93049         0.015611      0.000579     -0.002172
      1.35844      2.74725      5.89417        -0.015611      0.000579      0.002172
      3.31365      2.74862      0.99361        -0.002789     -0.000834     -0.002017
      3.09847      2.74862      8.83105         0.002789     -0.000834      0.002017
      0.09419      0.01600      3.84262         0.008197     -0.000072      0.000639
      6.31793      0.01600      5.98204        -0.008197     -0.000072     -0.000639
      8.27703      0.01571      1.08097        -0.003876      0.001336     -0.004650
     -1.86491      0.01571      8.74370         0.003876      0.001336      0.004650
      2.52053      1.37927      3.90691         0.002150      0.002575      0.005037
      3.89158      1.37927      5.91775        -0.002150      0.002575     -0.005037
      3.97845      4.13511      5.86652        -0.003994     -0.000601     -0.004501
      2.43367      4.13511      3.95814         0.003994     -0.000601      0.004501
      5.64746      1.38720      1.09190        -0.004211     -0.002501     -0.003559
      0.76466      1.38720      8.73276         0.004211     -0.002501      0.003559
      0.67594      4.15442      8.78735         0.002988     -0.002833      0.002126
      5.73617      4.15442      1.03731        -0.002988     -0.002833     -0.002126
     -0.10531      2.74773      3.91391         0.000422     -0.000981      0.002457
      6.51743      2.74773      5.91076        -0.000422     -0.000981     -0.002457
      8.06663      2.74772      1.16672        -0.001330      0.000442     -0.005028
     -1.65452      2.74772      8.65794         0.001330      0.000442      0.005028
    total drift:                                0.000035     -0.016118     -0.000005

  FREE ENERGIE OF THE ION-ELECTRON SYSTEM (eV)
  free  energy   TOTEN  =      -345.4680207172 eV

  energy  without entropy=     -345.4661026063  energy(sigma->0) =     -345.46706166

 d Force = 0.1710491E-03[ 0.167E-03, 0.175E-03]  d Energy = 0.1984938E-03-0.274E-04
 d Force = 0.2164946E+00[ 0.216E+00, 0.217E+00]  d Ewald  =-0.6239361E+00 0.840E+00

 Quasi-Newton relaxation of ions (Broydens 2nd method)
  g(Force)  = 0.205E-03   g(Stress)= 0.563E-04

 retain information from N=  1 steps
 eigenvalues of (default step * inverse Hessian matrix)
  average eigenvalue of G=   0.0335
 eigenvalue spectrum of G is  0.0335

volume of typ            1:    11.7 %

[...]

volume of typ            3:     9.8 %

total charge

# of ion       s       p       d       tot
    1        2.076   0.233   0.087   2.395
    2        2.076   0.233   0.087   2.395
    3        2.064   0.203   0.074   2.341
    4        2.064   0.203   0.074   2.341
    5        2.064   0.203   0.074   2.341
    6        2.064   0.203   0.074   2.341
    7        2.076   0.233   0.086   2.395
    8        2.076   0.233   0.086   2.395
    9        0.303   0.434   7.842   8.579
   10        0.282   0.384   7.859   8.525
   11        0.282   0.384   7.859   8.525
   12        0.283   0.391   7.843   8.517
   13        0.283   0.391   7.843   8.517
   14        0.273   0.365   7.864   8.503
   15        0.273   0.365   7.868   8.506
   16        0.303   0.433   7.842   8.578
   17        0.303   0.433   7.842   8.578
   18        0.283   0.387   7.858   8.528
   19        0.283   0.387   7.858   8.528
   20        0.284   0.393   7.842   8.519
   21        0.284   0.393   7.842   8.519
   22        0.273   0.366   7.878   8.517
   23        0.272   0.366   7.875   8.513
   24        0.303   0.433   7.842   8.578
   25        1.269   2.761   0.007   4.038
   26        1.269   2.761   0.007   4.038
   27        1.263   2.781   0.007   4.051
   28        1.263   2.781   0.007   4.051
   29        1.267   2.769   0.007   4.044
   30        1.267   2.769   0.007   4.044
   31        1.268   2.770   0.007   4.046
   32        1.268   2.770   0.007   4.046
   33        1.267   2.770   0.007   4.044
   34        1.267   2.770   0.007   4.044
   35        1.268   2.771   0.007   4.046
   36        1.268   2.771   0.007   4.046
   37        1.265   2.776   0.007   4.047
   38        1.265   2.776   0.007   4.047
   39        1.269   2.761   0.007   4.038
   40        1.269   2.761   0.007   4.038
   41        1.265   2.775   0.007   4.047
   42        1.265   2.775   0.007   4.047
   43        1.269   2.761   0.007   4.038
   44        1.269   2.761   0.007   4.038
   45        1.267   2.770   0.007   4.044
   46        1.267   2.770   0.007   4.044
   47        1.269   2.769   0.007   4.046
   48        1.269   2.769   0.007   4.046
   49        1.267   2.771   0.007   4.044
   50        1.267   2.771   0.007   4.044
   51        1.268   2.771   0.007   4.046
   52        1.268   2.771   0.007   4.046
   53        1.269   2.761   0.007   4.038
   54        1.269   2.761   0.007   4.038
   55        1.263   2.782   0.007   4.051
   56        1.263   2.782   0.007   4.051
tot          61.67   96.69  126.53  284.89

magnetization (x)

# of ion       s       p       d       tot
    1        0.000   0.002   0.000   0.003
    2        0.000   0.002   0.000   0.003
    3        0.005   0.007   0.001   0.013
    4        0.005   0.007   0.001   0.013
    5        0.005   0.007   0.001   0.013
    6        0.005   0.007   0.001   0.013
    7       -0.001  -0.002  -0.001  -0.003
    8       -0.001  -0.002  -0.001  -0.003
    9       -0.001   0.001  -0.022  -0.022
   10        0.004   0.000   0.559   0.563
   11        0.004   0.000   0.559   0.563
   12        0.000  -0.000   0.214   0.214
   13        0.000  -0.000   0.214   0.214
   14       -0.005   0.000  -0.586  -0.591
   15        0.004  -0.000   0.507   0.511
   16       -0.001   0.000  -0.008  -0.008
   17       -0.001   0.000  -0.008  -0.008
   18        0.004   0.000   0.558   0.562
   19        0.004   0.000   0.558   0.562
   20        0.000  -0.000   0.217   0.218
   21        0.000  -0.000   0.217   0.218
   22       -0.001   0.000  -0.011  -0.011
   23       -0.002   0.000  -0.119  -0.121
   24       -0.001   0.000  -0.008  -0.008
   25        0.003   0.019   0.000   0.022
   26        0.003   0.019   0.000   0.022
   27        0.006   0.076   0.000   0.083
   28        0.006   0.076   0.000   0.083
   29        0.006   0.058   0.000   0.064
   30        0.006   0.058   0.000   0.064
   31        0.002   0.009   0.000   0.010
   32        0.002   0.009   0.000   0.010
   33        0.005   0.052   0.000   0.057
   34        0.005   0.052   0.000   0.057
   35        0.000  -0.004   0.000  -0.004
   36        0.000  -0.004   0.000  -0.004
   37        0.001   0.003   0.000   0.005
   38        0.001   0.003   0.000   0.005
   39        0.003   0.016   0.000   0.019
   40        0.003   0.016   0.000   0.019
   41        0.000  -0.011  -0.000  -0.010
   42        0.000  -0.011  -0.000  -0.010
   43        0.003   0.021   0.000   0.024
   44        0.003   0.021   0.000   0.024
   45        0.006   0.060   0.000   0.065
   46        0.006   0.060   0.000   0.065
   47        0.002   0.009   0.000   0.011
   48        0.002   0.009   0.000   0.011
   49        0.006   0.065   0.000   0.071
   50        0.006   0.065   0.000   0.071
   51        0.003   0.021   0.000   0.024
   52        0.003   0.021   0.000   0.024
   53        0.003   0.020   0.000   0.022
   54        0.003   0.020   0.000   0.022
   55       -0.004  -0.083  -0.000  -0.087
   56       -0.004  -0.083  -0.000  -0.087
tot           0.12    0.69    2.85    3.66