 vasp.5.4.4.18Apr17-6-g9f103f2a35 (build May 12 2020 05:39:39) gamma-only

 MD_VERSION_INFO: Compiled 2020-05-12T12:39:39-UTC in devlin.sd.materialsdesign.
 com:/home/medea2/data/build/wwolf/vasp-gpu5.4.4/13047/x86_64/src/src/build/gam
 from svn 13047

 executed on                        Lin64 date 2023.03.07  07:17:25

 INCAR:
 POTCAR:    PAW_PBE Li_sv 10Sep2004
 POTCAR:    PAW_PBE Ni 02Aug2007
 POTCAR:    PAW_PBE O 08Apr2002

 POTCAR:    PAW_PBE Li_sv 10Sep2004

 POTCAR:    PAW_PBE Ni 02Aug2007

 POTCAR:    PAW_PBE O 08Apr2002

 Optimization of the real space projectors (new method)

 maximal supplied QI-value         = 22.11
 optimisation between [QCUT,QGAM] = [ 11.28, 22.77] = [ 35.61,145.23] Ry
 Optimized for a Real-space Cutoff    1.10 Angstroem

   l    n(q)    QCUT    max X(q) W(low)/X(q) W(high)/X(q)  e(spline)
   0      7    11.276    10.506    0.54E-04    0.58E-04    0.16E-07
   0      7    11.276     8.367    0.11E-03    0.14E-03    0.35E-07
   1      7    11.276     8.983    0.23E-03    0.43E-03    0.86E-07
 Optimization of the real space projectors (new method)

[...]

   l    n(q)    QCUT    max X(q) W(low)/X(q) W(high)/X(q)  e(spline)
   2      9    11.376    60.317    0.17E-03    0.16E-04    0.16E-06
   2      9    11.376    55.921    0.17E-03    0.16E-04    0.17E-06
   0     10    11.376    51.690    0.45E-04    0.60E-04    0.21E-06
   0     10    11.376    30.015    0.37E-04    0.55E-04    0.19E-06
   1     10    11.376    18.849    0.83E-04    0.11E-03    0.92E-07
   1     10    11.376    14.624    0.69E-04    0.92E-04    0.82E-07
 Optimization of the real space projectors (new method)

 maximal supplied QI-value         = 24.76
 optimisation between [QCUT,QGAM] = [ 11.39, 22.77] = [ 36.31,145.25] Ry
 Optimized for a Real-space Cutoff    1.10 Angstroem

   l    n(q)    QCUT    max X(q) W(low)/X(q) W(high)/X(q)  e(spline)
   0      7    11.387    20.381    0.22E-03    0.48E-03    0.18E-06
   0      7    11.387    15.268    0.22E-03    0.52E-03    0.19E-06
   1      7    11.387     5.964    0.22E-03    0.73E-03    0.24E-06
   1      7    11.387     5.382    0.19E-03    0.60E-03    0.21E-06

  PAW_PBE Li_sv 10Sep2004               :
  PAW_PBE Ni 02Aug2007                  :
  PAW_PBE O 08Apr2002                   :

 POSCAR: ce4861_1
  positions in direct lattice
 exchange correlation table for  LEXCH =       14
   RHO(1)=    0.500       N(1)  =     2000
   RHO(2)=  100.500       N(2)  =     4000

 ion  position               nearest neighbor table
   1  0.982  0.253  0.236-  39 2.04  44 2.05  51 2.11  36 2.14  48 2.23  23 2.78  12 2.84
   2  0.252  0.250  0.500-  40 2.10  30 2.12  48 2.14  52 2.14  42 2.14  28 2.15
   3  0.240  0.750  0.500-  53 2.05  49 2.06  29 2.09  31 2.10  41 2.16  43 2.17  22 2.82  14 2.83
                            20 2.84
   4  0.759  0.750  0.499-  29 2.07  31 2.08  41 2.13  43 2.13  54 2.14  50 2.16  23 2.84
   5  0.748  0.250  0.500-  55 2.06  51 2.06  40 2.12  30 2.14  42 2.14  28 2.15
   6  0.500  0.750  0.750-  50 2.11  37 2.11  49 2.12  43 2.12  38 2.12  57 2.13
   7  0.252  0.250  1.000-  32 2.06  36 2.06  58 2.13  44 2.16  56 2.17  46 2.18
   8  0.239  0.750  0.001-  47 2.08  45 2.08  33 2.10  37 2.13  59 2.14  57 2.17  12 2.84
   9  0.762  0.750  0.000-  34 2.05  38 2.06  47 2.09  45 2.10  59 2.17  57 2.18  12 2.83
  10  0.520  0.248  0.763-  58 2.03  35 2.03  55 2.13  32 2.17  40 2.24  52 2.25  15 2.80  27 2.81

  11  0.500  0.750  0.249-  59 2.08  41 2.11  33 2.12  54 2.14  53 2.14  34 2.14
  12  0.998  0.997  0.998-  36 1.84  39 1.85  38 1.86  37 1.88  46 1.94  47 1.94  17 2.76  17 2.78
                             9 2.83   1 2.84  15 2.84   8 2.84  16 2.86  14 2.86  13 2.88
  13  0.250  1.000  0.250-  42 1.86  59 1.86  30 1.86  47 1.87  36 2.11  53 2.12  16 2.77  16 2.77
                            17 2.85  18 2.86  19 2.87  12 2.88
  14  0.248  0.996  0.748-  46 1.84  58 1.85  31 1.87  43 1.88  37 2.03  52 2.05  15 2.75  15 2.79
                             3 2.83  18 2.86  12 2.86  19 2.87  17 2.89
  15  0.751  0.998  0.751-  46 1.84  31 1.86  43 1.86  58 1.87  38 2.10  55 2.13  14 2.75  14 2.79
                            10 2.80  12 2.84  18 2.88  17 2.88  19 2.88
  16  0.750  0.998  0.249-  42 1.86  47 1.86  59 1.88  30 1.90  39 1.96  54 2.02  13 2.77  13 2.77
                            17 2.86  12 2.86  19 2.87  18 2.87
  17  0.499  0.004  0.003-  38 1.84  37 1.85  39 1.85  36 1.86  58 2.04  59 2.08  12 2.76  12 2.78
                            13 2.85  16 2.86  15 2.88  14 2.89
  18  0.001  0.000  0.500-  55 1.85  53 1.86  52 1.86  54 1.87  31 1.94  30 1.97  19 2.77  19 2.77
                            13 2.86  14 2.86  16 2.87  15 2.88
  19  0.501  0.999  0.500-  53 1.83  55 1.84  52 1.84  54 1.85  42 1.98  43 2.04  18 2.77  18 2.77
                            16 2.87  14 2.87  13 2.87  15 2.88
  20  0.001  0.503  0.503-  51 1.84  48 1.85  49 1.86  50 1.87  29 1.94  28 1.95  25 2.77  25 2.77
                             3 2.84  24 2.85  21 2.85  22 2.87  23 2.89
  21  0.249  0.499  0.750-  28 1.85  45 1.85  57 1.86  40 1.87  32 2.11  49 2.12  24 2.76  24 2.78
                            20 2.85  26 2.86  27 2.87  25 2.88
  22  0.250  0.505  0.252-  56 1.84  44 1.85  41 1.87  29 1.87  33 2.04  48 2.05  23 2.77  23 2.77
                             3 2.82  25 2.86  26 2.87  20 2.87  27 2.88
  23  0.750  0.502  0.250-  56 1.85  41 1.85  44 1.86  29 1.86  34 2.11  51 2.12  22 2.77  22 2.77
                             1 2.78   4 2.84  26 2.86  25 2.86  27 2.87  20 2.89
  24  0.751  0.501  0.750-  28 1.86  57 1.86  45 1.89  40 1.90  35 1.97  50 2.01  21 2.76  21 2.78
                            20 2.85  27 2.87  25 2.87  26 2.88
  25  0.501  0.497  0.498-  49 1.83  50 1.85  51 1.85  48 1.86  40 2.04  41 2.06  20 2.77  20 2.77
                            22 2.86  23 2.86  24 2.87  21 2.88
  26  0.001  0.499  0.000-  32 1.85  34 1.85  35 1.86  33 1.87  45 1.95  44 1.99  27 2.77  27 2.77
                            23 2.86  21 2.86  22 2.87  24 2.88
  27  0.501  0.501  0.000-  32 1.83  34 1.83  35 1.85  33 1.85  56 1.95  57 2.03  26 2.77  26 2.77
                            10 2.81  24 2.87  23 2.87  21 2.87  22 2.88
  28  0.000  0.401  0.635-  21 1.85  24 1.86  20 1.95   2 2.15   5 2.15
  29  0.997  0.603  0.369-  23 1.86  22 1.87  20 1.94   4 2.07   3 2.09
  30  0.003  0.104  0.366-  13 1.86  16 1.90  18 1.97   2 2.12   5 2.14
  31  0.996  0.898  0.631-  15 1.86  14 1.87  18 1.94   4 2.08   3 2.10
  32  0.254  0.392  0.896-  27 1.83  26 1.85   7 2.06  21 2.11  10 2.17
  33  0.252  0.607  0.110-  27 1.85  26 1.87  22 2.04   8 2.10  11 2.12
  34  0.749  0.609  0.104-  27 1.83  26 1.85   9 2.05  23 2.11  11 2.14
  35  0.748  0.400  0.885-  27 1.85  26 1.86  24 1.97  10 2.03
  36  0.241  0.108  0.105-  12 1.84  17 1.86   7 2.06  13 2.11   1 2.14
  37  0.257  0.894  0.890-  17 1.85  12 1.88  14 2.03   6 2.11   8 2.13
  38  0.741  0.892  0.896-  17 1.84  12 1.86   9 2.06  15 2.10   6 2.12
  39  0.754  0.100  0.115-  12 1.85  17 1.85  16 1.96   1 2.04
  40  0.497  0.391  0.637-  21 1.87  24 1.90  25 2.04   2 2.10   5 2.12  10 2.24
  41  0.504  0.610  0.362-  23 1.85  22 1.87  25 2.06  11 2.11   4 2.13   3 2.16
  42  0.500  0.100  0.364-  13 1.86  16 1.86  19 1.98   2 2.14   5 2.14
  43  0.504  0.892  0.637-  15 1.86  14 1.88  19 2.04   6 2.12   4 2.13   3 2.17
  44  0.004  0.401  0.139-  22 1.85  23 1.86  26 1.99   1 2.05   7 2.16
  45  0.004  0.601  0.868-  21 1.85  24 1.89  26 1.95   8 2.08   9 2.10
  46  0.001  0.095  0.864-  15 1.84  14 1.84  12 1.94   7 2.18
  47  0.001  0.899  0.133-  16 1.86  13 1.87  12 1.94   8 2.08   9 2.09
  48  0.244  0.395  0.389-  20 1.85  25 1.86  22 2.05   2 2.14   1 2.23
  49  0.258  0.608  0.605-  25 1.83  20 1.86   3 2.06  21 2.12   6 2.12
  50  0.742  0.605  0.612-  25 1.85  20 1.87  24 2.01   6 2.11   4 2.16
  51  0.758  0.392  0.395-  20 1.84  25 1.85   5 2.06   1 2.11  23 2.12
  52  0.254  0.104  0.610-  19 1.84  18 1.86  14 2.05   2 2.14  10 2.25
  53  0.253  0.891  0.396-  19 1.83  18 1.86   3 2.05  13 2.12  11 2.14
  54  0.750  0.895  0.388-  19 1.85  18 1.87  16 2.02  11 2.14   4 2.14
  55  0.748  0.108  0.604-  19 1.84  18 1.85   5 2.06  10 2.13  15 2.13
  56  0.498  0.405  0.137-  22 1.84  23 1.85  27 1.95   7 2.17
  57  0.499  0.606  0.861-  24 1.86  21 1.86  27 2.03   6 2.13   8 2.17   9 2.18
  58  0.495  0.102  0.858-  14 1.85  15 1.87  10 2.03  17 2.04   7 2.13
  59  0.496  0.890  0.140-  13 1.86  16 1.88  11 2.08  17 2.08   8 2.14   9 2.17

  LATTYP: Found a triclinic cell.
 ALAT       =    10.0436177825
 B/A-ratio  =     1.0081331943
 C/A-ratio  =     0.5517449966
 COS(alpha) =     0.0001064353
 COS(beta)  =     0.0018161318
 COS(gamma) =     0.3560980325

  Lattice vectors:

 A1 = (  10.0434559447,   0.0090905283,   0.0562868561)
 A2 = (   3.6585703088,   0.0005811750,  -9.4412209869)
 A3 = (   0.0050392427,   5.5415133193,   0.0016613296)

Analysis of symmetry for initial positions (statically):
 Subroutine PRICEL returns:
 Original cell was already a primitive cell.

 Routine SETGRP: Setting up the symmetry group for a
 triclinic supercell.

 Subroutine GETGRP returns: Found  1 space group operations
 (whereof  1 operations were pure point group operations)
 out of a pool of  2 trial point group operations.

The static configuration has the point symmetry C_1 .

Analysis of symmetry for dynamics (positions and initial velocities):
 Subroutine PRICEL returns:
 Original cell was already a primitive cell.

[...]

The dynamic configuration has the point symmetry C_1 .

Analysis of structural, dynamic, and magnetic symmetry:
 Subroutine PRICEL returns:
 Original cell was already a primitive cell.

 Routine SETGRP: Setting up the symmetry group for a
 triclinic supercell.

 Subroutine GETGRP returns: Found  1 space group operations
 (whereof  1 operations were pure point group operations)
 out of a pool of  2 trial point group operations.

The magnetic configuration has the point symmetry C_1 .

 Subroutine INISYM returns: Found  1 space group operations
 (whereof  1 operations are pure point group operations),
 and found     1 'primitive' translations

 KPOINTS: Automatic mesh

Automatic generation of k-mesh.
Space group operators:
 irot       det(A)        alpha          n_x          n_y          n_z        tau_x        tau_y        tau_z
    1     1.000000     0.000000     1.000000     0.000000     0.000000     0.000000     0.000000     0.000000

 Subroutine IBZKPT returns following result:

 Found      1 irreducible k-points:

 Following reciprocal coordinates:
            Coordinates               Weight
  0.000000  0.000000  0.000000      1.000000

 Following cartesian coordinates:
            Coordinates               Weight
  0.000000  0.000000  0.000000      1.000000

 SYSTEM =  unknown system
 POSCAR =  ce4861_1

 Startparameter for this run:
   NWRITE =      1    write-flag & timer
   PREC   = accura    normal or accurate (medium, high low for compatibility)
   ISTART =      0    job   : 0-new  1-cont  2-samecut
   ICHARG =      2    charge: 1-file 2-atom 10-const
   ISPIN  =      2    spin polarized calculation?
   LNONCOLLINEAR =      F non collinear calculations
[...]
   -.214E+01 0.337E+00 -.347E+02   0.252E+01 -.352E+00 0.346E+02   -.380E+00 0.186E-01 0.999E-01   0.700E-02 -.738E-02 0.747E-03
   -.198E+02 -.616E+00 -.178E+02   0.196E+02 0.586E+00 0.181E+02   0.216E+00 0.200E-01 -.312E+00   0.678E-02 0.344E-02 0.154E-02
   -.138E+02 0.465E-01 -.165E+02   0.138E+02 -.289E-03 0.166E+02   -.992E-03 -.413E-01 -.148E+00   -.477E-02 -.439E-02 0.244E-03
   -.681E+01 0.231E+02 0.294E+02   0.686E+01 -.233E+02 -.296E+02   -.320E-01 0.225E+00 0.251E+00   -.181E-01 -.113E-02 -.854E-02
   0.454E+01 0.360E+01 0.280E+02   -.490E+01 -.360E+01 -.283E+02   0.349E+00 -.138E-02 0.365E+00   0.178E-01 -.245E-02 0.592E-02
   0.243E+02 -.300E+01 0.646E+02   -.248E+02 0.288E+01 -.651E+02   0.409E+00 0.115E+00 0.472E+00   0.166E-01 0.419E-02 0.745E-02
   -.283E+00 -.253E+02 0.130E+02   0.676E+00 0.256E+02 -.133E+02   -.374E+00 -.299E+00 0.346E+00   -.188E-01 0.371E-02 -.762E-02
   0.334E+02 -.159E+00 0.682E+02   -.335E+02 0.148E+00 -.684E+02   0.142E+00 0.720E-02 0.218E+00   -.356E-02 0.648E-02 -.130E-03
   -.289E+02 0.132E+02 0.813E+02   0.289E+02 -.134E+02 -.819E+02   -.999E-01 0.236E+00 0.638E+00   0.459E-02 -.444E-02 0.427E-03
   -.132E+02 -.130E+02 0.588E+02   0.140E+02 0.131E+02 -.596E+02   -.779E+00 -.163E+00 0.809E+00   0.445E-02 0.718E-02 0.502E-03
   -.284E+02 -.456E+01 0.312E+03   0.281E+02 0.461E+01 -.329E+03   0.291E+00 -.406E-01 0.172E+02   -.103E-01 -.673E-02 -.436E-03
   0.294E+02 0.502E+01 -.284E+03   -.301E+02 -.527E+01 0.300E+03   0.721E+00 0.261E+00 -.161E+02   0.771E-02 -.594E-02 -.289E-02
   -.477E-01 -.386E+01 -.297E+03   0.219E+01 0.344E+01 0.311E+03   -.216E+01 0.426E+00 -.137E+02   0.148E-01 -.424E-02 0.219E-02
   -.267E+02 0.457E+01 0.280E+03   0.267E+02 -.467E+01 -.296E+03   0.877E-01 0.958E-01 0.160E+02   -.970E-02 -.453E-02 0.349E-02
   0.379E+02 0.317E+02 0.342E+03   -.438E+02 -.336E+02 -.359E+03   0.593E+01 0.195E+01 0.169E+02   -.370E-02 -.559E-02 -.106E-01
   -.425E+02 0.364E+02 -.293E+03   0.473E+02 -.391E+02 0.308E+03   -.486E+01 0.269E+01 -.152E+02   0.102E-01 -.583E-02 0.490E-02
   -.586E+02 -.343E+02 -.285E+03   0.646E+02 0.367E+02 0.301E+03   -.602E+01 -.240E+01 -.162E+02   0.123E-01 0.558E-02 0.299E-02
   -.956E+01 -.357E+02 0.360E+03   0.807E+01 0.386E+02 -.379E+03   0.150E+01 -.288E+01 0.186E+02   -.847E-02 0.518E-02 -.773E-02
   -.382E+02 -.299E+02 -.339E+03   0.442E+02 0.317E+02 0.356E+03   -.602E+01 -.178E+01 -.167E+02   0.600E-02 0.626E-02 0.145E-01
   0.403E+02 0.261E+02 0.293E+03   -.447E+02 -.277E+02 -.309E+03   0.444E+01 0.153E+01 0.156E+02   -.140E-01 0.684E-02 -.810E-02
   0.573E+02 -.254E+02 0.284E+03   -.631E+02 0.268E+02 -.300E+03   0.585E+01 -.139E+01 0.160E+02   -.156E-01 -.632E-02 -.686E-02
   0.931E+01 0.327E+02 -.359E+03   -.796E+01 -.350E+02 0.378E+03   -.137E+01 0.234E+01 -.192E+02   0.101E-01 -.656E-02 0.118E-01
   0.591E+01 0.368E+01 0.299E+03   -.870E+01 -.339E+01 -.312E+03   0.280E+01 -.292E+00 0.133E+02   -.112E-01 0.519E-02 -.349E-02
   -.142E+02 -.463E+01 -.258E+03   0.185E+02 0.466E+01 0.272E+03   -.433E+01 -.287E-01 -.137E+02   0.825E-02 0.547E-02 -.118E-02
   0.292E+02 0.481E+01 -.321E+03   -.282E+02 -.471E+01 0.338E+03   -.104E+01 -.102E+00 -.162E+02   0.158E-01 0.594E-02 -.962E-03
   0.118E+01 -.494E+01 0.267E+03   -.470E+01 0.503E+01 -.281E+03   0.353E+01 -.995E-01 0.134E+02   -.114E-01 0.523E-02 0.569E-02
   0.328E+02 0.298E+02 0.327E+03   -.369E+02 -.313E+02 -.344E+03   0.409E+01 0.149E+01 0.167E+02   0.896E-02 -.565E-02 0.354E-02
   0.172E+02 -.219E+01 -.288E+03   -.168E+02 0.168E+01 0.303E+03   -.427E+00 0.518E+00 -.155E+02   -.514E-02 -.643E-02 -.109E-02
   0.158E+01 0.306E+02 -.349E+03   -.337E+00 -.324E+02 0.370E+03   -.122E+01 0.178E+01 -.214E+02   -.212E-01 -.437E-02 0.258E-02
   -.177E+02 -.506E+01 0.291E+03   0.182E+02 0.549E+01 -.307E+03   -.562E+00 -.435E+00 0.164E+02   0.161E-01 -.482E-02 -.546E-02
   0.620E+02 -.297E+02 0.334E+03   -.677E+02 0.313E+02 -.351E+03   0.572E+01 -.158E+01 0.168E+02   0.681E-02 -.263E-02 0.718E-02
   -.568E+02 0.258E+02 -.302E+03   0.628E+02 -.275E+02 0.318E+03   -.602E+01 0.170E+01 -.160E+02   -.122E-01 -.207E-02 -.389E-02
   -.398E+02 -.257E+02 -.307E+03   0.437E+02 0.272E+02 0.323E+03   -.396E+01 -.153E+01 -.162E+02   -.861E-02 0.198E-02 -.645E-02
   0.733E+02 0.303E+02 0.325E+03   -.793E+02 -.319E+02 -.341E+03   0.597E+01 0.162E+01 0.159E+02   0.443E-02 0.147E-02 0.102E-01
   -.602E+02 0.297E+02 -.334E+03   0.659E+02 -.316E+02 0.351E+03   -.576E+01 0.194E+01 -.168E+02   -.721E-02 0.381E-02 -.913E-02
   0.554E+02 0.328E+02 0.301E+03   -.617E+02 -.351E+02 -.317E+03   0.623E+01 0.231E+01 0.164E+02   0.141E-01 0.378E-02 0.710E-02
   0.387E+02 -.348E+02 0.305E+03   -.432E+02 0.374E+02 -.321E+03   0.442E+01 -.270E+01 0.160E+02   0.117E-01 -.225E-02 0.850E-02
   -.722E+02 -.308E+02 -.325E+03   0.782E+02 0.328E+02 0.341E+03   -.596E+01 -.201E+01 -.161E+02   -.480E-02 -.202E-02 -.116E-01
   -.772E+01 -.308E+02 0.358E+03   0.641E+01 0.326E+02 -.379E+03   0.130E+01 -.180E+01 0.208E+02   0.153E-01 0.517E-02 -.796E-03
   -.545E+01 0.540E+01 -.277E+03   0.857E+01 -.585E+01 0.291E+03   -.310E+01 0.440E+00 -.141E+02   -.123E-01 0.571E-02 0.146E-02
   -.375E+02 -.309E+02 -.330E+03   0.423E+02 0.326E+02 0.346E+03   -.474E+01 -.171E+01 -.158E+02   -.143E-01 0.457E-02 -.225E-02
   0.254E+02 0.327E+01 0.265E+03   -.299E+02 -.300E+01 -.279E+03   0.448E+01 -.276E+00 0.135E+02   0.953E-02 0.535E-02 -.121E-02
   -.986E-01 -.469E-01 -.180E-01   0.224E-12 0.742E-13 0.796E-12   0.103E+00 0.286E-01 0.148E-01   0.572E-02 0.413E-02 0.762E-02

 POSITION                                       TOTAL-FORCE (eV/Angst)
      1.45327      5.41439      2.40982         0.000099     -0.017089     -0.001520
      4.11342      1.39514      2.38870        -0.000779     -0.000180     -0.002038
      2.28637      1.33648      7.12517         0.003698      0.000498      0.001333
      2.27938      4.19819      7.12934        -0.000118      0.000234      0.001139
      4.11304      4.14844      2.38901        -0.002575      0.000958     -0.002526
      4.79356      2.76978      7.14571        -0.001695      0.000544     -0.000259
      9.13653      1.40335      2.41948        -0.003587     -0.002392      0.000479
     -2.73685      1.33225      7.09808        -0.002445      0.001427      0.000211
     -2.74389      4.20509      7.09987         0.000614     -0.002308      0.000912
      6.75709      2.90916      2.38366         0.000258      0.025600     -0.003276
     -0.23033      2.76661      7.11496         0.004996     -0.002766      0.003656
      6.39145      5.52822      9.49097        -0.000652     -0.001401     -0.003643
     -1.14894      1.38401      9.47086        -0.000127     -0.002269      0.002086
      3.88106      1.37678      9.46372         0.000843     -0.002590     -0.001883
      3.89302      4.16217      9.48981         0.001308     -0.001129     -0.004242
     -1.14406      4.15237      9.45789         0.000152     -0.002943      0.000990
      0.01573      2.76020      0.03751        -0.000858      0.000042     -0.003979
      5.02844      0.00618      0.03156         0.000352     -0.003606      0.000274
      1.37262      2.77124      9.47583         0.000427     -0.006245      0.000381
      3.20878      0.00721      4.78477        -0.001837      0.000705     -0.002656
      5.71692      1.38392      4.76450         0.000231      0.002443     -0.002940
      0.68874      1.38835      4.79203        -0.000055      0.000967      0.002368
      0.67846      4.15320      4.76745        -0.000134      0.002657      0.004289
      5.70807      4.16259      4.78395         0.000190      0.003490     -0.001900
      3.18665      2.77365      4.73074        -0.000467      0.003072     -0.001933
     -1.82615      0.00425      4.71983        -0.001655      0.002743      0.002443
     -1.83406      2.77646      4.74587        -0.002206      0.000342      0.001398
      4.90313      0.00942      3.82883        -0.002459      0.001123     -0.002032
      1.51732      5.51971      5.71897         0.000768      0.000782      0.000024
      3.27239      0.01084      1.00464        -0.005595     -0.004176      0.001462
      3.07276      5.51924      8.52991         0.004217     -0.001489      0.000105
      7.57550      1.41716      3.76454         0.002933      0.002350      0.003901
     -1.12327      1.39951      5.75954        -0.005317      0.000768      0.002644
     -1.19002      4.15142      5.77352        -0.002126      0.000938      0.002369
      7.44114      4.14844      3.83581         0.004908      0.002864      0.003042
      0.66001      1.33431      1.03059        -0.003355     -0.001413     -0.000416
      5.68553      1.42677      8.50041         0.004136     -0.000341     -0.001192
      5.75644      4.10599      8.48267         0.003415      0.000097     -0.000187
      0.79629      4.16903      0.95519        -0.003398     -0.000999     -0.001275
      4.99894      2.76376      3.74403         0.008192      0.004809     -0.001084
      1.41010      2.78860      5.78854        -0.004528      0.001097      0.000943
      3.29066      2.76594      0.96943        -0.001222     -0.001800      0.002710
      3.14842      2.78877      8.47238         0.003330     -0.001510     -0.001845
     -0.06740      0.02263      3.80425         0.000743      0.000898      0.004884
      6.51181      0.02571      5.72997        -0.006780     -0.000143     -0.002315
      8.34471      0.01506      0.94493         0.000102     -0.002068     -0.003798
     -1.95066      0.01115      8.50635         0.000504     -0.001440      0.000152
      2.47310      1.35362      3.75753         0.001941      0.002485      0.001441
      3.85957      1.43337      5.78394        -0.000011      0.001886     -0.002481
      3.94190      4.11438      5.75644        -0.002154      0.000526     -0.003274
      2.54222      4.19050      3.72969        -0.000864      0.001147      0.002191
      5.75846      1.40763      1.02561         0.000396     -0.003842     -0.001979
      0.71597      1.39441      8.45370         0.001587     -0.002737      0.003371
      0.62766      4.14613      8.48382         0.002444     -0.002495      0.002662
      5.68463      4.14000      1.05456         0.001497     -0.002562     -0.001204
     -0.11051      2.75584      3.84888        -0.003832      0.002256      0.005008
      6.45467      2.76695      5.77650         0.003411      0.002649     -0.001063
      8.26513      2.74932      1.01284        -0.000443     -0.000273     -0.004633
     -1.85038      2.75279      8.43906         0.003583     -0.000189      0.002704
    total drift:                                0.010104     -0.014123      0.004340

  FREE ENERGIE OF THE ION-ELECTRON SYSTEM (eV)
  free  energy   TOTEN  =      -359.7047432489 eV

  energy  without entropy=     -359.7034356262  energy(sigma->0) =     -359.70408944

 d Force = 0.4279222E-06[ 0.298E-06, 0.558E-06]  d Energy =-0.1103164E-04 0.115E-04
 d Force =-0.5879382E-02[-0.588E-02,-0.588E-02]  d Ewald  =-0.1247404E+00 0.119E+00

 Quasi-Newton relaxation of ions (Broydens 2nd method)
  g(Force)  = 0.987E-04   g(Stress)= 0.196E-04

 retain information from N=  1 steps
 eigenvalues of (default step * inverse Hessian matrix)
  average eigenvalue of G=   0.0231
 eigenvalue spectrum of G is  0.0231

volume of typ            1:    16.3 %

[...]

volume of typ            3:     9.9 %

total charge

# of ion       s       p       d       tot
    1        2.073   0.228   0.084   2.386
    2        2.073   0.231   0.084   2.388
    3        2.084   0.257   0.098   2.440
    4        2.078   0.245   0.092   2.414
    5        2.082   0.249   0.093   2.425
    6        2.080   0.235   0.090   2.404
    7        2.075   0.232   0.087   2.394
    8        2.079   0.246   0.091   2.416
    9        2.085   0.258   0.098   2.441
   10        2.074   0.232   0.086   2.392
   11        2.077   0.240   0.090   2.407
   12        0.287   0.401   7.854   8.542
   13        0.267   0.350   7.878   8.495
   14        0.273   0.366   7.863   8.502
   15        0.266   0.349   7.875   8.490
   16        0.273   0.368   7.856   8.496
   17        0.276   0.374   7.860   8.509
   18        0.277   0.381   7.855   8.512
   19        0.286   0.396   7.873   8.555
   20        0.288   0.403   7.858   8.548
   21        0.267   0.350   7.879   8.496
   22        0.273   0.364   7.864   8.501
   23        0.266   0.348   7.875   8.489
   24        0.272   0.367   7.856   8.495
   25        0.275   0.373   7.870   8.518
   26        0.277   0.381   7.846   8.504
   27        0.290   0.406   7.863   8.559
   28        1.262   2.783   0.007   4.052
   29        1.258   2.792   0.007   4.057
   30        1.258   2.791   0.006   4.055
   31        1.259   2.790   0.007   4.056
   32        1.265   2.776   0.007   4.047
   33        1.264   2.777   0.006   4.047
   34        1.263   2.781   0.006   4.051
   35        1.270   2.763   0.007   4.040
   36        1.263   2.777   0.006   4.047
   37        1.263   2.778   0.006   4.047
   38        1.262   2.784   0.006   4.052
   39        1.269   2.764   0.007   4.040
   40        1.257   2.791   0.006   4.054
   41        1.255   2.800   0.006   4.061
   42        1.262   2.781   0.007   4.050
   43        1.254   2.802   0.006   4.062
   44        1.261   2.783   0.007   4.051
   45        1.262   2.784   0.007   4.052
   46        1.270   2.760   0.008   4.037
   47        1.259   2.788   0.007   4.055
   48        1.265   2.769   0.006   4.041
   49        1.263   2.782   0.006   4.051
   50        1.262   2.780   0.006   4.049
   51        1.263   2.781   0.006   4.050
   52        1.266   2.769   0.006   4.041
   53        1.263   2.781   0.007   4.050
   54        1.263   2.778   0.006   4.048
   55        1.262   2.782   0.006   4.051
   56        1.270   2.757   0.008   4.035
   57        1.256   2.796   0.006   4.058
   58        1.261   2.782   0.007   4.050
   59        1.257   2.796   0.006   4.059
tot          67.66   97.63  127.03  292.31

magnetization (x)

# of ion       s       p       d       tot
    1        0.003   0.006  -0.000   0.009
    2        0.005   0.010  -0.000   0.015
    3       -0.001  -0.005  -0.001  -0.007
    4        0.004   0.008  -0.000   0.012
    5        0.001   0.005   0.001   0.007
    6        0.000   0.000   0.000   0.001
    7       -0.001  -0.004  -0.001  -0.007
    8        0.005   0.011  -0.000   0.016
    9        0.001   0.005   0.001   0.007
   10        0.004   0.009   0.000   0.013
   11        0.004   0.009   0.000   0.013
   12       -0.000  -0.000   0.143   0.143
   13       -0.004   0.000  -0.547  -0.551
   14        0.003  -0.000   0.507   0.509
   15        0.004  -0.000   0.559   0.563
   16        0.000   0.000   0.367   0.368
   17        0.004   0.000   0.517   0.521
   18        0.000  -0.000   0.281   0.282
   19        0.002  -0.000   0.445   0.447
   20       -0.001  -0.000  -0.158  -0.159
   21       -0.004  -0.000  -0.525  -0.529
   22        0.004  -0.001   0.550   0.553
   23        0.005  -0.001   0.587   0.591
   24        0.000  -0.000   0.389   0.389
   25        0.004  -0.000   0.506   0.511
   26        0.000  -0.000   0.257   0.257
   27       -0.002  -0.000  -0.291  -0.294
   28       -0.002  -0.029  -0.000  -0.031
   29        0.001  -0.001  -0.000  -0.000
   30        0.004   0.017   0.000   0.021
   31        0.005   0.040   0.000   0.045
   32       -0.006  -0.088  -0.000  -0.094
   33        0.006   0.057   0.000   0.063
   34        0.005   0.079   0.000   0.084
   35        0.005   0.063   0.000   0.068
   36       -0.005  -0.083  -0.000  -0.088
   37        0.007   0.066   0.000   0.073
   38        0.006   0.086   0.000   0.092
   39        0.006   0.062   0.000   0.067
   40        0.006   0.061   0.000   0.068
   41        0.006   0.064   0.000   0.070
   42        0.005   0.052   0.000   0.057
   43        0.005   0.044   0.000   0.050
   44        0.005   0.031   0.000   0.036
   45        0.005   0.035   0.000   0.040
   46        0.003   0.022   0.000   0.024
   47        0.000  -0.004   0.000  -0.004
   48        0.005   0.058   0.000   0.063
   49       -0.005  -0.078  -0.000  -0.084
   50        0.004   0.037   0.000   0.041
   51        0.005   0.083   0.000   0.088
   52        0.007   0.067   0.000   0.074
   53       -0.005  -0.082  -0.000  -0.086
   54        0.006   0.042   0.000   0.049
   55        0.006   0.084   0.000   0.091
   56       -0.001  -0.023  -0.000  -0.024
   57       -0.003  -0.029  -0.000  -0.032
   58        0.007   0.075   0.000   0.082
   59        0.006   0.053   0.000   0.059
tot           0.14    0.91    3.59    4.65