 vasp.5.4.4.18Apr17-6-g9f103f2a35 (build May 12 2020 05:39:39) gamma-only

 MD_VERSION_INFO: Compiled 2020-05-12T12:39:39-UTC in devlin.sd.materialsdesign.
 com:/home/medea2/data/build/wwolf/vasp-gpu5.4.4/13047/x86_64/src/src/build/gam
 from svn 13047

 executed on                        Lin64 date 2023.04.01  01:58:52

 INCAR:
 POTCAR:    PAW_PBE Ta_pv 07Sep2000
 POTCAR:    PAW_PBE Li_sv 10Sep2004
 POTCAR:    PAW_PBE O 08Apr2002

 POTCAR:    PAW_PBE Ta_pv 07Sep2000

 POTCAR:    PAW_PBE Li_sv 10Sep2004

 POTCAR:    PAW_PBE O 08Apr2002

 Optimization of the real space projectors (new method)

 maximal supplied QI-value         = 15.12
 optimisation between [QCUT,QGAM] = [ 11.34, 22.83] = [ 36.00,145.93] Ry
 Optimized for a Real-space Cutoff    1.61 Angstroem

   l    n(q)    QCUT    max X(q) W(low)/X(q) W(high)/X(q)  e(spline)
   1     11    11.338     4.092    0.40E-05    0.64E-05    0.47E-07
   1     11    11.338     4.834    0.13E-04    0.44E-04    0.21E-06
   2     10    11.338    62.294    0.15E-03    0.31E-03    0.77E-06
   2     10    11.338    50.966    0.15E-03    0.31E-03    0.77E-06
   0     11    11.338   103.792    0.33E-04    0.19E-04    0.90E-07
   0     11    11.338    56.335    0.26E-04    0.17E-04    0.79E-07
 Optimization of the real space projectors (new method)

[...]

   l    n(q)    QCUT    max X(q) W(low)/X(q) W(high)/X(q)  e(spline)
   0      7    11.276    10.506    0.54E-04    0.58E-04    0.16E-07
   0      7    11.276     8.367    0.11E-03    0.14E-03    0.35E-07
   1      7    11.276     8.983    0.23E-03    0.43E-03    0.86E-07
 Optimization of the real space projectors (new method)

 maximal supplied QI-value         = 24.76
 optimisation between [QCUT,QGAM] = [ 11.39, 22.77] = [ 36.31,145.25] Ry
 Optimized for a Real-space Cutoff    1.10 Angstroem

   l    n(q)    QCUT    max X(q) W(low)/X(q) W(high)/X(q)  e(spline)
   0      7    11.387    20.381    0.22E-03    0.48E-03    0.18E-06
   0      7    11.387    15.268    0.22E-03    0.52E-03    0.19E-06
   1      7    11.387     5.964    0.22E-03    0.73E-03    0.24E-06
   1      7    11.387     5.382    0.19E-03    0.60E-03    0.21E-06

  PAW_PBE Ta_pv 07Sep2000               :
  PAW_PBE Li_sv 10Sep2004               :
  PAW_PBE O 08Apr2002                   :

 POSCAR: ce1_1
  positions in direct lattice
 exchange correlation table for  LEXCH =       14
   RHO(1)=    0.500       N(1)  =     2000
   RHO(2)=  100.500       N(2)  =     4000

 ion  position               nearest neighbor table
   1  0.000  0.000  0.000-  72 2.14  93 2.14  57 2.14 108 2.14 105 2.14  60 2.14  10 2.87  19 2.87
                             4 2.87   7 2.87  13 2.87  25 2.87  36 3.09  47 3.09  29 3.09  54 3.09
   2  0.889  0.333  0.222-  74 2.14  56 2.14  80 2.14  59 2.14  77 2.14  71 2.14  20 2.87   8 2.87
                             5 2.87  26 2.87  14 2.87  11 2.87  30 3.09  39 3.09  36 3.09  37 3.09
   3  0.111  0.667  0.111-  61 2.14  79 2.14  55 2.14  58 2.14  94 2.14  64 2.14  12 2.87  21 2.87
                             9 2.87  27 2.87  15 2.87   6 2.87  29 3.09  47 3.09  32 3.09  31 3.09
   4  0.333  0.000  0.000-  60 2.14  99 2.14  96 2.14  63 2.14  93 2.14  66 2.14  22 2.87  13 2.87
                             1 2.87  19 2.87  16 2.87   7 2.87  30 3.09  50 3.09  48 3.09  32 3.09
   5  0.222  0.333  0.222-  80 2.14  62 2.14  86 2.14  83 2.14  59 2.14  65 2.14  23 2.87   2 2.87
                            20 2.87  14 2.87   8 2.87  17 2.87  42 3.09  30 3.09  33 3.09  40 3.09
   6  0.444  0.667  0.111-  67 2.14  85 2.14  61 2.14 100 2.14  70 2.14  64 2.14  15 2.87  24 2.87
                             9 2.87  18 2.87  21 2.87   3 2.87  50 3.09  35 3.09  32 3.09  34 3.09
   7  0.667  0.000  0.000-  66 2.14 105 2.14 102 2.14  69 2.14  72 2.14  99 2.14  16 2.87  25 2.87
                             1 2.87  10 2.87  22 2.87   4 2.87  33 3.09  53 3.09  51 3.09  35 3.09
   8  0.556  0.333  0.222-  86 2.14  68 2.14  74 2.14  71 2.14  89 2.14  65 2.14  26 2.87   2 2.87
                            23 2.87  11 2.87  17 2.87   5 2.87  36 3.09  45 3.09  33 3.09  43 3.09
   9  0.778  0.667  0.111-  55 2.14  73 2.14  67 2.14  70 2.14 106 2.14  58 2.14  18 2.87  27 2.87
                             3 2.87   6 2.87  12 2.87  24 2.87  35 3.09  53 3.09  29 3.09  28 3.09
  10  0.667  0.000  0.333-  57 2.14  90 2.14  72 2.14  78 2.14  69 2.14  75 2.14   1 2.87  16 2.87
                            13 2.87   7 2.87  22 2.87  19 2.87  29 3.09  45 3.09  36 3.09  39 3.09
  11  0.556  0.333  0.556-  92 2.14  98 2.14  74 2.14  95 2.14  89 2.14  77 2.14  20 2.87  17 2.87
                            14 2.87  23 2.87   8 2.87   2 2.87  48 3.09  45 3.09  39 3.09  46 3.09
  12  0.778  0.667  0.444-  79 2.14  73 2.14  97 2.14  58 2.14  82 2.14  76 2.14   3 2.87  18 2.87
                             9 2.87  21 2.87  15 2.87  24 2.87  29 3.09  41 3.09  38 3.09  40 3.09
  13  0.000  0.000  0.333-  63 2.14  78 2.14  60 2.14  57 2.14  81 2.14  84 2.14   4 2.87  10 2.87
                             1 2.87  22 2.87  16 2.87  25 2.87  32 3.09  39 3.09  30 3.09  29 3.09
  14  0.889  0.333  0.556-  98 2.14  80 2.14 104 2.14 101 2.14  77 2.14  83 2.14  23 2.87  11 2.87
                            26 2.87   2 2.87   5 2.87  17 2.87  51 3.09  39 3.09  42 3.09  49 3.09
  15  0.111  0.667  0.444-  85 2.14 103 2.14  79 2.14  64 2.14  88 2.14  82 2.14   6 2.87  18 2.87
                             3 2.87  27 2.87  24 2.87  12 2.87  32 3.09  44 3.09  41 3.09  43 3.09
  16  0.333  0.000  0.333-  69 2.14  84 2.14  66 2.14  90 2.14  87 2.14  63 2.14   7 2.87  10 2.87
                            19 2.87   4 2.87  25 2.87  13 2.87  35 3.09  42 3.09  33 3.09  45 3.09
  17  0.222  0.333  0.556- 104 2.14  92 2.14  86 2.14 107 2.14  83 2.14  89 2.14  26 2.87  11 2.87
                            20 2.87   8 2.87  14 2.87   5 2.87  54 3.09  42 3.09  45 3.09  52 3.09
  18  0.444  0.667  0.444-  73 2.14  85 2.14  91 2.14  70 2.14  76 2.14  88 2.14   9 2.87  12 2.87
                            15 2.87   6 2.87  21 2.87  27 2.87  35 3.09  38 3.09  44 3.09  37 3.09
  19  0.333  0.000  0.667-  75 2.14 108 2.14  93 2.14  96 2.14  87 2.14  90 2.14   1 2.87  22 2.87
                            25 2.87   4 2.87  16 2.87  10 2.87  38 3.09  54 3.09  47 3.09  48 3.09
  20  0.222  0.333  0.889-  56 2.14  92 2.14  62 2.14  95 2.14  59 2.14 107 2.14  11 2.87   2 2.87
                            23 2.87  26 2.87  17 2.87   5 2.87  48 3.09  30 3.09  54 3.09  28 3.09
  21  0.444  0.667  0.778-  97 2.14  61 2.14  91 2.14  94 2.14  76 2.14 100 2.14   3 2.87  27 2.87
                            18 2.87   6 2.87  12 2.87  24 2.87  47 3.09  38 3.09  50 3.09  49 3.09
  22  0.667  0.000  0.667-  96 2.14  81 2.14  99 2.14  75 2.14  78 2.14 102 2.14   4 2.87  19 2.87
                            10 2.87   7 2.87  13 2.87  25 2.87  48 3.09  41 3.09  50 3.09  38 3.09
  23  0.556  0.333  0.889-  62 2.14  98 2.14  68 2.14  65 2.14  95 2.14 101 2.14  14 2.87   5 2.87
                            20 2.87  11 2.87   8 2.87  26 2.87  33 3.09  48 3.09  51 3.09  31 3.09
  24  0.778  0.667  0.778- 103 2.14  67 2.14  97 2.14  82 2.14 106 2.14 100 2.14   6 2.87  27 2.87
                             9 2.87  15 2.87  21 2.87  12 2.87  41 3.09  53 3.09  50 3.09  52 3.09
  25  0.000  0.000  0.667-  87 2.14 102 2.14 105 2.14 108 2.14  84 2.14  81 2.14   7 2.87  19 2.87
                             1 2.87  16 2.87  22 2.87  13 2.87  44 3.09  51 3.09  53 3.09  54 3.09
  26  0.889  0.333  0.889-  68 2.14 104 2.14  56 2.14 107 2.14  71 2.14 101 2.14   8 2.87  17 2.87
                            20 2.87   2 2.87  14 2.87  23 2.87  54 3.09  36 3.09  51 3.09  34 3.09
  27  0.111  0.667  0.778-  91 2.14  55 2.14 103 2.14 106 2.14  88 2.14  94 2.14   9 2.87  21 2.87
                            24 2.87   3 2.87  15 2.87  18 2.87  53 3.09  44 3.09  47 3.09  46 3.09
  28  0.000  0.500  0.000-  71 2.08  94 2.08  58 2.08 107 2.08 106 2.08  59 2.08   9 3.09  20 3.09
                             2 3.09  27 3.09  26 3.09   3 3.09
  29  0.889  0.833  0.222-  73 2.08  55 2.08  79 2.08  60 2.08  78 2.08  72 2.08   3 3.09  12 3.09
                             9 3.09  10 3.09   1 3.09  13 3.09
  30  0.111  0.167  0.111-  62 2.08  80 2.08  56 2.08  57 2.08  93 2.08  63 2.08   2 3.09  20 3.09
                             5 3.09   4 3.09  13 3.09   1 3.09
  31  0.333  0.500  0.000-  59 2.08 100 2.08  95 2.08  64 2.08  94 2.08  65 2.08   3 3.09  23 3.09
                            21 3.09   5 3.09  20 3.09   6 3.09
  32  0.222  0.833  0.222-  79 2.08  61 2.08  85 2.08  84 2.08  60 2.08  66 2.08  15 3.09   3 3.09
                             6 3.09  13 3.09   4 3.09  16 3.09
  33  0.444  0.167  0.111-  68 2.08  86 2.08  62 2.08  99 2.08  69 2.08  63 2.08  23 3.09   8 3.09
                             5 3.09   7 3.09  16 3.09   4 3.09
  34  0.667  0.500  0.000-  65 2.08 106 2.08 101 2.08  70 2.08  71 2.08 100 2.08   6 3.09  26 3.09
                            24 3.09   8 3.09   9 3.09  23 3.09
  35  0.556  0.833  0.222-  85 2.08  67 2.08  73 2.08  72 2.08  90 2.08  66 2.08   9 3.09  18 3.09
                             6 3.09  16 3.09   7 3.09  10 3.09
  36  0.778  0.167  0.111-  56 2.08  74 2.08  68 2.08  69 2.08 105 2.08  57 2.08   8 3.09  26 3.09
                             2 3.09   1 3.09  10 3.09   7 3.09
  37  0.667  0.500  0.333-  58 2.08  89 2.08  71 2.08  70 2.08  77 2.08  76 2.08   2 3.09  18 3.09
                             9 3.09  12 3.09   8 3.09  11 3.09
  38  0.556  0.833  0.556-  91 2.08  97 2.08  73 2.08  96 2.08  90 2.08  78 2.08  21 3.09  18 3.09
                            12 3.09  19 3.09  22 3.09  10 3.09
  39  0.778  0.167  0.444-  80 2.08  74 2.08  98 2.08  57 2.08  81 2.08  75 2.08   2 3.09  14 3.09
                            11 3.09  13 3.09  10 3.09  22 3.09
  40  0.000  0.500  0.333-  64 2.08  77 2.08  59 2.08  58 2.08  82 2.08  83 2.08   5 3.09  12 3.09
                             3 3.09   2 3.09  14 3.09  15 3.09
  41  0.889  0.833  0.556-  97 2.08  79 2.08 103 2.08 102 2.08  78 2.08  84 2.08  24 3.09  12 3.09
                            15 3.09  22 3.09  13 3.09  25 3.09
  42  0.111  0.167  0.444-  86 2.08 104 2.08  80 2.08  63 2.08  87 2.08  81 2.08   5 3.09  17 3.09
                            14 3.09  16 3.09  25 3.09  13 3.09
  43  0.333  0.500  0.333-  70 2.08  83 2.08  65 2.08  89 2.08  88 2.08  64 2.08   8 3.09  15 3.09
                             6 3.09  18 3.09  17 3.09   5 3.09
  44  0.222  0.833  0.556- 103 2.08  91 2.08  85 2.08 108 2.08  84 2.08  90 2.08  27 3.09  15 3.09
                            18 3.09  25 3.09  19 3.09  16 3.09
  45  0.444  0.167  0.444-  74 2.08  86 2.08  92 2.08  69 2.08  75 2.08  87 2.08   8 3.09  11 3.09
                            17 3.09  10 3.09  16 3.09  19 3.09
  46  0.333  0.500  0.667- 107 2.08  76 2.08  94 2.08  95 2.08  88 2.08  89 2.08  11 3.09  27 3.09
                            20 3.09  21 3.09  17 3.09  18 3.09
  47  0.222  0.833  0.889-  55 2.08  91 2.08  61 2.08  96 2.08  60 2.08 108 2.08  21 3.09   3 3.09
                            27 3.09   1 3.09  19 3.09   4 3.09
  48  0.444  0.167  0.778-  98 2.08  62 2.08  92 2.08  93 2.08  75 2.08  99 2.08  20 3.09  11 3.09
[...]
   -.129E-05 -.204E+03 -.776E-06   0.197E-05 0.222E+03 -.767E-06   0.466E-19 -.181E+02 0.322E-19   -.340E-10 0.901E-02 -.914E-10
   0.129E-05 0.204E+03 0.776E-06   -.197E-05 -.222E+03 0.767E-06   0.254E-20 0.181E+02 -.508E-20   0.340E-10 -.901E-02 0.913E-10
   -.921E-06 -.204E+03 -.986E-05   0.487E-05 0.222E+03 0.162E-04   0.174E-19 -.181E+02 0.220E-19   -.105E-09 0.901E-02 -.156E-07
   0.490E-06 0.204E+03 -.264E-04   0.503E-05 -.222E+03 0.153E-04   -.186E-19 0.181E+02 0.847E-21   0.101E-09 -.901E-02 -.671E-08
   -.235E-04 -.204E+03 -.158E-04   0.111E-04 0.222E+03 0.126E-04   0.190E-19 -.181E+02 0.263E-19   -.595E-08 0.901E-02 -.343E-08
   -.592E-05 0.204E+03 -.418E-05   0.112E-04 -.222E+03 0.117E-04   -.212E-19 0.181E+02 -.805E-20   -.134E-07 -.901E-02 -.774E-08
[...]
   0.237E-04 -.204E+03 -.149E-04   0.114E-04 0.222E+03 -.619E-05   0.339E-20 -.181E+02 -.508E-20   0.377E-08 0.901E-02 -.228E-08
   0.504E-04 0.204E+03 -.272E-04   0.115E-04 -.222E+03 -.702E-05   -.508E-20 0.181E+02 -.678E-20   -.114E-08 -.901E-02 0.765E-09
   0.460E-04 -.204E+03 -.289E-04   0.148E-04 0.222E+03 -.817E-05   0.508E-20 -.181E+02 -.678E-20   0.176E-09 0.901E-02 -.213E-09
   0.481E-04 0.204E+03 -.270E-04   0.126E-04 -.222E+03 -.766E-05   -.847E-21 0.181E+02 -.288E-19   0.365E-09 -.901E-02 -.101E-09
   0.457E-04 -.204E+03 0.388E-04   0.136E-04 0.222E+03 0.157E-05   0.428E-19 -.181E+02 0.195E-19   0.246E-09 0.901E-02 0.136E-07
   0.489E-04 0.204E+03 0.344E-04   0.749E-05 -.222E+03 -.777E-05   0.889E-20 0.181E+02 -.224E-19   0.316E-09 -.901E-02 0.120E-07
   -.252E-04 -.204E+03 -.145E-04   -.721E-05 0.222E+03 -.110E-04   0.305E-19 -.181E+02 0.508E-20   -.393E-08 0.901E-02 -.219E-08
   -.472E-04 0.204E+03 -.243E-04   -.133E-04 -.222E+03 -.203E-04   0.847E-21 0.181E+02 -.169E-20   0.125E-08 -.901E-02 0.730E-09
   -.450E-04 -.204E+03 -.549E-04   -.140E-04 0.222E+03 -.264E-04   0.144E-19 -.181E+02 -.136E-19   -.490E-08 0.901E-02 -.816E-08
   -.218E-04 0.204E+03 -.652E-04   -.162E-04 -.222E+03 -.259E-04   -.121E-19 0.181E+02 0.974E-20   -.452E-08 -.901E-02 -.816E-08
   0.592E-05 -.204E+03 0.418E-05   -.112E-04 0.222E+03 -.117E-04   0.381E-19 -.181E+02 0.119E-19   0.134E-07 0.901E-02 0.774E-08
   0.235E-04 0.204E+03 0.158E-04   -.111E-04 -.222E+03 -.126E-04   0.424E-21 0.181E+02 -.148E-19   0.595E-08 -.901E-02 0.343E-08
   -.490E-06 -.204E+03 0.264E-04   -.503E-05 0.222E+03 -.153E-04   0.197E-19 -.181E+02 0.196E-19   -.101E-09 0.901E-02 0.671E-08
   0.921E-06 0.204E+03 0.986E-05   -.487E-05 -.222E+03 -.162E-04   -.139E-19 0.181E+02 -.694E-20   0.104E-09 -.901E-02 0.156E-07
   0.617E-10 0.127E-09 0.729E-10   0.171E-12 -.853E-13 0.816E-12   0.324E-18 -.110E-12 -.445E-19   -.984E-12 0.961E-12 -.215E-12

 POSITION                                       TOTAL-FORCE (eV/Angst)
      0.00000      0.00000     -0.00000         0.000000      0.000000      0.000000
      8.59232      5.29585      1.65359        -0.000000      0.000000      0.000000
      1.43205     10.59171      0.82680        -0.000000      0.000000     -0.000000
      2.86411      0.00000     -0.00000         0.000000      0.000000      0.000000
      2.86411      5.29585      1.65359        -0.000000      0.000000     -0.000000
      4.29616     10.59171      0.82680        -0.000000      0.000000     -0.000000
      5.72822      0.00000     -0.00000         0.000000      0.000000      0.000000
      5.72822      5.29585      1.65359        -0.000000      0.000000     -0.000000
      7.16027     10.59171      0.82680        -0.000000      0.000000      0.000000
      7.16027      0.00000      2.48039        -0.000000      0.000000     -0.000000
      7.16027      5.29585      4.13398         0.000000      0.000000     -0.000000
      8.59232     10.59171      3.30719         0.000000      0.000000     -0.000000
      1.43205      0.00000      2.48039         0.000000      0.000000     -0.000000
     10.02438      5.29585      4.13398         0.000000      0.000000      0.000000
      2.86411     10.59171      3.30719        -0.000000      0.000000     -0.000000
      4.29616      0.00000      2.48039        -0.000000      0.000000     -0.000000
      4.29616      5.29585      4.13398        -0.000000      0.000000     -0.000000
      5.72822     10.59171      3.30719         0.000000      0.000000     -0.000000
      5.72822      0.00000      4.96078         0.000000      0.000000     -0.000000
      5.72822      5.29585      6.61437         0.000000      0.000000      0.000000
      7.16027     10.59171      5.78758        -0.000000      0.000000     -0.000000
      8.59232      0.00000      4.96078         0.000000      0.000000     -0.000000
      8.59232      5.29585      6.61437         0.000000      0.000000      0.000000
     10.02438     10.59171      5.78758         0.000000      0.000000     -0.000000
      2.86411      0.00000      4.96078         0.000000      0.000000     -0.000000
     11.45643      5.29585      6.61437         0.000000      0.000000      0.000000
      4.29616     10.59171      5.78758         0.000000      0.000000      0.000000
      0.00000      7.94378      0.00000         0.000000      0.000000      0.000000
      8.59232     13.23964      1.65359         0.000000      0.000000      0.000000
      1.43205      2.64793      0.82680        -0.000000      0.000000      0.000000
      2.86411      7.94378     -0.00000        -0.000000      0.000000      0.000000
      2.86411     13.23964      1.65359         0.000000      0.000000      0.000000
      4.29616      2.64793      0.82680        -0.000000      0.000000     -0.000000
      5.72822      7.94378     -0.00000        -0.000000      0.000000      0.000000
      5.72822     13.23964      1.65359         0.000000      0.000000     -0.000000
      7.16027      2.64793      0.82680        -0.000000      0.000000      0.000000
      7.16027      7.94378      2.48039         0.000000      0.000000      0.000000
      7.16027     13.23964      4.13398        -0.000000      0.000000      0.000000
      8.59232      2.64793      3.30719        -0.000000      0.000000     -0.000000
      1.43205      7.94378      2.48039         0.000000      0.000000     -0.000000
     10.02438     13.23964      4.13398         0.000000      0.000000      0.000000
      2.86411      2.64793      3.30719         0.000000      0.000000      0.000000
      4.29616      7.94378      2.48039         0.000000      0.000000      0.000000
      4.29616     13.23964      4.13398        -0.000000      0.000000     -0.000000
      5.72822      2.64793      3.30719         0.000000      0.000000     -0.000000
      5.72822      7.94378      4.96078         0.000000      0.000000      0.000000
      5.72822     13.23964      6.61437         0.000000      0.000000      0.000000
      7.16027      2.64793      5.78758        -0.000000      0.000000     -0.000000
      8.59232      7.94378      4.96078         0.000000      0.000000     -0.000000
      8.59232     13.23964      6.61437        -0.000000      0.000000      0.000000
     10.02438      2.64793      5.78758         0.000000      0.000000      0.000000
      2.86411      7.94378      4.96078        -0.000000      0.000000      0.000000
     11.45643     13.23964      6.61437        -0.000000      0.000000      0.000000
      4.29616      2.64793      5.78758         0.000000      0.000000      0.000000
     -0.00000     11.96993      0.00000         0.000000     -0.007085      0.000000
      0.00000      3.91763      0.00000         0.000000      0.007085     -0.000000
      8.59232      1.37822      1.65359        -0.000000     -0.007085      0.000000
      8.59232      9.21348      1.65359        -0.000000      0.007085      0.000000
      1.43205      6.67408      0.82680        -0.000000     -0.007085     -0.000000
      1.43205     14.50934      0.82680        -0.000000      0.007085     -0.000000
[...]
      5.72822      9.21348      6.61437        -0.000000      0.007085      0.000000
      7.16027      6.67408      5.78758        -0.000000     -0.007085     -0.000000
      7.16027     14.50934      5.78758         0.000000      0.007085      0.000000
      8.59232     11.96993      4.96078         0.000000     -0.007085     -0.000000
      8.59232      3.91763      4.96078         0.000000      0.007085      0.000000
      8.59232      1.37822      6.61437        -0.000000     -0.007085     -0.000000
      8.59232      9.21348      6.61437         0.000000      0.007085      0.000000
     10.02438      6.67408      5.78758        -0.000000     -0.007085      0.000000
     10.02438     14.50934      5.78758         0.000000      0.007085     -0.000000
      2.86411     11.96993      4.96078         0.000000     -0.007085      0.000000
      2.86411      3.91763      4.96078         0.000000      0.007085     -0.000000
     11.45643      1.37822      6.61437        -0.000000     -0.007085      0.000000
     11.45643      9.21348      6.61437        -0.000000      0.007085      0.000000
      4.29616      6.67408      5.78758         0.000000     -0.007085      0.000000
      4.29616     14.50934      5.78758         0.000000      0.007085      0.000000
    total drift:                                0.000000      0.000000      0.000000

  FREE ENERGIE OF THE ION-ELECTRON SYSTEM (eV)
  free  energy   TOTEN  =      -914.2556686468 eV

  energy  without entropy=     -914.1287732038  energy(sigma->0) =     -914.19222093

 d Force = 0.1004660E-03[ 0.198E-03, 0.291E-05]  d Energy = 0.1407745E-02-0.131E-02
 d Force =-0.6194338E+01[-0.620E+01,-0.619E+01]  d Ewald  =-0.1800339E+02 0.118E+02

 Quasi-Newton relaxation of ions (Broydens 2nd method)
  g(Force)  = 0.131E-03   g(Stress)= 0.848E-03

 retain information from N=  2 steps
 eigenvalues of (default step * inverse Hessian matrix)
  average eigenvalue of G=   0.5971
 eigenvalue spectrum of G is  0.4597  0.7345

 reached required accuracy - stopping structural energy minimisation

volume of typ            1:    26.8 %

[...]

volume of typ            3:     8.7 %

total charge

# of ion       s       p       d       tot
    1        0.223   6.068   2.259   8.550
    2        0.223   6.068   2.259   8.550
    3        0.223   6.068   2.259   8.550
    4        0.223   6.068   2.259   8.550
    5        0.223   6.068   2.259   8.550
    6        0.223   6.068   2.259   8.550
    7        0.223   6.068   2.259   8.550
    8        0.223   6.068   2.259   8.550
    9        0.223   6.068   2.259   8.550
   10        0.223   6.068   2.259   8.550
   11        0.223   6.068   2.259   8.550
   12        0.223   6.068   2.259   8.550
   13        0.223   6.068   2.259   8.550
   14        0.223   6.068   2.259   8.550
   15        0.223   6.068   2.259   8.550
   16        0.223   6.068   2.259   8.550
   17        0.223   6.068   2.259   8.550
   18        0.223   6.068   2.259   8.550
   19        0.223   6.068   2.259   8.550
   20        0.223   6.068   2.259   8.550
   21        0.223   6.068   2.259   8.550
   22        0.223   6.068   2.259   8.550
   23        0.223   6.068   2.259   8.550
   24        0.223   6.068   2.259   8.550
   25        0.223   6.068   2.259   8.550
   26        0.223   6.068   2.259   8.550
   27        0.223   6.068   2.259   8.550
   28        2.085   0.274   0.115   2.474
   29        2.085   0.274   0.115   2.474
   30        2.085   0.274   0.115   2.474
   31        2.085   0.274   0.115   2.474
   32        2.085   0.274   0.115   2.474
   33        2.085   0.274   0.115   2.474
   34        2.085   0.274   0.115   2.474
   35        2.085   0.274   0.115   2.474
   36        2.085   0.274   0.115   2.474
   37        2.085   0.274   0.115   2.474
   38        2.085   0.274   0.115   2.474
   39        2.085   0.274   0.115   2.474
   40        2.085   0.274   0.115   2.474
   41        2.085   0.274   0.115   2.474
   42        2.085   0.274   0.115   2.474
   43        2.085   0.274   0.115   2.474
   44        2.085   0.274   0.115   2.474
   45        2.085   0.274   0.115   2.474
   46        2.085   0.274   0.115   2.474
   47        2.085   0.274   0.115   2.474
   48        2.085   0.274   0.115   2.474
   49        2.085   0.274   0.115   2.474
   50        2.085   0.274   0.115   2.474
   51        2.085   0.274   0.115   2.474
   52        2.085   0.274   0.115   2.474
   53        2.085   0.274   0.115   2.474
   54        2.085   0.274   0.115   2.474
   55        1.243   2.846   0.006   4.095
   56        1.243   2.846   0.006   4.095
   57        1.243   2.846   0.006   4.095
   58        1.243   2.846   0.006   4.095
   59        1.243   2.846   0.006   4.095
   60        1.243   2.846   0.006   4.095
[...]
   94        1.243   2.846   0.006   4.095
   95        1.243   2.846   0.006   4.095
   96        1.243   2.846   0.006   4.095
   97        1.243   2.846   0.006   4.095
   98        1.243   2.846   0.006   4.095
   99        1.243   2.846   0.006   4.095
  100        1.243   2.846   0.006   4.095
  101        1.243   2.846   0.006   4.095
  102        1.243   2.846   0.006   4.095
  103        1.243   2.846   0.006   4.095
  104        1.243   2.846   0.006   4.095
  105        1.243   2.846   0.006   4.095
  106        1.243   2.846   0.006   4.095
  107        1.243   2.846   0.006   4.095
  108        1.243   2.846   0.006   4.095
tot         129.41  324.94   64.40  518.75

magnetization (x)

# of ion       s       p       d       tot
    1        0.002   0.004   0.244   0.250
    2        0.002   0.004   0.244   0.250
    3        0.002   0.004   0.244   0.250
    4        0.002   0.004   0.244   0.250
    5        0.002   0.004   0.244   0.250
    6        0.002   0.004   0.244   0.250
    7        0.002   0.004   0.244   0.250
    8        0.002   0.004   0.244   0.250
    9        0.002   0.004   0.244   0.250
   10        0.002   0.004   0.244   0.250
   11        0.002   0.004   0.244   0.250
   12        0.002   0.004   0.244   0.250
   13        0.002   0.004   0.244   0.250
   14        0.002   0.004   0.244   0.250
   15        0.002   0.004   0.244   0.250
   16        0.002   0.004   0.244   0.250
   17        0.002   0.004   0.244   0.250
   18        0.002   0.004   0.244   0.250
   19        0.002   0.004   0.244   0.250
   20        0.002   0.004   0.244   0.250
   21        0.002   0.004   0.244   0.250
   22        0.002   0.004   0.244   0.250
   23        0.002   0.004   0.244   0.250
   24        0.002   0.004   0.244   0.250
   25        0.002   0.004   0.244   0.250
   26        0.002   0.004   0.244   0.250
   27        0.002   0.004   0.244   0.250
   28        0.001  -0.000   0.000   0.001
   29        0.001  -0.000   0.000   0.001
   30        0.001  -0.000   0.000   0.001
   31        0.001  -0.000   0.000   0.001
   32        0.001  -0.000   0.000   0.001
   33        0.001  -0.000   0.000   0.001
   34        0.001  -0.000   0.000   0.001
   35        0.001  -0.000   0.000   0.001
   36        0.001  -0.000   0.000   0.001
   37        0.001  -0.000   0.000   0.001
   38        0.001  -0.000   0.000   0.001
   39        0.001  -0.000   0.000   0.001
   40        0.001  -0.000   0.000   0.001
   41        0.001  -0.000   0.000   0.001
   42        0.001  -0.000   0.000   0.001
   43        0.001  -0.000   0.000   0.001
   44        0.001  -0.000   0.000   0.001
   45        0.001  -0.000   0.000   0.001
   46        0.001  -0.000   0.000   0.001
   47        0.001  -0.000   0.000   0.001
   48        0.001  -0.000   0.000   0.001
   49        0.001  -0.000   0.000   0.001
   50        0.001  -0.000   0.000   0.001
   51        0.001  -0.000   0.000   0.001
   52        0.001  -0.000   0.000   0.001
   53        0.001  -0.000   0.000   0.001
   54        0.001  -0.000   0.000   0.001
   55        0.001   0.020   0.000   0.021
   56        0.001   0.020   0.000   0.021
   57        0.001   0.020   0.000   0.021
   58        0.001   0.020   0.000   0.021
   59        0.001   0.020   0.000   0.021
   60        0.001   0.020   0.000   0.021
[...]
   94        0.001   0.020   0.000   0.021
   95        0.001   0.020   0.000   0.021
   96        0.001   0.020   0.000   0.021
   97        0.001   0.020   0.000   0.021
   98        0.001   0.020   0.000   0.021
   99        0.001   0.020   0.000   0.021
  100        0.001   0.020   0.000   0.021
  101        0.001   0.020   0.000   0.021
  102        0.001   0.020   0.000   0.021
  103        0.001   0.020   0.000   0.021
  104        0.001   0.020   0.000   0.021
  105        0.001   0.020   0.000   0.021
  106        0.001   0.020   0.000   0.021
  107        0.001   0.020   0.000   0.021
  108        0.001   0.020   0.000   0.021
tot           0.10    1.20    6.62    7.92