 vasp.5.4.4.18Apr17-6-g9f103f2a35 (build May 12 2020 05:39:39) gamma-only

 MD_VERSION_INFO: Compiled 2020-05-12T12:39:39-UTC in devlin.sd.materialsdesign.
 com:/home/medea2/data/build/wwolf/vasp-gpu5.4.4/13047/x86_64/src/src/build/gam
 from svn 13047

 executed on                        Lin64 date 2023.04.01  03:52:55

 INCAR:
 POTCAR:    PAW_PBE Ta_pv 07Sep2000
 POTCAR:    PAW_PBE Ni 02Aug2007
 POTCAR:    PAW_PBE Li_sv 10Sep2004
 POTCAR:    PAW_PBE O 08Apr2002

 POTCAR:    PAW_PBE Ta_pv 07Sep2000

 POTCAR:    PAW_PBE Ni 02Aug2007

 POTCAR:    PAW_PBE Li_sv 10Sep2004

 POTCAR:    PAW_PBE O 08Apr2002

 Optimization of the real space projectors (new method)

 maximal supplied QI-value         = 15.12
 optimisation between [QCUT,QGAM] = [ 11.34, 22.83] = [ 36.00,145.93] Ry
 Optimized for a Real-space Cutoff    1.61 Angstroem

   l    n(q)    QCUT    max X(q) W(low)/X(q) W(high)/X(q)  e(spline)
   1     11    11.338     4.092    0.40E-05    0.64E-05    0.47E-07
   1     11    11.338     4.834    0.13E-04    0.44E-04    0.21E-06
   2     10    11.338    62.294    0.15E-03    0.31E-03    0.77E-06
   2     10    11.338    50.966    0.15E-03    0.31E-03    0.77E-06
   0     11    11.338   103.792    0.33E-04    0.19E-04    0.90E-07
   0     11    11.338    56.335    0.26E-04    0.17E-04    0.79E-07
 Optimization of the real space projectors (new method)

[...]

   l    n(q)    QCUT    max X(q) W(low)/X(q) W(high)/X(q)  e(spline)
   0      7    11.276    10.506    0.54E-04    0.58E-04    0.16E-07
   0      7    11.276     8.367    0.11E-03    0.14E-03    0.35E-07
   1      7    11.276     8.983    0.23E-03    0.43E-03    0.86E-07
 Optimization of the real space projectors (new method)

 maximal supplied QI-value         = 24.76
 optimisation between [QCUT,QGAM] = [ 11.39, 22.77] = [ 36.31,145.25] Ry
 Optimized for a Real-space Cutoff    1.10 Angstroem

   l    n(q)    QCUT    max X(q) W(low)/X(q) W(high)/X(q)  e(spline)
   0      7    11.387    20.381    0.22E-03    0.48E-03    0.18E-06
   0      7    11.387    15.268    0.22E-03    0.52E-03    0.19E-06
   1      7    11.387     5.964    0.22E-03    0.73E-03    0.24E-06
   1      7    11.387     5.382    0.19E-03    0.60E-03    0.21E-06

  PAW_PBE Ta_pv 07Sep2000               :
  PAW_PBE Ni 02Aug2007                  :
  PAW_PBE Li_sv 10Sep2004               :
  PAW_PBE O 08Apr2002                   :

 POSCAR: ce245456_1
  positions in direct lattice
 exchange correlation table for  LEXCH =       14
   RHO(1)=    0.500       N(1)  =     2000
   RHO(2)=  100.500       N(2)  =     4000

 ion  position               nearest neighbor table
   1  0.000  0.998  0.999- 105 2.07  60 2.07  57 2.09 108 2.10  93 2.15  72 2.15   8 2.86  12 2.86
                             4 2.91   6 2.92  25 2.93  19 2.98  53 3.01  30 3.04  36 3.07  29 3.08
   2  0.882  0.335  0.226-  77 2.07  56 2.07  80 2.07  71 2.07  74 2.12  59 2.15   7 2.86   9 2.86
                            20 2.93  26 2.95  36 3.02   5 3.03  13 3.03  37 3.04  28 3.09  40 3.09
   3  0.109  0.667  0.113-  58 2.00  55 2.00  64 2.00  79 2.00  61 2.01  94 2.01  17 2.89  18 2.90
                            21 2.91  16 2.93  27 2.93  31 2.94  47 2.94  23 2.95  29 2.99  32 2.99
   4  0.333  0.997  0.999-  99 2.07  60 2.07  63 2.10  96 2.10  66 2.15  93 2.16  12 2.86  10 2.87
                             1 2.91   6 2.93  24 2.93  19 2.97  48 3.00  30 3.01  50 3.01  33 3.06
   5  0.233  0.337  0.215-  83 2.01  86 2.06  80 2.12  59 2.13  65 2.14  62 2.16  14 2.76   7 2.87
                            13 2.88  22 2.94  43 2.98  20 3.00  33 3.01   2 3.03  40 3.08  30 3.09
   6  0.661  0.996  0.012- 102 2.03  99 2.11 105 2.12  72 2.14  66 2.15  69 2.21   8 2.75  10 2.76
                             1 2.92   4 2.93  24 2.99  25 2.99  35 2.99  33 3.04  36 3.05  53 3.06
   7  0.557  0.336  0.222-  68 2.07  89 2.07  86 2.10  71 2.10  65 2.15  74 2.16   2 2.86   5 2.87
                             9 2.91  14 2.93  26 2.93  22 2.97  36 3.00  45 3.01  34 3.01  33 3.06
   8  0.670  0.997  0.322-  78 2.02  57 2.07  75 2.13  72 2.13  90 2.13  69 2.16   6 2.75   1 2.86
                            10 2.88  19 2.95  29 2.97  24 3.02  12 3.03  39 3.05  36 3.07  38 3.08
   9  0.557  0.336  0.555-  98 2.07  89 2.07  92 2.09  77 2.10  74 2.15  95 2.15  13 2.86   2 2.86
                             7 2.91  14 2.92  20 2.93  22 2.98  49 3.01  45 3.04  48 3.07  46 3.08
  10  0.341  0.996  0.322-  84 2.01  63 2.06  87 2.12  90 2.13  66 2.14  69 2.16   6 2.76   4 2.87
                             8 2.88  19 2.94  32 2.98  25 3.00  33 3.01  12 3.03  44 3.08  45 3.09
  11  0.442  0.667  0.447-  91 2.00  76 2.00  85 2.00  88 2.00  70 2.01  73 2.01  23 2.89  27 2.90
                            21 2.91  16 2.93  18 2.93  35 2.94  37 2.94  17 2.95  46 2.99  43 2.99
  12  0.329  0.998  0.674- 108 2.07  75 2.07  87 2.07  96 2.07  93 2.12  90 2.15   4 2.86   1 2.86
                            25 2.93  24 2.95  48 3.02  10 3.03   8 3.03  47 3.04  38 3.09  44 3.09
  13  0.234  0.337  0.886- 107 2.02  92 2.07  56 2.13  95 2.13  59 2.13  62 2.16  14 2.75   9 2.86
                             5 2.88  22 2.95  46 2.97  26 3.02   2 3.03  54 3.05  48 3.07  28 3.08
  14  0.544  0.338  0.895- 101 2.03  68 2.11  98 2.12  95 2.14  65 2.15  62 2.21  13 2.75   5 2.76
                             9 2.92   7 2.93  26 2.99  20 2.99  31 2.99  33 3.04  48 3.05  49 3.06
  15  0.782  0.667  0.773- 103 2.00  82 2.00  67 2.01 100 2.01  97 2.01 106 2.01  21 2.87  27 2.89
                            18 2.89  17 2.94  23 2.94  16 2.96  53 2.98  49 2.98  50 2.99  34 2.99
  16  0.444  0.667  0.112-  61 2.06  70 2.06  85 2.06  64 2.06  67 2.06 100 2.06  35 2.84  31 2.84
                            21 2.92  11 2.93   3 2.93  17 2.93  23 2.93  15 2.96
  17  0.780  0.667  0.110-  55 2.05  67 2.06  58 2.06  70 2.06  73 2.07 106 2.08  35 2.84   3 2.89
                            27 2.90  18 2.93  16 2.93  15 2.94  11 2.95
  18  0.778  0.668  0.445-  97 2.05  73 2.06  76 2.06  58 2.06  79 2.07  82 2.08  15 2.89   3 2.90
                            23 2.90  21 2.91  17 2.93  11 2.93
  19  0.996  1.000  0.341-  81 2.00  78 2.05  84 2.06  63 2.10  60 2.12  57 2.12  41 2.80  24 2.85
                            25 2.85  10 2.94   8 2.95   4 2.97   1 2.98
  20  0.890  0.333  0.557- 104 2.00 101 2.05  80 2.08  83 2.09  98 2.09  77 2.15  22 2.85  26 2.87
                             9 2.93   2 2.93  14 2.99   5 3.00
  21  0.110  0.667  0.445-  85 2.05  64 2.05 103 2.06  82 2.06  79 2.07  88 2.07  15 2.87  27 2.91
                            18 2.91  11 2.91   3 2.91  16 2.92
  22  0.215  0.334  0.559- 104 2.00 107 2.05  83 2.06  86 2.10  89 2.12  92 2.12  52 2.80  26 2.85
                            20 2.85   5 2.94  13 2.95   7 2.97   9 2.98
  23  0.445  0.666  0.776-  76 2.05 100 2.06  91 2.06  61 2.06  94 2.07  97 2.08  31 2.84  11 2.89
                            18 2.90  27 2.93  16 2.93  15 2.94   3 2.95
  24  0.670  1.000  0.666-  81 2.01 102 2.04  99 2.08  78 2.08  75 2.08  96 2.16  19 2.85  25 2.87
                             4 2.93  12 2.95   6 2.99   8 3.02
  25  0.998  0.001  0.666-  81 2.00 102 2.05  87 2.08  84 2.09 105 2.09 108 2.15  19 2.85  24 2.87
                             1 2.93  12 2.93   6 2.99  10 3.00
  26  0.890  0.334  0.885- 104 2.01 101 2.04  68 2.08 107 2.08  56 2.08  71 2.16  22 2.85  20 2.87
                             7 2.93   2 2.95  14 2.99  13 3.02
  27  0.110  0.666  0.778- 106 2.05  94 2.06  55 2.06  91 2.06  88 2.07 103 2.08  15 2.89  11 2.90
                            17 2.90  21 2.91  23 2.93   3 2.93
  28  0.994  0.503  0.989- 106 2.05  71 2.05 107 2.09  94 2.14  59 2.17  58 2.18   3 3.04  13 3.08
                             2 3.09
  29  0.880  0.829  0.233-  72 2.03  79 2.07  78 2.09  73 2.11  55 2.18  60 2.19   8 2.97   3 2.99
                             1 3.08
  30  0.111  0.163  0.119-  62 1.99  63 2.07  93 2.07  57 2.10  80 2.11  56 2.20   4 3.01   1 3.04
                             5 3.09   2 3.10
  31  0.347  0.511  0.993- 100 2.03  94 2.07  65 2.08  95 2.08  64 2.09  59 2.26  23 2.84  16 2.84
                             3 2.94  14 2.99   5 3.10  13 3.11
  32  0.220  0.829  0.232-  66 2.04  79 2.07  85 2.09  84 2.10  61 2.16  60 2.19  10 2.98   3 2.99
                             4 3.07
  33  0.445  0.167  0.111-  62 2.02  69 2.02  68 2.12  99 2.12  86 2.12  63 2.12   5 3.01  10 3.01
                            14 3.04   6 3.04   7 3.06   4 3.06
  34  0.668  0.505  0.006-  65 2.02 106 2.07  71 2.08  70 2.13 100 2.14 101 2.23  15 2.99   7 3.01
                            14 3.08
  35  0.563  0.822  0.208-  67 2.03  73 2.07  66 2.08  72 2.08  85 2.09  90 2.26  17 2.84  16 2.84
                            11 2.94   6 2.99  10 3.10   8 3.11
  36  0.777  0.170  0.104-  69 2.07  68 2.08  74 2.09 105 2.09  56 2.15  57 2.17   7 3.00   2 3.02
                             6 3.05   8 3.07   1 3.07
  37  0.679  0.511  0.326-  58 2.01  70 2.07  76 2.08  71 2.11  77 2.12  11 2.94   2 3.04
  38  0.566  0.830  0.561-  97 2.05  96 2.05  78 2.09  73 2.14  90 2.17  91 2.18  11 3.04   8 3.08
                            12 3.09
  39  0.785  0.158  0.453-  81 1.99  57 2.11  75 2.14  98 2.19  80 2.22  74 2.22   8 3.05
  40  0.994  0.503  0.350-  82 2.04  77 2.06  83 2.08  64 2.14  58 2.17  59 2.18   3 3.03   5 3.08
                             2 3.09
  41  0.891  0.845  0.550-  84 2.08  78 2.08 102 2.13 103 2.24  97 2.24  79 2.25  19 2.80
  42  0.095  0.167  0.461- 104 2.07  81 2.07  80 2.16  87 2.16  86 2.23  63 2.23
  43  0.324  0.505  0.335-  65 2.04  88 2.07  64 2.09  83 2.10  70 2.16  89 2.19   5 2.98  11 2.99
                             7 3.07
  44  0.206  0.830  0.562- 103 2.04 108 2.06  84 2.08  85 2.14  91 2.17  90 2.18  11 3.03  10 3.08
                            12 3.09
  45  0.437  0.170  0.445-  69 1.99  86 2.07  74 2.07  92 2.10  87 2.11  75 2.20   7 3.01   9 3.04
                            10 3.09  12 3.10
  46  0.323  0.504  0.676-  95 2.03  88 2.07 107 2.09  94 2.11  76 2.18  89 2.19  13 2.97  11 2.99
                             9 3.08
  47  0.229  0.823  0.876-  91 2.01  61 2.07  55 2.08  96 2.11 108 2.12   3 2.94  12 3.04
  48  0.452  0.164  0.778-  62 2.07  99 2.08  93 2.09  98 2.09  75 2.15  92 2.17   4 3.00  12 3.02
                            14 3.05  13 3.07   9 3.07
  49  0.669  0.504  0.660-  95 2.02  82 2.08  77 2.08  76 2.12 100 2.14 101 2.20  15 2.98   9 3.01
                            14 3.06
  50  0.550  0.828  0.887-  66 2.02  97 2.07  96 2.08  61 2.13  67 2.14 102 2.23  15 2.99   4 3.01
                             6 3.08
  51  0.794  0.167  0.762- 104 2.06  81 2.06  98 2.14 105 2.14  68 2.26  99 2.26
  52  0.005  0.488  0.664-  83 2.08 107 2.08 101 2.13  82 2.24 106 2.24  88 2.25  22 2.80
  53  0.896  0.829  0.887-  72 2.02 103 2.08 108 2.08  55 2.12  67 2.14 102 2.20  15 2.98   1 3.01
                             6 3.06
  54  0.103  0.176  0.770- 104 1.99  92 2.11  56 2.14 105 2.19  87 2.22  93 2.22  13 3.05
  55  0.004  0.744  0.001-   3 2.00  17 2.05  27 2.06  47 2.08  53 2.12  29 2.18
  56  0.002  0.256  0.002-   2 2.07  26 2.08  13 2.13  54 2.14  36 2.15  30 2.20
[...]
   0.122E+02 -.231E+03 0.701E+01   -.178E+02 0.245E+03 -.100E+02   0.562E+01 -.139E+02 0.302E+01   -.252E-02 -.229E-01 -.289E-02
   -.140E+01 0.213E+03 0.233E+01   -.133E+01 -.228E+03 -.598E+01   0.273E+01 0.155E+02 0.365E+01   -.210E-02 0.923E-02 0.401E-02
   -.776E+01 -.224E+03 0.283E+00   0.124E+02 0.240E+03 0.253E+01   -.464E+01 -.167E+02 -.281E+01   -.959E-03 -.528E-02 -.332E-02
   0.868E+01 0.232E+03 -.671E+01   -.136E+02 -.246E+03 0.970E+01   0.491E+01 0.136E+02 -.301E+01   -.245E-02 0.299E-01 0.100E-01
   0.107E+02 -.185E+03 -.578E+01   -.111E+02 0.205E+03 0.592E+01   0.450E+00 -.200E+02 -.151E+00   -.599E-02 0.301E-01 0.444E-02
   0.933E+00 0.199E+03 -.146E+02   -.106E+01 -.216E+03 0.215E+02   0.120E+00 0.169E+02 -.694E+01   0.939E-03 -.271E-01 -.770E-02
[...]
   -.648E+00 -.179E+03 0.700E+01   0.110E+01 0.198E+03 -.740E+01   -.456E+00 -.193E+02 0.404E+00   0.844E-03 0.238E-01 -.441E-02
   -.146E+02 0.187E+03 0.926E+01   0.201E+02 -.203E+03 -.123E+02   -.554E+01 0.158E+02 0.304E+01   -.154E-02 -.238E-01 0.725E-03
   0.423E+01 -.239E+03 0.121E+02   -.901E+01 0.252E+03 -.150E+02   0.478E+01 -.133E+02 0.293E+01   -.317E-02 -.269E-01 -.549E-02
   -.912E+01 0.224E+03 0.962E+00   0.145E+02 -.240E+03 -.233E+01   -.534E+01 0.155E+02 0.138E+01   -.162E-02 0.123E-01 -.486E-02
   -.135E+02 -.220E+03 0.107E+02   0.155E+02 0.236E+03 -.160E+02   -.197E+01 -.160E+02 0.532E+01   -.187E-02 -.125E-01 0.475E-03
   0.281E+01 0.225E+03 -.377E+01   -.743E+01 -.238E+03 0.677E+01   0.464E+01 0.131E+02 -.301E+01   -.467E-02 0.239E-01 0.263E-02
   -.113E+02 -.207E+03 0.755E+01   0.158E+02 0.220E+03 -.103E+02   -.448E+01 -.131E+02 0.280E+01   -.234E-02 0.250E-01 -.106E-02
   -.900E+00 0.207E+03 0.135E+02   0.109E+01 -.220E+03 -.188E+02   -.189E+00 0.131E+02 0.528E+01   0.208E-02 -.250E-01 0.149E-02
   -.476E+01 -.238E+03 0.146E+02   0.968E+01 0.252E+03 -.180E+02   -.492E+01 -.137E+02 0.335E+01   0.781E-02 -.365E-01 -.705E-02
   0.653E+01 0.237E+03 -.219E+01   -.757E+01 -.247E+03 0.258E+01   0.103E+01 0.913E+01 -.370E+00   0.168E-02 -.163E-02 -.502E-02
   0.373E+01 -.224E+03 0.838E+01   -.522E+01 0.240E+03 -.137E+02   0.148E+01 -.155E+02 0.532E+01   0.502E-02 -.123E-01 -.103E-02
   -.126E+02 0.239E+03 0.236E+01   0.175E+02 -.252E+03 0.304E+00   -.493E+01 0.133E+02 -.267E+01   0.634E-02 0.269E-01 0.489E-05
   0.182E+02 -.202E+03 0.388E+01   -.238E+02 0.214E+03 -.649E+01   0.554E+01 -.121E+02 0.261E+01   0.256E-02 0.269E-01 0.878E-04
   0.132E+02 0.187E+03 0.770E+01   -.187E+02 -.203E+03 -.105E+02   0.549E+01 0.160E+02 0.285E+01   0.121E-02 -.198E-01 -.277E-03
   -.206E+01 0.328E-02 0.357E+01   0.711E-13 0.881E-12 0.574E-12   0.205E+01 0.280E-10 -.355E+01   -.648E-02 0.116E-05 0.112E-01

 POSITION                                       TOTAL-FORCE (eV/Angst)
      4.38625     14.95783      7.58024         0.001869     -0.000301     -0.003143
      8.70632      5.02770      1.71931        -0.001471      0.000993      0.004496
      1.46680      9.97500      0.86268         0.003245     -0.005066     -0.005946
      7.30274     14.95124      7.57932        -0.003819      0.000079     -0.000972
      3.00081      5.05212      1.63827         0.006655      0.003767      0.001313
      5.85121     14.92525      0.09848        -0.004863      0.000196      0.002300
      5.84935      5.04272      1.68435         0.002751     -0.000079      0.002822
      7.29761     14.93940      2.44234         0.001664     -0.004370     -0.001451
      7.30681      5.03614      4.21056         0.001788      0.000301     -0.003190
      4.39909     14.92744      2.44557        -0.004464     -0.003767     -0.005107
      5.83777     10.00455      3.38626         0.003527      0.005066     -0.005783
      5.84398     14.96626      5.12260        -0.003158     -0.000993      0.003522
      5.92218      5.05456      6.70409         0.000424      0.004370     -0.002167
      8.67522      5.06871      6.78477         0.000440     -0.000196      0.005361
     10.23804     10.00419      5.86054         0.005287      0.000000     -0.009157
      4.39179      9.98978      0.84361         0.002244      0.000000     -0.003886
      7.31214      9.99779      0.83713         0.002030     -0.001060     -0.003559
      8.77049     10.01524      3.37610         0.003125     -0.001102     -0.003070
     10.22606     15.01150      2.60204        -0.001174      0.001016      0.005132
     10.20912      4.99717      4.22535        -0.005147     -0.002191      0.001444
      2.92472      9.98978      3.38465         0.002213      0.000000     -0.003833
      4.31964      4.98246      4.24783        -0.003858     -0.001016      0.003583
      7.30506      9.99618      5.88890         0.002067      0.001060     -0.003537
      8.78753     14.99200      5.06789        -0.003699      0.001518      0.003856
     11.64414      0.03855      5.05386         0.001323      0.002191      0.005179
     11.64975      5.01637      6.72039        -0.001490     -0.001518      0.005131
      4.37707      9.97872      5.89541         0.001096      0.001102     -0.004241
     13.03686      7.57912      7.49548         0.001025      0.001476     -0.002598
      8.73990     12.41371      1.76571         0.005300     -0.006877     -0.005075
      1.48229      2.45566      0.89569        -0.008897      0.003119     -0.002597
      7.39438      7.68068      7.52250         0.015380      0.001561     -0.006165
      2.95604     12.39574      1.76521        -0.002450     -0.005533     -0.004929
      4.37723      2.50345      0.84058        -0.002807     -0.000000      0.004862
      5.88105      7.58375      0.04184        -0.002907      0.003866      0.003748
      5.85274     12.31328      1.57658        -0.002351     -0.001561     -0.016402
      7.25282      2.55235      0.78837        -0.002004     -0.001834      0.006221
      7.38691      7.67399      2.47845         0.006864      0.002208     -0.002195
      7.42273     12.42925      4.25416         0.001737     -0.001476     -0.002186
      8.82948      2.38700      3.43376        -0.010352     -0.000735      0.010423
     10.23920      7.56906      2.65075         0.003029      0.001349      0.000267
     10.22220     12.66239      4.19485         0.002481      0.005987      0.017354
      2.85096      2.50345      3.48414        -0.002368     -0.000000      0.004102
      4.31154      7.58381      2.54781         0.005494      0.005533     -0.000342
      4.27089     12.42490      4.26080        -0.001746     -0.001349     -0.002490
      5.77696      2.55124      3.37522         0.006698     -0.003119      0.006407
      5.78700      7.58025      5.11671         0.001745      0.006877     -0.007127
      5.84625     12.31997      6.64481        -0.001531     -0.002208     -0.007042
      7.35247      2.46895      5.90175        -0.004386      0.001834      0.004846
      8.74205      7.57787      5.00531        -0.003537     -0.000609      0.000584
      8.70935     12.41021      6.73061        -0.001793     -0.003866      0.004391
     10.26303      2.51786      5.78899        -0.007581     -0.000000      0.013131
      2.94216      7.33157      5.04758        -0.016269     -0.005987      0.006528
     11.72669     12.43050      6.72849         0.001263      0.000609      0.003355
      4.27317      2.63431      5.85903        -0.003851      0.000735      0.014177
      0.06505     11.13475      0.02055         0.000888     -0.003354     -0.004783
      0.04090      3.83508      0.02035         0.003324     -0.001698      0.001992
      8.73092      1.22310      1.67207        -0.001522      0.000772     -0.000356
      8.80193      8.83412      1.67089         0.005952     -0.006090     -0.006613
      1.45817      6.28149      0.84778         0.003434     -0.013374     -0.001238
      1.47663     13.76095      0.87132        -0.001383      0.007304      0.004978
[...]
      5.83900      8.83534      6.79419         0.004023     -0.003549     -0.006840
      7.30213      6.43086      5.84794        -0.001475     -0.004386     -0.000249
      7.27444     13.69114      5.89507        -0.003042      0.006108      0.000067
      8.80737     11.17683      5.07539         0.002967      0.000863     -0.004315
      8.72938      3.81263      5.07846        -0.001306     -0.006334      0.006432
      8.74142      1.19810      6.75748        -0.003022      0.009084      0.002316
      8.81316      8.86285      6.70192         0.007285      0.001963     -0.006911
     10.15925      6.15540      5.91517        -0.001759     -0.002471      0.001693
     10.23012     13.85297      5.95609        -0.000587      0.002471      0.002370
     11.64104     11.18952      5.07018        -0.001435      0.005973     -0.006220
     11.65243      3.89351      5.05616        -0.004228      0.001060      0.009257
     11.64519      1.22309      6.76190        -0.004917      0.006334      0.004347
     11.63334      8.83154      6.70696         0.002253     -0.000863     -0.004727
      4.43823      6.17459      5.93473        -0.003961      0.001451      0.002952
      4.41713     13.69381      5.89806         0.002356     -0.002953      0.001222
    total drift:                               -0.016164      0.003279      0.032491

  FREE ENERGIE OF THE ION-ELECTRON SYSTEM (eV)
  free  energy   TOTEN  =      -811.6400322260 eV

  energy  without entropy=     -811.6262738728  energy(sigma->0) =     -811.63315305

 d Force = 0.4566236E-03[ 0.440E-03, 0.473E-03]  d Energy = 0.4492701E-03 0.735E-05
 d Force = 0.1469356E+01[ 0.147E+01, 0.147E+01]  d Ewald  = 0.3101625E+01-0.163E+01

 Quasi-Newton relaxation of ions (Broydens 2nd method)
  g(Force)  = 0.355E-03   g(Stress)= 0.659E-04

 retain information from N=  3 steps
 eigenvalues of (default step * inverse Hessian matrix)
  average eigenvalue of G=   1.1985
 eigenvalue spectrum of G is  0.8085  0.8085  1.9787

 reached required accuracy - stopping structural energy minimisation

volume of typ            1:    15.2 %

[...]

volume of typ            4:     8.9 %

total charge

# of ion       s       p       d       tot
    1        0.237   6.097   2.161   8.494
    2        0.245   6.112   2.092   8.449
    3        0.292   6.188   1.904   8.384
    4        0.236   6.095   2.164   8.496
    5        0.245   6.106   2.145   8.496
    6        0.236   6.087   2.209   8.531
    7        0.236   6.095   2.164   8.496
    8        0.244   6.104   2.145   8.493
    9        0.237   6.097   2.161   8.494
   10        0.245   6.106   2.145   8.496
   11        0.292   6.188   1.904   8.384
   12        0.245   6.112   2.092   8.449
   13        0.244   6.104   2.145   8.493
   14        0.236   6.087   2.209   8.531
   15        0.291   6.187   1.900   8.378
   16        0.202   0.236   7.921   8.359
   17        0.203   0.238   7.923   8.363
   18        0.203   0.239   7.922   8.364
   19        0.206   0.237   7.927   8.370
   20        0.207   0.233   7.937   8.377
   21        0.203   0.238   7.921   8.361
   22        0.206   0.237   7.927   8.370
   23        0.203   0.238   7.923   8.363
   24        0.207   0.233   7.940   8.379
   25        0.207   0.233   7.937   8.377
   26        0.207   0.233   7.940   8.379
   27        0.203   0.239   7.922   8.364
   28        2.078   0.263   0.102   2.444
   29        2.080   0.269   0.106   2.455
   30        2.084   0.285   0.118   2.487
   31        2.083   0.279   0.113   2.475
   32        2.080   0.269   0.106   2.455
   33        2.084   0.294   0.119   2.497
   34        2.080   0.269   0.107   2.457
   35        2.083   0.279   0.113   2.475
   36        2.080   0.271   0.109   2.460
   37        2.083   0.283   0.111   2.477
   38        2.078   0.263   0.102   2.444
   39        2.074   0.245   0.095   2.415
   40        2.079   0.266   0.104   2.449
   41        2.067   0.225   0.084   2.376
   42        2.071   0.234   0.087   2.392
   43        2.080   0.269   0.106   2.455
   44        2.079   0.266   0.104   2.449
   45        2.084   0.285   0.118   2.487
   46        2.080   0.269   0.106   2.455
   47        2.083   0.283   0.111   2.477
   48        2.080   0.271   0.109   2.460
   49        2.081   0.271   0.108   2.460
   50        2.080   0.269   0.107   2.457
   51        2.071   0.237   0.090   2.398
   52        2.067   0.225   0.084   2.376
   53        2.081   0.271   0.108   2.460
   54        2.074   0.245   0.095   2.415
   55        1.248   2.836   0.005   4.089
   56        1.245   2.839   0.005   4.089
   57        1.246   2.839   0.006   4.092
   58        1.248   2.838   0.005   4.091
   59        1.246   2.844   0.006   4.096
   60        1.249   2.834   0.006   4.089
[...]
   94        1.247   2.837   0.005   4.089
   95        1.244   2.846   0.007   4.097
   96        1.246   2.840   0.006   4.092
   97        1.248   2.835   0.005   4.088
   98        1.246   2.838   0.006   4.089
   99        1.246   2.839   0.006   4.091
  100        1.247   2.840   0.005   4.092
  101        1.246   2.820   0.005   4.072
  102        1.246   2.820   0.005   4.072
  103        1.248   2.836   0.005   4.089
  104        1.244   2.810   0.004   4.058
  105        1.246   2.838   0.006   4.089
  106        1.248   2.835   0.005   4.088
  107        1.246   2.830   0.005   4.081
  108        1.246   2.841   0.006   4.093
tot         129.65  254.91  129.80  514.36

magnetization (x)

# of ion       s       p       d       tot
    1       -0.001  -0.001  -0.033  -0.035
    2       -0.001  -0.001  -0.077  -0.079
    3        0.002   0.002   0.017   0.021
    4       -0.001  -0.001  -0.032  -0.033
    5       -0.002  -0.002  -0.078  -0.081
    6       -0.002  -0.003  -0.156  -0.161
    7       -0.001  -0.001  -0.032  -0.033
    8       -0.002  -0.002  -0.087  -0.091
    9       -0.001  -0.001  -0.033  -0.035
   10       -0.002  -0.002  -0.078  -0.081
   11        0.002   0.002   0.017   0.021
   12       -0.001  -0.001  -0.077  -0.079
   13       -0.002  -0.002  -0.087  -0.091
   14       -0.002  -0.003  -0.156  -0.161
   15        0.002   0.002   0.019   0.023
   16       -0.000   0.000  -1.487  -1.487
   17       -0.001   0.001  -1.483  -1.483
   18       -0.001   0.001  -1.480  -1.480
   19        0.002   0.002   1.441   1.445
   20       -0.002   0.001   1.388   1.387
   21       -0.001   0.001  -1.479  -1.479
   22        0.002   0.002   1.441   1.445
   23       -0.001   0.001  -1.483  -1.483
   24       -0.002   0.001   1.385   1.384
   25       -0.002   0.001   1.388   1.387
   26       -0.002   0.001   1.385   1.384
   27       -0.001   0.001  -1.480  -1.480
   28       -0.000  -0.001  -0.000  -0.002
   29       -0.001  -0.002  -0.001  -0.003
   30        0.001   0.003   0.001   0.005
   31       -0.001  -0.004  -0.001  -0.006
   32       -0.001  -0.002  -0.001  -0.003
   33        0.003   0.008   0.002   0.013
   34       -0.000  -0.002  -0.001  -0.004
   35       -0.001  -0.004  -0.001  -0.006
   36        0.001   0.004   0.001   0.006
   37        0.001  -0.000  -0.000   0.000
   38       -0.000  -0.001  -0.000  -0.002
   39        0.001   0.003   0.001   0.005
   40       -0.000  -0.001  -0.000  -0.002
   41       -0.001  -0.004  -0.001  -0.007
   42        0.002   0.005   0.001   0.008
   43       -0.001  -0.002  -0.001  -0.003
   44       -0.000  -0.001  -0.000  -0.002
   45        0.001   0.003   0.001   0.005
   46       -0.001  -0.002  -0.001  -0.003
   47        0.001  -0.000  -0.000   0.000
   48        0.001   0.004   0.001   0.006
   49       -0.000  -0.002  -0.001  -0.003
   50       -0.000  -0.002  -0.001  -0.004
   51        0.003   0.006   0.001   0.010
   52       -0.001  -0.004  -0.001  -0.007
   53       -0.000  -0.002  -0.001  -0.003
   54        0.001   0.003   0.001   0.005
   55       -0.009  -0.117  -0.000  -0.127
   56        0.004   0.042   0.000   0.046
   57        0.005   0.046   0.000   0.051
   58       -0.009  -0.114  -0.000  -0.123
   59       -0.000   0.001  -0.000   0.001
   60        0.003   0.043   0.000   0.046
[...]
   94       -0.009  -0.117  -0.000  -0.127
   95        0.000   0.000  -0.000  -0.000
   96        0.003   0.034  -0.000   0.037
   97       -0.009  -0.119  -0.000  -0.128
   98        0.004   0.041   0.000   0.045
   99        0.004   0.039   0.000   0.043
  100       -0.009  -0.117  -0.000  -0.126
  101        0.009   0.117   0.000   0.127
  102        0.009   0.117   0.000   0.127
  103       -0.008  -0.116  -0.000  -0.125
  104        0.014   0.224   0.000   0.238
  105        0.004   0.041   0.000   0.045
  106       -0.009  -0.119  -0.000  -0.128
  107        0.009   0.109   0.000   0.118
  108        0.003   0.035  -0.000   0.038
tot          -0.02   -0.24   -1.35   -1.61