 vasp.5.4.4.18Apr17-6-g9f103f2a35 (build May 12 2020 05:39:39) gamma-only

 MD_VERSION_INFO: Compiled 2020-05-12T12:39:39-UTC in devlin.sd.materialsdesign.
 com:/home/medea2/data/build/wwolf/vasp-gpu5.4.4/13047/x86_64/src/src/build/gam
 from svn 13047

 executed on                        Lin64 date 2023.04.01  08:30:23

 INCAR:
 POTCAR:    PAW_PBE Ta_pv 07Sep2000
 POTCAR:    PAW_PBE Ni 02Aug2007
 POTCAR:    PAW_PBE Li_sv 10Sep2004
 POTCAR:    PAW_PBE O 08Apr2002

 POTCAR:    PAW_PBE Ta_pv 07Sep2000

 POTCAR:    PAW_PBE Ni 02Aug2007

 POTCAR:    PAW_PBE Li_sv 10Sep2004

 POTCAR:    PAW_PBE O 08Apr2002

 Optimization of the real space projectors (new method)

 maximal supplied QI-value         = 15.12
 optimisation between [QCUT,QGAM] = [ 11.34, 22.83] = [ 36.00,145.93] Ry
 Optimized for a Real-space Cutoff    1.61 Angstroem

   l    n(q)    QCUT    max X(q) W(low)/X(q) W(high)/X(q)  e(spline)
   1     11    11.338     4.092    0.40E-05    0.64E-05    0.47E-07
   1     11    11.338     4.834    0.13E-04    0.44E-04    0.21E-06
   2     10    11.338    62.294    0.15E-03    0.31E-03    0.77E-06
   2     10    11.338    50.966    0.15E-03    0.31E-03    0.77E-06
   0     11    11.338   103.792    0.33E-04    0.19E-04    0.90E-07
   0     11    11.338    56.335    0.26E-04    0.17E-04    0.79E-07
 Optimization of the real space projectors (new method)

[...]

   l    n(q)    QCUT    max X(q) W(low)/X(q) W(high)/X(q)  e(spline)
   0      7    11.276    10.506    0.54E-04    0.58E-04    0.16E-07
   0      7    11.276     8.367    0.11E-03    0.14E-03    0.35E-07
   1      7    11.276     8.983    0.23E-03    0.43E-03    0.86E-07
 Optimization of the real space projectors (new method)

 maximal supplied QI-value         = 24.76
 optimisation between [QCUT,QGAM] = [ 11.39, 22.77] = [ 36.31,145.25] Ry
 Optimized for a Real-space Cutoff    1.10 Angstroem

   l    n(q)    QCUT    max X(q) W(low)/X(q) W(high)/X(q)  e(spline)
   0      7    11.387    20.381    0.22E-03    0.48E-03    0.18E-06
   0      7    11.387    15.268    0.22E-03    0.52E-03    0.19E-06
   1      7    11.387     5.964    0.22E-03    0.73E-03    0.24E-06
   1      7    11.387     5.382    0.19E-03    0.60E-03    0.21E-06

  PAW_PBE Ta_pv 07Sep2000               :
  PAW_PBE Ni 02Aug2007                  :
  PAW_PBE Li_sv 10Sep2004               :
  PAW_PBE O 08Apr2002                   :

 POSCAR: ce425833_1
  positions in direct lattice
 exchange correlation table for  LEXCH =       14
   RHO(1)=    0.500       N(1)  =     2000
   RHO(2)=  100.500       N(2)  =     4000

 ion  position               nearest neighbor table
   1  0.000  0.000  0.000-  60 2.00 105 2.00  57 2.00 108 2.00  72 2.00  93 2.00  13 2.90  25 2.90
                             4 2.90   7 2.90  19 2.90  10 2.90  30 2.95  53 2.95  29 2.95  54 2.95
   2  0.889  0.335  0.222-  56 1.93  77 1.93  59 1.95  71 1.95  80 1.96  74 1.96  36 2.84  30 2.84
                            14 2.87  11 2.87  26 2.87  20 2.87   5 2.88   8 2.88
   3  0.111  0.665  0.111-  55 1.93  64 1.93  94 1.95  58 1.95  79 1.96  61 1.96  47 2.84  29 2.84
                            15 2.87   6 2.87  27 2.87   9 2.87  12 2.88  21 2.88
   4  0.336  0.000  0.000-  63 1.94  96 1.94  66 1.98  99 1.98  93 2.07  60 2.07   7 2.83  50 2.84
                            33 2.84  22 2.86  16 2.86  19 2.90   1 2.90  13 2.90
   5  0.223  0.334  0.223-  62 1.93  80 1.93  83 1.94  65 1.94  59 1.94  86 1.94  30 2.81  17 2.86
                             8 2.86  23 2.87  14 2.87  20 2.88   2 2.88
   6  0.445  0.666  0.110-  85 1.94  61 1.94  67 1.94 100 1.95  70 1.95  64 1.95  24 2.87  21 2.87
                             9 2.87   3 2.87  18 2.88  15 2.88
   7  0.664  0.000  0.000- 102 1.94  69 1.94  99 1.98  66 1.98  72 2.07 105 2.07   4 2.83  33 2.84
                            50 2.84  16 2.86  22 2.86  10 2.90   1 2.90  25 2.90
   8  0.555  0.334  0.223-  74 1.93  68 1.93  65 1.94  89 1.94  71 1.94  86 1.94  36 2.81   5 2.86
                            17 2.86  11 2.87  23 2.87   2 2.88  26 2.88
   9  0.778  0.665  0.111-  55 1.93  70 1.93 106 1.95  58 1.95  67 1.96  73 1.96  29 2.84  53 2.84
                             6 2.87  18 2.87   3 2.87  27 2.87  24 2.88  12 2.88
  10  0.664  0.000  0.336-  78 1.94  69 1.94  90 1.98  75 1.98  72 2.07  57 2.07  19 2.83  45 2.84
                            38 2.84  16 2.86  22 2.86   7 2.90  13 2.90   1 2.90
  11  0.555  0.334  0.555-  98 1.94  92 1.94  74 1.94  89 1.95  95 1.95  77 1.95  17 2.87   8 2.87
                            20 2.87   2 2.87  23 2.88  14 2.88
  12  0.777  0.666  0.445-  73 1.93  79 1.93  82 1.94  76 1.94  58 1.94  97 1.94  29 2.81  24 2.86
                            21 2.86  18 2.87  15 2.87   9 2.88   3 2.88
  13  0.000  0.000  0.336-  63 1.94  78 1.94  84 1.98  81 1.98  57 2.07  60 2.07  25 2.83  41 2.84
                            42 2.84  16 2.86  22 2.86   1 2.90  10 2.90   4 2.90
  14  0.890  0.334  0.555-  98 1.94 104 1.94  80 1.94  83 1.95  77 1.95 101 1.95  17 2.87   5 2.87
                             2 2.87  26 2.87  11 2.88  23 2.88
  15  0.110  0.666  0.445-  85 1.94  79 1.94 103 1.94  82 1.95  88 1.95  64 1.95  12 2.87  24 2.87
                            27 2.87   3 2.87  18 2.88   6 2.88
  16  0.333  0.997  0.333-  90 1.90  66 1.90  84 1.90  69 1.92  63 1.92  87 1.92  35 2.82  32 2.82
                            44 2.82  10 2.86   7 2.86  19 2.86   4 2.86  13 2.86  25 2.86
  17  0.223  0.334  0.555-  92 1.93 104 1.93  83 1.94  89 1.94 107 1.94  86 1.94  54 2.81   5 2.86
                             8 2.86  11 2.87  14 2.87  20 2.88  26 2.88
  18  0.445  0.666  0.445-  85 1.94  73 1.94  91 1.94  76 1.95  70 1.95  88 1.95  12 2.87  21 2.87
                             9 2.87  27 2.87   6 2.88  15 2.88
  19  0.336  0.000  0.664-  87 1.94  96 1.94  75 1.98  90 1.98  93 2.07 108 2.07  10 2.83  38 2.84
                            45 2.84  22 2.86  16 2.86   4 2.90  25 2.90   1 2.90
  20  0.222  0.335  0.889-  56 1.93  95 1.93  59 1.95 107 1.95  62 1.96  92 1.96  54 2.84  30 2.84
                            23 2.87  11 2.87  26 2.87   2 2.87   5 2.88  17 2.88
  21  0.445  0.666  0.777-  91 1.93  61 1.93 100 1.94  76 1.94  94 1.94  97 1.94  47 2.81  24 2.86
                            12 2.86  18 2.87   6 2.87  27 2.88   3 2.88
  22  0.667  0.003  0.667-  75 1.90  99 1.90  81 1.90  96 1.92 102 1.92  78 1.92  48 2.82  51 2.82
                            39 2.82  19 2.86   4 2.86  10 2.86   7 2.86  25 2.86  13 2.86
  23  0.555  0.334  0.890-  98 1.94  68 1.94  62 1.94  65 1.95  95 1.95 101 1.95   5 2.87   8 2.87
                            20 2.87  26 2.87  11 2.88  14 2.88
  24  0.777  0.666  0.777-  67 1.93 103 1.93  82 1.94 100 1.94 106 1.94  97 1.94  53 2.81  12 2.86
                            21 2.86   6 2.87  15 2.87   9 2.88  27 2.88
  25  0.000  0.000  0.664- 102 1.94  87 1.94  81 1.98  84 1.98 108 2.07 105 2.07  13 2.83  42 2.84
                            41 2.84  22 2.86  16 2.86   1 2.90  19 2.90   7 2.90
  26  0.889  0.335  0.889-  56 1.93 101 1.93  71 1.95 107 1.95 104 1.96  68 1.96  36 2.84  54 2.84
                            14 2.87  23 2.87   2 2.87  20 2.87  17 2.88   8 2.88
  27  0.111  0.665  0.778-  55 1.93  88 1.93 106 1.95  94 1.95 103 1.96  91 1.96  47 2.84  53 2.84
                            15 2.87  18 2.87   3 2.87   9 2.87  24 2.88  21 2.88
  28  0.000  0.500  0.000-  59 2.12 106 2.12  58 2.12 107 2.12  71 2.12  94 2.12
  29  0.887  0.828  0.226-  72 2.06  60 2.06  73 2.07  79 2.07  55 2.14  78 2.20  12 2.81   9 2.84
                             3 2.84   1 2.95
  30  0.113  0.172  0.113-  93 2.06  57 2.06  80 2.07  62 2.07  56 2.14  63 2.20   5 2.81  20 2.84
                             2 2.84   1 2.95
  31  0.332  0.500  0.000-  94 2.10  59 2.10  64 2.11  95 2.11 100 2.12  65 2.12
  32  0.221  0.835  0.221-  60 2.04  84 2.06  66 2.06  61 2.15  79 2.15  85 2.17  16 2.82
  33  0.445  0.166  0.111-  99 2.12  69 2.12  63 2.12  68 2.14  62 2.14  86 2.14   7 2.84   4 2.84

  34  0.668  0.500  0.000-  71 2.10 106 2.10 101 2.11  70 2.11  65 2.12 100 2.12
  35  0.558  0.835  0.221-  72 2.04  90 2.06  66 2.06  67 2.15  73 2.15  85 2.17  16 2.82
  36  0.774  0.172  0.113-  57 2.06 105 2.06  74 2.07  68 2.07  56 2.14  69 2.20   8 2.81   2 2.84
                            26 2.84   1 2.95
  37  0.668  0.500  0.332-  71 2.10  58 2.10  77 2.11  70 2.11  89 2.12  76 2.12
  38  0.555  0.834  0.555-  90 2.12  96 2.12  78 2.12  91 2.14  73 2.14  97 2.14  19 2.84  10 2.84

  39  0.779  0.165  0.442-  57 2.04  81 2.06  75 2.06  80 2.15  74 2.15  98 2.17  22 2.82
  40  0.000  0.500  0.332-  58 2.10  59 2.10  64 2.11  77 2.11  83 2.12  82 2.12
  41  0.889  0.834  0.555-  84 2.12  78 2.12 102 2.12  79 2.14 103 2.14  97 2.14  13 2.84  25 2.84

[...]

  43  0.333  0.501  0.333-  70 2.11  88 2.11  64 2.11  89 2.12  65 2.12  83 2.12
  44  0.221  0.835  0.558- 108 2.04  84 2.06  90 2.06 103 2.15  91 2.15  85 2.17  16 2.82
  45  0.445  0.166  0.445-  75 2.12  69 2.12  87 2.12  74 2.14  92 2.14  86 2.14  10 2.84  19 2.84

  46  0.332  0.500  0.668-  94 2.10 107 2.10  88 2.11  95 2.11  76 2.12  89 2.12
  47  0.226  0.828  0.887- 108 2.06  60 2.06  91 2.07  61 2.07  55 2.14  96 2.20  21 2.81  27 2.84
                             3 2.84   1 2.95
  48  0.442  0.165  0.779-  93 2.04  75 2.06  99 2.06  62 2.15  92 2.15  98 2.17  22 2.82
  49  0.667  0.499  0.667-  95 2.11  77 2.11 101 2.11  76 2.12 100 2.12  82 2.12
  50  0.555  0.834  0.889-  66 2.12  96 2.12 102 2.12  61 2.14  67 2.14  97 2.14   4 2.84   7 2.84

  51  0.779  0.165  0.779- 105 2.04  81 2.06  99 2.06  68 2.15 104 2.15  98 2.17  22 2.82
  52  0.000  0.500  0.668- 107 2.10 106 2.10 101 2.11  88 2.11  82 2.12  83 2.12
  53  0.887  0.828  0.887-  72 2.06 108 2.06 103 2.07  67 2.07  55 2.14 102 2.20  24 2.81   9 2.84
                            27 2.84   1 2.95
  54  0.113  0.172  0.774-  93 2.06 105 2.06  92 2.07 104 2.07  56 2.14  87 2.20  17 2.81  20 2.84
                            26 2.84   1 2.95
  55  0.000  0.735  0.000-   3 1.93  27 1.93   9 1.93  53 2.14  29 2.14  47 2.14
  56  0.000  0.265  0.000-  26 1.93   2 1.93  20 1.93  30 2.14  54 2.14  36 2.14
  57  0.892  0.084  0.216-   1 2.00  39 2.04  36 2.06  30 2.06  13 2.07  10 2.07
  58  0.888  0.593  0.224-  12 1.94   3 1.95   9 1.95  40 2.10  37 2.10  28 2.12
  59  0.112  0.407  0.112-   5 1.94  20 1.95   2 1.95  40 2.10  31 2.10  28 2.12
  60  0.108  0.916  0.108-   1 2.00  32 2.04  47 2.06  29 2.06  13 2.07   4 2.07
  61  0.335  0.738  0.998-  21 1.93   6 1.94   3 1.96  47 2.07  50 2.14  32 2.15
  62  0.332  0.262  0.002-   5 1.93  23 1.94  20 1.96  30 2.07  33 2.14  48 2.15
  63  0.225  0.070  0.225-  16 1.92   4 1.94  13 1.94  42 2.12  33 2.12  30 2.20
  64  0.222  0.594  0.222-   3 1.93  15 1.95   6 1.95  31 2.11  40 2.11  43 2.11
  65  0.444  0.407  0.112-   8 1.94   5 1.94  23 1.95  43 2.12  34 2.12  31 2.12
  66  0.441  0.924  0.118-  16 1.90   4 1.98   7 1.98  35 2.06  32 2.06  50 2.12
  67  0.668  0.738  0.998-  24 1.93   6 1.94   9 1.96  53 2.07  50 2.14  35 2.15
  68  0.665  0.262  0.002-   8 1.93  23 1.94  26 1.96  36 2.07  33 2.14  51 2.15
[...]
   0.631E+01 -.199E+02 0.364E+01   -.612E+01 0.198E+02 -.354E+01   -.172E+00 0.142E+00 -.992E-01   -.299E-02 -.325E-01 -.173E-02
   0.626E-06 0.199E+02 0.728E+01   -.346E-05 -.198E+02 -.707E+01   0.128E-08 -.142E+00 -.198E+00   -.183E-07 0.325E-01 -.346E-02
   -.640E-06 -.267E+03 -.830E-06   0.182E-05 0.278E+03 0.549E-06   0.000E+00 -.112E+02 0.106E-21   0.466E-07 -.326E-01 0.292E-07
   0.640E-06 0.267E+03 0.830E-06   -.182E-05 -.278E+03 -.549E-06   0.529E-21 0.112E+02 -.106E-21   -.466E-07 0.326E-01 -.292E-07
   -.333E-05 -.206E+03 -.636E+01   0.351E-05 0.219E+03 0.133E+02   0.446E-07 -.131E+02 -.689E+01   -.121E-06 0.559E-01 -.109E-01
   -.495E-04 0.247E+03 0.907E+00   -.932E-05 -.256E+03 -.110E+01   -.976E-09 0.977E+01 0.151E+00   -.517E-06 -.225E-01 0.409E-01
   0.786E+00 -.247E+03 0.454E+00   -.949E+00 0.256E+03 -.548E+00   0.131E+00 -.977E+01 0.755E-01   0.354E-01 0.225E-01 0.205E-01
   -.551E+01 0.206E+03 -.318E+01   0.115E+02 -.219E+03 0.663E+01   -.597E+01 0.131E+02 -.345E+01   -.946E-02 -.559E-01 -.546E-02
[...]
   -.489E+01 -.245E+03 0.282E+01   0.534E+01 0.255E+03 -.308E+01   -.464E+00 -.995E+01 0.268E+00   0.201E-01 0.230E-01 -.116E-01
   0.146E+02 0.250E+03 -.844E+01   -.154E+02 -.261E+03 0.891E+01   0.780E+00 0.108E+02 -.450E+00   0.178E-01 -.608E-01 -.103E-01
   0.454E-04 -.278E+03 -.234E-04   0.203E-04 0.288E+03 -.856E-05   0.212E-21 -.104E+02 -.106E-21   -.497E-07 -.101E+00 0.595E-07
   0.453E-04 0.266E+03 -.273E-04   0.920E-05 -.277E+03 -.119E-04   -.794E-22 0.110E+02 -.106E-21   -.235E-07 0.661E-01 0.785E-07
   -.148E-05 -.245E+03 -.267E+02   0.280E-05 0.255E+03 0.284E+02   0.108E-07 -.109E+02 -.167E+01   -.154E-06 0.631E-01 -.183E-01
   0.457E-04 0.250E+03 -.328E+01   0.171E-04 -.260E+03 0.351E+01   0.138E-08 0.107E+02 -.213E+00   0.112E-06 0.408E-02 -.180E-01
   0.489E+01 -.245E+03 0.282E+01   -.534E+01 0.255E+03 -.308E+01   0.464E+00 -.995E+01 0.268E+00   -.201E-01 0.230E-01 -.116E-01
   -.146E+02 0.250E+03 -.844E+01   0.154E+02 -.261E+03 0.891E+01   -.780E+00 0.108E+02 -.450E+00   -.178E-01 -.608E-01 -.103E-01
   -.183E+01 -.270E+03 0.454E+01   0.255E+01 0.280E+03 -.483E+01   -.699E+00 -.102E+02 0.309E+00   -.293E-01 -.680E-01 -.127E-01
   0.484E+01 0.270E+03 0.689E+00   -.546E+01 -.280E+03 -.210E+00   0.617E+00 0.102E+02 -.451E+00   0.363E-02 0.680E-01 -.317E-01
   0.551E+01 -.206E+03 0.318E+01   -.115E+02 0.219E+03 -.663E+01   0.597E+01 -.131E+02 0.345E+01   0.946E-02 0.559E-01 0.546E-02
   -.786E+00 0.247E+03 -.454E+00   0.949E+00 -.256E+03 0.548E+00   -.131E+00 0.977E+01 -.755E-01   -.354E-01 -.225E-01 -.205E-01
   0.495E-04 -.247E+03 -.907E+00   0.932E-05 0.256E+03 0.110E+01   0.976E-09 -.977E+01 -.151E+00   0.517E-06 0.225E-01 -.409E-01
   0.333E-05 0.206E+03 0.636E+01   -.351E-05 -.219E+03 -.133E+02   -.446E-07 0.131E+02 0.689E+01   0.121E-06 -.559E-01 0.109E-01
   0.102E-09 0.142E-09 0.112E-09   0.418E-12 0.284E-13 0.391E-13   -.135E-14 0.355E-14 0.000E+00   -.995E-12 0.523E-12 -.404E-12

 POSITION                                       TOTAL-FORCE (eV/Angst)
      0.00000      0.00000      0.00000        -0.000000     -0.000000     -0.000000
      8.61843      4.70442      1.65921        -0.000000      0.009360      0.013993
      1.43692      9.34312      0.82961         0.012118     -0.009360      0.006997
      2.89661      0.00000      0.00000        -0.000785     -0.000000     -0.000000
      2.87740      4.69885      1.66127         0.004516     -0.008744      0.002607
      4.30921      9.35441      0.82352        -0.000000     -0.000823      0.008962
      5.72182      0.00000      0.00000         0.000785     -0.000000     -0.000000
      5.74102      4.69885      1.66127        -0.004516     -0.008744      0.002607
      7.18151      9.34312      0.82961        -0.012118     -0.009360      0.006997
      7.17012      0.00000      2.50854         0.000393     -0.000000     -0.000680
      7.17701      4.69313      4.14365         0.007762      0.000823      0.004481
      8.61843      9.34868      3.32254        -0.000000      0.008744      0.005215
      1.44830      0.00000      2.50854        -0.000393     -0.000000     -0.000680
     10.05984      4.69313      4.14365        -0.007762      0.000823      0.004481
      2.86780      9.35441      3.32013         0.007762     -0.000823     -0.004481
      4.30921     13.99868      2.48793        -0.000000     -0.012346     -0.000000
      4.30921      4.69885      4.14124         0.000000     -0.008744     -0.005215
      5.75063      9.35441      3.32013        -0.007762     -0.000823     -0.004481
      5.75752      0.00000      4.95524        -0.000393     -0.000000      0.000680
      5.74613      4.70442      6.63417         0.012118      0.009360     -0.006997
      7.18662      9.34868      5.80251         0.004516      0.008744     -0.002607
      8.61843      0.04886      4.97585        -0.000000      0.012346     -0.000000
      8.61843      4.69313      6.64026         0.000000      0.000823     -0.008962
     10.05024      9.34868      5.80251        -0.004516      0.008744     -0.002607
      2.86091      0.00000      4.95524         0.000393     -0.000000      0.000680
     11.49072      4.70442      6.63417        -0.012118      0.009360     -0.006997
      4.30921      9.34312      5.80456         0.000000     -0.009360     -0.013993
      0.00000      7.02377      0.00000        -0.000000     -0.000000     -0.000000
      8.61843     11.63216      1.69043         0.000000     -0.002763     -0.008504
      1.46396      2.41538      0.84522        -0.007365      0.002763     -0.004252
      2.86560      7.02377      0.00000        -0.006201     -0.000000     -0.000000
      2.85925     11.72528      1.65079         0.003114     -0.011791      0.001798
      4.30921      2.32510      0.82593        -0.000000     -0.000167      0.000317
      5.75283      7.02377      0.00000         0.006201     -0.000000     -0.000000
      5.75918     11.72528      1.65079        -0.003114     -0.011791      0.001798
      7.15447      2.41538      0.84522         0.007365      0.002763     -0.004252
      7.18563      7.02377      2.48168         0.003101     -0.000000     -0.005370
      7.17910     11.72244      4.14485         0.000274      0.000167      0.000158
      8.61843      2.32225      3.30157        -0.000000      0.011791      0.003596
      1.43280      7.02377      2.48168        -0.003101     -0.000000     -0.005370
     10.05776     11.72244      4.14485        -0.000274      0.000167      0.000158
      2.86988      2.32510      3.31892         0.000274     -0.000167     -0.000158
      4.30921      7.03498      2.48793        -0.000000      0.008654     -0.000000
      4.30921     11.72528      4.16220         0.000000     -0.011791     -0.003596
      5.74854      2.32510      3.31892        -0.000274     -0.000167     -0.000158
      5.74201      7.02377      4.98210        -0.003101     -0.000000      0.005370
      5.77317     11.63216      6.61856        -0.007365     -0.002763      0.004252
      7.16846      2.32225      5.81299         0.003114      0.011791     -0.001798
      8.61843      7.01256      4.97585        -0.000000     -0.008654     -0.000000
      8.61843     11.72244      6.63785         0.000000      0.000167     -0.000317
     10.06839      2.32225      5.81299        -0.003114      0.011791     -0.001798
      2.87641      7.02377      4.98210         0.003101     -0.000000      0.005370
     11.46368     11.63216      6.61856         0.007365     -0.002763      0.004252
      4.30921      2.41538      5.77334        -0.000000      0.002763      0.008504
      0.00000     10.32191      0.00000        -0.000000      0.000670     -0.000000
      0.00000      3.72562      0.00000        -0.000000     -0.000670     -0.000000
      8.61843      1.17992      1.61459        -0.000000     -0.009364      0.007557
      8.61843      8.32623      1.67244        -0.000000     -0.000970      0.003586
      1.44837      5.72131      0.83622         0.003106      0.000970      0.001793
      1.39828     12.86761      0.80730         0.006544      0.009364      0.003778
[...]
      5.75759      8.32623      6.62756         0.003106     -0.000970     -0.001793
      7.17588      5.70947      5.80870         0.005387     -0.004983     -0.003110
      7.21573     13.06935      5.78570        -0.008694      0.002920      0.005019
      8.61843     10.37229      4.97585        -0.000000     -0.006921     -0.000000
      8.61843      3.70483      4.97585        -0.000000     -0.003173     -0.000000
      8.61843      1.07375      6.58087         0.000000     -0.006788     -0.002317
      8.61843      8.33697      6.62774         0.000000     -0.011338     -0.007510
     10.06097      5.70947      5.80870        -0.005387     -0.004983     -0.003110
     10.02112     13.06935      5.78570         0.008694      0.002920      0.005019
     11.47651     10.36307      4.98230        -0.006508     -0.000715      0.004411
      2.88575      3.68446      4.96632         0.007074      0.000715     -0.003430
     11.52936      1.17992      6.65648        -0.006544     -0.009364     -0.003778
     11.47927      8.32623      6.62756        -0.003106     -0.000970     -0.001793
      4.30921      5.72131      5.79134         0.000000      0.000970     -0.003586
      4.30921     12.86761      5.84919         0.000000      0.009364     -0.007557
    total drift:                                0.000000      0.000000      0.000000

  FREE ENERGIE OF THE ION-ELECTRON SYSTEM (eV)
  free  energy   TOTEN  =      -656.7069968205 eV

  energy  without entropy=     -656.5893535388  energy(sigma->0) =     -656.64817518

 Quasi-Newton relaxation of ions (Broydens 2nd method)
  g(Force)  = 0.442E-03   g(Stress)= 0.191E-03

 Reset! Starting new Quasi-Newton update for ions

 reached required accuracy - stopping structural energy minimisation

volume of typ            1:     1.1 %

[...]

volume of typ            4:     9.7 %

total charge

# of ion       s       p       d       tot
    1        0.295   6.195   1.924   8.413
    2        0.256   0.328   7.861   8.445
    3        0.256   0.328   7.861   8.445
    4        0.235   0.286   7.889   8.411
    5        0.260   0.336   7.856   8.452
    6        0.256   0.327   7.859   8.442
    7        0.235   0.286   7.889   8.411
    8        0.260   0.336   7.856   8.452
    9        0.256   0.328   7.861   8.445
   10        0.235   0.286   7.889   8.411
   11        0.256   0.327   7.859   8.442
   12        0.260   0.336   7.856   8.452
   13        0.235   0.286   7.889   8.411
   14        0.256   0.327   7.859   8.442
   15        0.256   0.327   7.859   8.442
   16        0.273   0.365   7.841   8.479
   17        0.260   0.336   7.856   8.452
   18        0.256   0.327   7.859   8.442
   19        0.235   0.286   7.889   8.411
   20        0.256   0.328   7.861   8.445
   21        0.260   0.336   7.856   8.452
   22        0.273   0.365   7.841   8.479
   23        0.256   0.327   7.859   8.442
   24        0.260   0.336   7.856   8.452
   25        0.235   0.286   7.889   8.411
   26        0.256   0.328   7.861   8.445
   27        0.256   0.328   7.861   8.445
   28        2.080   0.257   0.097   2.433
   29        2.085   0.279   0.107   2.471
   30        2.085   0.279   0.107   2.471
   31        2.082   0.263   0.099   2.445
   32        2.083   0.271   0.105   2.459
   33        2.077   0.249   0.093   2.419
   34        2.082   0.263   0.099   2.445
   35        2.083   0.271   0.105   2.459
   36        2.085   0.279   0.107   2.471
   37        2.082   0.263   0.099   2.445
   38        2.077   0.249   0.093   2.419
   39        2.083   0.271   0.105   2.459
   40        2.082   0.263   0.099   2.445
   41        2.077   0.249   0.093   2.419
   42        2.077   0.249   0.093   2.419
   43        2.081   0.259   0.097   2.437
   44        2.083   0.271   0.105   2.459
   45        2.077   0.249   0.093   2.419
   46        2.082   0.263   0.099   2.445
   47        2.085   0.279   0.107   2.471
   48        2.083   0.271   0.105   2.459
   49        2.081   0.259   0.097   2.437
   50        2.077   0.249   0.093   2.419
   51        2.083   0.271   0.105   2.459
   52        2.082   0.263   0.099   2.445
   53        2.085   0.279   0.107   2.471
   54        2.085   0.279   0.107   2.471
   55        1.259   2.791   0.006   4.055
   56        1.259   2.791   0.006   4.055
   57        1.250   2.840   0.005   4.095
   58        1.259   2.789   0.005   4.053
   59        1.259   2.789   0.005   4.053
   60        1.250   2.840   0.005   4.095
[...]
   94        1.259   2.789   0.005   4.053
   95        1.259   2.789   0.005   4.053
   96        1.256   2.793   0.005   4.055
   97        1.260   2.785   0.005   4.049
   98        1.260   2.782   0.005   4.048
   99        1.255   2.796   0.005   4.057
  100        1.259   2.788   0.005   4.052
  101        1.259   2.789   0.005   4.053
  102        1.256   2.793   0.005   4.055
  103        1.259   2.788   0.005   4.052
  104        1.259   2.788   0.005   4.052
  105        1.250   2.840   0.005   4.095
  106        1.259   2.789   0.005   4.053
  107        1.259   2.789   0.005   4.053
  108        1.250   2.840   0.005   4.095
tot         130.98  172.67  209.39  513.04

magnetization (x)

# of ion       s       p       d       tot
    1       -0.002  -0.002  -0.014  -0.018
    2       -0.000  -0.001   0.763   0.762
    3       -0.000  -0.001   0.763   0.762
    4        0.001  -0.000   1.178   1.179
    5       -0.000  -0.001   0.689   0.688
    6       -0.000  -0.001   0.764   0.762
    7        0.001  -0.000   1.178   1.179
    8       -0.000  -0.001   0.689   0.688
    9       -0.000  -0.001   0.763   0.762
   10        0.001  -0.000   1.178   1.179
   11       -0.000  -0.001   0.763   0.762
   12       -0.000  -0.001   0.689   0.688
   13        0.001  -0.000   1.178   1.179
   14       -0.000  -0.001   0.763   0.762
   15       -0.000  -0.001   0.763   0.762
   16       -0.002  -0.002   0.274   0.270
   17       -0.000  -0.001   0.689   0.688
   18       -0.000  -0.001   0.763   0.762
   19        0.001  -0.000   1.178   1.179
   20       -0.000  -0.001   0.763   0.762
   21       -0.000  -0.001   0.689   0.688
   22       -0.002  -0.002   0.274   0.270
   23       -0.000  -0.001   0.764   0.762
   24       -0.000  -0.001   0.689   0.688
   25        0.001  -0.000   1.178   1.179
   26       -0.000  -0.001   0.763   0.762
   27       -0.000  -0.001   0.763   0.762
   28        0.008   0.012   0.001   0.021
   29        0.006   0.012   0.001   0.020
   30        0.006   0.012   0.001   0.020
   31        0.008   0.013   0.001   0.022
   32        0.005   0.012   0.002   0.020
   33        0.007   0.011   0.001   0.019
   34        0.008   0.013   0.001   0.022
   35        0.005   0.012   0.002   0.020
   36        0.006   0.012   0.001   0.020
   37        0.008   0.013   0.001   0.022
   38        0.007   0.011   0.001   0.019
   39        0.005   0.012   0.002   0.020
   40        0.008   0.013   0.001   0.022
   41        0.007   0.011   0.001   0.019
   42        0.007   0.011   0.001   0.019
   43        0.008   0.011   0.000   0.020
   44        0.005   0.012   0.002   0.020
   45        0.007   0.011   0.001   0.019
   46        0.008   0.013   0.001   0.022
   47        0.006   0.012   0.001   0.020
   48        0.005   0.012   0.002   0.020
   49        0.008   0.011   0.000   0.020
   50        0.007   0.011   0.001   0.019
   51        0.005   0.012   0.002   0.020
   52        0.008   0.013   0.001   0.022
   53        0.006   0.012   0.001   0.020
   54        0.006   0.012   0.001   0.020
   55        0.012   0.063   0.000   0.075
   56        0.012   0.063   0.000   0.075
   57        0.010   0.098   0.000   0.108
   58        0.014   0.083   0.000   0.098
   59        0.014   0.083   0.000   0.098
   60        0.010   0.098   0.000   0.108
[...]
   94        0.014   0.083   0.000   0.098
   95        0.014   0.071   0.000   0.086
   96        0.010   0.057   0.000   0.068
   97        0.013   0.071   0.000   0.084
   98        0.013   0.077   0.000   0.091
   99        0.015   0.144   0.000   0.159
  100        0.012   0.056   0.000   0.069
  101        0.014   0.071   0.000   0.086
  102        0.010   0.057   0.000   0.068
  103        0.013   0.075   0.000   0.089
  104        0.013   0.075   0.000   0.089
  105        0.010   0.098   0.000   0.108
  106        0.014   0.083   0.000   0.098
  107        0.014   0.083   0.000   0.098
  108        0.010   0.098   0.000   0.108
tot           0.86    4.69   20.95   26.50