 vasp.5.4.4.18Apr17-6-g9f103f2a35 (build May 12 2020 05:39:39) gamma-only

 MD_VERSION_INFO: Compiled 2020-05-12T12:39:39-UTC in devlin.sd.materialsdesign.
 com:/home/medea2/data/build/wwolf/vasp-gpu5.4.4/13047/x86_64/src/src/build/gam
 from svn 13047

 executed on                        Lin64 date 2023.04.01  15:06:10

 INCAR:
 POTCAR:    PAW_PBE Ta_pv 07Sep2000
 POTCAR:    PAW_PBE Ni 02Aug2007
 POTCAR:    PAW_PBE Li_sv 10Sep2004
 POTCAR:    PAW_PBE O 08Apr2002

 POTCAR:    PAW_PBE Ta_pv 07Sep2000

 POTCAR:    PAW_PBE Ni 02Aug2007

 POTCAR:    PAW_PBE Li_sv 10Sep2004

 POTCAR:    PAW_PBE O 08Apr2002

 Optimization of the real space projectors (new method)

 maximal supplied QI-value         = 15.12
 optimisation between [QCUT,QGAM] = [ 11.34, 22.83] = [ 36.00,145.93] Ry
 Optimized for a Real-space Cutoff    1.61 Angstroem

   l    n(q)    QCUT    max X(q) W(low)/X(q) W(high)/X(q)  e(spline)
   1     11    11.338     4.092    0.40E-05    0.64E-05    0.47E-07
   1     11    11.338     4.834    0.13E-04    0.44E-04    0.21E-06
   2     10    11.338    62.294    0.15E-03    0.31E-03    0.77E-06
   2     10    11.338    50.966    0.15E-03    0.31E-03    0.77E-06
   0     11    11.338   103.792    0.33E-04    0.19E-04    0.90E-07
   0     11    11.338    56.335    0.26E-04    0.17E-04    0.79E-07
 Optimization of the real space projectors (new method)

[...]

   l    n(q)    QCUT    max X(q) W(low)/X(q) W(high)/X(q)  e(spline)
   0      7    11.276    10.506    0.54E-04    0.58E-04    0.16E-07
   0      7    11.276     8.367    0.11E-03    0.14E-03    0.35E-07
   1      7    11.276     8.983    0.23E-03    0.43E-03    0.86E-07
 Optimization of the real space projectors (new method)

 maximal supplied QI-value         = 24.76
 optimisation between [QCUT,QGAM] = [ 11.39, 22.77] = [ 36.31,145.25] Ry
 Optimized for a Real-space Cutoff    1.10 Angstroem

   l    n(q)    QCUT    max X(q) W(low)/X(q) W(high)/X(q)  e(spline)
   0      7    11.387    20.381    0.22E-03    0.48E-03    0.18E-06
   0      7    11.387    15.268    0.22E-03    0.52E-03    0.19E-06
   1      7    11.387     5.964    0.22E-03    0.73E-03    0.24E-06
   1      7    11.387     5.382    0.19E-03    0.60E-03    0.21E-06

  PAW_PBE Ta_pv 07Sep2000               :
  PAW_PBE Ni 02Aug2007                  :
  PAW_PBE Li_sv 10Sep2004               :
  PAW_PBE O 08Apr2002                   :

 POSCAR: ce395272_1
  positions in direct lattice
 exchange correlation table for  LEXCH =       14
   RHO(1)=    0.500       N(1)  =     2000
   RHO(2)=  100.500       N(2)  =     4000

 ion  position               nearest neighbor table
   1  0.998  0.999  0.996-  57 1.94 105 1.96  93 2.01  72 2.03 108 2.04  60 2.06  17 2.85  23 2.92
                            20 2.97  54 3.01  36 3.02  14 3.08  47 3.09  53 3.09   7 3.12   4 3.20
   2  0.928  0.333  0.175-  56 1.95  59 1.97  71 2.03  80 2.08  74 2.20  77 2.27  26 2.38  24 2.60
                            30 2.85  15 2.86  28 2.98  36 3.09   5 3.12   8 3.20  18 3.22
   3  0.142  0.669  0.104-  61 1.91  64 1.94  94 2.01  79 2.07  55 2.16  58 2.21  16 2.71  25 2.78
                            31 2.88  21 2.91  32 2.94  27 2.98  47 3.02  19 3.05  29 3.07  40 3.07
   4  0.339  0.001  0.032-  63 1.92  66 1.94  99 2.00  60 2.03  96 2.21  93 2.23  22 2.66  17 2.88
                            33 2.92  20 2.96  30 3.04  50 3.07  32 3.08  11 3.12   1 3.20  23 3.27
   5  0.558  0.334  0.216-  74 1.94  68 1.96  86 2.01  71 2.03  65 2.04  89 2.06  26 2.85  15 2.92
                            18 2.97  33 3.01  36 3.02  12 3.08  43 3.09  34 3.09   2 3.12   9 3.20
   6  0.778  0.667  0.118-  55 1.98  70 1.98  73 2.02  58 2.02  67 2.03 106 2.03  19 2.70  27 3.00
                            16 3.00  29 3.04  37 3.04  35 3.04  28 3.04  53 3.06  34 3.06  10 3.17
   7  0.628  0.000  0.326-  69 1.95  90 1.97  72 2.03  75 2.08  57 2.20  78 2.27  17 2.38  22 2.60
                            45 2.85  23 2.86  35 2.98  36 3.09   1 3.12  11 3.20  20 3.22
   8  0.883  0.331  0.558- 101 1.92  77 1.98 104 2.01  83 2.02  98 2.05  80 2.06  18 2.83  39 3.04
                            15 3.05  42 3.06  12 3.08   9 3.12   2 3.20  26 3.31
   9  0.216  0.332  0.593-  92 1.92 107 1.94 104 2.00  89 2.03  83 2.21  86 2.23  24 2.66  26 2.88
                            54 2.92  18 2.96  45 3.04  52 3.07  46 3.08   8 3.12   5 3.20  15 3.27
  10  0.414  0.664  0.468-  88 1.91  91 1.94  85 2.01  76 2.07  70 2.16  73 2.21  27 2.71  21 2.78
                            44 2.88  25 2.91  46 2.94  16 2.98  43 3.02  19 3.05  37 3.07  38 3.07
  11  0.673  0.003  0.663- 102 1.92  78 1.98  99 2.01  96 2.02  81 2.05  75 2.06  20 2.83  39 3.04
                            23 3.05  48 3.06  14 3.08   4 3.12   7 3.20  17 3.31
  12  0.520  0.332  0.887-  62 1.94  95 1.97  98 1.99  65 2.07 101 2.20  68 2.21  24 2.59  15 2.77
                            18 2.83  31 2.93  48 2.96   8 3.08   5 3.08  33 3.10
  13  0.778  0.667  0.754-  97 1.92  82 1.92 103 2.03 100 2.03  67 2.17 106 2.17  21 2.84  25 2.84
                            19 2.91  41 2.91  49 2.91  50 2.98  52 2.98  53 3.07  34 3.07  16 3.11
  14  0.036  0.002  0.629-  87 1.94  84 1.97  81 1.99 108 2.07 102 2.20 105 2.21  22 2.59  23 2.77
                            20 2.83  44 2.93  42 2.96  11 3.08   1 3.08  54 3.10
  15  0.228  0.334  0.217-  62 2.05  59 2.06  86 2.10  83 2.13  65 2.39  80 2.48  12 2.77   2 2.86
                            24 2.90   5 2.92   8 3.05   9 3.27
  16  0.440  0.661  0.117- 100 1.99  85 2.01  64 2.06  70 2.23  67 2.28  61 2.35   3 2.71  21 2.93
                            25 2.95  10 2.98   6 3.00  13 3.11
  17  0.657  0.980  0.044-  66 1.94  72 2.00  69 2.18 102 2.23   7 2.38 105 2.51  35 2.66  22 2.77
                             1 2.85   4 2.88  11 3.31
  18  0.571  0.342  0.545-  77 1.99  95 2.06  74 2.09  89 2.30  92 2.31  98 2.44   8 2.83  12 2.83
                             9 2.96   5 2.97  24 3.05   2 3.22
  19  0.778  0.667  0.424-  79 2.05  76 2.05  73 2.12  58 2.12  97 2.30  82 2.30   6 2.70  13 2.91
                             3 3.05  10 3.05  25 3.06  21 3.06
  20  0.984  0.992  0.338-  78 1.99  84 2.06  57 2.09  60 2.30  63 2.31  81 2.44  11 2.83  14 2.83
                             4 2.96   1 2.97  22 3.05   7 3.22
  21  0.111  0.670  0.448-  79 2.05 103 2.06  85 2.08  88 2.17  64 2.24  82 2.26  10 2.78  41 2.81
                            13 2.84   3 2.91  16 2.93  27 2.95  19 3.06
  22  0.329  0.993  0.338-  90 2.08  84 2.19  66 2.20  87 2.21  63 2.28  69 2.40  14 2.59   7 2.60
                             4 2.66  17 2.77  23 2.90  20 3.05
  23  0.328  0.999  0.667-  87 2.05  90 2.06  93 2.10  96 2.13 108 2.39  75 2.48  14 2.77   7 2.86
                            22 2.90   1 2.92  11 3.05   4 3.27
  24  0.226  0.340  0.889-  59 2.08  95 2.19 107 2.20  62 2.21  92 2.28  56 2.40  12 2.59   2 2.60
                             9 2.66  26 2.77  15 2.90  18 3.05
  25  0.445  0.664  0.781-  76 2.05 100 2.06  94 2.08  61 2.17  91 2.24  97 2.26   3 2.78  49 2.81
                            13 2.84  10 2.91  27 2.93  16 2.95  19 3.06
  26  0.899  0.354  0.923- 107 1.94  71 2.00  56 2.18 101 2.23   2 2.38  68 2.51  28 2.66  24 2.77
                             5 2.85   9 2.88   8 3.31
  27  0.115  0.673  0.780- 103 1.99  94 2.01  91 2.06  55 2.23 106 2.28  88 2.35  10 2.71  25 2.93
                            21 2.95   3 2.98   6 3.00  13 3.11
  28  0.016  0.504  0.981- 107 2.00  58 2.06  94 2.06 106 2.17  59 2.20  26 2.66   2 2.98   6 3.04

  29  0.890  0.829  0.236-  72 1.99  55 1.99  79 2.04  78 2.20  73 2.28   6 3.04   3 3.07
  30  0.126  0.172  0.108-  62 1.97  63 1.98  56 2.07  93 2.18  80 2.19   2 2.85   4 3.04
  31  0.333  0.503  0.999-  64 2.00  59 2.12  95 2.16  94 2.18  65 2.21 100 2.25   3 2.88  12 2.93

[...]

  36  0.778  0.167  0.098-  56 1.98  69 1.98  68 2.16 105 2.16  74 2.23  57 2.23   5 3.02   1 3.02
                             2 3.09   7 3.09
  37  0.665  0.504  0.349-  71 1.99  70 1.99  76 2.04  77 2.20  58 2.28   6 3.04  10 3.07
  38  0.557  0.826  0.564-  97 2.04  91 2.09  73 2.16  90 2.18  78 2.21  96 2.25  10 3.07
  39  0.778  0.167  0.435-  80 1.86  75 1.86  74 2.26  57 2.26   8 3.04  11 3.04
  40  0.999  0.507  0.343-  82 2.04  64 2.09  58 2.16  59 2.18  77 2.21  83 2.25   3 3.07
  41  0.901  0.825  0.538-  79 2.01  84 2.01  97 2.05 103 2.17  21 2.81  13 2.91
  42  0.125  0.167  0.423- 104 1.96  63 1.99  87 2.19  86 2.22  80 2.28  14 2.96   8 3.06
  43  0.324  0.503  0.326-  88 1.95  64 2.03  89 2.04  65 2.27  10 3.02   5 3.09
  44  0.223  0.831  0.554-  91 2.00  90 2.12  84 2.16  85 2.18 108 2.21 103 2.25  10 2.88  14 2.93

[...]

  55  0.979  0.746  0.033-   6 1.98  29 1.99   3 2.16  27 2.23  53 2.25
  56  0.992  0.238  0.004-  54 1.95   2 1.95  36 1.98  30 2.07  26 2.18  24 2.40
  57  0.880  0.067  0.213-   1 1.94  20 2.09   7 2.20  36 2.23  39 2.26
  58  0.909  0.586  0.197-   6 2.02  28 2.06  19 2.12  40 2.16   3 2.21  37 2.28
  59  0.116  0.418  0.115-   2 1.97  15 2.06  24 2.08  31 2.12  40 2.18  28 2.20
  60  0.140  0.921  0.072-   4 2.03  47 2.04   1 2.06  20 2.30
  61  0.316  0.757  0.998-   3 1.91  47 1.95  50 1.98  32 2.15  25 2.17  16 2.35
  62  0.333  0.248  0.008-  12 1.94  30 1.97  15 2.05  33 2.12  48 2.19  24 2.21
  63  0.217  0.087  0.216-   4 1.92  30 1.98  42 1.99  33 2.15  22 2.28  20 2.31
  64  0.224  0.582  0.210-   3 1.94  31 2.00  43 2.03  16 2.06  40 2.09  21 2.24
  65  0.486  0.419  0.082-  34 1.91   5 2.04  12 2.07  31 2.21  43 2.27  15 2.39
  66  0.453  0.911  0.099-  17 1.94   4 1.94  50 1.99  35 2.00  32 2.19  22 2.20
  67  0.684  0.744  0.993-   6 2.03  53 2.04  50 2.16  35 2.17  13 2.17  16 2.28
  68  0.643  0.256  0.012-   5 1.96  33 2.05  51 2.10  36 2.16  12 2.21  26 2.51
  69  0.564  0.095  0.217-  33 1.95   7 1.95  36 1.98  45 2.07  17 2.18  22 2.40
  70  0.576  0.587  0.234-   6 1.98  37 1.99  10 2.16  16 2.23  34 2.25
  71  0.759  0.417  0.152-  37 1.99  26 2.00   5 2.03   2 2.03
  72  0.797  0.916  0.133-  29 1.99  17 2.00   1 2.03   7 2.03
  73  0.646  0.747  0.328-   6 2.02  35 2.06  19 2.12  38 2.16  10 2.21  29 2.28
  74  0.676  0.267  0.315-   5 1.94  18 2.09   2 2.20  36 2.23  39 2.26
  75  0.600  0.085  0.524-  39 1.86  11 2.06   7 2.08  45 2.19  48 2.28  23 2.48
  76  0.558  0.592  0.552-  49 2.01  37 2.04  25 2.05  19 2.05  10 2.07  46 2.21
  77  0.794  0.407  0.435-   8 1.98  18 1.99  37 2.20  40 2.21   2 2.27
  78  0.762  0.927  0.452-  11 1.98  20 1.99  29 2.20  38 2.21   7 2.27
  79  0.997  0.741  0.332-  41 2.01  29 2.04  21 2.05  19 2.05   3 2.07  32 2.21
  80  0.956  0.248  0.346-  39 1.86   8 2.06   2 2.08  30 2.19  42 2.28  15 2.48
  81  0.877  0.086  0.598-  51 1.97  14 1.99  11 2.05  20 2.44
  82  0.879  0.579  0.570-  13 1.92  40 2.04  49 2.05  52 2.07  21 2.26  19 2.30
  83  0.099  0.405  0.458-   8 2.02  15 2.13   9 2.21  52 2.24  40 2.25
  84  0.097  0.911  0.446-  14 1.97  41 2.01  32 2.02  20 2.06  44 2.16  22 2.19
  85  0.339  0.741  0.329-  10 2.01  16 2.01  32 2.02  35 2.06  21 2.08  44 2.18
  86  0.342  0.261  0.337-   5 2.01  15 2.10  45 2.18  33 2.18  42 2.22   9 2.23
  87  0.223  0.085  0.563-  14 1.94  45 1.97  23 2.05  54 2.12  42 2.19  22 2.21
[...]
   0.345E+01 -.120E+02 0.622E+01   -.356E+01 0.123E+02 -.521E+01   0.873E-01 -.273E+00 -.957E+00   0.287E-03 0.687E-03 -.202E-03
   0.935E+00 -.223E+03 0.149E+02   0.475E+00 0.239E+03 -.186E+02   -.145E+01 -.154E+02 0.370E+01   0.188E-02 -.527E-02 -.539E-02
   0.185E+02 0.203E+03 0.770E+02   -.188E+02 -.215E+03 -.871E+02   0.280E+00 0.119E+02 0.102E+02   0.272E-02 0.543E-02 -.456E-02
   -.511E+02 -.229E+03 -.344E+02   0.563E+02 0.243E+03 0.426E+02   -.527E+01 -.143E+02 -.813E+01   -.134E-01 0.851E-02 -.995E-02
   -.288E+02 0.223E+03 -.178E+02   0.339E+02 -.237E+03 0.206E+02   -.511E+01 0.140E+02 -.277E+01   0.476E-02 -.539E-03 -.102E-01
   -.328E+02 -.207E+03 -.300E+02   0.393E+02 0.224E+03 0.305E+02   -.645E+01 -.164E+02 -.507E+00   0.119E-02 0.175E-02 -.889E-02
   -.722E+00 0.169E+03 -.282E+02   0.117E+01 -.183E+03 0.333E+02   -.398E+00 0.147E+02 -.507E+01   0.435E-02 -.114E-01 -.155E-01
[...]
   0.263E+02 -.193E+03 0.378E+01   -.322E+02 0.208E+03 -.477E+01   0.590E+01 -.150E+02 0.104E+01   -.705E-02 0.161E-01 0.240E-01
   0.654E+01 0.181E+03 0.144E+01   -.111E+02 -.195E+03 -.197E+01   0.461E+01 0.140E+02 0.538E+00   -.415E-03 -.696E-02 0.151E-02
   0.455E+02 -.218E+03 0.133E+02   -.548E+02 0.230E+03 -.181E+02   0.938E+01 -.125E+02 0.479E+01   -.592E-02 -.860E-02 0.124E-01
   0.244E+02 0.231E+03 0.233E+02   -.279E+02 -.249E+03 -.277E+02   0.345E+01 0.179E+02 0.439E+01   0.710E-02 -.504E-02 0.852E-02
   -.651E+02 -.210E+03 -.338E+02   0.723E+02 0.226E+03 0.366E+02   -.716E+01 -.153E+02 -.280E+01   -.169E-03 -.287E-02 0.322E-02
   -.331E+01 0.199E+03 -.495E+01   -.543E+00 -.211E+03 0.847E+01   0.389E+01 0.123E+02 -.349E+01   -.953E-02 0.107E-01 -.391E-02
   -.537E+02 -.157E+03 -.403E+02   0.592E+02 0.170E+03 0.484E+02   -.549E+01 -.134E+02 -.801E+01   0.541E-02 0.639E-02 0.403E-02
   -.811E+01 0.157E+03 -.666E+02   0.123E+02 -.170E+03 0.754E+02   -.419E+01 0.134E+02 -.876E+01   0.785E-03 -.639E-02 0.670E-02
   -.263E+01 -.199E+03 -.535E+01   0.761E+01 0.211E+03 0.377E+01   -.497E+01 -.123E+02 0.162E+01   0.137E-02 -.107E-01 -.102E-01
   0.325E+01 0.210E+03 -.733E+02   -.445E+01 -.226E+03 0.809E+02   0.116E+01 0.153E+02 -.760E+01   0.287E-02 0.287E-02 0.146E-02
   0.928E+02 -.211E+03 -.255E+02   -.102E+03 0.224E+03 0.260E+02   0.961E+01 -.128E+02 -.447E+00   -.205E-03 -.133E-02 -.114E-02
   -.290E+02 0.197E+03 0.429E+02   0.341E+02 -.208E+03 -.483E+02   -.507E+01 0.114E+02 0.544E+01   0.855E-03 0.444E-02 -.402E-02
   0.763E+01 -.185E+03 0.104E+02   -.579E+01 0.201E+03 -.682E+01   -.174E+01 -.163E+02 -.357E+01   0.883E-03 0.326E-02 0.493E-02
   -.243E+02 0.179E+03 0.813E+01   0.276E+02 -.193E+03 -.107E+02   -.324E+01 0.146E+02 0.258E+01   0.857E-03 -.597E-02 -.284E-02
   0.143E+02 0.304E-02 0.248E+02   0.522E-12 -.341E-12 0.302E-13   -.143E+02 -.386E-09 -.248E+02   0.155E-02 0.177E-05 0.267E-02

 POSITION                                       TOTAL-FORCE (eV/Angst)
     13.52832     15.18763      7.37370         0.103475     -0.009823      0.013568
      9.11535      5.14576      1.24320        -0.016848      0.021078     -0.030065
      1.91964     10.11508      0.64818         0.007828      0.028555     -0.028852
      3.16050      0.06212      0.15572         0.040678      0.000730     -0.022678
      6.01988      5.14605      1.53807        -0.039987      0.009823      0.096395
      7.63039     10.16684      0.74287        -0.033769     -0.000000     -0.058490
      7.05769      0.12076      2.43119        -0.017613     -0.021078     -0.029624
     10.36260      5.09359      4.12967        -0.031932      0.038845     -0.016273
      4.57691      5.04745      4.42327        -0.039979     -0.000730      0.023889
      5.88734     10.06167      3.44275        -0.028901     -0.028555     -0.007646
      8.93382      0.17294      4.95457         0.001873     -0.038845     -0.035790
      8.67116      5.08593      6.64073         0.027614      0.075133     -0.041274
     10.43343     10.16684      5.59788         0.007982      0.000000      0.013826
      3.03375      0.02365      4.81017        -0.049551     -0.075133      0.003277
      3.11772      5.05181      1.62655         0.044005     -0.036686      0.013297
      4.60406      9.89490      0.86386        -0.057936     -0.033117      0.068337
      6.23889     14.75020      0.16694        -0.220080     -0.119421     -0.013754
      7.72644      5.43306      4.11370         0.090185      0.224449      0.069935
      9.00056     10.16684      3.11608         0.060307      0.000000      0.104454
     10.50159     14.90062      2.51146         0.015473     -0.224449      0.113070
      3.10558     10.05886      3.30803        -0.004161     -0.056033     -0.000002
      4.63701     14.92324      2.44115        -0.058417      0.088359     -0.071640
      6.13560     15.12493      4.96950        -0.010487      0.036686      0.044758
      6.08141      5.25350      6.69254        -0.032834     -0.088359     -0.086411
      7.59787     10.11788      5.79972         0.002079      0.056033     -0.003605
     12.23139      5.58349      6.87780         0.098129      0.119421     -0.197472
      4.73191     10.28184      5.87536         0.088150      0.033117     -0.016006
      4.60920      7.65634      7.39451         0.023631      0.060686     -0.037156
      9.16125     12.63263      1.65329        -0.079251     -0.037198      0.041224
      1.63516      2.56986      0.77477         0.039797     -0.020573      0.005910
      7.52938      7.61619      7.51647         0.022384      0.018235     -0.017534
      3.26985     12.50140      1.64168        -0.008415     -0.014237     -0.033805
      4.57481      2.54024      0.87846         0.053832     -0.037499      0.009058
     10.49322      7.70986      7.40994         0.016622     -0.018723     -0.017650
      5.98104     12.52040      1.51717        -0.043993     -0.060686      0.001887
      7.42842      2.63326      0.69732         0.016313      0.000000      0.028255
      7.65341      7.70105      2.52385         0.075326      0.037198     -0.048021
      7.65526     12.56754      4.12218        -0.009699      0.027781     -0.012131
      8.87283      2.63326      3.19913        -0.020842     -0.000000     -0.036100
     10.54452      7.76614      2.45407        -0.005656     -0.027781     -0.014465
     10.63947     12.56302      3.96868         0.053697     -0.038076      0.035999
      3.00231      2.52586      3.19555        -0.040620     -0.029213      0.016520
      4.45285      7.56725      2.36954        -0.027612     -0.063742     -0.007192
      4.62657     12.56055      4.10708        -0.026377     -0.018235      0.010619
      5.87569      2.53972      3.41182        -0.014780      0.020573      0.037420
      6.07263      7.67534      5.10881        -0.025068      0.014237     -0.024190
      6.11148     12.60949      6.49725         0.007578      0.063742     -0.027509
      7.28858      2.58372      5.80619         0.034617      0.029213     -0.026918
      8.91948      7.77067      4.96171         0.004328      0.038076      0.064503
      8.96297     12.46921      6.71300        -0.039598     -0.022612     -0.009984
     10.51633      2.63326      6.04575        -0.008858     -0.000000     -0.015343
      3.21395      7.70753      4.94688         0.011153      0.022612     -0.039284
     11.97283     12.62383      6.55569        -0.023596      0.018723      0.005570
      4.49567      2.56934      6.00946        -0.019071      0.037499      0.051149
      9.08237     11.37103      0.09772        -0.035558     -0.014995      0.011649
      8.93694      3.63428      0.07723        -0.013689     -0.075161      0.057701
      8.81751      1.07667      1.60730        -0.002297     -0.066929      0.038834
      9.17567      9.03516      1.33346         0.001664      0.030940      0.023002
      1.63089      6.23113      0.81107         0.017938     -0.082671     -0.056176
      1.82536     13.96369      0.42900         0.058478      0.058696      0.040135
[...]
      6.03335      8.91632      6.73045        -0.015024     -0.003938      0.007469
      7.58387      6.48582      5.75190         0.046031      0.118406      0.074127
      7.77259     14.12184      5.75552         0.017440      0.019787      0.007075
      9.23594     11.52215      4.94573         0.030297      0.038573     -0.056101
      9.16857      3.79061      5.20105        -0.005970      0.022705     -0.044898
      8.63817      1.29881      6.62466         0.016391      0.025376     -0.038002
      9.11323      9.06024      6.66859         0.019404      0.071615      0.024480
     10.33650      6.12568      5.78071         0.014656      0.015973      0.021655
     10.64023     14.20801      5.60535         0.011426     -0.015973      0.023520
     12.02079     11.27344      4.98991         0.011498     -0.071615      0.029044
      3.03633      3.81077      4.77357        -0.041106     -0.025376     -0.004806
     12.07701      1.33507      6.55144        -0.002845     -0.005985      0.004260
     11.86330      9.03100      6.69301        -0.012626     -0.023397      0.006249
      4.50623      6.45455      5.76987         0.093506      0.056769      0.008514
      4.32551     13.76035      5.87216         0.008902     -0.031792      0.034675
    total drift:                                0.004348      0.003043      0.004718

  FREE ENERGIE OF THE ION-ELECTRON SYSTEM (eV)
  free  energy   TOTEN  =      -809.1784844306 eV

  energy  without entropy=     -809.1453216648  energy(sigma->0) =     -809.16190305

 d Force =-0.8206029E-01[-0.807E-01,-0.835E-01]  d Energy =-0.8669443E-01 0.463E-02
 d Force = 0.9688732E+01[ 0.919E+01, 0.102E+02]  d Ewald  = 0.1852370E+02-0.883E+01

 Quasi-Newton relaxation of ions (Broydens 2nd method)
  g(Force)  = 0.410E-01   g(Stress)= 0.198E-02

 retain information from N=  1 steps
 eigenvalues of (default step * inverse Hessian matrix)
  average eigenvalue of G=  10.6961
 eigenvalue spectrum of G is 10.6961

volume of typ            1:    13.7 %

[...]

volume of typ            4:     8.6 %

total charge

# of ion       s       p       d       tot
    1        0.280   6.166   1.955   8.401
    2        0.273   6.138   2.038   8.448
    3        0.279   6.153   1.983   8.415
    4        0.279   6.156   1.988   8.423
    5        0.280   6.166   1.955   8.401
    6        0.282   6.174   1.951   8.407
    7        0.273   6.138   2.038   8.448
    8        0.279   6.168   1.955   8.402
    9        0.279   6.156   1.988   8.423
   10        0.279   6.153   1.983   8.415
   11        0.279   6.168   1.955   8.402
   12        0.267   6.143   2.006   8.416
   13        0.284   6.165   1.951   8.401
   14        0.267   6.143   2.006   8.416
   15        0.194   0.191   8.070   8.455
   16        0.189   0.202   8.065   8.456
   17        0.195   0.202   8.174   8.571
   18        0.193   0.195   8.114   8.502
   19        0.180   0.192   8.028   8.400
   20        0.193   0.195   8.114   8.502
   21        0.188   0.203   8.008   8.399
   22        0.192   0.203   8.092   8.487
   23        0.194   0.191   8.070   8.455
   24        0.192   0.203   8.092   8.487
   25        0.188   0.203   8.008   8.399
   26        0.195   0.202   8.174   8.571
   27        0.189   0.202   8.065   8.456
   28        2.080   0.271   0.103   2.455
   29        2.078   0.262   0.101   2.442
   30        2.082   0.273   0.104   2.460
   31        2.070   0.245   0.092   2.407
   32        2.075   0.256   0.097   2.427
   33        2.080   0.269   0.102   2.451
   34        2.080   0.266   0.102   2.447
   35        2.080   0.271   0.103   2.455
   36        2.095   0.303   0.116   2.513
   37        2.078   0.262   0.101   2.442
   38        2.069   0.236   0.089   2.394
   39        2.083   0.266   0.104   2.453
   40        2.069   0.236   0.089   2.394
   41        2.080   0.270   0.103   2.452
   42        2.069   0.237   0.087   2.393
   43        2.082   0.271   0.103   2.455
   44        2.070   0.245   0.092   2.407
   45        2.082   0.273   0.104   2.460
   46        2.075   0.256   0.097   2.427
   47        2.082   0.271   0.103   2.455
   48        2.069   0.237   0.087   2.393
   49        2.080   0.270   0.103   2.452
   50        2.083   0.275   0.105   2.462
   51        2.080   0.268   0.105   2.453
   52        2.083   0.275   0.105   2.462
   53        2.080   0.266   0.102   2.447
   54        2.080   0.269   0.102   2.451
   55        1.249   2.850   0.006   4.105
   56        1.254   2.836   0.005   4.095
   57        1.252   2.840   0.005   4.098
   58        1.248   2.843   0.005   4.096
   59        1.251   2.818   0.006   4.076
   60        1.250   2.849   0.005   4.105
[...]
   94        1.249   2.833   0.005   4.087
   95        1.248   2.833   0.007   4.087
   96        1.245   2.844   0.005   4.095
   97        1.255   2.830   0.005   4.090
   98        1.254   2.842   0.006   4.101
   99        1.250   2.853   0.005   4.108
  100        1.244   2.831   0.005   4.080
  101        1.253   2.838   0.006   4.097
  102        1.253   2.838   0.006   4.097
  103        1.244   2.831   0.005   4.080
  104        1.250   2.853   0.005   4.108
  105        1.249   2.856   0.005   4.110
  106        1.246   2.851   0.004   4.100
  107        1.247   2.837   0.007   4.091
  108        1.250   2.850   0.005   4.105
tot         129.95  249.21  135.81  514.97

magnetization (x)

# of ion       s       p       d       tot
    1       -0.000  -0.000  -0.005  -0.006
    2        0.000   0.000   0.014   0.015
    3       -0.002  -0.002  -0.057  -0.061
    4        0.000   0.000   0.014   0.015
    5       -0.000  -0.000  -0.005  -0.006
    6       -0.001  -0.001  -0.043  -0.045
    7        0.000   0.000   0.014   0.015
    8        0.000   0.001   0.024   0.025
    9        0.000   0.000   0.014   0.015
   10       -0.002  -0.002  -0.057  -0.061
   11        0.000   0.001   0.024   0.025
   12        0.001   0.001   0.029   0.031
   13       -0.001  -0.001  -0.021  -0.022
   14        0.001   0.001   0.029   0.031
   15       -0.000   0.001   0.890   0.890
   16        0.002   0.002   0.898   0.902
   17        0.000   0.000   0.012   0.013
   18       -0.001  -0.003  -0.594  -0.597
   19        0.003   0.001   1.136   1.140
   20       -0.001  -0.003  -0.594  -0.597
   21        0.002   0.001   1.199   1.202
   22       -0.001  -0.000  -0.709  -0.710
   23       -0.000   0.001   0.890   0.890
   24       -0.001  -0.000  -0.709  -0.710
   25        0.002   0.001   1.199   1.202
   26        0.000   0.000   0.012   0.013
   27        0.002   0.002   0.898   0.902
   28        0.000   0.004   0.001   0.005
   29        0.001   0.003   0.001   0.004
   30        0.000   0.001   0.000   0.001
   31        0.001   0.002   0.000   0.004
   32        0.001   0.002   0.001   0.004
   33       -0.000  -0.001  -0.000  -0.001
   34        0.001   0.002   0.001   0.003
   35        0.000   0.004   0.001   0.005
   36        0.000   0.000  -0.000   0.000
   37        0.001   0.003   0.001   0.004
   38        0.000  -0.001  -0.001  -0.001
   39       -0.000  -0.000   0.000  -0.001
   40        0.000  -0.001  -0.001  -0.001
   41        0.000   0.001   0.000   0.002
   42        0.000   0.001   0.000   0.002
   43       -0.001  -0.002  -0.001  -0.003
   44        0.001   0.002   0.000   0.004
   45        0.000   0.001   0.000   0.001
   46        0.001   0.002   0.001   0.004
   47       -0.001  -0.002  -0.001  -0.003
   48        0.000   0.001   0.000   0.002
   49        0.000   0.001   0.000   0.002
   50       -0.000  -0.000   0.000  -0.000
   51        0.000   0.001   0.000   0.001
   52       -0.000  -0.000   0.000  -0.000
   53        0.001   0.002   0.001   0.003
   54       -0.000  -0.001  -0.000  -0.001
   55        0.001   0.012  -0.000   0.013
   56        0.000   0.001   0.000   0.001
   57       -0.001  -0.016  -0.000  -0.018
   58        0.002   0.035  -0.000   0.037
   59        0.001  -0.010   0.000  -0.009
   60       -0.000  -0.006   0.000  -0.006
[...]
   94        0.004   0.062   0.000   0.066
   95       -0.001  -0.027  -0.000  -0.028
   96        0.004   0.028   0.000   0.032
   97        0.001   0.034   0.000   0.035
   98        0.000   0.006   0.000   0.006
   99        0.000   0.000   0.000   0.000
  100        0.007   0.076   0.000   0.083
  101        0.000   0.004   0.000   0.004
  102        0.000   0.004   0.000   0.004
  103        0.007   0.076   0.000   0.083
  104        0.000   0.000   0.000   0.000
  105       -0.000  -0.001  -0.000  -0.001
  106        0.003   0.021  -0.000   0.024
  107       -0.002  -0.019  -0.000  -0.021
  108       -0.000  -0.002  -0.000  -0.002
tot           0.08    0.77    4.51    5.37