 vasp.5.4.4.18Apr17-6-g9f103f2a35 (build May 12 2020 05:39:39) gamma-only

 MD_VERSION_INFO: Compiled 2020-05-12T12:39:39-UTC in devlin.sd.materialsdesign.
 com:/home/medea2/data/build/wwolf/vasp-gpu5.4.4/13047/x86_64/src/src/build/gam
 from svn 13047

 executed on                        Lin64 date 2023.04.01  14:46:49

 INCAR:
 POTCAR:    PAW_PBE Ta_pv 07Sep2000
 POTCAR:    PAW_PBE Ni 02Aug2007
 POTCAR:    PAW_PBE Li_sv 10Sep2004
 POTCAR:    PAW_PBE O 08Apr2002

 POTCAR:    PAW_PBE Ta_pv 07Sep2000

 POTCAR:    PAW_PBE Ni 02Aug2007

 POTCAR:    PAW_PBE Li_sv 10Sep2004

 POTCAR:    PAW_PBE O 08Apr2002

 Optimization of the real space projectors (new method)

 maximal supplied QI-value         = 15.12
 optimisation between [QCUT,QGAM] = [ 11.34, 22.83] = [ 36.00,145.93] Ry
 Optimized for a Real-space Cutoff    1.61 Angstroem

   l    n(q)    QCUT    max X(q) W(low)/X(q) W(high)/X(q)  e(spline)
   1     11    11.338     4.092    0.40E-05    0.64E-05    0.47E-07
   1     11    11.338     4.834    0.13E-04    0.44E-04    0.21E-06
   2     10    11.338    62.294    0.15E-03    0.31E-03    0.77E-06
   2     10    11.338    50.966    0.15E-03    0.31E-03    0.77E-06
   0     11    11.338   103.792    0.33E-04    0.19E-04    0.90E-07
   0     11    11.338    56.335    0.26E-04    0.17E-04    0.79E-07
 Optimization of the real space projectors (new method)

[...]

   l    n(q)    QCUT    max X(q) W(low)/X(q) W(high)/X(q)  e(spline)
   0      7    11.276    10.506    0.54E-04    0.58E-04    0.16E-07
   0      7    11.276     8.367    0.11E-03    0.14E-03    0.35E-07
   1      7    11.276     8.983    0.23E-03    0.43E-03    0.86E-07
 Optimization of the real space projectors (new method)

 maximal supplied QI-value         = 24.76
 optimisation between [QCUT,QGAM] = [ 11.39, 22.77] = [ 36.31,145.25] Ry
 Optimized for a Real-space Cutoff    1.10 Angstroem

   l    n(q)    QCUT    max X(q) W(low)/X(q) W(high)/X(q)  e(spline)
   0      7    11.387    20.381    0.22E-03    0.48E-03    0.18E-06
   0      7    11.387    15.268    0.22E-03    0.52E-03    0.19E-06
   1      7    11.387     5.964    0.22E-03    0.73E-03    0.24E-06
   1      7    11.387     5.382    0.19E-03    0.60E-03    0.21E-06

  PAW_PBE Ta_pv 07Sep2000               :
  PAW_PBE Ni 02Aug2007                  :
  PAW_PBE Li_sv 10Sep2004               :
  PAW_PBE O 08Apr2002                   :

 POSCAR: ce8_1
  positions in direct lattice
 exchange correlation table for  LEXCH =       14
   RHO(1)=    0.500       N(1)  =     2000
   RHO(2)=  100.500       N(2)  =     4000

 ion  position               nearest neighbor table
   1  0.000  1.000  1.000-  57 2.13  72 2.14  60 2.14 108 2.14 105 2.15  93 2.15  24 2.88  19 2.88
                             7 2.88   4 2.88  10 2.89  13 2.89  54 3.08  29 3.10
   2  0.889  0.333  0.222-  74 2.16  80 2.16  56 2.16  71 2.17  59 2.17  77 2.17  11 2.85  14 2.85
                             8 2.85   5 2.85  25 2.85  20 2.85  39 3.07  36 3.07  30 3.07
   3  0.111  0.667  0.119-  94 2.11  55 2.11  61 2.13  58 2.13  64 2.16  79 2.16  15 2.74  12 2.85
                             6 2.85  27 2.95  21 2.95   9 2.96  40 3.06  32 3.06  29 3.08  47 3.09
   4  0.333  0.000  1.000-  93 2.14  63 2.14  96 2.15  60 2.15  66 2.15  99 2.15  13 2.88  19 2.88
                            22 2.88   1 2.88  16 2.88   7 2.89  32 3.09  50 3.09  30 3.10
   5  0.214  0.333  0.231-  65 2.10  62 2.11  86 2.13  59 2.13  80 2.16  83 2.16  14 2.74  17 2.85
                             2 2.85  20 2.95  26 2.96   8 2.96  40 3.05  42 3.05  30 3.08  33 3.09
   6  0.445  0.666  0.111-  64 2.15  70 2.15 100 2.16  61 2.17  67 2.17  85 2.17  21 2.85  23 2.85
                            15 2.85  18 2.85   3 2.85   9 2.85  43 3.08  34 3.10  31 3.10
   7  0.667  0.000  1.000- 105 2.14  69 2.14 102 2.15  72 2.15  66 2.15  99 2.15  10 2.88  24 2.88
                            22 2.88   1 2.88  16 2.88   4 2.89  35 3.09  50 3.09  36 3.10
   8  0.556  0.333  0.231-  65 2.10  68 2.11  86 2.13  71 2.13  74 2.16  89 2.16  11 2.74  17 2.85
                             2 2.85  25 2.95  26 2.96   5 2.96  37 3.05  45 3.05  36 3.08  33 3.09
   9  0.770  0.667  0.119- 106 2.11  55 2.11  67 2.13  58 2.13  70 2.16  73 2.16  18 2.74  12 2.85
                             6 2.85  27 2.95  23 2.95   3 2.96  37 3.06  35 3.06  29 3.08  53 3.09
  10  0.666  0.000  0.333-  78 2.14  57 2.14  69 2.14  90 2.14  72 2.15  75 2.15  16 2.88   7 2.88
                            19 2.88   1 2.89  22 2.89  13 2.90  45 3.08  35 3.08  36 3.10  38 3.10
  11  0.556  0.333  0.547-  95 2.11  98 2.11  92 2.13  77 2.13  89 2.16  74 2.16   8 2.74   2 2.85
                            17 2.85  26 2.95  20 2.95  14 2.96  37 3.06  45 3.06  39 3.08  48 3.09
  12  0.778  0.667  0.444-  79 2.16  73 2.16  97 2.16  82 2.17  76 2.17  58 2.17   3 2.85   9 2.85
                            18 2.85  15 2.85  23 2.85  21 2.85  29 3.07  41 3.07  38 3.07
  13  0.001  0.000  0.333-  57 2.14  78 2.14  63 2.14  84 2.14  60 2.15  81 2.15  16 2.88   4 2.88
                            24 2.88   1 2.89  22 2.89  10 2.90  32 3.08  42 3.08  30 3.10  41 3.10
  14  0.897  0.333  0.547- 101 2.11  98 2.11 104 2.13  77 2.13  83 2.16  80 2.16   5 2.74   2 2.85
                            17 2.85  26 2.95  25 2.95  11 2.96  40 3.06  42 3.06  39 3.08  51 3.09
  15  0.111  0.667  0.436-  88 2.10 103 2.11  85 2.13  82 2.13  79 2.16  64 2.16   3 2.74   6 2.85
                            12 2.85  23 2.95  27 2.96  18 2.96  40 3.05  32 3.05  41 3.08  44 3.09
  16  0.333  0.000  0.333-  66 2.14  87 2.14  90 2.15  69 2.15  84 2.15  63 2.15  10 2.88  13 2.88
                             7 2.88  19 2.88   4 2.88  24 2.88  35 3.09  45 3.09  42 3.09  32 3.09
  17  0.222  0.334  0.556-  83 2.15  89 2.15 107 2.16  92 2.17 104 2.17  86 2.17  20 2.85  25 2.85
                             8 2.85   5 2.85  11 2.85  14 2.85  43 3.08  46 3.10  52 3.10
  18  0.453  0.667  0.436-  88 2.10  91 2.11  85 2.13  76 2.13  73 2.16  70 2.16   9 2.74   6 2.85
                            12 2.85  21 2.95  27 2.96  15 2.96  37 3.05  35 3.05  38 3.08  44 3.09
  19  0.334  1.000  0.667-  96 2.14  90 2.14  93 2.15  75 2.15  87 2.15 108 2.15  10 2.88   4 2.88
                             1 2.88  22 2.88  16 2.88  24 2.89  45 3.09  54 3.09  38 3.10
  20  0.214  0.333  0.889-  95 2.11  62 2.11  59 2.12  92 2.13  56 2.16 107 2.16  25 2.75  17 2.85
                             2 2.85  11 2.95   5 2.95  26 2.95  54 3.06  30 3.08  48 3.09  28 3.09
  21  0.452  0.667  0.778-  94 2.11  91 2.11  76 2.12  61 2.13  97 2.16 100 2.16  23 2.75   6 2.85
                            12 2.85   3 2.95  18 2.95  27 2.95  50 3.06  38 3.08  47 3.09  49 3.09
  22  0.666  0.000  0.667-  78 2.13  81 2.14  75 2.14  99 2.14  96 2.15 102 2.15   4 2.88   7 2.88
                            19 2.88  24 2.88  10 2.89  13 2.89  50 3.08  39 3.10
  23  0.770  0.667  0.778- 106 2.11 103 2.11  82 2.12  67 2.13  97 2.16 100 2.16  21 2.75   6 2.85
                            12 2.85   9 2.95  15 2.95  27 2.95  50 3.06  41 3.08  53 3.09  49 3.09
  24  1.000  1.000  0.667- 102 2.14  84 2.14 105 2.15  81 2.15  87 2.15 108 2.15  13 2.88   7 2.88
                             1 2.88  22 2.88  16 2.88  19 2.89  42 3.09  54 3.09  41 3.10
  25  0.897  0.333  0.889- 101 2.11  68 2.11  71 2.12 104 2.13  56 2.16 107 2.16  20 2.75  17 2.85
                             2 2.85  14 2.95   8 2.95  26 2.95  54 3.06  36 3.08  51 3.09  28 3.09
  26  0.556  0.334  0.889-  65 2.08  95 2.09 101 2.09  98 2.10  68 2.11  62 2.11  14 2.95  11 2.95
                            20 2.95  25 2.95   5 2.96   8 2.96
  27  0.111  0.666  0.778-  88 2.08 106 2.09  94 2.09  55 2.10 103 2.11  91 2.11   9 2.95   3 2.95
                            23 2.95  21 2.95  15 2.96  18 2.96
  28  0.003  0.504  0.994- 107 2.06  58 2.07  94 2.11 106 2.11  59 2.15  71 2.15   3 3.09   9 3.09
                            20 3.09  25 3.09
  29  0.889  0.832  0.223-  79 2.01  73 2.01  60 2.09  72 2.09  78 2.10  55 2.12  12 3.07   3 3.08
                             9 3.08   1 3.10
  30  0.111  0.168  0.111-  80 2.01  56 2.02  93 2.09  63 2.09  57 2.10  62 2.12   2 3.07   5 3.08
                            20 3.08  13 3.10   4 3.10
  31  0.339  0.497  0.998- 100 2.01  64 2.05  59 2.07  95 2.13  65 2.14  94 2.17   6 3.10   5 3.10
                            20 3.10
  32  0.221  0.833  0.223-  79 2.06  84 2.08  60 2.08  66 2.09  61 2.10  85 2.11  15 3.05   3 3.06
                            13 3.08   4 3.09  16 3.09
  33  0.447  0.170  0.106-  86 2.06  99 2.08  68 2.11  62 2.11  69 2.12  63 2.12   8 3.09   5 3.09

  34  0.664  0.497  0.998- 100 2.01  70 2.05  71 2.07 101 2.13  65 2.14 106 2.17   6 3.10   8 3.10
                            25 3.10
  35  0.556  0.833  0.223-  73 2.06  90 2.08  72 2.08  66 2.09  67 2.10  85 2.11  18 3.05   9 3.06
                            10 3.08   7 3.09  16 3.09
  36  0.778  0.168  0.111-  74 2.01  56 2.02 105 2.09  69 2.09  57 2.10  68 2.12   2 3.07   8 3.08
                            25 3.08  10 3.10   7 3.10
  37  0.665  0.500  0.333-  89 2.06  70 2.06  71 2.10  76 2.10  77 2.11  58 2.11   8 3.05  18 3.05
                             9 3.06  11 3.06
  38  0.556  0.832  0.555-  73 2.01  97 2.02  96 2.09  90 2.09  78 2.10  91 2.12  12 3.07  18 3.08
                            21 3.08  10 3.10  19 3.10
  39  0.778  0.168  0.444-  74 2.01  80 2.01  81 2.09  75 2.09  57 2.10  98 2.12   2 3.07  14 3.08
                            11 3.08  22 3.10
  40  0.002  0.500  0.333-  64 2.06  83 2.06  59 2.10  82 2.10  58 2.11  77 2.11   5 3.05  15 3.05
                             3 3.06  14 3.06
  41  0.889  0.832  0.555-  79 2.01  97 2.02 102 2.09  84 2.09  78 2.10 103 2.12  12 3.07  15 3.08
                            23 3.08  13 3.10  24 3.10
  42  0.111  0.167  0.444-  80 2.06  63 2.08  81 2.08  87 2.09 104 2.10  86 2.11   5 3.05  14 3.06
                            13 3.08  24 3.09  16 3.09
  43  0.333  0.500  0.333-  89 2.03  70 2.03  83 2.03  64 2.03  65 2.15  88 2.15   6 3.08  17 3.08
                            18 3.09   8 3.09  15 3.09   5 3.09
  44  0.220  0.830  0.561-  85 2.06 108 2.08 103 2.11  91 2.11  84 2.12  90 2.12  15 3.09  18 3.09

  45  0.446  0.167  0.444-  74 2.06  69 2.08  75 2.08  87 2.09  92 2.10  86 2.11   8 3.05  11 3.06
                            10 3.08  19 3.09  16 3.09
  46  0.328  0.503  0.669- 107 2.01  89 2.05  76 2.07  94 2.13  88 2.14  95 2.17  17 3.10  18 3.10
                            21 3.10
  47  0.220  0.830  0.886-  61 2.06 108 2.08  91 2.11  55 2.11  60 2.13  96 2.13   3 3.09  21 3.09

  48  0.447  0.170  0.780-  92 2.06  99 2.08  62 2.11  98 2.11  75 2.13  93 2.13  11 3.09  20 3.09

  49  0.663  0.496  0.673- 100 2.06  77 2.07  95 2.11 101 2.11  76 2.15  82 2.15  11 3.09  14 3.09
                            21 3.09  23 3.09
  50  0.556  0.833  0.888-  97 2.06  96 2.08 102 2.08  66 2.09  61 2.11  67 2.11  21 3.06  23 3.06
                            22 3.08   4 3.09   7 3.09
  51  0.773  0.170  0.780- 104 2.06  99 2.08  68 2.11  98 2.11  81 2.13 105 2.13  14 3.09  25 3.09

  52  0.003  0.503  0.669- 107 2.01  83 2.05  82 2.07 106 2.13  88 2.14 101 2.17  17 3.10  15 3.10
[...]
   -.405E-05 0.758E+01 0.525E+01   -.139E-05 -.743E+01 -.508E+01   0.347E-17 -.145E+00 -.170E+00   -.106E-06 0.181E-02 0.653E-03
   -.511E-04 -.221E+03 0.314E+01   -.827E-05 0.236E+03 -.688E+01   0.000E+00 -.145E+02 0.375E+01   -.254E-07 -.304E-02 -.223E-02
   -.509E-04 0.207E+03 0.111E+02   -.413E-05 -.225E+03 -.111E+02   -.434E-18 0.174E+02 0.271E-01   -.398E-08 0.416E-02 -.176E-02
   -.146E-05 -.193E+03 0.192E+01   0.785E-05 0.212E+03 -.205E+01   0.347E-17 -.193E+02 0.781E-01   -.383E-07 0.135E-02 -.106E-02
   0.169E-05 0.217E+03 -.244E+01   -.645E-06 -.235E+03 0.208E+01   0.000E+00 0.182E+02 0.342E+00   0.222E-07 -.805E-03 -.137E-02
   0.117E+02 -.216E+03 0.437E+01   -.123E+02 0.235E+03 -.456E+01   0.581E+00 -.189E+02 0.198E+00   0.190E-04 -.222E-03 -.264E-02
   -.858E+00 0.203E+03 0.713E+01   0.121E+01 -.222E+03 -.782E+01   -.330E+00 0.185E+02 0.661E+00   -.260E-02 -.352E-02 -.682E-03
[...]
   -.419E+01 -.215E+03 -.424E+01   0.832E+01 0.230E+03 0.688E+01   -.414E+01 -.146E+02 -.264E+01   -.495E-04 -.900E-03 0.206E-02
   0.798E+01 0.202E+03 -.567E+01   -.843E+01 -.221E+03 0.544E+01   0.430E+00 0.187E+02 0.202E+00   0.264E-02 -.398E-02 -.393E-03
   0.102E-03 -.207E+03 -.111E+02   0.162E-04 0.225E+03 0.111E+02   0.434E-18 -.174E+02 -.271E-01   0.417E-08 -.416E-02 0.176E-02
   0.989E-04 0.221E+03 -.314E+01   0.228E-04 -.236E+03 0.688E+01   0.000E+00 0.145E+02 -.375E+01   0.268E-07 0.304E-02 0.223E-02
   0.492E-04 -.205E+03 -.783E+00   0.794E-05 0.223E+03 0.125E+01   0.000E+00 -.173E+02 -.505E+00   -.380E-07 0.209E-02 -.740E-03
   0.512E-04 0.206E+03 0.119E+02   0.974E-05 -.223E+03 -.119E+02   0.000E+00 0.167E+02 0.329E-01   0.462E-09 0.988E-03 -.167E-02
   0.419E+01 -.215E+03 -.424E+01   -.832E+01 0.230E+03 0.688E+01   0.414E+01 -.146E+02 -.264E+01   0.495E-04 -.900E-03 0.206E-02
   -.798E+01 0.202E+03 -.567E+01   0.843E+01 -.221E+03 0.544E+01   -.430E+00 0.187E+02 0.202E+00   -.264E-02 -.398E-02 -.393E-03
   -.114E+02 -.218E+03 -.832E+01   0.157E+02 0.232E+03 0.111E+02   -.433E+01 -.137E+02 -.276E+01   -.149E-03 -.431E-02 0.175E-02
   -.235E+01 0.219E+03 -.101E+01   0.265E+01 -.238E+03 0.106E+01   -.297E+00 0.182E+02 -.411E-01   0.415E-03 0.362E-02 0.249E-02
   0.798E+01 -.202E+03 0.567E+01   -.843E+01 0.221E+03 -.544E+01   0.430E+00 -.187E+02 -.202E+00   0.264E-02 0.399E-02 0.393E-03
   -.419E+01 0.215E+03 0.424E+01   0.832E+01 -.230E+03 -.688E+01   -.414E+01 0.146E+02 0.264E+01   -.495E-04 0.899E-03 -.206E-02
   0.137E-05 -.206E+03 -.119E+02   -.797E-05 0.223E+03 0.119E+02   0.000E+00 -.167E+02 -.329E-01   -.483E-09 -.989E-03 0.167E-02
   0.558E-06 0.205E+03 0.783E+00   0.256E-06 -.223E+03 -.125E+01   0.000E+00 0.173E+02 0.505E+00   0.377E-07 -.208E-02 0.740E-03
   0.132E-04 -.526E-03 0.177E-02   0.349E-12 0.796E-12 -.121E-12   0.178E-14 -.355E-14 -.222E-15   -.368E-09 0.182E-07 -.574E-07

 POSITION                                       TOTAL-FORCE (eV/Angst)
      4.41060     15.76091      7.32613        -0.000000     -0.006558     -0.002655
      8.82120      5.23649      1.62996         0.000000      0.036791      0.013000
      1.53257     10.49573      0.88634         0.007567     -0.012828     -0.007278
      7.37351      0.02162      7.30728         0.094072      0.006171     -0.013586
      2.87684      5.25843      1.69694        -0.011546      0.011094      0.006849
      4.41060     10.46675      0.81807        -0.000000     -0.001190      0.000863
     10.26888      0.02162      7.30728        -0.094072      0.006171     -0.013586
      5.94436      5.25843      1.69694         0.011546      0.011094      0.006849
      7.28863     10.49573      0.88634        -0.007567     -0.012828     -0.007278
      7.34201      0.00607      2.43634         0.098733     -0.000000     -0.000000
      7.28863      5.27396      4.02064        -0.007567      0.012828      0.007278
      8.82120     10.53320      3.27702        -0.000000     -0.036791     -0.013000
      1.47919      0.00607      2.43634        -0.098733     -0.000000     -0.000000
     10.35377      5.27396      4.02064         0.007567      0.012828      0.007278
      2.87684     10.51126      3.21004        -0.011546     -0.011094     -0.006849
      4.41060      0.00607      2.43634        -0.000000     -0.000000     -0.000000
      4.41060      5.30294      4.08891        -0.000000      0.001190     -0.000863
      5.94436     10.51126      3.21004         0.011546     -0.011094     -0.006849
      5.85828     15.76628      4.90872        -0.094072     -0.006171      0.013586
      5.80309      5.28194      6.51212         0.001215      0.015655      0.008744
      7.42871     10.50596      5.70387        -0.001215     -0.015655     -0.008744
      8.82120      0.02699      4.88987        -0.000000      0.006558      0.002655
     10.21369     10.50596      5.70387         0.001215     -0.015655     -0.008744
     11.78411     15.76628      4.90872         0.094072     -0.006171      0.013586
     11.83931      5.28194      6.51212        -0.001215      0.015655      0.008744
      8.82120      5.27299      6.50374        -0.000000      0.005924      0.004331
      4.41060     10.51491      5.71225        -0.000000     -0.005924     -0.004331
      4.41060      8.01623      7.24194        -0.000000      0.015635     -0.008312
      8.82120     13.09378      1.65641        -0.000000     -0.014460     -0.005399
      1.46254      2.65581      0.81900        -0.005567      0.004216      0.002628
      7.40738      7.81796      7.30529         0.002694     -0.008354      0.001510
      2.93022     13.12669      1.64568         0.005457     -0.005356     -0.007283
      4.41060      2.75762      0.75615        -0.000000      0.027074     -0.008910
     10.23502      7.81796      7.30529        -0.002694     -0.008354      0.001510
      5.89097     13.12669      1.64568        -0.005457     -0.005356     -0.007283
      7.35865      2.65581      0.81900         0.005567      0.004216      0.002628
      7.32086      7.88484      2.45349        -0.004047     -0.000000     -0.000000
      7.35865     13.11387      4.08798         0.005567     -0.004216     -0.002628
      8.82120      2.67590      3.25058        -0.000000      0.014460      0.005399
      1.50034      7.88484      2.45349         0.004047     -0.000000     -0.000000
     10.28374     13.11387      4.08798        -0.005567     -0.004216     -0.002628
      2.93022      2.64300      3.26130         0.005457      0.005356      0.007283
      4.41060      7.88484      2.45349        -0.000000     -0.000000     -0.000000
      4.41060     13.01207      4.15083        -0.000000     -0.027074      0.008910
      5.89097      2.64300      3.26130        -0.005457      0.005356      0.007283
      5.82442      7.96993      4.91070        -0.002694      0.008354     -0.001510
      5.82949     13.03341      6.48730        -0.006659     -0.014178     -0.002342
      7.40231      2.75449      5.72869         0.006659      0.014178      0.002342
      8.82120      7.77166      4.97405         0.000000     -0.015635      0.008312
      8.82120     13.12989      6.51139        -0.000000     -0.009489      0.006183
     10.24009      2.75449      5.72869        -0.006659      0.014178      0.002342
      2.99678      7.96993      4.91070         0.002694      0.008354     -0.001510
     11.81291     13.03341      6.48730         0.006659     -0.014178     -0.002342
      4.41060      2.65801      5.70460        -0.000000      0.009489     -0.006183
      8.82120     11.69808      0.05517        -0.000000      0.001736      0.000174
      8.82120      3.81677      0.02546        -0.000000     -0.009579      0.004327
      8.82120      1.33292      1.67188         0.000000      0.037781     -0.056719
      8.82120      9.19140      1.57836        -0.000000      0.026918     -0.012656
      1.49220      6.61479      0.84578        -0.005188      0.004474     -0.002045
      1.46992     14.40454      0.78991         0.020035      0.014249     -0.027230
[...]
      5.91532      9.28151      6.50350         0.004796      0.012427     -0.002915
      7.31648      6.50639      5.71249        -0.004796     -0.012427      0.002915
      7.34604     14.42590      5.66274        -0.014402      0.022771     -0.031089
      8.82120     11.95292      4.88152        -0.000000      0.009579     -0.004327
      8.82120      4.07161      4.85181        -0.000000     -0.001736     -0.000174
      8.82120      1.42666      6.53406        -0.000000      0.035574     -0.042324
      8.82120      9.05444      6.52678        -0.000000     -0.005812     -0.004293
     10.32592      6.50639      5.71249         0.004796     -0.012427      0.002915
     10.29636     14.42590      5.66274         0.014402      0.022771     -0.031089
     11.72171     11.75580      4.90081        -0.010162     -0.007554     -0.011705
     11.73896      3.91588      4.87139         0.001887     -0.012251      0.014108
     11.75664      1.36199      6.55326        -0.014402     -0.022771      0.031089
     11.72708      9.28151      6.50350        -0.004796      0.012427     -0.002915
      4.41060      6.73345      5.68921        -0.000000      0.005812      0.004293
      4.41060     14.36124      5.68193         0.000000     -0.035574      0.042324
    total drift:                                0.000013     -0.000526      0.001768

  FREE ENERGIE OF THE ION-ELECTRON SYSTEM (eV)
  free  energy   TOTEN  =      -900.7241573468 eV

  energy  without entropy=     -900.6897739793  energy(sigma->0) =     -900.70696566

 d Force =-0.3576329E-03[-0.742E-03, 0.263E-04]  d Energy = 0.4128154E-04-0.399E-03
 d Force =-0.1766511E+01[-0.179E+01,-0.175E+01]  d Ewald  =-0.1423725E+01-0.343E+00

 Quasi-Newton relaxation of ions (Broydens 2nd method)
  g(Force)  = 0.560E-02   g(Stress)= 0.591E-04

 retain information from N=  4 steps
 eigenvalues of (default step * inverse Hessian matrix)
  average eigenvalue of G=   2.4074
 eigenvalue spectrum of G is  4.2073  4.2073  0.6856  0.5296

volume of typ            1:    24.8 %

[...]

volume of typ            4:     8.7 %

total charge

# of ion       s       p       d       tot
    1        0.227   6.073   2.240   8.540
    2        0.225   6.059   2.302   8.586
    3        0.236   6.090   2.196   8.522
    4        0.224   6.067   2.247   8.538
    5        0.237   6.091   2.192   8.521
    6        0.225   6.060   2.299   8.585
    7        0.224   6.067   2.247   8.538
    8        0.237   6.091   2.192   8.521
    9        0.236   6.090   2.196   8.522
   10        0.226   6.073   2.230   8.529
   11        0.236   6.090   2.196   8.522
   12        0.225   6.059   2.302   8.586
   13        0.226   6.073   2.230   8.529
   14        0.236   6.090   2.196   8.522
   15        0.237   6.091   2.192   8.521
   16        0.225   6.068   2.256   8.550
   17        0.225   6.060   2.299   8.585
   18        0.237   6.091   2.192   8.521
   19        0.224   6.067   2.247   8.538
   20        0.233   6.082   2.209   8.524
   21        0.233   6.082   2.209   8.524
   22        0.227   6.073   2.240   8.540
   23        0.233   6.082   2.209   8.524
   24        0.224   6.067   2.247   8.538
   25        0.233   6.082   2.209   8.524
   26        0.203   0.228   8.009   8.441
   27        0.203   0.228   8.009   8.441
   28        2.079   0.260   0.106   2.445
   29        2.086   0.282   0.117   2.486
   30        2.088   0.288   0.121   2.497
   31        2.083   0.269   0.109   2.461
   32        2.083   0.271   0.113   2.466
   33        2.079   0.258   0.104   2.441
   34        2.083   0.269   0.109   2.461
   35        2.083   0.271   0.113   2.466
   36        2.088   0.288   0.121   2.497
   37        2.082   0.270   0.112   2.464
   38        2.088   0.288   0.121   2.497
   39        2.086   0.282   0.117   2.486
   40        2.082   0.270   0.112   2.464
   41        2.088   0.288   0.121   2.497
   42        2.083   0.271   0.113   2.466
   43        2.089   0.290   0.121   2.500
   44        2.079   0.258   0.104   2.441
   45        2.083   0.271   0.113   2.466
   46        2.083   0.269   0.109   2.461
   47        2.079   0.256   0.103   2.438
   48        2.079   0.256   0.103   2.438
   49        2.079   0.260   0.106   2.445
   50        2.083   0.271   0.113   2.467
   51        2.079   0.256   0.103   2.438
   52        2.083   0.269   0.109   2.461
   53        2.079   0.256   0.103   2.438
   54        2.083   0.271   0.113   2.467
   55        1.240   2.847   0.005   4.092
   56        1.242   2.849   0.006   4.097
   57        1.245   2.845   0.006   4.097
   58        1.243   2.849   0.006   4.098
   59        1.245   2.844   0.006   4.095
   60        1.244   2.841   0.006   4.091
[...]
   94        1.244   2.841   0.005   4.090
   95        1.244   2.841   0.005   4.090
   96        1.244   2.843   0.006   4.093
   97        1.242   2.849   0.006   4.097
   98        1.240   2.847   0.005   4.092
   99        1.242   2.843   0.006   4.091
  100        1.242   2.847   0.006   4.095
  101        1.244   2.841   0.005   4.090
  102        1.244   2.843   0.006   4.093
  103        1.242   2.843   0.005   4.091
  104        1.243   2.847   0.006   4.097
  105        1.244   2.843   0.006   4.093
  106        1.244   2.841   0.005   4.090
  107        1.242   2.847   0.006   4.095
  108        1.242   2.843   0.006   4.091
tot         129.53  313.30   75.13  517.95

magnetization (x)

# of ion       s       p       d       tot
    1        0.001   0.001   0.090   0.092
    2        0.000  -0.001  -0.012  -0.013
    3       -0.001  -0.002  -0.102  -0.105
    4        0.001   0.002   0.081   0.084
    5       -0.001  -0.002  -0.102  -0.105
    6        0.000  -0.001  -0.012  -0.013
    7        0.001   0.002   0.081   0.084
    8       -0.001  -0.002  -0.102  -0.105
    9       -0.001  -0.002  -0.102  -0.105
   10        0.001   0.001   0.098   0.100
   11       -0.001  -0.002  -0.102  -0.105
   12        0.000  -0.001  -0.012  -0.013
   13        0.001   0.001   0.098   0.100
   14       -0.001  -0.002  -0.102  -0.105
   15       -0.001  -0.002  -0.102  -0.105
   16        0.000   0.001   0.039   0.040
   17        0.000  -0.001  -0.012  -0.013
   18       -0.001  -0.002  -0.102  -0.105
   19        0.001   0.002   0.081   0.084
   20       -0.001  -0.001  -0.055  -0.056
   21       -0.001  -0.001  -0.055  -0.056
   22        0.001   0.001   0.090   0.092
   23       -0.001  -0.001  -0.055  -0.056
   24        0.001   0.002   0.081   0.084
   25       -0.001  -0.001  -0.055  -0.056
   26        0.002   0.001   1.294   1.298
   27        0.002   0.001   1.294   1.298
   28       -0.000  -0.000  -0.000  -0.000
   29        0.001   0.002   0.001   0.004
   30        0.001   0.002   0.000   0.003
   31        0.000   0.001   0.000   0.002
   32        0.000   0.000   0.000   0.000
   33        0.000   0.000  -0.000  -0.000
   34        0.000   0.001   0.000   0.002
   35        0.000   0.000   0.000   0.000
   36        0.001   0.002   0.000   0.003
   37       -0.000   0.000  -0.000  -0.000
   38        0.001   0.002   0.000   0.003
   39        0.001   0.002   0.001   0.004
   40       -0.000   0.000  -0.000  -0.000
   41        0.001   0.002   0.000   0.003
   42        0.000   0.000   0.000   0.000
   43        0.002   0.003   0.001   0.006
   44        0.000   0.000  -0.000  -0.000
   45        0.000   0.000   0.000   0.000
   46        0.000   0.001   0.000   0.002
   47       -0.000   0.000  -0.000   0.000
   48       -0.000   0.000  -0.000   0.000
   49       -0.000  -0.000  -0.000  -0.000
   50        0.000   0.000  -0.000   0.000
   51       -0.000   0.000  -0.000   0.000
   52        0.000   0.001   0.000   0.002
   53       -0.000   0.000  -0.000   0.000
   54        0.000   0.000  -0.000   0.000
   55        0.004   0.047   0.000   0.051
   56        0.000   0.001  -0.000   0.001
   57        0.000   0.017   0.000   0.017
   58        0.000  -0.000  -0.000  -0.001
   59       -0.000  -0.005  -0.000  -0.006
   60        0.001   0.013   0.000   0.013
[...]
   94        0.004   0.038  -0.000   0.042
   95        0.004   0.038  -0.000   0.042
   96        0.000   0.013   0.000   0.014
   97        0.000   0.001  -0.000   0.001
   98        0.004   0.047   0.000   0.051
   99        0.001   0.017   0.000   0.017
  100        0.000   0.001  -0.000   0.001
  101        0.004   0.038  -0.000   0.042
  102        0.000   0.013   0.000   0.014
  103        0.004   0.038  -0.000   0.042
  104       -0.000  -0.005  -0.000  -0.005
  105        0.000   0.013   0.000   0.014
  106        0.004   0.038  -0.000   0.042
  107        0.000   0.001  -0.000   0.001
  108        0.001   0.017   0.000   0.017
tot           0.06    0.70    2.25    3.01