 vasp.5.4.4.18Apr17-6-g9f103f2a35 (build May 12 2020 05:39:39) gamma-only

 MD_VERSION_INFO: Compiled 2020-05-12T12:39:39-UTC in devlin.sd.materialsdesign.
 com:/home/medea2/data/build/wwolf/vasp-gpu5.4.4/13047/x86_64/src/src/build/gam
 from svn 13047

 executed on                        Lin64 date 2023.04.01  13:44:27

 INCAR:
 POTCAR:    PAW_PBE Ta_pv 07Sep2000
 POTCAR:    PAW_PBE Ni 02Aug2007
 POTCAR:    PAW_PBE Li_sv 10Sep2004
 POTCAR:    PAW_PBE O 08Apr2002

 POTCAR:    PAW_PBE Ta_pv 07Sep2000

 POTCAR:    PAW_PBE Ni 02Aug2007

 POTCAR:    PAW_PBE Li_sv 10Sep2004

 POTCAR:    PAW_PBE O 08Apr2002

 Optimization of the real space projectors (new method)

 maximal supplied QI-value         = 15.12
 optimisation between [QCUT,QGAM] = [ 11.34, 22.83] = [ 36.00,145.93] Ry
 Optimized for a Real-space Cutoff    1.61 Angstroem

   l    n(q)    QCUT    max X(q) W(low)/X(q) W(high)/X(q)  e(spline)
   1     11    11.338     4.092    0.40E-05    0.64E-05    0.47E-07
   1     11    11.338     4.834    0.13E-04    0.44E-04    0.21E-06
   2     10    11.338    62.294    0.15E-03    0.31E-03    0.77E-06
   2     10    11.338    50.966    0.15E-03    0.31E-03    0.77E-06
   0     11    11.338   103.792    0.33E-04    0.19E-04    0.90E-07
   0     11    11.338    56.335    0.26E-04    0.17E-04    0.79E-07
 Optimization of the real space projectors (new method)

[...]

   l    n(q)    QCUT    max X(q) W(low)/X(q) W(high)/X(q)  e(spline)
   0      7    11.276    10.506    0.54E-04    0.58E-04    0.16E-07
   0      7    11.276     8.367    0.11E-03    0.14E-03    0.35E-07
   1      7    11.276     8.983    0.23E-03    0.43E-03    0.86E-07
 Optimization of the real space projectors (new method)

 maximal supplied QI-value         = 24.76
 optimisation between [QCUT,QGAM] = [ 11.39, 22.77] = [ 36.31,145.25] Ry
 Optimized for a Real-space Cutoff    1.10 Angstroem

   l    n(q)    QCUT    max X(q) W(low)/X(q) W(high)/X(q)  e(spline)
   0      7    11.387    20.381    0.22E-03    0.48E-03    0.18E-06
   0      7    11.387    15.268    0.22E-03    0.52E-03    0.19E-06
   1      7    11.387     5.964    0.22E-03    0.73E-03    0.24E-06
   1      7    11.387     5.382    0.19E-03    0.60E-03    0.21E-06

  PAW_PBE Ta_pv 07Sep2000               :
  PAW_PBE Ni 02Aug2007                  :
  PAW_PBE Li_sv 10Sep2004               :
  PAW_PBE O 08Apr2002                   :

 POSCAR: ce425741_1
  positions in direct lattice
 exchange correlation table for  LEXCH =       14
   RHO(1)=    0.500       N(1)  =     2000
   RHO(2)=  100.500       N(2)  =     4000

 ion  position               nearest neighbor table
   1  0.003  0.997  0.998-  60 1.98 108 1.98  72 2.01  93 2.01 105 2.01  57 2.01   6 2.89  25 2.90
                            19 2.91  15 2.91  54 2.92  12 2.94   9 2.95  47 2.95  53 2.96  30 2.98
   2  0.886  0.337  0.222-  77 1.98  71 1.99  59 1.99  56 2.01  74 2.02  80 2.03  10 2.89  40 2.89
                            26 2.90  13 2.90  16 2.91  20 2.93   7 2.93  37 2.96  28 2.96  36 2.99
   3  0.108  0.670  0.446- 103 1.98  79 1.98  85 2.01  82 2.01  64 2.01  88 2.01  24 2.89   5 2.90
                            14 2.91  27 2.91  40 2.92  18 2.94   8 2.95  41 2.95  32 2.96  52 2.98
   4  0.225  0.329  0.553-  92 1.98  86 1.99 104 1.99  83 2.01  89 2.02 107 2.03  10 2.89  54 2.89
                             7 2.90  13 2.90  20 2.91  16 2.93  26 2.93  45 2.96  42 2.96  43 2.99
   5  0.111  0.666  0.110-  55 1.95  58 1.95  61 1.97  94 2.01  64 2.03  79 2.11  29 2.83  47 2.84
                            28 2.84  27 2.86  21 2.89  11 2.90   3 2.90   8 2.90  14 2.92
   6  0.335  0.999  0.001-  63 1.96  96 1.97  66 1.97  99 1.99  93 2.06  60 2.09  32 2.80   9 2.85
                            17 2.87   1 2.89  22 2.89  15 2.91  19 2.92
   7  0.226  0.333  0.219-  62 1.96  65 1.96  83 2.04  80 2.04  59 2.08  86 2.09  20 2.86  23 2.87
                            10 2.87   4 2.90   2 2.93  16 2.96
   8  0.447  0.669  0.107- 100 1.92  61 1.93  70 1.94  85 2.00  67 2.01  64 2.10  24 2.85  21 2.86
                            11 2.89   5 2.90  18 2.93   3 2.95
   9  0.664  0.998  0.998-  99 1.92 102 1.93  69 1.94  72 2.00  66 2.01 105 2.10   6 2.85  22 2.86
                            17 2.89  25 2.90  12 2.93   1 2.95
  10  0.556  0.333  0.219-  68 1.96  65 1.96  74 2.05  89 2.05  86 2.08  71 2.08  23 2.87  26 2.87
                             7 2.87   2 2.89   4 2.89  13 2.94
  11  0.777  0.670  0.111-  67 1.91  58 1.92  73 1.92  55 1.92 106 1.94  70 1.94  29 2.82  53 2.82
                            24 2.87  14 2.88  27 2.89  18 2.89   8 2.89   5 2.90
  12  0.664  0.998  0.337-  78 1.96  69 1.97  90 1.99  75 2.00  72 2.08  57 2.09  45 2.79  19 2.84
                            22 2.88  17 2.89  15 2.91   9 2.93   1 2.94
  13  0.556  0.333  0.558-  98 1.96  95 1.96  74 2.06  89 2.06  92 2.07  77 2.07  16 2.87  20 2.87
                            23 2.87   4 2.90   2 2.90  10 2.94
  14  0.774  0.668  0.445-  58 1.93  97 1.95  73 1.97  76 2.00  82 2.06  79 2.09  29 2.79  37 2.84
                            18 2.84  11 2.88  21 2.89   3 2.91   5 2.92  24 2.92
  15  1.000  0.000  0.336-  84 1.93  63 1.94  78 1.95  57 2.01  81 2.01  60 2.11  42 2.80  39 2.82
                            41 2.82  32 2.84  25 2.86  22 2.89  17 2.89   6 2.91   1 2.91  12 2.91
  16  0.885  0.333  0.559-  98 1.95 101 1.96  80 2.04  83 2.04 104 2.07  77 2.09  26 2.86  13 2.87
                            23 2.87   2 2.91   4 2.93   7 2.96
  17  0.334  0.997  0.333-  66 1.91  87 1.92  90 1.92  84 1.92  63 1.94  69 1.94  44 2.82  32 2.82
                             6 2.87  19 2.88  15 2.89  12 2.89   9 2.89  25 2.90
  18  0.447  0.668  0.445-  91 1.96  70 1.97  73 1.99  76 2.00  85 2.08  88 2.09  37 2.79  14 2.84
                            21 2.88  11 2.89  27 2.91   8 2.93   3 2.94
  19  0.337  0.999  0.663-  87 1.93  96 1.95  90 1.97  75 2.00  93 2.06 108 2.09  44 2.79  45 2.84
                            12 2.84  17 2.88  22 2.89   1 2.91  25 2.92   6 2.92
  20  0.226  0.334  0.888-  95 1.95  62 1.96 107 2.04  56 2.04  59 2.07  92 2.09   7 2.86  13 2.87
                            23 2.87   4 2.91   2 2.93  26 2.96
  21  0.444  0.664  0.779-  76 1.90  94 1.90  61 1.92 100 1.92  91 1.92  97 1.93  46 2.81  47 2.83
                             8 2.86  18 2.88  14 2.89   5 2.89  27 2.89  24 2.89
  22  0.667  0.002  0.668-  75 1.90  81 1.90 102 1.92  99 1.92  78 1.92  96 1.93  39 2.81  41 2.83
                             9 2.86  12 2.88  19 2.89  25 2.89  15 2.89   6 2.89
  23  0.556  0.333  0.889-  98 1.90  95 1.90  68 1.91  65 1.91  62 1.91 101 1.91  10 2.87  20 2.87
                            16 2.87  13 2.87   7 2.87  26 2.87
  24  0.776  0.668  0.780- 106 1.96  97 1.97  67 1.97 100 1.99  82 2.06 103 2.09  53 2.80   8 2.85
                            11 2.87   3 2.89  21 2.89  27 2.91  14 2.92
  25  1.000  0.001  0.666-  84 1.95  87 1.95 102 1.97  81 2.01 105 2.03 108 2.11  44 2.83  41 2.84
                            42 2.84  15 2.86  22 2.89  17 2.90   1 2.90   9 2.90  19 2.92
  26  0.885  0.334  0.889- 101 1.96  68 1.96  56 2.04 107 2.04 104 2.08  71 2.09  16 2.86  23 2.87
                            10 2.87   2 2.90   4 2.93  20 2.96
  27  0.111  0.667  0.780-  55 1.93 106 1.94  91 1.95  88 2.01  94 2.01 103 2.11  28 2.80  46 2.82
                            47 2.82  53 2.84   5 2.86  21 2.89  11 2.89  24 2.91   3 2.91  18 2.91
  28  0.006  0.505  0.992-  59 2.08 106 2.09  71 2.11  94 2.11 107 2.12  58 2.19  27 2.80   5 2.84
                             2 2.96
  29  0.888  0.826  0.228-  79 1.99  73 2.04  60 2.09  55 2.14  72 2.19  78 2.24  14 2.79  11 2.82
                             5 2.83   1 2.98
  30  0.120  0.167  0.110-  93 2.07  80 2.08  57 2.12  56 2.14  63 2.15  62 2.15   1 2.98   2 2.99

  31  0.329  0.500  0.002-  94 2.06  59 2.08  64 2.11  65 2.14  95 2.14 100 2.16
  32  0.223  0.839  0.218-  60 2.01  66 2.03  79 2.10  85 2.10  84 2.13  61 2.23   6 2.80  17 2.82
                            15 2.84   3 2.96
  33  0.444  0.167  0.114-  86 2.05  68 2.14  62 2.14  69 2.15  99 2.18  63 2.18
  34  0.667  0.500  0.002-  71 2.05  65 2.14 101 2.14  70 2.15 100 2.18 106 2.18
  35  0.556  0.833  0.221-  67 2.10  66 2.10  85 2.10  72 2.10  73 2.11  90 2.11
  36  0.769  0.166  0.109- 105 2.06  74 2.08  68 2.13  69 2.15  56 2.16  57 2.16   1 2.99   2 2.99

  37  0.658  0.507  0.338-  77 2.10  71 2.10  76 2.10  70 2.12  89 2.12  58 2.17  18 2.79  14 2.84
                             2 2.96
  38  0.556  0.833  0.557-  97 2.14  96 2.14  73 2.16  90 2.16  91 2.17  78 2.17
  39  0.778  0.160  0.445-  81 2.03  75 2.05  57 2.07  74 2.13  80 2.15  98 2.26  22 2.81  15 2.82
                             2 3.03
  40  0.003  0.499  0.338-  64 2.04  59 2.04  82 2.05  77 2.05  83 2.06  58 2.27   2 2.89   3 2.92

  41  0.884  0.840  0.557-  78 2.06  79 2.07 103 2.08 102 2.09  84 2.15  97 2.25  15 2.82  22 2.83
                            25 2.84   3 2.95
  42  0.105  0.161  0.442- 104 2.08  63 2.09  86 2.11  81 2.11  80 2.12  87 2.19  15 2.80  25 2.84
                             4 2.96
  43  0.342  0.500  0.323-  64 2.06  89 2.08  65 2.13  70 2.15  83 2.16  88 2.16   3 2.99   4 2.99

  44  0.223  0.840  0.560- 108 1.99  90 2.04 103 2.09  84 2.14  85 2.19  91 2.24  19 2.79  17 2.82
                            25 2.83   3 2.98
  45  0.453  0.160  0.441-  92 2.10  86 2.10  75 2.10  69 2.12  74 2.12  87 2.17  12 2.79  19 2.84
                             4 2.96
  46  0.333  0.506  0.667-  94 2.03  76 2.05  88 2.07  89 2.13 107 2.15  95 2.26  21 2.81  27 2.82
                             4 3.03
  47  0.227  0.826  0.886-  91 2.06 108 2.07  60 2.08  61 2.09  55 2.15  96 2.25  27 2.82  21 2.83
                             5 2.84   1 2.95
  48  0.442  0.166  0.776-  92 2.05  75 2.09  93 2.09  62 2.14  98 2.17  99 2.19
  49  0.669  0.500  0.662-  77 2.05  76 2.09  82 2.09 101 2.14  95 2.17 100 2.19
  50  0.556  0.833  0.889-  61 2.16 102 2.16  97 2.16  96 2.16  67 2.16  66 2.16
  51  0.782  0.167  0.776-  81 2.06 104 2.08 105 2.11  68 2.14  98 2.14  99 2.16
  52  0.991  0.500  0.675-  82 2.07 107 2.08  88 2.12  83 2.14 106 2.15 101 2.15   3 2.98   4 2.99

  53  0.888  0.827  0.886- 103 2.01  67 2.03 108 2.10  72 2.10  55 2.13 102 2.23  24 2.80  11 2.82
                            27 2.84   1 2.96
  54  0.108  0.168  0.785- 105 2.04 104 2.04  93 2.05  92 2.05  56 2.06  87 2.27   4 2.89   1 2.92

  55  0.999  0.736  1.000-  11 1.92  27 1.93   5 1.95  53 2.13  29 2.14  47 2.15
  56  0.999  0.256  0.003-   2 2.01  26 2.04  20 2.04  54 2.06  30 2.14  36 2.16
  57  0.896  0.078  0.217-  15 2.01   1 2.01  39 2.07  12 2.09  30 2.12  36 2.16
  58  0.885  0.600  0.222-  11 1.92  14 1.93   5 1.95  37 2.17  28 2.19  40 2.27
  59  0.103  0.417  0.115-   2 1.99  40 2.04  20 2.07  31 2.08  28 2.08   7 2.08
  60  0.108  0.915  0.107-   1 1.98  32 2.01  47 2.08   6 2.09  29 2.09  15 2.11
  61  0.337  0.736  0.995-  21 1.92   8 1.93   5 1.97  47 2.09  50 2.16  32 2.23
  62  0.341  0.262  0.996-  23 1.91   7 1.96  20 1.96  48 2.14  33 2.14  30 2.15
  63  0.222  0.069  0.225-  17 1.94  15 1.94   6 1.96  42 2.09  30 2.15  33 2.18
[...]
   -.147E+02 -.245E+03 0.193E+01   0.158E+02 0.256E+03 -.158E+01   -.113E+01 -.107E+02 -.379E+00   0.229E-01 0.166E-01 0.336E-01
   -.969E+00 0.212E+03 0.313E+00   0.123E+01 -.225E+03 -.647E+01   -.261E+00 0.135E+02 0.617E+01   -.411E-03 0.594E-02 -.875E-02
   0.152E+02 -.234E+03 0.277E+01   -.164E+02 0.247E+03 0.333E+01   0.123E+01 -.135E+02 -.609E+01   -.186E-01 0.133E-01 -.152E-01
   -.151E+02 0.261E+03 -.745E+01   0.163E+02 -.273E+03 0.724E+01   -.127E+01 0.118E+02 0.241E+00   0.283E-01 -.967E-02 -.259E-01
   -.102E+02 -.206E+03 0.797E+01   0.164E+02 0.220E+03 -.116E+02   -.617E+01 -.134E+02 0.362E+01   0.811E-02 -.512E-03 -.102E-02
   -.572E+01 0.209E+03 -.511E+01   0.117E+02 -.222E+03 0.940E+01   -.602E+01 0.131E+02 -.427E+01   0.132E-01 -.140E-01 -.284E-01
[...]
   0.244E+02 -.250E+03 0.167E+02   -.255E+02 0.262E+03 -.177E+02   0.109E+01 -.120E+02 0.976E+00   -.212E-02 0.165E-02 0.654E-02
   0.130E+02 0.253E+03 -.888E+01   -.138E+02 -.263E+03 0.998E+01   0.736E+00 0.100E+02 -.113E+01   0.386E-01 -.532E-03 0.286E-01
   -.142E+02 -.253E+03 0.681E+01   0.155E+02 0.263E+03 -.693E+01   -.135E+01 -.100E+02 0.703E-01   0.544E-02 0.531E-03 0.477E-01
   0.231E+01 0.250E+03 0.295E+02   -.261E+01 -.262E+03 -.309E+02   0.298E+00 0.120E+02 0.144E+01   0.672E-02 -.165E-02 0.143E-02
   0.113E+02 -.272E+03 -.200E+02   -.132E+02 0.284E+03 0.212E+02   0.190E+01 -.117E+02 -.116E+01   0.149E-01 -.231E-01 0.628E-02
   -.230E+02 0.272E+03 -.248E+00   0.249E+02 -.284E+03 -.827E+00   -.195E+01 0.117E+02 0.107E+01   -.199E-02 0.231E-01 0.160E-01
   -.220E+02 -.253E+03 0.107E+02   0.225E+02 0.264E+03 -.114E+02   -.477E+00 -.108E+02 0.675E+00   0.478E-02 -.136E-02 -.281E-02
   -.154E+02 0.252E+03 -.499E+01   0.172E+02 -.263E+03 0.468E+01   -.177E+01 0.114E+02 0.298E+00   0.846E-02 0.297E-01 0.148E-01
   -.156E+01 -.209E+03 -.751E+01   0.228E+01 0.222E+03 0.149E+02   -.692E+00 -.131E+02 -.735E+01   -.312E-01 0.140E-01 -.273E-02
   0.120E+02 0.206E+03 -.485E+01   -.182E+02 -.220E+03 0.837E+01   0.622E+01 0.134E+02 -.353E+01   -.494E-02 0.513E-03 0.652E-02
   0.885E+01 -.229E+03 -.941E+01   -.153E+02 0.242E+03 0.671E+01   0.652E+01 -.128E+02 0.272E+01   -.197E-01 -.123E-01 -.785E-02
   0.940E+01 0.265E+03 0.155E+02   -.101E+02 -.276E+03 -.156E+02   0.749E+00 0.104E+02 0.464E-01   -.412E-01 -.135E-01 0.143E-02
   0.387E+00 -.213E+03 -.392E+01   -.121E+00 0.225E+03 0.991E+01   -.265E+00 -.129E+02 -.600E+01   -.165E-02 -.113E-01 0.471E-02
   -.182E+01 0.209E+03 0.113E+02   0.159E+01 -.222E+03 -.186E+02   0.255E+00 0.130E+02 0.732E+01   -.312E-01 0.970E-02 0.255E-02
   -.855E+00 -.261E-02 -.148E+01   -.504E-12 0.654E-12 -.330E-12   0.838E+00 -.863E-12 0.145E+01   0.119E-01 0.231E-05 0.206E-01

 POSITION                                       TOTAL-FORCE (eV/Angst)
      4.38565     14.21130      7.48440         0.003048      0.008702     -0.010349
      8.67704      4.81878      1.66088        -0.002181     -0.001897      0.001302
      2.88176      9.54747      3.34196        -0.010487     -0.008702     -0.002535
      4.36490      4.69941      4.15050         0.002219      0.001897     -0.001238
      1.46021      9.49621      0.81801        -0.001826     -0.000535      0.001798
      2.93547     14.23985     -0.00940        -0.005952     -0.001387     -0.001646
      2.91853      4.74898      1.63795        -0.000245     -0.000677     -0.000068
      4.36366      9.53463      0.79108        -0.002083     -0.000368     -0.001703
     10.13028     14.23790      7.48313        -0.000433      0.000368     -0.002655
      5.78915      4.75909      1.63814         0.000155     -0.000000      0.000269
      7.25256      9.55610      0.81750        -0.005488      0.002679      0.001108
      7.26074     14.23946      2.50753         0.002261      0.000506     -0.003756
      7.26136      4.75909      4.18809        -0.000415      0.000000     -0.000719
      8.66756      9.52494      3.32746        -0.005749     -0.000601      0.003913
     10.15383      0.01533      2.51734         0.006718     -0.000352      0.004716
     10.12817      4.75402      4.18926        -0.000828     -0.000737      0.001268
      4.36932     14.21644      2.48214         0.003704     -0.002679     -0.004199
      5.82884      9.53308      3.33424        -0.004383     -0.000506      0.000080
      5.83550     14.24760      4.96254         0.006263      0.000601     -0.003022
      5.82898      4.76417      6.67140         0.001512      0.000737     -0.000084
      7.25803      9.47431      5.84359         0.000360     -0.000215      0.004354
      8.69674      0.04388      5.01295         0.003590      0.000215      0.002489
      8.69590      4.75909      6.67277         0.000377     -0.000000      0.000654
     10.15114      9.53269      5.84604         0.001551      0.001387     -0.005978
     11.58277      0.02198      4.99516         0.002470      0.000535     -0.000682
     11.56369      4.76921      6.66807         0.000064      0.000677     -0.000246
      4.36822      9.50286      5.85766         0.000725      0.000352      0.008176
      4.36445      7.20649      7.44785        -0.000907      0.001239      0.002450
      8.72582     11.78731      1.69488        -0.002065     -0.001906     -0.000850
      1.52937      2.38027      0.82764         0.002018     -0.000846      0.002796
      2.88307      7.12959      0.00931        -0.002172     -0.004317      0.007133
      2.90073     11.97256      1.62692        -0.005552      0.003778      0.003436
      4.35969      2.38223      0.84893         0.000644      0.002103      0.001073
      5.82041      7.13596      0.00558         0.000607     -0.002103      0.001095
      5.80738     11.88627      1.64366        -0.001286      0.000000     -0.002228
      7.16181      2.37943      0.81033         0.001824      0.000611     -0.000566
      7.20197      7.23635      2.52861         0.001756      0.003227     -0.003517
      7.26655     11.88627      4.17101         0.001415     -0.000000      0.002451
      8.69592      2.28689      3.33533         0.004445     -0.005199     -0.000104
      1.49985      7.11093      2.53081        -0.001592     -0.003279     -0.001291
     10.12487     11.99565      4.16846         0.006737      0.003531     -0.002702
      2.83814      2.29794      3.31835         0.002575     -0.001239      0.000440
      4.38592      7.13876      2.41299        -0.001402     -0.000611      0.001297
      4.39252     11.98523      4.19672         0.000296      0.001906     -0.002213
      5.85391      2.28183      3.30691        -0.003924     -0.003227     -0.000237
      5.80558      7.23130      5.00407        -0.002312      0.005199      0.003798
      5.83518     11.77689      6.64511        -0.005708     -0.003531      0.004483
      7.21101      2.37894      5.82269        -0.002417      0.004838     -0.004909
      8.70215      7.13925      4.96178        -0.003043     -0.004838     -0.004548
      8.70799     11.88627      6.66766         0.000968     -0.000000      0.001677
     10.17098      2.38859      5.82304         0.007263      0.004317      0.001686
     11.55653      7.13792      5.05987         0.001412      0.000846      0.003146
     11.58561     11.79998      6.63411         0.005752     -0.003778     -0.003090
      4.35156      2.39350      5.89507        -0.000323      0.003279     -0.002024
     13.03232     10.51527      7.49779        -0.013883      0.009089      0.005145
      8.70553      3.67001      0.00805         0.000900      0.002035     -0.001031
      8.73711      1.12287      1.62415         0.002826     -0.003519      0.000723
      8.66326      8.56732      1.65589        -0.006539      0.000772      0.001745
      1.39940      5.94599      0.85892        -0.001664     -0.002357      0.001276
      1.42553     13.04144      0.78507        -0.006609     -0.001871     -0.003460
[...]
      5.88637      8.42887      6.64124         0.002443      0.000870      0.008493
      7.29816      5.76449      5.87071         0.000878      0.002245      0.001981
      7.29641     13.27160      5.79504         0.001131     -0.002067     -0.003485
      8.65806     10.50094      5.00889        -0.003584      0.002067     -0.000763
      8.70015      3.75370      5.06127         0.001277     -0.002245      0.001751
      8.71783      1.01608      6.66784         0.006263     -0.008280      0.009981
      8.68066      8.50211      6.68930         0.005512      0.008280      0.010415
     10.09542      5.78325      5.86298         0.001077      0.000401      0.000561
     10.11946     13.27565      5.81387        -0.001932      0.000256      0.006850
      2.89943     10.71734      4.94481         0.000308      0.001871     -0.007454
      2.95389      3.55844      4.97214         0.001937      0.002357     -0.000803
     11.64768      1.15567      6.68680         0.001939      0.010298      0.008597
     11.61262      8.53739      6.68475         0.003019      0.000393     -0.002872
      4.34592      5.86459      5.80869        -0.000391     -0.000090      0.000566
      4.38660     13.05112      5.87575         0.000647      0.002960     -0.003913
    total drift:                               -0.004816     -0.002606     -0.006560

  FREE ENERGIE OF THE ION-ELECTRON SYSTEM (eV)
  free  energy   TOTEN  =      -694.6033074438 eV

  energy  without entropy=     -694.5563715746  energy(sigma->0) =     -694.57983951

 d Force =-0.8160666E-04[-0.759E-04,-0.873E-04]  d Energy =-0.6253737E-04-0.191E-04
 d Force = 0.1977786E+00[ 0.198E+00, 0.198E+00]  d Ewald  =-0.5735972E+00 0.771E+00

 Quasi-Newton relaxation of ions (Broydens 2nd method)
  g(Force)  = 0.244E-03   g(Stress)= 0.257E-04

 retain information from N=  2 steps
 eigenvalues of (default step * inverse Hessian matrix)
  average eigenvalue of G=   0.9745
 eigenvalue spectrum of G is  0.0423  1.9067

 reached required accuracy - stopping structural energy minimisation

volume of typ            1:     4.3 %

[...]

volume of typ            4:     9.4 %

total charge

# of ion       s       p       d       tot
    1        0.295   6.193   1.916   8.404
    2        0.293   6.191   1.916   8.400
    3        0.295   6.193   1.916   8.404
    4        0.293   6.191   1.916   8.400
    5        0.233   0.279   7.882   8.394
    6        0.233   0.280   7.883   8.396
    7        0.222   0.264   7.900   8.387
    8        0.243   0.300   7.873   8.416
    9        0.243   0.300   7.873   8.416
   10        0.222   0.264   7.904   8.389
   11        0.268   0.352   7.841   8.460
   12        0.229   0.271   7.886   8.386
   13        0.221   0.262   7.900   8.383
   14        0.236   0.286   7.883   8.406
   15        0.239   0.292   7.883   8.414
   16        0.222   0.265   7.898   8.386
   17        0.268   0.352   7.841   8.460
   18        0.229   0.271   7.886   8.386
   19        0.236   0.286   7.883   8.406
   20        0.222   0.265   7.898   8.386
   21        0.273   0.363   7.835   8.471
   22        0.273   0.363   7.835   8.471
   23        0.274   0.367   7.833   8.474
   24        0.233   0.280   7.883   8.396
   25        0.233   0.279   7.882   8.394
   26        0.222   0.264   7.900   8.387
   27        0.239   0.292   7.883   8.414
   28        2.078   0.261   0.099   2.438
   29        2.083   0.273   0.106   2.462
   30        2.079   0.268   0.101   2.448
   31        2.079   0.259   0.099   2.437
   32        2.087   0.284   0.112   2.483
   33        2.074   0.244   0.091   2.409
   34        2.074   0.244   0.091   2.409
   35        2.082   0.266   0.103   2.451
   36        2.078   0.261   0.098   2.438
   37        2.078   0.261   0.100   2.438
   38        2.070   0.229   0.083   2.382
   39        2.082   0.271   0.105   2.458
   40        2.090   0.301   0.120   2.512
   41        2.082   0.269   0.102   2.453
   42        2.078   0.261   0.099   2.438
   43        2.078   0.261   0.098   2.438
   44        2.083   0.273   0.106   2.462
   45        2.078   0.261   0.100   2.438
   46        2.082   0.271   0.105   2.458
   47        2.082   0.269   0.102   2.453
   48        2.077   0.255   0.097   2.430
   49        2.077   0.255   0.097   2.430
   50        2.070   0.228   0.082   2.380
   51        2.079   0.259   0.099   2.437
   52        2.079   0.268   0.101   2.448
   53        2.087   0.284   0.112   2.483
   54        2.090   0.301   0.120   2.512
   55        1.259   2.790   0.005   4.054
   56        1.250   2.834   0.005   4.088
   57        1.251   2.831   0.005   4.087
   58        1.258   2.784   0.006   4.048
   59        1.249   2.840   0.005   4.094
   60        1.252   2.835   0.005   4.092
[...]
   94        1.255   2.795   0.005   4.055
   95        1.257   2.787   0.006   4.050
   96        1.257   2.785   0.005   4.048
   97        1.257   2.785   0.005   4.048
   98        1.257   2.787   0.006   4.050
   99        1.260   2.780   0.005   4.045
  100        1.260   2.780   0.005   4.045
  101        1.255   2.791   0.005   4.052
  102        1.257   2.788   0.005   4.050
  103        1.252   2.835   0.005   4.092
  104        1.249   2.840   0.005   4.094
  105        1.251   2.835   0.005   4.091
  106        1.256   2.790   0.005   4.051
  107        1.249   2.832   0.005   4.085
  108        1.251   2.839   0.005   4.095
tot         130.54  190.42  191.83  512.80

magnetization (x)

# of ion       s       p       d       tot
    1       -0.001  -0.001  -0.010  -0.012
    2       -0.002  -0.001  -0.004  -0.007
    3       -0.001  -0.001  -0.010  -0.012
    4       -0.002  -0.001  -0.004  -0.007
    5        0.001   0.000   1.205   1.206
    6        0.001   0.000   1.214   1.215
    7        0.002  -0.000   1.333   1.335
    8        0.001  -0.000   0.946   0.947
    9        0.001  -0.000   0.946   0.947
   10        0.002   0.000   1.360   1.362
   11       -0.002  -0.001   0.329   0.326
   12        0.001   0.000   1.298   1.300
   13        0.002   0.000   1.348   1.350
   14        0.001   0.000   1.112   1.113
   15        0.001   0.000   1.045   1.046
   16        0.002   0.000   1.314   1.316
   17       -0.002  -0.001   0.329   0.326
   18        0.001   0.000   1.298   1.300
   19        0.001   0.000   1.112   1.113
   20        0.002   0.000   1.314   1.316
   21       -0.002  -0.002   0.240   0.236
   22       -0.002  -0.002   0.240   0.236
   23       -0.002  -0.002   0.166   0.162
   24        0.001   0.000   1.214   1.215
   25        0.001   0.000   1.205   1.206
   26        0.002  -0.000   1.333   1.335
   27        0.001   0.000   1.045   1.046
   28        0.005   0.009   0.001   0.015
   29        0.005   0.009   0.001   0.015
   30        0.005   0.010   0.001   0.016
   31        0.004   0.011   0.003   0.018
   32        0.005   0.011   0.003   0.019
   33        0.005   0.010   0.001   0.016
   34        0.005   0.010   0.001   0.016
   35        0.005   0.012   0.002   0.018
   36        0.005   0.009   0.001   0.015
   37        0.004   0.009   0.002   0.014
   38        0.007   0.009   0.001   0.017
   39        0.005   0.012   0.002   0.019
   40        0.004   0.011   0.003   0.018
   41        0.006   0.011   0.001   0.019
   42        0.005   0.009   0.001   0.015
   43        0.005   0.009   0.001   0.015
   44        0.005   0.009   0.001   0.015
   45        0.004   0.009   0.002   0.014
   46        0.005   0.012   0.002   0.019
   47        0.006   0.011   0.001   0.019
   48        0.004   0.009   0.001   0.014
   49        0.004   0.009   0.001   0.014
   50        0.006   0.008   0.000   0.015
   51        0.004   0.011   0.003   0.018
   52        0.005   0.010   0.001   0.016
   53        0.005   0.011   0.003   0.019
   54        0.004   0.011   0.003   0.018
   55        0.015   0.115   0.000   0.131
   56        0.008   0.071   0.000   0.080
   57        0.009   0.075   0.000   0.084
   58        0.010   0.064   0.000   0.074
   59        0.011   0.131   0.000   0.142
   60        0.009   0.091   0.000   0.100
[...]
   94        0.015   0.182   0.000   0.198
   95        0.012   0.123   0.000   0.136
   96        0.011   0.058   0.000   0.069
   97        0.011   0.058   0.000   0.069
   98        0.012   0.123   0.000   0.136
   99        0.013   0.108   0.000   0.122
  100        0.013   0.108   0.000   0.122
  101        0.013   0.113   0.000   0.126
  102        0.009   0.046   0.000   0.055
  103        0.009   0.091   0.000   0.100
  104        0.011   0.131   0.000   0.142
  105        0.009   0.087   0.000   0.096
  106        0.010   0.064   0.000   0.074
  107        0.008   0.075   0.000   0.083
  108        0.010   0.101   0.000   0.111
tot           0.74    5.66   22.98   29.38