 vasp.5.4.4.18Apr17-6-g9f103f2a35 (build May 12 2020 05:39:39) gamma-only

 MD_VERSION_INFO: Compiled 2020-05-12T12:39:39-UTC in devlin.sd.materialsdesign.
 com:/home/medea2/data/build/wwolf/vasp-gpu5.4.4/13047/x86_64/src/src/build/gam
 from svn 13047

 executed on                        Lin64 date 2023.04.02  15:04:27

 INCAR:
 POTCAR:    PAW_PBE Ta_pv 07Sep2000
 POTCAR:    PAW_PBE Ni 02Aug2007
 POTCAR:    PAW_PBE Li_sv 10Sep2004
 POTCAR:    PAW_PBE O 08Apr2002

 POTCAR:    PAW_PBE Ta_pv 07Sep2000

 POTCAR:    PAW_PBE Ni 02Aug2007

 POTCAR:    PAW_PBE Li_sv 10Sep2004

 POTCAR:    PAW_PBE O 08Apr2002

 Optimization of the real space projectors (new method)

 maximal supplied QI-value         = 15.12
 optimisation between [QCUT,QGAM] = [ 11.34, 22.83] = [ 36.00,145.93] Ry
 Optimized for a Real-space Cutoff    1.61 Angstroem

   l    n(q)    QCUT    max X(q) W(low)/X(q) W(high)/X(q)  e(spline)
   1     11    11.338     4.092    0.40E-05    0.64E-05    0.47E-07
   1     11    11.338     4.834    0.13E-04    0.44E-04    0.21E-06
   2     10    11.338    62.294    0.15E-03    0.31E-03    0.77E-06
   2     10    11.338    50.966    0.15E-03    0.31E-03    0.77E-06
   0     11    11.338   103.792    0.33E-04    0.19E-04    0.90E-07
   0     11    11.338    56.335    0.26E-04    0.17E-04    0.79E-07
 Optimization of the real space projectors (new method)

[...]

   l    n(q)    QCUT    max X(q) W(low)/X(q) W(high)/X(q)  e(spline)
   0      7    11.276    10.506    0.54E-04    0.58E-04    0.16E-07
   0      7    11.276     8.367    0.11E-03    0.14E-03    0.35E-07
   1      7    11.276     8.983    0.23E-03    0.43E-03    0.86E-07
 Optimization of the real space projectors (new method)

 maximal supplied QI-value         = 24.76
 optimisation between [QCUT,QGAM] = [ 11.39, 22.77] = [ 36.31,145.25] Ry
 Optimized for a Real-space Cutoff    1.10 Angstroem

   l    n(q)    QCUT    max X(q) W(low)/X(q) W(high)/X(q)  e(spline)
   0      7    11.387    20.381    0.22E-03    0.48E-03    0.18E-06
   0      7    11.387    15.268    0.22E-03    0.52E-03    0.19E-06
   1      7    11.387     5.964    0.22E-03    0.73E-03    0.24E-06
   1      7    11.387     5.382    0.19E-03    0.60E-03    0.21E-06

  PAW_PBE Ta_pv 07Sep2000               :
  PAW_PBE Ni 02Aug2007                  :
  PAW_PBE Li_sv 10Sep2004               :
  PAW_PBE O 08Apr2002                   :

 POSCAR: ce409355_1
  positions in direct lattice
 exchange correlation table for  LEXCH =       14
   RHO(1)=    0.500       N(1)  =     2000
   RHO(2)=  100.500       N(2)  =     4000

 ion  position               nearest neighbor table
   1  0.999  0.999  0.002-  60 1.99  57 2.00  72 2.00  93 2.01 108 2.01 105 2.02  15 2.91  18 2.91
                            12 2.92   9 2.93  25 2.93  21 2.94  54 2.97  29 3.00  47 3.00  30 3.02
   2  0.890  0.334  0.220-  56 1.99  59 2.00  80 2.01  71 2.01  74 2.01  77 2.02  22 2.90  26 2.91
                            10 2.92  13 2.93  19 2.94  16 2.94  37 2.95  39 2.97  28 2.99  40 3.00
   3  0.110  0.670  0.108-  55 1.97  61 1.99  79 2.00  94 2.01  58 2.02  64 2.04  27 2.90  14 2.92
                            23 2.92  32 2.93  17 2.95  20 2.96  29 2.97  11 2.97  47 2.97  31 2.98
   4  0.333  1.000  0.335-  87 1.99  90 2.00  69 2.01  84 2.01  63 2.01  66 2.02  21 2.90  25 2.91
                            15 2.92  18 2.93  12 2.94   9 2.94  32 2.95  33 2.97  44 2.99  35 3.00
   5  0.223  0.335  0.554-  89 1.99  86 2.00  83 2.00  92 2.01 107 2.01 104 2.02  10 2.91  13 2.91
                            19 2.92  16 2.93  26 2.93  22 2.94  54 2.97  43 3.00  46 3.00  45 3.02
   6  0.440  0.663  0.448-  88 1.97  76 1.99  70 2.00  91 2.01  85 2.02  73 2.04  27 2.90  20 2.92
                            23 2.92  37 2.93  11 2.95  14 2.96  43 2.97  17 2.97  46 2.97  38 2.98
   7  0.667  0.999  0.670-  99 1.99 102 1.99  96 2.00  81 2.01  78 2.01  75 2.02  12 2.89  25 2.90
                             9 2.91  18 2.93  21 2.94  15 2.95  38 2.96  39 2.97  51 3.01  48 3.03
   8  0.559  0.335  0.886-  98 1.99 101 1.99  95 2.00  68 2.01  65 2.01  62 2.02  19 2.89  26 2.90
                            16 2.91  13 2.93  22 2.94  10 2.95  31 2.96  33 2.97  51 3.01  48 3.03
   9  0.334  0.999  1.000-  60 2.05  99 2.06  63 2.06  96 2.06  66 2.07  93 2.07   7 2.91  12 2.92
                            21 2.92   1 2.93  18 2.93   4 2.94
  10  0.222  0.334  0.222-  86 2.05  62 2.06  59 2.06  65 2.06  80 2.07  83 2.07   5 2.91  22 2.92
                             2 2.92  13 2.92  19 2.92   8 2.95
  11  0.448  0.666  0.108-  67 1.95 100 1.96  85 2.04  64 2.04  70 2.09  61 2.10  50 2.83  14 2.89
                            24 2.89  23 2.90   6 2.95   3 2.97  20 2.98
  12  0.667  0.999  1.000-  99 2.06  66 2.06  72 2.06 102 2.06 105 2.06  69 2.07   7 2.89  25 2.92
                             9 2.92   1 2.92  15 2.92   4 2.94
  13  0.556  0.335  0.222-  89 2.05  68 2.06  86 2.06  65 2.06  74 2.07  71 2.07   5 2.91  26 2.92
                            10 2.92   8 2.93   2 2.93  16 2.93
  14  0.777  0.667  0.109-  67 1.96 106 1.97  58 2.04  73 2.05  70 2.08  55 2.09  34 2.81  11 2.89
                            24 2.90  27 2.91   3 2.92   6 2.96  17 2.98
  15  0.667  1.000  0.334-  57 2.05  75 2.06  90 2.06  78 2.06  69 2.07  72 2.07   1 2.91  21 2.92
                             4 2.92  18 2.92  12 2.92   7 2.95
  16  0.556  0.334  0.556-  89 2.05  98 2.06  74 2.06  95 2.06  77 2.07  92 2.07   8 2.91  19 2.92
                            22 2.92   5 2.93  13 2.93   2 2.94
  17  0.778  0.667  0.448-  82 1.95  97 1.96  58 2.04  73 2.04  79 2.09  76 2.10  49 2.83  20 2.89
                            24 2.89  23 2.90   3 2.95   6 2.97  14 2.98
  18  0.999  0.999  0.334-  60 2.05  81 2.06  57 2.06  78 2.06  63 2.07  84 2.07   1 2.91  25 2.92
                            15 2.92   7 2.93   4 2.93   9 2.93
  19  0.889  0.334  0.556-  98 2.06  77 2.06  83 2.06 101 2.06 104 2.06  80 2.07   8 2.89  26 2.92
                            16 2.92   5 2.92  10 2.92   2 2.94
  20  0.108  0.667  0.447-  82 1.96 103 1.97  85 2.04  64 2.05  79 2.08  88 2.09  41 2.81  17 2.89
                            24 2.90  27 2.91   6 2.92   3 2.96  11 2.98
  21  0.334  1.000  0.666-  87 2.06  75 2.06  93 2.06  90 2.06 108 2.07  96 2.07   4 2.90  15 2.92
                             9 2.92  25 2.93   1 2.94   7 2.94
  22  0.222  0.334  0.889-  56 2.06  62 2.06  92 2.06  59 2.06 107 2.07  95 2.07   2 2.90  10 2.92
                            16 2.92  26 2.93   5 2.94   8 2.94
  23  0.447  0.667  0.778-  97 1.99 100 1.99  61 2.07  76 2.07  91 2.08  94 2.08  11 2.90  17 2.90
                            24 2.90   6 2.92   3 2.92  27 2.96
  24  0.778  0.667  0.778-  97 1.91 100 1.91 103 1.92 106 1.92  67 1.93  82 1.93  53 2.84  52 2.84
                            11 2.89  17 2.89  14 2.90  20 2.90  23 2.90  27 2.91
  25  1.000  0.999  0.667- 108 2.05  84 2.06  87 2.06 105 2.06  81 2.06 102 2.06   7 2.90   4 2.91
                            12 2.92  18 2.92  21 2.93   1 2.93
  26  0.889  0.334  0.888- 107 2.05  71 2.06  56 2.06 104 2.06  68 2.06 101 2.06   8 2.90   2 2.91
                            19 2.92  13 2.92  22 2.93   5 2.93
  27  0.110  0.667  0.778- 103 2.00 106 2.00  55 2.07  88 2.07  91 2.08  94 2.08   3 2.90   6 2.90
                            14 2.91  20 2.91  24 2.91  23 2.96
  28  0.002  0.500  0.987- 107 2.05  94 2.09  71 2.09  59 2.16 106 2.17  58 2.23   2 2.99   3 3.03

  29  0.875  0.833  0.238-  78 2.05  79 2.07  73 2.08  72 2.10  55 2.18  60 2.19   3 2.97   1 3.00

[...]

  55  0.004  0.748  0.001-   3 1.97  27 2.07  14 2.09  53 2.11  47 2.17  29 2.18
  56  0.997  0.255  0.005-   2 1.99  22 2.06  26 2.06  54 2.14  36 2.19  30 2.20
  57  0.891  0.078  0.217-   1 2.00  15 2.05  18 2.06  39 2.15  36 2.19  30 2.19
  58  0.891  0.592  0.222-   3 2.02  17 2.04  14 2.04  37 2.17  40 2.21  28 2.23
  59  0.105  0.413  0.115-   2 2.00  10 2.06  22 2.06  31 2.09  40 2.14  28 2.16
  60  0.109  0.921  0.108-   1 1.99  18 2.05   9 2.05  32 2.15  47 2.19  29 2.19
  61  0.327  0.748  0.002-   3 1.99  50 2.04  23 2.07  47 2.08  32 2.08  11 2.10
  62  0.341  0.255  0.996-   8 2.02  10 2.06  22 2.06  30 2.08  33 2.09  48 2.10
  63  0.225  0.078  0.225-   4 2.01   9 2.06  18 2.07  30 2.07  33 2.10  42 2.11
  64  0.221  0.591  0.219-   3 2.04  11 2.04  20 2.05  43 2.08  31 2.11  40 2.13
  65  0.447  0.414  0.104-   8 2.01  43 2.05  10 2.06  13 2.06  31 2.09  34 2.17
  66  0.442  0.920  0.118-   4 2.02  12 2.06   9 2.07  32 2.09  35 2.09  50 2.14
  67  0.669  0.735  0.995-  24 1.93  11 1.95  14 1.96  50 2.12  53 2.12  35 2.18
  68  0.664  0.255  0.997-   8 2.01  13 2.06  26 2.06  36 2.07  33 2.10  51 2.10
  69  0.549  0.079  0.225-   4 2.01  15 2.07  36 2.07  12 2.07  33 2.10  45 2.11
  70  0.551  0.585  0.231-   6 2.00  34 2.06  37 2.07  43 2.07  14 2.08  11 2.09
  71  0.782  0.414  0.114-   2 2.01  26 2.06  13 2.07  37 2.08  28 2.09  34 2.15
  72  0.783  0.919  0.108-   1 2.00  35 2.06  12 2.06  15 2.07  29 2.10  53 2.16
  73  0.662  0.742  0.336-   6 2.04  17 2.04  14 2.05  29 2.08  38 2.11  35 2.13
  74  0.673  0.255  0.330-   2 2.01  16 2.06  13 2.07  45 2.07  39 2.10  36 2.11
  75  0.559  0.078  0.559-   7 2.02  15 2.06  21 2.06  45 2.08  39 2.09  48 2.10
  76  0.551  0.585  0.554-   6 1.99  49 2.04  23 2.07  46 2.08  37 2.08  17 2.10
  77  0.782  0.414  0.438-   2 2.02  19 2.06  16 2.07  37 2.09  40 2.09  49 2.14
  78  0.773  0.920  0.451-   7 2.01  29 2.05  15 2.06  18 2.06  38 2.09  41 2.17
  79  0.005  0.748  0.325-   3 2.00  41 2.06  32 2.07  29 2.07  20 2.08  17 2.09
  80  0.997  0.254  0.330-   2 2.01  10 2.07  42 2.07  19 2.07  39 2.10  30 2.11
  81  0.883  0.079  0.559-   7 2.01  18 2.06  25 2.06  42 2.07  39 2.10  51 2.10
  82  0.886  0.598  0.560-  24 1.93  17 1.95  20 1.96  49 2.12  52 2.12  40 2.18
  83  0.113  0.414  0.447-   5 2.00  40 2.06  19 2.06  10 2.07  43 2.10  52 2.16
  84  0.118  0.920  0.442-   4 2.01  25 2.06  18 2.07  32 2.08  44 2.09  41 2.15
  85  0.335  0.742  0.334-   6 2.02  11 2.04  20 2.04  32 2.17  35 2.21  44 2.23
  86  0.330  0.255  0.339-   5 2.00  10 2.05  13 2.06  33 2.15  42 2.19  45 2.19
  87  0.224  0.079  0.551-   4 1.99  21 2.06  25 2.06  54 2.14  42 2.19  45 2.20
  88  0.227  0.585  0.554-   6 1.97  27 2.07  20 2.09  52 2.11  46 2.17  43 2.18
  89  0.439  0.412  0.447-   5 1.99  13 2.05  16 2.05  37 2.15  46 2.19  43 2.19
  90  0.442  0.920  0.441-   4 2.00  15 2.06  21 2.06  38 2.09  35 2.14  44 2.16
  91  0.337  0.746  0.659-   6 2.01  47 2.06  38 2.08  27 2.08  23 2.08  44 2.09
  92  0.330  0.255  0.664-   5 2.01  22 2.06  16 2.07  48 2.07  45 2.10  54 2.10
  93  0.216  0.079  0.892-   1 2.01  21 2.06   9 2.07  48 2.07  30 2.10  54 2.10
  94  0.219  0.587  0.896-   3 2.01  46 2.06  31 2.08  27 2.08  23 2.08  28 2.09
  95  0.447  0.414  0.782-   8 2.00  46 2.05  16 2.06  22 2.07  31 2.09  49 2.16
  96  0.451  0.919  0.774-   7 2.00  47 2.05   9 2.06  21 2.07  38 2.09  50 2.16
  97  0.673  0.736  0.670-  24 1.91  17 1.96  23 1.99  41 2.15  50 2.17
  98  0.665  0.255  0.671-   8 1.99  16 2.06  19 2.06  39 2.15  48 2.20  51 2.20
  99  0.558  0.078  0.884-   7 1.99   9 2.06  12 2.06  33 2.15  48 2.20  51 2.20
[...]
   -.661E+00 -.185E-04 -.114E-04   0.611E+00 -.130E-04 -.397E-05   0.435E-01 0.104E-12 -.389E-13   -.233E-03 0.757E-07 -.762E-06
   0.137E+02 -.228E+03 0.497E+01   -.204E+02 0.242E+03 -.849E+01   0.664E+01 -.143E+02 0.357E+01   -.747E-02 -.348E-01 -.213E-01
   0.918E+00 0.227E+03 0.144E+02   -.110E+01 -.242E+03 -.208E+02   0.183E+00 0.147E+02 0.643E+01   -.685E-02 0.111E-01 -.102E-01
   -.411E+01 -.230E+03 -.143E+02   0.458E+01 0.244E+03 0.204E+02   -.498E+00 -.147E+02 -.609E+01   0.312E-01 0.128E-01 -.191E-01
   0.266E+01 0.228E+03 -.137E+02   -.777E+01 -.242E+03 0.176E+02   0.516E+01 0.139E+02 -.381E+01   -.179E-02 0.234E-01 0.631E-02
   -.113E+02 -.214E+03 0.420E+01   0.174E+02 0.227E+03 -.755E+01   -.604E+01 -.135E+02 0.334E+01   -.341E-01 0.541E-01 -.226E-01
   -.148E+02 0.208E+03 -.834E+01   0.205E+02 -.223E+03 0.115E+02   -.564E+01 0.150E+02 -.317E+01   0.901E-02 -.341E-01 -.702E-02
[...]
   0.902E+01 -.206E+03 0.639E+01   -.144E+02 0.219E+03 -.947E+01   0.537E+01 -.133E+02 0.308E+01   0.224E-03 0.348E-01 -.945E-02
   0.902E+01 0.206E+03 -.639E+01   -.144E+02 -.219E+03 0.947E+01   0.537E+01 0.133E+02 -.308E+01   0.224E-03 -.348E-01 0.945E-02
   0.304E+02 -.259E+03 0.197E+02   -.319E+02 0.270E+03 -.208E+02   0.140E+01 -.118E+02 0.102E+01   0.188E-01 -.381E-01 0.679E-02
   0.266E+01 0.229E+03 0.149E+02   -.288E+01 -.244E+03 -.211E+02   0.212E+00 0.150E+02 0.620E+01   0.160E-02 0.121E-01 0.147E-02
   0.266E+01 -.229E+03 -.149E+02   -.288E+01 0.244E+03 0.211E+02   0.212E+00 -.150E+02 -.620E+01   0.160E-02 -.121E-01 -.147E-02
   0.304E+02 0.259E+03 -.197E+02   -.319E+02 -.270E+03 0.208E+02   0.140E+01 0.118E+02 -.102E+01   0.188E-01 0.381E-01 -.679E-02
   -.151E+02 -.214E+03 0.694E+01   0.208E+02 0.229E+03 -.991E+01   -.577E+01 -.149E+02 0.297E+01   0.268E-02 0.388E-01 0.133E-02
   -.151E+02 0.214E+03 -.694E+01   0.208E+02 -.229E+03 0.991E+01   -.577E+01 0.149E+02 -.297E+01   0.268E-02 -.388E-01 -.133E-02
   -.253E+02 -.253E+03 0.122E+02   0.268E+02 0.262E+03 -.126E+02   -.149E+01 -.966E+01 0.371E+00   -.368E-02 -.411E-01 0.230E-01
   0.123E+02 0.218E+03 -.519E+01   -.172E+02 -.231E+03 0.799E+01   0.489E+01 0.131E+02 -.281E+01   0.236E-03 0.792E-02 0.123E-01
   0.123E+02 -.218E+03 0.519E+01   -.172E+02 0.231E+03 -.799E+01   0.489E+01 -.131E+02 0.281E+01   0.236E-03 -.792E-02 -.123E-01
   -.253E+02 0.253E+03 -.122E+02   0.268E+02 -.262E+03 0.126E+02   -.149E+01 0.966E+01 -.371E+00   -.368E-02 0.411E-01 -.230E-01
   0.514E+01 -.209E+03 -.145E+02   -.557E+01 0.222E+03 0.203E+02   0.446E+00 -.134E+02 -.576E+01   -.128E-02 0.342E-01 0.249E-02
   0.514E+01 0.209E+03 0.145E+02   -.557E+01 -.222E+03 -.203E+02   0.446E+00 0.134E+02 0.576E+01   -.128E-02 -.342E-01 -.249E-02
   0.383E+00 -.152E-02 -.218E-02   0.482E-12 0.227E-12 0.110E-12   -.397E+00 -.950E-12 0.353E-12   0.788E-02 0.233E-06 -.742E-05

 POSITION                                       TOTAL-FORCE (eV/Angst)
      8.77411     14.48694     -0.00538        -0.005693      0.000682      0.004889
      8.78732      4.83835      1.66138        -0.012512     -0.010875      0.001274
      1.43605      9.71637      0.81981        -0.011263     -0.010099      0.063532
      4.40026     14.50191      2.53614        -0.012512      0.010875     -0.001274
      4.38705      4.85332      4.20290        -0.005693     -0.000682     -0.004889
      5.82311      9.62389      3.37771        -0.011263      0.010099     -0.063532
      8.78850     14.47944      5.06843         0.007684      0.003337      0.005652
      8.78850      4.85278      6.72178         0.007684     -0.003337     -0.005652
      7.32394     14.48331      7.58288         0.002641      0.005432      0.002546
      2.93580      4.83882      1.69295         0.000793     -0.000413      0.009466
      4.38487      9.66485      0.80533         0.000252      0.003549      0.007466
     10.23133     14.48295      7.56299         0.001010      0.005220     -0.002078
      5.86060      4.84600      1.67766         0.010677     -0.004189     -0.003726
      7.29539      9.67406      0.81650         0.005899      0.007253     -0.002151
      7.32286     14.50144      2.50458         0.000793      0.000413     -0.009466
      7.32394      4.84891      4.20733         0.002641     -0.005432     -0.002546
      8.77193      9.67541      3.39219         0.000252     -0.003549     -0.007466
     10.24766     14.49426      2.51986         0.010677      0.004189      0.003726
     10.23133      4.84927      4.22723         0.001010     -0.005220      0.002078
      2.90833      9.66620      3.38102         0.005899     -0.007253      0.002151
      5.83411     14.50030      5.06386        -0.003461      0.010509      0.017301
      5.83411      4.83192      6.72635        -0.003461     -0.010509     -0.017301
      7.35642      9.66611      5.89511         0.016836      0.000000     -0.000000
     10.24619      9.66611      5.89511        -0.011241     -0.000000      0.000000
     11.69520     14.48857      5.04883        -0.003206      0.005517      0.000881
     11.69520      4.84365      6.74139        -0.003206     -0.005517     -0.000881
      4.37933      9.66611      5.89511        -0.014886     -0.000000      0.000000
      4.33561      7.26077      7.49031        -0.018075      0.015658     -0.005853
      8.71687     12.08713      1.79306        -0.007695     -0.021562      0.003483
      1.59479      2.42038      0.84014         0.004418      0.007986      0.002959
      2.87577      7.23613      0.02155        -0.010575      0.006137      0.014543
      2.92139     12.08738      1.67517         0.006346     -0.016324      0.004637
      4.38538      2.42291      0.83637         0.004462      0.002093     -0.004629
      5.89182      7.37001      0.02937         0.010000      0.001238      0.003599
      5.91124     12.07880      1.58663        -0.009826     -0.026028     -0.011667
      7.18835      2.41388      0.83708         0.001175     -0.001487     -0.007080
      7.30845      7.25288      2.52236         0.006346      0.016324     -0.004637
      7.26283     12.10413      4.17598        -0.010575     -0.006137     -0.014543
      8.77244      2.40881      3.37663         0.004462     -0.002093      0.004629
      1.52418      7.26146      2.61089        -0.009826      0.026028      0.011667
     10.27887     11.97024      4.16815         0.010000     -0.001238     -0.003599
      2.80129      2.41784      3.37592         0.001175      0.001487      0.007080
      4.32981      7.25313      2.40446        -0.007695      0.021562     -0.003483
      4.33561     12.07145      4.29990        -0.018075     -0.015658      0.005853
      5.98185      2.41134      3.37286         0.004418     -0.007986     -0.002959
      5.92062      7.24840      5.16821         0.003591      0.026792     -0.016036
      5.92062     12.08382      6.62200         0.003591     -0.026792      0.016036
      7.19092      2.41184      5.90285         0.009614      0.000000     -0.000000
      8.75992      7.36289      4.99492         0.012989      0.018227     -0.008800
      8.75992     11.96933      6.79530         0.012989     -0.018227      0.008800
     10.36497      2.41184      5.90285        -0.003178     -0.000000      0.000000
     11.65503      7.36248      5.08210        -0.003183      0.026046      0.010395
     11.65503     11.96974      6.70812        -0.003183     -0.026046     -0.010395
      4.38195      2.41184      5.90285        -0.006941     -0.000000      0.000000
      0.04372     10.85771     -0.00277        -0.002981     -0.012819      0.026155
      8.77071      3.68630      0.03075        -0.004717      0.001610      0.003214
      8.77346      1.12800      1.65171         0.000742     -0.009473     -0.000716
      8.77917      8.56292      1.63574         0.053442     -0.050960      0.032834
      1.44213      5.97568      0.84653         0.014637     -0.035329     -0.033428
      1.42915     13.36502      0.80740         0.005656     -0.000349      0.003434
[...]
      5.86222      8.52264      6.78242         0.025225      0.052455     -0.037437
      7.35014      5.99672      5.92501         0.002352      0.009466     -0.007633
      7.35014     13.33550      5.86520         0.002352     -0.009466      0.007633
      8.84856     10.69107      5.09930        -0.047555     -0.034744     -0.015668
      8.77375      3.69060      5.09559        -0.003414      0.002715      0.005462
      8.77375      1.13308      6.71010        -0.003414     -0.002715     -0.005462
      8.84856      8.64115      6.69091        -0.047555      0.034744      0.015668
     10.20233      6.01117      5.92091        -0.002316     -0.006825      0.002570
     10.20233     13.32106      5.86931        -0.002316      0.006825     -0.002570
     11.65719     10.68035      5.06594        -0.005924      0.026757      0.060464
      2.96566      3.68855      5.03229         0.005494      0.004768     -0.001600
     11.73977      1.13513      6.77340         0.005494     -0.004768      0.001600
     11.65719      8.65187      6.72427        -0.005924     -0.026757     -0.060464
      4.38137      5.99569      5.85611         0.012770     -0.006089      0.007009
      4.38137     13.33654      5.93411         0.012770      0.006089     -0.007009
    total drift:                               -0.005846     -0.001515     -0.002189

  FREE ENERGIE OF THE ION-ELECTRON SYSTEM (eV)
  free  energy   TOTEN  =      -744.9923829357 eV

  energy  without entropy=     -744.9481482263  energy(sigma->0) =     -744.97026558

 d Force =-0.1545359E-02[-0.154E-02,-0.155E-02]  d Energy =-0.1607543E-02 0.622E-04
 d Force =-0.3338192E+01[-0.334E+01,-0.333E+01]  d Ewald  =-0.5365948E+01 0.203E+01

 Quasi-Newton relaxation of ions (Broydens 2nd method)
  g(Force)  = 0.448E-02   g(Stress)= 0.207E-03

 retain information from N=  1 steps
 eigenvalues of (default step * inverse Hessian matrix)
  average eigenvalue of G=   0.3669
 eigenvalue spectrum of G is  0.3669

volume of typ            1:     8.3 %

[...]

volume of typ            4:     9.1 %

total charge

# of ion       s       p       d       tot
    1        0.291   6.186   1.898   8.376
    2        0.292   6.186   1.899   8.377
    3        0.293   6.188   1.902   8.383
    4        0.292   6.186   1.899   8.377
    5        0.291   6.186   1.898   8.376
    6        0.293   6.188   1.902   8.383
    7        0.292   6.186   1.898   8.376
    8        0.292   6.186   1.898   8.376
    9        0.203   0.238   7.913   8.355
   10        0.204   0.242   7.943   8.389
   11        0.214   0.247   7.896   8.358
   12        0.204   0.240   7.913   8.358
   13        0.203   0.239   7.913   8.355
   14        0.221   0.262   7.892   8.376
   15        0.204   0.242   7.943   8.389
   16        0.203   0.238   7.913   8.355
   17        0.214   0.247   7.896   8.358
   18        0.203   0.239   7.913   8.355
   19        0.204   0.240   7.913   8.358
   20        0.221   0.262   7.892   8.376
   21        0.203   0.240   7.940   8.383
   22        0.203   0.240   7.940   8.383
   23        0.215   0.250   7.900   8.365
   24        0.271   0.358   7.826   8.455
   25        0.204   0.240   7.914   8.358
   26        0.204   0.240   7.914   8.358
   27        0.217   0.253   7.893   8.363
   28        2.076   0.258   0.097   2.432
   29        2.081   0.272   0.105   2.458
   30        2.077   0.261   0.100   2.438
   31        2.078   0.264   0.101   2.443
   32        2.081   0.274   0.107   2.461
   33        2.078   0.263   0.101   2.442
   34        2.076   0.252   0.096   2.423
   35        2.076   0.255   0.096   2.427
   36        2.078   0.264   0.102   2.444
   37        2.081   0.274   0.107   2.461
   38        2.078   0.264   0.101   2.443
   39        2.078   0.263   0.101   2.442
   40        2.076   0.255   0.096   2.427
   41        2.076   0.252   0.096   2.423
   42        2.078   0.264   0.102   2.444
   43        2.081   0.272   0.105   2.458
   44        2.076   0.258   0.097   2.432
   45        2.077   0.261   0.100   2.438
   46        2.082   0.276   0.108   2.465
   47        2.082   0.276   0.108   2.465
   48        2.077   0.259   0.099   2.435
   49        2.075   0.251   0.095   2.422
   50        2.075   0.251   0.095   2.422
   51        2.078   0.265   0.102   2.445
   52        2.076   0.251   0.095   2.422
   53        2.076   0.251   0.095   2.422
   54        2.079   0.267   0.103   2.449
   55        1.253   2.828   0.005   4.086
   56        1.250   2.827   0.005   4.082
   57        1.251   2.824   0.005   4.080
   58        1.250   2.825   0.005   4.080
   59        1.252   2.826   0.005   4.083
   60        1.250   2.832   0.005   4.087
[...]
   94        1.248   2.834   0.005   4.087
   95        1.248   2.834   0.005   4.088
   96        1.248   2.834   0.005   4.088
   97        1.256   2.784   0.005   4.045
   98        1.250   2.829   0.005   4.083
   99        1.250   2.829   0.005   4.083
  100        1.256   2.784   0.005   4.045
  101        1.250   2.827   0.005   4.083
  102        1.250   2.827   0.005   4.083
  103        1.254   2.794   0.005   4.053
  104        1.247   2.838   0.005   4.089
  105        1.247   2.838   0.005   4.089
  106        1.254   2.794   0.005   4.053
  107        1.249   2.832   0.005   4.086
  108        1.249   2.832   0.005   4.086
tot         129.93  214.02  168.43  512.39

magnetization (x)

# of ion       s       p       d       tot
    1       -0.001  -0.001  -0.008  -0.011
    2       -0.001  -0.001  -0.003  -0.005
    3        0.001   0.001   0.006   0.007
    4       -0.001  -0.001  -0.003  -0.005
    5       -0.001  -0.001  -0.008  -0.011
    6        0.001   0.001   0.006   0.007
    7       -0.001  -0.001  -0.016  -0.018
    8       -0.001  -0.001  -0.016  -0.018
    9        0.001  -0.000   1.496   1.497
   10       -0.001  -0.001  -0.040  -0.041
   11       -0.002  -0.001  -1.445  -1.448
   12        0.001  -0.000   1.497   1.498
   13        0.001  -0.000   1.500   1.501
   14        0.004   0.002   1.299   1.305
   15       -0.001  -0.001  -0.040  -0.041
   16        0.001  -0.000   1.496   1.497
   17       -0.002  -0.001  -1.445  -1.448
   18        0.001  -0.000   1.500   1.501
   19        0.001  -0.000   1.497   1.498
   20        0.004   0.002   1.299   1.305
   21       -0.001  -0.001   0.045   0.043
   22       -0.001  -0.001   0.045   0.043
   23       -0.001  -0.000  -1.384  -1.385
   24        0.001   0.001   0.001   0.003
   25        0.001  -0.000   1.489   1.489
   26        0.001  -0.000   1.489   1.489
   27       -0.003  -0.001  -1.426  -1.429
   28       -0.001  -0.000   0.000  -0.001
   29        0.002   0.005   0.001   0.008
   30        0.001   0.003   0.001   0.004
   31        0.002   0.005   0.001   0.008
   32       -0.000  -0.001  -0.000  -0.002
   33        0.001   0.001   0.000   0.002
   34       -0.003  -0.007  -0.002  -0.011
   35       -0.000   0.000  -0.000  -0.000
   36        0.003   0.007   0.002   0.012
   37       -0.000  -0.001  -0.000  -0.002
   38        0.002   0.005   0.001   0.008
   39        0.001   0.001   0.000   0.002
   40       -0.000   0.000  -0.000  -0.000
   41       -0.003  -0.007  -0.002  -0.011
   42        0.003   0.007   0.002   0.012
   43        0.002   0.005   0.001   0.008
   44       -0.001  -0.000   0.000  -0.001
   45        0.001   0.003   0.001   0.004
   46        0.001   0.004   0.001   0.006
   47        0.001   0.004   0.001   0.006
   48        0.001   0.005   0.001   0.007
   49        0.001   0.004   0.001   0.007
   50        0.001   0.004   0.001   0.007
   51        0.002   0.007   0.002   0.011
   52       -0.000  -0.000  -0.000  -0.001
   53       -0.000  -0.000  -0.000  -0.001
   54        0.003   0.009   0.003   0.015
   55        0.000   0.006   0.000   0.006
   56        0.009   0.114   0.000   0.124
   57        0.008   0.111   0.000   0.119
   58       -0.000  -0.004  -0.000  -0.005
   59       -0.001  -0.018  -0.000  -0.019
   60        0.009   0.118   0.000   0.128
[...]
   94       -0.008  -0.083  -0.000  -0.091
   95        0.009   0.126   0.000   0.135
   96        0.009   0.126   0.000   0.135
   97       -0.012  -0.153  -0.000  -0.165
   98        0.009   0.122   0.000   0.132
   99        0.009   0.122   0.000   0.132
  100       -0.012  -0.153  -0.000  -0.165
  101        0.009   0.117   0.000   0.126
  102        0.009   0.117   0.000   0.126
  103       -0.000  -0.004  -0.000  -0.004
  104        0.009   0.120   0.000   0.130
  105        0.009   0.120   0.000   0.130
  106       -0.000  -0.004  -0.000  -0.004
  107        0.003   0.037   0.000   0.041
  108        0.003   0.037   0.000   0.041
tot           0.18    2.19    8.85   11.22