 vasp.5.4.4.18Apr17-6-g9f103f2a35 (build May 12 2020 05:39:39) gamma-only

 MD_VERSION_INFO: Compiled 2020-05-12T12:39:39-UTC in devlin.sd.materialsdesign.
 com:/home/medea2/data/build/wwolf/vasp-gpu5.4.4/13047/x86_64/src/src/build/gam
 from svn 13047

 executed on                        Lin64 date 2023.04.02  20:17:55

 INCAR:
 POTCAR:    PAW_PBE Ta_pv 07Sep2000
 POTCAR:    PAW_PBE Ni 02Aug2007
 POTCAR:    PAW_PBE Li_sv 10Sep2004
 POTCAR:    PAW_PBE O 08Apr2002

 POTCAR:    PAW_PBE Ta_pv 07Sep2000

 POTCAR:    PAW_PBE Ni 02Aug2007

 POTCAR:    PAW_PBE Li_sv 10Sep2004

 POTCAR:    PAW_PBE O 08Apr2002

 Optimization of the real space projectors (new method)

 maximal supplied QI-value         = 15.12
 optimisation between [QCUT,QGAM] = [ 11.34, 22.83] = [ 36.00,145.93] Ry
 Optimized for a Real-space Cutoff    1.61 Angstroem

   l    n(q)    QCUT    max X(q) W(low)/X(q) W(high)/X(q)  e(spline)
   1     11    11.338     4.092    0.40E-05    0.64E-05    0.47E-07
   1     11    11.338     4.834    0.13E-04    0.44E-04    0.21E-06
   2     10    11.338    62.294    0.15E-03    0.31E-03    0.77E-06
   2     10    11.338    50.966    0.15E-03    0.31E-03    0.77E-06
   0     11    11.338   103.792    0.33E-04    0.19E-04    0.90E-07
   0     11    11.338    56.335    0.26E-04    0.17E-04    0.79E-07
 Optimization of the real space projectors (new method)

[...]

   l    n(q)    QCUT    max X(q) W(low)/X(q) W(high)/X(q)  e(spline)
   0      7    11.276    10.506    0.54E-04    0.58E-04    0.16E-07
   0      7    11.276     8.367    0.11E-03    0.14E-03    0.35E-07
   1      7    11.276     8.983    0.23E-03    0.43E-03    0.86E-07
 Optimization of the real space projectors (new method)

 maximal supplied QI-value         = 24.76
 optimisation between [QCUT,QGAM] = [ 11.39, 22.77] = [ 36.31,145.25] Ry
 Optimized for a Real-space Cutoff    1.10 Angstroem

   l    n(q)    QCUT    max X(q) W(low)/X(q) W(high)/X(q)  e(spline)
   0      7    11.387    20.381    0.22E-03    0.48E-03    0.18E-06
   0      7    11.387    15.268    0.22E-03    0.52E-03    0.19E-06
   1      7    11.387     5.964    0.22E-03    0.73E-03    0.24E-06
   1      7    11.387     5.382    0.19E-03    0.60E-03    0.21E-06

  PAW_PBE Ta_pv 07Sep2000               :
  PAW_PBE Ni 02Aug2007                  :
  PAW_PBE Li_sv 10Sep2004               :
  PAW_PBE O 08Apr2002                   :

 POSCAR: ce94855_1
  positions in direct lattice
 exchange correlation table for  LEXCH =       14
   RHO(1)=    0.500       N(1)  =     2000
   RHO(2)=  100.500       N(2)  =     4000

 ion  position               nearest neighbor table
   1  0.990  0.000  0.004-  93 2.11 108 2.12 105 2.16  72 2.16  60 2.18  57 2.18   7 2.77  16 2.84
                             9 2.92  10 2.94   4 2.95  54 3.00  36 3.03  24 3.03  53 3.05  47 3.06
   2  0.848  0.334  0.255-  74 1.94  77 1.96  80 2.01  71 2.02  56 2.19  59 2.20  19 2.60  18 2.70
                            21 2.90  39 3.01  36 3.04  40 3.07  37 3.07  17 3.10   5 3.13
   3  0.112  0.668  0.127-  58 2.09  79 2.09  61 2.09  94 2.14  55 2.14  64 2.15  11 2.70   6 2.77
                            20 2.82  29 2.96  40 2.99  13 3.01   8 3.03  32 3.04  31 3.05  28 3.10
   4  0.325  0.002  0.010-  66 2.05  96 2.06  93 2.07  99 2.11  60 2.12  63 2.14  10 2.70  22 2.83
                             1 2.95  32 2.99  33 2.99  26 3.01  24 3.01   7 3.03  48 3.04  50 3.04
   5  0.219  0.330  0.226-  59 1.96  83 1.98  65 1.99  62 2.00  86 2.06  80 2.06  21 2.86  18 2.94
                            30 2.97  33 3.04  31 3.06  42 3.08  14 3.10  12 3.12   2 3.13  25 3.26
   6  0.439  0.667  0.107-  70 2.11  85 2.12  64 2.16  61 2.16  67 2.18 100 2.18   3 2.77  11 2.84
                            13 2.92  15 2.94   8 2.95  43 3.00  31 3.03  23 3.03  32 3.05  35 3.06
   7  0.683  0.999  0.984-  99 2.09 102 2.09  72 2.09  69 2.14  66 2.14 105 2.15  16 2.70   1 2.77
                            26 2.82  50 2.96  51 2.99   9 3.01   4 3.03  53 3.04  36 3.05  33 3.10
   8  0.779  0.665  0.101-  55 2.05  73 2.06  70 2.07  58 2.11  67 2.12 106 2.14  15 2.70  27 2.83
                             6 2.95  53 2.99  28 2.99  20 3.01  23 3.01   3 3.03  37 3.04  29 3.04
   9  0.660  0.999  0.337-  90 1.95  75 1.98  78 2.03  69 2.03  57 2.14  72 2.15  24 2.86   1 2.92
                            45 2.93  22 2.98  26 3.00   7 3.01  38 3.01  35 3.04  39 3.05  36 3.10
  10  0.023  0.002  0.320-  84 2.05  63 2.07  57 2.10  78 2.12  81 2.13  60 2.13  22 2.66   4 2.70
                            42 2.89   1 2.94  32 2.94  16 3.06   9 3.10  30 3.10  26 3.11
  11  0.118  0.668  0.430-  88 2.03  85 2.05  82 2.10  79 2.12  64 2.15 103 2.15   3 2.70   6 2.84
                            20 2.87  23 2.93  43 2.97  27 2.98  32 2.99  52 3.01  40 3.03  15 3.06
  12  0.265  0.333  0.556-  92 1.97  89 1.97  86 2.07 107 2.07 104 2.17  83 2.17  25 2.47  18 2.47
                            19 2.57  45 2.97  46 2.97  17 3.12   5 3.12  21 3.18
  13  0.441  0.667  0.774-  91 1.95  76 1.98  97 2.03  94 2.03 100 2.14  61 2.15  23 2.86   6 2.92
                            46 2.93  27 2.98  20 3.00   3 3.01  38 3.01  47 3.04  49 3.05  31 3.10
  14  0.548  0.332  0.856-  95 1.94  98 1.96 101 2.01  62 2.02  65 2.19  68 2.20  19 2.60  25 2.70
                            21 2.90  49 3.01  31 3.04  51 3.07  48 3.07   5 3.10  17 3.13
  15  0.787  0.665  0.791- 103 2.05 106 2.07 100 2.10  97 2.12  82 2.13  67 2.13  27 2.66   8 2.70
                            52 2.89   6 2.94  53 2.94  11 3.06  13 3.10  34 3.10  20 3.11
  16  0.993  0.999  0.681-  87 2.03 108 2.05  81 2.10 102 2.12 105 2.15  84 2.15   7 2.70   1 2.84
                            26 2.87  24 2.93  54 2.97  22 2.98  53 2.99  42 3.01  51 3.03  10 3.06
  17  0.890  0.337  0.885-  68 1.96 104 1.98  56 1.99  71 2.00 107 2.06 101 2.06  21 2.86  25 2.94
                            34 2.97  28 3.04  36 3.06  52 3.08   2 3.10  12 3.12  14 3.13  18 3.26
  18  0.534  0.327  0.267-  74 1.91  89 2.06  86 2.16  65 2.31  68 2.42  12 2.47  19 2.67   2 2.70
                             5 2.94  17 3.26
  19  0.559  0.333  0.556-  98 2.14  77 2.14  92 2.24  89 2.24  74 2.33  95 2.33  12 2.57  14 2.60
                             2 2.60  25 2.67  18 2.67  21 2.99
  20  0.786  0.665  0.439-  73 2.03  82 2.08  58 2.09  97 2.13  79 2.18  76 2.19   3 2.82  11 2.87
                            23 2.95  13 3.00   8 3.01  15 3.11
  21  0.901  0.333  0.556- 104 2.04  83 2.04  98 2.14  77 2.14  80 2.33 101 2.33  17 2.86   5 2.86
                            14 2.90   2 2.90  19 2.99  12 3.18
  22  0.320  0.994  0.334-  84 2.00  66 2.05  87 2.08  69 2.20  90 2.28  63 2.35  10 2.66  32 2.83
                             4 2.83  24 2.98  16 2.98   9 2.98   7 3.14
  23  0.444  0.669  0.448-  73 2.06  76 2.07  91 2.07  88 2.08  85 2.09  70 2.14  13 2.86  11 2.93
                            20 2.95  27 2.98   8 3.01   6 3.03
  24  0.336  0.998  0.663-  96 2.06  75 2.07  90 2.07  87 2.08 108 2.09  93 2.14   9 2.86  16 2.93
                            26 2.95  22 2.98   4 3.01   1 3.03
  25  0.245  0.340  0.844-  95 1.91  92 2.06 107 2.16  56 2.31  59 2.42  12 2.47  19 2.67  14 2.70
                            17 2.94   5 3.26
  26  0.669  0.002  0.672-  96 2.03  81 2.08  99 2.09  78 2.13 102 2.18  75 2.19   7 2.82  16 2.87
                            24 2.95   9 3.00   4 3.01  10 3.11
  27  0.098  0.673  0.777- 103 2.00  55 2.05  88 2.08  94 2.20  91 2.28 106 2.35  15 2.66  53 2.83
                             8 2.83  23 2.98  11 2.98  13 2.98   3 3.14
  28  0.007  0.504  0.989-  71 1.94 106 1.98  94 2.09  58 2.13 107 2.24   8 2.99  17 3.04   3 3.10

  29  0.888  0.827  0.227-  79 1.96  73 2.08  60 2.11  55 2.13  72 2.19  78 2.22   3 2.96   8 3.04

  30  0.117  0.173  0.096-  63 1.96  80 1.97  93 2.12  56 2.17  62 2.17  57 2.22   5 2.97   4 3.04
                            10 3.10
  31  0.328  0.498  0.004-  95 1.93  64 2.03  65 2.13  94 2.16 100 2.20  59 2.23   6 3.03  14 3.04
                             3 3.05   5 3.06  13 3.10
  32  0.226  0.837  0.227-  79 2.07  60 2.10  85 2.10  66 2.11  84 2.11  61 2.18  22 2.83  10 2.94
                            11 2.99   4 2.99   3 3.04   6 3.05
  33  0.441  0.163  0.122-  62 1.94  63 1.98  69 2.09  99 2.13  86 2.24   4 2.99   5 3.04   7 3.10

  34  0.658  0.494  0.015- 106 1.96 101 1.97  70 2.12  65 2.17  71 2.17 100 2.22  17 2.97   8 3.04
                            15 3.10
  35  0.547  0.832  0.231-  85 2.04  72 2.05  67 2.10  90 2.12  66 2.18  73 2.20   9 3.04   6 3.06
                             8 3.09
  36  0.776  0.168  0.107-  74 1.93 105 2.03  56 2.13  69 2.16  57 2.20  68 2.23   1 3.03   2 3.04
                             7 3.05  17 3.06   9 3.10
  37  0.648  0.510  0.356-  89 2.00  76 2.02  70 2.10  58 2.18  77 2.22   8 3.04   2 3.07
  38  0.554  0.833  0.556-  91 1.96  90 1.96  97 2.26  78 2.26  73 2.28  96 2.28  13 3.01   9 3.01

[...]

  47  0.222  0.835  0.881- 108 2.04  61 2.05  60 2.10  91 2.12  55 2.18  96 2.20  13 3.04   1 3.06
                             4 3.09
  48  0.448  0.156  0.755-  92 2.00  75 2.02  93 2.10  99 2.18  98 2.22   4 3.04  14 3.07
  49  0.671  0.503  0.652-  77 2.04  76 2.06 100 2.11  82 2.12  95 2.22 101 2.25  14 3.01  13 3.05

[...]

  51  0.772  0.165  0.771-  98 1.99  99 2.09 105 2.09  81 2.13  68 2.17   7 2.99  16 3.03  14 3.07

  52  0.002  0.508  0.666- 107 1.94 106 2.02  82 2.03  88 2.07  15 2.89  11 3.01  17 3.08
  53  0.898  0.830  0.884- 102 2.07  67 2.10 108 2.10  55 2.11 103 2.11  72 2.18  27 2.83  15 2.94
                            16 2.99   8 2.99   7 3.04   1 3.05
  54  0.126  0.160  0.770-  92 1.97 105 2.02  93 2.03  87 2.12 104 2.23  16 2.97   1 3.00
  55  0.998  0.744  0.003-  27 2.05   8 2.05  53 2.11  29 2.13   3 2.14  47 2.18
  56  0.985  0.263  0.007-  17 1.99  36 2.13  30 2.17   2 2.19  25 2.31
  57  0.886  0.084  0.234-  10 2.10  39 2.11   9 2.14   1 2.18  36 2.20  30 2.22
  58  0.893  0.585  0.216-   3 2.09  40 2.09  20 2.09   8 2.11  28 2.13  37 2.18
  59  0.102  0.405  0.133-   5 1.96  40 2.17   2 2.20  31 2.23  25 2.42
  60  0.111  0.911  0.109-  32 2.10  47 2.10  29 2.11   4 2.12  10 2.13   1 2.18
  61  0.325  0.755  0.995-  47 2.05   3 2.09  13 2.15   6 2.16  32 2.18  50 2.19
  62  0.354  0.250  0.021-  33 1.94   5 2.00  14 2.02  30 2.17
  63  0.214  0.099  0.211-  30 1.96  33 1.98  42 2.02  10 2.07   4 2.14  22 2.35
  64  0.225  0.572  0.224-  43 2.02  31 2.03  40 2.09   3 2.15  11 2.15   6 2.16
  65  0.437  0.404  0.104-   5 1.99  31 2.13  34 2.17  14 2.19  18 2.31
  66  0.446  0.922  0.108-  22 2.05   4 2.05  32 2.11  50 2.13   7 2.14  35 2.18
  67  0.664  0.756  0.002-  53 2.10  35 2.10  50 2.11   8 2.12  15 2.13   6 2.18
  68  0.679  0.262  0.978-  17 1.96  51 2.17  14 2.20  36 2.23  18 2.42
  69  0.559  0.076  0.217-   9 2.03  33 2.09   7 2.14  45 2.15  36 2.16  22 2.20
  70  0.555  0.587  0.220-  43 2.03   8 2.07  37 2.10   6 2.11  34 2.12  23 2.14
  71  0.820  0.416  0.090-  28 1.94  17 2.00   2 2.02  34 2.17
  72  0.765  0.912  0.116-  35 2.05   7 2.09   9 2.15   1 2.16  53 2.18  29 2.19
  73  0.677  0.739  0.325-  20 2.03   8 2.06  23 2.06  29 2.08  35 2.20  38 2.28
[...]
   0.851E+01 -.180E+02 -.140E+02   -.754E+01 0.182E+02 0.134E+02   -.105E+01 -.202E+00 0.591E+00   -.226E-02 0.525E-02 0.315E-03
   -.245E+02 -.193E+03 -.856E+01   0.276E+02 0.208E+03 0.559E+01   -.308E+01 -.153E+02 0.299E+01   -.525E-02 0.287E-03 0.363E-02
   -.952E+02 0.160E+03 0.285E+02   0.107E+03 -.172E+03 -.302E+02   -.115E+02 0.115E+02 0.162E+01   0.150E-02 0.274E-02 0.149E-02
   0.155E+01 -.209E+03 0.127E+02   -.188E+01 0.228E+03 -.120E+02   0.233E+00 -.188E+02 -.722E+00   0.531E-02 0.846E-02 0.518E-02
   0.605E+01 0.235E+03 -.207E+00   -.727E+01 -.251E+03 0.456E+01   0.122E+01 0.158E+02 -.435E+01   -.267E-02 -.677E-02 0.700E-02
   0.371E+02 -.174E+03 0.950E+02   -.419E+02 0.185E+03 -.105E+03   0.481E+01 -.118E+02 0.100E+02   -.698E-03 -.515E-02 0.782E-02
   0.242E+02 0.192E+03 0.106E+02   -.260E+02 -.211E+03 -.113E+02   0.177E+01 0.185E+02 0.740E+00   0.111E-02 0.299E-02 0.452E-02
[...]
   0.961E+01 -.232E+03 -.154E+02   -.117E+02 0.250E+03 0.120E+02   0.206E+01 -.177E+02 0.346E+01   0.497E-02 -.397E-02 -.309E-02
   -.369E+01 0.208E+03 0.126E+02   0.346E+01 -.220E+03 -.174E+02   0.201E+00 0.119E+02 0.478E+01   0.169E-01 -.123E-02 0.422E-02
   -.816E+01 -.207E+03 0.209E+02   0.108E+02 0.220E+03 -.258E+02   -.269E+01 -.132E+02 0.502E+01   0.463E-02 -.476E-02 -.479E-02
   -.425E+02 0.242E+03 0.505E+01   0.453E+02 -.257E+03 -.108E+02   -.275E+01 0.145E+02 0.583E+01   0.219E-01 0.161E-01 -.128E-01
   0.605E+01 -.235E+03 0.207E+00   -.727E+01 0.251E+03 -.456E+01   0.122E+01 -.158E+02 0.435E+01   -.267E-02 0.677E-02 -.700E-02
   0.155E+01 0.209E+03 -.127E+02   -.188E+01 -.228E+03 0.120E+02   0.233E+00 0.188E+02 0.722E+00   0.531E-02 -.846E-02 -.518E-02
   -.116E+02 -.197E+03 0.166E+02   0.130E+02 0.212E+03 -.217E+02   -.143E+01 -.152E+02 0.526E+01   0.191E-02 -.123E-01 -.235E-01
   0.260E+02 0.206E+03 0.192E+02   -.308E+02 -.221E+03 -.228E+02   0.478E+01 0.153E+02 0.369E+01   -.955E-02 -.302E-03 -.570E-02
   0.570E+01 -.210E+03 0.364E+02   -.286E+01 0.226E+03 -.390E+02   -.284E+01 -.169E+02 0.267E+01   -.104E-01 -.439E-03 0.452E-02
   0.173E+02 0.226E+03 0.780E+01   -.188E+02 -.243E+03 -.131E+02   0.150E+01 0.162E+02 0.528E+01   -.259E-01 0.183E-01 -.151E-01
   0.271E+01 -.234E+03 -.194E+01   -.284E+01 0.253E+03 0.151E+01   0.122E+00 -.187E+02 0.406E+00   -.105E-02 0.143E-01 0.106E-03
   -.339E+02 0.210E+03 0.693E+01   0.390E+02 -.225E+03 -.918E+01   -.524E+01 0.155E+02 0.229E+01   -.369E-02 -.797E-02 -.202E-02
   0.296E+01 -.212E+03 -.533E+02   -.610E+00 0.227E+03 0.555E+02   -.233E+01 -.151E+02 -.219E+01   -.704E-02 -.358E-02 -.220E-02
   -.190E+02 0.203E+03 0.741E+01   0.243E+02 -.218E+03 -.108E+02   -.528E+01 0.153E+02 0.339E+01   -.619E-02 -.772E-02 0.893E-02
   0.206E+02 -.333E-02 -.722E-03   0.391E-13 -.625E-12 0.576E-12   -.206E+02 0.221E-09 0.161E-08   0.258E-01 0.309E-05 0.737E-05

 POSITION                                       TOTAL-FORCE (eV/Angst)
      8.66704     -0.01019     -0.03737         0.046602     -0.060395     -0.146096
      8.51274      5.01288      1.95095         0.052768     -0.029692      0.010151
      1.54063     10.10419      1.03250        -0.020568      0.040292      0.061929
      2.91807      0.03511      0.08910         0.028186     -0.037769     -0.019153
      2.90585      5.02694      1.78743        -0.069432      0.027041      0.008879
      4.29581     10.09658      0.94387         0.046602      0.060395      0.146096
     10.28310     15.14010      7.68997        -0.020568     -0.040292     -0.061929
      7.28931     10.05128      0.81740         0.028186      0.037769      0.019153
      7.19707     15.12998      2.73396        -0.107226     -0.007690      0.203018
      1.62869      0.03822      2.50575         0.046839     -0.056658      0.029475
      2.90719     10.11322      3.36598        -0.021446      0.056667     -0.002189
      4.69894      5.06019      4.32699        -0.022392      0.000000      0.000000
      7.19707     10.11432      5.98852        -0.107226      0.007690     -0.203018
      8.51274      5.10750      6.70302         0.052768      0.029692     -0.010151
     10.37116     10.08216      6.14823         0.046839      0.056658     -0.029475
     11.64966     15.13107      5.35650        -0.021446     -0.056667      0.002189
     11.64832      5.09344      6.86654        -0.069432     -0.027041     -0.008879
      6.03209      4.90927      2.37281         0.294376      0.142824      0.167181
      7.41049      5.06019      4.32699         0.245146     -0.000000     -0.000000
      8.78380     10.08012      3.45124         0.015588     -0.034711     -0.021270
     10.31595      5.06019      4.32699         0.034858     -0.000000     -0.000000
      4.25503     14.96883      2.64497         0.029035     -0.069119      0.010394
      5.82813     10.14161      3.50414        -0.051605      0.012341     -0.018934
      5.82813     15.10268      5.21834        -0.051605     -0.012341      0.018934
      6.03209      5.21110      6.28117         0.294376     -0.142824     -0.167181
      8.78380      0.04026      5.20274         0.015588      0.034711      0.021270
      4.25503     10.27546      6.07750         0.029035      0.069119     -0.010394
      4.36822      7.62786      7.69399        -0.028635     -0.044072      0.023442
      8.75395     12.53278      1.81226         0.008100      0.018845      0.007645
      1.42648      2.69022      0.70825         0.003431      0.048876     -0.082805
      2.86360      7.51493      0.15666        -0.043704      0.013557      0.088020
      2.97028     12.66801      1.81624        -0.002882      0.010743      0.015866
      4.36822      2.49252      0.95998        -0.028635      0.044072     -0.023442
      5.79772      7.39617      0.19825         0.003431     -0.048876      0.082805
      5.81801     12.56042      1.82769         0.034480     -0.018322     -0.021687
      7.23484      2.57146      0.74983        -0.043704     -0.013557     -0.088020
      7.19531      7.69505      2.80722        -0.031033     -0.030693      0.008065
      7.32087     12.62215      4.36124         0.054319     -0.000000     -0.000000
      8.73217      2.54997      3.50844         0.027680      0.024947     -0.033655
     10.11558      7.56065      2.65793        -0.021971     -0.000069      0.024773
     10.16007     12.62215      4.36124         0.022486     -0.000000     -0.000000
      2.94412      2.42669      3.42623         0.024796      0.008321     -0.038379
      4.45027      7.66228      2.68596        -0.071666      0.045199     -0.017359
      4.51144     12.62215      4.36124        -0.021641      0.000000      0.000000
      5.79448      2.44697      3.45827        -0.015521      0.045485      0.010996
      5.79448      7.67340      5.19571        -0.015521     -0.045485     -0.010996
      5.81801     12.68387      6.89478         0.034480      0.018322      0.021687
      7.19531      2.42532      5.84676        -0.031033      0.030693     -0.008065
      8.73217      7.57040      5.14554         0.027680     -0.024947      0.033655
      8.75395     12.71151      6.91021         0.008100     -0.018845     -0.007645
     10.11558      2.55972      5.99605        -0.021971      0.000069     -0.024773
      2.94412      7.69369      5.22775         0.024796     -0.008321      0.038379
     11.71275     12.57628      6.90623        -0.002882     -0.010743     -0.015866
      4.45027      2.45810      5.96801        -0.071666     -0.045199      0.017359
      8.74615     11.29169      0.07164         0.013986     -0.004106      0.013772
      8.58276      3.96925      0.09148        -0.033702     -0.006936     -0.025130
      8.73709      1.14962      1.77136        -0.094338     -0.209474     -0.058829
      8.75457      8.85051      1.73858        -0.002208     -0.051825      0.010722
      1.42419      6.13098      1.17248        -0.064701      0.064119      0.017805
      1.46335     13.81860      0.93516         0.022692      0.035898      0.020969
[...]
      5.81602      9.01965      6.96864         0.020678      0.064494      0.014388
      7.30901      6.61112      6.29289         0.005960      0.091647      0.055149
      7.32110     14.09010      6.17396        -0.014168      0.026586     -0.011259
      8.78193     11.19352      5.30650        -0.006559     -0.012381      0.059772
      8.74525      3.86417      5.17040         0.074271     -0.026081      0.032580
      8.75457      1.26987      6.91540        -0.002208      0.051825     -0.010722
      8.73709      8.97075      6.88262        -0.094338      0.209474      0.058829
     10.09332      6.30808      6.30594        -0.009156      0.063627      0.059496
     10.21330     13.80232      6.09441         0.006272     -0.062008      0.000084
     11.61626     11.35563      5.15989        -0.013298      0.017259      0.013637
      3.05814      3.99693      5.20014        -0.007461      0.012836      0.001119
     11.68925      1.45564      6.86729        -0.006718      0.057513     -0.021716
     11.47475      8.61297      7.07425        -0.051426     -0.024863      0.031857
      4.22019      6.32954      5.91186         0.007812     -0.110315      0.034129
      4.37982     13.87280      6.12298        -0.033010     -0.078137      0.013955
    total drift:                               -0.012487     -0.003324     -0.000714

  FREE ENERGIE OF THE ION-ELECTRON SYSTEM (eV)
  free  energy   TOTEN  =      -832.6996378599 eV

  energy  without entropy=     -832.6664326036  energy(sigma->0) =     -832.68303523

 d Force = 0.1481816E-01[ 0.143E-01, 0.153E-01]  d Energy = 0.1423106E-01 0.587E-03
 d Force =-0.4461077E+01[-0.448E+01,-0.444E+01]  d Ewald  = 0.3827428E+01-0.829E+01

 Quasi-Newton relaxation of ions (Broydens 2nd method)
  g(Force)  = 0.604E-01   g(Stress)= 0.396E-02

 retain information from N=  1 steps
 eigenvalues of (default step * inverse Hessian matrix)
  average eigenvalue of G=   0.4296
 eigenvalue spectrum of G is  0.4296

volume of typ            1:    16.7 %

[...]

volume of typ            4:     8.6 %

total charge

# of ion       s       p       d       tot
    1        0.221   6.069   2.242   8.532
    2        0.273   6.149   2.005   8.427
    3        0.229   6.083   2.218   8.529
    4        0.249   6.110   2.077   8.437
    5        0.287   6.181   1.950   8.418
    6        0.221   6.069   2.242   8.532
    7        0.229   6.083   2.218   8.529
    8        0.249   6.110   2.077   8.437
    9        0.281   6.162   1.981   8.425
   10        0.248   6.107   2.109   8.464
   11        0.237   6.096   2.166   8.498
   12        0.275   6.144   2.075   8.494
   13        0.281   6.162   1.981   8.425
   14        0.273   6.149   2.005   8.427
   15        0.248   6.107   2.109   8.464
   16        0.237   6.096   2.166   8.498
   17        0.287   6.181   1.950   8.418
   18        0.244   0.231   8.153   8.628
   19        0.230   0.235   8.060   8.525
   20        0.191   0.209   7.995   8.394
   21        0.184   0.190   8.070   8.443
   22        0.209   0.210   8.042   8.462
   23        0.195   0.220   7.953   8.368
   24        0.195   0.220   7.953   8.368
   25        0.244   0.231   8.153   8.628
   26        0.191   0.209   7.995   8.394
   27        0.209   0.210   8.042   8.462
   28        2.071   0.248   0.094   2.413
   29        2.077   0.263   0.103   2.443
   30        2.084   0.282   0.110   2.476
   31        2.094   0.310   0.126   2.530
   32        2.080   0.271   0.107   2.458
   33        2.071   0.248   0.094   2.413
   34        2.084   0.282   0.110   2.476
   35        2.075   0.256   0.102   2.433
   36        2.094   0.310   0.126   2.530
   37        2.071   0.241   0.091   2.403
   38        2.072   0.243   0.091   2.406
   39        2.070   0.241   0.091   2.403
   40        2.073   0.250   0.098   2.422
   41        2.072   0.249   0.097   2.418
   42        2.076   0.260   0.099   2.436
   43        2.088   0.288   0.116   2.492
   44        2.064   0.223   0.086   2.372
   45        2.074   0.255   0.097   2.426
   46        2.074   0.255   0.097   2.426
   47        2.075   0.256   0.102   2.433
   48        2.071   0.241   0.091   2.403
   49        2.070   0.241   0.091   2.403
   50        2.076   0.263   0.103   2.443
   51        2.073   0.250   0.098   2.422
   52        2.076   0.260   0.099   2.436
   53        2.080   0.271   0.107   2.458
   54        2.088   0.288   0.116   2.492
   55        1.243   2.838   0.006   4.087
   56        1.250   2.851   0.005   4.106
   57        1.248   2.848   0.006   4.101
   58        1.245   2.830   0.005   4.081
   59        1.251   2.849   0.005   4.104
   60        1.244   2.837   0.007   4.088
[...]
   94        1.247   2.840   0.005   4.092
   95        1.249   2.842   0.007   4.098
   96        1.244   2.822   0.005   4.071
   97        1.246   2.844   0.005   4.095
   98        1.248   2.825   0.006   4.079
   99        1.245   2.830   0.005   4.081
  100        1.248   2.848   0.006   4.101
  101        1.251   2.852   0.005   4.108
  102        1.247   2.837   0.006   4.090
  103        1.245   2.840   0.006   4.091
  104        1.248   2.846   0.006   4.100
  105        1.243   2.836   0.007   4.087
  106        1.250   2.840   0.006   4.095
  107        1.248   2.848   0.005   4.102
  108        1.245   2.840   0.006   4.091
tot         129.84  266.61  119.03  515.48

magnetization (x)

# of ion       s       p       d       tot
    1        0.000   0.000  -0.008  -0.007
    2       -0.001  -0.001  -0.025  -0.026
    3       -0.000   0.000  -0.016  -0.016
    4       -0.000  -0.002  -0.098  -0.100
    5        0.000   0.000   0.008   0.008
    6        0.000   0.000  -0.008  -0.007
    7       -0.000   0.000  -0.016  -0.016
    8       -0.000  -0.002  -0.098  -0.100
    9        0.000   0.000  -0.005  -0.004
   10       -0.002  -0.003  -0.118  -0.123
   11       -0.000   0.000  -0.013  -0.014
   12       -0.000  -0.001  -0.010  -0.011
   13        0.000   0.000  -0.005  -0.004
   14       -0.001  -0.001  -0.025  -0.026
   15       -0.002  -0.003  -0.118  -0.123
   16       -0.000   0.000  -0.013  -0.014
   17        0.000   0.000   0.008   0.008
   18       -0.000  -0.001   0.063   0.062
   19        0.000   0.002   0.794   0.796
   20       -0.008  -0.001  -1.252  -1.261
   21       -0.001  -0.002  -0.951  -0.954
   22        0.001   0.001   0.900   0.902
   23       -0.003  -0.001  -1.387  -1.391
   24       -0.003  -0.001  -1.387  -1.391
   25       -0.000  -0.001   0.063   0.062
   26       -0.008  -0.001  -1.252  -1.261
   27        0.001   0.001   0.900   0.902
   28       -0.001  -0.002  -0.001  -0.003
   29       -0.001  -0.002  -0.001  -0.003
   30       -0.001  -0.002  -0.001  -0.004
   31       -0.000   0.001   0.000   0.001
   32       -0.002  -0.004  -0.001  -0.007
   33       -0.001  -0.002  -0.001  -0.003
   34       -0.001  -0.002  -0.001  -0.004
   35       -0.001  -0.003  -0.001  -0.005
   36       -0.000   0.001   0.000   0.001
   37       -0.000  -0.000  -0.000  -0.001
   38        0.000   0.001   0.000   0.002
   39       -0.001  -0.002  -0.000  -0.003
   40        0.001   0.003   0.001   0.004
   41        0.001   0.005   0.001   0.008
   42       -0.002  -0.003  -0.001  -0.006
   43        0.001   0.002   0.000   0.003
   44        0.000   0.000   0.000   0.000
   45       -0.000  -0.001  -0.000  -0.002
   46       -0.000  -0.001  -0.000  -0.002
   47       -0.001  -0.003  -0.001  -0.005
   48       -0.000  -0.000  -0.000  -0.001
   49       -0.001  -0.002  -0.000  -0.003
   50       -0.001  -0.002  -0.001  -0.003
   51        0.001   0.003   0.001   0.004
   52       -0.002  -0.003  -0.001  -0.006
   53       -0.002  -0.004  -0.001  -0.007
   54        0.001   0.002   0.000   0.003
   55        0.003   0.026   0.000   0.029
   56       -0.000  -0.001  -0.000  -0.001
   57       -0.000   0.001  -0.000   0.000
   58       -0.004  -0.059  -0.000  -0.063
   59        0.000   0.002  -0.000   0.002
   60       -0.000  -0.007  -0.000  -0.007
[...]
   94        0.004   0.024   0.000   0.028
   95       -0.000  -0.002  -0.000  -0.002
   96       -0.008  -0.110  -0.000  -0.118
   97       -0.004  -0.053  -0.000  -0.058
   98        0.000   0.018  -0.000   0.018
   99       -0.004  -0.059  -0.000  -0.063
  100       -0.000   0.001  -0.000   0.000
  101        0.000  -0.003   0.000  -0.003
  102       -0.003  -0.034  -0.000  -0.037
  103        0.004   0.037   0.000   0.041
  104       -0.003  -0.029  -0.000  -0.033
  105       -0.000  -0.001  -0.000  -0.002
  106       -0.001  -0.024  -0.000  -0.025
  107       -0.000  -0.000  -0.000  -0.000
  108       -0.004  -0.049  -0.000  -0.053
tot          -0.10   -0.92   -4.08   -5.10