 vasp.5.4.4.18Apr17-6-g9f103f2a35 (build May 12 2020 05:39:39) gamma-only

 MD_VERSION_INFO: Compiled 2020-05-12T12:39:39-UTC in devlin.sd.materialsdesign.
 com:/home/medea2/data/build/wwolf/vasp-gpu5.4.4/13047/x86_64/src/src/build/gam
 from svn 13047

 executed on                        Lin64 date 2023.04.02  20:37:09

 INCAR:
 POTCAR:    PAW_PBE Ta_pv 07Sep2000
 POTCAR:    PAW_PBE Ni 02Aug2007
 POTCAR:    PAW_PBE Li_sv 10Sep2004
 POTCAR:    PAW_PBE O 08Apr2002

 POTCAR:    PAW_PBE Ta_pv 07Sep2000

 POTCAR:    PAW_PBE Ni 02Aug2007

 POTCAR:    PAW_PBE Li_sv 10Sep2004

 POTCAR:    PAW_PBE O 08Apr2002

 Optimization of the real space projectors (new method)

 maximal supplied QI-value         = 15.12
 optimisation between [QCUT,QGAM] = [ 11.34, 22.83] = [ 36.00,145.93] Ry
 Optimized for a Real-space Cutoff    1.61 Angstroem

   l    n(q)    QCUT    max X(q) W(low)/X(q) W(high)/X(q)  e(spline)
   1     11    11.338     4.092    0.40E-05    0.64E-05    0.47E-07
   1     11    11.338     4.834    0.13E-04    0.44E-04    0.21E-06
   2     10    11.338    62.294    0.15E-03    0.31E-03    0.77E-06
   2     10    11.338    50.966    0.15E-03    0.31E-03    0.77E-06
   0     11    11.338   103.792    0.33E-04    0.19E-04    0.90E-07
   0     11    11.338    56.335    0.26E-04    0.17E-04    0.79E-07
 Optimization of the real space projectors (new method)

[...]

   l    n(q)    QCUT    max X(q) W(low)/X(q) W(high)/X(q)  e(spline)
   0      7    11.276    10.506    0.54E-04    0.58E-04    0.16E-07
   0      7    11.276     8.367    0.11E-03    0.14E-03    0.35E-07
   1      7    11.276     8.983    0.23E-03    0.43E-03    0.86E-07
 Optimization of the real space projectors (new method)

 maximal supplied QI-value         = 24.76
 optimisation between [QCUT,QGAM] = [ 11.39, 22.77] = [ 36.31,145.25] Ry
 Optimized for a Real-space Cutoff    1.10 Angstroem

   l    n(q)    QCUT    max X(q) W(low)/X(q) W(high)/X(q)  e(spline)
   0      7    11.387    20.381    0.22E-03    0.48E-03    0.18E-06
   0      7    11.387    15.268    0.22E-03    0.52E-03    0.19E-06
   1      7    11.387     5.964    0.22E-03    0.73E-03    0.24E-06
   1      7    11.387     5.382    0.19E-03    0.60E-03    0.21E-06

  PAW_PBE Ta_pv 07Sep2000               :
  PAW_PBE Ni 02Aug2007                  :
  PAW_PBE Li_sv 10Sep2004               :
  PAW_PBE O 08Apr2002                   :

 POSCAR: ce213062_1
  positions in direct lattice
 exchange correlation table for  LEXCH =       14
   RHO(1)=    0.500       N(1)  =     2000
   RHO(2)=  100.500       N(2)  =     4000

 ion  position               nearest neighbor table
   1  0.003  0.000  0.965- 105 1.93 108 1.94  72 2.03  93 2.03  60 2.18  57 2.20  26 2.62  22 2.83
                            54 2.90  53 2.98  16 2.99  47 3.08   7 3.13   4 3.14  19 3.33
   2  0.889  0.333  0.188-  56 1.95  71 1.97  59 2.03  74 2.04  77 2.19  80 2.23  23 2.65  27 2.66
                            17 2.73  28 2.90  36 2.93  20 3.00  30 3.04  37 3.08   5 3.10   8 3.11
   3  0.110  0.666  0.110-  58 1.96  94 1.98  64 1.98  55 2.01  61 2.04  79 2.07  18 2.91  32 3.04
                            29 3.04  24 3.07  31 3.08  40 3.10  21 3.13   9 3.14   6 3.14  15 3.14
   4  0.337  1.000  0.002-  66 1.96  60 1.99  96 2.01  99 2.03  63 2.04  93 2.05  16 2.81  19 2.95
                            48 3.06  47 3.07  33 3.08  30 3.08  10 3.11   1 3.14  13 3.14  22 3.17
   5  0.218  0.333  0.226-  80 1.98  62 1.99  86 1.99  65 2.02  59 2.03  83 2.09  20 2.79  23 2.97
                            40 3.04  30 3.05  43 3.05  17 3.08   2 3.10  31 3.10  14 3.12  11 3.13
   6  0.479  0.665  0.076- 100 1.93  67 1.95  61 2.04  70 2.05  85 2.19  64 2.20  25 2.64  24 2.73
                            18 2.85  50 2.95  34 2.97  35 3.06  12 3.14   3 3.14
   7  0.666  0.000  0.330-  69 1.98  75 1.99  57 1.99  78 2.02  90 2.03  72 2.09  16 2.79  22 2.97
                            35 3.04  45 3.05  29 3.05  19 3.08  10 3.10  38 3.10  13 3.12   1 3.13
   8  0.561  0.334  0.554-  77 1.96  89 1.99  95 2.01  98 2.03  74 2.04  92 2.05  20 2.81  17 2.95
                            48 3.06  46 3.07  39 3.08  45 3.08   2 3.11  11 3.14  14 3.14  23 3.17
   9  0.778  0.668  0.479-  97 1.93  82 1.95  76 2.04  79 2.05  58 2.19  73 2.20  25 2.64  24 2.73
                            21 2.85  49 2.95  41 2.97  40 3.06   3 3.14  12 3.14
  10  0.300  1.000  0.367-  87 1.95  84 1.97  90 2.03  63 2.04  66 2.19  69 2.23  22 2.65  26 2.66
                            19 2.73  44 2.90  42 2.93  16 3.00  45 3.04  32 3.08   7 3.10   4 3.11
  11  0.190  0.333  0.590- 104 1.93 107 1.94  83 2.03  92 2.03  89 2.18  86 2.20  27 2.62  23 2.83
                            54 2.90  52 2.98  20 2.99  46 3.08   5 3.13   8 3.14  17 3.33
  12  0.442  0.667  0.445-  85 1.96  91 1.98  73 1.98  88 2.01  76 2.04  70 2.07  21 2.91  37 3.04
                            43 3.04  24 3.07  38 3.08  35 3.10  18 3.13   6 3.14   9 3.14  15 3.14
  13  0.701  0.000  0.661- 102 1.92  81 1.93  99 2.00  78 2.01  75 2.19  96 2.24  26 2.75  19 2.83
                            41 3.00  39 3.03  51 3.03  50 3.04  16 3.06   7 3.12   4 3.14
  14  0.584  0.333  0.894- 101 1.92  68 1.93  98 2.00  65 2.01  62 2.19  95 2.24  27 2.75  17 2.83
                            34 3.00  33 3.03  51 3.03  49 3.04  20 3.06   5 3.12   8 3.14
  15  0.072  0.667  0.778- 103 1.93 106 1.93  55 2.04  88 2.04  91 2.26  94 2.26  18 2.67  21 2.67
                            25 2.67  53 3.00  52 3.00  44 3.05  28 3.05   3 3.14  12 3.14
  16  0.638  0.999  0.032-  66 1.97  69 2.01  72 2.34 105 2.35 102 2.36  99 2.43   7 2.79   4 2.81
                             1 2.99  10 3.00  13 3.06
  17  0.568  0.336  0.219-  71 2.05  89 2.16  86 2.20  68 2.23  74 2.37  65 2.41   2 2.73  14 2.83
                             8 2.95  27 2.96   5 3.08  11 3.33
  18  0.792  0.671  0.092-  67 2.07 106 2.10  58 2.22  73 2.22  55 2.27  70 2.49  15 2.67   6 2.85
                            25 2.90   3 2.91  12 3.13
  19  0.009  0.997  0.336-  84 2.05  60 2.16  57 2.20  81 2.23  63 2.37  78 2.41  10 2.73  13 2.83
                             4 2.95  26 2.96   7 3.08   1 3.33
  20  0.892  0.334  0.524-  77 1.97  80 2.01  83 2.34 104 2.35 101 2.36  98 2.43   5 2.79   8 2.81
                            11 2.99   2 3.00  14 3.06
  21  0.106  0.663  0.463-  82 2.07 103 2.10  85 2.22  64 2.22  88 2.27  79 2.49  15 2.67   9 2.85
                            25 2.90  12 2.91   3 3.13
  22  0.324  0.002  0.652-  87 1.98 108 2.09  75 2.19  96 2.31  90 2.35  93 2.44  10 2.65  26 2.74
                             1 2.83   7 2.97   4 3.17
  23  0.198  0.331  0.903-  56 1.98 107 2.09  62 2.19  95 2.31  59 2.35  92 2.44   2 2.65  27 2.74
                            11 2.83   5 2.97   8 3.17
  24  0.464  0.667  0.778-  97 2.03 100 2.03  91 2.29  94 2.29  61 2.38  76 2.38  25 2.73   6 2.73
                             9 2.73   3 3.07  12 3.07
  25  0.772  0.667  0.778-  67 2.19  82 2.19  97 2.21 100 2.21 103 2.24 106 2.24   6 2.64   9 2.64
                            15 2.67  24 2.73  18 2.90  21 2.90
  26  0.006  0.999  0.670- 108 2.11  87 2.17 102 2.19 105 2.20  84 2.23  81 2.30   1 2.62  10 2.66
                            22 2.74  13 2.75  19 2.96
  27  0.899  0.335  0.885- 107 2.11  56 2.17 101 2.19 104 2.20  71 2.23  68 2.30  11 2.62   2 2.66
                            23 2.74  14 2.75  17 2.96
  28  0.004  0.495  0.982- 107 1.97 106 2.00  71 2.08  94 2.14   2 2.90  15 3.05
  29  0.889  0.833  0.223-  79 1.88  72 1.92  73 2.27  60 2.28   3 3.04   7 3.05
  30  0.106  0.166  0.115-  93 1.95  56 2.04  80 2.05  57 2.23  62 2.28   2 3.04   5 3.05   4 3.08

  31  0.335  0.498  0.984-  65 1.96 100 2.01  95 2.16  94 2.18  64 2.28   3 3.08   5 3.10
  32  0.207  0.830  0.239-  84 1.97  61 1.98  79 2.16  66 2.22  85 2.25   3 3.04  10 3.08
  33  0.457  0.166  0.112-  63 1.92  68 1.94  69 2.15  62 2.21  14 3.03   4 3.08
  34  0.690  0.501  0.998- 106 1.95  71 1.97 101 2.12 100 2.24  70 2.28   6 2.97  14 3.00
  35  0.567  0.833  0.208-  90 1.94  67 1.99  85 2.18  72 2.24  66 2.25   7 3.04   6 3.06  12 3.10

[...]

  55  0.045  0.747  0.973-  47 1.96   3 2.01  15 2.04  18 2.27
  56  0.002  0.246  0.004-   2 1.95  23 1.98  30 2.04  36 2.11  54 2.13  27 2.17
  57  0.885  0.070  0.213-   7 1.99   1 2.20  19 2.20  30 2.23
  58  0.896  0.595  0.234-   3 1.96  40 2.18   9 2.19  18 2.22  37 2.25
  59  0.083  0.416  0.157-  40 1.94   5 2.03   2 2.03  23 2.35
  60  0.120  0.928  0.093-   4 1.99  19 2.16   1 2.18  47 2.22  29 2.28
  61  0.317  0.748  0.041-  32 1.98   3 2.04   6 2.04  24 2.38
  62  0.338  0.261  0.012-   5 1.99  14 2.19  23 2.19  33 2.21  30 2.28
  63  0.267  0.083  0.205-  33 1.92  10 2.04   4 2.04  19 2.37
  64  0.229  0.595  0.209-   3 1.98   6 2.20  21 2.22  43 2.27  31 2.28
  65  0.425  0.413  0.087-  31 1.96  14 2.01   5 2.02  17 2.41
  66  0.425  0.927  0.123-   4 1.96  16 1.97  10 2.19  32 2.22  35 2.25
  67  0.664  0.753  0.005-   6 1.95  35 1.99  53 2.02  18 2.07  50 2.12  25 2.19
  68  0.659  0.243  0.997-  14 1.93  33 1.94  36 1.95  51 2.08  17 2.23  27 2.30
  69  0.547  0.078  0.242-   7 1.98  16 2.01  45 2.05  33 2.15  10 2.23  36 2.25
  70  0.518  0.583  0.237-  43 1.88   6 2.05  12 2.07  37 2.16  34 2.28  18 2.49
  71  0.774  0.422  0.117-   2 1.97  34 1.97  37 1.97  17 2.05  28 2.08  27 2.23
  72  0.806  0.917  0.118-  29 1.92   1 2.03   7 2.09  53 2.22  35 2.24  16 2.34
  73  0.660  0.738  0.347-  12 1.98   9 2.20  18 2.22  29 2.27  38 2.28
  74  0.694  0.250  0.350-  39 1.92   2 2.04   8 2.04  17 2.37
  75  0.572  0.073  0.543-   7 1.99  13 2.19  22 2.19  39 2.21  45 2.28
  76  0.580  0.585  0.515-  37 1.98  12 2.04   9 2.04  24 2.38
  77  0.770  0.407  0.433-   8 1.96  20 1.97   2 2.19  37 2.22  40 2.25
  78  0.735  0.920  0.468-  38 1.96  13 2.01   7 2.02  19 2.41
  79  0.978  0.751  0.318-  29 1.88   9 2.05   3 2.07  32 2.16  41 2.28  21 2.49
  80  0.010  0.256  0.314-   5 1.98  20 2.01  30 2.05  39 2.15   2 2.23  42 2.25
  81  0.879  0.090  0.558-  13 1.93  39 1.94  42 1.95  51 2.08  19 2.23  26 2.30
  82  0.891  0.580  0.551-   9 1.95  40 1.99  52 2.02  21 2.07  49 2.12  25 2.19
  83  0.146  0.417  0.438-  43 1.92  11 2.03   5 2.09  52 2.22  40 2.24  20 2.34
  84  0.113  0.911  0.439-  10 1.97  41 1.97  32 1.97  19 2.05  44 2.08  26 2.23
  85  0.353  0.738  0.321-  12 1.96  35 2.18   6 2.19  21 2.22  32 2.25
  86  0.321  0.263  0.342-   5 1.99  11 2.20  17 2.20  45 2.23
  87  0.228  0.087  0.551-  10 1.95  22 1.98  45 2.04  42 2.11  54 2.13  26 2.17
  88  0.240  0.586  0.583-  46 1.96  12 2.01  15 2.04  21 2.27
  89  0.436  0.406  0.462-   8 1.99  17 2.16  11 2.18  46 2.22  43 2.28
  90  0.462  0.917  0.399-  35 1.94   7 2.03  10 2.03  22 2.35
  91  0.327  0.741  0.656-  12 1.98  44 2.14  38 2.18  47 2.19  15 2.26  24 2.29
  92  0.350  0.252  0.630-  45 1.95  11 2.03   8 2.05  48 2.18  54 2.25  23 2.44
  93  0.202  0.081  0.926-  30 1.95   1 2.03   4 2.05  48 2.18  54 2.25  22 2.44
  94  0.205  0.592  0.900-   3 1.98  28 2.14  31 2.18  46 2.19  15 2.26  24 2.29
  95  0.459  0.408  0.768-   8 2.01  49 2.12  46 2.15  31 2.16  14 2.24  23 2.31
  96  0.449  0.925  0.788-   4 2.01  50 2.12  47 2.15  38 2.16  13 2.24  22 2.31
[...]
   -.182E+02 -.188E-04 0.135E-04   0.174E+02 -.105E-04 -.675E-05   0.691E+00 -.143E-10 0.185E-10   -.109E-02 -.896E-07 0.663E-07
   -.541E+02 -.227E+03 -.273E+02   0.541E+02 0.246E+03 0.268E+02   -.184E-01 -.189E+02 0.568E+00   0.210E-02 0.845E-02 0.590E-02
   0.605E+01 0.254E+03 0.271E+02   -.947E+01 -.271E+03 -.327E+02   0.340E+01 0.172E+02 0.588E+01   -.104E-02 -.294E-02 0.132E-02
   -.708E+02 -.179E+03 -.146E+02   0.808E+02 0.191E+03 0.152E+02   -.101E+02 -.121E+02 -.702E+00   -.169E-02 0.364E-02 0.334E-03
   0.726E+02 0.180E+03 0.185E+02   -.829E+02 -.193E+03 -.198E+02   0.102E+02 0.128E+02 0.145E+01   -.202E-03 -.680E-02 -.254E-02
   -.329E+02 -.236E+03 0.452E+02   0.336E+02 0.252E+03 -.504E+02   -.626E+00 -.156E+02 0.514E+01   -.618E-03 -.147E-01 0.509E-02
   0.162E+02 0.196E+03 -.615E+02   -.207E+02 -.209E+03 0.705E+02   0.456E+01 0.128E+02 -.909E+01   0.591E-03 0.134E-01 0.212E-02
[...]
   0.531E+02 -.176E+03 -.562E+02   -.590E+02 0.187E+03 0.647E+02   0.614E+01 -.103E+02 -.851E+01   0.385E-03 -.170E-01 -.293E-02
   0.531E+02 0.176E+03 0.562E+02   -.590E+02 -.187E+03 -.647E+02   0.614E+01 0.103E+02 0.851E+01   0.385E-03 0.170E-01 0.293E-02
   0.234E+02 -.241E+03 0.367E+01   -.210E+02 0.258E+03 0.286E+00   -.239E+01 -.167E+02 -.409E+01   -.140E-01 0.293E-01 -.160E-01
   -.235E+02 0.207E+03 0.900E+01   0.288E+02 -.223E+03 -.120E+02   -.525E+01 0.158E+02 0.302E+01   0.621E-02 -.959E-03 -.492E-02
   -.235E+02 -.207E+03 -.900E+01   0.288E+02 0.223E+03 0.120E+02   -.525E+01 -.158E+02 -.302E+01   0.621E-02 0.958E-03 0.492E-02
   0.234E+02 0.241E+03 -.367E+01   -.210E+02 -.258E+03 -.286E+00   -.239E+01 0.167E+02 0.409E+01   -.140E-01 -.293E-01 0.160E-01
   0.497E+01 -.170E+03 0.683E+02   0.693E+00 0.181E+03 -.773E+02   -.551E+01 -.118E+02 0.887E+01   0.899E-03 -.262E-01 -.864E-02
   0.497E+01 0.170E+03 -.683E+02   0.693E+00 -.181E+03 0.773E+02   -.551E+01 0.118E+02 -.887E+01   0.899E-03 0.262E-01 0.864E-02
   0.195E+02 -.227E+03 0.628E+02   -.249E+02 0.241E+03 -.657E+02   0.532E+01 -.143E+02 0.292E+01   0.221E-01 0.248E-01 -.127E-01
   0.740E+02 0.195E+03 -.883E+01   -.840E+02 -.206E+03 0.121E+02   0.991E+01 0.113E+02 -.317E+01   -.872E-02 0.151E-02 -.641E-02
   0.740E+02 -.195E+03 0.883E+01   -.840E+02 0.206E+03 -.121E+02   0.991E+01 -.113E+02 0.317E+01   -.872E-02 -.151E-02 0.641E-02
   0.195E+02 0.227E+03 -.628E+02   -.249E+02 -.241E+03 0.657E+02   0.532E+01 0.143E+02 -.292E+01   0.221E-01 -.247E-01 0.127E-01
   -.498E+02 -.232E+03 -.163E+01   0.506E+02 0.249E+03 0.640E+01   -.619E+00 -.175E+02 -.483E+01   -.555E-03 -.156E-01 -.124E-02
   -.498E+02 0.232E+03 0.163E+01   0.506E+02 -.249E+03 -.640E+01   -.619E+00 0.175E+02 0.483E+01   -.555E-03 0.156E-01 0.124E-02
   -.728E+01 -.214E-02 0.136E-02   -.433E-12 -.739E-12 0.126E-11   0.725E+01 -.150E-09 0.194E-09   0.208E-01 -.692E-06 0.156E-04

 POSITION                                       TOTAL-FORCE (eV/Angst)
      4.35738     -0.00642      7.49022         0.214396     -0.014237      0.054542
      8.70934      5.01968      1.46666        -0.007313     -0.127752     -0.010667
      1.40613     10.03917      0.85652        -0.095387      0.024236     -0.097598
      3.03773     15.06656     -0.02591        -0.032787      0.036756     -0.188185
      2.92131      5.03972      1.80378         0.018746     -0.013478     -0.059737
      4.55507     10.03721      0.60097        -0.058043      0.038555     -0.096843
      7.35620     -0.02347      2.50622         0.018746      0.013478      0.059737
      7.47262      5.00965      4.32190        -0.032787     -0.036756      0.188185
      8.98996     10.03899      3.69502        -0.058043     -0.038555      0.096843
      4.27445     15.05652      2.82933        -0.007313      0.127752      0.010667
      4.35738      5.01595      4.58619         0.214396      0.014237     -0.054542
      5.84103     10.03703      3.43947        -0.095387     -0.024236      0.097598
      9.11477      0.00422      5.07314        -0.209596      0.025010     -0.140560
      9.11477      5.00531      7.00326        -0.209596     -0.025010      0.140560
      4.17005     10.03474      6.03120         0.249258     -0.000000      0.000000
      5.83452     15.07954      0.33846         0.088929      0.059580     -0.022741
      6.11200      5.03202      1.47708         0.222764     -0.130006     -0.578509
      7.46962     10.27008      0.39872        -0.001396      0.129880     -0.182362
      1.67711     15.04419      2.81891         0.222764      0.130006      0.578509
     10.26941      4.99667      3.95753         0.088929     -0.059580      0.022741
      3.03473      9.80613      3.89727        -0.001396     -0.129880      0.182362
      5.50726      0.05811      5.02894        -0.730814      0.068556      0.081942
      5.50726      4.95142      7.04747        -0.730814     -0.068556     -0.081942
      7.92408     10.03474      6.03120         0.715442     -0.000000      0.000000
     10.39642     10.03474      6.03120         0.255226     -0.000000      0.000000
      3.03671     14.95040      5.24806        -0.115923     -0.341047      0.199834
     11.90650      5.11909      6.81434        -0.115923      0.341047     -0.199834
      4.38073      7.49278      7.62555        -0.014362      0.083162      0.001899
      8.86204     12.54257      1.71860         0.009989     -0.004018      0.016945
      1.44007      2.49010      0.88833        -0.016485     -0.065200     -0.005103
      7.33185      7.51733      7.66149        -0.014070      0.042167      0.060050
      2.94498     12.43887      1.84639         0.090820     -0.112883     -0.001306
      4.52506      2.51953      0.88997        -0.083623      0.019339      0.107873
     10.52218      7.56051      7.73367        -0.034328      0.071507      0.003593
      5.91027     12.50551      1.62269        -0.057187     -0.030933      0.036439
      7.29477      2.55099      0.74243        -0.010958     -0.081455     -0.000806
      7.37987      7.63734      2.44960         0.090820      0.112883      0.001306
      7.33185     12.55216      4.40090        -0.014070     -0.042167     -0.060050
      8.95995      2.49672      3.42003        -0.083623     -0.019339     -0.107873
     10.34517      7.57070      2.67330        -0.057187      0.030933     -0.036439
     10.52218     12.50898      4.32872        -0.034328     -0.071507     -0.003593
      2.85988      2.46526      3.56757        -0.010958      0.081455      0.000806
      4.42714      7.53364      2.57739         0.009989      0.004018     -0.016945
      4.38073     12.57671      4.43684        -0.014362     -0.083162     -0.001899
      5.87496      2.52615      3.42166        -0.016485      0.065200      0.005103
      5.97492      7.53223      5.26755         0.095226      0.060114     -0.060508
      5.97492     12.53726      6.79485         0.095226     -0.060114      0.060508
      7.26280      2.50477      6.03820         0.035570     -0.000000      0.000000
      8.91398      7.56283      5.31489         0.053847     -0.025599      0.049448
      8.91398     12.50666      6.74751         0.053847      0.025599     -0.049448
     10.54246      2.50477      6.03820        -0.111568      0.000000     -0.000000
     11.64639      7.48464      5.20677         0.004347     -0.018895      0.004165
     11.64639     12.58485      6.85563         0.004347      0.018895     -0.004165
      4.41395      2.50477      6.03820        -0.075699      0.000000     -0.000000
      4.63634     11.31858      7.61170        -0.045345      0.115805      0.092675
     -0.04288      3.61209      0.09882        -0.023027     -0.331579      0.230804
      8.76790      1.02074      1.63344        -0.081929      0.060460     -0.112063
      9.04533      8.92205      1.90122         0.020369     -0.160952      0.147749
      1.44271      6.27285      1.15622        -0.010989     -0.051919     -0.053167
      1.50655     14.03302      0.68939         0.052527      0.040462     -0.076642
[...]
      5.75640      8.93413      6.98357        -0.107442     -0.004471      0.042617
      7.54708      6.13211      5.93553         0.202292      0.085488      0.019292
      7.54708     13.93738      6.12687         0.202292     -0.085488     -0.019292
      8.83102     11.45254      5.05691         0.001167      0.232941     -0.156375
      8.67139      3.81335      5.44268         0.080728     -0.013366      0.014196
      8.67139      1.19618      6.63373         0.080728      0.013366     -0.014196
      8.83102      8.61695      7.00549         0.001167     -0.232941      0.156375
     10.30307      6.19040      6.06807         0.154907     -0.037145     -0.041949
     10.30307     13.87908      5.99433         0.154907      0.037145      0.041949
      2.99501     11.42298      5.23507        -0.086560      0.019139      0.025662
      2.96158      3.76721      5.09609        -0.130534      0.087800      0.062566
     11.83136      1.24233      6.98032        -0.130534     -0.087800     -0.062566
     11.86480      8.64651      6.82732        -0.086560     -0.019139     -0.025662
      4.54739      6.36336      5.97477         0.138102      0.201665     -0.061900
      4.54739     13.70613      6.08762         0.138102     -0.201665      0.061900
    total drift:                               -0.006651     -0.002142      0.001380

  FREE ENERGIE OF THE ION-ELECTRON SYSTEM (eV)
  free  energy   TOTEN  =      -817.9892692188 eV

  energy  without entropy=     -817.9122657072  energy(sigma->0) =     -817.95076746

 d Force =-0.6198074E-01[-0.679E-01,-0.561E-01]  d Energy =-0.7175869E-01 0.978E-02
 d Force =-0.6871019E+01[-0.701E+01,-0.673E+01]  d Ewald  = 0.4489025E+02-0.518E+02

 Quasi-Newton relaxation of ions (Broydens 2nd method)
  g(Force)  = 0.259E+00   g(Stress)= 0.385E-01

 retain information from N=  1 steps
 eigenvalues of (default step * inverse Hessian matrix)
  average eigenvalue of G=   0.4816
 eigenvalue spectrum of G is  0.4816

volume of typ            1:    14.6 %

[...]

volume of typ            4:     8.5 %

total charge

# of ion       s       p       d       tot
    1        0.273   6.150   1.997   8.421
    2        0.267   6.134   2.047   8.447
    3        0.284   6.176   1.955   8.415
    4        0.285   6.177   1.949   8.411
    5        0.281   6.171   1.969   8.421
    6        0.268   6.143   1.989   8.401
    7        0.281   6.171   1.969   8.421
    8        0.285   6.177   1.949   8.411
    9        0.268   6.143   1.989   8.401
   10        0.267   6.134   2.047   8.447
   11        0.273   6.150   1.997   8.421
   12        0.284   6.176   1.955   8.415
   13        0.277   6.155   1.984   8.416
   14        0.277   6.155   1.984   8.416
   15        0.264   6.136   2.074   8.474
   16        0.179   0.181   8.134   8.494
   17        0.189   0.182   8.129   8.500
   18        0.186   0.202   8.173   8.560
   19        0.189   0.182   8.129   8.500
   20        0.179   0.181   8.134   8.494
   21        0.186   0.202   8.173   8.560
   22        0.200   0.197   8.147   8.543
   23        0.200   0.197   8.147   8.543
   24        0.215   0.203   8.150   8.569
   25        0.185   0.195   8.079   8.459
   26        0.179   0.192   8.110   8.482
   27        0.179   0.192   8.110   8.482
   28        2.082   0.282   0.110   2.474
   29        2.080   0.262   0.101   2.444
   30        2.082   0.274   0.108   2.464
   31        2.075   0.258   0.097   2.430
   32        2.077   0.255   0.097   2.429
   33        2.088   0.285   0.111   2.484
   34        2.078   0.265   0.101   2.443
   35        2.083   0.278   0.108   2.469
   36        2.082   0.278   0.108   2.467
   37        2.077   0.255   0.097   2.429
   38        2.075   0.258   0.097   2.430
   39        2.088   0.285   0.111   2.484
   40        2.083   0.278   0.108   2.469
   41        2.078   0.265   0.101   2.443
   42        2.082   0.278   0.108   2.467
   43        2.080   0.262   0.101   2.444
   44        2.082   0.282   0.110   2.474
   45        2.082   0.274   0.108   2.464
   46        2.074   0.255   0.097   2.427
   47        2.074   0.255   0.097   2.427
   48        2.070   0.240   0.090   2.400
   49        2.077   0.265   0.101   2.443
   50        2.077   0.265   0.101   2.443
   51        2.069   0.238   0.089   2.396
   52        2.078   0.266   0.103   2.447
   53        2.078   0.266   0.103   2.447
   54        2.066   0.234   0.084   2.383
   55        1.249   2.845   0.007   4.101
   56        1.249   2.833   0.007   4.088
   57        1.252   2.837   0.005   4.094
   58        1.251   2.851   0.005   4.106
   59        1.252   2.842   0.005   4.099
   60        1.251   2.838   0.005   4.094
[...]
   94        1.249   2.845   0.004   4.098
   95        1.249   2.844   0.004   4.097
   96        1.249   2.844   0.004   4.097
   97        1.248   2.834   0.006   4.089
   98        1.252   2.850   0.005   4.107
   99        1.252   2.850   0.005   4.107
  100        1.248   2.834   0.006   4.089
  101        1.253   2.826   0.005   4.085
  102        1.253   2.826   0.005   4.085
  103        1.248   2.831   0.006   4.084
  104        1.254   2.820   0.005   4.079
  105        1.254   2.820   0.005   4.079
  106        1.248   2.831   0.006   4.084
  107        1.251   2.830   0.007   4.088
  108        1.251   2.830   0.007   4.088
tot         130.01  255.22  130.51  515.74

magnetization (x)

# of ion       s       p       d       tot
    1       -0.001  -0.001  -0.037  -0.039
    2       -0.000  -0.000  -0.011  -0.011
    3        0.000   0.000   0.008   0.008
    4       -0.000  -0.000  -0.008  -0.009
    5       -0.000  -0.001  -0.022  -0.023
    6        0.001   0.001   0.027   0.029
    7       -0.000  -0.001  -0.022  -0.023
    8       -0.000  -0.000  -0.008  -0.009
    9        0.001   0.001   0.027   0.029
   10       -0.000  -0.000  -0.011  -0.011
   11       -0.001  -0.001  -0.037  -0.039
   12        0.000   0.000   0.008   0.008
   13        0.000   0.000   0.002   0.003
   14        0.000   0.000   0.002   0.003
   15        0.001   0.001   0.030   0.032
   16       -0.000   0.002   0.562   0.564
   17        0.001  -0.002  -0.502  -0.504
   18        0.000  -0.000  -0.162  -0.162
   19        0.001  -0.002  -0.502  -0.504
   20       -0.000   0.002   0.562   0.564
   21        0.000  -0.000  -0.162  -0.162
   22       -0.001   0.001   0.382   0.381
   23       -0.001   0.001   0.382   0.381
   24        0.001  -0.001  -0.278  -0.279
   25       -0.001   0.000  -0.862  -0.863
   26        0.002  -0.000   0.716   0.718
   27        0.002  -0.000   0.716   0.718
   28       -0.001  -0.003  -0.001  -0.005
   29       -0.000   0.000  -0.000   0.000
   30        0.000   0.001   0.000   0.002
   31       -0.000  -0.001  -0.000  -0.002
   32        0.000   0.001   0.000   0.002
   33        0.000   0.000  -0.000   0.001
   34        0.000   0.000   0.000   0.001
   35       -0.001  -0.002  -0.000  -0.003
   36        0.001   0.001   0.000   0.002
   37        0.000   0.001   0.000   0.002
   38       -0.000  -0.001  -0.000  -0.002
   39        0.000   0.000  -0.000   0.001
   40       -0.001  -0.002  -0.000  -0.003
   41        0.000   0.000   0.000   0.001
   42        0.001   0.001   0.000   0.002
   43       -0.000   0.000  -0.000   0.000
   44       -0.001  -0.003  -0.001  -0.005
   45        0.000   0.001   0.000   0.002
   46        0.000   0.001   0.000   0.002
   47        0.000   0.001   0.000   0.002
   48       -0.000  -0.000  -0.000  -0.001
   49        0.000   0.001   0.000   0.002
   50        0.000   0.001   0.000   0.002
   51       -0.001  -0.001  -0.000  -0.002
   52       -0.000  -0.000  -0.000  -0.001
   53       -0.000  -0.000  -0.000  -0.001
   54        0.000   0.000  -0.000   0.000
   55       -0.000  -0.001   0.000  -0.001
   56        0.002   0.027  -0.000   0.030
   57       -0.001  -0.009  -0.000  -0.010
   58       -0.000   0.001   0.000   0.000
   59       -0.000  -0.001  -0.000  -0.001
   60       -0.001  -0.011  -0.000  -0.012
[...]
   94       -0.000  -0.001   0.000  -0.001
   95        0.000  -0.001   0.000  -0.001
   96        0.000  -0.001   0.000  -0.001
   97       -0.002  -0.031   0.000  -0.033
   98       -0.000  -0.001  -0.000  -0.001
   99       -0.000  -0.001  -0.000  -0.001
  100       -0.002  -0.031   0.000  -0.033
  101        0.002   0.031   0.000   0.034
  102        0.002   0.031   0.000   0.034
  103       -0.003  -0.033   0.000  -0.036
  104        0.001   0.028   0.000   0.029
  105        0.001   0.028   0.000   0.029
  106       -0.003  -0.033   0.000  -0.036
  107        0.002   0.030  -0.000   0.032
  108        0.002   0.030  -0.000   0.032
tot           0.00    0.06    0.80    0.86