 vasp.5.4.4.18Apr17-6-g9f103f2a35 (build May 12 2020 05:39:39) gamma-only

 MD_VERSION_INFO: Compiled 2020-05-12T12:39:39-UTC in devlin.sd.materialsdesign.
 com:/home/medea2/data/build/wwolf/vasp-gpu5.4.4/13047/x86_64/src/src/build/gam
 from svn 13047

 executed on                        Lin64 date 2023.04.03  01:05:05

 INCAR:
 POTCAR:    PAW_PBE Ta_pv 07Sep2000
 POTCAR:    PAW_PBE Ni 02Aug2007
 POTCAR:    PAW_PBE Li_sv 10Sep2004
 POTCAR:    PAW_PBE O 08Apr2002

 POTCAR:    PAW_PBE Ta_pv 07Sep2000

 POTCAR:    PAW_PBE Ni 02Aug2007

 POTCAR:    PAW_PBE Li_sv 10Sep2004

 POTCAR:    PAW_PBE O 08Apr2002

 Optimization of the real space projectors (new method)

 maximal supplied QI-value         = 15.12
 optimisation between [QCUT,QGAM] = [ 11.34, 22.83] = [ 36.00,145.93] Ry
 Optimized for a Real-space Cutoff    1.61 Angstroem

   l    n(q)    QCUT    max X(q) W(low)/X(q) W(high)/X(q)  e(spline)
   1     11    11.338     4.092    0.40E-05    0.64E-05    0.47E-07
   1     11    11.338     4.834    0.13E-04    0.44E-04    0.21E-06
   2     10    11.338    62.294    0.15E-03    0.31E-03    0.77E-06
   2     10    11.338    50.966    0.15E-03    0.31E-03    0.77E-06
   0     11    11.338   103.792    0.33E-04    0.19E-04    0.90E-07
   0     11    11.338    56.335    0.26E-04    0.17E-04    0.79E-07
 Optimization of the real space projectors (new method)

[...]

   l    n(q)    QCUT    max X(q) W(low)/X(q) W(high)/X(q)  e(spline)
   0      7    11.276    10.506    0.54E-04    0.58E-04    0.16E-07
   0      7    11.276     8.367    0.11E-03    0.14E-03    0.35E-07
   1      7    11.276     8.983    0.23E-03    0.43E-03    0.86E-07
 Optimization of the real space projectors (new method)

 maximal supplied QI-value         = 24.76
 optimisation between [QCUT,QGAM] = [ 11.39, 22.77] = [ 36.31,145.25] Ry
 Optimized for a Real-space Cutoff    1.10 Angstroem

   l    n(q)    QCUT    max X(q) W(low)/X(q) W(high)/X(q)  e(spline)
   0      7    11.387    20.381    0.22E-03    0.48E-03    0.18E-06
   0      7    11.387    15.268    0.22E-03    0.52E-03    0.19E-06
   1      7    11.387     5.964    0.22E-03    0.73E-03    0.24E-06
   1      7    11.387     5.382    0.19E-03    0.60E-03    0.21E-06

  PAW_PBE Ta_pv 07Sep2000               :
  PAW_PBE Ni 02Aug2007                  :
  PAW_PBE Li_sv 10Sep2004               :
  PAW_PBE O 08Apr2002                   :

 POSCAR: ce394824_1
  positions in direct lattice
 exchange correlation table for  LEXCH =       14
   RHO(1)=    0.500       N(1)  =     2000
   RHO(2)=  100.500       N(2)  =     4000

 ion  position               nearest neighbor table
   1  0.000  0.000  0.983-  72 2.02  93 2.02 108 2.08 105 2.08  57 2.13  60 2.13  18 2.69  25 2.90
                            21 2.90  54 2.93  53 2.93  47 3.04  36 3.04   7 3.13   4 3.13  24 3.14
   2  0.889  0.333  0.239-  74 2.02  59 2.02  80 2.08  77 2.08  56 2.13  71 2.13   8 2.69  19 2.90
                            22 2.90  39 2.93  40 2.93  30 3.04  37 3.04  13 3.13   5 3.13  26 3.14
   3  0.111  0.667  0.128-  61 2.02  58 2.02  79 2.08  64 2.08  55 2.13  94 2.13   9 2.69  23 2.90
                            20 2.90  32 2.93  40 2.93  29 3.04  31 3.04  14 3.13   6 3.13  27 3.14
   4  0.333  0.000  0.017-  99 2.02  60 2.02  63 2.08  66 2.08  96 2.13  93 2.13  10 2.69  24 2.90
                            21 2.90  32 2.93  33 2.93  30 3.04  50 3.04  15 3.13   1 3.13  25 3.14
   5  0.556  0.333  0.205-  86 2.02  71 2.02  68 2.08  65 2.08  74 2.13  89 2.13  16 2.69  26 2.90
                            19 2.90  33 2.93  34 2.93  36 3.04  43 3.04   2 3.13  11 3.13  22 3.14
   6  0.778  0.667  0.094-  55 2.02  70 2.02  67 2.08 106 2.08  73 2.13  58 2.13  17 2.69  27 2.90
                            20 2.90  53 2.93  34 2.93  35 3.04  28 3.04  12 3.13   3 3.13  23 3.14
   7  0.667  0.000  0.350-  57 2.02  90 2.02  75 2.08  78 2.08  72 2.13  69 2.13  15 2.69  24 2.90
                            25 2.90  39 2.93  38 2.93  45 3.04  29 3.04   1 3.13  10 3.13  21 3.14
   8  0.889  0.333  0.539-  98 2.02  83 2.02  80 2.08  77 2.08 104 2.13 101 2.13   2 2.69  22 2.90
                            19 2.90  39 2.93  40 2.93  42 3.04  49 3.04  16 3.13  11 3.13  26 3.14
   9  0.111  0.667  0.428-  85 2.02  82 2.02  64 2.08  79 2.08 103 2.13  88 2.13   3 2.69  20 2.90
                            23 2.90  32 2.93  40 2.93  41 3.04  43 3.04  12 3.13  17 3.13  27 3.14
  10  0.333  0.000  0.317-  84 2.02  69 2.02  66 2.08  63 2.08  90 2.13  87 2.13   4 2.69  21 2.90
                            24 2.90  33 2.93  32 2.93  35 3.04  42 3.04   7 3.13  18 3.13  25 3.14
  11  0.222  0.333  0.572- 104 2.02  89 2.02  92 2.08 107 2.08  86 2.13  83 2.13  13 2.69  26 2.90
                            22 2.90  54 2.93  46 2.93  45 3.04  52 3.04   5 3.13   8 3.13  19 3.14
  12  0.444  0.667  0.461-  73 2.02  88 2.02  91 2.08  76 2.08  85 2.13  70 2.13  14 2.69  23 2.90
                            27 2.90  38 2.93  46 2.93  44 3.04  37 3.04   6 3.13   9 3.13  20 3.14
  13  0.222  0.333  0.872-  56 2.02  95 2.02  92 2.08 107 2.08  62 2.13  59 2.13  11 2.69  22 2.90
                            26 2.90  54 2.93  46 2.93  48 3.04  28 3.04   2 3.13  16 3.13  19 3.14
  14  0.444  0.667  0.761-  97 2.02  94 2.02  91 2.08  76 2.08  61 2.13 100 2.13  12 2.69  27 2.90
                            23 2.90  38 2.93  46 2.93  47 3.04  49 3.04   3 3.13  17 3.13  20 3.14
  15  0.667  0.000  0.650-  96 2.02  81 2.02  78 2.08  75 2.08  99 2.13 102 2.13   7 2.69  25 2.90
                            24 2.90  38 2.93  39 2.93  41 3.04  48 3.04   4 3.13  18 3.13  21 3.14
  16  0.556  0.333  0.906-  62 2.02 101 2.02  65 2.08  68 2.08  98 2.13  95 2.13   5 2.69  19 2.90
                            26 2.90  33 2.93  34 2.93  51 3.04  31 3.04   8 3.13  13 3.13  22 3.14
  17  0.778  0.667  0.795- 103 2.02 100 2.02  67 2.08 106 2.08  97 2.13  82 2.13   6 2.69  20 2.90
                            27 2.90  53 2.93  34 2.93  50 3.04  52 3.04   9 3.13  14 3.13  23 3.14
  18  0.000  0.000  0.683-  87 2.02 102 2.02 105 2.08 108 2.08  84 2.13  81 2.13   1 2.69  21 2.90
                            25 2.90  53 2.93  54 2.93  51 3.04  44 3.04  10 3.13  15 3.13  24 3.14
  19  0.222  0.333  0.222-  62 2.23  86 2.23  83 2.23  59 2.23  80 2.26  65 2.26  16 2.90   2 2.90
                             8 2.90   5 2.90  13 3.14  11 3.14
  20  0.444  0.667  0.111-  85 2.23  61 2.23 100 2.23  70 2.23  67 2.26  64 2.26   9 2.90  17 2.90
                             6 2.90   3 2.90  12 3.14  14 3.14
  21  0.667  0.000  0.000-  69 2.23 102 2.23  72 2.23  99 2.23  66 2.26 105 2.26  10 2.90  18 2.90
                             1 2.90   4 2.90   7 3.14  15 3.14
  22  0.556  0.333  0.556-  98 2.23  74 2.23  95 2.23  89 2.23  92 2.26  77 2.26  13 2.90  11 2.90
                             8 2.90   2 2.90  16 3.14   5 3.14
  23  0.778  0.667  0.444-  73 2.23  97 2.23  58 2.23  82 2.23  79 2.26  76 2.26   3 2.90  12 2.90
                            14 2.90   9 2.90   6 3.14  17 3.14
  24  0.000  0.000  0.333-  60 2.23  57 2.23  81 2.23  84 2.23  63 2.26  78 2.26   4 2.90   7 2.90
                            15 2.90  10 2.90   1 3.14  18 3.14
  25  0.333  0.000  0.667-  93 2.23  87 2.23  96 2.23  90 2.23  75 2.26 108 2.26   1 2.90  15 2.90
                            18 2.90   7 2.90   4 3.14  10 3.14
  26  0.889  0.333  0.889- 104 2.23  56 2.23  71 2.23 101 2.23  68 2.26 107 2.26   5 2.90  11 2.90
                            13 2.90  16 2.90   2 3.14   8 3.14
  27  0.111  0.667  0.778-  55 2.23 103 2.23  88 2.23  94 2.23  91 2.26 106 2.26   6 2.90  14 2.90
                            17 2.90  12 2.90   3 3.14   9 3.14
  28  0.000  0.500  0.978- 106 1.97 107 1.97  58 2.17  59 2.17  71 2.22  94 2.22  52 2.60   6 3.04
                            13 3.04
  29  0.889  0.833  0.244-  79 1.97  78 1.97  55 2.17  72 2.17  73 2.22  60 2.22  41 2.60   3 3.04
                             7 3.04
  30  0.111  0.167  0.133-  80 1.97  63 1.97  56 2.17  93 2.17  62 2.22  57 2.22  42 2.60   2 3.04
                             4 3.04
  31  0.333  0.500  0.022-  64 1.97  65 1.97  95 2.17  94 2.17 100 2.22  59 2.22  43 2.60  16 3.04
                             3 3.04
  32  0.222  0.833  0.222-  79 1.93  66 1.93  61 2.25  85 2.25  60 2.25  84 2.25   9 2.93   3 2.93
                             4 2.93  10 2.93
  33  0.444  0.167  0.111-  68 1.93  63 1.93  86 2.25  62 2.25  69 2.25  99 2.25  16 2.93   5 2.93
                            10 2.93   4 2.93
  34  0.667  0.500  0.000-  65 1.93 106 1.93 101 2.25  70 2.25  71 2.25 100 2.25   5 2.93  17 2.93
                             6 2.93  16 2.93
  35  0.556  0.833  0.201-  67 1.97  66 1.97  73 2.17  90 2.17  85 2.22  72 2.22  50 2.60   6 3.04
                            10 3.04
  36  0.778  0.167  0.090-  68 1.97 105 1.97  74 2.17  57 2.17  56 2.22  69 2.22  51 2.60   5 3.04
                             1 3.04
  37  0.667  0.500  0.355-  77 1.97  76 1.97  71 2.17  70 2.17  58 2.22  89 2.22  49 2.60   2 3.04
                            12 3.04
  38  0.556  0.833  0.556-  91 1.93  78 1.93  97 2.25  73 2.25  96 2.25  90 2.25  14 2.93  12 2.93
                            15 2.93   7 2.93
  39  0.778  0.167  0.444-  80 1.93  75 1.93  74 2.25  98 2.25  57 2.25  81 2.25   2 2.93   8 2.93
                             7 2.93  15 2.93
  40  0.000  0.500  0.333-  64 1.93  77 1.93  59 2.25  58 2.25  82 2.25  83 2.25   3 2.93   2 2.93
                             8 2.93   9 2.93
  41  0.889  0.833  0.534-  78 1.97  79 1.97 103 2.17 102 2.17  97 2.22  84 2.22  29 2.60   9 3.04
                            15 3.04
  42  0.111  0.167  0.423-  80 1.97  63 1.97 104 2.17  87 2.17  86 2.22  81 2.22  30 2.60   8 3.04
                            10 3.04
  43  0.333  0.500  0.312-  65 1.97  64 1.97  89 2.17  88 2.17  83 2.22  70 2.22  31 2.60   9 3.04
                             5 3.04
  44  0.222  0.833  0.577-  91 1.97 108 1.97  85 2.17  84 2.17 103 2.22  90 2.22  47 2.60  12 3.04
                            18 3.04
  45  0.444  0.167  0.466-  75 1.97  92 1.97  86 2.17  69 2.17  74 2.22  87 2.22  48 2.60  11 3.04
                             7 3.04
  46  0.333  0.500  0.667-  76 1.93 107 1.93  94 2.25  88 2.25  95 2.25  89 2.25  13 2.93  11 2.93
                            14 2.93  12 2.93
  47  0.222  0.833  0.867-  91 1.97 108 1.97  61 2.17  60 2.17  55 2.22  96 2.22  44 2.60  14 3.04
                             1 3.04
  48  0.444  0.167  0.756-  92 1.97  75 1.97  62 2.17  99 2.17  98 2.22  93 2.22  45 2.60  13 3.04
                            15 3.04
  49  0.667  0.500  0.645-  76 1.97  77 1.97 100 2.17 101 2.17  95 2.22  82 2.22  37 2.60  14 3.04
                             8 3.04
  50  0.556  0.833  0.910-  67 1.97  66 1.97  97 2.17  96 2.17  61 2.22 102 2.22  35 2.60  17 3.04
                             4 3.04
  51  0.778  0.167  0.799-  68 1.97 105 1.97  98 2.17  81 2.17 104 2.22  99 2.22  36 2.60  16 3.04
                            18 3.04
  52  0.000  0.500  0.688- 107 1.97 106 1.97  83 2.17  82 2.17  88 2.22 101 2.22  28 2.60  11 3.04
                            17 3.04
  53  0.889  0.833  0.889-  67 1.93 108 1.93 103 2.25  55 2.25  72 2.25 102 2.25   6 2.93  17 2.93
[...]
   -.215E+02 -.215E+03 0.399E+01   0.232E+02 0.230E+03 -.790E+01   -.177E+01 -.148E+02 0.390E+01   -.158E-02 0.332E-02 0.145E-01
   0.142E+02 0.215E+03 -.166E+02   -.185E+02 -.230E+03 0.162E+02   0.427E+01 0.148E+02 0.417E+00   0.134E-01 -.332E-02 0.590E-02
   -.142E+02 -.215E+03 0.166E+02   0.185E+02 0.230E+03 -.162E+02   -.427E+01 -.148E+02 -.417E+00   -.134E-01 0.332E-02 -.590E-02
   0.215E+02 0.215E+03 -.399E+01   -.232E+02 -.230E+03 0.790E+01   0.177E+01 0.148E+02 -.390E+01   0.158E-02 -.332E-02 -.145E-01
   -.142E+02 -.215E+03 0.166E+02   0.185E+02 0.230E+03 -.162E+02   -.427E+01 -.148E+02 -.417E+00   -.134E-01 0.332E-02 -.590E-02
   0.215E+02 0.215E+03 -.399E+01   -.232E+02 -.230E+03 0.790E+01   0.177E+01 0.148E+02 -.390E+01   0.158E-02 -.332E-02 -.145E-01
[...]
   -.215E+02 -.215E+03 0.399E+01   0.232E+02 0.230E+03 -.790E+01   -.177E+01 -.148E+02 0.390E+01   -.158E-02 0.332E-02 0.145E-01
   0.142E+02 0.215E+03 -.166E+02   -.185E+02 -.230E+03 0.162E+02   0.427E+01 0.148E+02 0.417E+00   0.134E-01 -.332E-02 0.590E-02
   -.215E+02 -.215E+03 0.399E+01   0.232E+02 0.230E+03 -.790E+01   -.177E+01 -.148E+02 0.390E+01   -.158E-02 0.332E-02 0.145E-01
   0.142E+02 0.215E+03 -.166E+02   -.185E+02 -.230E+03 0.162E+02   0.427E+01 0.148E+02 0.417E+00   0.134E-01 -.332E-02 0.590E-02
   -.142E+02 -.215E+03 0.166E+02   0.185E+02 0.230E+03 -.162E+02   -.427E+01 -.148E+02 -.417E+00   -.134E-01 0.332E-02 -.590E-02
   0.215E+02 0.215E+03 -.399E+01   -.232E+02 -.230E+03 0.790E+01   0.177E+01 0.148E+02 -.390E+01   0.158E-02 -.332E-02 -.145E-01
   -.142E+02 -.215E+03 0.166E+02   0.185E+02 0.230E+03 -.162E+02   -.427E+01 -.148E+02 -.417E+00   -.134E-01 0.332E-02 -.590E-02
   0.215E+02 0.215E+03 -.399E+01   -.232E+02 -.230E+03 0.790E+01   0.177E+01 0.148E+02 -.390E+01   0.158E-02 -.332E-02 -.145E-01
   -.142E+02 -.215E+03 0.166E+02   0.185E+02 0.230E+03 -.162E+02   -.427E+01 -.148E+02 -.417E+00   -.134E-01 0.332E-02 -.590E-02
   0.215E+02 0.215E+03 -.399E+01   -.232E+02 -.230E+03 0.790E+01   0.177E+01 0.148E+02 -.390E+01   0.158E-02 -.332E-02 -.145E-01
   0.410E+02 -.202E+03 -.237E+02   -.471E+02 0.217E+03 0.272E+02   0.606E+01 -.144E+02 -.350E+01   0.532E-02 -.409E-02 -.307E-02
   -.410E+02 0.202E+03 0.237E+02   0.471E+02 -.217E+03 -.272E+02   -.606E+01 0.144E+02 0.350E+01   -.532E-02 0.409E-02 0.307E-02
   0.410E+02 -.202E+03 -.237E+02   -.471E+02 0.217E+03 0.272E+02   0.606E+01 -.144E+02 -.350E+01   0.532E-02 -.409E-02 -.307E-02
   -.410E+02 0.202E+03 0.237E+02   0.471E+02 -.217E+03 -.272E+02   -.606E+01 0.144E+02 0.350E+01   -.532E-02 0.409E-02 0.307E-02
   -.300E-02 -.212E-05 -.520E-02   0.313E-12 -.654E-12 -.739E-12   -.799E-14 0.128E-12 0.213E-13   0.814E-08 -.906E-10 0.142E-07

 POSITION                                       TOTAL-FORCE (eV/Angst)
      4.34608      0.00000      7.52764        -0.004800     -0.000000     -0.008315
      9.16749      5.25001      1.72223         0.004800      0.000000      0.008315
      1.81607     10.15272      0.85099         0.004800      0.000000      0.008315
      3.07574      0.06946      0.12372         0.004800      0.000000      0.008315
      6.00761      5.18055      1.45278        -0.004800     -0.000000     -0.008315
      7.63101     10.29165      0.51551        -0.004800     -0.000000     -0.008315
      7.54409      0.13892      2.65950         0.004800      0.000000      0.008315
     10.47595      5.25001      3.98855        -0.004800     -0.000000     -0.008315
      3.12454     10.15272      3.11732        -0.004800     -0.000000     -0.008315
      4.38421      0.06946      2.39005        -0.004800     -0.000000     -0.008315
      4.66102      5.11109      4.32404         0.004800      0.000000      0.008315
      6.28442     10.22218      3.38677         0.004800      0.000000      0.008315
      5.96948      5.11109      6.59037        -0.004800     -0.000000     -0.008315
      7.59288     10.22218      5.65309        -0.004800     -0.000000     -0.008315
      8.85255      0.13892      4.92582        -0.004800     -0.000000     -0.008315
      9.12936      5.18055      6.85982         0.004800      0.000000      0.008315
     10.75276     10.29165      5.92254         0.004800      0.000000      0.008315
      3.03762      0.00000      5.26131         0.004800      0.000000      0.008315
      3.10014      5.11109      1.62052        -0.000000      0.000000     -0.000000
      4.72354     10.22218      0.68325        -0.000000      0.000000     -0.000000
      5.98321      0.13892     -0.04402        -0.000000      0.000000     -0.000000
      7.56849      5.18055      4.15630        -0.000000      0.000000     -0.000000
      9.19189     10.29165      3.21903        -0.000000      0.000000     -0.000000
      1.47674      0.00000      2.55779        -0.000000      0.000000     -0.000000
      5.94509      0.06946      5.09357        -0.000000      0.000000     -0.000000
     12.03683      5.25001      6.69207        -0.000000      0.000000     -0.000000
      4.68542     10.15272      5.82084        -0.000000      0.000000     -0.000000
      4.55073      7.59718      7.46209        -0.000650     -0.000000     -0.001127
      9.32657     12.84719      1.57777         0.000650      0.000000      0.001127
      1.61143      2.55555      0.91653         0.000650      0.000000      0.001127
      3.23483      7.66664     -0.02074         0.000650      0.000000      0.001127
      3.28201     12.70827      1.51552        -0.000000      0.000000     -0.000000
      4.54168      2.62501      0.78825        -0.000000      0.000000     -0.000000
      6.16508      7.73610     -0.14902        -0.000000      0.000000     -0.000000
      6.21225     12.77773      1.38723        -0.000650     -0.000000     -0.001127
      7.47192      2.69447      0.65996        -0.000650     -0.000000     -0.001127
      7.70317      7.73610      2.51504         0.000650      0.000000      0.001127
      7.75035     12.77773      4.05130        -0.000000      0.000000     -0.000000
      9.01002      2.69447      3.32403        -0.000000      0.000000     -0.000000
      1.65861      7.59718      2.45279        -0.000000      0.000000     -0.000000
     10.68060     12.84719      3.92301        -0.000650     -0.000000     -0.001127
      2.96545      2.55555      3.26177        -0.000650     -0.000000     -0.001127
      4.58885      7.66664      2.32450        -0.000650     -0.000000     -0.001127
      4.82011     12.70827      4.17958         0.000650      0.000000      0.001127
      6.07977      2.62501      3.45231         0.000650      0.000000      0.001127
      6.12695      7.66664      4.98857        -0.000000      0.000000     -0.000000
      6.17413     12.70827      6.52482        -0.000650     -0.000000     -0.001127
      7.43380      2.62501      5.79755        -0.000650     -0.000000     -0.001127
      9.05720      7.73610      4.86028        -0.000650     -0.000000     -0.001127
      9.28845     12.77773      6.71536         0.000650      0.000000      0.001127
     10.54812      2.69447      5.98809         0.000650      0.000000      0.001127
      3.19670      7.59718      5.11685         0.000650      0.000000      0.001127
     12.21870     12.84719      6.58707        -0.000000      0.000000     -0.000000
      4.50355      2.55555      5.92584        -0.000000      0.000000     -0.000000
      9.19379     11.42742     -0.11005        -0.007481     -0.004578      0.009243
      0.21613      3.97531     -0.04237         0.011746      0.004578     -0.001857
      8.86722      1.27470      1.61887        -0.011746     -0.004578      0.001857
      9.22811      9.22533      1.41051         0.007481      0.004578     -0.009243
      1.51581      6.17741      0.74763        -0.011746     -0.004578      0.001857
      1.87670     14.12804      0.53927         0.007481      0.004578     -0.009243
[...]
      6.26975      9.08641      6.69372         0.011746      0.004578     -0.001857
      7.53226      6.24687      5.96481        -0.007481     -0.004578      0.009243
      7.89315     14.19750      5.75645         0.011746      0.004578     -0.001857
      9.15566     11.35796      5.02754        -0.007481     -0.004578      0.009243
      9.15282      4.11424      5.02918         0.011746      0.004578     -0.001857
      8.82910      1.20524      6.75646        -0.011746     -0.004578      0.001857
      9.18999      9.15587      6.54810         0.007481      0.004578     -0.009243
     10.45250      6.31633      5.81919        -0.011746     -0.004578      0.001857
     10.81339     14.26696      5.61083         0.007481      0.004578     -0.009243
     12.07590     11.42742      4.88192        -0.011746     -0.004578      0.001857
      3.09824      3.97531      4.94959         0.007481      0.004578     -0.009243
     12.11114      1.68063      6.64917         0.000640     -0.008105     -0.000369
     11.96252      8.81940      6.73497        -0.000640      0.008105      0.000369
      4.75972      6.58334      5.77794         0.000640     -0.008105     -0.000369
      4.61111     13.72211      5.86374        -0.000640      0.008105      0.000369
    total drift:                               -0.002996     -0.000002     -0.005198

  FREE ENERGIE OF THE ION-ELECTRON SYSTEM (eV)
  free  energy   TOTEN  =      -840.3401560468 eV

  energy  without entropy=     -840.2814700300  energy(sigma->0) =     -840.31081304

 d Force = 0.1553361E-04[-0.304E-03, 0.335E-03]  d Energy =-0.1302444E-03 0.146E-03
 d Force = 0.3707025E+01[ 0.370E+01, 0.371E+01]  d Ewald  = 0.2256369E+01 0.145E+01

 Quasi-Newton relaxation of ions (Broydens 2nd method)
  g(Force)  = 0.421E-03   g(Stress)= 0.212E-03

 retain information from N=  1 steps
 eigenvalues of (default step * inverse Hessian matrix)
  average eigenvalue of G=   1.4393
 eigenvalue spectrum of G is  1.4393

 reached required accuracy - stopping structural energy minimisation

volume of typ            1:    17.3 %

[...]

volume of typ            4:     8.4 %

total charge

# of ion       s       p       d       tot
    1        0.252   6.118   2.111   8.482
    2        0.252   6.118   2.111   8.482
    3        0.252   6.118   2.111   8.482
    4        0.252   6.118   2.111   8.482
    5        0.252   6.118   2.111   8.482
    6        0.252   6.118   2.111   8.482
    7        0.252   6.118   2.111   8.482
    8        0.252   6.118   2.111   8.482
    9        0.252   6.118   2.111   8.482
   10        0.252   6.118   2.111   8.482
   11        0.252   6.118   2.111   8.482
   12        0.252   6.118   2.111   8.482
   13        0.252   6.118   2.111   8.482
   14        0.252   6.118   2.111   8.482
   15        0.252   6.118   2.111   8.482
   16        0.252   6.118   2.111   8.482
   17        0.252   6.118   2.111   8.482
   18        0.252   6.118   2.111   8.482
   19        0.194   0.175   8.075   8.445
   20        0.194   0.175   8.075   8.445
   21        0.194   0.175   8.075   8.445
   22        0.194   0.175   8.075   8.445
   23        0.194   0.175   8.075   8.445
   24        0.194   0.175   8.075   8.445
   25        0.194   0.175   8.075   8.445
   26        0.194   0.175   8.075   8.445
   27        0.194   0.175   8.075   8.445
   28        2.071   0.246   0.094   2.412
   29        2.071   0.246   0.094   2.412
   30        2.071   0.246   0.094   2.412
   31        2.071   0.246   0.094   2.412
   32        2.092   0.297   0.121   2.510
   33        2.092   0.297   0.121   2.510
   34        2.092   0.297   0.121   2.510
   35        2.071   0.246   0.094   2.412
   36        2.071   0.246   0.094   2.412
   37        2.071   0.246   0.094   2.412
   38        2.092   0.297   0.121   2.510
   39        2.092   0.297   0.121   2.510
   40        2.092   0.297   0.121   2.510
   41        2.071   0.246   0.094   2.412
   42        2.071   0.246   0.094   2.412
   43        2.071   0.246   0.094   2.412
   44        2.071   0.246   0.094   2.412
   45        2.071   0.246   0.094   2.412
   46        2.092   0.297   0.121   2.510
   47        2.071   0.246   0.094   2.412
   48        2.071   0.246   0.094   2.412
   49        2.071   0.246   0.094   2.412
   50        2.071   0.246   0.094   2.412
   51        2.071   0.246   0.094   2.412
   52        2.071   0.246   0.094   2.412
   53        2.092   0.297   0.121   2.510
   54        2.092   0.297   0.121   2.510
   55        1.246   2.838   0.005   4.090
   56        1.246   2.838   0.005   4.090
   57        1.246   2.838   0.005   4.090
   58        1.246   2.838   0.005   4.090
   59        1.246   2.838   0.005   4.090
   60        1.246   2.838   0.005   4.090
[...]
   94        1.246   2.838   0.005   4.090
   95        1.246   2.838   0.005   4.090
   96        1.246   2.838   0.005   4.090
   97        1.246   2.838   0.005   4.090
   98        1.246   2.838   0.005   4.090
   99        1.246   2.838   0.005   4.090
  100        1.246   2.838   0.005   4.090
  101        1.246   2.838   0.005   4.090
  102        1.246   2.838   0.005   4.090
  103        1.246   2.838   0.005   4.090
  104        1.246   2.838   0.005   4.090
  105        1.248   2.846   0.006   4.100
  106        1.248   2.846   0.006   4.100
  107        1.248   2.846   0.006   4.100
  108        1.248   2.846   0.006   4.100
tot         129.73  272.22  113.75  515.70

magnetization (x)

# of ion       s       p       d       tot
    1       -0.001  -0.000   0.002   0.001
    2       -0.001  -0.000   0.002   0.001
    3       -0.001  -0.000   0.002   0.001
    4       -0.001  -0.000   0.002   0.001
    5       -0.001  -0.000   0.002   0.001
    6       -0.001  -0.000   0.002   0.001
    7       -0.001  -0.000   0.002   0.001
    8       -0.001  -0.000   0.002   0.001
    9       -0.001  -0.000   0.002   0.001
   10       -0.001  -0.000   0.002   0.001
   11       -0.001  -0.000   0.002   0.001
   12       -0.001  -0.000   0.002   0.001
   13       -0.001  -0.000   0.002   0.001
   14       -0.001  -0.000   0.002   0.001
   15       -0.001  -0.000   0.002   0.001
   16       -0.001  -0.000   0.002   0.001
   17       -0.001  -0.000   0.002   0.001
   18       -0.001  -0.000   0.002   0.001
   19       -0.000   0.001   0.861   0.862
   20       -0.000   0.001   0.861   0.862
   21       -0.000   0.001   0.861   0.862
   22       -0.000   0.001   0.861   0.862
   23       -0.000   0.001   0.861   0.862
   24       -0.000   0.001   0.861   0.862
   25       -0.000   0.001   0.861   0.862
   26       -0.000   0.001   0.861   0.862
   27       -0.000   0.001   0.861   0.862
   28        0.001   0.002   0.000   0.003
   29        0.001   0.002   0.000   0.003
   30        0.001   0.002   0.000   0.003
   31        0.001   0.002   0.000   0.003
   32       -0.001  -0.001  -0.000  -0.002
   33       -0.001  -0.001  -0.000  -0.002
   34       -0.001  -0.001  -0.000  -0.002
   35        0.001   0.002   0.000   0.003
   36        0.001   0.002   0.000   0.003
   37        0.001   0.002   0.000   0.003
   38       -0.001  -0.001  -0.000  -0.002
   39       -0.001  -0.001  -0.000  -0.002
   40       -0.001  -0.001  -0.000  -0.002
   41        0.001   0.002   0.000   0.003
   42        0.001   0.002   0.000   0.003
   43        0.001   0.002   0.000   0.003
   44        0.001   0.002   0.000   0.003
   45        0.001   0.002   0.000   0.003
   46       -0.001  -0.001  -0.000  -0.002
   47        0.001   0.002   0.000   0.003
   48        0.001   0.002   0.000   0.003
   49        0.001   0.002   0.000   0.003
   50        0.001   0.002   0.000   0.003
   51        0.001   0.002   0.000   0.003
   52        0.001   0.002   0.000   0.003
   53       -0.001  -0.001  -0.000  -0.002
   54       -0.001  -0.001  -0.000  -0.002
   55        0.003   0.026   0.000   0.029
   56        0.003   0.026   0.000   0.029
   57        0.003   0.026   0.000   0.029
   58        0.003   0.026   0.000   0.029
   59        0.003   0.026   0.000   0.029
   60        0.003   0.026   0.000   0.029
[...]
   94        0.003   0.026   0.000   0.029
   95        0.003   0.026   0.000   0.029
   96        0.003   0.026   0.000   0.029
   97        0.003   0.026   0.000   0.029
   98        0.003   0.026   0.000   0.029
   99        0.003   0.026   0.000   0.029
  100        0.003   0.026   0.000   0.029
  101        0.003   0.026   0.000   0.029
  102        0.003   0.026   0.000   0.029
  103        0.003   0.026   0.000   0.029
  104        0.003   0.026   0.000   0.029
  105       -0.000  -0.001  -0.000  -0.002
  106       -0.000  -0.001  -0.000  -0.002
  107       -0.000  -0.001  -0.000  -0.002
  108       -0.000  -0.001  -0.000  -0.002
tot           0.10    0.93    7.80    8.82