 vasp.5.4.4.18Apr17-6-g9f103f2a35 (build May 12 2020 05:39:39) gamma-only

 MD_VERSION_INFO: Compiled 2020-05-12T12:39:39-UTC in devlin.sd.materialsdesign.
 com:/home/medea2/data/build/wwolf/vasp-gpu5.4.4/13047/x86_64/src/src/build/gam
 from svn 13047

 executed on                        Lin64 date 2023.04.03  01:59:02

 INCAR:
 POTCAR:    PAW_PBE Ta_pv 07Sep2000
 POTCAR:    PAW_PBE Ni 02Aug2007
 POTCAR:    PAW_PBE Li_sv 10Sep2004
 POTCAR:    PAW_PBE O 08Apr2002

 POTCAR:    PAW_PBE Ta_pv 07Sep2000

 POTCAR:    PAW_PBE Ni 02Aug2007

 POTCAR:    PAW_PBE Li_sv 10Sep2004

 POTCAR:    PAW_PBE O 08Apr2002

 Optimization of the real space projectors (new method)

 maximal supplied QI-value         = 15.12
 optimisation between [QCUT,QGAM] = [ 11.34, 22.83] = [ 36.00,145.93] Ry
 Optimized for a Real-space Cutoff    1.61 Angstroem

   l    n(q)    QCUT    max X(q) W(low)/X(q) W(high)/X(q)  e(spline)
   1     11    11.338     4.092    0.40E-05    0.64E-05    0.47E-07
   1     11    11.338     4.834    0.13E-04    0.44E-04    0.21E-06
   2     10    11.338    62.294    0.15E-03    0.31E-03    0.77E-06
   2     10    11.338    50.966    0.15E-03    0.31E-03    0.77E-06
   0     11    11.338   103.792    0.33E-04    0.19E-04    0.90E-07
   0     11    11.338    56.335    0.26E-04    0.17E-04    0.79E-07
 Optimization of the real space projectors (new method)

[...]

   l    n(q)    QCUT    max X(q) W(low)/X(q) W(high)/X(q)  e(spline)
   0      7    11.276    10.506    0.54E-04    0.58E-04    0.16E-07
   0      7    11.276     8.367    0.11E-03    0.14E-03    0.35E-07
   1      7    11.276     8.983    0.23E-03    0.43E-03    0.86E-07
 Optimization of the real space projectors (new method)

 maximal supplied QI-value         = 24.76
 optimisation between [QCUT,QGAM] = [ 11.39, 22.77] = [ 36.31,145.25] Ry
 Optimized for a Real-space Cutoff    1.10 Angstroem

   l    n(q)    QCUT    max X(q) W(low)/X(q) W(high)/X(q)  e(spline)
   0      7    11.387    20.381    0.22E-03    0.48E-03    0.18E-06
   0      7    11.387    15.268    0.22E-03    0.52E-03    0.19E-06
   1      7    11.387     5.964    0.22E-03    0.73E-03    0.24E-06
   1      7    11.387     5.382    0.19E-03    0.60E-03    0.21E-06

  PAW_PBE Ta_pv 07Sep2000               :
  PAW_PBE Ni 02Aug2007                  :
  PAW_PBE Li_sv 10Sep2004               :
  PAW_PBE O 08Apr2002                   :

 POSCAR: ce491_1
  positions in direct lattice
 exchange correlation table for  LEXCH =       14
   RHO(1)=    0.500       N(1)  =     2000
   RHO(2)=  100.500       N(2)  =     4000

 ion  position               nearest neighbor table
   1  0.997  0.998  0.997-  72 2.15 108 2.15  60 2.15  93 2.16  57 2.17 105 2.19   7 2.81  22 2.82
                            17 2.83  10 2.83  13 2.92   4 2.93  29 3.06  53 3.10
   2  0.897  0.336  0.229-  59 2.11  56 2.12  77 2.13  71 2.15  74 2.18  80 2.18   5 2.72  14 2.75
                            18 2.84  11 2.85  40 2.98   8 3.02  26 3.03  30 3.03  28 3.10
   3  0.119  0.667  0.119-  94 2.11  61 2.13  55 2.13  79 2.15  58 2.18  64 2.18   6 2.72  15 2.75
                            19 2.84  12 2.85  32 2.97  31 3.02  47 3.03   9 3.04  27 3.05  40 3.08
   4  0.324  1.000  0.010-  93 2.09  96 2.10  99 2.10  66 2.10  60 2.14  63 2.15  13 2.67  16 2.92
                             1 2.93  25 2.93  50 3.02  17 3.04   7 3.04  30 3.05  48 3.06  32 3.06
   5  0.214  0.333  0.214-  83 2.11  80 2.13  86 2.13  62 2.15  65 2.18  59 2.18   2 2.72  18 2.75
                            14 2.84  20 2.85  30 2.97  40 3.02  42 3.03   8 3.04  23 3.05  31 3.08
   6  0.437  0.664  0.104-  64 2.11  85 2.12 100 2.13  70 2.15  67 2.18  61 2.18   3 2.72  19 2.75
                            15 2.84  21 2.85  31 2.98   9 3.02  24 3.03  32 3.03  43 3.10
   7  0.672  1.000  0.007- 102 2.10  99 2.11 105 2.13  66 2.14  69 2.17  72 2.17  10 2.75   1 2.81
                            16 2.83  22 2.86  25 3.01   4 3.04  50 3.09  33 3.09
   8  0.557  0.335  0.221-  71 2.03  86 2.03  89 2.04  68 2.04  65 2.04  74 2.06  26 2.86  23 2.89
                             2 3.02  36 3.03  11 3.03  20 3.03  34 3.04   5 3.04  45 3.06  43 3.10
   9  0.777  0.665  0.112-  70 2.03  55 2.03 106 2.04  73 2.04  58 2.04  67 2.06  24 2.86  27 2.89
                             6 3.02  35 3.03  21 3.03  12 3.03  37 3.04   3 3.04  53 3.06  28 3.10
  10  0.662  0.000  0.326-  75 2.10  78 2.11  90 2.13  57 2.14  72 2.17  69 2.17   7 2.75  16 2.81
                             1 2.83  17 2.86  25 3.01  13 3.04  39 3.09  29 3.09
  11  0.563  0.336  0.563-  95 2.11  92 2.11  77 2.13  89 2.14  74 2.18  98 2.19  20 2.72  14 2.75
                            18 2.84   2 2.85  49 2.99   8 3.03  23 3.04  37 3.07
  12  0.785  0.668  0.453-  76 2.11  97 2.12  79 2.13  73 2.14  58 2.18  82 2.19  21 2.72  15 2.75
                            19 2.84   3 2.85   9 3.03  41 3.04  24 3.05  49 3.05  29 3.07  40 3.07
  13  0.010  0.000  0.323-  84 2.09  81 2.10  78 2.10  57 2.10  63 2.14  60 2.15   4 2.67   1 2.92
                            16 2.93  25 2.93  39 3.02  22 3.04  10 3.04  32 3.05  41 3.06  30 3.06
  14  0.883  0.332  0.550- 104 2.05 101 2.10  83 2.10  80 2.14  98 2.16  77 2.23   2 2.75  11 2.75
                            20 2.84   5 2.84  23 3.00  26 3.00  42 3.01  40 3.03  51 3.04  49 3.06
  15  0.105  0.664  0.440-  88 2.06 103 2.10  85 2.11  82 2.14  64 2.14  79 2.23  12 2.75   3 2.75
                            21 2.84   6 2.84  27 2.97  24 2.99  43 3.00  40 3.01  44 3.03  32 3.04
  16  0.336  0.002  0.336-  69 2.15  87 2.15  63 2.15  84 2.16  66 2.17  90 2.19  10 2.81  17 2.82
                            22 2.83   7 2.83   4 2.92  13 2.93  33 3.06  45 3.10
  17  0.326  0.000  0.662-  75 2.10  96 2.11  90 2.12  93 2.14 108 2.16  87 2.17  22 2.76  16 2.82
                             1 2.83  10 2.86  25 3.01   4 3.04  45 3.08  38 3.09  48 3.09
  18  0.228  0.336  0.894- 107 2.06  92 2.10  56 2.11  95 2.14  59 2.14  62 2.23  20 2.75   5 2.75
                            11 2.84   2 2.84  23 2.97  26 2.99  28 3.00  31 3.01  54 3.03  30 3.04
  19  0.451  0.668  0.784-  91 2.05  76 2.10  94 2.10  61 2.14  97 2.16 100 2.23   6 2.75  21 2.75
                            12 2.84   3 2.84  27 3.00  24 3.00  47 3.01  31 3.03  38 3.04  49 3.06
  20  0.548  0.332  0.881- 101 2.11  98 2.12  62 2.13  68 2.14  65 2.18  95 2.19  11 2.72  18 2.75
                            14 2.84   5 2.85   8 3.03  48 3.04  26 3.05  49 3.05  33 3.07  31 3.07
  21  0.771  0.664  0.770-  82 2.11 103 2.11 100 2.13 106 2.14  67 2.18  97 2.19  12 2.72  19 2.75
                            15 2.84   6 2.85  49 2.99   9 3.03  27 3.04  34 3.07
  22  0.007  1.000  0.671- 102 2.10  81 2.11 105 2.12  84 2.14  87 2.16 108 2.17  17 2.76   1 2.82
                            16 2.83   7 2.86  25 3.01  13 3.04  53 3.08  51 3.09  41 3.09
  23  0.218  0.335  0.560- 107 2.03 104 2.07  83 2.07  86 2.08  92 2.09  89 2.10  26 2.78  54 2.82
                             8 2.89  18 2.97  14 3.00  11 3.04   5 3.05
  24  0.441  0.666  0.447-  91 2.06  76 2.06  88 2.06  85 2.09  70 2.10  73 2.11  27 2.78  44 2.82
                             9 2.86  15 2.99  19 3.00   6 3.03  12 3.05
  25  0.667  0.000  0.667-  99 2.06  78 2.06  96 2.06  81 2.06  75 2.16 102 2.16   4 2.93  13 2.93
                            10 3.01   7 3.01  17 3.01  22 3.01
  26  0.892  0.334  0.886- 104 2.06 101 2.06 107 2.06  56 2.09  71 2.10  68 2.11  23 2.78  54 2.82
                             8 2.86  18 2.99  14 3.00   2 3.03  20 3.05
  27  0.115  0.665  0.773-  88 2.03  91 2.07  94 2.07  55 2.08 103 2.09 106 2.10  24 2.78  44 2.82
                             9 2.89  15 2.97  19 3.00  21 3.04   3 3.05
  28  0.009  0.499  0.987-  59 2.03 107 2.03  94 2.12  58 2.17  71 2.19 106 2.20  18 3.00   2 3.10
                             9 3.10
  29  0.890  0.833  0.224-  60 2.00  79 2.00  72 2.05  73 2.12  78 2.13  55 2.17   1 3.06  12 3.07
                            13 3.08   3 3.08  10 3.09
  30  0.113  0.169  0.109-  62 1.98  80 1.99  93 2.10  57 2.12  63 2.16  56 2.17   5 2.97   2 3.03
                            18 3.04   4 3.05  13 3.06
  31  0.333  0.502  0.997- 100 2.00  64 2.01  95 2.02  59 2.04  94 2.16  65 2.25   6 2.98  18 3.01
                             3 3.02  19 3.03  20 3.07   5 3.08
  32  0.220  0.831  0.224-  79 1.98  61 1.99  84 2.10  66 2.12  60 2.16  85 2.17   3 2.97   6 3.03
                            15 3.04  13 3.05   4 3.06
  33  0.444  0.167  0.110-  63 2.00  62 2.00  69 2.05  68 2.12  99 2.13  86 2.17  16 3.06  20 3.07
                             4 3.08   5 3.08   7 3.09
  34  0.674  0.496  0.987- 100 2.00 101 2.04  65 2.09 106 2.11  71 2.20  70 2.23   8 3.04  21 3.07
                            20 3.10
  35  0.549  0.827  0.232-  90 2.04  85 2.06  67 2.09  72 2.12  73 2.15  66 2.25   9 3.03
  36  0.784  0.173  0.101- 105 2.04  56 2.06  74 2.09  69 2.12  68 2.15  57 2.25   8 3.03
  37  0.660  0.504  0.347-  77 2.00  76 2.04  58 2.09  89 2.11  70 2.20  71 2.23   9 3.04  11 3.07
                            12 3.10
  38  0.553  0.833  0.560-  97 2.02  90 2.09  91 2.12  96 2.14  73 2.18  78 2.18  19 3.04  12 3.07
                            17 3.09
  39  0.775  0.160  0.456-  98 2.00  57 2.07  75 2.07  80 2.10  81 2.13  13 3.02  14 3.06  10 3.09

  40  0.000  0.498  0.337-  77 2.00  59 2.01  82 2.02  64 2.04  83 2.16  58 2.25   2 2.98  15 3.01
                             5 3.02  14 3.03  12 3.07   3 3.08
  41  0.882  0.838  0.558-  97 1.99  79 2.06  84 2.07 102 2.08  78 2.18 103 2.28  12 3.04  13 3.06
                            22 3.09
  42  0.114  0.173  0.449-  80 2.04  87 2.05 104 2.05  63 2.07  86 2.12  81 2.22  14 3.01   5 3.03

  43  0.324  0.501  0.346-  64 2.03  88 2.03  83 2.12  65 2.17  70 2.19  89 2.20  15 3.00   6 3.10
                             8 3.10
  44  0.227  0.817  0.565- 103 2.04  85 2.05  91 2.06 108 2.11  90 2.18  27 2.82  24 2.82  15 3.03

  45  0.436  0.172  0.452-  87 2.00  92 2.06  69 2.08  74 2.10  75 2.17  86 2.20   8 3.06  17 3.08
                            16 3.10
  46  0.327  0.507  0.666-  94 2.08  76 2.13  95 2.14  88 2.15 107 2.16  89 2.21  19 3.10
  47  0.219  0.827  0.885-  61 2.04 108 2.05  91 2.05  60 2.07  55 2.12  96 2.22  19 3.01   3 3.03

[...]

  51  0.780  0.167  0.774-  98 2.02 105 2.09 104 2.12  81 2.14  68 2.18  99 2.18  14 3.04  20 3.07
                            22 3.09
  52  0.007  0.493  0.668-  83 2.08 101 2.13  82 2.14 107 2.15  88 2.16 106 2.21  14 3.10
  53  0.897  0.828  0.881- 108 2.00 103 2.06  72 2.08  67 2.10 102 2.17  55 2.20   9 3.06  22 3.08
                             1 3.10
  54  0.107  0.183  0.769-  92 2.04  56 2.05 104 2.06  87 2.11 105 2.18  23 2.82  26 2.82  18 3.03

  55  0.999  0.741  0.004-   9 2.03  27 2.08  47 2.12   3 2.13  29 2.17  53 2.20
  56  0.000  0.255  0.999-  54 2.05  36 2.06  26 2.09  18 2.11   2 2.12  30 2.17
  57  0.890  0.084  0.228-  39 2.07  13 2.10  30 2.12  10 2.14   1 2.17  36 2.25
  58  0.884  0.585  0.217-   9 2.04  37 2.09  28 2.17   3 2.18  12 2.18  40 2.25
  59  0.107  0.427  0.111-  40 2.01  28 2.03  31 2.04   2 2.11  18 2.14   5 2.18
  60  0.107  0.910  0.105-  29 2.00  47 2.07   4 2.14  13 2.15   1 2.15  32 2.16
[...]
   -.312E-01 -.214E+03 0.121E+02   0.187E+01 0.230E+03 -.173E+02   -.183E+01 -.158E+02 0.525E+01   -.222E-02 -.366E-01 -.201E-01
   0.123E+02 0.228E+03 0.463E+01   -.164E+02 -.242E+03 -.707E+01   0.413E+01 0.141E+02 0.244E+01   -.204E-02 0.263E-01 -.314E-02
   0.143E+02 -.213E+03 0.704E+01   -.150E+02 0.232E+03 -.715E+01   0.682E+00 -.190E+02 0.112E+00   0.982E-03 0.201E-01 -.260E-02
   -.352E+00 0.207E+03 0.325E+01   0.265E+01 -.226E+03 -.239E+01   -.229E+01 0.192E+02 -.843E+00   -.424E-02 -.123E-01 -.733E-02
   0.370E+01 -.202E+03 0.570E+01   -.371E+01 0.221E+03 -.612E+01   0.115E-01 -.189E+02 0.418E+00   -.142E-02 0.141E-01 0.102E-02
   -.428E+00 0.192E+03 0.421E+01   0.288E+00 -.211E+03 -.474E+01   0.136E+00 0.189E+02 0.527E+00   0.696E-03 -.201E-01 -.869E-03
[...]
   0.106E+02 -.203E+03 0.200E+01   -.114E+02 0.222E+03 -.196E+01   0.846E+00 -.192E+02 -.314E-01   -.394E-02 0.135E-01 -.468E-02
   0.114E+01 0.203E+03 0.100E+02   0.230E+01 -.218E+03 -.129E+02   -.344E+01 0.151E+02 0.285E+01   -.838E-02 -.240E-01 0.423E-02
   -.561E+01 -.220E+03 -.921E+01   0.525E+01 0.237E+03 0.961E+01   0.360E+00 -.172E+02 -.399E+00   -.289E-02 -.290E-01 0.196E-02
   0.561E+01 0.220E+03 0.921E+01   -.525E+01 -.237E+03 -.961E+01   -.360E+00 0.172E+02 0.399E+00   0.289E-02 0.290E-01 -.196E-02
   -.853E+01 -.203E+03 0.858E+01   0.903E+01 0.219E+03 -.136E+02   -.497E+00 -.154E+02 0.498E+01   -.505E-03 0.226E-01 0.785E-02
   -.492E+01 0.192E+03 -.323E+01   0.444E+01 -.209E+03 0.306E+01   0.478E+00 0.173E+02 0.175E+00   0.744E-03 -.858E-02 -.151E-02
   -.174E+02 -.207E+03 -.106E+02   0.216E+02 0.222E+03 0.127E+02   -.426E+01 -.148E+02 -.211E+01   0.104E-01 0.980E-02 -.133E-02
   0.115E+02 0.209E+03 0.781E+01   -.165E+02 -.223E+03 -.108E+02   0.495E+01 0.144E+02 0.298E+01   0.722E-02 -.268E-01 0.339E-02
   -.435E+01 -.229E+03 -.607E+01   0.835E+01 0.243E+03 0.856E+01   -.401E+01 -.147E+02 -.249E+01   0.150E-01 -.379E-01 0.981E-02
   -.812E+01 0.225E+03 -.806E+01   0.120E+02 -.236E+03 0.102E+02   -.386E+01 0.112E+02 -.215E+01   0.166E-01 0.384E-01 -.742E-02
   -.127E+02 -.214E+03 -.174E+01   0.133E+02 0.233E+03 0.151E+01   -.576E+00 -.186E+02 0.234E+00   0.220E-02 0.225E-01 -.733E-03
   -.816E+01 0.221E+03 0.135E+02   0.114E+02 -.236E+03 -.185E+02   -.325E+01 0.153E+02 0.500E+01   0.171E-01 0.226E-02 -.109E-01
   0.957E+01 -.226E+03 0.641E+01   -.133E+02 0.237E+03 -.861E+01   0.374E+01 -.119E+02 0.221E+01   -.477E-02 0.189E-02 -.194E-01
   0.239E+01 0.201E+03 0.192E+02   -.216E+01 -.218E+03 -.197E+02   -.235E+00 0.175E+02 0.570E+00   0.170E-02 -.257E-01 0.954E-03
   -.333E-02 -.248E-04 0.185E-02   -.585E-12 0.105E-11 0.401E-12   -.447E-14 0.142E-13 -.211E-14   0.326E-06 -.690E-06 0.177E-06

 POSITION                                       TOTAL-FORCE (eV/Angst)
     13.21304     15.43534      7.60047        -0.003390      0.000159     -0.001558
      8.88961      5.18253      1.83363        -0.002227      0.000132     -0.004447
      1.56494     10.34790      0.89235         0.005350     -0.001435      0.004132
      2.85443     15.49407      0.08550        -0.000059     -0.000338      0.000723
      2.83142      5.14525      1.62662        -0.005350      0.001435     -0.004132
      4.28453     10.29380      0.82666         0.002227     -0.000132      0.004447
      5.89694     15.49266      0.11514         0.001660      0.000557     -0.000376
      5.86758      5.18401      1.72792        -0.004924      0.003473     -0.000517
      7.30657     10.29233      0.93236         0.004924     -0.003473      0.000517
      7.27720     -0.01633      2.54515        -0.001660     -0.000557      0.000376
      7.46324      5.17991      4.29570        -0.002385      0.001061     -0.002322
      8.91855     10.34260      3.49564         0.004360     -0.001732      0.003538
      1.54193     -0.00092      2.43347         0.000059      0.000338     -0.000723
     10.20988      5.11657      4.23924        -0.004531      0.001968     -0.004405
      2.88565     10.28701      3.30022         0.001414     -0.000171      0.003058
      4.47249      0.01747      2.57730         0.003390     -0.000159      0.001558
      5.84750     -0.02524      5.01987        -0.000514     -0.001133     -0.001740
      6.02210      5.18262      6.73623        -0.001414      0.000171     -0.003058
      7.47565     10.33623      5.93852         0.004531     -0.001968      0.004405
      8.76698      5.11021      6.68213        -0.004360      0.001732     -0.003538
     10.22229     10.27290      5.88207         0.002385     -0.001061      0.002322
      3.06026     15.49487      5.01658         0.000514      0.001133      0.001740
      4.43446      5.19474      4.21570        -0.000951      0.003775     -0.006749
      5.87808     10.30423      3.40156         0.002833     -0.001719      0.005591
      8.85945     -0.02689      5.10586        -0.000000      0.000000      0.000000
     11.80745      5.14858      6.77620        -0.002833      0.001719     -0.005591
      4.47329     10.27488      5.82075         0.000951     -0.003775      0.006749
      4.51891      7.70586      7.41618        -0.000303     -0.004481      0.000880
      8.79130     12.89062      1.77990         0.003359     -0.000691      0.002590
      1.46471      2.62974      0.81833        -0.012883      0.001764     -0.009928
      7.39629      7.75165      7.51790        -0.004399      0.001637     -0.001821
      2.93166     12.86341      1.70064         0.012883     -0.001764      0.009928
      4.38284      2.58571      0.88038        -0.003359      0.000691     -0.002590
     10.33951      7.66021      7.48866        -0.005685     -0.000242     -0.003224
      5.84743     12.80139      1.79605         0.007597     -0.003106      0.004365
      7.32672      2.67494      0.86424        -0.007597      0.003106     -0.004365
      7.34602      7.79260      2.68910         0.005685      0.000242      0.003224
      7.35716     12.88125      4.25502         0.005233     -0.000923      0.000567
      8.86800      2.45524      3.54051         0.009013     -0.005280      0.004223
      1.51147      7.71798      2.51855         0.004399     -0.001637      0.001821
     10.23389     12.96503      4.28949         0.003014      0.000795      0.001692
      3.02502      2.67418      3.36711        -0.000338      0.001674     -0.006905
      4.38884      7.76377      2.62027         0.000303      0.004481     -0.000880
      4.54248     12.62374      4.27145         0.014385     -0.008143      0.010444
      5.87208      2.64901      3.45145         0.005226     -0.002285      0.000672
      5.85744      7.85067      5.03502         0.000729     -0.000544     -0.000401
      5.88273     12.79545      6.66934         0.000338     -0.001674      0.006905
      7.45164      2.48778      5.88827        -0.003014     -0.000795     -0.001692
      8.84277      7.72640      5.08888        -0.000000     -0.000000      0.000000
      8.81753     12.99757      6.63726        -0.009013      0.005280     -0.004223
     10.32837      2.57156      5.92275        -0.005233      0.000923     -0.000567
      3.05031      7.61896      5.00143        -0.000729      0.000544      0.000401
     11.81345     12.80380      6.72632        -0.005226      0.002285     -0.000672
      4.36528      2.84588      5.76500        -0.014385      0.008143     -0.010444
      8.77100     11.47281      0.15620         0.005569     -0.000429      0.003699
      4.49677      3.93651      7.49918        -0.005190     -0.001866     -0.005305
      8.84019      1.27017      1.83733         0.002446     -0.002602      0.000508
      8.72214      9.05552      1.74029         0.002321      0.002053      0.001558
      1.42931      6.61509      0.83211        -0.002777     -0.001349     -0.002375
      1.37235     14.11405      0.77071        -0.003214      0.001979     -0.001606
[...]
      5.94542      9.10570      6.69392         0.004413     -0.000591      0.003631
      7.37679      6.58823      5.86474        -0.001021     -0.000735     -0.002755
      7.33037     14.30236      5.86432        -0.001734     -0.001032     -0.000211
      8.83872     11.76690      5.06799         0.004086      0.002217      0.003560
      8.84682      3.68591      5.10978        -0.004086     -0.002217     -0.003560
      8.91991      1.13449      6.79794         0.000942      0.000401      0.001540
      8.90565      8.83964      6.76385         0.001269      0.002785      0.003309
     10.32715      6.32669      5.94765        -0.004343      0.000196     -0.003814
     10.35193     14.22960      5.94724        -0.000606     -0.000534     -0.000491
     11.77058     11.49773      5.14244         0.004661      0.000818      0.005386
     11.68337      3.97653      5.09611        -0.003383      0.002483     -0.005039
     11.80479      1.35040      6.80136         0.000765      0.004398      0.000057
     11.74177      9.06661      6.80762        -0.000982     -0.002325      0.002637
      4.54644      6.34236      5.88817        -0.000860     -0.000414     -0.004595
      4.45354     14.04025      5.84351        -0.000859     -0.001901     -0.000640
    total drift:                               -0.003327     -0.000025      0.001848

  FREE ENERGIE OF THE ION-ELECTRON SYSTEM (eV)
  free  energy   TOTEN  =      -876.4392354105 eV

  energy  without entropy=     -876.4069074239  energy(sigma->0) =     -876.42307142

 d Force = 0.1526909E-03[ 0.951E-04, 0.210E-03]  d Energy = 0.1350122E-03 0.177E-04
 d Force =-0.7779030E+00[-0.779E+00,-0.777E+00]  d Ewald  = 0.7170286E+00-0.149E+01

 Quasi-Newton relaxation of ions (Broydens 2nd method)
  g(Force)  = 0.208E-03   g(Stress)= 0.128E-04

 retain information from N=  2 steps
 eigenvalues of (default step * inverse Hessian matrix)
  average eigenvalue of G=   0.6498
 eigenvalue spectrum of G is  0.2846  1.0151

 reached required accuracy - stopping structural energy minimisation

volume of typ            1:    21.9 %

[...]

volume of typ            4:     8.7 %

total charge

# of ion       s       p       d       tot
    1        0.225   6.063   2.285   8.573
    2        0.228   6.077   2.254   8.560
    3        0.228   6.078   2.250   8.556
    4        0.244   6.104   2.143   8.491
    5        0.228   6.078   2.250   8.556
    6        0.228   6.077   2.254   8.560
    7        0.235   6.087   2.187   8.509
    8        0.272   6.155   1.970   8.396
    9        0.272   6.155   1.970   8.396
   10        0.235   6.087   2.187   8.509
   11        0.229   6.078   2.251   8.558
   12        0.229   6.078   2.251   8.558
   13        0.244   6.104   2.143   8.491
   14        0.240   6.091   2.185   8.516
   15        0.240   6.090   2.187   8.517
   16        0.225   6.063   2.285   8.573
   17        0.234   6.087   2.181   8.503
   18        0.240   6.090   2.187   8.517
   19        0.240   6.091   2.185   8.516
   20        0.229   6.078   2.251   8.558
   21        0.229   6.078   2.251   8.558
   22        0.234   6.087   2.181   8.503
   23        0.204   0.231   7.951   8.386
   24        0.205   0.231   7.953   8.389
   25        0.203   0.223   8.001   8.427
   26        0.205   0.231   7.953   8.389
   27        0.204   0.231   7.951   8.386
   28        2.076   0.252   0.099   2.428
   29        2.087   0.291   0.120   2.499
   30        2.086   0.286   0.118   2.490
   31        2.091   0.300   0.127   2.517
   32        2.086   0.286   0.118   2.490
   33        2.087   0.291   0.120   2.499
   34        2.081   0.271   0.108   2.460
   35        2.078   0.256   0.103   2.437
   36        2.078   0.256   0.103   2.437
   37        2.081   0.271   0.108   2.460
   38        2.076   0.251   0.099   2.427
   39        2.080   0.264   0.108   2.451
   40        2.091   0.300   0.127   2.517
   41        2.082   0.269   0.110   2.461
   42        2.084   0.277   0.113   2.474
   43        2.076   0.252   0.099   2.428
   44        2.079   0.258   0.102   2.440
   45        2.082   0.270   0.109   2.461
   46        2.070   0.233   0.089   2.392
   47        2.084   0.277   0.113   2.474
   48        2.082   0.269   0.110   2.461
   49        2.093   0.307   0.130   2.530
   50        2.080   0.264   0.108   2.451
   51        2.076   0.251   0.099   2.427
   52        2.070   0.233   0.089   2.392
   53        2.082   0.270   0.109   2.461
   54        2.079   0.258   0.102   2.440
   55        1.246   2.847   0.006   4.098
   56        1.242   2.842   0.005   4.089
   57        1.245   2.845   0.006   4.096
   58        1.246   2.847   0.006   4.099
   59        1.244   2.848   0.006   4.099
   60        1.246   2.841   0.006   4.094
[...]
   94        1.243   2.842   0.005   4.090
   95        1.244   2.845   0.007   4.096
   96        1.243   2.842   0.005   4.090
   97        1.241   2.851   0.006   4.098
   98        1.241   2.851   0.006   4.098
   99        1.243   2.842   0.005   4.090
  100        1.243   2.850   0.006   4.099
  101        1.243   2.843   0.005   4.091
  102        1.245   2.838   0.005   4.088
  103        1.243   2.841   0.005   4.090
  104        1.242   2.836   0.004   4.082
  105        1.245   2.838   0.006   4.090
  106        1.246   2.841   0.005   4.092
  107        1.242   2.829   0.005   4.076
  108        1.244   2.840   0.006   4.090
tot         129.60  295.89   91.35  516.84

magnetization (x)

# of ion       s       p       d       tot
    1       -0.000   0.000   0.004   0.004
    2        0.000  -0.000  -0.015  -0.015
    3        0.000  -0.000  -0.012  -0.012
    4        0.000   0.000   0.024   0.024
    5        0.000  -0.000  -0.012  -0.012
    6        0.000  -0.000  -0.015  -0.015
    7        0.001   0.001   0.034   0.035
    8        0.000   0.001   0.012   0.013
    9        0.000   0.001   0.012   0.013
   10        0.001   0.001   0.034   0.035
   11        0.000   0.000  -0.014  -0.014
   12        0.000  -0.000  -0.012  -0.011
   13        0.000   0.000   0.024   0.024
   14        0.000   0.000   0.001   0.001
   15        0.000   0.000  -0.003  -0.002
   16       -0.000   0.000   0.004   0.004
   17        0.000   0.001   0.032   0.033
   18        0.000   0.000  -0.003  -0.002
   19        0.000   0.000   0.001   0.001
   20        0.000  -0.000  -0.012  -0.011
   21        0.000   0.000  -0.014  -0.014
   22        0.000   0.001   0.032   0.033
   23       -0.001  -0.001  -1.426  -1.428
   24       -0.001  -0.001  -1.419  -1.421
   25       -0.002  -0.001  -1.313  -1.317
   26       -0.001  -0.001  -1.419  -1.421
   27       -0.001  -0.001  -1.426  -1.428
   28       -0.001  -0.003  -0.001  -0.004
   29       -0.003  -0.005  -0.001  -0.009
   30       -0.001  -0.002  -0.001  -0.003
   31       -0.001  -0.002  -0.001  -0.003
   32       -0.001  -0.002  -0.001  -0.003
   33       -0.003  -0.005  -0.001  -0.009
   34       -0.002  -0.003  -0.001  -0.005
   35        0.000   0.000   0.000   0.001
   36        0.000   0.000   0.000   0.001
   37       -0.002  -0.003  -0.001  -0.005
   38       -0.001  -0.002  -0.000  -0.003
   39        0.000   0.000   0.000   0.001
   40       -0.001  -0.002  -0.001  -0.003
   41       -0.001  -0.001  -0.000  -0.002
   42       -0.002  -0.004  -0.001  -0.007
   43       -0.001  -0.003  -0.001  -0.004
   44        0.000   0.001   0.000   0.002
   45       -0.000  -0.001  -0.000  -0.001
   46       -0.000  -0.001  -0.000  -0.002
   47       -0.002  -0.004  -0.001  -0.007
   48       -0.001  -0.001  -0.000  -0.002
   49       -0.001  -0.003  -0.001  -0.005
   50        0.000   0.000   0.000   0.001
   51       -0.001  -0.002  -0.000  -0.003
   52       -0.000  -0.001  -0.000  -0.002
   53       -0.000  -0.001  -0.000  -0.001
   54        0.000   0.001   0.000   0.002
   55       -0.004  -0.042  -0.000  -0.046
   56       -0.004  -0.054  -0.000  -0.059
   57       -0.000  -0.000   0.000  -0.000
   58        0.000   0.000  -0.000   0.000
   59       -0.000  -0.002  -0.000  -0.002
   60       -0.000  -0.000   0.000  -0.000
[...]
   94       -0.005  -0.056  -0.000  -0.061
   95       -0.000  -0.003  -0.000  -0.003
   96       -0.004  -0.044  -0.000  -0.049
   97       -0.000  -0.002  -0.000  -0.002
   98       -0.000  -0.002  -0.000  -0.002
   99       -0.004  -0.044  -0.000  -0.048
  100       -0.000  -0.001  -0.000  -0.001
  101       -0.005  -0.058  -0.000  -0.063
  102       -0.003  -0.035   0.000  -0.038
  103       -0.004  -0.057  -0.000  -0.061
  104       -0.009  -0.111  -0.000  -0.121
  105        0.000   0.001   0.000   0.001
  106       -0.004  -0.042  -0.000  -0.046
  107       -0.009  -0.114  -0.000  -0.123
  108       -0.000  -0.000   0.000  -0.000
tot          -0.15   -1.55   -6.92   -8.62