 vasp.5.4.4.18Apr17-6-g9f103f2a35 (build May 12 2020 05:39:39) gamma-only

 MD_VERSION_INFO: Compiled 2020-05-12T12:39:39-UTC in devlin.sd.materialsdesign.
 com:/home/medea2/data/build/wwolf/vasp-gpu5.4.4/13047/x86_64/src/src/build/gam
 from svn 13047

 executed on                        Lin64 date 2023.04.03  10:01:29

 INCAR:
 POTCAR:    PAW_PBE Ta_pv 07Sep2000
 POTCAR:    PAW_PBE Ni 02Aug2007
 POTCAR:    PAW_PBE Li_sv 10Sep2004
 POTCAR:    PAW_PBE O 08Apr2002

 POTCAR:    PAW_PBE Ta_pv 07Sep2000

 POTCAR:    PAW_PBE Ni 02Aug2007

 POTCAR:    PAW_PBE Li_sv 10Sep2004

 POTCAR:    PAW_PBE O 08Apr2002

 Optimization of the real space projectors (new method)

 maximal supplied QI-value         = 15.12
 optimisation between [QCUT,QGAM] = [ 11.34, 22.83] = [ 36.00,145.93] Ry
 Optimized for a Real-space Cutoff    1.61 Angstroem

   l    n(q)    QCUT    max X(q) W(low)/X(q) W(high)/X(q)  e(spline)
   1     11    11.338     4.092    0.40E-05    0.64E-05    0.47E-07
   1     11    11.338     4.834    0.13E-04    0.44E-04    0.21E-06
   2     10    11.338    62.294    0.15E-03    0.31E-03    0.77E-06
   2     10    11.338    50.966    0.15E-03    0.31E-03    0.77E-06
   0     11    11.338   103.792    0.33E-04    0.19E-04    0.90E-07
   0     11    11.338    56.335    0.26E-04    0.17E-04    0.79E-07
 Optimization of the real space projectors (new method)

[...]

   l    n(q)    QCUT    max X(q) W(low)/X(q) W(high)/X(q)  e(spline)
   0      7    11.276    10.506    0.54E-04    0.58E-04    0.16E-07
   0      7    11.276     8.367    0.11E-03    0.14E-03    0.35E-07
   1      7    11.276     8.983    0.23E-03    0.43E-03    0.86E-07
 Optimization of the real space projectors (new method)

 maximal supplied QI-value         = 24.76
 optimisation between [QCUT,QGAM] = [ 11.39, 22.77] = [ 36.31,145.25] Ry
 Optimized for a Real-space Cutoff    1.10 Angstroem

   l    n(q)    QCUT    max X(q) W(low)/X(q) W(high)/X(q)  e(spline)
   0      7    11.387    20.381    0.22E-03    0.48E-03    0.18E-06
   0      7    11.387    15.268    0.22E-03    0.52E-03    0.19E-06
   1      7    11.387     5.964    0.22E-03    0.73E-03    0.24E-06
   1      7    11.387     5.382    0.19E-03    0.60E-03    0.21E-06

  PAW_PBE Ta_pv 07Sep2000               :
  PAW_PBE Ni 02Aug2007                  :
  PAW_PBE Li_sv 10Sep2004               :
  PAW_PBE O 08Apr2002                   :

 POSCAR: ce3633_1
  positions in direct lattice
 exchange correlation table for  LEXCH =       14
   RHO(1)=    0.500       N(1)  =     2000
   RHO(2)=  100.500       N(2)  =     4000

 ion  position               nearest neighbor table
   1  0.998  0.002  1.000-  93 2.14 105 2.15  57 2.16  60 2.17  72 2.18 108 2.18   7 2.85  20 2.86
                            10 2.86  13 2.88  16 2.88   4 2.90  36 3.03
   2  0.894  0.336  0.204-  59 2.05  56 2.07  74 2.08  77 2.12  80 2.12  71 2.17  21 2.63   8 2.90
                            26 2.90  28 2.91  30 2.96  40 2.99   5 2.99  36 3.01  39 3.03  23 3.05
   3  0.111  0.666  0.111-  79 2.16  61 2.16  55 2.17  64 2.17  58 2.18  94 2.18  22 2.84  17 2.84
                             9 2.84   6 2.85  12 2.85  14 2.85  47 3.02  29 3.03  28 3.08  31 3.10
   4  0.335  1.000  0.989-  99 2.10  60 2.10  66 2.11  63 2.12  93 2.14  96 2.16  16 2.73  18 2.87
                             1 2.90  24 3.00   7 3.01  13 3.02  33 3.02  32 3.06  47 3.06
   5  0.235  0.333  0.205-  62 2.06  59 2.08  80 2.10  86 2.10  83 2.12  65 2.18  19 2.63  26 2.84
                             8 2.87  31 2.94  30 2.94   2 2.99  40 3.02  23 3.05  33 3.07  42 3.10
   6  0.438  0.667  0.107-  67 2.08  70 2.09  61 2.10 100 2.11  64 2.13  85 2.13  17 2.79   3 2.85
                            14 2.90  27 2.94  25 2.97  50 2.98  34 3.03  43 3.05   9 3.07  35 3.07
   7  0.677  0.999  0.991-  66 2.11  72 2.11  69 2.12  99 2.12 102 2.16 105 2.16  20 2.75   1 2.85
                            18 2.88  10 2.98  24 3.01   4 3.01  33 3.07  36 3.08  53 3.10
   8  0.554  0.339  0.223-  65 2.12  89 2.13  71 2.14  68 2.17  74 2.18  86 2.20   5 2.87  19 2.89
                            15 2.89  11 2.89   2 2.90  21 2.91  43 3.00  37 3.00  34 3.09
   9  0.789  0.666  0.105-  70 2.08  67 2.09 106 2.11  73 2.12  55 2.12  58 2.13  22 2.78   3 2.84
                            27 2.91  12 2.91  53 2.96  29 3.00  25 3.00  34 3.02  37 3.05   6 3.07
  10  0.677  0.999  0.332-  72 2.11  90 2.12  75 2.12  69 2.12  78 2.15  57 2.16  13 2.75   1 2.86
                            18 2.87   7 2.98  16 3.00  24 3.01  29 3.05  45 3.07  36 3.08
  11  0.535  0.335  0.563-  95 2.07  92 2.09  74 2.10  77 2.10  98 2.10  89 2.16  15 2.65  26 2.71
                             8 2.89  48 2.92  19 2.96  46 2.97  23 3.06  39 3.06   2 3.14
  12  0.788  0.664  0.439-  97 2.07  76 2.09  58 2.11  82 2.12  73 2.12  79 2.13  14 2.80   3 2.85
                             9 2.91  27 2.92  41 2.99  25 3.01  29 3.01  38 3.03  37 3.03  17 3.05
  13  0.990  0.001  0.334-  63 2.11  84 2.11  60 2.11  81 2.12  57 2.15  78 2.17  10 2.75  18 2.86
                             1 2.88  20 2.99  24 3.00   4 3.02  29 3.06  32 3.06
  14  0.108  0.666  0.439- 103 2.07  88 2.09  79 2.10  64 2.11  82 2.13  85 2.13  12 2.80   3 2.85
                             6 2.90  27 2.91  25 2.95  41 3.00  22 3.04  43 3.06  44 3.07  52 3.10
  15  0.233  0.334  0.562-  92 2.07 107 2.08 104 2.08  83 2.11  86 2.12  89 2.18  11 2.65  26 2.78
                             8 2.89  54 2.95  21 2.95  46 2.97  23 3.05  45 3.09  43 3.10   5 3.11
  16  0.334  0.999  0.676- 108 2.10  75 2.10  90 2.11  87 2.11  93 2.15  96 2.15   4 2.73  18 2.88
                             1 2.88  24 2.99  20 3.00  10 3.00  45 3.04  47 3.05
  17  0.438  0.664  0.787-  97 2.07  76 2.09 100 2.09  94 2.12  91 2.13  61 2.13   6 2.79   3 2.84
                            22 2.89  27 2.95  25 2.98  50 3.00  47 3.00  38 3.02  46 3.04  31 3.05
  18  0.668  0.997  0.666-  78 2.14  96 2.14 102 2.16  75 2.17  99 2.17  81 2.19  13 2.86   4 2.87
                            20 2.87  10 2.87   7 2.88  16 2.88  41 3.07  50 3.08
  19  0.534  0.334  0.903-  95 2.08  62 2.08  68 2.09 101 2.11  98 2.11  65 2.16   5 2.63  26 2.74
                             8 2.89  48 2.91  31 2.93  11 2.96  23 3.06  51 3.07  49 3.10  21 3.16
  20  0.991  1.000  0.676-  84 2.10  87 2.11 108 2.11  81 2.14 105 2.15 102 2.16   7 2.75   1 2.86
                            18 2.87  13 2.99  24 2.99  16 3.00
  21  0.896  0.337  0.901- 107 2.04  56 2.08  68 2.09 101 2.11 104 2.12  71 2.16   2 2.63  26 2.87
                            28 2.90   8 2.91  15 2.95  54 2.96  36 3.03  23 3.04  51 3.05  52 3.06
  22  0.108  0.666  0.787- 103 2.09  88 2.09 106 2.10  91 2.12  55 2.12  94 2.13   9 2.78   3 2.84
                            17 2.89  27 2.92  25 2.96  53 2.98  47 3.00  14 3.04  28 3.04  46 3.06
  23  0.888  0.333  0.557-  80 2.07 104 2.07 101 2.09  77 2.09  98 2.10  83 2.11  39 2.84  51 2.84
                            21 3.04  15 3.05   2 3.05   5 3.05  11 3.06  19 3.06
  24  0.333  0.999  0.334-  66 2.08  87 2.08  84 2.09  63 2.09  90 2.10  69 2.12  20 2.99  16 2.99
                            13 3.00   4 3.00   7 3.01  10 3.01
  25  0.442  0.667  0.445-  70 2.04  88 2.06  91 2.06  73 2.08  76 2.11  85 2.12  14 2.95  22 2.96
                             6 2.97  17 2.98   9 3.00  12 3.01
  26  0.233  0.329  0.880-  95 2.10  56 2.11  92 2.11  62 2.19  59 2.24 107 2.27  11 2.71  19 2.74
                            48 2.76  15 2.78   5 2.84  21 2.87   2 2.90
  27  0.780  0.662  0.777- 106 2.05 100 2.07  97 2.08 103 2.10  82 2.10  67 2.12   9 2.91  14 2.91
                            12 2.92  22 2.92   6 2.94  17 2.95
  28  0.008  0.496  0.997-  94 2.03 107 2.05  71 2.07  59 2.07  58 2.12 106 2.20  21 2.90   2 2.91
                            22 3.04   3 3.08   9 3.10
  29  0.887  0.830  0.225-  55 2.04  79 2.04  78 2.07  73 2.11  72 2.14  60 2.17   9 3.00  12 3.01
                             3 3.03  10 3.05  13 3.06
  30  0.113  0.176  0.102-  56 1.94  62 1.94  93 2.07  57 2.11  80 2.12   5 2.94   2 2.96
  31  0.328  0.495  0.999-  95 2.05  59 2.06  94 2.06  65 2.06  64 2.13 100 2.20  19 2.93   5 2.94
                            17 3.05   3 3.10   6 3.10
  32  0.228  0.839  0.228-  84 2.09  85 2.09  66 2.09  60 2.11  61 2.15  79 2.15   4 3.06  13 3.06
                             6 3.09  14 3.10
  33  0.436  0.160  0.122-  63 2.06  62 2.07  99 2.09  69 2.09  86 2.16   4 3.02   7 3.07   5 3.07

  34  0.670  0.506  0.992- 100 2.02 106 2.02  65 2.06  71 2.06 101 2.16  70 2.18   9 3.02   6 3.03
                             8 3.09
  35  0.544  0.830  0.237-  85 2.02  90 2.10  73 2.11  72 2.16  67 2.21  66 2.24   6 3.07
  36  0.779  0.168  0.111- 105 2.03  57 2.03  56 2.12  69 2.13  74 2.19  68 2.21   2 3.01   1 3.03
                            21 3.03   7 3.08  10 3.08
  37  0.657  0.504  0.336-  89 1.96  71 2.03  58 2.08  76 2.12  70 2.14  77 2.23   8 3.00  12 3.03
                             9 3.05
  38  0.552  0.824  0.552-  91 2.02  73 2.03  96 2.11  78 2.12  97 2.16  90 2.18  17 3.02  12 3.03

  39  0.787  0.179  0.448-  80 2.05  74 2.07  98 2.08  81 2.14  57 2.18  23 2.84   2 3.03  11 3.06

[...]

  41  0.882  0.827  0.563- 102 2.01  79 2.06  78 2.09  97 2.12 103 2.13  84 2.22  12 2.99  14 3.00
                            18 3.07
  42  0.112  0.168  0.444-  86 2.05  81 2.08 104 2.19  63 2.19  87 2.20  80 2.20   5 3.10
  43  0.339  0.503  0.336-  89 1.97  65 2.04  64 2.09  88 2.13  70 2.16  83 2.21   8 3.00   6 3.05
                            14 3.06  15 3.10
  44  0.237  0.830  0.544-  85 2.01  91 2.09  90 2.11 108 2.17 103 2.21  84 2.24  14 3.07
  45  0.437  0.160  0.442-  87 2.07  69 2.09  92 2.10  75 2.10  86 2.16  16 3.04  10 3.07  15 3.09

  46  0.334  0.500  0.663-  89 2.01  94 2.05 107 2.12  95 2.13  76 2.17  88 2.17  11 2.97  15 2.97
                            17 3.04  22 3.06
  47  0.225  0.829  0.887-  61 2.03  55 2.03  96 2.08  91 2.10 108 2.16  60 2.17  22 3.00  17 3.00
                             3 3.02  16 3.05   4 3.06
  48  0.432  0.178  0.784-  62 1.94  92 1.94  98 2.08  93 2.11  75 2.27  99 2.28  26 2.76  19 2.91
                            11 2.92
  49  0.681  0.498  0.667-  82 2.00 100 2.10 101 2.12  95 2.17  77 2.20  76 2.25  12 3.08  19 3.10

  50  0.564  0.827  0.882- 102 2.02  61 2.06  96 2.09  97 2.11  67 2.12  66 2.25   6 2.98  17 3.00
                            18 3.08
  51  0.787  0.178  0.765- 104 2.06  68 2.08  98 2.11  81 2.13 105 2.18  23 2.84  21 3.05  19 3.07

  52  0.986  0.498  0.666-  82 2.00 107 2.09 106 2.09 101 2.16  83 2.21  88 2.25  21 3.06  14 3.10

  53  0.882  0.824  0.882- 102 2.04  67 2.06 103 2.07  55 2.08  72 2.23 108 2.25   9 2.96  22 2.98
                             7 3.10
  54  0.113  0.176  0.785-  56 1.94  92 1.95  93 2.07 105 2.11 104 2.12  15 2.95  21 2.96
  55  0.001  0.756  1.000-  47 2.03  29 2.04  53 2.08   9 2.12  22 2.12   3 2.17
  56  0.008  0.248  0.996-  54 1.94  30 1.94   2 2.07  21 2.08  26 2.11  36 2.12
  57  0.891  0.093  0.219-  36 2.03  30 2.11  13 2.15   1 2.16  10 2.16  39 2.18
  58  0.887  0.578  0.223-  37 2.08  12 2.11  28 2.12   9 2.13   3 2.18  40 2.21
[...]
   0.185E+02 0.231E+02 0.214E+02   -.185E+02 -.228E+02 -.209E+02   -.735E-01 -.355E+00 -.573E+00   -.429E-03 0.169E-02 0.373E-03
   0.319E+01 -.210E+03 0.886E+00   -.291E+01 0.228E+03 -.790E+00   -.323E+00 -.179E+02 -.985E-01   -.171E-02 -.324E-02 -.121E-02
   0.325E+02 0.197E+03 -.235E+02   -.307E+02 -.213E+03 0.226E+02   -.186E+01 0.165E+02 0.979E+00   -.157E-02 0.557E-02 0.578E-03
   0.623E+01 -.197E+03 -.232E+02   -.613E+01 0.215E+03 0.233E+02   -.113E+00 -.183E+02 -.652E-01   -.623E-03 0.438E-02 -.988E-03
   -.152E+02 0.221E+03 0.732E+01   0.153E+02 -.240E+03 -.730E+01   -.912E-01 0.194E+02 -.554E-02   0.113E-02 -.166E-02 0.174E-03
   -.860E+00 -.191E+03 0.520E+02   0.127E+01 0.205E+03 -.601E+02   -.398E+00 -.136E+02 0.810E+01   -.246E-02 0.391E-02 -.153E-03
   0.147E+01 0.196E+03 -.417E+01   -.171E+01 -.216E+03 0.436E+01   0.236E+00 0.200E+02 -.188E+00   -.534E-03 -.671E-02 -.116E-02
[...]
   0.462E+02 -.203E+03 -.203E+02   -.530E+02 0.218E+03 0.235E+02   0.683E+01 -.150E+02 -.327E+01   0.137E-02 0.552E-02 0.269E-03
   0.520E+01 0.195E+03 0.354E+01   -.440E+01 -.214E+03 -.368E+01   -.814E+00 0.187E+02 0.154E+00   0.218E-02 -.727E-02 0.522E-03
   0.779E+01 -.219E+03 -.421E+01   -.313E+01 0.236E+03 0.701E+01   -.481E+01 -.167E+02 -.281E+01   0.168E-01 -.151E-01 0.836E-02
   -.240E+02 0.223E+03 0.924E+01   0.279E+02 -.237E+03 -.111E+02   -.390E+01 0.137E+02 0.182E+01   0.126E-02 0.352E-02 -.526E-03
   -.195E+02 -.210E+03 0.419E+01   0.202E+02 0.229E+03 -.460E+01   -.629E+00 -.196E+02 0.416E+00   0.129E-02 0.209E-02 -.128E-02
   -.949E+01 0.214E+03 0.920E+01   0.158E+02 -.231E+03 -.124E+02   -.636E+01 0.161E+02 0.330E+01   0.131E-01 0.105E-01 -.650E-02
   -.226E+01 -.198E+03 0.120E+02   0.226E+01 0.212E+03 -.171E+02   0.181E-01 -.135E+02 0.508E+01   0.133E-02 0.679E-02 -.196E-03
   -.503E+01 0.186E+03 -.526E+01   0.471E+01 -.204E+03 0.511E+01   0.309E+00 0.179E+02 0.155E+00   0.188E-03 -.937E-02 -.166E-04
   -.234E+02 -.246E+03 0.105E+02   0.205E+02 0.263E+03 -.950E+01   0.309E+01 -.170E+02 -.113E+01   -.173E-01 -.158E-01 0.656E-02
   0.144E+02 0.219E+03 0.105E+02   -.182E+02 -.233E+03 -.123E+02   0.386E+01 0.139E+02 0.174E+01   -.150E-02 0.394E-02 0.188E-02
   0.225E+02 -.198E+03 0.857E+01   -.227E+02 0.216E+03 -.888E+01   0.109E+00 -.184E+02 0.310E+00   -.647E-03 0.232E-02 -.293E-03
   0.313E+00 0.231E+03 -.373E+01   -.490E+01 -.249E+03 0.152E+01   0.459E+01 0.176E+02 0.234E+01   -.164E-01 0.102E-01 -.104E-01
   -.517E+02 -.188E+03 -.204E+02   0.590E+02 0.203E+03 0.234E+02   -.724E+01 -.148E+02 -.301E+01   -.254E-02 0.442E-02 0.245E-02
   0.142E+01 0.208E+03 0.842E+01   -.209E+01 -.227E+03 -.825E+01   0.672E+00 0.195E+02 -.167E+00   -.208E-02 -.618E-02 0.116E-02
   0.529E+01 -.181E+02 -.478E+01   -.387E-12 0.205E-11 0.190E-12   -.528E+01 0.181E+02 0.475E+01   -.695E-02 -.551E-03 0.516E-02

 POSITION                                       TOTAL-FORCE (eV/Angst)
     13.07331      0.03683      7.52944        -0.000930     -0.001609     -0.006021
      8.72657      5.23041      1.53797         0.039564      0.005820     -0.067781
      1.46202     10.38791      0.83978        -0.013520     -0.026148     -0.020488
      7.23894     15.51452      7.46627        -0.027904     -0.023564     -0.003681
      2.89606      5.19589      1.53540         0.001797      0.024072     -0.068869
      4.33562     10.34407      0.74063        -0.024234     -0.010467      0.049523
     10.24293     15.51659      7.48206         0.008444     -0.020378     -0.001392
      5.81677      5.26900      1.68737        -0.008881      0.079541     -0.005827
      7.29792     10.34650      0.72808        -0.025827     -0.010257      0.049452
      7.34954     15.50153      2.52500         0.016389     -0.033923      0.012860
      7.16494      5.20757      4.29118        -0.023596      0.017351      0.018897
      8.85190     10.29216      3.42684        -0.081172     -0.005002      0.063811
     10.10638      0.01731      2.52672        -0.023296     -0.023241     -0.007733
      2.78565     10.30693      3.42724         0.063343     -0.001374      0.068012
      4.46626      5.20934      4.28650         0.025772      0.012237      0.009479
      5.86740     15.49016      5.10750         0.002008     -0.031801      0.005530
      7.35114     10.32481      5.95783        -0.012300      0.000689     -0.015328
      8.73122     15.48111      5.02955        -0.013061     -0.066977     -0.014598
      8.58724      5.21149      6.76682        -0.059117      0.011093      0.015662
     11.59370     15.51180      5.11567         0.006349     -0.023214      0.007589
     11.77108      5.24640      6.77262         0.078428     -0.013864     -0.004918
      4.26756     10.34267      5.95624        -0.076688      0.022123     -0.060234
     10.18083      5.08235      4.19716         0.004733     -0.069267     -0.002336
      4.37390     15.49351      2.53353         0.011058      0.009790      0.003298
      5.80974     10.27174      3.36208         0.002536     -0.089931      0.042438
      5.94354      4.69607      6.57131        -0.097961     -0.154843      0.089737
     10.28311     10.33471      5.76653         0.610665     -0.054130     -0.406271
      4.42834      7.68756      7.50039         0.019108      0.018211     -0.009580
      8.73712     12.86201      1.70685         0.009500     -0.004640      0.022738
      1.42793      2.66350      0.81594         0.008522     -0.056373      0.043953
      7.21369      7.67608      7.51369        -0.010459     -0.000460     -0.034660
      2.95712     12.96559      1.73012        -0.036126     -0.047165      0.001551
      4.34033      2.50587      0.92006        -0.003256      0.029190     -0.002195
     10.17500      7.81522      7.50722        -0.018874      0.001624      0.033673
      5.78552     12.87007      1.77107        -0.014486      0.023600      0.009234
      7.27483      2.62410      0.84037         0.003764      0.021394     -0.001470
      7.19718      7.84374      2.54884        -0.002448      0.047087     -0.016333
      7.24352     12.79715      4.17261         0.016720     -0.009303      0.004972
      8.78826      2.77840      3.35950        -0.037085      0.016912     -0.030570
     10.19230      7.57641      2.62440        -0.004937     -0.097547     -0.000467
     10.17295     12.86238      4.23216         0.008173      0.032122     -0.009363
      2.91040      2.66592      3.34942        -0.025985      0.065521      0.002024
      4.42807      7.83059      2.54050         0.003115      0.048099     -0.017436
      4.41617     12.87255      4.12032        -0.043542     -0.017002      0.002546
      5.74583      2.51635      3.32763         0.004934      0.003920     -0.015354
      5.81059      7.78127      5.02853         0.013180      0.016000      0.040095
      5.83466     12.87015      6.70930         0.001426      0.010123     -0.003744
      7.26479      2.65169      5.86747         0.063246     -0.073222     -0.049853
      8.81806      7.71551      5.04769        -0.018716     -0.008963     -0.006986
      8.76689     12.85656      6.67793         0.004084      0.014237      0.013689
     10.21295      2.78362      5.81035         0.007095      0.020099      0.046958
     11.53668      7.73383      5.04283         0.006806     -0.023881     -0.001417
     11.56900     12.82985      6.68459         0.006525      0.038392      0.034121
      4.36671      2.66317      5.89911        -0.030095     -0.053239     -0.029006
      4.40534     11.79213      7.56370        -0.042505      0.022522     -0.003248
      4.38328      3.86556      7.52467        -0.085360     -0.058658      0.033578
      8.73392      1.43084      1.64510        -0.015879     -0.030239      0.015175
      8.65931      9.10917      1.71249        -0.016111      0.119956      0.012030
      1.44795      6.58482      0.96167         0.006324     -0.033190      0.011590
      1.48523     14.23052      0.87095        -0.003311      0.050947      0.003161
[...]
      5.80980      9.07619      6.64645        -0.018023      0.128232     -0.000436
      7.36535      6.59824      5.81915         0.028494     -0.057478     -0.021217
      7.30714     14.07282      5.84223        -0.005043      0.064323      0.010288
      8.71052     11.57693      5.03611        -0.132230      0.108124      0.000528
      8.66834      3.95030      5.05467        -0.002056     -0.030362     -0.010568
      8.73406      1.31011      6.72768         0.004515      0.009576      0.004304
      8.76277      9.01621      6.69027        -0.033789      0.060333      0.053087
     10.16553      6.25346      5.90123         0.016279     -0.048703     -0.017655
     10.15332     14.08389      5.86106        -0.010217      0.078237      0.006053
      2.94669     11.64727      5.00857         0.130633      0.276005     -0.077385
      2.96023      3.97981      5.05023         0.015357     -0.026657     -0.012832
     11.67067      1.45024      6.70564        -0.014876     -0.009828      0.000643
     11.58475      9.00802      6.68216        -0.009334     -0.004151      0.118626
      4.24500      6.60777      5.80827         0.017569     -0.053569     -0.001800
      4.36789     14.19227      5.83012        -0.003436      0.042066     -0.000788
    total drift:                                0.003361      0.031591     -0.016764

  FREE ENERGIE OF THE ION-ELECTRON SYSTEM (eV)
  free  energy   TOTEN  =      -875.8824866574 eV

  energy  without entropy=     -875.8484529701  energy(sigma->0) =     -875.86546981

 d Force =-0.7078633E-02[-0.736E-02,-0.680E-02]  d Energy =-0.8719111E-02 0.164E-02
 d Force = 0.3932850E+01[ 0.390E+01, 0.397E+01]  d Ewald  =-0.2322322E+02 0.272E+02

 Quasi-Newton relaxation of ions (Broydens 2nd method)
  g(Force)  = 0.521E-01   g(Stress)= 0.824E-02

 retain information from N=  1 steps
 eigenvalues of (default step * inverse Hessian matrix)
  average eigenvalue of G=   0.4818
 eigenvalue spectrum of G is  0.4818

volume of typ            1:    21.8 %

[...]

volume of typ            4:     8.6 %

total charge

# of ion       s       p       d       tot
    1        0.222   6.058   2.273   8.553
    2        0.240   6.097   2.181   8.517
    3        0.215   6.056   2.290   8.560
    4        0.237   6.095   2.145   8.478
    5        0.239   6.094   2.176   8.509
    6        0.245   6.110   2.140   8.495
    7        0.234   6.088   2.167   8.489
    8        0.215   6.059   2.236   8.510
    9        0.242   6.104   2.156   8.502
   10        0.233   6.085   2.162   8.480
   11        0.242   6.098   2.156   8.496
   12        0.246   6.107   2.143   8.496
   13        0.236   6.091   2.140   8.467
   14        0.244   6.105   2.153   8.502
   15        0.241   6.098   2.151   8.491
   16        0.236   6.091   2.155   8.482
   17        0.243   6.104   2.161   8.508
   18        0.222   6.057   2.281   8.560
   19        0.239   6.094   2.184   8.517
   20        0.234   6.089   2.162   8.486
   21        0.239   6.095   2.185   8.519
   22        0.238   6.097   2.184   8.520
   23        0.210   0.228   7.981   8.419
   24        0.200   0.218   7.999   8.418
   25        0.209   0.228   7.983   8.420
   26        0.203   0.253   8.135   8.591
   27        0.190   0.205   8.128   8.523
   28        2.080   0.273   0.109   2.462
   29        2.084   0.281   0.117   2.482
   30        2.089   0.294   0.122   2.505
   31        2.081   0.273   0.109   2.463
   32        2.076   0.253   0.101   2.430
   33        2.073   0.243   0.096   2.412
   34        2.087   0.289   0.119   2.495
   35        2.071   0.236   0.090   2.397
   36        2.079   0.264   0.106   2.450
   37        2.080   0.265   0.108   2.454
   38        2.077   0.255   0.100   2.431
   39        2.075   0.249   0.100   2.424
   40        2.094   0.301   0.121   2.516
   41        2.085   0.279   0.116   2.480
   42        2.068   0.226   0.087   2.382
   43        2.079   0.263   0.107   2.449
   44        2.067   0.225   0.085   2.376
   45        2.074   0.246   0.098   2.418
   46        2.079   0.262   0.106   2.446
   47        2.086   0.286   0.119   2.491
   48        2.084   0.284   0.116   2.484
   49        2.083   0.275   0.109   2.468
   50        2.084   0.279   0.116   2.479
   51        2.074   0.247   0.098   2.419
   52        2.083   0.276   0.110   2.468
   53        2.080   0.268   0.109   2.457
   54        2.088   0.294   0.122   2.505
   55        1.242   2.845   0.006   4.094
   56        1.245   2.850   0.007   4.102
   57        1.245   2.835   0.006   4.086
   58        1.246   2.847   0.007   4.100
   59        1.245   2.849   0.005   4.099
   60        1.247   2.843   0.006   4.096
[...]
   94        1.245   2.850   0.006   4.100
   95        1.249   2.836   0.005   4.090
   96        1.246   2.834   0.006   4.086
   97        1.249   2.844   0.006   4.099
   98        1.241   2.843   0.005   4.089
   99        1.246   2.840   0.006   4.092
  100        1.251   2.833   0.006   4.090
  101        1.244   2.846   0.005   4.095
  102        1.244   2.842   0.006   4.092
  103        1.247   2.842   0.006   4.095
  104        1.241   2.842   0.005   4.089
  105        1.245   2.836   0.006   4.087
  106        1.250   2.831   0.007   4.088
  107        1.248   2.843   0.005   4.096
  108        1.246   2.837   0.006   4.089
tot         129.57  295.72   91.42  516.71

magnetization (x)

# of ion       s       p       d       tot
    1       -0.000   0.000   0.004   0.004
    2        0.001   0.001   0.057   0.059
    3       -0.000  -0.000   0.003   0.003
    4        0.001   0.000   0.035   0.036
    5        0.002   0.002   0.095   0.099
    6        0.002   0.002   0.130   0.134
    7        0.000   0.000   0.030   0.031
    8       -0.000  -0.000  -0.010  -0.010
    9        0.001   0.001   0.064   0.066
   10        0.000   0.000   0.021   0.022
   11        0.004   0.005   0.196   0.205
   12        0.001   0.002   0.105   0.108
   13        0.000   0.000   0.011   0.012
   14        0.002   0.002   0.107   0.111
   15        0.003   0.005   0.201   0.209
   16        0.000   0.000   0.023   0.024
   17        0.002   0.002   0.135   0.140
   18       -0.000   0.000   0.003   0.003
   19        0.002   0.002   0.078   0.081
   20        0.001   0.001   0.039   0.040
   21        0.001   0.001   0.043   0.045
   22        0.001   0.001   0.077   0.079
   23       -0.001  -0.001  -1.244  -1.246
   24       -0.003  -0.001  -1.312  -1.315
   25       -0.002  -0.001  -1.253  -1.256
   26        0.001  -0.000   0.146   0.146
   27        0.000   0.001   0.699   0.700
   28        0.000   0.001   0.000   0.001
   29       -0.001  -0.002  -0.000  -0.003
   30       -0.001  -0.003  -0.001  -0.005
   31        0.000   0.001   0.000   0.001
   32       -0.001  -0.002  -0.000  -0.003
   33        0.000   0.000   0.000   0.000
   34       -0.001  -0.003  -0.001  -0.004
   35       -0.000   0.000   0.000   0.000
   36       -0.001  -0.002  -0.000  -0.003
   37       -0.000  -0.001   0.000  -0.001
   38       -0.000  -0.001  -0.000  -0.001
   39        0.000   0.000   0.000   0.001
   40       -0.000  -0.000   0.000  -0.000
   41       -0.001  -0.001  -0.000  -0.002
   42        0.000   0.000   0.000   0.001
   43       -0.000  -0.001  -0.000  -0.002
   44        0.000   0.001   0.000   0.002
   45        0.000   0.000   0.000   0.000
   46       -0.000   0.000   0.000   0.000
   47       -0.001  -0.002  -0.000  -0.003
   48       -0.001  -0.003  -0.000  -0.004
   49       -0.001  -0.001  -0.000  -0.002
   50       -0.001  -0.001  -0.000  -0.002
   51        0.000   0.000   0.000   0.001
   52       -0.001  -0.001  -0.000  -0.002
   53       -0.000  -0.000   0.000   0.000
   54       -0.002  -0.003  -0.001  -0.005
   55       -0.000   0.002   0.000   0.002
   56        0.000  -0.002   0.000  -0.002
   57       -0.000  -0.001   0.000  -0.001
   58       -0.000  -0.003   0.000  -0.003
   59       -0.000   0.000   0.000   0.000
   60        0.000   0.001   0.000   0.001
[...]
   94        0.000  -0.000   0.000  -0.000
   95        0.000   0.000   0.000   0.000
   96       -0.000   0.000   0.000   0.000
   97        0.001   0.009   0.000   0.010
   98       -0.004  -0.036   0.000  -0.041
   99       -0.000  -0.000   0.000  -0.000
  100        0.001   0.020   0.000   0.022
  101       -0.004  -0.038  -0.000  -0.042
  102        0.000   0.001   0.000   0.001
  103        0.001   0.015   0.000   0.017
  104       -0.004  -0.039   0.000  -0.043
  105       -0.000   0.001   0.000   0.001
  106        0.001   0.028   0.000   0.029
  107       -0.000  -0.001   0.000  -0.001
  108       -0.000  -0.000   0.000  -0.000
tot          -0.06   -0.59   -1.51   -2.17