 vasp.5.4.4.18Apr17-6-g9f103f2a35 (build May 12 2020 05:39:39) gamma-only

 MD_VERSION_INFO: Compiled 2020-05-12T12:39:39-UTC in devlin.sd.materialsdesign.
 com:/home/medea2/data/build/wwolf/vasp-gpu5.4.4/13047/x86_64/src/src/build/gam
 from svn 13047

 executed on                        Lin64 date 2023.04.03  09:03:06

 INCAR:
 POTCAR:    PAW_PBE Ta_pv 07Sep2000
 POTCAR:    PAW_PBE Ni 02Aug2007
 POTCAR:    PAW_PBE Li_sv 10Sep2004
 POTCAR:    PAW_PBE O 08Apr2002

 POTCAR:    PAW_PBE Ta_pv 07Sep2000

 POTCAR:    PAW_PBE Ni 02Aug2007

 POTCAR:    PAW_PBE Li_sv 10Sep2004

 POTCAR:    PAW_PBE O 08Apr2002

 Optimization of the real space projectors (new method)

 maximal supplied QI-value         = 15.12
 optimisation between [QCUT,QGAM] = [ 11.34, 22.83] = [ 36.00,145.93] Ry
 Optimized for a Real-space Cutoff    1.61 Angstroem

   l    n(q)    QCUT    max X(q) W(low)/X(q) W(high)/X(q)  e(spline)
   1     11    11.338     4.092    0.40E-05    0.64E-05    0.47E-07
   1     11    11.338     4.834    0.13E-04    0.44E-04    0.21E-06
   2     10    11.338    62.294    0.15E-03    0.31E-03    0.77E-06
   2     10    11.338    50.966    0.15E-03    0.31E-03    0.77E-06
   0     11    11.338   103.792    0.33E-04    0.19E-04    0.90E-07
   0     11    11.338    56.335    0.26E-04    0.17E-04    0.79E-07
 Optimization of the real space projectors (new method)

[...]

   l    n(q)    QCUT    max X(q) W(low)/X(q) W(high)/X(q)  e(spline)
   0      7    11.276    10.506    0.54E-04    0.58E-04    0.16E-07
   0      7    11.276     8.367    0.11E-03    0.14E-03    0.35E-07
   1      7    11.276     8.983    0.23E-03    0.43E-03    0.86E-07
 Optimization of the real space projectors (new method)

 maximal supplied QI-value         = 24.76
 optimisation between [QCUT,QGAM] = [ 11.39, 22.77] = [ 36.31,145.25] Ry
 Optimized for a Real-space Cutoff    1.10 Angstroem

   l    n(q)    QCUT    max X(q) W(low)/X(q) W(high)/X(q)  e(spline)
   0      7    11.387    20.381    0.22E-03    0.48E-03    0.18E-06
   0      7    11.387    15.268    0.22E-03    0.52E-03    0.19E-06
   1      7    11.387     5.964    0.22E-03    0.73E-03    0.24E-06
   1      7    11.387     5.382    0.19E-03    0.60E-03    0.21E-06

  PAW_PBE Ta_pv 07Sep2000               :
  PAW_PBE Ni 02Aug2007                  :
  PAW_PBE Li_sv 10Sep2004               :
  PAW_PBE O 08Apr2002                   :

 POSCAR: ce202662_1
  positions in direct lattice
 exchange correlation table for  LEXCH =       14
   RHO(1)=    0.500       N(1)  =     2000
   RHO(2)=  100.500       N(2)  =     4000

 ion  position               nearest neighbor table
   1  0.013  0.001  0.985-  60 2.07 105 2.08  93 2.12  72 2.14  57 2.14 108 2.14  14 2.67  17 2.87
                             4 2.89  18 3.01  53 3.02   8 3.04  30 3.05  54 3.05  21 3.06
   2  0.889  0.332  0.222-  56 1.97  71 1.97  74 2.03  59 2.03  80 2.16  77 2.16  10 2.87  26 2.93
                            30 2.99  23 2.99  19 3.00   5 3.02   9 3.02  37 3.03  36 3.04  28 3.06
   3  0.113  0.666  0.118-  94 2.03  61 2.06  58 2.07  55 2.11  64 2.12  79 2.13  11 2.77  20 2.82
                             6 2.93  24 2.95  47 2.96  31 2.99  40 3.00  29 3.02   7 3.02  27 3.03
   4  0.336  0.001  0.996-  99 1.98  66 1.99  63 1.99  60 2.09  96 2.10  93 2.14  14 2.87  18 2.89
                             1 2.89  25 2.90  22 2.94  32 2.95  48 2.96  21 2.98  50 2.98  30 3.01
   5  0.226  0.331  0.235-  86 2.07  65 2.08  59 2.09  80 2.11  62 2.13  83 2.15  12 2.77  19 2.77
                            10 2.84  43 2.97  15 3.01   2 3.02  42 3.04  30 3.05  33 3.08  23 3.08
   6  0.444  0.668  0.121- 100 2.12  61 2.12  85 2.17  67 2.17  64 2.17  70 2.17  11 2.84   7 2.85
                            13 2.87  16 2.91   3 2.93  43 2.98  35 3.02  24 3.07  31 3.09
   7  0.782  0.664  0.093- 106 2.07  55 2.08  73 2.09  70 2.10  58 2.13  67 2.15  27 2.74  16 2.75
                             6 2.85  53 3.00  13 3.02   3 3.02  34 3.06  28 3.06  37 3.07  20 3.09
   8  0.667  0.000  0.333-  78 1.98  69 1.98  90 2.05  57 2.05  72 2.06  75 2.06  22 2.93  21 2.93
                            18 2.98  25 2.98  39 3.01  35 3.01  29 3.01  45 3.01   1 3.04  14 3.04
   9  0.551  0.336  0.573-  95 2.07  92 2.08  74 2.09  77 2.10  89 2.13  98 2.15  23 2.74  15 2.75
                            10 2.85  48 3.00   2 3.02  12 3.02  49 3.06  46 3.06  37 3.07  19 3.09
  10  0.889  0.332  0.545- 101 2.12 104 2.12  80 2.17  98 2.17  83 2.17  77 2.17   5 2.84   9 2.85
                             2 2.87  15 2.91  12 2.93  40 2.98  39 3.02  26 3.07  52 3.09
  11  0.108  0.669  0.432-  79 2.07  82 2.08  88 2.09  85 2.11 103 2.13  64 2.15   3 2.77  20 2.77
                             6 2.84  40 2.97  16 3.01  13 3.02  32 3.04  44 3.05  41 3.08  27 3.08
  12  0.220  0.334  0.549- 107 2.03 104 2.06  89 2.07  92 2.11  83 2.12  86 2.13   5 2.77  19 2.82
                            10 2.93  26 2.95  54 2.96  52 2.99  43 3.00  45 3.02   9 3.02  23 3.03
  13  0.444  0.668  0.445-  91 1.97  76 1.97  73 2.03  88 2.03  85 2.16  70 2.16   6 2.87  24 2.93
                            44 2.99  27 2.99  20 3.00  11 3.02   7 3.02  37 3.03  38 3.04  46 3.06
  14  0.320  0.999  0.681-  87 2.07  96 2.08 108 2.12  75 2.14  90 2.14  93 2.14   1 2.67   4 2.87
                            17 2.89  25 3.01  48 3.02   8 3.04  44 3.05  47 3.05  22 3.06
  15  0.558  0.332  0.880-  68 2.03 101 2.06  62 2.06  65 2.12  98 2.13  95 2.13   9 2.75  23 2.83
                            10 2.91  26 2.97  34 2.98  48 3.00  51 3.01   5 3.01  19 3.04  31 3.05
  16  0.776  0.668  0.787-  97 2.03 100 2.06 103 2.06  82 2.12  67 2.13 106 2.13   7 2.75  27 2.83
                             6 2.91  24 2.97  49 2.98  53 3.00  50 3.01  11 3.01  20 3.04  52 3.05
  17  0.997  0.999  0.670- 102 1.98  81 1.99  84 1.99  87 2.09 105 2.10 108 2.14   1 2.87  25 2.89
                            14 2.89  18 2.90  21 2.94  42 2.95  53 2.96  22 2.98  51 2.98  44 3.01
  18  0.664  0.001  0.999-  99 2.04  66 2.07 105 2.08  72 2.10 102 2.11  69 2.15  35 2.83  22 2.87
                             4 2.89  17 2.90  25 2.92   8 2.98   1 3.01
  19  0.544  0.334  0.229-  65 2.04  74 2.06  89 2.09  68 2.11  86 2.17  71 2.21   5 2.77  12 2.82
                            26 2.99   2 3.00  15 3.04   9 3.09
  20  0.789  0.666  0.438-  82 2.04  73 2.06  58 2.09  97 2.11  79 2.17  76 2.21  11 2.77   3 2.82
                            24 2.99  13 3.00  16 3.04   7 3.09
  21  0.997  1.000  0.338-  84 2.05  81 2.07  63 2.08  57 2.08  60 2.08  78 2.13  32 2.80  39 2.83
                            42 2.84  25 2.87   8 2.93  22 2.93  17 2.94   4 2.98   1 3.06
  22  0.336  0.000  0.329-  63 2.05  66 2.07  84 2.08  90 2.08  87 2.08  69 2.13  42 2.80  35 2.83
                            32 2.84  18 2.87   8 2.93  21 2.93   4 2.94  17 2.98  14 3.06
  23  0.234  0.330  0.883-  92 2.04  62 2.07  59 2.08 107 2.10  95 2.20  56 2.23   9 2.74  54 2.82
                            15 2.83  26 2.99   2 2.99  12 3.03   5 3.08
  24  0.444  0.667  0.775-  76 2.06  97 2.07  94 2.07  91 2.07  61 2.09 100 2.10  47 2.79  49 2.80
                            13 2.93   3 2.95  16 2.97  20 2.99  27 2.99   6 3.07
  25  0.670  0.999  0.667- 102 2.04  81 2.07  96 2.08  75 2.10  99 2.11  78 2.15  39 2.83  21 2.87
                            17 2.89   4 2.90  18 2.92   8 2.98  14 3.01
  26  0.890  0.333  0.892-  71 2.06  68 2.07 107 2.07  56 2.07 104 2.09 101 2.10  54 2.79  34 2.80
                             2 2.93  12 2.95  15 2.97  19 2.99  23 2.99  10 3.07
  27  0.099  0.670  0.784-  55 2.04 103 2.07  88 2.08  94 2.10 106 2.20  91 2.23   7 2.74  47 2.82
                            16 2.83  24 2.99  13 2.99   3 3.03  11 3.08
  28  0.008  0.494  0.980- 106 2.04  71 2.06 107 2.07  94 2.16  58 2.26   2 3.06   7 3.06
  29  0.892  0.834  0.229-  79 1.98  78 2.03  60 2.10  55 2.18  72 2.19  73 2.20   8 3.01   3 3.02

  30  0.114  0.168  0.110-  80 1.99  93 2.00  62 2.11  56 2.13  63 2.16  57 2.17   2 2.99   4 3.01
                             1 3.05   5 3.05
  31  0.338  0.503  0.988-  95 1.99  64 2.08 100 2.08  94 2.12  65 2.21  59 2.24   3 2.99  15 3.05
                             6 3.09
  32  0.211  0.847  0.238-  79 2.02  84 2.03  66 2.07  60 2.09  85 2.14  21 2.80  22 2.84   4 2.95
                            11 3.04
  33  0.454  0.160  0.120-  69 2.06  86 2.07  99 2.13  68 2.14  63 2.15  62 2.25   4 3.03   5 3.08

  34  0.678  0.486  0.005- 106 2.01  71 2.03  65 2.07 101 2.10  70 2.18  26 2.80  15 2.98   7 3.06

  35  0.546  0.845  0.207-  66 1.98  67 2.05  72 2.11  85 2.15  90 2.17  22 2.83  18 2.83   8 3.01
                             6 3.02
  36  0.770  0.172  0.097-  56 2.03  68 2.04  69 2.08 105 2.08   2 3.04
  37  0.667  0.500  0.333-  70 1.99  77 1.99  58 2.14  89 2.14  71 2.16  76 2.16  13 3.03   2 3.03
                             7 3.07   9 3.07
  38  0.563  0.828  0.569-  91 2.03  97 2.04  78 2.08  96 2.08  13 3.04
  39  0.787  0.155  0.459-  81 1.98  98 2.05  75 2.11  80 2.15  57 2.17  21 2.83  25 2.83   8 3.01
                            10 3.02
  40  0.989  0.503  0.344-  77 2.06  83 2.08  82 2.09  64 2.09  58 2.13  11 2.97  10 2.98   3 3.00
                             2 3.08
  41  0.879  0.840  0.546-  78 2.06  79 2.07 102 2.13  97 2.14  84 2.15 103 2.25  17 3.03  11 3.08

[...]

  46  0.326  0.506  0.687-  95 2.04  76 2.06  94 2.07 107 2.16  89 2.26  13 3.06   9 3.06
  47  0.230  0.820  0.871-  91 2.01  55 2.05  61 2.10 108 2.14  96 2.21  24 2.79  27 2.82   3 2.96
                            14 3.05
  48  0.449  0.164  0.777-  93 2.00  98 2.01  99 2.10  75 2.14  62 2.18  92 2.20   4 2.96   9 3.00
                            15 3.00  14 3.02
  49  0.655  0.514  0.662-  95 2.01  76 2.03  82 2.07 100 2.10  77 2.18  24 2.80  16 2.98   9 3.06

[...]

  51  0.771  0.162  0.787-  98 2.06 105 2.07  99 2.10  81 2.15  68 2.15 104 2.21  17 2.98  15 3.01

  52  0.995  0.497  0.678- 106 1.99  83 2.08 101 2.08 107 2.12  82 2.21  88 2.24  12 2.99  16 3.05
                            10 3.09
  53  0.885  0.836  0.890- 108 2.00  67 2.01 102 2.10  72 2.14 103 2.18  55 2.20  17 2.96   7 3.00
                            16 3.00   1 3.02
  54  0.103  0.180  0.795-  56 2.01  92 2.05 104 2.10  93 2.14 105 2.21  26 2.79  23 2.82  12 2.96
                             1 3.05
  55  0.001  0.747  0.002-  27 2.04  47 2.05   7 2.08   3 2.11  29 2.18  53 2.20
  56  0.983  0.252  0.017-   2 1.97  54 2.01  36 2.03  26 2.07  30 2.13  23 2.23
  57  0.889  0.078  0.221-   8 2.05  21 2.08   1 2.14  39 2.17  30 2.17
  58  0.892  0.586  0.215-   3 2.07  20 2.09  40 2.13   7 2.13  37 2.14  28 2.26
  59  0.116  0.404  0.114-   2 2.03  23 2.08   5 2.09  31 2.24
  60  0.108  0.922  0.112-   1 2.07  21 2.08  32 2.09   4 2.09  29 2.10
  61  0.334  0.746  0.001-   3 2.06  24 2.09  47 2.10   6 2.12  50 2.21
  62  0.336  0.252  0.004-  15 2.06  23 2.07  30 2.11   5 2.13  48 2.18  33 2.25
  63  0.228  0.075  0.213-   4 1.99  42 2.03  22 2.05  21 2.08  33 2.15  30 2.16
  64  0.224  0.576  0.219-  31 2.08  43 2.08  40 2.09   3 2.12  11 2.15   6 2.17
  65  0.448  0.412  0.108-  19 2.04  34 2.07   5 2.08  43 2.09  15 2.12  31 2.21
[...]
   0.569E+01 0.221E+02 0.880E+01   -.557E+01 -.212E+02 -.827E+01   -.130E+00 -.867E+00 -.542E+00   0.106E-01 0.223E-01 0.880E-02
   -.759E+01 -.211E+03 -.915E+01   0.836E+01 0.227E+03 0.605E+01   -.774E+00 -.164E+02 0.320E+01   -.479E-02 -.550E-01 -.918E-01
   -.915E+01 0.200E+03 0.220E+02   0.105E+02 -.212E+03 -.293E+02   -.144E+01 0.119E+02 0.739E+01   0.627E-01 0.575E-01 -.436E-01
   0.491E+01 -.222E+03 0.563E+01   -.412E-02 0.238E+03 -.543E+01   -.491E+01 -.162E+02 -.183E+00   0.811E-04 0.183E-01 -.101E-01
   0.885E+01 0.218E+03 0.245E+01   -.109E+02 -.234E+03 0.148E+01   0.204E+01 0.161E+02 -.384E+01   -.315E-02 -.374E-01 -.729E-01
   -.445E+01 -.226E+03 0.167E+02   0.630E+01 0.241E+03 -.227E+02   -.185E+01 -.152E+02 0.604E+01   -.877E-02 -.314E-01 -.794E-01
   0.918E+01 0.224E+03 0.531E+01   -.957E+01 -.239E+03 0.152E+00   0.405E+00 0.154E+02 -.545E+01   -.326E-02 -.103E-01 -.180E-01
[...]
   0.161E+02 -.210E+03 -.190E+02   -.203E+02 0.224E+03 0.225E+02   0.437E+01 -.144E+02 -.358E+01   -.625E-01 -.381E-01 0.343E-01
   0.218E+01 0.224E+03 0.704E+01   0.207E+01 -.239E+03 -.100E+02   -.424E+01 0.149E+02 0.296E+01   -.134E-01 -.167E-01 0.313E-02
   0.155E+02 -.200E+03 0.106E+02   -.200E+02 0.211E+03 -.142E+02   0.450E+01 -.110E+02 0.348E+01   -.885E-02 0.892E-02 0.573E-01
   -.683E+01 0.193E+03 0.168E+02   0.751E+01 -.212E+03 -.173E+02   -.674E+00 0.183E+02 0.511E+00   -.125E-01 0.212E-01 0.756E-02
   -.173E+02 -.227E+03 0.169E+02   0.228E+02 0.241E+03 -.210E+02   -.554E+01 -.137E+02 0.410E+01   -.105E-01 0.190E-01 -.340E-02
   0.757E+01 0.214E+03 -.723E+01   -.125E+02 -.229E+03 0.585E+01   0.493E+01 0.159E+02 0.135E+01   -.874E-02 -.832E-02 0.606E-02
   -.757E+01 -.214E+03 0.723E+01   0.125E+02 0.229E+03 -.585E+01   -.493E+01 -.159E+02 -.135E+01   0.874E-02 0.832E-02 -.606E-02
   0.173E+02 0.227E+03 -.169E+02   -.228E+02 -.241E+03 0.210E+02   0.554E+01 0.137E+02 -.410E+01   0.105E-01 -.190E-01 0.340E-02
   -.709E+01 -.196E+03 0.744E+01   0.114E+02 0.212E+03 -.681E+01   -.439E+01 -.164E+02 -.683E+00   0.765E-01 -.544E-01 0.525E-01
   0.928E+01 0.208E+03 -.103E+02   -.109E+02 -.224E+03 0.154E+02   0.164E+01 0.160E+02 -.510E+01   0.921E-02 0.222E-01 0.216E-01
   -.218E+01 -.224E+03 -.704E+01   -.207E+01 0.239E+03 0.100E+02   0.424E+01 -.149E+02 -.296E+01   0.134E-01 0.167E-01 -.313E-02
   -.161E+02 0.210E+03 0.190E+02   0.203E+02 -.224E+03 -.225E+02   -.437E+01 0.144E+02 0.358E+01   0.625E-01 0.381E-01 -.343E-01
   -.892E+01 -.218E+03 -.143E+02   0.976E+01 0.229E+03 0.201E+02   -.872E+00 -.112E+02 -.580E+01   0.578E-01 -.220E-01 0.482E-01
   -.951E+01 0.211E+03 -.886E+01   0.857E+01 -.230E+03 0.843E+01   0.927E+00 0.189E+02 0.417E+00   0.416E-02 -.323E-01 0.127E-02
   -.476E-03 0.624E-04 0.731E-03   -.446E-12 0.105E-11 0.194E-12   -.999E-15 -.355E-14 -.294E-14   0.455E-07 0.108E-06 -.485E-06

 POSITION                                       TOTAL-FORCE (eV/Angst)
      4.50429      0.02890      7.56443        -0.000164      0.004018     -0.000878
      8.79391      5.00769      1.76861        -0.015511     -0.004637     -0.032378
      1.52782     10.02635      0.92935        -0.001711      0.024366     -0.001391
      7.39328      0.03636      7.67575         0.018985      0.001472     -0.003637
      3.03585      4.97619      1.83219        -0.000036     -0.010771      0.008304
      4.45406     10.04749      0.96907        -0.018715      0.006556     -0.025961
      7.28828     10.00138      0.78978         0.006819      0.004562     -0.012830
      7.33513      0.01862      2.60697         0.000000      0.000000     -0.000000
      7.40776      5.06364      4.44537        -0.006819     -0.004562      0.012830
     10.24198      5.01753      4.26608         0.018715     -0.006556      0.025961
      2.88272     10.07069      3.33167         0.000036      0.010771     -0.008304
      4.39075      5.02053      4.23450         0.001711     -0.024366      0.001391
      5.90212     10.05733      3.46654         0.015511      0.004637      0.032378
      5.86478     15.03754      5.27774         0.000164     -0.004018      0.000878
      8.81822      5.02279      6.80608        -0.023372      0.012667      0.004847
     10.32830     10.06180      6.10738         0.023372     -0.012667     -0.004847
     11.75324     15.04823      5.23771        -0.018985     -0.001472      0.003637
     10.27592      0.04395      7.71879         0.008093     -0.001386     -0.005854
      5.78536      5.03459      1.80024        -0.034676      0.006272      0.003636
      8.91067     10.03044      3.43490         0.034676     -0.006272     -0.003636
     10.28375     15.05028      2.68959        -0.005721      0.000060      0.003943
      4.41228      0.01474      2.54556         0.005721     -0.000060     -0.003943
      5.99832      4.99144      6.79017         0.025716     -0.019784     -0.030674
      7.35934     10.05598      5.98819        -0.008607      0.003963     -0.012357
      8.87060     15.04063      5.19467        -0.008093      0.001386      0.005854
     11.78718      5.02860      6.92527         0.008607     -0.003963      0.012357
      4.37075     10.07500      6.05199        -0.025716      0.019784      0.030674
      4.44282      7.45284      7.53873         0.005817      0.007323     -0.000294
      8.86354     12.55413      1.83445        -0.002499     -0.004137     -0.011109
      1.49188      2.51646      0.85654        -0.010678     -0.004090      0.011800
      7.38431      7.58342      7.62684         0.007172      0.005007     -0.003795
      2.93501     12.73280      1.85417         0.009108      0.002778     -0.020067
      4.51683      2.43215      0.96057        -0.014975      0.015929      0.008977
      5.98537      7.31394      0.09998        -0.001281     -0.004018      0.010846
      5.74693     12.69408      1.65965         0.019079     -0.025603      0.010087
      7.19532      2.59956      0.82298        -0.007038      0.001502      0.036193
      7.34802      7.53251      2.61757         0.000000      0.000000     -0.000000
      7.50071     12.46547      4.41217         0.007038     -0.001502     -0.036193
      8.94910      2.37094      3.57550        -0.019079      0.025603     -0.010087
     10.23080      7.57690      2.71173         0.021005     -0.007233     -0.016478
     10.17920     12.63287      4.27458         0.014975     -0.015929     -0.008977
      2.98356      2.31408      3.30968        -0.009108     -0.002778      0.020067
      4.46523      7.48812      2.52342        -0.021005      0.007233      0.016478
      4.42670     12.53042      4.30732         0.010678      0.004090     -0.011800
      5.83249      2.51089      3.40070         0.002499      0.004137      0.011109
      5.92624      7.61360      5.30344        -0.005817     -0.007323      0.000294
      5.92183     12.35056      6.72514         0.001185      0.010695     -0.003227
      7.40003      2.49674      6.00325        -0.007265      0.016404      0.003350
      8.71066      7.75109      5.13517         0.001281      0.004018     -0.010846
      8.87304     12.60310      6.81791        -0.010282     -0.027220     -0.002947
     10.27348      2.48149      6.09555         0.010282      0.027220      0.002947
     11.76221      7.50116      5.28662        -0.007172     -0.005007      0.003795
     11.74649     12.58785      6.91021         0.007265     -0.016404     -0.003350
      4.44723      2.71588      6.11702        -0.001185     -0.010695      0.003227
      0.03288     11.23113      0.04517        -0.014425      0.028211      0.012119
      8.71421      3.80412      0.21392        -0.020683     -0.024466      0.019001
      8.78886      1.18765      1.75925        -0.007767      0.004646      0.003695
      8.80328      8.83329      1.73651         0.000504      0.019301      0.022971
      1.53015      6.07659      0.89154        -0.009328     -0.003983      0.011963
      1.47280     13.87409      0.88720         0.008340      0.018032     -0.006083
[...]
      5.88431      8.93224      6.91504        -0.025810      0.023855     -0.010267
      7.45517      6.43602      5.99627         0.031076      0.042673     -0.023066
      7.38901     13.82138      6.00023        -0.000012     -0.004812     -0.002456
      8.90308     11.17414      5.18611         0.008714     -0.035080     -0.033909
      8.84352      3.64264      5.18884         0.001245      0.012993      0.010220
      8.80569      1.20647      6.91734         0.006123      0.010309      0.012727
      8.84193      8.88039      6.89990        -0.013775      0.003263     -0.019595
     10.30459      6.20420      6.01356         0.013775     -0.003263      0.019595
     10.34083     13.87812      5.99612        -0.006123     -0.010309     -0.012727
     11.72472     11.26027      5.17402         0.014085     -0.009573      0.002602
     11.74140      3.84427      5.19595         0.001538     -0.011473      0.020163
     11.75751      1.26321      6.91323         0.000012      0.004812      0.002456
     11.69134      8.64857      6.91719        -0.031076     -0.042673      0.023066
      4.48475      6.13420      5.92712         0.025810     -0.023855      0.010267
      4.40850     13.65609      5.96799        -0.003294      0.007829     -0.006184
    total drift:                               -0.000476      0.000063      0.000731

  FREE ENERGIE OF THE ION-ELECTRON SYSTEM (eV)
  free  energy   TOTEN  =      -829.9286875463 eV

  energy  without entropy=     -829.8910202311  energy(sigma->0) =     -829.90985389

 d Force = 0.8279861E-04[ 0.235E-03,-0.695E-04]  d Energy =-0.1066794E-04 0.935E-04
 d Force = 0.8722990E+00[ 0.867E+00, 0.878E+00]  d Ewald  = 0.2113448E+00 0.661E+00

 Quasi-Newton relaxation of ions (Broydens 2nd method)
  g(Force)  = 0.339E-02   g(Stress)= 0.668E-04

 retain information from N=  3 steps
 eigenvalues of (default step * inverse Hessian matrix)
  average eigenvalue of G=   2.8191
 eigenvalue spectrum of G is  7.4492  0.5040  0.5040

volume of typ            1:    17.0 %

[...]

volume of typ            4:     8.7 %

total charge

# of ion       s       p       d       tot
    1        0.231   6.092   2.213   8.535
    2        0.271   6.143   2.028   8.441
    3        0.251   6.115   2.081   8.448
    4        0.269   6.143   2.034   8.446
    5        0.237   6.099   2.160   8.496
    6        0.216   6.060   2.273   8.550
    7        0.237   6.098   2.160   8.495
    8        0.279   6.164   1.921   8.365
    9        0.237   6.098   2.160   8.495
   10        0.216   6.060   2.273   8.550
   11        0.237   6.099   2.160   8.496
   12        0.251   6.115   2.081   8.448
   13        0.271   6.143   2.028   8.441
   14        0.231   6.092   2.213   8.535
   15        0.250   6.114   2.086   8.450
   16        0.250   6.114   2.086   8.450
   17        0.269   6.143   2.034   8.446
   18        0.192   0.220   7.984   8.397
   19        0.196   0.214   8.013   8.424
   20        0.196   0.214   8.013   8.424
   21        0.197   0.226   7.967   8.390
   22        0.197   0.226   7.967   8.390
   23        0.195   0.212   8.009   8.416
   24        0.202   0.228   7.934   8.364
   25        0.192   0.220   7.984   8.397
   26        0.202   0.228   7.934   8.364
   27        0.195   0.212   8.009   8.416
   28        2.074   0.251   0.095   2.420
   29        2.079   0.271   0.107   2.458
   30        2.084   0.280   0.115   2.479
   31        2.077   0.263   0.105   2.446
   32        2.083   0.280   0.111   2.475
   33        2.075   0.256   0.098   2.429
   34        2.080   0.269   0.107   2.456
   35        2.075   0.254   0.100   2.429
   36        2.078   0.259   0.099   2.436
   37        2.083   0.276   0.113   2.473
   38        2.078   0.259   0.099   2.436
   39        2.075   0.254   0.100   2.429
   40        2.076   0.261   0.106   2.443
   41        2.075   0.256   0.098   2.429
   42        2.083   0.280   0.111   2.475
   43        2.076   0.261   0.106   2.443
   44        2.084   0.280   0.115   2.479
   45        2.079   0.271   0.107   2.458
   46        2.074   0.251   0.095   2.420
   47        2.074   0.253   0.098   2.425
   48        2.081   0.272   0.112   2.465
   49        2.080   0.269   0.107   2.456
   50        2.075   0.255   0.100   2.429
   51        2.075   0.255   0.100   2.429
   52        2.077   0.263   0.105   2.446
   53        2.081   0.272   0.112   2.465
   54        2.074   0.253   0.098   2.425
   55        1.245   2.839   0.006   4.089
   56        1.248   2.835   0.005   4.088
   57        1.246   2.837   0.005   4.088
   58        1.245   2.835   0.006   4.086
   59        1.248   2.843   0.006   4.096
   60        1.248   2.842   0.006   4.096
[...]
   94        1.245   2.827   0.005   4.076
   95        1.247   2.839   0.006   4.092
   96        1.246   2.841   0.006   4.093
   97        1.245   2.828   0.005   4.077
   98        1.243   2.842   0.007   4.092
   99        1.248   2.832   0.005   4.086
  100        1.246   2.838   0.006   4.090
  101        1.246   2.838   0.006   4.090
  102        1.248   2.832   0.005   4.086
  103        1.245   2.837   0.006   4.088
  104        1.246   2.833   0.006   4.085
  105        1.246   2.841   0.006   4.093
  106        1.247   2.839   0.006   4.092
  107        1.245   2.827   0.005   4.076
  108        1.245   2.848   0.007   4.100
tot         129.57  266.49  118.93  514.99

magnetization (x)

# of ion       s       p       d       tot
    1        0.001   0.001   0.116   0.119
    2        0.000   0.000  -0.005  -0.005
    3        0.000   0.000  -0.001  -0.001
    4        0.002   0.002   0.129   0.133
    5        0.000   0.000   0.002   0.003
    6       -0.000  -0.000  -0.010  -0.011
    7        0.001   0.000   0.011   0.012
    8        0.001   0.001   0.034   0.036
    9        0.001   0.000   0.011   0.012
   10       -0.000  -0.000  -0.010  -0.011
   11        0.000   0.000   0.002   0.003
   12        0.000   0.000  -0.001  -0.001
   13        0.000   0.000  -0.005  -0.005
   14        0.001   0.001   0.116   0.119
   15        0.000   0.000   0.003   0.003
   16        0.000   0.000   0.003   0.003
   17        0.002   0.002   0.129   0.133
   18       -0.001  -0.001  -1.292  -1.293
   19       -0.005  -0.001  -1.133  -1.139
   20       -0.005  -0.001  -1.133  -1.139
   21       -0.001  -0.000  -1.357  -1.358
   22       -0.001  -0.000  -1.357  -1.358
   23       -0.006  -0.001  -1.131  -1.137
   24        0.003   0.001   1.442   1.446
   25       -0.001  -0.001  -1.292  -1.293
   26        0.003   0.001   1.442   1.446
   27       -0.006  -0.001  -1.131  -1.137
   28        0.000   0.000  -0.000   0.000
   29       -0.002  -0.004  -0.001  -0.007
   30        0.001   0.001   0.000   0.001
   31       -0.001  -0.003  -0.001  -0.006
   32       -0.001  -0.001  -0.000  -0.002
   33        0.000  -0.001  -0.000  -0.001
   34        0.000  -0.000   0.000  -0.000
   35        0.000   0.000   0.000   0.000
   36       -0.002  -0.003  -0.001  -0.006
   37        0.002   0.004   0.001   0.008
   38       -0.002  -0.003  -0.001  -0.006
   39        0.000   0.000   0.000   0.000
   40       -0.000  -0.001  -0.000  -0.001
   41        0.000  -0.001  -0.000  -0.001
   42       -0.001  -0.001  -0.000  -0.002
   43       -0.000  -0.001  -0.000  -0.001
   44        0.001   0.001   0.000   0.001
   45       -0.002  -0.004  -0.001  -0.007
   46        0.000   0.000  -0.000   0.000
   47       -0.001  -0.002  -0.000  -0.004
   48       -0.001  -0.002  -0.000  -0.003
   49        0.000  -0.000   0.000  -0.000
   50       -0.002  -0.003  -0.001  -0.005
   51       -0.002  -0.003  -0.001  -0.005
   52       -0.001  -0.003  -0.001  -0.006
   53       -0.001  -0.002  -0.000  -0.003
   54       -0.001  -0.002  -0.000  -0.004
   55       -0.004  -0.044  -0.000  -0.048
   56        0.003   0.038   0.000   0.041
   57       -0.004  -0.045  -0.000  -0.049
   58       -0.003  -0.036  -0.000  -0.039
   59       -0.004  -0.041  -0.000  -0.045
   60       -0.004  -0.041   0.000  -0.044
[...]
   94        0.000  -0.003   0.000  -0.003
   95       -0.002  -0.022   0.000  -0.024
   96       -0.004  -0.041   0.000  -0.044
   97        0.000  -0.002   0.000  -0.001
   98        0.000   0.000  -0.000   0.000
   99       -0.007  -0.089  -0.000  -0.096
  100        0.004   0.052   0.000   0.056
  101        0.004   0.052   0.000   0.056
  102       -0.007  -0.089  -0.000  -0.096
  103       -0.003  -0.037  -0.000  -0.040
  104        0.004   0.050   0.000   0.054
  105       -0.004  -0.041   0.000  -0.044
  106       -0.002  -0.022   0.000  -0.024
  107        0.000  -0.003   0.000  -0.003
  108       -0.000   0.000   0.000   0.001
tot          -0.13   -1.33   -6.42   -7.88