 vasp.5.4.4.18Apr17-6-g9f103f2a35 (build May 12 2020 05:39:39) gamma-only

 MD_VERSION_INFO: Compiled 2020-05-12T12:39:39-UTC in devlin.sd.materialsdesign.
 com:/home/medea2/data/build/wwolf/vasp-gpu5.4.4/13047/x86_64/src/src/build/gam
 from svn 13047

 executed on                        Lin64 date 2023.04.03  09:11:25

 INCAR:
 POTCAR:    PAW_PBE Ta_pv 07Sep2000
 POTCAR:    PAW_PBE Ni 02Aug2007
 POTCAR:    PAW_PBE Li_sv 10Sep2004
 POTCAR:    PAW_PBE O 08Apr2002

 POTCAR:    PAW_PBE Ta_pv 07Sep2000

 POTCAR:    PAW_PBE Ni 02Aug2007

 POTCAR:    PAW_PBE Li_sv 10Sep2004

 POTCAR:    PAW_PBE O 08Apr2002

 Optimization of the real space projectors (new method)

 maximal supplied QI-value         = 15.12
 optimisation between [QCUT,QGAM] = [ 11.34, 22.83] = [ 36.00,145.93] Ry
 Optimized for a Real-space Cutoff    1.61 Angstroem

   l    n(q)    QCUT    max X(q) W(low)/X(q) W(high)/X(q)  e(spline)
   1     11    11.338     4.092    0.40E-05    0.64E-05    0.47E-07
   1     11    11.338     4.834    0.13E-04    0.44E-04    0.21E-06
   2     10    11.338    62.294    0.15E-03    0.31E-03    0.77E-06
   2     10    11.338    50.966    0.15E-03    0.31E-03    0.77E-06
   0     11    11.338   103.792    0.33E-04    0.19E-04    0.90E-07
   0     11    11.338    56.335    0.26E-04    0.17E-04    0.79E-07
 Optimization of the real space projectors (new method)

[...]

   l    n(q)    QCUT    max X(q) W(low)/X(q) W(high)/X(q)  e(spline)
   0      7    11.276    10.506    0.54E-04    0.58E-04    0.16E-07
   0      7    11.276     8.367    0.11E-03    0.14E-03    0.35E-07
   1      7    11.276     8.983    0.23E-03    0.43E-03    0.86E-07
 Optimization of the real space projectors (new method)

 maximal supplied QI-value         = 24.76
 optimisation between [QCUT,QGAM] = [ 11.39, 22.77] = [ 36.31,145.25] Ry
 Optimized for a Real-space Cutoff    1.10 Angstroem

   l    n(q)    QCUT    max X(q) W(low)/X(q) W(high)/X(q)  e(spline)
   0      7    11.387    20.381    0.22E-03    0.48E-03    0.18E-06
   0      7    11.387    15.268    0.22E-03    0.52E-03    0.19E-06
   1      7    11.387     5.964    0.22E-03    0.73E-03    0.24E-06
   1      7    11.387     5.382    0.19E-03    0.60E-03    0.21E-06

  PAW_PBE Ta_pv 07Sep2000               :
  PAW_PBE Ni 02Aug2007                  :
  PAW_PBE Li_sv 10Sep2004               :
  PAW_PBE O 08Apr2002                   :

 POSCAR: ce74073_1
  positions in direct lattice
 exchange correlation table for  LEXCH =       14
   RHO(1)=    0.500       N(1)  =     2000
   RHO(2)=  100.500       N(2)  =     4000

 ion  position               nearest neighbor table
   1  0.001  0.000  0.999-  57 2.17  72 2.17  60 2.17 105 2.17 108 2.18  93 2.18  16 2.83  20 2.83
                             4 2.83  11 2.85   7 2.85   9 2.86  54 3.07  47 3.07  53 3.08  30 3.08
   2  0.887  0.334  0.232-  71 2.10  56 2.10  59 2.11  74 2.11  77 2.13  80 2.13  10 2.82  12 2.83
                             5 2.84  22 2.93  25 2.97  36 3.02  30 3.03  37 3.04  40 3.05  21 3.05
   3  0.118  0.666  0.113-  58 2.09  55 2.09  79 2.10  94 2.10  64 2.12  61 2.13  13 2.84   6 2.85
                            17 2.86  23 2.93  27 2.96  40 3.01  29 3.02  47 3.03   8 3.05  28 3.08
   4  0.326  0.000  0.998-  99 2.10  66 2.10  63 2.11  96 2.11  93 2.13  60 2.13  16 2.82   1 2.83
                            11 2.84  26 2.93  24 2.97  50 3.02  32 3.03  48 3.04  30 3.05   7 3.05
   5  0.214  0.333  0.229-  62 2.09  65 2.09  59 2.10  86 2.10  80 2.12  83 2.13   2 2.84  12 2.85
                            14 2.86  25 2.93  22 2.96  30 3.01  31 3.02  43 3.03  18 3.05  33 3.08
   6  0.444  0.667  0.112-  61 2.17 100 2.17  67 2.17  64 2.17  85 2.18  70 2.18  15 2.83  13 2.83
                             8 2.83  19 2.85   3 2.85  17 2.86  35 3.07  43 3.07  32 3.08  34 3.08
   7  0.675  0.000  0.998-  99 2.09  66 2.09 102 2.10  69 2.10 105 2.12  72 2.13  20 2.84   1 2.85
                             9 2.86  26 2.93  24 2.96  51 3.01  50 3.02  35 3.03   4 3.05  33 3.08
   8  0.768  0.666  0.113-  58 2.10  55 2.10 106 2.11  73 2.11  70 2.13  67 2.13  15 2.82   6 2.83
                            19 2.84  23 2.93  27 2.97  29 3.02  53 3.03  37 3.04  34 3.05   3 3.05
   9  0.673  0.000  0.327-  90 2.08  75 2.08  78 2.10  69 2.10  72 2.12  57 2.12   1 2.86   7 2.86
                            11 2.86  24 2.94  26 2.94  39 3.02  35 3.02  16 3.04  45 3.08  38 3.08
  10  0.564  0.333  0.556-  92 2.10  89 2.10  74 2.11  95 2.11  98 2.14  77 2.14  18 2.82   2 2.82
                            12 2.83  25 2.94  22 2.94  39 3.04  49 3.04  14 3.04  48 3.05  37 3.05
  11  0.002  1.000  0.325-  84 2.09  81 2.09  63 2.10  78 2.10  60 2.12  57 2.13   4 2.84   1 2.85
                             9 2.86  24 2.93  26 2.96  32 3.01  42 3.02  39 3.03  20 3.05  41 3.08
  12  0.888  0.333  0.556- 104 2.17  83 2.17  80 2.17 101 2.17  98 2.18  77 2.18  10 2.83  18 2.83
                             2 2.83  21 2.85   5 2.85  14 2.86  39 3.07  49 3.07  51 3.08  40 3.08
  13  0.121  0.667  0.437- 103 2.10  82 2.10  79 2.11  88 2.11  85 2.13  64 2.13  15 2.82   6 2.83
                             3 2.84  27 2.93  23 2.97  52 3.02  40 3.03  44 3.04  32 3.05  19 3.05
  14  0.216  0.333  0.556-  92 2.08  89 2.08  86 2.10 107 2.10 104 2.12  83 2.12  12 2.86  21 2.86
                             5 2.86  25 2.94  22 2.94  54 3.02  43 3.02  10 3.04  45 3.08  46 3.08
  15  0.444  0.667  0.436-  91 2.10  76 2.10  73 2.11  88 2.11  85 2.14  70 2.14   8 2.82  13 2.82
                             6 2.83  23 2.94  27 2.94  35 3.04  43 3.04  17 3.04  44 3.05  37 3.05
  16  0.325  0.000  0.675-  75 2.10  90 2.10  87 2.11  96 2.11  93 2.14 108 2.14   4 2.82  20 2.82
                             1 2.83  26 2.94  24 2.94  47 3.04  54 3.04   9 3.04  44 3.05  48 3.05
  17  0.444  0.667  0.784-  91 2.08  76 2.08  97 2.10  94 2.10  61 2.12 100 2.12   6 2.86   3 2.86
                            19 2.86  27 2.94  23 2.94  47 3.02  49 3.02  15 3.04  38 3.08  46 3.08
  18  0.563  0.333  0.879-  62 2.10  65 2.10  68 2.11  95 2.11  98 2.13 101 2.13  10 2.82  12 2.83
                            21 2.84  25 2.93  22 2.97  31 3.02  34 3.03  48 3.04  51 3.05   5 3.05
  19  0.771  0.667  0.786- 103 2.09  82 2.09 106 2.10  97 2.10  67 2.12 100 2.13   8 2.84   6 2.85
                            17 2.86  27 2.93  23 2.96  53 3.01  52 3.02  49 3.03  13 3.05  41 3.08
  20  0.002  1.000  0.674-  84 2.10  81 2.10 102 2.11  87 2.11 108 2.13 105 2.13  16 2.82   1 2.83
                             7 2.84  24 2.93  26 2.97  42 3.02  51 3.03  44 3.04  53 3.05  11 3.05
  21  0.887  0.334  0.882-  71 2.09  56 2.09  68 2.10 107 2.10 101 2.12 104 2.13  18 2.84  12 2.85
                            14 2.86  22 2.93  25 2.96  34 3.01  36 3.02  54 3.03   2 3.05  28 3.08
  22  0.556  0.332  0.223-  86 2.08  74 2.08  68 2.08  65 2.08  89 2.09  71 2.09  21 2.93   2 2.93
                            14 2.94  10 2.94   5 2.96  18 2.97
  23  0.777  0.668  0.444-  97 2.08  73 2.08  79 2.08  82 2.08  76 2.09  58 2.09   3 2.93   8 2.93
                            17 2.94  15 2.94  19 2.96  13 2.97
  24  0.333  0.001  0.334-  69 2.08  87 2.08  63 2.08  66 2.08  90 2.09  84 2.09  11 2.93  20 2.93
                             9 2.94  16 2.94   7 2.96   4 2.97
  25  0.223  0.334  0.888- 107 2.08  95 2.08  59 2.08  56 2.08  92 2.09  62 2.09   5 2.93  18 2.93
                            14 2.94  10 2.94  21 2.96   2 2.97
  26  0.666  0.999  0.667-  78 2.08  96 2.08 102 2.08  81 2.08  75 2.09  99 2.09   7 2.93   4 2.93
                             9 2.94  16 2.94  11 2.96  20 2.97
  27  0.112  0.666  0.777-  94 2.08  88 2.08 106 2.08  55 2.08  91 2.09 103 2.09  19 2.93  13 2.93
                            17 2.94  15 2.94   3 2.96   8 2.97
  28  0.012  0.500  0.988- 107 2.05  94 2.05  59 2.11 106 2.11  58 2.21  71 2.21   3 3.08  21 3.08

  29  0.885  0.827  0.231-  73 2.02  79 2.03  60 2.13  55 2.14  72 2.14  78 2.14   3 3.02   8 3.02
                            11 3.09   9 3.09
  30  0.114  0.171  0.103-  93 2.02  80 2.06  62 2.11  57 2.12  56 2.12  63 2.19   5 3.01   2 3.03
                             4 3.05   1 3.08  11 3.10
  31  0.329  0.493  0.996-  95 2.02  59 2.03  64 2.13  65 2.14 100 2.14  94 2.14   5 3.02  18 3.02
                             3 3.09  17 3.09
  32  0.227  0.837  0.226-  85 2.02  60 2.06  84 2.11  61 2.12  66 2.12  79 2.19  11 3.01   4 3.03
                            13 3.05   6 3.08   3 3.10
  33  0.444  0.167  0.123-  86 2.05  69 2.05  68 2.11  63 2.11  62 2.21  99 2.21   5 3.08   7 3.08

  34  0.662  0.496  0.008-  70 2.02 101 2.06  71 2.11 100 2.12  65 2.12 106 2.19  21 3.01  18 3.03
                             8 3.05   6 3.08  19 3.10
  35  0.548  0.837  0.226-  85 2.01  72 2.07  67 2.10  90 2.12  66 2.13  73 2.18   9 3.02   7 3.03
                            15 3.04   6 3.07   8 3.09
  36  0.769  0.173  0.115-  74 2.02  68 2.03 105 2.13  56 2.14  57 2.14  69 2.14  21 3.02   2 3.02
                             7 3.09   9 3.09
  37  0.666  0.500  0.334-  70 2.03  77 2.03  71 2.17  58 2.17  89 2.17  76 2.17   8 3.04   2 3.04
                            15 3.05  10 3.05
  38  0.567  0.833  0.556-  97 2.06  78 2.06  73 2.10  96 2.10  91 2.20  90 2.20  17 3.08   9 3.08

  39  0.774  0.163  0.452-  98 2.01  57 2.07  80 2.10  75 2.12  81 2.13  74 2.18   9 3.02  11 3.03
                            10 3.04  12 3.07   2 3.09
  40  0.992  0.504  0.338-  77 2.02  64 2.06  58 2.11  83 2.12  82 2.12  59 2.19   3 3.01  13 3.03
                             2 3.05  12 3.08   5 3.10
  41  0.877  0.833  0.556-  97 2.05  78 2.05  79 2.11 102 2.11 103 2.21  84 2.21  19 3.08  11 3.08

  42  0.120  0.160  0.440-  87 2.02  63 2.03  80 2.13  81 2.14 104 2.14  86 2.14  11 3.02  20 3.02
                             5 3.09  14 3.09
  43  0.341  0.497  0.329-  70 2.01  83 2.07  64 2.10  89 2.12  65 2.13  88 2.18  14 3.02   5 3.03
                            15 3.04   6 3.07  13 3.09
  44  0.223  0.833  0.556-  85 2.03 108 2.03 103 2.17  84 2.17  91 2.17  90 2.17  13 3.04  20 3.04
                            15 3.05  16 3.05
  45  0.444  0.167  0.433-  86 2.06  69 2.06  74 2.10  87 2.10  92 2.20  75 2.20  14 3.08   9 3.08

  46  0.322  0.500  0.678-  94 2.06 107 2.06  88 2.10  95 2.10  76 2.20  89 2.20  14 3.08  17 3.08

  47  0.218  0.830  0.885- 108 2.01  61 2.07  60 2.10  91 2.12  55 2.13  96 2.18  17 3.02   3 3.03
                            16 3.04   1 3.07   4 3.09
  48  0.444  0.167  0.777-  98 2.03  93 2.03  62 2.17  99 2.17  92 2.17  75 2.17  18 3.04   4 3.04
                            10 3.05  16 3.05
  49  0.671  0.503  0.659-  77 2.01 100 2.07 101 2.10  76 2.12  82 2.13  95 2.18  17 3.02  19 3.03
                            10 3.04  12 3.07  18 3.09
  50  0.560  0.840  0.880-  96 2.02 102 2.03  67 2.13  66 2.14  61 2.14  97 2.14   7 3.02   4 3.02
                            19 3.09  17 3.09
  51  0.774  0.163  0.773-  98 2.02 105 2.06  99 2.11 104 2.12  81 2.12  68 2.19   7 3.01  20 3.03
                            18 3.05  12 3.08  21 3.10
  52  0.004  0.507  0.671-  88 2.02 106 2.03 101 2.13  82 2.14  83 2.14 107 2.14  19 3.02  13 3.02
                            21 3.09  14 3.09
[...]
   -.138E+00 0.138E+01 0.146E+01   0.383E+00 -.150E+01 -.144E+01   -.243E+00 0.105E+00 -.463E-01   -.177E-02 0.232E-02 0.446E-04
   0.502E+01 -.205E+03 0.685E+01   -.572E+01 0.220E+03 -.120E+02   0.708E+00 -.143E+02 0.523E+01   0.498E-02 0.286E-02 0.798E-02
   -.844E+01 0.205E+03 -.919E+00   0.132E+02 -.220E+03 -.104E+01   -.488E+01 0.143E+02 0.200E+01   -.941E-02 -.286E-02 -.321E-03
   0.586E-01 -.206E+03 0.793E+01   -.245E+00 0.225E+03 -.880E+01   0.195E+00 -.194E+02 0.871E+00   -.290E-02 -.778E-02 0.384E-02
   -.267E+00 0.218E+03 0.358E+01   0.264E+00 -.233E+03 0.320E+00   0.345E-01 0.155E+02 -.388E+01   0.321E-02 -.117E-02 -.670E-02
   0.102E+02 -.212E+03 0.676E+01   -.112E+02 0.227E+03 -.129E+02   0.101E+01 -.151E+02 0.609E+01   -.502E-03 0.218E-02 0.245E-02
   0.405E+01 0.206E+03 -.344E+01   -.452E+01 -.225E+03 0.303E+01   0.524E+00 0.192E+02 0.444E+00   -.237E-02 0.146E-03 0.729E-02
[...]
   0.137E+02 -.214E+03 0.865E+00   -.191E+02 0.228E+03 0.128E+01   0.548E+01 -.145E+02 -.220E+01   0.380E-02 0.112E-01 -.112E-03
   -.609E+01 0.214E+03 0.123E+02   0.107E+02 -.228E+03 -.159E+02   -.465E+01 0.145E+02 0.365E+01   -.200E-02 -.112E-01 0.323E-02
   -.391E+01 -.212E+03 0.908E+01   0.387E+01 0.226E+03 -.151E+02   0.727E-02 -.144E+02 0.601E+01   0.238E-02 -.458E-02 0.824E-02
   -.233E+01 0.203E+03 -.332E+01   0.254E+01 -.221E+03 0.300E+01   -.174E+00 0.176E+02 0.317E+00   0.389E-02 -.329E-02 0.283E-02
   -.266E+00 -.218E+03 -.358E+01   0.264E+00 0.233E+03 -.320E+00   0.345E-01 -.155E+02 0.388E+01   0.321E-02 0.117E-02 0.670E-02
   0.587E-01 0.206E+03 -.793E+01   -.245E+00 -.225E+03 0.880E+01   0.195E+00 0.194E+02 -.871E+00   -.290E-02 0.778E-02 -.384E-02
   -.500E+01 -.206E+03 0.179E+01   0.489E+01 0.225E+03 -.240E+01   0.123E+00 -.192E+02 0.676E+00   0.750E-02 -.146E-03 0.159E-02
   0.774E+00 0.212E+03 0.122E+02   -.556E+01 -.227E+03 -.161E+02   0.477E+01 0.151E+02 0.392E+01   0.237E-02 -.218E-02 0.792E-03
   0.323E+01 -.218E+03 0.156E+01   0.145E+00 0.233E+03 0.389E+00   -.338E+01 -.155E+02 -.191E+01   -.741E-02 0.117E-02 -.573E-03
   0.684E+01 0.206E+03 0.401E+01   -.750E+01 -.225E+03 -.461E+01   0.657E+00 0.194E+02 0.605E+00   0.478E-02 0.778E-02 -.592E-03
   0.952E+00 -.206E+03 -.523E+01   -.366E+00 0.225E+03 0.543E+01   -.647E+00 -.192E+02 -.231E+00   -.513E-02 -.146E-03 0.570E-02
   -.109E+02 0.212E+03 -.542E+01   0.167E+02 -.227E+03 0.324E+01   -.578E+01 0.151E+02 0.218E+01   -.187E-02 -.218E-02 0.166E-02
   -.591E+01 -.212E+03 -.793E+01   0.112E+02 0.226E+03 0.109E+02   -.521E+01 -.144E+02 -.300E+01   -.832E-02 -.457E-02 -.206E-02
   0.405E+01 0.203E+03 -.357E+00   -.387E+01 -.221E+03 0.698E+00   -.188E+00 0.176E+02 -.309E+00   -.439E-02 -.329E-02 0.195E-02
   0.105E-02 -.314E-03 -.104E-02   -.171E-12 0.654E-12 0.502E-12   0.724E-14 0.711E-14 0.200E-14   -.229E-05 0.294E-08 0.397E-05

 POSITION                                       TOTAL-FORCE (eV/Angst)
      4.37467     -0.00000      7.56063         0.003495      0.000000     -0.006054
      8.72496      5.10227      1.75317        -0.204163     -0.009970      0.054472
      1.49693     10.20167      0.85029        -0.068540      0.005713     -0.115486
      7.22892      0.00417      7.52044         0.054907     -0.009970     -0.204047
      2.88506      5.10356      1.71222         0.134284      0.005713     -0.001614
      4.37467     10.19621      0.84925         0.003495      0.000000      0.006054
     10.23673     -0.00546      7.55958        -0.068540     -0.005713      0.115486
      7.22892     10.19204      0.88943         0.054907      0.009970      0.204047
      7.30134     -0.00000      2.49148         0.004697      0.000000     -0.008135
      7.35350      5.09810      4.20494         0.020227      0.000000      0.000000
      1.44454     15.29977      2.48341        -0.065744      0.005713      0.117101
     10.18689      5.09810      4.20494        -0.006991      0.000000      0.000000
      2.98234     10.20037      3.34120         0.149256     -0.009970      0.149574
      4.33355      5.09810      4.20494        -0.009394      0.000000      0.000000
      5.79136     10.19621      3.30303        -0.010114      0.000000     -0.017517
      5.79136     -0.00000      5.10684        -0.010114      0.000000      0.017517
      7.30134     10.19621      5.91839         0.004697      0.000000      0.008135
      8.72496      5.09394      6.65670        -0.204163      0.009970     -0.054472
     10.18433     10.19075      5.92646        -0.065744     -0.005713     -0.117101
      2.98234     15.29015      5.06868         0.149256      0.009970     -0.149574
     11.62485      5.09265      6.69765         0.134284     -0.005713      0.001614
      5.83696      5.14203      1.70669         0.030882      0.163336      0.060964
      8.71317     10.15229      3.36728        -0.068237     -0.163336      0.003738
      4.38609     -0.04392      2.54435         0.037356     -0.163336      0.057227
      5.83696      5.05418      6.70318         0.030882     -0.163336     -0.060964
      8.71317     15.33823      5.04260        -0.068237      0.163336     -0.003738
      4.38609     10.24013      5.86552         0.037356      0.163336     -0.057227
      4.41865      7.64716      7.48445         0.003816      0.000000     -0.006610
      8.73772     12.64567      1.75265        -0.017951     -0.008558      0.022674
      1.44430      2.60941      0.77380        -0.026843      0.003093     -0.010066
      7.22299      7.54756      7.53175        -0.010661     -0.008558     -0.026883
      2.97762     12.80562      1.70489         0.022138      0.003093     -0.018213
      4.41865      2.54905      0.92542         0.003816      0.000000      0.006610
      5.81420      7.58680      0.06719        -0.026843     -0.003093      0.010066
      5.77463     12.79460      1.70831         0.015989     -0.012430      0.009787
      7.22299      2.64864      0.87812        -0.010661      0.008558      0.026883
      7.28116      7.64716      2.52643        -0.011681      0.000000      0.020232
      7.38534     12.74526      4.20494        -0.003833      0.000000      0.000000
      8.74294      2.49971      3.42206        -0.016470      0.012430     -0.008954
     10.14441      7.70752      2.56724         0.004704      0.003093      0.028279
     10.09893     12.74526      4.20494        -0.007632      0.000000      0.000000
      2.97551      2.44946      3.33040         0.028612     -0.008558      0.004209
      4.41866      7.59781      2.49118         0.000481      0.012430      0.018740
      4.37390     12.74526      4.20494         0.023362      0.000000      0.000000
      5.77544      2.54905      3.27546         0.001917      0.000000      0.003320
      5.77544      7.64716      5.13441         0.001917      0.000000     -0.003320
      5.77463     12.69592      6.70156         0.015989      0.012430     -0.009787
      7.28116      2.54905      5.88344        -0.011681      0.000000     -0.020232
      8.74294      7.69650      4.98781        -0.016470     -0.012430      0.008954
      8.73772     12.84485      6.65722        -0.017951      0.008558     -0.022674
     10.14441      2.48869      5.84263         0.004704     -0.003093     -0.028279
      2.97551      7.74675      5.07947         0.028612      0.008558     -0.004209
     11.71741     12.68490      6.70498         0.022138     -0.003093      0.018213
      4.41866      2.59839      5.91869         0.000481     -0.012430     -0.018740
      8.74184     11.39081      0.06269         0.010109      0.085141      0.101097
      8.68448      3.90351      0.02958        -0.092607     -0.085141      0.041794
      8.73328      1.34159      1.69546         0.005530      0.054664     -0.000424
      8.74581      8.97274      1.64192         0.035234     -0.064306      0.011170
      1.44174      6.31109      0.82716        -0.000179     -0.161626     -0.014145
      1.46685     13.94585      0.84953         0.050670      0.069483      0.047049
[...]
      5.82548      8.95846      6.73800        -0.007744     -0.037875     -0.041921
      7.27913      6.37638      5.88017         0.073976      0.182625     -0.053111
      7.27934     14.01604      5.88005        -0.082983     -0.182625      0.037509
      8.74907     11.43395      5.05006        -0.032432      0.037875     -0.027667
      8.74454      3.70123      5.03814         0.038089     -0.049472     -0.002846
      8.74581      1.22347      6.76795         0.035234      0.064306     -0.011170
      8.73328      8.85461      6.71441         0.005530     -0.054664      0.000424
     10.19871      6.44656      5.90003         0.015411     -0.069483      0.067406
     10.19190     14.08133      5.86710        -0.012160      0.161626     -0.007227
     11.61536     11.41968      5.03110        -0.007944      0.064306      0.036099
      2.92820      3.75651      5.04703        -0.003132     -0.054664      0.004577
     11.64055      1.34846      6.72332        -0.066081     -0.069483     -0.020357
     11.67248      8.98322      6.73388         0.012339      0.161626     -0.006917
      4.36168      6.33585      5.89287         0.040176      0.037875     -0.014254
      4.37426     13.89744      5.89491        -0.016580     -0.049472      0.034409
    total drift:                                0.001048     -0.000314     -0.001038

  FREE ENERGIE OF THE ION-ELECTRON SYSTEM (eV)
  free  energy   TOTEN  =      -862.2853832960 eV

  energy  without entropy=     -862.2821680901  energy(sigma->0) =     -862.28377569

 d Force = 0.4862215E-01[ 0.589E-01, 0.383E-01]  d Energy = 0.5554007E-01-0.692E-02
 d Force = 0.1054617E+02[ 0.103E+02, 0.108E+02]  d Ewald  = 0.6680377E+02-0.563E+02

 Quasi-Newton relaxation of ions (Broydens 2nd method)
  g(Force)  = 0.609E-01   g(Stress)= 0.313E-03

 retain information from N=  1 steps
 eigenvalues of (default step * inverse Hessian matrix)
  average eigenvalue of G=   0.5217
 eigenvalue spectrum of G is  0.5217

volume of typ            1:    20.9 %

[...]

volume of typ            4:     8.7 %

total charge

# of ion       s       p       d       tot
    1        0.213   6.050   2.330   8.593
    2        0.235   6.095   2.146   8.477
    3        0.241   6.104   2.119   8.464
    4        0.235   6.095   2.146   8.477
    5        0.241   6.104   2.119   8.464
    6        0.213   6.050   2.330   8.593
    7        0.241   6.104   2.119   8.464
    8        0.235   6.095   2.146   8.477
    9        0.241   6.105   2.121   8.466
   10        0.232   6.089   2.173   8.494
   11        0.241   6.104   2.119   8.464
   12        0.213   6.050   2.330   8.593
   13        0.235   6.095   2.146   8.477
   14        0.241   6.105   2.121   8.466
   15        0.232   6.089   2.173   8.494
   16        0.232   6.089   2.173   8.494
   17        0.241   6.105   2.121   8.466
   18        0.235   6.095   2.146   8.477
   19        0.241   6.104   2.119   8.464
   20        0.235   6.095   2.146   8.477
   21        0.241   6.104   2.119   8.464
   22        0.187   0.212   8.092   8.491
   23        0.187   0.212   8.092   8.491
   24        0.187   0.212   8.092   8.491
   25        0.187   0.212   8.092   8.491
   26        0.187   0.212   8.092   8.491
   27        0.187   0.212   8.092   8.491
   28        2.075   0.254   0.099   2.428
   29        2.080   0.271   0.109   2.460
   30        2.078   0.266   0.108   2.453
   31        2.080   0.271   0.109   2.460
   32        2.078   0.266   0.108   2.453
   33        2.075   0.254   0.099   2.428
   34        2.078   0.266   0.108   2.453
   35        2.080   0.270   0.111   2.461
   36        2.080   0.271   0.109   2.460
   37        2.075   0.251   0.101   2.427
   38        2.075   0.258   0.101   2.434
   39        2.080   0.270   0.111   2.461
   40        2.078   0.266   0.108   2.453
   41        2.075   0.254   0.099   2.428
   42        2.080   0.271   0.109   2.460
   43        2.080   0.270   0.111   2.461
   44        2.075   0.251   0.101   2.427
   45        2.075   0.258   0.101   2.434
   46        2.075   0.258   0.101   2.434
   47        2.080   0.270   0.111   2.461
   48        2.075   0.251   0.101   2.427
   49        2.080   0.270   0.111   2.461
   50        2.080   0.271   0.109   2.460
   51        2.078   0.266   0.108   2.453
   52        2.080   0.271   0.109   2.460
   53        2.078   0.266   0.108   2.453
   54        2.080   0.270   0.111   2.461
   55        1.246   2.842   0.006   4.093
   56        1.246   2.842   0.006   4.093
   57        1.246   2.839   0.007   4.092
   58        1.245   2.838   0.006   4.089
   59        1.247   2.833   0.006   4.086
   60        1.245   2.838   0.007   4.090
[...]
   94        1.247   2.838   0.006   4.091
   95        1.247   2.833   0.006   4.086
   96        1.247   2.833   0.006   4.086
   97        1.247   2.838   0.006   4.091
   98        1.243   2.847   0.007   4.096
   99        1.245   2.838   0.006   4.089
  100        1.246   2.839   0.007   4.092
  101        1.245   2.838   0.007   4.090
  102        1.247   2.833   0.006   4.086
  103        1.245   2.838   0.006   4.089
  104        1.246   2.839   0.007   4.092
  105        1.245   2.838   0.007   4.090
  106        1.247   2.833   0.006   4.086
  107        1.247   2.838   0.006   4.091
  108        1.243   2.847   0.007   4.096
tot         129.41  289.61   97.21  516.23

magnetization (x)

# of ion       s       p       d       tot
    1       -0.000  -0.000   0.003   0.003
    2       -0.002  -0.002  -0.156  -0.160
    3       -0.000  -0.000   0.000  -0.000
    4       -0.002  -0.002  -0.156  -0.160
    5       -0.000  -0.000   0.000  -0.000
    6       -0.000  -0.000   0.003   0.003
    7       -0.000  -0.000   0.000  -0.000
    8       -0.002  -0.002  -0.156  -0.160
    9        0.001   0.000   0.096   0.097
   10       -0.003  -0.002  -0.206  -0.211
   11       -0.000  -0.000   0.000  -0.000
   12       -0.000  -0.000   0.003   0.003
   13       -0.002  -0.002  -0.156  -0.160
   14        0.001   0.000   0.096   0.097
   15       -0.003  -0.002  -0.206  -0.211
   16       -0.003  -0.002  -0.206  -0.211
   17        0.001   0.000   0.096   0.097
   18       -0.002  -0.002  -0.156  -0.160
   19       -0.000  -0.000   0.000  -0.000
   20       -0.002  -0.002  -0.156  -0.160
   21       -0.000  -0.000   0.000  -0.000
   22        0.000   0.000   0.267   0.268
   23        0.000   0.000   0.267   0.268
   24        0.000   0.000   0.267   0.268
   25        0.000   0.000   0.267   0.268
   26        0.000   0.000   0.267   0.268
   27        0.000   0.000   0.267   0.268
   28        0.001   0.002   0.000   0.003
   29       -0.000   0.001  -0.000   0.000
   30        0.000   0.000  -0.000   0.000
   31       -0.000   0.001  -0.000   0.000
   32        0.000   0.000  -0.000   0.000
   33        0.001   0.002   0.000   0.003
   34        0.000   0.000  -0.000   0.000
   35       -0.001  -0.001  -0.000  -0.002
   36       -0.000   0.001  -0.000   0.000
   37       -0.000  -0.000  -0.000  -0.001
   38        0.001   0.001   0.000   0.002
   39       -0.001  -0.001  -0.000  -0.002
   40        0.000   0.000  -0.000   0.000
   41        0.001   0.002   0.000   0.003
   42       -0.000   0.001  -0.000   0.000
   43       -0.001  -0.001  -0.000  -0.002
   44       -0.000  -0.000  -0.000  -0.001
   45        0.001   0.001   0.000   0.002
   46        0.001   0.001   0.000   0.002
   47       -0.001  -0.001  -0.000  -0.002
   48       -0.000  -0.000  -0.000  -0.001
   49       -0.001  -0.001  -0.000  -0.002
   50       -0.000   0.001  -0.000   0.000
   51        0.000   0.000  -0.000   0.000
   52       -0.000   0.001  -0.000   0.000
   53        0.000   0.000  -0.000   0.000
   54       -0.001  -0.001  -0.000  -0.002
   55       -0.002  -0.024  -0.000  -0.026
   56       -0.002  -0.024  -0.000  -0.026
   57       -0.000   0.007   0.000   0.007
   58        0.002   0.026   0.000   0.029
   59        0.002   0.015  -0.000   0.017
   60       -0.000  -0.006  -0.000  -0.006
[...]
   94        0.003   0.035   0.000   0.038
   95       -0.002  -0.041  -0.001  -0.044
   96       -0.002  -0.041  -0.001  -0.044
   97        0.003   0.035   0.000   0.038
   98       -0.000  -0.013  -0.000  -0.014
   99        0.002   0.026   0.000   0.029
  100       -0.000   0.007   0.000   0.007
  101       -0.000  -0.006  -0.000  -0.006
  102        0.002   0.015  -0.000   0.017
  103        0.002   0.026   0.000   0.029
  104       -0.000   0.007   0.000   0.007
  105       -0.000  -0.006  -0.000  -0.006
  106        0.002   0.015  -0.000   0.017
  107        0.003   0.035   0.000   0.038
  108       -0.000  -0.013  -0.000  -0.014
tot           0.01    0.10    0.34    0.45