 vasp.5.4.4.18Apr17-6-g9f103f2a35 (build May 12 2020 05:39:39) gamma-only

 MD_VERSION_INFO: Compiled 2020-05-12T12:39:39-UTC in devlin.sd.materialsdesign.
 com:/home/medea2/data/build/wwolf/vasp-gpu5.4.4/13047/x86_64/src/src/build/gam
 from svn 13047

 executed on                        Lin64 date 2023.04.04  02:38:37

 INCAR:
 POTCAR:    PAW_PBE Ta_pv 07Sep2000
 POTCAR:    PAW_PBE Ni 02Aug2007
 POTCAR:    PAW_PBE Li_sv 10Sep2004
 POTCAR:    PAW_PBE O 08Apr2002

 POTCAR:    PAW_PBE Ta_pv 07Sep2000

 POTCAR:    PAW_PBE Ni 02Aug2007

 POTCAR:    PAW_PBE Li_sv 10Sep2004

 POTCAR:    PAW_PBE O 08Apr2002

 Optimization of the real space projectors (new method)

 maximal supplied QI-value         = 15.12
 optimisation between [QCUT,QGAM] = [ 11.34, 22.83] = [ 36.00,145.93] Ry
 Optimized for a Real-space Cutoff    1.61 Angstroem

   l    n(q)    QCUT    max X(q) W(low)/X(q) W(high)/X(q)  e(spline)
   1     11    11.338     4.092    0.40E-05    0.64E-05    0.47E-07
   1     11    11.338     4.834    0.13E-04    0.44E-04    0.21E-06
   2     10    11.338    62.294    0.15E-03    0.31E-03    0.77E-06
   2     10    11.338    50.966    0.15E-03    0.31E-03    0.77E-06
   0     11    11.338   103.792    0.33E-04    0.19E-04    0.90E-07
   0     11    11.338    56.335    0.26E-04    0.17E-04    0.79E-07
 Optimization of the real space projectors (new method)

[...]

   l    n(q)    QCUT    max X(q) W(low)/X(q) W(high)/X(q)  e(spline)
   0      7    11.276    10.506    0.54E-04    0.58E-04    0.16E-07
   0      7    11.276     8.367    0.11E-03    0.14E-03    0.35E-07
   1      7    11.276     8.983    0.23E-03    0.43E-03    0.86E-07
 Optimization of the real space projectors (new method)

 maximal supplied QI-value         = 24.76
 optimisation between [QCUT,QGAM] = [ 11.39, 22.77] = [ 36.31,145.25] Ry
 Optimized for a Real-space Cutoff    1.10 Angstroem

   l    n(q)    QCUT    max X(q) W(low)/X(q) W(high)/X(q)  e(spline)
   0      7    11.387    20.381    0.22E-03    0.48E-03    0.18E-06
   0      7    11.387    15.268    0.22E-03    0.52E-03    0.19E-06
   1      7    11.387     5.964    0.22E-03    0.73E-03    0.24E-06
   1      7    11.387     5.382    0.19E-03    0.60E-03    0.21E-06

  PAW_PBE Ta_pv 07Sep2000               :
  PAW_PBE Ni 02Aug2007                  :
  PAW_PBE Li_sv 10Sep2004               :
  PAW_PBE O 08Apr2002                   :

 POSCAR: ce346166_1
  positions in direct lattice
 exchange correlation table for  LEXCH =       14
   RHO(1)=    0.500       N(1)  =     2000
   RHO(2)=  100.500       N(2)  =     4000

 ion  position               nearest neighbor table
   1  0.001  0.000  0.005-  57 2.00 108 2.01  60 2.02  93 2.02 105 2.02  72 2.02  19 2.71  23 2.96
                            15 2.99  53 3.00  54 3.01  36 3.01  47 3.07  29 3.07   7 3.14   4 3.17
   2  0.909  0.331  0.224-  80 1.93  59 1.95  77 2.01  56 2.01  74 2.09  71 2.16  14 2.81  20 2.86
                            24 2.91  30 2.93  40 2.93  17 2.95  28 3.01  37 3.04  39 3.08  27 3.09
   3  0.085  0.668  0.145-  79 1.95  58 1.96  55 2.03  64 2.03  61 2.13  94 2.18  18 2.68  21 2.69
                            16 2.86  29 2.96  40 3.02   5 3.09  13 3.12
   4  0.358  0.002  0.001-  99 1.93  66 1.94  63 2.02  96 2.04  60 2.12  93 2.14  15 2.76  22 2.80
                            26 2.86  33 2.90  50 2.91  32 3.00  19 3.03  30 3.04  48 3.05  23 3.07
   5  0.447  0.661  0.112-  85 1.97  61 1.97  67 2.00 100 2.01  70 2.03  64 2.05  16 2.97  43 3.00
                            25 3.07  34 3.08   3 3.09   9 3.12  11 3.13  21 3.16
   6  0.555  0.333  0.228-  74 2.00  65 2.01  89 2.02  86 2.02  68 2.02  71 2.02  17 2.71  14 2.96
                            27 2.99  34 3.00  33 3.01  36 3.01  43 3.07  37 3.07   2 3.14   8 3.17
   7  0.646  0.002  0.356-  75 1.93  90 1.95  78 2.01  69 2.01  57 2.09  72 2.16  23 2.81  26 2.86
                            22 2.91  45 2.93  38 2.93  19 2.95  35 3.01  29 3.04  39 3.08  15 3.09
   8  0.197  0.331  0.582- 104 1.93 107 1.94  92 2.02  83 2.04  89 2.12  86 2.14  27 2.76  24 2.80
                            20 2.86  54 2.90  52 2.91  46 3.00  17 3.03  45 3.04  42 3.05  14 3.07
   9  0.471  0.666  0.452-  76 1.95  73 1.96  70 2.03  91 2.03  88 2.13  85 2.18  18 2.68  25 2.69
                            16 2.86  37 2.96  38 3.02  13 3.09   5 3.12
  10  0.550  0.334  0.872-  95 1.91  98 1.93  62 2.00 101 2.03  65 2.11  68 2.15  24 2.86  20 2.93
                            49 2.95  31 2.97  17 2.98  14 3.01  48 3.01  51 3.05  27 3.07  34 3.10
  11  0.778  0.667  0.743-  97 1.94  82 1.94 103 2.02 100 2.02  67 2.20 106 2.20  21 2.66  25 2.66
                            18 2.69  50 3.04  52 3.04  41 3.05  49 3.05   5 3.13  13 3.13  16 3.32
  12  0.006  0.999  0.643-  84 1.91  81 1.93  87 2.00 102 2.03 108 2.11 105 2.15  22 2.86  26 2.93
                            41 2.95  44 2.97  19 2.98  23 3.01  42 3.01  51 3.05  15 3.07  53 3.10
  13  0.109  0.672  0.781-  94 1.97  88 1.97 106 2.00 103 2.01  55 2.03  91 2.05  16 2.97  47 3.00
                            21 3.07  53 3.08   9 3.09   3 3.12  11 3.13  25 3.16
  14  0.226  0.336  0.221-  83 2.01  62 2.02  59 2.20  65 2.21  86 2.27  80 2.28   2 2.81   6 2.96
                            20 2.99  24 3.00  10 3.01   8 3.07
  15  0.670  0.007  0.996-  69 1.99 102 2.00  99 2.17 105 2.18  66 2.31  72 2.33   4 2.76  26 2.92
                             1 2.99  22 2.99  12 3.07   7 3.09
  16  0.778  0.667  0.118-  73 2.01  58 2.01 106 2.14  67 2.14  55 2.40  70 2.40  18 2.85   9 2.86
                             3 2.86  13 2.97   5 2.97  11 3.32
  17  0.559  0.323  0.532-  92 2.03  74 2.06  77 2.11  98 2.16  89 2.18   6 2.71   2 2.95  10 2.98
                             8 3.03  20 3.07  24 3.08
  18  0.778  0.667  0.439-  73 2.10  58 2.10  97 2.27  82 2.27  79 2.40  76 2.40   3 2.68   9 2.68
                            11 2.69  25 2.75  21 2.75  16 2.85
  19  0.996  0.010  0.313-  63 2.03  57 2.06  78 2.11  81 2.16  60 2.18   1 2.71   7 2.95  12 2.98
                             4 3.03  26 3.07  22 3.08
  20  0.890  0.330  0.556- 101 2.07  83 2.08  98 2.12  77 2.14  80 2.18 104 2.18   8 2.86   2 2.86
                            27 2.92  10 2.93  14 2.99  17 3.07
  21  0.080  0.676  0.450-  79 1.93  82 2.11  88 2.27 103 2.27  85 2.30  64 2.49  11 2.66   3 2.69
                            18 2.75  41 2.84  13 3.07   5 3.16
  22  0.333  0.001  0.329-  63 2.04  69 2.09  87 2.11  90 2.17  66 2.19  84 2.26   4 2.80  12 2.86
                             7 2.91  15 2.99  23 3.00  19 3.08
  23  0.330  0.998  0.670-  96 2.01  87 2.02  90 2.20 108 2.21  93 2.27  75 2.28   7 2.81   1 2.96
                            26 2.99  22 3.00  12 3.01   4 3.07
  24  0.222  0.332  0.884-  92 2.04  56 2.09  62 2.11  59 2.17 107 2.19  95 2.26   8 2.80  10 2.86
                             2 2.91  27 2.99  14 3.00  17 3.08
  25  0.476  0.657  0.752-  76 1.93  97 2.11  61 2.27 100 2.27  94 2.30  91 2.49  11 2.66   9 2.69
                            18 2.75  49 2.84   5 3.07  13 3.16
  26  0.666  0.003  0.669- 102 2.07  96 2.08  81 2.12  78 2.14  75 2.18  99 2.18   4 2.86   7 2.86
                            15 2.92  12 2.93  23 2.99  19 3.07
  27  0.885  0.326  0.888-  56 1.99 101 2.00 104 2.17  68 2.18 107 2.31  71 2.33   8 2.76  20 2.92
                             6 2.99  24 2.99  10 3.07   2 3.09
  28  0.998  0.494  0.993-  59 2.02 107 2.07  58 2.18  71 2.19  94 2.21 106 2.26   2 3.01
  29  0.873  0.834  0.241-  72 1.97  78 2.01  73 2.06  79 2.11   3 2.96   7 3.04   1 3.07
  30  0.132  0.171  0.108-  93 1.98  80 2.02  63 2.07  62 2.08  56 2.28   2 2.93   4 3.04
  31  0.313  0.492  0.001-  95 1.88  64 1.93  59 2.02  94 2.26  10 2.97
  32  0.213  0.843  0.237-  79 1.89  66 2.02  84 2.02  60 2.16   4 3.00
  33  0.445  0.167  0.118-  68 2.01  99 2.05  69 2.17  63 2.17  62 2.18  86 2.20   4 2.90   6 3.01

  34  0.685  0.494  0.994- 100 1.99  65 2.06 101 2.09  71 2.12 106 2.25   6 3.00   5 3.08  10 3.10

[...]

  55  0.040  0.752  0.991-  47 1.99  13 2.03   3 2.03  16 2.40
  56  0.993  0.259  0.004-  27 1.99   2 2.01  24 2.09  36 2.17  54 2.17  30 2.28
  57  0.866  0.080  0.212-  36 1.99   1 2.00  19 2.06   7 2.09
  58  0.889  0.586  0.215-   3 1.96  16 2.01  37 2.06  18 2.10  28 2.18
  59  0.096  0.418  0.114-   2 1.95  31 2.02  28 2.02  40 2.13  24 2.17  14 2.20
  60  0.134  0.923  0.086-   1 2.02  47 2.06   4 2.12  32 2.16  19 2.18
  61  0.331  0.731  0.010-   5 1.97   3 2.13  25 2.27
  62  0.339  0.259  0.004-  10 2.00  14 2.02  30 2.08  24 2.11  33 2.18
  63  0.223  0.078  0.219-   4 2.02  19 2.03  22 2.04  30 2.07  42 2.11  33 2.17
  64  0.237  0.580  0.186-  31 1.93   3 2.03   5 2.05  43 2.19  40 2.28  21 2.49
  65  0.472  0.411  0.099-   6 2.01  34 2.06  10 2.11  14 2.21
  66  0.436  0.911  0.103-   4 1.94  32 2.02  50 2.03  35 2.07  22 2.19  15 2.31
  67  0.658  0.737  0.995-   5 2.00  16 2.14  50 2.20  11 2.20  53 2.25  35 2.26
  68  0.639  0.255  0.014-  33 2.01   6 2.02  10 2.15  27 2.18  36 2.19  51 2.23
  69  0.562  0.074  0.219-  15 1.99   7 2.01  22 2.09  36 2.17  33 2.17  45 2.28
  70  0.516  0.581  0.253-  43 1.99   5 2.03   9 2.03  16 2.40
  71  0.764  0.414  0.140-  37 1.97   6 2.02  34 2.12   2 2.16  28 2.19  27 2.33
  72  0.792  0.920  0.126-  29 1.97   1 2.02  53 2.12   7 2.16  35 2.19  15 2.33
  73  0.666  0.748  0.327-   9 1.96  16 2.01  29 2.06  18 2.10  35 2.18
  74  0.689  0.253  0.300-  36 1.99   6 2.00  17 2.06   2 2.09
  75  0.564  0.090  0.541-   7 1.93  45 2.02  48 2.03  39 2.04  26 2.18  23 2.28
  76  0.528  0.572  0.568-  46 1.89  25 1.93   9 1.95  49 2.03  37 2.11  18 2.40
  77  0.776  0.408  0.437-  37 2.01   2 2.01  49 2.03  17 2.11  20 2.14  40 2.16
  78  0.780  0.925  0.435-  29 2.01   7 2.01  41 2.03  19 2.11  26 2.14  38 2.16
  79  0.027  0.761  0.318-  32 1.89  21 1.93   3 1.95  41 2.03  29 2.11  18 2.40
  80  0.991  0.244  0.328-   2 1.93  30 2.02  42 2.03  39 2.04  20 2.18  14 2.28
  81  0.895  0.081  0.558-  12 1.93  39 2.06  26 2.12  51 2.12  42 2.12  19 2.16
  82  0.890  0.575  0.565-  11 1.94  52 1.97  40 2.06  21 2.11  49 2.14  18 2.27
  83  0.115  0.407  0.445-  14 2.01   8 2.04  43 2.07  20 2.08  40 2.09  52 2.17
  84  0.106  0.908  0.468-  44 1.88  12 1.91  41 2.00  32 2.02  22 2.26
  85  0.353  0.737  0.322-   5 1.97   9 2.18  35 2.21  44 2.26  21 2.30
  86  0.346  0.253  0.350-  45 1.98   6 2.02   8 2.14  33 2.20  42 2.26  14 2.27
  87  0.217  0.074  0.565-  12 2.00  23 2.02  45 2.08  22 2.11  54 2.18
  88  0.225  0.602  0.563-  13 1.97   9 2.13  21 2.27
  89  0.422  0.411  0.442-   6 2.02  43 2.06   8 2.12  46 2.16  17 2.18
  90  0.460  0.915  0.432-   7 1.95  44 2.02  35 2.02  38 2.13  22 2.17  23 2.20
  91  0.318  0.753  0.645-  44 1.93   9 2.03  13 2.05  47 2.19  38 2.28  25 2.49
  92  0.333  0.255  0.664-   8 2.02  17 2.03  24 2.04  45 2.07  48 2.11  54 2.17
  93  0.210  0.080  0.919-  30 1.98   1 2.02   4 2.14  54 2.20  48 2.26  23 2.27
  94  0.203  0.597  0.897-  13 1.97   3 2.18  28 2.21  31 2.26  25 2.30
  95  0.450  0.426  0.796-  31 1.88  10 1.91  49 2.00  46 2.02  24 2.26
  96  0.441  0.927  0.782-  23 2.01   4 2.04  47 2.07  26 2.08  38 2.09  50 2.17
[...]
   -.162E+02 0.557E+01 -.289E+01   0.154E+02 -.564E+01 0.285E+01   0.838E+00 0.396E-01 0.553E-01   -.795E-02 0.297E-02 0.193E-02
   0.296E+02 -.201E+03 -.124E+02   -.342E+02 0.217E+03 0.150E+02   0.460E+01 -.165E+02 -.257E+01   -.663E-02 0.400E-02 0.384E-03
   -.509E+01 0.195E+03 0.182E+02   0.470E+01 -.208E+03 -.231E+02   0.465E+00 0.129E+02 0.491E+01   -.305E-01 -.584E-02 0.176E-02
   -.112E+01 -.214E+03 -.134E+02   0.218E+01 0.232E+03 0.169E+02   -.110E+01 -.177E+02 -.350E+01   0.344E-02 -.289E-02 0.763E-02
   0.259E+02 0.220E+03 0.181E+01   -.317E+02 -.237E+03 0.586E+00   0.590E+01 0.170E+02 -.226E+01   -.103E-01 -.128E-01 -.205E-01
   -.211E+02 -.224E+03 0.253E+02   0.275E+02 0.238E+03 -.304E+02   -.631E+01 -.136E+02 0.525E+01   -.171E-01 0.847E-02 0.105E-01
   -.205E+02 0.235E+03 -.239E+02   0.230E+02 -.250E+03 0.285E+02   -.243E+01 0.156E+02 -.459E+01   -.570E-02 0.123E-01 0.125E-01
[...]
   0.434E+02 -.203E+03 0.406E+02   -.523E+02 0.215E+03 -.473E+02   0.880E+01 -.120E+02 0.677E+01   0.140E-01 -.466E-02 -.149E-01
   0.461E+01 0.231E+03 0.141E+02   -.526E+01 -.243E+03 -.191E+02   0.617E+00 0.116E+02 0.504E+01   0.327E-01 0.109E-01 -.125E-03
   0.394E+02 -.214E+03 0.371E+01   -.471E+02 0.229E+03 -.769E+01   0.774E+01 -.143E+02 0.393E+01   0.512E-02 0.242E-01 0.161E-01
   -.579E+00 0.191E+03 0.249E+02   0.125E+01 -.205E+03 -.335E+02   -.714E+00 0.133E+02 0.864E+01   0.151E-01 0.829E-02 -.175E-01
   -.194E+02 -.212E+03 0.339E+02   0.253E+02 0.227E+03 -.401E+02   -.581E+01 -.157E+02 0.619E+01   0.205E-01 -.147E-01 -.187E-01
   0.223E+02 0.205E+03 0.892E+01   -.276E+02 -.223E+03 -.110E+02   0.525E+01 0.178E+02 0.206E+01   0.704E-02 -.624E-02 0.441E-02
   -.145E+02 -.233E+03 0.284E+00   0.187E+02 0.245E+03 -.193E+01   -.428E+01 -.125E+02 0.164E+01   0.990E-02 -.285E-01 -.125E-01
   0.749E+01 0.233E+03 -.124E+02   -.110E+02 -.245E+03 0.152E+02   0.356E+01 0.125E+02 -.289E+01   -.157E-01 0.285E-01 0.234E-02
   -.341E+01 -.205E+03 0.237E+02   0.426E+01 0.223E+03 -.294E+02   -.846E+00 -.178E+02 0.558E+01   0.301E-03 0.624E-02 0.830E-02
   0.391E+02 0.212E+03 0.159E+00   -.474E+02 -.227E+03 0.182E+01   0.827E+01 0.157E+02 -.194E+01   -.264E-01 0.147E-01 0.837E-02
   0.253E+02 -.192E+03 0.858E+01   -.301E+02 0.205E+03 -.925E+01   0.495E+01 -.128E+02 0.636E+00   -.217E-01 0.544E-03 0.768E-02
   0.161E+02 0.202E+03 -.257E+02   -.205E+02 -.215E+03 0.313E+02   0.435E+01 0.134E+02 -.560E+01   -.195E-02 -.169E-02 0.879E-02
   0.481E+01 -.236E+03 -.499E+02   -.512E+01 0.249E+03 0.596E+02   0.460E+00 -.128E+02 -.974E+01   -.233E-01 -.236E-02 -.585E-02
   -.128E+02 0.226E+03 0.193E+02   0.157E+02 -.241E+03 -.239E+02   -.290E+01 0.154E+02 0.457E+01   -.175E-01 -.601E-03 0.140E-01
   -.113E+02 0.383E-02 -.195E+02   -.288E-12 0.654E-12 -.334E-12   0.113E+02 -.117E-09 0.195E+02   0.146E-02 0.476E-06 0.250E-02

 POSITION                                       TOTAL-FORCE (eV/Angst)
      0.03242     -0.00088      0.04296        -0.001456      0.001307     -0.025012
      9.12399      4.95274      1.68956         0.013053      0.045502     -0.013307
      1.41903      9.93728      1.08044         0.037126     -0.028037      0.009161
      3.21842      0.03715      0.00431         0.135218     -0.083884      0.047020
      4.50867      9.86788      0.82454         0.054900      0.033672      0.024321
      5.97211      4.98354      1.73054        -0.020933     -0.001307     -0.013767
      7.33075      0.05947      2.72489        -0.018051     -0.045502      0.004651
      4.34564      4.94551      4.47038        -0.026888      0.083884      0.140612
      6.22681      9.94414      3.42154        -0.010629      0.028037      0.036732
      8.76862      5.00106      6.65849        -0.017789      0.044379      0.000934
     10.26350      9.95548      5.67673        -0.020166      0.000000     -0.034928
      2.95142     14.88036      4.90019         0.009703     -0.044379     -0.014939
      4.46038     10.01354      5.96929        -0.006388     -0.033672      0.059705
      3.01098      5.01886      1.67255         0.034864      0.101318     -0.063583
     10.36399      0.15688      7.60149        -0.054544      0.221729     -0.094400
      7.49046      9.95548      0.87367        -0.029661      0.000000     -0.051374
      7.35577      4.82781      4.04759         0.057532     -0.086292     -0.018864
      8.90588      9.95548      3.32525        -0.020188      0.000000     -0.034966
     10.25697      0.18441      2.37258        -0.045103      0.086292      0.040392
     10.41166      4.96609      4.23532        -0.009355      0.045452     -0.044003
      2.85686     10.03307      3.39097        -0.339934      0.125114      0.064880
      4.42783      0.05680      2.50927         0.005908      0.025970     -0.042004
      5.94363     14.86255      5.09625        -0.072496     -0.101318     -0.001599
      5.91029      4.92587      6.77024        -0.039331     -0.025970     -0.015886
      7.50888      9.84835      5.82199         0.226155     -0.125114     -0.261952
      8.89161      0.04612      5.11293        -0.033431     -0.045452     -0.030103
     11.83063      4.85533      6.75473        -0.054481     -0.221729     -0.094436
     13.30693      7.37480      7.57636         0.022555      0.025371     -0.039841
      8.89246     12.44725      1.79596         0.012745     -0.048630     -0.053965
      1.65945      2.56303      0.82183         0.021860      0.047699     -0.050210
      2.82049      7.32173      0.00528        -0.068455      0.056830      0.014973
      2.98583     12.58956      1.79718         0.008939     -0.007256      0.021397
      4.49500      2.49352      0.89985         0.005638      0.023810      0.034753
     10.54071      7.36075      7.59863        -0.024974     -0.041791      0.026167
      5.95558     12.53617      1.58693        -0.045781     -0.025371     -0.000387
      7.39000      2.50611      0.75686        -0.025025      0.000000     -0.043344
      7.58818      7.46371      2.54898        -0.053108      0.048630     -0.015945
      7.51524     12.53707      4.32952         0.022631     -0.068117      0.016070
      8.99835      2.50611      3.54261        -0.022022      0.000000     -0.038144
     10.47092      7.37389      2.62306         0.002602      0.068117      0.027634
     10.32531     12.55053      4.04232         0.042577     -0.050777      0.003295
      2.89323      2.50041      3.29205        -0.001021     -0.020008      0.019987
      4.34329      7.40897      2.58964         0.012093      0.026473      0.016520
      4.59497     12.55969      4.09765         0.047194     -0.056830     -0.051798
      5.83312      2.41964      3.52903        -0.054413     -0.047699     -0.006174
      6.06413      7.29186      5.13679         0.014061      0.007256      0.018440
      6.07168     12.47245      6.70861         0.008261     -0.026473      0.018733
      7.35550      2.48225      5.83263         0.017819      0.020008      0.009110
      8.81716      7.36043      4.91305        -0.018435      0.050777      0.038520
      9.03242     12.56728      6.69513        -0.002820     -0.022367     -0.014590
     10.39751      2.50611      5.96601        -0.018093      0.000000     -0.031339
     11.76101      7.34369      5.11978        -0.011225      0.022367     -0.009738
     11.78931     12.55022      6.87775         0.035148      0.041791     -0.008545
      4.48291      2.48915      6.02369         0.027278     -0.023810      0.022259
      4.80346     11.21266      7.56675         0.005988     -0.001413      0.011897
      8.88308      3.89044      0.00134         0.045837     -0.029817     -0.010545
      8.65912      1.22224      1.59154        -0.041028      0.037276     -0.005342
      8.94526      8.71102      1.61664         0.081372      0.140994      0.107727
      1.38369      6.21149      0.84067         0.036377     -0.144611      0.091778
      1.61836     13.75234      0.63297         0.033767      0.087852      0.051496
[...]
      5.82605      8.89453      6.84122        -0.129907     -0.011606      0.107579
      7.55719      6.35622      6.08967        -0.035345     -0.020009      0.064193
      7.43988     13.82709      5.96710        -0.000106     -0.005929      0.038554
      8.94155     11.26429      5.12541         0.084302      0.052160     -0.042195
      8.89308      3.78493      5.15972        -0.027808      0.030059     -0.011479
      8.79138      1.36924      6.86160         0.068292     -0.132713     -0.018800
      9.27668      8.69679      6.89266        -0.031226      0.044544     -0.006499
     10.39423      6.03204      5.99008        -0.055914     -0.035922     -0.019356
     10.46951     13.87892      5.94662         0.011194      0.035922     -0.058102
     11.80994     11.21417      5.43008         0.009985     -0.044544     -0.030292
      3.06641      3.61343      5.05004        -0.050427      0.132713      0.049742
     12.04277      1.18046      6.69903         0.064532      0.006860     -0.025612
     11.91641      8.89363      6.67551        -0.024313      0.011901     -0.016452
      4.46707      6.31962      5.83239         0.126074      0.100910     -0.034978
      4.31653     13.74811      6.06029        -0.020955      0.017871      0.049655
    total drift:                                0.002466      0.003834      0.001539

  FREE ENERGIE OF THE ION-ELECTRON SYSTEM (eV)
  free  energy   TOTEN  =      -798.3510119433 eV

  energy  without entropy=     -798.2785717629  energy(sigma->0) =     -798.31479185

 d Force = 0.6602388E-01[ 0.647E-01, 0.673E-01]  d Energy = 0.7035278E-01-0.433E-02
 d Force = 0.6932551E+01[ 0.639E+01, 0.747E+01]  d Ewald  =-0.1998658E+02 0.269E+02

 Quasi-Newton relaxation of ions (Broydens 2nd method)
  g(Force)  = 0.588E-01   g(Stress)= 0.558E-02

 retain information from N=  1 steps
 eigenvalues of (default step * inverse Hessian matrix)
  average eigenvalue of G=   0.4217
 eigenvalue spectrum of G is  0.4217

volume of typ            1:    12.8 %

[...]

volume of typ            4:     8.6 %

total charge

# of ion       s       p       d       tot
    1        0.281   6.172   1.954   8.407
    2        0.283   6.164   1.957   8.404
    3        0.270   6.143   2.001   8.414
    4        0.280   6.158   1.969   8.407
    5        0.286   6.179   1.931   8.396
    6        0.281   6.172   1.954   8.407
    7        0.283   6.164   1.957   8.404
    8        0.280   6.158   1.969   8.407
    9        0.270   6.143   2.001   8.414
   10        0.286   6.166   1.948   8.399
   11        0.273   6.145   2.011   8.429
   12        0.286   6.166   1.948   8.399
   13        0.286   6.179   1.931   8.396
   14        0.180   0.191   8.057   8.429
   15        0.186   0.199   8.057   8.442
   16        0.180   0.177   8.095   8.453
   17        0.179   0.195   8.067   8.441
   18        0.176   0.174   8.143   8.493
   19        0.179   0.195   8.067   8.441
   20        0.185   0.205   7.989   8.379
   21        0.184   0.179   8.100   8.463
   22        0.187   0.204   8.001   8.391
   23        0.180   0.191   8.057   8.429
   24        0.187   0.204   8.001   8.391
   25        0.184   0.179   8.100   8.463
   26        0.185   0.205   7.989   8.379
   27        0.186   0.199   8.057   8.442
   28        2.071   0.243   0.091   2.405
   29        2.080   0.270   0.104   2.454
   30        2.080   0.270   0.103   2.453
   31        2.100   0.316   0.126   2.542
   32        2.088   0.286   0.111   2.484
   33        2.076   0.259   0.098   2.433
   34        2.077   0.261   0.099   2.437
   35        2.071   0.243   0.091   2.405
   36        2.080   0.272   0.107   2.460
   37        2.080   0.270   0.104   2.454
   38        2.070   0.240   0.088   2.398
   39        2.080   0.266   0.102   2.448
   40        2.070   0.240   0.088   2.398
   41        2.076   0.260   0.097   2.434
   42        2.072   0.246   0.093   2.410
   43        2.076   0.257   0.098   2.431
   44        2.100   0.316   0.126   2.542
   45        2.080   0.270   0.103   2.453
   46        2.088   0.286   0.111   2.484
   47        2.076   0.257   0.098   2.431
   48        2.072   0.246   0.093   2.410
   49        2.076   0.260   0.097   2.434
   50        2.078   0.261   0.097   2.436
   51        2.063   0.223   0.081   2.367
   52        2.078   0.261   0.097   2.436
   53        2.077   0.261   0.099   2.437
   54        2.076   0.259   0.098   2.433
   55        1.252   2.848   0.005   4.106
   56        1.246   2.830   0.005   4.081
   57        1.251   2.851   0.006   4.109
   58        1.251   2.817   0.006   4.074
   59        1.251   2.830   0.005   4.087
   60        1.249   2.844   0.005   4.098
[...]
   94        1.251   2.838   0.005   4.095
   95        1.254   2.846   0.005   4.104
   96        1.243   2.835   0.005   4.083
   97        1.252   2.817   0.006   4.075
   98        1.251   2.831   0.005   4.087
   99        1.254   2.822   0.006   4.082
  100        1.255   2.849   0.006   4.109
  101        1.244   2.832   0.005   4.081
  102        1.244   2.832   0.005   4.081
  103        1.255   2.849   0.006   4.109
  104        1.254   2.822   0.006   4.082
  105        1.247   2.851   0.005   4.102
  106        1.247   2.840   0.005   4.092
  107        1.253   2.828   0.005   4.087
  108        1.249   2.848   0.005   4.103
tot         129.79  243.11  141.29  514.19

magnetization (x)

# of ion       s       p       d       tot
    1       -0.001  -0.001  -0.034  -0.036
    2       -0.001  -0.001  -0.039  -0.042
    3        0.001   0.001   0.048   0.051
    4       -0.002  -0.002  -0.051  -0.054
    5        0.001   0.000   0.020   0.021
    6       -0.001  -0.001  -0.034  -0.036
    7       -0.001  -0.001  -0.039  -0.042
    8       -0.002  -0.002  -0.051  -0.054
    9        0.001   0.001   0.048   0.051
   10       -0.001  -0.001  -0.027  -0.029
   11        0.002   0.002   0.047   0.050
   12       -0.001  -0.001  -0.027  -0.029
   13        0.001   0.000   0.020   0.021
   14        0.007   0.001   1.037   1.044
   15        0.007   0.001   0.999   1.007
   16        0.001  -0.001  -0.802  -0.802
   17        0.002   0.001   0.946   0.949
   18        0.001   0.000  -0.561  -0.561
   19        0.002   0.001   0.946   0.949
   20        0.001   0.001   1.281   1.283
   21        0.000  -0.001  -0.721  -0.722
   22        0.001   0.002   1.228   1.231
   23        0.007   0.001   1.037   1.044
   24        0.001   0.002   1.228   1.231
   25        0.000  -0.001  -0.721  -0.722
   26        0.001   0.001   1.281   1.283
   27        0.007   0.001   0.999   1.007
   28       -0.000  -0.000  -0.000  -0.001
   29        0.001   0.002   0.001   0.004
   30        0.001   0.004   0.001   0.007
   31       -0.000  -0.001  -0.000  -0.001
   32       -0.000  -0.000  -0.000  -0.000
   33        0.000   0.003   0.001   0.005
   34        0.001   0.004   0.001   0.005
   35       -0.000  -0.000  -0.000  -0.001
   36       -0.000   0.003   0.001   0.004
   37        0.001   0.002   0.001   0.004
   38        0.000   0.001   0.000   0.002
   39        0.000  -0.001  -0.000  -0.001
   40        0.000   0.001   0.000   0.002
   41        0.000   0.001   0.000   0.002
   42        0.001   0.002   0.001   0.004
   43        0.001   0.003   0.001   0.005
   44       -0.000  -0.001  -0.000  -0.001
   45        0.001   0.004   0.001   0.007
   46       -0.000  -0.000  -0.000  -0.000
   47        0.001   0.003   0.001   0.005
   48        0.001   0.002   0.001   0.004
   49        0.000   0.001   0.000   0.002
   50        0.000   0.001   0.000   0.001
   51       -0.000   0.000  -0.000  -0.000
   52        0.000   0.001   0.000   0.001
   53        0.001   0.004   0.001   0.005
   54        0.000   0.003   0.001   0.005
   55        0.001   0.003   0.000   0.004
   56        0.006   0.080   0.000   0.087
   57        0.001   0.021  -0.000   0.022
   58       -0.005  -0.042  -0.000  -0.047
   59        0.005   0.062   0.000   0.067
   60        0.002   0.032  -0.000   0.034
[...]
   94       -0.003  -0.020  -0.000  -0.023
   95        0.001   0.023  -0.000   0.024
   96        0.006   0.077   0.000   0.084
   97       -0.003  -0.037  -0.000  -0.041
   98        0.005   0.060   0.000   0.065
   99        0.005   0.064   0.000   0.069
  100        0.000   0.001   0.000   0.002
  101        0.006   0.088   0.000   0.095
  102        0.006   0.088   0.000   0.095
  103        0.000   0.001   0.000   0.002
  104        0.005   0.064   0.000   0.069
  105        0.002   0.020  -0.000   0.022
  106       -0.003  -0.021  -0.000  -0.024
  107        0.003   0.046  -0.000   0.049
  108        0.002   0.024  -0.000   0.026
tot           0.15    1.59    8.07    9.81