 vasp.5.4.4.18Apr17-6-g9f103f2a35 (build May 12 2020 05:39:39) gamma-only

 MD_VERSION_INFO: Compiled 2020-05-12T12:39:39-UTC in devlin.sd.materialsdesign.
 com:/home/medea2/data/build/wwolf/vasp-gpu5.4.4/13047/x86_64/src/src/build/gam
 from svn 13047

 executed on                        Lin64 date 2023.04.04  12:10:18

 INCAR:
 POTCAR:    PAW_PBE Ta_pv 07Sep2000
 POTCAR:    PAW_PBE Ni 02Aug2007
 POTCAR:    PAW_PBE Li_sv 10Sep2004
 POTCAR:    PAW_PBE O 08Apr2002

 POTCAR:    PAW_PBE Ta_pv 07Sep2000

 POTCAR:    PAW_PBE Ni 02Aug2007

 POTCAR:    PAW_PBE Li_sv 10Sep2004

 POTCAR:    PAW_PBE O 08Apr2002

 Optimization of the real space projectors (new method)

 maximal supplied QI-value         = 15.12
 optimisation between [QCUT,QGAM] = [ 11.34, 22.83] = [ 36.00,145.93] Ry
 Optimized for a Real-space Cutoff    1.61 Angstroem

   l    n(q)    QCUT    max X(q) W(low)/X(q) W(high)/X(q)  e(spline)
   1     11    11.338     4.092    0.40E-05    0.64E-05    0.47E-07
   1     11    11.338     4.834    0.13E-04    0.44E-04    0.21E-06
   2     10    11.338    62.294    0.15E-03    0.31E-03    0.77E-06
   2     10    11.338    50.966    0.15E-03    0.31E-03    0.77E-06
   0     11    11.338   103.792    0.33E-04    0.19E-04    0.90E-07
   0     11    11.338    56.335    0.26E-04    0.17E-04    0.79E-07
 Optimization of the real space projectors (new method)

[...]

   l    n(q)    QCUT    max X(q) W(low)/X(q) W(high)/X(q)  e(spline)
   0      7    11.276    10.506    0.54E-04    0.58E-04    0.16E-07
   0      7    11.276     8.367    0.11E-03    0.14E-03    0.35E-07
   1      7    11.276     8.983    0.23E-03    0.43E-03    0.86E-07
 Optimization of the real space projectors (new method)

 maximal supplied QI-value         = 24.76
 optimisation between [QCUT,QGAM] = [ 11.39, 22.77] = [ 36.31,145.25] Ry
 Optimized for a Real-space Cutoff    1.10 Angstroem

   l    n(q)    QCUT    max X(q) W(low)/X(q) W(high)/X(q)  e(spline)
   0      7    11.387    20.381    0.22E-03    0.48E-03    0.18E-06
   0      7    11.387    15.268    0.22E-03    0.52E-03    0.19E-06
   1      7    11.387     5.964    0.22E-03    0.73E-03    0.24E-06
   1      7    11.387     5.382    0.19E-03    0.60E-03    0.21E-06

  PAW_PBE Ta_pv 07Sep2000               :
  PAW_PBE Ni 02Aug2007                  :
  PAW_PBE Li_sv 10Sep2004               :
  PAW_PBE O 08Apr2002                   :

 POSCAR: ce425587_1
  positions in direct lattice
 exchange correlation table for  LEXCH =       14
   RHO(1)=    0.500       N(1)  =     2000
   RHO(2)=  100.500       N(2)  =     4000

 ion  position               nearest neighbor table
   1  1.000  0.995  0.001-  60 1.98  72 1.98 108 1.98  57 2.02  93 2.03 105 2.03  15 2.91  13 2.91
                            29 2.91  20 2.93  25 2.93   8 2.93  10 2.93  54 2.96  47 2.98  53 2.98
   2  0.890  0.338  0.220-  77 1.97  59 1.99  71 1.99  56 2.02  74 2.03  80 2.03  26 2.91  21 2.91
                            11 2.93   9 2.93  37 2.94  40 2.94  16 2.94  14 2.94  39 2.95  28 2.97
   3  0.444  0.671  0.112-  67 1.99  61 1.99  85 1.99  70 2.02  64 2.02 100 2.02  50 2.91  19 2.92
                            17 2.92  12 2.92   7 2.92  24 2.92  22 2.92  43 2.97  35 2.98  32 2.98
   4  0.777  0.662  0.446-  58 1.97  76 1.99  82 1.99  97 2.02  73 2.03  79 2.03  24 2.91  22 2.91
                            19 2.93  17 2.93  37 2.94  40 2.94   7 2.94  12 2.94  29 2.95  49 2.97
   5  0.223  0.329  0.555-  92 1.99 104 1.99  86 1.99  83 2.02  89 2.02 107 2.02  54 2.91  11 2.92
                             9 2.92  14 2.92  16 2.92  26 2.92  21 2.92  43 2.97  42 2.98  45 2.98
   6  0.667  0.005  0.666-  75 1.98  81 1.98  99 1.98  78 2.02  96 2.03 102 2.03  13 2.91  15 2.91
                            39 2.91   8 2.93  10 2.93  20 2.93  25 2.93  50 2.96  48 2.98  51 2.98
   7  0.111  0.667  0.108-  55 1.96  94 1.98  64 2.06  79 2.06  58 2.07  61 2.09  28 2.84  22 2.88
                            12 2.89  27 2.89   3 2.92   4 2.94  17 2.97
   8  0.334  0.000  0.003-  66 1.94  63 1.97  93 2.04  96 2.04  99 2.08  60 2.10  10 2.87  18 2.88
                            15 2.90   6 2.93   1 2.93  20 2.97
   9  0.226  0.332  0.219-  62 1.96  65 1.96  80 2.04  83 2.05  86 2.08  59 2.10  23 2.88  11 2.88
                            21 2.89   5 2.92   2 2.93  16 2.97
  10  0.663  0.000  0.003-  66 1.94  69 1.97 105 2.04 102 2.04  99 2.08  72 2.10   8 2.87  18 2.88
                            13 2.90   6 2.93   1 2.93  25 2.97
  11  0.555  0.332  0.219-  68 1.96  65 1.96  74 2.04  89 2.05  86 2.08  71 2.10  23 2.88   9 2.88
                            26 2.89   5 2.92   2 2.93  14 2.97
  12  0.781  0.667  0.108-  55 1.96 106 1.98  70 2.06  73 2.06  58 2.07  67 2.09  28 2.84  24 2.88
                             7 2.89  27 2.89   3 2.92   4 2.94  19 2.97
  13  0.666  0.000  0.333-  90 1.99  69 1.99  78 2.06  57 2.06  72 2.07  75 2.07  45 2.82  35 2.82
                            10 2.90  20 2.90  18 2.91   1 2.91   6 2.91  15 2.92
  14  0.555  0.333  0.559-  98 1.96  95 1.98  89 2.06  74 2.06  77 2.07  92 2.09  49 2.84  21 2.88
                            16 2.89  23 2.89   5 2.92   2 2.94  11 2.97
  15  0.001  0.000  0.333-  63 1.99  84 1.99  78 2.06  57 2.06  60 2.07  81 2.07  32 2.82  42 2.82
                             8 2.90  25 2.90  18 2.91   1 2.91   6 2.91  13 2.92
  16  0.886  0.333  0.559-  98 1.96 101 1.98  83 2.06  80 2.06  77 2.07 104 2.09  49 2.84  26 2.88
                            14 2.89  23 2.89   5 2.92   2 2.94   9 2.97
  17  0.111  0.668  0.448- 103 1.96  88 1.96  79 2.04  64 2.05  85 2.08  82 2.10  27 2.88  19 2.88
                            24 2.89   3 2.92   4 2.93   7 2.97
  18  0.333  0.000  0.333-  66 1.91  87 1.91  69 1.92  84 1.92  90 1.92  63 1.92  10 2.88   8 2.88
                            20 2.88  25 2.88  13 2.91  15 2.91
  19  0.441  0.668  0.448-  91 1.96  88 1.96  73 2.04  70 2.05  85 2.08  76 2.10  27 2.88  17 2.88
                            22 2.89   3 2.92   4 2.93  12 2.97
  20  0.333  1.000  0.664-  87 1.94  90 1.97  96 2.04  93 2.04 108 2.08  75 2.10  25 2.87  18 2.88
                            13 2.90   1 2.93   6 2.93   8 2.97
  21  0.225  0.334  0.888-  95 1.96  62 1.97  56 2.04 107 2.05  59 2.08  92 2.09  48 2.81  31 2.82
                            14 2.88  23 2.89   9 2.89   2 2.91   5 2.92  26 2.96
  22  0.442  0.666  0.778-  94 1.96  91 1.97  97 2.04 100 2.05  76 2.08  61 2.09  47 2.81  46 2.82
                             7 2.88  27 2.89  19 2.89   4 2.91   3 2.92  24 2.96
  23  0.555  0.333  0.890-  98 1.90  65 1.91  95 1.92 101 1.92  62 1.92  68 1.92  49 2.83   9 2.88
                            11 2.88  21 2.89  26 2.89  16 2.89  14 2.89
  24  0.780  0.666  0.778- 106 1.96 103 1.97  97 2.04 100 2.05  82 2.08  67 2.09  53 2.81  52 2.82
                            12 2.88  27 2.89  17 2.89   4 2.91   3 2.92  22 2.96
  25  0.004  1.000  0.664-  87 1.94  84 1.97 102 2.04 105 2.04 108 2.08  81 2.10  20 2.87  18 2.88
                            15 2.90   1 2.93   6 2.93  10 2.97
  26  0.886  0.334  0.888- 101 1.96  68 1.97  56 2.04 107 2.05  71 2.08 104 2.09  51 2.81  34 2.82
                            16 2.88  23 2.89  11 2.89   2 2.91   5 2.92  21 2.96
  27  0.111  0.667  0.777-  55 1.90  88 1.91 106 1.92  94 1.92  91 1.92 103 1.92  28 2.83  17 2.88
                            19 2.88  22 2.89  24 2.89  12 2.89   7 2.89
  28  0.003  0.507  0.994-  94 2.08 106 2.08  58 2.10  59 2.12  71 2.12 107 2.16  27 2.83   7 2.84
                            12 2.84   2 2.97
  29  0.884  0.833  0.232-  72 2.07  60 2.07  73 2.08  79 2.08  78 2.09  55 2.28   1 2.91   4 2.95

  30  0.120  0.166  0.111-  80 2.09  93 2.10  57 2.13  63 2.16  62 2.16  56 2.18   1 3.02   2 3.03

[...]

  49  0.664  0.493  0.673-  95 2.08 101 2.08  77 2.10  76 2.12  82 2.12 100 2.16  23 2.83  14 2.84
                            16 2.84   4 2.97
  50  0.559  0.833  0.881-  67 2.06  61 2.06  97 2.08  96 2.10 102 2.10  66 2.27   3 2.91   6 2.96

[...]

  55  0.004  0.736  0.992-  27 1.90   7 1.96  12 1.96  47 2.15  53 2.15  29 2.28
  56  0.999  0.257  0.002-   2 2.02  26 2.04  21 2.04  54 2.08  36 2.18  30 2.18
  57  0.893  0.079  0.215-   1 2.02  13 2.06  15 2.06  39 2.09  30 2.13  36 2.13
  58  0.886  0.586  0.229-   4 1.97  12 2.07   7 2.07  28 2.10  37 2.16  40 2.16
  59  0.106  0.417  0.113-   2 1.99  31 2.03  40 2.05  21 2.08   9 2.10  28 2.12
  60  0.106  0.917  0.110-   1 1.98  32 2.03  15 2.07  29 2.07   8 2.10  47 2.13
  61  0.337  0.750  0.004-   3 1.99  47 2.03  50 2.06  22 2.09   7 2.09  32 2.11
  62  0.339  0.263  0.997-  23 1.92   9 1.96  21 1.97  48 2.08  30 2.16  33 2.18
  63  0.226  0.071  0.226-  18 1.92   8 1.97  15 1.99  42 2.08  33 2.14  30 2.16
  64  0.227  0.589  0.221-   3 2.02  17 2.05  40 2.05   7 2.06  43 2.09  31 2.17
  65  0.447  0.403  0.105-  23 1.91  11 1.96   9 1.96  34 2.13  31 2.13  43 2.22
  66  0.442  0.932  0.116-  18 1.91  10 1.94   8 1.94  35 2.19  32 2.19  50 2.27
  67  0.659  0.750  0.004-   3 1.99  53 2.03  50 2.06  24 2.09  12 2.09  35 2.11
  68  0.664  0.263  0.997-  23 1.92  11 1.96  26 1.97  51 2.08  36 2.16  33 2.18
  69  0.548  0.071  0.226-  18 1.92  10 1.97  13 1.99  45 2.08  33 2.14  36 2.16
  70  0.552  0.589  0.221-   3 2.02  19 2.05  37 2.05  12 2.06  43 2.09  34 2.17
  71  0.781  0.417  0.113-   2 1.99  34 2.03  37 2.05  26 2.08  11 2.10  28 2.12
  72  0.784  0.917  0.110-   1 1.98  35 2.03  13 2.07  29 2.07  10 2.10  53 2.13
  73  0.668  0.744  0.338-   4 2.03  19 2.04  12 2.06  29 2.08  38 2.09  35 2.15
  74  0.672  0.256  0.329-   2 2.03  11 2.04  14 2.06  39 2.08  36 2.09  45 2.15
  75  0.561  0.083  0.557-   6 1.98  45 2.03  13 2.07  39 2.07  20 2.10  48 2.13
  76  0.561  0.583  0.553-   4 1.99  46 2.03  37 2.05  22 2.08  19 2.10  49 2.12
  77  0.781  0.414  0.438-   2 1.97  16 2.07  14 2.07  49 2.10  37 2.16  40 2.16
  78  0.774  0.921  0.452-   6 2.02  15 2.06  13 2.06  29 2.09  41 2.13  38 2.13
  79  0.994  0.744  0.338-   4 2.03  17 2.04   7 2.06  29 2.08  41 2.09  32 2.15
  80  0.999  0.256  0.329-   2 2.03   9 2.04  16 2.06  39 2.08  30 2.09  42 2.15
  81  0.882  0.083  0.557-   6 1.98  42 2.03  15 2.07  39 2.07  25 2.10  51 2.13
  82  0.886  0.583  0.553-   4 1.99  52 2.03  40 2.05  24 2.08  17 2.10  49 2.12
  83  0.115  0.411  0.445-   5 2.02   9 2.05  40 2.05  16 2.06  43 2.09  52 2.17
  84  0.118  0.929  0.441-  18 1.92  25 1.97  15 1.99  32 2.08  44 2.14  41 2.16
  85  0.337  0.751  0.327-   3 1.99  19 2.08  17 2.08  44 2.09  35 2.13  32 2.13
  86  0.330  0.249  0.340-   5 1.99   9 2.08  11 2.08  33 2.09  42 2.13  45 2.13
  87  0.225  0.068  0.551-  18 1.91  25 1.94  20 1.94  42 2.19  45 2.19  54 2.27
  88  0.219  0.597  0.562-  27 1.91  17 1.96  19 1.96  46 2.13  52 2.13  43 2.22
  89  0.440  0.411  0.445-   5 2.02  11 2.05  37 2.05  14 2.06  43 2.09  46 2.17
  90  0.441  0.929  0.441-  18 1.92  20 1.97  13 1.99  35 2.08  44 2.14  38 2.16
  91  0.328  0.737  0.670-  27 1.92  19 1.96  22 1.97  47 2.08  38 2.16  44 2.18
  92  0.329  0.250  0.663-   5 1.99  48 2.03  54 2.06  21 2.09  14 2.09  45 2.11
  93  0.218  0.077  0.891-   1 2.03   8 2.04  20 2.04  54 2.10  30 2.10  48 2.16
[...]
   -.475E-04 -.252E+03 -.330E+02   -.115E-04 0.264E+03 0.346E+02   0.000E+00 -.120E+02 -.169E+01   0.619E-08 0.147E-01 0.245E-02
   0.471E-04 0.224E+03 0.215E+01   0.191E-04 -.238E+03 -.788E+01   -.111E-15 0.133E+02 0.574E+01   -.948E-07 0.272E-01 -.179E-01
   -.284E-05 -.221E+03 -.268E+01   0.163E-05 0.235E+03 0.821E+01   -.111E-15 -.136E+02 -.554E+01   0.512E-07 -.161E-02 0.264E-02
   -.185E-06 0.213E+03 0.173E+02   0.446E-05 -.227E+03 -.247E+02   0.222E-15 0.146E+02 0.742E+01   0.490E-07 -.181E-01 0.374E-02
   -.154E+02 -.215E+03 0.115E+02   0.213E+02 0.229E+03 -.150E+02   -.592E+01 -.134E+02 0.350E+01   -.924E-02 -.298E-02 -.222E-01
   -.155E+02 0.216E+03 -.225E+01   0.225E+02 -.229E+03 0.536E+01   -.696E+01 0.131E+02 -.311E+01   0.395E-02 -.585E-02 0.623E-02
[...]
   0.291E+02 -.256E+03 0.161E+02   -.302E+02 0.266E+03 -.173E+02   0.114E+01 -.105E+02 0.120E+01   -.320E-01 0.141E-01 0.942E-02
   0.558E+01 0.219E+03 -.181E+01   -.111E+02 -.232E+03 0.511E+01   0.546E+01 0.127E+02 -.330E+01   0.359E-02 -.126E-01 -.162E-02
   0.141E-06 -.224E+03 -.215E+01   -.404E-05 0.238E+03 0.788E+01   0.111E-15 -.133E+02 -.574E+01   0.936E-07 -.272E-01 0.179E-01
   0.948E-04 0.252E+03 0.330E+02   0.265E-04 -.264E+03 -.346E+02   0.000E+00 0.120E+02 0.169E+01   -.685E-08 -.147E-01 -.245E-02
   0.466E-04 -.219E+03 -.161E+02   0.126E-04 0.233E+03 0.233E+02   -.222E-15 -.140E+02 -.719E+01   -.689E-07 0.111E-01 0.385E-02
   0.537E-04 0.223E+03 0.321E+01   0.378E-05 -.236E+03 -.946E+01   0.000E+00 0.133E+02 0.627E+01   -.647E-08 0.175E-01 -.207E-01
   -.291E+02 -.256E+03 0.161E+02   0.302E+02 0.266E+03 -.173E+02   -.114E+01 -.105E+02 0.120E+01   0.320E-01 0.141E-01 0.942E-02
   -.558E+01 0.219E+03 -.181E+01   0.111E+02 -.232E+03 0.511E+01   -.546E+01 0.127E+02 -.330E+01   -.359E-02 -.126E-01 -.162E-02
   0.244E+02 -.254E+03 0.151E+02   -.251E+02 0.265E+03 -.155E+02   0.701E+00 -.105E+02 0.438E+00   -.309E-01 0.306E-02 0.761E-02
   0.111E+02 0.215E+03 -.503E+01   -.173E+02 -.228E+03 0.820E+01   0.623E+01 0.134E+02 -.319E+01   0.992E-02 0.697E-02 0.192E-01
   0.558E+01 -.219E+03 0.181E+01   -.111E+02 0.232E+03 -.511E+01   0.546E+01 -.127E+02 0.330E+01   0.359E-02 0.126E-01 0.162E-02
   0.291E+02 0.256E+03 -.161E+02   -.302E+02 -.266E+03 0.173E+02   0.114E+01 0.105E+02 -.120E+01   -.320E-01 -.141E-01 -.942E-02
   -.181E-05 -.223E+03 -.321E+01   -.130E-05 0.236E+03 0.946E+01   0.000E+00 -.133E+02 -.627E+01   0.576E-08 -.175E-01 0.207E-01
   0.294E-05 0.219E+03 0.161E+02   -.358E-05 -.233E+03 -.233E+02   0.222E-15 0.140E+02 0.719E+01   0.699E-07 -.111E-01 -.385E-02
   0.483E-05 -.307E-03 -.122E-02   0.347E-12 -.369E-12 0.380E-12   0.822E-14 -.142E-13 -.178E-14   -.676E-08 -.623E-08 -.110E-05

 POSITION                                       TOTAL-FORCE (eV/Angst)
      8.73648     14.31004     -0.00912        -0.000000      0.008691      0.001827
      8.73648      4.86615      1.66091         0.000000     -0.008408     -0.005616
      4.36824      9.64377      0.83456        -0.000000     -0.000542      0.000929
      8.73648      9.50949      3.36624         0.000000      0.008408      0.005616
      4.36824      4.73187      4.19259         0.000000      0.000542     -0.000929
      8.73648      0.06560      5.03627         0.000000     -0.008691     -0.001827
      1.44433      9.58900      0.80678         0.002476      0.002627      0.002510
      2.93141      0.00478      0.02152        -0.002399     -0.001155     -0.002643
      2.92748      4.78049      1.65145        -0.000635     -0.001232      0.000402
      5.80508      0.00478      0.02152         0.002399     -0.001155     -0.002643
      5.80900      4.78049      1.65145         0.000635     -0.001232      0.000402
      7.29216      9.58900      0.80678        -0.002476      0.002627      0.002510
      7.27407     -0.00263      2.52108         0.002652      0.000000      0.000000
      7.29216      4.78664      4.22037        -0.002476     -0.002627     -0.002510
      1.46241     -0.00263      2.52108        -0.002652      0.000000      0.000000
     10.18081      4.78664      4.22037         0.002476     -0.002627     -0.002510
      2.92748      9.59515      3.37570        -0.000635      0.001232     -0.000402
      4.36824     -0.00263      2.52108         0.000000      0.000000      0.000000
      5.80900      9.59515      3.37570         0.000635      0.001232     -0.000402
      5.80508     14.37086      5.00563         0.002399      0.001155      0.002643
      5.84797      4.79630      6.71411        -0.000937     -0.002190     -0.000329
      7.25676      9.57146      5.87627         0.000937      0.002190      0.000329
      8.73648      4.77783      6.72275        -0.000000     -0.001854      0.002375
     10.21621      9.57146      5.87627        -0.000937      0.002190      0.000329
      2.93141     14.37086      5.00563        -0.002399      0.001155      0.002643
     11.62500      4.79630      6.71411         0.000937     -0.002190     -0.000329
      4.36824      9.58993      5.86763         0.000000      0.001854     -0.002375
      4.36824      7.28643      7.51058         0.000000      0.001718      0.003973
      8.73648     11.97724      1.73981        -0.000000      0.006175      0.009838
      1.53651      2.39053      0.83893        -0.003070      0.000547     -0.001404
      7.25679      7.08958      7.54840         0.002904     -0.000274     -0.001328
      2.84930     12.06442      1.69298         0.002080     -0.000259     -0.001043
      4.36824      2.38032      0.85402         0.000000     -0.002464      0.002492
     10.21618      7.08958      7.54840        -0.002904     -0.000274     -0.001328
      5.88719     12.06442      1.69298        -0.002080     -0.000259     -0.001043
      7.19997      2.39053      0.83893         0.003070      0.000547     -0.001404
      7.14635      7.18782      2.51357         0.000201      0.000000      0.000000
      7.19997     11.98511      4.18822         0.003070     -0.000547      0.001404
      8.73649      2.39840      3.28734         0.000000     -0.006175     -0.009838
      1.59014      7.18782      2.51357        -0.000201      0.000000      0.000000
     10.27300     11.98511      4.18822        -0.003070     -0.000547      0.001404
      2.84930      2.31122      3.33416         0.002080      0.000259      0.001043
      4.36824      7.18782      2.51357         0.000000      0.000000      0.000000
      4.36824     11.99532      4.17312        -0.000000      0.002464     -0.002492
      5.88719      2.31122      3.33416        -0.002080      0.000259      0.001043
      5.84794      7.27818      5.04198        -0.002904      0.000274      0.001328
      5.88165     11.88516      6.69379        -0.001921     -0.001336      0.002791
      7.22308      2.48260      5.89660         0.001921      0.001336     -0.002791
      8.73648      7.08133      5.07981         0.000000     -0.001718     -0.003973
      8.73648     11.97017      6.65293         0.000000     -0.004992     -0.002424
     10.24989      2.48260      5.89660        -0.001921      0.001336     -0.002791
     11.62503      7.27818      5.04198         0.002904      0.000274      0.001328
     11.59132     11.88516      6.69379         0.001921     -0.001336      0.002791
      4.36824      2.39759      5.93746         0.000000      0.004992      0.002424
      4.36824     10.57597      7.49254         0.000000      0.001426     -0.000170
      8.73648      3.69251      0.01058         0.000000      0.004385     -0.002736
      8.73648      1.13869      1.62428         0.000000     -0.001009     -0.002674
      8.73648      8.41867      1.72173         0.000000      0.000073     -0.002398
      1.41769      5.99696      0.85109         0.001839      0.000169     -0.003000
      1.40537     13.18449      0.81620         0.002737      0.001349      0.005493
[...]
      5.77686      8.57110      6.67293        -0.000278      0.002937      0.000089
      7.32786      5.79666      5.91746         0.000278     -0.002937     -0.000089
      7.30233     13.27311      5.84937        -0.003789      0.005898      0.001460
      8.73648     10.68313      5.01657        -0.000000     -0.004385      0.002736
      8.73648      3.79179      5.09784         0.000000     -0.001426      0.000170
      8.73648      1.19248      6.66833         0.000000     -0.002241      0.002703
      8.73648      8.45803      6.75290         0.000000      0.002363     -0.000777
     10.14511      5.79666      5.91746        -0.000278     -0.002937     -0.000089
     10.17064     13.27311      5.84937         0.003789      0.005898      0.001460
      2.94803     10.59833      5.05541        -0.000633     -0.001874      0.000868
      2.96255      3.59248      5.01127        -0.001112      0.000441      0.001121
     11.67057      1.09465      6.74102        -0.003789     -0.005898     -0.001460
     11.69611      8.57110      6.67293         0.000278      0.002937      0.000089
      4.36824      5.90973      5.83748         0.000000     -0.002363      0.000777
      4.36824     13.17528      5.92205         0.000000      0.002241     -0.002703
    total drift:                                0.000005     -0.000307     -0.001226

  FREE ENERGIE OF THE ION-ELECTRON SYSTEM (eV)
  free  energy   TOTEN  =      -720.5969466759 eV

  energy  without entropy=     -720.5965418120  energy(sigma->0) =     -720.59674424

 d Force = 0.1169481E-03[ 0.324E-05, 0.231E-03]  d Energy = 0.1221724E-03-0.522E-05
 d Force =-0.2375469E+01[-0.238E+01,-0.237E+01]  d Ewald  =-0.1318080E+01-0.106E+01

 Quasi-Newton relaxation of ions (Broydens 2nd method)
  g(Force)  = 0.103E-03   g(Stress)= 0.791E-04

 retain information from N=  1 steps
 eigenvalues of (default step * inverse Hessian matrix)
  average eigenvalue of G=   0.1671
 eigenvalue spectrum of G is  0.1671

 reached required accuracy - stopping structural energy minimisation

volume of typ            1:     6.4 %

[...]

volume of typ            4:     9.3 %

total charge

# of ion       s       p       d       tot
    1        0.294   6.190   1.910   8.394
    2        0.293   6.189   1.909   8.391
    3        0.293   6.190   1.908   8.391
    4        0.293   6.189   1.909   8.391
    5        0.293   6.190   1.908   8.391
    6        0.294   6.190   1.910   8.394
    7        0.218   0.256   7.899   8.373
    8        0.222   0.263   7.895   8.380
    9        0.222   0.263   7.898   8.382
   10        0.222   0.263   7.895   8.380
   11        0.222   0.263   7.898   8.382
   12        0.218   0.256   7.899   8.373
   13        0.218   0.256   7.899   8.373
   14        0.218   0.256   7.899   8.373
   15        0.218   0.256   7.899   8.373
   16        0.218   0.256   7.899   8.373
   17        0.222   0.263   7.898   8.382
   18        0.271   0.358   7.827   8.456
   19        0.222   0.263   7.898   8.382
   20        0.222   0.263   7.895   8.380
   21        0.221   0.263   7.897   8.381
   22        0.221   0.263   7.897   8.381
   23        0.272   0.360   7.835   8.467
   24        0.221   0.263   7.897   8.381
   25        0.222   0.263   7.895   8.380
   26        0.221   0.263   7.897   8.381
   27        0.272   0.360   7.835   8.467
   28        2.079   0.264   0.102   2.445
   29        2.082   0.278   0.107   2.467
   30        2.075   0.250   0.093   2.418
   31        2.075   0.250   0.094   2.419
   32        2.080   0.265   0.103   2.447
   33        2.074   0.243   0.091   2.408
   34        2.075   0.250   0.094   2.419
   35        2.080   0.265   0.103   2.447
   36        2.075   0.250   0.093   2.418
   37        2.087   0.291   0.116   2.494
   38        2.075   0.250   0.093   2.418
   39        2.082   0.278   0.107   2.467
   40        2.087   0.291   0.116   2.494
   41        2.075   0.250   0.093   2.418
   42        2.080   0.265   0.103   2.447
   43        2.076   0.258   0.096   2.431
   44        2.074   0.243   0.091   2.408
   45        2.080   0.265   0.103   2.447
   46        2.075   0.250   0.094   2.419
   47        2.080   0.265   0.102   2.447
   48        2.080   0.265   0.102   2.447
   49        2.079   0.264   0.102   2.445
   50        2.082   0.276   0.106   2.464
   51        2.080   0.265   0.102   2.447
   52        2.075   0.250   0.094   2.419
   53        2.080   0.265   0.102   2.447
   54        2.082   0.276   0.106   2.464
   55        1.257   2.786   0.005   4.048
   56        1.250   2.828   0.005   4.083
   57        1.249   2.831   0.005   4.084
   58        1.251   2.834   0.005   4.091
   59        1.249   2.839   0.005   4.093
   60        1.251   2.838   0.005   4.094
[...]
   94        1.255   2.791   0.005   4.051
   95        1.255   2.791   0.005   4.051
   96        1.249   2.830   0.005   4.084
   97        1.250   2.828   0.005   4.083
   98        1.257   2.786   0.005   4.048
   99        1.251   2.831   0.005   4.087
  100        1.250   2.824   0.005   4.079
  101        1.255   2.791   0.005   4.051
  102        1.249   2.830   0.005   4.084
  103        1.256   2.790   0.005   4.051
  104        1.249   2.840   0.005   4.094
  105        1.249   2.830   0.005   4.084
  106        1.255   2.791   0.005   4.051
  107        1.250   2.824   0.005   4.079
  108        1.251   2.831   0.005   4.087
tot         130.25  202.21  180.08  512.55

magnetization (x)

# of ion       s       p       d       tot
    1       -0.000  -0.000   0.002   0.001
    2       -0.002  -0.001  -0.001  -0.003
    3       -0.002  -0.002  -0.005  -0.008
    4       -0.002  -0.001  -0.001  -0.003
    5       -0.002  -0.002  -0.005  -0.008
    6       -0.000  -0.000   0.002   0.001
    7        0.002   0.000   1.358   1.360
    8        0.003   0.001   1.296   1.301
    9        0.002   0.000   1.321   1.323
   10        0.003   0.001   1.296   1.301
   11        0.002   0.000   1.321   1.323
   12        0.002   0.000   1.358   1.360
   13       -0.003  -0.001  -1.434  -1.438
   14        0.002   0.000   1.358   1.360
   15       -0.003  -0.001  -1.434  -1.438
   16        0.002   0.000   1.358   1.360
   17        0.002   0.000   1.321   1.323
   18       -0.000  -0.000  -0.007  -0.008
   19        0.002   0.000   1.321   1.323
   20        0.003   0.001   1.296   1.301
   21        0.002  -0.000   1.322   1.324
   22        0.002  -0.000   1.322   1.324
   23       -0.002  -0.002   0.159   0.155
   24        0.002  -0.000   1.322   1.324
   25        0.003   0.001   1.296   1.301
   26        0.002  -0.000   1.322   1.324
   27       -0.002  -0.002   0.159   0.155
   28        0.004   0.009   0.002   0.015
   29        0.004   0.010   0.003   0.017
   30        0.002   0.004   0.000   0.006
   31        0.004   0.009   0.001   0.014
   32        0.004   0.009   0.002   0.016
   33       -0.001  -0.003  -0.001  -0.005
   34        0.004   0.009   0.001   0.014
   35        0.004   0.009   0.002   0.016
   36        0.002   0.004   0.000   0.006
   37        0.003   0.009   0.003   0.014
   38        0.002   0.004   0.000   0.006
   39        0.004   0.010   0.003   0.017
   40        0.003   0.009   0.003   0.014
   41        0.002   0.004   0.000   0.006
   42        0.004   0.009   0.002   0.016
   43        0.005   0.009   0.001   0.015
   44       -0.001  -0.003  -0.001  -0.005
   45        0.004   0.009   0.002   0.016
   46        0.004   0.009   0.001   0.014
   47        0.002   0.004   0.001   0.007
   48        0.002   0.004   0.001   0.007
   49        0.004   0.009   0.002   0.015
   50        0.004   0.009   0.002   0.015
   51        0.002   0.004   0.001   0.007
   52        0.004   0.009   0.001   0.014
   53        0.002   0.004   0.001   0.007
   54        0.004   0.009   0.002   0.015
   55        0.012   0.130   0.000   0.142
   56        0.008   0.073   0.000   0.081
   57       -0.008  -0.085  -0.000  -0.093
   58        0.011   0.129   0.000   0.140
   59        0.011   0.129   0.000   0.140
   60        0.000   0.009   0.000   0.009
[...]
   94        0.013   0.117   0.000   0.130
   95        0.013   0.117   0.000   0.130
   96        0.008   0.073   0.000   0.081
   97        0.008   0.073   0.000   0.081
   98        0.012   0.130   0.000   0.142
   99        0.011   0.124   0.000   0.135
  100        0.008   0.075   0.000   0.084
  101        0.013   0.117   0.000   0.130
  102        0.008   0.073   0.000   0.081
  103        0.013   0.114   0.000   0.127
  104        0.011   0.125   0.000   0.136
  105        0.008   0.073   0.000   0.081
  106        0.013   0.117   0.000   0.130
  107        0.008   0.075   0.000   0.084
  108        0.011   0.124   0.000   0.135
tot           0.53    4.53   18.67   23.74