 vasp.5.4.4.18Apr17-6-g9f103f2a35 (build May 12 2020 05:39:39) gamma-only

 MD_VERSION_INFO: Compiled 2020-05-12T12:39:39-UTC in devlin.sd.materialsdesign.
 com:/home/medea2/data/build/wwolf/vasp-gpu5.4.4/13047/x86_64/src/src/build/gam
 from svn 13047

 executed on                        Lin64 date 2023.04.04  22:31:21

 INCAR:
 POTCAR:    PAW_PBE Ta_pv 07Sep2000
 POTCAR:    PAW_PBE Ni 02Aug2007
 POTCAR:    PAW_PBE Li_sv 10Sep2004
 POTCAR:    PAW_PBE O 08Apr2002

 POTCAR:    PAW_PBE Ta_pv 07Sep2000

 POTCAR:    PAW_PBE Ni 02Aug2007

 POTCAR:    PAW_PBE Li_sv 10Sep2004

 POTCAR:    PAW_PBE O 08Apr2002

 Optimization of the real space projectors (new method)

 maximal supplied QI-value         = 15.12
 optimisation between [QCUT,QGAM] = [ 11.34, 22.83] = [ 36.00,145.93] Ry
 Optimized for a Real-space Cutoff    1.61 Angstroem

   l    n(q)    QCUT    max X(q) W(low)/X(q) W(high)/X(q)  e(spline)
   1     11    11.338     4.092    0.40E-05    0.64E-05    0.47E-07
   1     11    11.338     4.834    0.13E-04    0.44E-04    0.21E-06
   2     10    11.338    62.294    0.15E-03    0.31E-03    0.77E-06
   2     10    11.338    50.966    0.15E-03    0.31E-03    0.77E-06
   0     11    11.338   103.792    0.33E-04    0.19E-04    0.90E-07
   0     11    11.338    56.335    0.26E-04    0.17E-04    0.79E-07
 Optimization of the real space projectors (new method)

[...]

   l    n(q)    QCUT    max X(q) W(low)/X(q) W(high)/X(q)  e(spline)
   0      7    11.276    10.506    0.54E-04    0.58E-04    0.16E-07
   0      7    11.276     8.367    0.11E-03    0.14E-03    0.35E-07
   1      7    11.276     8.983    0.23E-03    0.43E-03    0.86E-07
 Optimization of the real space projectors (new method)

 maximal supplied QI-value         = 24.76
 optimisation between [QCUT,QGAM] = [ 11.39, 22.77] = [ 36.31,145.25] Ry
 Optimized for a Real-space Cutoff    1.10 Angstroem

   l    n(q)    QCUT    max X(q) W(low)/X(q) W(high)/X(q)  e(spline)
   0      7    11.387    20.381    0.22E-03    0.48E-03    0.18E-06
   0      7    11.387    15.268    0.22E-03    0.52E-03    0.19E-06
   1      7    11.387     5.964    0.22E-03    0.73E-03    0.24E-06
   1      7    11.387     5.382    0.19E-03    0.60E-03    0.21E-06

  PAW_PBE Ta_pv 07Sep2000               :
  PAW_PBE Ni 02Aug2007                  :
  PAW_PBE Li_sv 10Sep2004               :
  PAW_PBE O 08Apr2002                   :

 POSCAR: ce111368_1
  positions in direct lattice
 exchange correlation table for  LEXCH =       14
   RHO(1)=    0.500       N(1)  =     2000
   RHO(2)=  100.500       N(2)  =     4000

 ion  position               nearest neighbor table
   1  0.999  0.998  1.000- 108 1.97  57 1.98  72 2.04  60 2.05 105 2.05  93 2.07  30 2.93   7 2.97
                             4 2.99  13 3.00  26 3.00  21 3.01  15 3.01  36 3.01  54 3.02  53 3.06
   2  0.890  0.329  0.221-  77 1.97  71 1.97  59 1.98  56 2.02  80 2.03  74 2.03  22 2.93  16 2.99
                            36 2.99  12 3.00  30 3.06  11 3.10   5 3.10   9 3.10
   3  0.110  0.669  0.112-  79 1.96  94 2.00  61 2.04  55 2.05  64 2.05  58 2.06   6 2.97   8 2.97
                            28 2.97  31 2.97  40 2.99  14 3.00  17 3.01  27 3.01  23 3.01  32 3.07
   4  0.333  0.997  0.001-  96 1.97  63 1.99  60 2.04  66 2.04  93 2.07  99 2.07  30 2.90  48 2.97
                             7 2.97   1 2.99  33 2.99  15 3.00  18 3.00  24 3.01  21 3.01  47 3.06
   5  0.220  0.336  0.251-  83 1.92  86 1.94  65 2.01  80 2.01  62 2.16  59 2.17  19 2.73  16 2.81
                            12 2.86  43 3.06  33 3.07  10 3.10   2 3.10  22 3.20
   6  0.443  0.669  0.111-  85 1.97 100 1.98  61 2.04  67 2.05  64 2.05  70 2.07  34 2.93   3 2.97
                             8 2.99  23 3.00  17 3.00  20 3.01  25 3.01  31 3.01  43 3.02  32 3.06
   7  0.667  0.997  0.999- 102 1.96  69 2.00  72 2.04  66 2.05 105 2.05  99 2.06   1 2.97   4 2.97
                            33 2.97  36 2.97  51 2.99  24 3.00  26 3.01  18 3.01  13 3.01  53 3.07
   8  0.778  0.670  0.110-  73 1.97 106 1.99  67 2.04  55 2.04  70 2.07  58 2.07  34 2.90  37 2.97
                             3 2.97   6 2.99  28 2.99  25 3.00  27 3.00  14 3.01  20 3.01  35 3.06
   9  0.528  0.333  0.556-  92 1.93  89 1.93  74 2.01  95 2.01  98 2.17  77 2.17  19 2.69  22 2.86
                            12 2.86  48 3.06  37 3.06  10 3.10   2 3.10  16 3.27
  10  0.555  0.337  0.890-  98 1.97  62 1.97  68 1.98  65 2.02 101 2.03  95 2.03  12 2.93  16 2.99
                            31 2.99  22 3.00  34 3.06   5 3.10  11 3.10   9 3.10
  11  0.916  0.331  0.860- 104 1.92 107 1.94  56 2.01 101 2.01  71 2.16  68 2.17  19 2.73  16 2.81
                            22 2.86  54 3.06  28 3.07   2 3.10  10 3.10  12 3.20
  12  0.555  0.335  0.220-  89 2.04  68 2.05  86 2.06  71 2.10  65 2.40  74 2.48   5 2.86   9 2.86
                            10 2.93  19 2.95   2 3.00  11 3.20
  13  0.663  0.994  0.340-  90 2.00  78 2.00  75 2.02  72 2.13  57 2.17  69 2.19  39 2.73  45 2.76
                            29 2.83  35 2.84  24 2.87  21 2.87  18 2.97  15 2.98   1 3.00   7 3.01
  14  0.774  0.669  0.452-  97 1.98  82 2.02  76 2.02  73 2.12  79 2.13  58 2.19  49 2.68  37 2.84
                            23 2.87  25 2.87  20 2.97  17 2.98   3 3.00   8 3.01
  15  0.997  0.994  0.340-  84 2.00  78 2.00  81 2.03  60 2.13  57 2.17  63 2.19  39 2.76  42 2.77
                            29 2.83  32 2.84  26 2.87  24 2.87  18 2.98  13 2.98   4 3.00   1 3.01
  16  0.894  0.333  0.556- 104 2.05  83 2.05  98 2.12  77 2.12  80 2.38 101 2.38  11 2.81   5 2.81
                            19 2.97  10 2.99   2 2.99   9 3.27
  17  0.107  0.669  0.452- 103 1.98  88 2.02  82 2.04  79 2.13  85 2.13  64 2.17  52 2.66  40 2.83
                            25 2.87  27 2.87  14 2.98  20 2.98   6 3.00   3 3.01
  18  0.330  0.994  0.340-  90 1.99  84 2.00  87 2.03  66 2.12  63 2.17  69 2.19  45 2.72  42 2.79
                            32 2.83  35 2.83  26 2.87  21 2.87  13 2.97  15 2.98   4 3.00   7 3.01
  19  0.227  0.333  0.556-  86 2.05 107 2.05  92 2.20  89 2.20 104 2.26  83 2.26   9 2.69  11 2.73
                             5 2.73  22 2.95  12 2.95  16 2.97
  20  0.441  0.670  0.451-  91 1.98  76 2.01  88 2.03  85 2.12  73 2.12  70 2.20  46 2.70  43 2.82
                            37 2.82  23 2.87  27 2.87  14 2.97  17 2.98   6 3.01   8 3.01
  21  0.337  0.997  0.660-  90 1.98  75 2.01  87 2.03 108 2.12  96 2.12  93 2.20  45 2.70  54 2.82
                            48 2.82  13 2.87  18 2.87  24 2.97  26 2.98   1 3.01   4 3.01
  22  0.219  0.331  0.891-  92 2.04  59 2.05 107 2.06  62 2.10  56 2.40  95 2.48  11 2.86   9 2.86
                             2 2.93  19 2.95  10 3.00   5 3.20
  23  0.448  0.673  0.771-  91 2.00  97 2.00  76 2.02  61 2.13 100 2.17  94 2.19  49 2.73  46 2.76
                            50 2.83  47 2.84  14 2.87  20 2.87  27 2.97  25 2.98   6 3.00   3 3.01
  24  0.670  0.998  0.659-  78 1.98  81 2.02  75 2.02  96 2.12 102 2.13  99 2.19  39 2.68  48 2.84
                            13 2.87  15 2.87  21 2.97  26 2.98   7 3.00   4 3.01
  25  0.781  0.672  0.771- 103 2.00  97 2.00  82 2.03  67 2.13 100 2.17 106 2.19  49 2.76  52 2.77
                            50 2.83  53 2.84  17 2.87  14 2.87  27 2.98  23 2.98   8 3.00   6 3.01
  26  0.003  0.998  0.659-  84 1.98  87 2.02  81 2.04 102 2.13 108 2.13 105 2.17  42 2.66  51 2.83
                            15 2.87  18 2.87  24 2.98  21 2.98   1 3.00   7 3.01
  27  0.115  0.673  0.771-  91 1.99 103 2.00  88 2.03  55 2.12 106 2.17  94 2.19  46 2.72  52 2.79
                            53 2.83  47 2.83  17 2.87  20 2.87  23 2.97  25 2.98   8 3.00   3 3.01
  28  0.011  0.507  0.982-  94 1.99 106 2.01 107 2.11  58 2.12  71 2.26   3 2.97   8 2.99  11 3.07

  29  0.872  0.836  0.256-  78 1.93  79 2.04  73 2.05  60 2.25  72 2.25  13 2.83  15 2.83   8 3.07
                             3 3.07   1 3.08
  30  0.113  0.157  0.114-  80 1.91  93 2.00  63 2.01  57 2.05   4 2.90   1 2.93   2 3.06
  31  0.337  0.506  0.981-  65 1.95  94 1.96 100 2.06  64 2.17  95 2.22   3 2.97  10 2.99   6 3.01

[...]

  37  0.652  0.513  0.355-  76 1.94  89 2.03  70 2.12  58 2.17  77 2.25  20 2.82  14 2.84   8 2.97
                             9 3.06
  38  0.556  0.833  0.556-  97 2.15  78 2.15  91 2.15  90 2.15  73 2.21  96 2.21
  39  0.775  0.142  0.444-  75 1.98  81 1.99  74 2.03  57 2.04  24 2.68  13 2.73  15 2.76
  40  0.989  0.512  0.358-  82 1.93  83 2.02  64 2.16  58 2.18  17 2.83   3 2.99
  41  0.889  0.833  0.556-  97 2.15  78 2.15 103 2.15  84 2.15  79 2.21 102 2.21
  42  0.106  0.143  0.452-  81 1.97  87 1.98  63 2.10 104 2.26  26 2.66  15 2.77  18 2.79
  43  0.330  0.510  0.360-  88 1.93  89 2.09  70 2.14  83 2.22  64 2.26  20 2.82   6 3.02   5 3.06

  44  0.222  0.833  0.556-  91 2.15  90 2.15 103 2.15  84 2.15  85 2.20 108 2.20
  45  0.441  0.142  0.442-  87 1.96  75 2.02  69 2.02  21 2.70  18 2.72  13 2.76
  46  0.328  0.525  0.669-  88 1.96  76 2.02  94 2.02  20 2.70  27 2.72  23 2.76
  47  0.239  0.831  0.856-  91 1.93 108 2.04  96 2.05  55 2.24  61 2.25  27 2.83  23 2.84   4 3.06
                             1 3.07   3 3.08
  48  0.451  0.154  0.757-  75 1.94  92 2.03  93 2.12  99 2.17  98 2.25  21 2.82  24 2.84   4 2.97
                             9 3.06
  49  0.663  0.525  0.667-  76 1.98  82 1.99  95 2.03 100 2.04  14 2.68  23 2.73  25 2.76
  50  0.572  0.830  0.856-  97 1.93 102 2.04  96 2.05  67 2.25  61 2.25  23 2.83  25 2.83   4 3.07
                             7 3.07   6 3.08
  51  0.791  0.155  0.753-  81 1.93 104 2.02 105 2.16  99 2.18  26 2.83   7 2.99
  52  0.003  0.524  0.659-  82 1.97  88 1.98 106 2.10  83 2.26  17 2.66  25 2.77  27 2.79
  53  0.906  0.831  0.855- 103 1.93 108 2.04 102 2.05  55 2.24  67 2.26  27 2.83  25 2.84   1 3.06
                             7 3.07   8 3.07
  54  0.134  0.157  0.751-  87 1.93  92 2.09  93 2.14 104 2.22 105 2.26  21 2.82   1 3.02  11 3.06

  55  0.996  0.748  0.007-   8 2.04   3 2.05  27 2.12  53 2.24  47 2.24
  56  0.954  0.247  0.015-  36 1.95  11 2.01   2 2.02  22 2.40
  57  0.896  0.077  0.208-   1 1.98  39 2.04  30 2.05  36 2.06  15 2.17  13 2.17
  58  0.894  0.587  0.212-   3 2.06   8 2.07  28 2.12  37 2.17  40 2.18  14 2.19
  59  0.103  0.404  0.119-   2 1.98  22 2.05   5 2.17
  60  0.115  0.919  0.103-   4 2.04   1 2.05  15 2.13  29 2.25  32 2.26
  61  0.329  0.748  0.008-   6 2.04   3 2.04  23 2.13  50 2.25  47 2.25
  62  0.342  0.263  0.007-  10 1.97  22 2.10   5 2.16  33 2.26
  63  0.231  0.078  0.208-   4 1.99  33 2.01  30 2.01  42 2.10  18 2.17  15 2.19
  64  0.225  0.589  0.214-   3 2.05   6 2.05  40 2.16  17 2.17  31 2.17  43 2.26
  65  0.414  0.420  0.096-  31 1.95   5 2.01  10 2.02  12 2.40
  66  0.448  0.918  0.104-   4 2.04   7 2.05  18 2.12  32 2.24  35 2.24
  67  0.662  0.748  0.008-   8 2.04   6 2.05  25 2.13  50 2.25  53 2.26
  68  0.667  0.262  0.992-  10 1.98  12 2.05  11 2.17
  69  0.563  0.079  0.208-  36 1.96  33 1.99   7 2.00  45 2.02  13 2.19  18 2.19
  70  0.561  0.587  0.212-  34 2.00   8 2.07   6 2.07  37 2.12  43 2.14  20 2.20
  71  0.793  0.404  0.104-   2 1.97  12 2.10  11 2.16  28 2.26
  72  0.781  0.919  0.103-   1 2.04   7 2.04  13 2.13  29 2.25  35 2.25
[...]
   0.417E+01 -.428E+02 -.106E+02   -.371E+01 0.417E+02 0.899E+01   -.447E+00 0.108E+01 0.164E+01   -.960E-03 -.830E-02 0.240E-02
   -.125E+01 -.199E+03 0.125E+02   0.146E+01 0.217E+03 -.190E+02   -.210E+00 -.183E+02 0.645E+01   -.388E-03 0.166E-02 0.226E-02
   -.319E+02 0.191E+03 0.268E+02   0.374E+02 -.208E+03 -.294E+02   -.543E+01 0.172E+02 0.258E+01   -.234E-02 -.510E-02 0.888E-03
   -.124E+01 -.231E+03 -.292E+02   0.136E+01 0.242E+03 0.367E+02   -.126E+00 -.108E+02 -.753E+01   -.371E-03 -.842E-02 -.370E-02
   -.845E+00 0.258E+03 -.221E+02   0.674E+00 -.274E+03 0.286E+02   0.169E+00 0.158E+02 -.648E+01   0.232E-03 0.890E-02 -.169E-02
   -.499E+01 -.212E+03 0.201E+02   0.870E+01 0.229E+03 -.249E+02   -.372E+01 -.167E+02 0.482E+01   -.381E-02 0.787E-03 0.548E-02
   0.983E+00 0.200E+03 -.121E+02   -.134E+01 -.218E+03 0.184E+02   0.351E+00 0.182E+02 -.630E+01   -.452E-03 -.145E-02 -.423E-02
[...]
   0.345E+02 -.193E+03 -.454E+01   -.386E+02 0.209E+03 0.607E+01   0.409E+01 -.169E+02 -.158E+01   0.914E-02 0.914E-02 -.525E-02
   0.156E+00 0.183E+03 0.237E+02   -.189E+00 -.194E+03 -.319E+02   0.320E-01 0.117E+02 0.816E+01   -.306E-02 -.107E-02 0.568E-02
   -.189E+01 -.201E+03 0.330E+01   0.201E+01 0.211E+03 -.485E+01   -.121E+00 -.976E+01 0.155E+01   0.180E-03 0.487E-02 0.174E-02
   -.173E+02 0.204E+03 0.306E+02   0.201E+02 -.220E+03 -.382E+02   -.276E+01 0.158E+02 0.765E+01   0.954E-02 0.567E-02 -.415E-02
   -.845E+00 -.258E+03 0.221E+02   0.674E+00 0.274E+03 -.286E+02   0.169E+00 -.158E+02 0.648E+01   0.231E-03 -.890E-02 0.169E-02
   -.124E+01 0.231E+03 0.292E+02   0.136E+01 -.242E+03 -.367E+02   -.126E+00 0.108E+02 0.753E+01   -.372E-03 0.842E-02 0.370E-02
   -.453E+01 -.200E+03 0.498E+02   0.359E+01 0.217E+03 -.564E+02   0.928E+00 -.172E+02 0.656E+01   -.667E-02 0.153E-02 -.743E-02
   -.102E+01 0.183E+03 0.261E+02   0.117E+01 -.195E+03 -.344E+02   -.153E+00 0.119E+02 0.834E+01   0.307E-02 -.762E-03 0.522E-02
   -.276E+00 -.200E+03 0.361E+01   0.319E+00 0.210E+03 -.520E+01   -.446E-01 -.989E+01 0.158E+01   0.150E-02 0.259E-02 -.973E-03
   -.893E+01 0.201E+03 0.550E+02   0.997E+01 -.217E+03 -.654E+02   -.104E+01 0.161E+02 0.104E+02   -.283E-01 -.303E-02 -.196E-02
   0.244E+01 -.252E+03 0.253E+02   -.200E+01 0.269E+03 -.324E+02   -.437E+00 -.171E+02 0.705E+01   -.840E-03 -.119E-01 0.294E-02
   -.567E+01 0.241E+03 0.340E+02   0.573E+01 -.252E+03 -.421E+02   -.577E-01 0.105E+02 0.801E+01   -.113E-02 0.933E-02 0.332E-02
   -.401E+02 -.220E+03 0.112E+02   0.492E+02 0.237E+03 -.144E+02   -.907E+01 -.169E+02 0.326E+01   0.137E-02 0.474E-02 0.211E-01
   0.118E+01 0.183E+03 0.252E+02   -.125E+01 -.195E+03 -.333E+02   0.660E-01 0.118E+02 0.811E+01   -.120E-02 -.212E-03 0.331E-02
   0.959E+01 -.409E-02 0.164E-03   0.111E-13 -.114E-12 -.185E-12   -.958E+01 -.533E-14 0.124E-13   -.119E-01 0.840E-06 -.220E-04

 POSITION                                       TOTAL-FORCE (eV/Angst)
     13.38535     14.65118      7.69120        -0.002633     -0.002558     -0.007569
      8.91344      4.81400      1.70590        -0.076906     -0.022709     -0.035548
      1.47928      9.83486      0.86139        -0.007385     -0.001878     -0.005069
      2.97631     14.63575      0.02139        -0.002842      0.003146      0.004828
      3.07064      4.93592      1.95485        -0.041000     -0.013138     -0.005149
      4.45332      9.83063      0.86634        -0.002633      0.002558      0.007569
     10.41132     14.64694      7.69615        -0.007385      0.001878      0.005069
      7.44233      9.84148      0.84962        -0.002842     -0.003146     -0.004828
      7.19393      4.89789      4.27368        -0.016660      0.000000      0.000000
      8.91344      4.98178      6.84147        -0.076906      0.022709      0.035548
     12.00268      4.85986      6.59252        -0.041000      0.013138      0.005149
      6.01797      4.96524      1.66580         0.174596      0.064013     -0.022268
      7.43894     14.58966      2.63456        -0.003542     -0.012761      0.003489
      8.92761      9.83206      3.47778        -0.001525      0.017035     -0.002667
     10.41912     14.59593      2.62935        -0.002043     -0.011871      0.000455
     10.43805      4.89789      4.27368        -0.004316      0.000000      0.000000
      2.97291      9.82198      3.48284        -0.000394      0.001012      0.000204
      4.46427     14.59873      2.63208        -0.002381      0.003199      0.001209
      4.52836      4.89789      4.27368         0.055405      0.000000      0.000000
      5.94998      9.83392      3.47807        -0.005506      0.004530     -0.001925
      5.94998     14.64789      5.07947        -0.005506     -0.004530      0.001925
      6.01797      4.83054      6.88156         0.174596     -0.064013      0.022268
      7.43894      9.89214      5.92298        -0.003542      0.012761     -0.003489
      8.92761     14.64975      5.07976        -0.001525     -0.017035      0.002667
     10.41912      9.88587      5.92819        -0.002043      0.011871     -0.000455
      2.97291     14.65983      5.07470        -0.000394     -0.001012     -0.000204
      4.46427      9.88308      5.92545        -0.002381     -0.003199     -0.001209
      4.48844      7.42261      7.56978         0.006091     -0.039323      0.016203
      8.93194     12.28531      1.96027        -0.001038     -0.000875     -0.007844
      1.52090      2.30017      0.87536         0.007505     -0.015282      0.003625
      7.39060      7.45792      7.54540         0.010096      0.021726      0.014540
      2.97790     12.27945      1.96585        -0.003704      0.002846     -0.001702
      4.48844      2.37317      0.97759         0.006091      0.039323     -0.016203
     10.45293      7.49561      7.67200         0.007505      0.015282     -0.003625
      5.95247     12.27848      1.95988        -0.001836      0.003527     -0.004286
      7.39060      2.33785      1.00197         0.010096     -0.021726     -0.014540
      7.42636      7.53983      2.72648         0.016205      0.007067      0.006451
      7.44388     12.24090      4.27877        -0.003459      0.000000      0.000000
      8.90870      2.04489      3.40452        -0.002379     -0.041426     -0.017295
     10.41018      7.52029      2.76472        -0.025582      0.001301      0.012851
     10.41792     12.24090      4.27877        -0.000271      0.000000      0.000000
      2.95324      2.09754      3.46884        -0.017541     -0.011314     -0.003872
      4.55523      7.48750      2.77418         0.004095     -0.009991      0.003335
      4.46525     12.24090      4.27877        -0.002056      0.000000      0.000000
      5.93510      2.07473      3.40652         0.025649     -0.004737      0.004907
      5.93510      7.72105      5.14085         0.025649      0.004737     -0.004907
      5.95247     12.20333      6.59766        -0.001836     -0.003527      0.004286
      7.42636      2.25594      5.82089         0.016205     -0.007067     -0.006451
      8.90870      7.75089      5.14284        -0.002379      0.041426      0.017295
      8.93194     12.19650      6.59727        -0.001038      0.000875      0.007844
     10.41018      2.27549      5.78265        -0.025582     -0.001301     -0.012851
      2.95324      7.69824      5.07853        -0.017541      0.011314      0.003872
     11.90993     12.20235      6.59169        -0.003704     -0.002846      0.001702
      4.55523      2.30828      5.77319         0.004095      0.009991     -0.003335
      8.92903     10.99277      0.05690        -0.003783      0.001512     -0.001774
      8.58101      3.62266      0.09676        -0.017683      0.036438     -0.045315
      8.93169      1.11719      1.59899        -0.003243     -0.014636     -0.006967
      8.92772      8.62594      1.64016        -0.002017      0.009865      0.002905
      1.45094      5.92199      0.93123        -0.010882     -0.057301      0.002006
      1.48224     13.48986      0.80508        -0.005509     -0.001750     -0.001162
[...]
      5.94993      8.64320      6.94792        -0.004106      0.001953      0.003144
      7.73159      6.19570      5.72626         0.003822      0.058292     -0.041471
      7.44458     13.51911      6.09101        -0.004864     -0.003284      0.009025
      8.93011     10.94152      5.12654        -0.002110      0.013377     -0.001080
      8.85884      3.86717      5.21753        -0.009069      0.012610      0.010289
      8.92772      1.16984      6.90721        -0.002017     -0.009865     -0.002905
      8.93169      8.67859      6.94838        -0.003243      0.014636      0.006967
     10.49719      6.14380      6.32342        -0.027049      0.018659     -0.005603
     10.41712     13.51788      6.08990         0.001155     -0.000165      0.008183
      2.97435     10.93571      5.12665         0.000405      0.001454     -0.002844
     11.78460      3.61547      5.15388        -0.032324     -0.018703     -0.044740
     11.89471      1.14395      6.89862        -0.005781     -0.004185      0.004128
     11.92289      8.65723      6.94788         0.000560      0.007397      0.000135
      4.50865      6.00384      5.98385         0.036679     -0.080899      0.026565
      4.46431     13.51562      6.08338        -0.005733     -0.004883      0.000687
    total drift:                                0.006471     -0.004090      0.000142

  FREE ENERGIE OF THE ION-ELECTRON SYSTEM (eV)
  free  energy   TOTEN  =      -773.8398175638 eV

  energy  without entropy=     -773.8364084100  energy(sigma->0) =     -773.83811299

 d Force = 0.7845706E-02[ 0.780E-02, 0.789E-02]  d Energy = 0.7881252E-02-0.355E-04
 d Force =-0.2679722E+00[-0.292E+00,-0.244E+00]  d Ewald  =-0.3263064E+01 0.300E+01

 Quasi-Newton relaxation of ions (Broydens 2nd method)
  g(Force)  = 0.864E-02   g(Stress)= 0.382E-04

 retain information from N=  1 steps
 eigenvalues of (default step * inverse Hessian matrix)
  average eigenvalue of G=   0.1891
 eigenvalue spectrum of G is  0.1891

volume of typ            1:    11.0 %

[...]

volume of typ            4:     8.7 %

total charge

# of ion       s       p       d       tot
    1        0.275   6.164   1.973   8.412
    2        0.286   6.179   1.941   8.406
    3        0.274   6.163   1.977   8.414
    4        0.274   6.162   1.980   8.416
    5        0.281   6.159   1.995   8.434
    6        0.275   6.164   1.973   8.412
    7        0.274   6.163   1.977   8.414
    8        0.274   6.162   1.980   8.416
    9        0.273   6.146   1.986   8.405
   10        0.286   6.179   1.941   8.406
   11        0.281   6.159   1.995   8.434
   12        0.192   0.189   8.070   8.451
   13        0.211   0.229   7.917   8.357
   14        0.210   0.231   7.913   8.354
   15        0.211   0.229   7.915   8.355
   16        0.185   0.184   8.072   8.441
   17        0.209   0.229   7.911   8.348
   18        0.211   0.230   7.915   8.355
   19        0.183   0.194   8.079   8.456
   20        0.210   0.231   7.912   8.353
   21        0.210   0.231   7.912   8.353
   22        0.192   0.189   8.070   8.451
   23        0.211   0.229   7.917   8.357
   24        0.210   0.231   7.913   8.354
   25        0.211   0.229   7.915   8.355
   26        0.209   0.229   7.911   8.348
   27        0.211   0.230   7.915   8.355
   28        2.077   0.266   0.101   2.444
   29        2.083   0.281   0.108   2.472
   30        2.093   0.312   0.124   2.529
   31        2.087   0.292   0.114   2.494
   32        2.083   0.280   0.108   2.472
   33        2.077   0.266   0.101   2.444
   34        2.093   0.312   0.124   2.529
   35        2.083   0.280   0.108   2.472
   36        2.087   0.292   0.114   2.494
   37        2.079   0.267   0.101   2.447
   38        2.066   0.226   0.082   2.374
   39        2.090   0.293   0.112   2.496
   40        2.079   0.264   0.100   2.442
   41        2.066   0.225   0.082   2.374
   42        2.077   0.258   0.097   2.431
   43        2.073   0.249   0.093   2.415
   44        2.067   0.227   0.083   2.376
   45        2.078   0.262   0.098   2.438
   46        2.078   0.262   0.098   2.438
   47        2.083   0.280   0.108   2.472
   48        2.079   0.267   0.101   2.447
   49        2.090   0.293   0.112   2.496
   50        2.083   0.281   0.108   2.472
   51        2.079   0.264   0.100   2.442
   52        2.077   0.258   0.097   2.431
   53        2.083   0.280   0.108   2.472
   54        2.073   0.249   0.093   2.415
   55        1.251   2.841   0.006   4.098
   56        1.254   2.851   0.005   4.110
   57        1.248   2.838   0.004   4.091
   58        1.248   2.843   0.005   4.096
   59        1.250   2.840   0.006   4.095
   60        1.251   2.841   0.006   4.098
[...]
   94        1.246   2.842   0.004   4.092
   95        1.253   2.846   0.005   4.104
   96        1.249   2.836   0.005   4.090
   97        1.245   2.807   0.004   4.056
   98        1.251   2.840   0.005   4.097
   99        1.248   2.843   0.005   4.096
  100        1.248   2.838   0.004   4.091
  101        1.254   2.854   0.006   4.113
  102        1.249   2.836   0.005   4.090
  103        1.245   2.807   0.005   4.056
  104        1.256   2.817   0.006   4.079
  105        1.250   2.842   0.006   4.098
  106        1.248   2.836   0.004   4.088
  107        1.254   2.813   0.006   4.073
  108        1.249   2.836   0.005   4.090
tot         129.94  231.57  152.03  513.53

magnetization (x)

# of ion       s       p       d       tot
    1        0.007   0.000   0.177   0.184
    2       -0.000   0.000  -0.009  -0.009
    3        0.006   0.000   0.184   0.191
    4        0.006   0.000   0.191   0.197
    5       -0.000   0.000   0.004   0.004
    6        0.007   0.000   0.177   0.184
    7        0.006   0.000   0.184   0.191
    8        0.006   0.000   0.191   0.197
    9        0.000   0.001   0.014   0.015
   10       -0.000   0.000  -0.009  -0.009
   11       -0.000   0.000   0.004   0.004
   12       -0.000   0.001   0.895   0.896
   13       -0.001   0.005   1.490   1.494
   14       -0.001   0.004   1.496   1.499
   15       -0.001   0.005   1.494   1.497
   16       -0.000   0.001   0.901   0.902
   17       -0.001   0.003   1.500   1.503
   18       -0.001   0.005   1.493   1.496
   19       -0.005  -0.001  -0.887  -0.893
   20       -0.001   0.004   1.496   1.498
   21       -0.001   0.004   1.496   1.498
   22       -0.000   0.001   0.895   0.896
   23       -0.001   0.005   1.490   1.494
   24       -0.001   0.004   1.496   1.499
   25       -0.001   0.005   1.494   1.497
   26       -0.001   0.003   1.500   1.503
   27       -0.001   0.005   1.493   1.496
   28        0.001   0.004   0.001   0.007
   29        0.003   0.008   0.003   0.014
   30        0.001   0.005   0.001   0.008
   31        0.001   0.004   0.001   0.007
   32        0.003   0.008   0.003   0.014
   33        0.001   0.004   0.001   0.007
   34        0.001   0.005   0.001   0.008
   35        0.003   0.008   0.003   0.014
   36        0.001   0.004   0.001   0.007
   37        0.002   0.005   0.002   0.009
   38        0.004   0.009   0.003   0.016
   39        0.003   0.007   0.002   0.012
   40        0.002   0.004   0.002   0.008
   41        0.004   0.010   0.003   0.016
   42        0.003   0.008   0.002   0.013
   43        0.003   0.006   0.002   0.011
   44        0.004   0.009   0.003   0.016
   45        0.003   0.008   0.002   0.013
   46        0.003   0.008   0.002   0.013
   47        0.003   0.008   0.003   0.014
   48        0.002   0.005   0.002   0.009
   49        0.003   0.007   0.002   0.012
   50        0.003   0.008   0.003   0.014
   51        0.002   0.004   0.002   0.008
   52        0.003   0.008   0.002   0.013
   53        0.003   0.008   0.003   0.014
   54        0.003   0.006   0.002   0.011
   55        0.006   0.062   0.001   0.069
   56       -0.000  -0.000  -0.000  -0.000
   57        0.007   0.059   0.000   0.066
   58        0.005   0.054   0.001   0.061
   59        0.004   0.026   0.000   0.030
   60        0.006   0.063   0.001   0.069
[...]
   94        0.007   0.060   0.000   0.067
   95       -0.000  -0.004  -0.000  -0.004
   96        0.008   0.063   0.000   0.071
   97        0.017   0.275   0.000   0.292
   98        0.004   0.028   0.000   0.032
   99        0.005   0.054   0.001   0.061
  100        0.007   0.059   0.000   0.066
  101       -0.000  -0.000  -0.000  -0.001
  102        0.008   0.063   0.000   0.071
  103        0.016   0.272   0.000   0.289
  104        0.002   0.007   0.000   0.009
  105        0.006   0.056   0.001   0.062
  106        0.007   0.060   0.000   0.067
  107        0.001  -0.006  -0.000  -0.006
  108        0.007   0.063   0.000   0.071
tot           0.47    4.90   20.93   26.30