 vasp.5.4.4.18Apr17-6-g9f103f2a35 (build May 12 2020 04:58:55) complex

 MD_VERSION_INFO: Compiled 2020-05-12T11:58:55-UTC in devlin.sd.materialsdesign.
 com:/home/medea2/data/build/wwolf/vasp-gpu5.4.4/13047/x86_64/src/src/build/std
 from svn 13047

 executed on                        Lin64 date 2023.03.16  10:43:29

 INCAR:
 POTCAR:    PAW_PBE Li_sv 10Sep2004
 POTCAR:    PAW_PBE Ni 02Aug2007
 POTCAR:    PAW_PBE O 08Apr2002

 POTCAR:    PAW_PBE Li_sv 10Sep2004

 POTCAR:    PAW_PBE Ni 02Aug2007

 POTCAR:    PAW_PBE O 08Apr2002

 Optimization of the real space projectors (new method)

 maximal supplied QI-value         = 22.11
 optimisation between [QCUT,QGAM] = [ 11.28, 22.77] = [ 35.61,145.23] Ry
 Optimized for a Real-space Cutoff    1.10 Angstroem

   l    n(q)    QCUT    max X(q) W(low)/X(q) W(high)/X(q)  e(spline)
   0      7    11.276    10.506    0.54E-04    0.58E-04    0.16E-07
   0      7    11.276     8.367    0.11E-03    0.14E-03    0.35E-07
   1      7    11.276     8.983    0.23E-03    0.43E-03    0.86E-07
 Optimization of the real space projectors (new method)

[...]

   l    n(q)    QCUT    max X(q) W(low)/X(q) W(high)/X(q)  e(spline)
   2      9    11.376    60.317    0.17E-03    0.16E-04    0.16E-06
   2      9    11.376    55.921    0.17E-03    0.16E-04    0.17E-06
   0     10    11.376    51.690    0.45E-04    0.60E-04    0.21E-06
   0     10    11.376    30.015    0.37E-04    0.55E-04    0.19E-06
   1     10    11.376    18.849    0.83E-04    0.11E-03    0.92E-07
   1     10    11.376    14.624    0.69E-04    0.92E-04    0.82E-07
 Optimization of the real space projectors (new method)

 maximal supplied QI-value         = 24.76
 optimisation between [QCUT,QGAM] = [ 11.39, 22.77] = [ 36.31,145.25] Ry
 Optimized for a Real-space Cutoff    1.10 Angstroem

   l    n(q)    QCUT    max X(q) W(low)/X(q) W(high)/X(q)  e(spline)
   0      7    11.387    20.381    0.22E-03    0.48E-03    0.18E-06
   0      7    11.387    15.268    0.22E-03    0.52E-03    0.19E-06
   1      7    11.387     5.964    0.22E-03    0.73E-03    0.24E-06
   1      7    11.387     5.382    0.19E-03    0.60E-03    0.21E-06

  PAW_PBE Li_sv 10Sep2004               :
  PAW_PBE Ni 02Aug2007                  :
  PAW_PBE O 08Apr2002                   :

 POSCAR: ce1
  positions in direct lattice
 exchange correlation table for  LEXCH =       14
   RHO(1)=    0.500       N(1)  =     2000
   RHO(2)=  100.500       N(2)  =     4000

 ion  position               nearest neighbor table
   1  0.000  0.000  0.000-   3 2.10   4 2.10   3 2.10   4 2.10   4 2.10   3 2.10
   2  0.500  0.500  0.500-   4 1.95   3 1.95   3 1.95   4 1.95   3 1.95   4 1.95
   3  0.241  0.759  0.278-   2 1.95   2 1.95   2 1.95   1 2.10   1 2.10   1 2.10
   4  0.759  0.241  0.722-   2 1.95   2 1.95   2 1.95   1 2.10   1 2.10   1 2.10

  LATTYP: Found a trigonal (rhomboedric) cell.
 ALAT       =     4.9502193348
 COS(alpha) =     0.8336988285

  Lattice vectors:

 A1 = (  -1.4274374800,   0.8241313800,  -4.6677511900)
 A2 = (   1.4274375000,   0.8241313800,  -4.6677511900)
 A3 = (   0.0000000000,  -1.6482628400,  -4.6677511900)

Analysis of symmetry for initial positions (statically):
 Subroutine PRICEL returns:
 Original cell was already a primitive cell.

 Routine SETGRP: Setting up the symmetry group for a
 trigonal (rhombohedral) supercell.

 Subroutine GETGRP returns: Found 12 space group operations
 (whereof 12 operations were pure point group operations)
 out of a pool of 12 trial point group operations.

The static configuration has the point symmetry D_3d.

Analysis of symmetry for dynamics (positions and initial velocities):
 Subroutine PRICEL returns:
 Original cell was already a primitive cell.

[...]

The dynamic configuration has the point symmetry D_3d.

Analysis of structural, dynamic, and magnetic symmetry:
 Subroutine PRICEL returns:
 Original cell was already a primitive cell.

 Routine SETGRP: Setting up the symmetry group for a
 trigonal (rhombohedral) supercell.

 Subroutine GETGRP returns: Found 12 space group operations
 (whereof 12 operations were pure point group operations)
 out of a pool of 12 trial point group operations.

The magnetic configuration has the point symmetry D_3d.

 Subroutine INISYM returns: Found 12 space group operations
 (whereof 12 operations are pure point group operations),
 and found     1 'primitive' translations

 KPOINTS: Automatic mesh

Automatic generation of k-mesh.
Space group operators:
 irot       det(A)        alpha          n_x          n_y          n_z        tau_x        tau_y        tau_z
    1     1.000000     0.000000     1.000000     0.000000     0.000000     0.000000     0.000000     0.000000
    2    -1.000000     0.000000     1.000000     0.000000     0.000000     0.000000     0.000000     0.000000
    3     1.000000   180.000000     0.500000     0.866025    -0.000000     0.000000     0.000000     0.000000
    4    -1.000000   180.000000     0.500000     0.866025    -0.000000     0.000000     0.000000     0.000000
    5     1.000000   120.000000     0.000000     0.000000     1.000000     0.000000     0.000000     0.000000
    6    -1.000000   120.000000     0.000000     0.000000     1.000000     0.000000     0.000000     0.000000
    7     1.000000   180.000000     1.000000    -0.000000     0.000000     0.000000     0.000000     0.000000
    8    -1.000000   180.000000     1.000000    -0.000000     0.000000     0.000000     0.000000     0.000000
    9     1.000000   120.000000     0.000000    -0.000000    -1.000000     0.000000     0.000000     0.000000
   10    -1.000000   120.000000     0.000000    -0.000000    -1.000000     0.000000     0.000000     0.000000
   11     1.000000   180.000000    -0.500000     0.866025    -0.000000     0.000000     0.000000     0.000000
   12    -1.000000   180.000000    -0.500000     0.866025    -0.000000     0.000000     0.000000     0.000000

 Subroutine IBZKPT returns following result:

 Found    204 irreducible k-points:

 Following reciprocal coordinates:
            Coordinates               Weight
  0.000000  0.000000  0.000000      1.000000
  0.090909  0.000000 -0.000000      4.000000
  0.181818  0.000000 -0.000000      4.000000
  0.272727 -0.000000  0.000000      4.000000
  0.363636  0.000000 -0.000000      4.000000
  0.454545 -0.000000 -0.000000      4.000000
  0.090909  0.090909 -0.000000      2.000000
  0.181818  0.090909 -0.000000      4.000000
  0.272727  0.090909 -0.000000      4.000000
  0.363636  0.090909 -0.000000      4.000000
  0.454545  0.090909 -0.000000      4.000000
 -0.454545  0.090909  0.000000      4.000000
 -0.363636  0.090909  0.000000      4.000000
 -0.272727  0.090909  0.000000      4.000000
 -0.181818  0.090909  0.000000      4.000000
 -0.090909  0.090909  0.000000      2.000000
  0.181818  0.181818 -0.000000      2.000000
  0.272727  0.181818  0.000000      4.000000
  0.363636  0.181818 -0.000000      4.000000
  0.454545  0.181818 -0.000000      4.000000
 -0.454545  0.181818  0.000000      4.000000
 -0.363636  0.181818  0.000000      4.000000
 -0.272727  0.181818  0.000000      4.000000
 -0.181818  0.181818  0.000000      2.000000
  0.272727  0.272727 -0.000000      2.000000
  0.363636  0.272727 -0.000000      4.000000
  0.454545  0.272727 -0.000000      4.000000
 -0.454545  0.272727  0.000000      4.000000
 -0.363636  0.272727  0.000000      4.000000
 -0.272727  0.272727  0.000000      2.000000
  0.363636  0.363636 -0.000000      2.000000
  0.454545  0.363636 -0.000000      4.000000
 -0.454545  0.363636  0.000000      4.000000
 -0.363636  0.363636  0.000000      2.000000
  0.454545  0.454545 -0.000000      2.000000
 -0.454545  0.454545  0.000000      2.000000
  0.000000  0.000000  0.166667      2.000000
  0.090909  0.000000  0.166667      4.000000
  0.181818  0.000000  0.166667      4.000000
  0.272727 -0.000000  0.166667      4.000000
  0.363636  0.000000  0.166667      4.000000
  0.454545 -0.000000  0.166667      4.000000
 -0.454545  0.000000  0.166667      4.000000
 -0.363636 -0.000000  0.166667      4.000000
 -0.272727  0.000000  0.166667      4.000000
 -0.181818 -0.000000  0.166667      4.000000
 -0.090909 -0.000000  0.166667      4.000000
  0.090909  0.090909  0.166667      4.000000
  0.181818  0.090909  0.166667      4.000000
  0.272727  0.090909  0.166667      4.000000
  0.363636  0.090909  0.166667      4.000000
  0.454545  0.090909  0.166667      4.000000
 -0.454545  0.090909  0.166667      4.000000
 -0.363636  0.090909  0.166667      4.000000
 -0.272727  0.090909  0.166667      4.000000
 -0.181818  0.090909  0.166667      4.000000
 -0.090909  0.090909  0.166667      2.000000
  0.090909  0.181818  0.166667      4.000000
  0.181818  0.181818  0.166667      4.000000
  0.272727  0.181818  0.166667      4.000000
[...]
 -0.363636  0.181818  0.500000      4.000000
 -0.272727  0.181818  0.500000      4.000000
 -0.181818  0.181818  0.500000      2.000000
  0.272727  0.272727  0.500000      2.000000
  0.363636  0.272727  0.500000      4.000000
  0.454545  0.272727  0.500000      4.000000
 -0.454545  0.272727  0.500000      4.000000
 -0.363636  0.272727  0.500000      4.000000
 -0.272727  0.272727  0.500000      2.000000
  0.363636  0.363636  0.500000      2.000000
  0.454545  0.363636  0.500000      4.000000
 -0.454545  0.363636  0.500000      4.000000
 -0.363636  0.363636  0.500000      2.000000
  0.454545  0.454545  0.500000      2.000000
 -0.454545  0.454545  0.500000      2.000000

 Following cartesian coordinates:
            Coordinates               Weight
  0.000000  0.000000  0.000000      1.000000
  0.031843  0.018385 -0.006492      4.000000
  0.063687  0.036770 -0.012984      4.000000
  0.095530  0.055154 -0.019476      4.000000
  0.127374  0.073539 -0.025968      4.000000
  0.159217  0.091924 -0.032460      4.000000
  0.031843  0.055154 -0.000000      2.000000
  0.063687  0.073539 -0.006492      4.000000
  0.095530  0.091924 -0.012984      4.000000
  0.127374  0.110309 -0.019476      4.000000
  0.159217  0.128694 -0.025968      4.000000
 -0.159217 -0.055154  0.038952      4.000000
 -0.127374 -0.036770  0.032460      4.000000
 -0.095530 -0.018385  0.025968      4.000000
 -0.063687  0.000000  0.019476      4.000000
 -0.031843  0.018385  0.012984      2.000000
  0.063687  0.110309 -0.000000      2.000000
  0.095530  0.128694 -0.006492      4.000000
  0.127374  0.147079 -0.012984      4.000000
  0.159217  0.165463 -0.019476      4.000000
 -0.159217 -0.018385  0.045444      4.000000
 -0.127374  0.000000  0.038952      4.000000
 -0.095530  0.018385  0.032460      4.000000
 -0.063687  0.036770  0.025968      2.000000
  0.095530  0.165463 -0.000000      2.000000
  0.127374  0.183848 -0.006492      4.000000
  0.159217  0.202233 -0.012984      4.000000
 -0.159217  0.018385  0.051936      4.000000
 -0.127374  0.036770  0.045444      4.000000
 -0.095530  0.055154  0.038952      2.000000
  0.127374  0.220618 -0.000000      2.000000
  0.159217  0.239003 -0.006492      4.000000
 -0.159217  0.055154  0.058428      4.000000
 -0.127374  0.073539  0.051936      2.000000
  0.159217  0.275772 -0.000000      2.000000
 -0.159217  0.091924  0.064920      2.000000
  0.000000  0.000000  0.035706      2.000000
[...]
 k-point 59 :   0.1818 0.1818 0.1667  plane waves:     833
 k-point 60 :   0.2727 0.1818 0.1667  plane waves:     835
[...]
 k-point 85 :   0.3636 0.4545 0.1667  plane waves:     837
 k-point 86 :   0.4545 0.4545 0.1667  plane waves:     838
 k-point 87 :  -0.4545 0.4545 0.1667  plane waves:     839
 k-point 88 :   0.0909-0.4545 0.1667  plane waves:     837
 k-point 89 :   0.1818-0.4545 0.1667  plane waves:     828
 k-point 90 :   0.2727-0.4545 0.1667  plane waves:     834
 k-point 91 :   0.3636-0.4545 0.1667  plane waves:     838
 k-point 92 :   0.4545-0.4545 0.1667  plane waves:     845
 k-point 93 :   0.0909-0.3636 0.1667  plane waves:     835
 k-point 94 :   0.1818-0.3636 0.1667  plane waves:     833
 k-point 95 :   0.2727-0.3636 0.1667  plane waves:     834
 k-point 96 :   0.3636-0.3636 0.1667  plane waves:     844
 k-point 97 :   0.0909-0.2727 0.1667  plane waves:     833
 k-point 98 :   0.1818-0.2727 0.1667  plane waves:     836
 k-point 99 :   0.2727-0.2727 0.1667  plane waves:     839
 k-point ** :   0.0909-0.1818 0.1667  plane waves:     834
 k-point ** :   0.1818-0.1818 0.1667  plane waves:     825
 k-point ** :   0.0909-0.0909 0.1667  plane waves:     834
 k-point ** :   0.0000 0.0000 0.3333  plane waves:     833
 k-point ** :   0.0909 0.0000 0.3333  plane waves:     832
 k-point ** :   0.1818 0.0000 0.3333  plane waves:     833
 k-point ** :   0.2727-0.0000 0.3333  plane waves:     838
 k-point ** :   0.3636 0.0000 0.3333  plane waves:     843
 k-point ** :   0.4545-0.0000 0.3333  plane waves:     847
 k-point ** :  -0.4545 0.0000 0.3333  plane waves:     839
 k-point ** :  -0.3636-0.0000 0.3333  plane waves:     847
 k-point ** :  -0.2727 0.0000 0.3333  plane waves:     841
 k-point ** :  -0.1818-0.0000 0.3333  plane waves:     838
 k-point ** :  -0.0909-0.0000 0.3333  plane waves:     832
 k-point ** :   0.0909 0.0909 0.3333  plane waves:     836
 k-point ** :   0.1818 0.0909 0.3333  plane waves:     836
 k-point ** :   0.2727 0.0909 0.3333  plane waves:     838
 k-point ** :   0.3636 0.0909 0.3333  plane waves:     838
 k-point ** :   0.4545 0.0909 0.3333  plane waves:     834
 k-point ** :  -0.4545 0.0909 0.3333  plane waves:     845
 k-point ** :  -0.3636 0.0909 0.3333  plane waves:     845
 k-point ** :  -0.2727 0.0909 0.3333  plane waves:     839
 k-point ** :  -0.1818 0.0909 0.3333  plane waves:     832
 k-point ** :  -0.0909 0.0909 0.3333  plane waves:     835
 k-point ** :   0.0909 0.1818 0.3333  plane waves:     840
 k-point ** :   0.1818 0.1818 0.3333  plane waves:     835
 k-point ** :   0.2727 0.1818 0.3333  plane waves:     840
 k-point ** :   0.3636 0.1818 0.3333  plane waves:     841
 k-point ** :   0.4545 0.1818 0.3333  plane waves:     843
 k-point ** :  -0.4545 0.1818 0.3333  plane waves:     841
 k-point ** :  -0.3636 0.1818 0.3333  plane waves:     840
 k-point ** :  -0.2727 0.1818 0.3333  plane waves:     835
 k-point ** :  -0.1818 0.1818 0.3333  plane waves:     835
 k-point ** :   0.0909 0.2727 0.3333  plane waves:     844
 k-point ** :   0.1818 0.2727 0.3333  plane waves:     837
 k-point ** :   0.2727 0.2727 0.3333  plane waves:     837
 k-point ** :   0.3636 0.2727 0.3333  plane waves:     835
 k-point ** :   0.4545 0.2727 0.3333  plane waves:     836
 k-point ** :  -0.4545 0.2727 0.3333  plane waves:     840
 k-point ** :  -0.3636 0.2727 0.3333  plane waves:     845
 k-point ** :  -0.2727 0.2727 0.3333  plane waves:     841
 k-point ** :   0.0909 0.3636 0.3333  plane waves:     843
 k-point ** :   0.1818 0.3636 0.3333  plane waves:     836
 k-point ** :   0.2727 0.3636 0.3333  plane waves:     828
 k-point ** :   0.3636 0.3636 0.3333  plane waves:     831
 k-point ** :   0.4545 0.3636 0.3333  plane waves:     832
 k-point ** :  -0.4545 0.3636 0.3333  plane waves:     845
 k-point ** :  -0.3636 0.3636 0.3333  plane waves:     845
 k-point ** :   0.0909 0.4545 0.3333  plane waves:     838
 k-point ** :   0.1818 0.4545 0.3333  plane waves:     840
 k-point ** :   0.2727 0.4545 0.3333  plane waves:     829
 k-point ** :   0.3636 0.4545 0.3333  plane waves:     835
 k-point ** :   0.4545 0.4545 0.3333  plane waves:     841
 k-point ** :  -0.4545 0.4545 0.3333  plane waves:     844
 k-point ** :   0.0909-0.4545 0.3333  plane waves:     837
 k-point ** :   0.1818-0.4545 0.3333  plane waves:     833
 k-point ** :   0.2727-0.4545 0.3333  plane waves:     832
 k-point ** :   0.3636-0.4545 0.3333  plane waves:     839
 k-point ** :   0.4545-0.4545 0.3333  plane waves:     843
 k-point ** :   0.0909-0.3636 0.3333  plane waves:     833
[...]
 k-point ** :  -0.3636 0.1818 0.5000  plane waves:     835
 k-point ** :  -0.2727 0.1818 0.5000  plane waves:     840
 k-point ** :  -0.1818 0.1818 0.5000  plane waves:     836
 k-point ** :   0.2727 0.2727 0.5000  plane waves:     832
 k-point ** :   0.3636 0.2727 0.5000  plane waves:     836
 k-point ** :   0.4545 0.2727 0.5000  plane waves:     836
 k-point ** :  -0.4545 0.2727 0.5000  plane waves:     834
 k-point ** :  -0.3636 0.2727 0.5000  plane waves:     840
 k-point ** :  -0.2727 0.2727 0.5000  plane waves:     840
 k-point ** :   0.3636 0.3636 0.5000  plane waves:     834
 k-point ** :   0.4545 0.3636 0.5000  plane waves:     831
 k-point ** :  -0.4545 0.3636 0.5000  plane waves:     835
 k-point ** :  -0.3636 0.3636 0.5000  plane waves:     836
 k-point ** :   0.4545 0.4545 0.5000  plane waves:     830
 k-point ** :  -0.4545 0.4545 0.5000  plane waves:     839

 maximum and minimum number of plane-waves per node :       851      821

 maximum number of plane-waves:       851
 maximum index in each direction:
   IXMAX=    5   IYMAX=    5   IZMAX=    9
   IXMIN=   -5   IYMIN=   -5   IZMIN=   -9

 The following grids will avoid any aliasing or wrap around errors in the Hartre
 e energy
  - symmetry arguments have not been applied
  - exchange correlation energies might require even more grid points
  - we recommend to set PREC=Normal or Accurate and rely on VASP defaults
 NGX is ok and might be reduce to    24
 NGY is ok and might be reduce to    24
 WARNING: aliasing errors must be expected set NGZ to    40 to avoid them

 serial   3D FFT for wavefunctions
 parallel 3D FFT for charge:
    minimum data exchange during FFTs selected (reduces bandwidth)

 Broyden mixing: mesh for mixing (old mesh)
   NGX = 11   NGY = 11   NGZ = 17
  (NGX  = 48   NGY  = 48   NGZ  = 72)
  gives a total of   2057 points

 initial charge density was supplied:
 charge density of overlapping atoms calculated
 number of electron      25.0000000 magnetization       2.5000000
 keeping initial charge density in first step

 Maximum index for non-local projection operator         8211
 Maximum index for augmentation-charges         1268 (set IRDMAX)

 First call to EWALD:  gamma=   0.553
 Maximum number of real-space cells 3x 3x 2
 Maximum number of reciprocal cells 2x 2x 4

--------------------------------------- Iteration      1(   1)  ---------------------------------------

 eigenvalue-minimisations  : 26480
 total energy-change (2. order) : 0.9021625E+02  (-0.1147913E+04)
 number of electron      25.0000000 magnetization       2.5000000
 augmentation part       25.0000000 magnetization       2.5000000

 Free energy of the ion-electron system (eV)
  alpha Z        PSCENC =        79.66708450
  Ewald energy   TEWEN  =     -1596.68053429
  -Hartree energ DENC   =      -593.42114963
  -exchange      EXHF   =         0.00000000
  -V(xc)+E(xc)   XCENC  =       102.28171818
  PAW double counting   =      1733.73763220    -1818.69483988
  entropy T*S    EENTRO =        -0.00171114
  eigenvalues    EBANDS =        43.95618848
  atomic energy  EATOM  =      2139.37186265
  Solvation  Ediel_sol  =         0.00000000
  free energy    TOTEN  =        90.21625106 eV

  energy without entropy =       90.21796220  energy(sigma->0) =       90.21710663

[...]

 eigenvalue-minimisations  : 32848
 total energy-change (2. order) :-0.1171242E+03  (-0.1081887E+03)
 number of electron      25.0000000 magnetization       2.5000000
 augmentation part       25.0000000 magnetization       2.5000000

[...]

 Broyden mixing:
  rms(total) = 0.25309E+01    rms(broyden)= 0.25306E+01
  rms(prec ) = 0.45327E+01
  weight for this iteration     100.00

[...]

 eigenvalues of (default mixing * dielectric matrix)
  average eigenvalue GAMMA=   0.2594
  0.2594

[...]

 eigenvalue-minimisations  : 37392
 total energy-change (2. order) : 0.8933866E-02  (-0.2801091E-01)
 number of electron      25.0000010 magnetization       0.9419304
 augmentation part        8.3278647 magnetization       0.6439500

[...]

 Broyden mixing:
  rms(total) = 0.61871E-02    rms(broyden)= 0.61853E-02
  rms(prec ) = 0.73342E-02
  weight for this iteration     100.00

 eigenvalues of (default mixing * dielectric matrix)
  average eigenvalue GAMMA=   1.0585
  2.4251  1.3405  0.9413  0.9413  0.4219  0.6943  0.6449

[...]

--------------------------------------- Iteration      1(  13)  ---------------------------------------

 eigenvalue-minimisations  : 35392
 total energy-change (2. order) :-0.5063707E-05  (-0.5108200E-05)
 number of electron      25.0000010 magnetization       1.0029955
 augmentation part        8.3284705 magnetization       0.7110131

 Free energy of the ion-electron system (eV)
  alpha Z        PSCENC =        79.66708450
  Ewald energy   TEWEN  =     -1596.68053429
  -Hartree energ DENC   =      -574.27115555
  -exchange      EXHF   =         0.00000000
  -V(xc)+E(xc)   XCENC  =       101.68598032
  PAW double counting   =      2242.85533936    -2331.44871828
  entropy T*S    EENTRO =        -0.00267842
  eigenvalues    EBANDS =       -84.95132979
  atomic energy  EATOM  =      2139.37186265
  Solvation  Ediel_sol  =         0.00000000
  free energy    TOTEN  =       -23.77414952 eV

  energy without entropy =      -23.77147110  energy(sigma->0) =      -23.77281031

 average (electrostatic) potential at core
  the test charge radii are     0.7079  0.9791  0.7215
  (the norm of the test charge is              1.0000)
       1 -57.3876       2 -86.1788       3 -69.7284       4 -69.7284

 E-fermi :   5.8907     XC(G=0): -11.9560     alpha+bet :-14.5223

 spin component 1

 k-point     1 :       0.0000    0.0000    0.0000
  band No.  band energies     occupation
      1     -38.1101      1.00000
      2     -14.2194      1.00000
      3     -12.4964      1.00000
      4      -1.2827      1.00000
      5       0.1218      1.00000
      6       0.1218      1.00000
      7       3.2553      1.00000
      8       3.2553      1.00000
      9       3.5962      1.00000
     10       3.5962      1.00000
     11       3.6187      1.00000
     12       4.2596      1.00000
     13       6.4116      0.00000
     14       6.4116      0.00000
     15      10.9101      0.00000
     16      12.9902      0.00000
     17      18.5224      0.00000
     18      20.5818      0.00000
     19      20.5818      0.00000
     20      25.6956      0.00000
     21      25.6956      0.00000
     22      25.7757      0.00000
     23      26.5005      0.00000
     24      27.0949      0.00000
     25      27.7590      0.00000
     26      27.7590      0.00000
     27      30.0090      0.00000
     28      32.3070      0.00000
     29      32.3070      0.00000
     30      34.2509      0.00000
     31      34.2509      0.00000
     32      36.5177      0.00000

[...]

 spin component 2

[...]

 k-point   204 :      -0.4545    0.4545    0.5000
  band No.  band energies     occupation
      1     -38.0583      1.00000
      2     -12.4920      1.00000
      3     -12.2945      1.00000
      4      -1.3004      1.00000
      5       0.1257      1.00000
      6       0.7556      1.00000
      7       0.9192      1.00000
      8       2.3477      1.00000
      9       2.4329      1.00000
     10       4.0354      1.00000
     11       4.4116      1.00000
     12       4.7574      1.00000
     13       6.5745      0.00000
     14       6.9578      0.00000
     15      14.8893      0.00000
     16      16.1553      0.00000
     17      16.9772      0.00000
     18      17.8984      0.00000
     19      19.2432      0.00000
     20      20.9701      0.00000
     21      21.5140      0.00000
     22      24.3166      0.00000
     23      24.8621      0.00000
     24      27.5230      0.00000
     25      32.4391      0.00000
     26      34.6422      0.00000
     27      36.4384      0.00000
     28      36.5144      0.00000
     29      37.7449      0.00000
     30      38.4725      0.00000
     31      38.8437      0.00000
     32      39.4865      0.00000

 soft charge-density along one line, spin component           1
         0         1         2         3         4         5         6         7         8         9
 total charge-density along one line

 soft charge-density along one line, spin component           2
         0         1         2         3         4         5         6         7         8         9
 total charge-density along one line

------------------------ aborting loop because EDIFF is reached ----------------------------------------

  FORCE on cell =-STRESS in cart. coord.  units (eV):
  Direction    XX          YY          ZZ          XY          YZ          ZX
  Alpha Z    79.66708    79.66708    79.66708
  Ewald    -386.02760  -386.02759  -824.62716     0.00000     0.00001    -0.00000
  Hartree   301.99055   301.99055   -29.69071    -0.00000     0.00000     0.00000
  E(xc)    -126.51055  -126.51056  -126.55203    -0.00001    -0.00000     0.00001
  Local    -383.56115  -383.56116   379.86245    -0.00002    -0.00002     0.00002
  n-local   -67.01718   -68.01025   -69.41420     0.28460    -0.35138    -0.20356
  augment   206.13674   206.13686   207.93078     0.00011     0.00001    -0.00002
  Kinetic   375.91846   375.65870   382.72560     0.07175     0.02987     0.02662
  Fock        0.00000     0.00000     0.00000     0.00000     0.00000     0.00000
  Total       -0.0299973     -0.0299973     -0.0981809     -0.0000000     -0.0000000      0.0000000
  in kB       -1.4587493     -1.4587493     -4.7744671     -0.0000000     -0.0000000      0.0000000

 VOLUME and BASIS-vectors are now :
  energy-cutoff  :      500.00
  volume of cell :       32.95
      direct lattice vectors                 reciprocal lattice vectors
     2.854874980  0.000000000  0.000000000     0.350278036  0.202233120 -0.071411976
    -1.427437480  2.472394220  0.000000000     0.000000000  0.404466242  0.071411973
     1.427437480 -0.824131380  4.667751190     0.000000000  0.000000000  0.214235926

  length of vectors
     2.854874980  2.854874943  4.950219335     0.410722056  0.410722061  0.214235926

 FORCES acting on ions
    electron-ion (+dipol)            ewald-force                    non-local-force                 convergence-correction
   -.412E-14 -.176E-14 -.141E-13   0.222E-15 0.151E-14 -.142E-13   -.414E-24 0.620E-24 0.000E+00   0.230E-14 0.278E-14 -.664E-13
   -.499E-12 0.284E-11 -.533E-11   -.345E-14 0.121E-14 -.568E-13   0.000E+00 -.199E-22 0.000E+00   0.829E-14 0.167E-13 0.269E-12
   0.186E-04 -.893E-05 0.251E+03   0.180E-05 -.352E-05 -.263E+03   -.162E-07 0.650E-07 0.114E+02   -.142E-06 0.848E-07 -.174E-01
   -.186E-04 0.893E-05 -.251E+03   -.180E-05 0.352E-05 0.263E+03   0.162E-07 -.650E-07 -.114E+02   0.142E-06 -.848E-07 0.174E-01
   -.972E-12 0.317E-11 -.241E-11   -.434E-14 -.401E-15 0.000E+00   0.000E+00 -.132E-22 -.178E-14   -.343E-13 0.151E-14 0.233E-12

 POSITION                                       TOTAL-FORCE (eV/Angst)
      0.00000      0.00000      0.00000         0.000000      0.000000      0.000000
      1.42744      0.82413      2.33388         0.000000      0.000000      0.000000
     -0.00000      1.64826      1.29972        -0.000000      0.000000      0.018222
      2.85487      0.00000      3.36803         0.000000     -0.000000     -0.018222
    total drift:                               -0.000000      0.000000     -0.000000

  FREE ENERGIE OF THE ION-ELECTRON SYSTEM (eV)
  free  energy   TOTEN  =       -23.7741495196 eV

  energy  without entropy=      -23.7714710968  energy(sigma->0) =      -23.77281031

volume of typ            1:    23.7 %

[...]

volume of typ            3:     9.9 %

total charge

# of ion       s       p       d       tot
    1        2.085   0.272   0.104   2.460
    2        0.258   0.329   7.856   8.442
    3        1.258   2.792   0.005   4.054
    4        1.258   2.792   0.005   4.054
tot           4.86    6.18    7.97   19.01

magnetization (x)

# of ion       s       p       d       tot
    1        0.007   0.014   0.001   0.022
    2       -0.000  -0.000   0.742   0.742
    3        0.013   0.076   0.000   0.089
    4        0.013   0.076   0.000   0.089
tot           0.03    0.17    0.74    0.94