 vasp.5.4.4.18Apr17-6-g9f103f2a35 (build May 12 2020 04:58:55) complex

 MD_VERSION_INFO: Compiled 2020-05-12T11:58:55-UTC in devlin.sd.materialsdesign.
 com:/home/medea2/data/build/wwolf/vasp-gpu5.4.4/13047/x86_64/src/src/build/std
 from svn 13047

 executed on                        Lin64 date 2023.03.16  11:32:46

 INCAR:
 POTCAR:    PAW_PBE Li_sv 10Sep2004
 POTCAR:    PAW_PBE Ni 02Aug2007
 POTCAR:    PAW_PBE O 08Apr2002

 POTCAR:    PAW_PBE Li_sv 10Sep2004

 POTCAR:    PAW_PBE Ni 02Aug2007

 POTCAR:    PAW_PBE O 08Apr2002

 Optimization of the real space projectors (new method)

 maximal supplied QI-value         = 22.11
 optimisation between [QCUT,QGAM] = [ 11.28, 22.77] = [ 35.61,145.23] Ry
 Optimized for a Real-space Cutoff    1.10 Angstroem

   l    n(q)    QCUT    max X(q) W(low)/X(q) W(high)/X(q)  e(spline)
   0      7    11.276    10.506    0.54E-04    0.58E-04    0.16E-07
   0      7    11.276     8.367    0.11E-03    0.14E-03    0.35E-07
   1      7    11.276     8.983    0.23E-03    0.43E-03    0.86E-07
 Optimization of the real space projectors (new method)

[...]

   l    n(q)    QCUT    max X(q) W(low)/X(q) W(high)/X(q)  e(spline)
   2      9    11.376    60.317    0.17E-03    0.16E-04    0.16E-06
   2      9    11.376    55.921    0.17E-03    0.16E-04    0.17E-06
   0     10    11.376    51.690    0.45E-04    0.60E-04    0.21E-06
   0     10    11.376    30.015    0.37E-04    0.55E-04    0.19E-06
   1     10    11.376    18.849    0.83E-04    0.11E-03    0.92E-07
   1     10    11.376    14.624    0.69E-04    0.92E-04    0.82E-07
 Optimization of the real space projectors (new method)

 maximal supplied QI-value         = 24.76
 optimisation between [QCUT,QGAM] = [ 11.39, 22.77] = [ 36.31,145.25] Ry
 Optimized for a Real-space Cutoff    1.10 Angstroem

   l    n(q)    QCUT    max X(q) W(low)/X(q) W(high)/X(q)  e(spline)
   0      7    11.387    20.381    0.22E-03    0.48E-03    0.18E-06
   0      7    11.387    15.268    0.22E-03    0.52E-03    0.19E-06
   1      7    11.387     5.964    0.22E-03    0.73E-03    0.24E-06
   1      7    11.387     5.382    0.19E-03    0.60E-03    0.21E-06

  PAW_PBE Li_sv 10Sep2004               :
  PAW_PBE Ni 02Aug2007                  :
  PAW_PBE O 08Apr2002                   :

 POSCAR: ce6
  positions in direct lattice
 exchange correlation table for  LEXCH =       14
   RHO(1)=    0.500       N(1)  =     2000
   RHO(2)=  100.500       N(2)  =     4000

 ion  position               nearest neighbor table
   1  0.991  0.977  0.995-   9 2.00   6 2.06   6 2.06  10 2.16  10 2.16   7 2.27   3 2.76
   2  0.676  0.356  0.005-   8 2.00  11 2.06  11 2.06   7 2.16   7 2.16  10 2.27   5 2.76
   3  0.672  0.833  0.489-   9 1.88   9 1.88   6 1.92   6 1.92   8 1.92  10 1.96   1 2.76   4 2.83
                             4 2.83   5 2.84   5 2.84
   4  0.333  0.167  0.500-  11 1.88   6 1.88   7 1.93   7 1.93  10 1.93  10 1.93   5 2.83   5 2.83
                             3 2.83   3 2.83
   5  0.995  0.501  0.511-   8 1.88   8 1.88  11 1.92  11 1.92   9 1.92   7 1.96   2 2.76   4 2.83
                             4 2.83   3 2.84   3 2.84
   6  0.322  0.929  0.285-   4 1.88   3 1.92   3 1.92   1 2.06   1 2.06
   7  0.986  0.254  0.283-   4 1.93   4 1.93   5 1.96   2 2.16   2 2.16   1 2.27
   8  0.638  0.580  0.304-   5 1.88   5 1.88   3 1.92   2 2.00
   9  0.029  0.753  0.696-   3 1.88   3 1.88   5 1.92   1 2.00
  10  0.681  0.079  0.717-   4 1.93   4 1.93   3 1.96   1 2.16   1 2.16   2 2.27
  11  0.345  0.404  0.715-   4 1.88   5 1.92   5 1.92   2 2.06   2 2.06

  LATTYP: Found a base centered monoclinic cell.
 ALAT       =    14.7181316000
 B/A-ratio  =     0.1920052081
 C/A-ratio  =     0.5503216612
 COS(beta)  =    -0.7957456291

  Lattice vectors:

 A1 = (  -1.4129789500,   7.3590658000,   0.0000000000)
 A2 = (   1.4129789700,   7.3590658000,   0.0000000000)
 A3 = (  -0.0000000000,  -6.5630372300,  -4.7467662500)

Analysis of symmetry for initial positions (statically):
 Subroutine PRICEL returns:
 Original cell was already a primitive cell.

 Routine SETGRP: Setting up the symmetry group for a
 base centered monoclinic supercell.

 Subroutine GETGRP returns: Found  4 space group operations
 (whereof  2 operations were pure point group operations)
 out of a pool of  4 trial point group operations.

The static configuration has the point symmetry C_1h.
 The point group associated with its full space group is C_2h.

Analysis of symmetry for dynamics (positions and initial velocities):
 Subroutine PRICEL returns:
 Original cell was already a primitive cell.

[...]

The dynamic configuration has the point symmetry C_1h.
 The point group associated with its full space group is C_2h.

Analysis of structural, dynamic, and magnetic symmetry:
 Subroutine PRICEL returns:
 Original cell was already a primitive cell.

 Routine SETGRP: Setting up the symmetry group for a
 base centered monoclinic supercell.

 Subroutine GETGRP returns: Found  4 space group operations
 (whereof  2 operations were pure point group operations)
 out of a pool of  4 trial point group operations.

The magnetic configuration has the point symmetry C_1h.
 The point group associated with its full space group is C_2h.

 Subroutine INISYM returns: Found  4 space group operations
 (whereof  2 operations are pure point group operations),
 and found     1 'primitive' translations

 KPOINTS: Automatic mesh

Automatic generation of k-mesh.
Space group operators:
 irot       det(A)        alpha          n_x          n_y          n_z        tau_x        tau_y        tau_z
    1     1.000000     0.000000     1.000000     0.000000     0.000000     0.000000     0.000000     0.000000
    2    -1.000000   180.000000     1.000000    -0.000000     0.000000     0.000000     0.000000     0.000000
    3    -1.000000     0.000000     1.000000     0.000000     0.000000     0.666667     1.333333     0.000000
    4     1.000000   180.000000     1.000000    -0.000000     0.000000     0.666667     1.333333     0.000000

 Subroutine IBZKPT returns following result:

 Found    117 irreducible k-points:

 Following reciprocal coordinates:
            Coordinates               Weight
  0.000000  0.000000  0.000000      1.000000
  0.100000  0.000000 -0.000000      2.000000
  0.200000  0.000000  0.000000      2.000000
  0.300000  0.000000  0.000000      2.000000
  0.400000  0.000000  0.000000      2.000000
  0.500000  0.000000  0.000000      2.000000
  0.000000  0.250000  0.000000      2.000000
  0.100000  0.250000 -0.000000      2.000000
  0.200000  0.250000  0.000000      2.000000
  0.300000  0.250000  0.000000      2.000000
  0.400000  0.250000 -0.000000      2.000000
  0.500000  0.250000  0.000000      4.000000
 -0.400000  0.250000  0.000000      2.000000
 -0.300000  0.250000 -0.000000      2.000000
 -0.200000  0.250000  0.000000      2.000000
 -0.100000  0.250000  0.000000      2.000000
  0.000000  0.500000  0.000000      1.000000
  0.100000  0.500000  0.000000      2.000000
  0.200000  0.500000  0.000000      2.000000
  0.300000  0.500000  0.000000      2.000000
  0.400000  0.500000  0.000000      2.000000
  0.500000  0.500000  0.000000      2.000000
  0.000000  0.000000  0.166667      2.000000
  0.100000  0.000000  0.166667      2.000000
  0.200000  0.000000  0.166667      2.000000
  0.300000  0.000000  0.166667      2.000000
  0.400000  0.000000  0.166667      2.000000
  0.500000  0.000000  0.166667      4.000000
 -0.400000 -0.000000  0.166667      2.000000
 -0.300000  0.000000  0.166667      2.000000
 -0.200000 -0.000000  0.166667      2.000000
 -0.100000 -0.000000  0.166667      2.000000
  0.000000  0.250000  0.166667      2.000000
  0.100000  0.250000  0.166667      2.000000
  0.200000  0.250000  0.166667      2.000000
  0.300000  0.250000  0.166667      2.000000
  0.400000  0.250000  0.166667      2.000000
  0.500000  0.250000  0.166667      4.000000
 -0.400000  0.250000  0.166667      2.000000
 -0.300000  0.250000  0.166667      2.000000
 -0.200000  0.250000  0.166667      2.000000
 -0.100000  0.250000  0.166667      2.000000
  0.000000  0.500000  0.166667      2.000000
  0.100000  0.500000  0.166667      2.000000
  0.200000  0.500000  0.166667      2.000000
  0.300000  0.500000  0.166667      2.000000
  0.400000  0.500000  0.166667      2.000000
  0.500000  0.500000  0.166667      4.000000
 -0.400000  0.500000  0.166667      2.000000
 -0.300000  0.500000  0.166667      2.000000
 -0.200000  0.500000  0.166667      2.000000
 -0.100000  0.500000  0.166667      2.000000
  0.000000 -0.250000  0.166667      2.000000
  0.100000 -0.250000  0.166667      2.000000
  0.200000 -0.250000  0.166667      2.000000
  0.300000 -0.250000  0.166667      2.000000
  0.400000 -0.250000  0.166667      2.000000
  0.500000 -0.250000  0.166667      4.000000
 -0.400000 -0.250000  0.166667      2.000000
 -0.300000 -0.250000  0.166667      2.000000
[...]
  0.400000  0.000000  0.500000      2.000000
  0.000000  0.250000  0.500000      2.000000
  0.100000  0.250000  0.500000      2.000000
  0.200000  0.250000  0.500000      2.000000
  0.300000  0.250000  0.500000      2.000000
  0.400000  0.250000  0.500000      2.000000
 -0.400000  0.250000  0.500000      2.000000
 -0.300000  0.250000  0.500000      2.000000
 -0.200000  0.250000  0.500000      2.000000
 -0.100000  0.250000  0.500000      2.000000
  0.000000  0.500000  0.500000      1.000000
  0.100000  0.500000  0.500000      2.000000
  0.200000  0.500000  0.500000      2.000000
  0.300000  0.500000  0.500000      2.000000
  0.400000  0.500000  0.500000      2.000000

 Following cartesian coordinates:
            Coordinates               Weight
  0.000000  0.000000  0.000000      1.000000
  0.035386  0.006794 -0.009394      2.000000
  0.070772  0.013589 -0.018788      2.000000
  0.106159  0.020383 -0.028182      2.000000
  0.141545  0.027177 -0.037576      2.000000
  0.176931  0.033972 -0.046970      2.000000
  0.000000  0.033972  0.005697      2.000000
  0.035386  0.040766 -0.003697      2.000000
  0.070772  0.047560 -0.013091      2.000000
  0.106159  0.054355 -0.022485      2.000000
  0.141545  0.061149 -0.031879      2.000000
  0.176931  0.067943 -0.041273      4.000000
 -0.141545  0.006794  0.043273      2.000000
 -0.106159  0.013589  0.033879      2.000000
 -0.070772  0.020383  0.024485      2.000000
 -0.035386  0.027177  0.015091      2.000000
  0.000000  0.067943  0.011394      1.000000
  0.035386  0.074738  0.002000      2.000000
  0.070772  0.081532 -0.007394      2.000000
  0.106159  0.088326 -0.016788      2.000000
  0.141545  0.095121 -0.026182      2.000000
  0.176931  0.101915 -0.035576      2.000000
  0.000000  0.000000  0.035112      2.000000
  0.035386  0.006794  0.025718      2.000000
  0.070772  0.013589  0.016323      2.000000
  0.106159  0.020383  0.006929      2.000000
  0.141545  0.027177 -0.002465      2.000000
  0.176931  0.033972 -0.011859      4.000000
 -0.141545 -0.027177  0.072688      2.000000
 -0.106159 -0.020383  0.063294      2.000000
 -0.070772 -0.013589  0.053900      2.000000
 -0.035386 -0.006794  0.044506      2.000000
  0.000000  0.033972  0.040809      2.000000
  0.035386  0.040766  0.031415      2.000000
[...]
 k-point 58 :   0.5000-0.2500 0.1667  plane waves:    2513
 k-point 59 :  -0.4000-0.2500 0.1667  plane waves:    2517
 k-point 60 :  -0.3000-0.2500 0.1667  plane waves:    2511
[...]
 k-point 85 :   0.4000 0.5000 0.3333  plane waves:    2518
 k-point 86 :  -0.4000 0.5000 0.3333  plane waves:    2514
 k-point 87 :  -0.3000 0.5000 0.3333  plane waves:    2515
 k-point 88 :  -0.2000 0.5000 0.3333  plane waves:    2515
 k-point 89 :  -0.1000 0.5000 0.3333  plane waves:    2505
 k-point 90 :   0.0000-0.2500 0.3333  plane waves:    2505
 k-point 91 :   0.1000-0.2500 0.3333  plane waves:    2499
 k-point 92 :   0.2000-0.2500 0.3333  plane waves:    2506
 k-point 93 :   0.3000-0.2500 0.3333  plane waves:    2506
 k-point 94 :   0.4000-0.2500 0.3333  plane waves:    2508
 k-point 95 :  -0.4000-0.2500 0.3333  plane waves:    2515
 k-point 96 :  -0.3000-0.2500 0.3333  plane waves:    2526
 k-point 97 :  -0.2000-0.2500 0.3333  plane waves:    2500
 k-point 98 :  -0.1000-0.2500 0.3333  plane waves:    2501
 k-point 99 :   0.0000 0.0000 0.5000  plane waves:    2514
 k-point ** :   0.1000 0.0000 0.5000  plane waves:    2516
 k-point ** :   0.2000 0.0000 0.5000  plane waves:    2507
 k-point ** :   0.3000 0.0000 0.5000  plane waves:    2513
 k-point ** :   0.4000 0.0000 0.5000  plane waves:    2521
 k-point ** :   0.0000 0.2500 0.5000  plane waves:    2518
 k-point ** :   0.1000 0.2500 0.5000  plane waves:    2504
 k-point ** :   0.2000 0.2500 0.5000  plane waves:    2513
 k-point ** :   0.3000 0.2500 0.5000  plane waves:    2507
 k-point ** :   0.4000 0.2500 0.5000  plane waves:    2506
 k-point ** :  -0.4000 0.2500 0.5000  plane waves:    2516
 k-point ** :  -0.3000 0.2500 0.5000  plane waves:    2512
 k-point ** :  -0.2000 0.2500 0.5000  plane waves:    2502
 k-point ** :  -0.1000 0.2500 0.5000  plane waves:    2501
 k-point ** :   0.0000 0.5000 0.5000  plane waves:    2490
 k-point ** :   0.1000 0.5000 0.5000  plane waves:    2500
 k-point ** :   0.2000 0.5000 0.5000  plane waves:    2505
 k-point ** :   0.3000 0.5000 0.5000  plane waves:    2513
 k-point ** :   0.4000 0.5000 0.5000  plane waves:    2513

 maximum and minimum number of plane-waves per node :      2526     2487

 maximum number of plane-waves:      2526
 maximum index in each direction:
   IXMAX=    5   IYMAX=   13   IZMAX=    9
   IXMIN=   -5   IYMIN=  -14   IZMIN=   -9

 The following grids will avoid any aliasing or wrap around errors in the Hartre
 e energy
  - symmetry arguments have not been applied
  - exchange correlation energies might require even more grid points
  - we recommend to set PREC=Normal or Accurate and rely on VASP defaults
 NGX is ok and might be reduce to    24
 NGY is ok and might be reduce to    56
 NGZ is ok and might be reduce to    40

 serial   3D FFT for wavefunctions
 parallel 3D FFT for charge:
    minimum data exchange during FFTs selected (reduces bandwidth)

 Broyden mixing: mesh for mixing (old mesh)
   NGX = 11   NGY = 27   NGZ = 19
  (NGX  = 48   NGY  =112   NGZ  = 80)
  gives a total of   5643 points

 initial charge density was supplied:
 charge density of overlapping atoms calculated
 number of electron      72.0000000 magnetization       7.5000000
 keeping initial charge density in first step

 Maximum index for non-local projection operator         7104
 Maximum index for augmentation-charges          977 (set IRDMAX)

 First call to EWALD:  gamma=   0.384
 Maximum number of real-space cells 4x 2x 3
 Maximum number of reciprocal cells 2x 4x 3

--------------------------------------- Iteration      1(   1)  ---------------------------------------

 eigenvalue-minimisations  : 22464
 total energy-change (2. order) : 0.6234775E+03  (-0.3439976E+04)
 number of electron      72.0000000 magnetization       7.5000000
 augmentation part       72.0000000 magnetization       7.5000000

 Free energy of the ion-electron system (eV)
  alpha Z        PSCENC =       224.13401039
  Ewald energy   TEWEN  =     -4329.53790206
  -Hartree energ DENC   =     -2025.38582078
  -exchange      EXHF   =         0.00000000
  -V(xc)+E(xc)   XCENC  =       293.35786257
  PAW double counting   =      5121.46913532    -5361.11212292
  entropy T*S    EENTRO =        -0.00286855
  eigenvalues    EBANDS =       483.45692293
  atomic energy  EATOM  =      6217.09824741
  Solvation  Ediel_sol  =         0.00000000
  free energy    TOTEN  =       623.47746430 eV

  energy without entropy =      623.48033285  energy(sigma->0) =      623.47889857

[...]

 eigenvalue-minimisations  : 24544
 total energy-change (2. order) :-0.6431567E+03  (-0.6050627E+03)
 number of electron      72.0000000 magnetization       7.5000000
 augmentation part       72.0000000 magnetization       7.5000000

[...]

 Broyden mixing:
  rms(total) = 0.49929E+01    rms(broyden)= 0.49925E+01
  rms(prec ) = 0.67205E+01
  weight for this iteration     100.00

[...]

 eigenvalues of (default mixing * dielectric matrix)
  average eigenvalue GAMMA=   0.2715
  0.2715

[...]

 eigenvalue-minimisations  : 35296
 total energy-change (2. order) : 0.1299852E-01  (-0.2112369E-01)
 number of electron      72.0000015 magnetization       1.7355614
 augmentation part       23.8606071 magnetization       1.1263472

[...]

 Broyden mixing:
  rms(total) = 0.64014E-02    rms(broyden)= 0.64003E-02
  rms(prec ) = 0.72636E-02
  weight for this iteration     100.00

 eigenvalues of (default mixing * dielectric matrix)
  average eigenvalue GAMMA=   0.9578
  2.5157  1.4465  1.4465  1.1998  1.1998  0.9898  0.9898  0.1542  0.7150  0.7150
  0.5008  0.5008  0.5174  0.5174

[...]

--------------------------------------- Iteration      1(  20)  ---------------------------------------

 eigenvalue-minimisations  : 24016
 total energy-change (2. order) :-0.8681478E-05  (-0.3017288E-05)
 number of electron      72.0000015 magnetization       1.9994025
 augmentation part       23.8825041 magnetization       1.3947108

 Free energy of the ion-electron system (eV)
  alpha Z        PSCENC =       224.13401039
  Ewald energy   TEWEN  =     -4329.53790206
  -Hartree energ DENC   =     -1970.44835548
  -exchange      EXHF   =         0.00000000
  -V(xc)+E(xc)   XCENC  =       291.27083544
  PAW double counting   =      6718.37804251    -6969.03361129
  entropy T*S    EENTRO =        -0.00725143
  eigenvalues    EBANDS =      -248.37303103
  atomic energy  EATOM  =      6217.09824741
  Solvation  Ediel_sol  =         0.00000000
  free energy    TOTEN  =       -66.51901554 eV

  energy without entropy =      -66.51176411  energy(sigma->0) =      -66.51538982

 average (electrostatic) potential at core
  the test charge radii are     0.7079  0.9791  0.7215
  (the norm of the test charge is              1.0000)
       1 -58.1123       2 -58.1123       3 -87.3158       4 -87.2902       5 -87.3158
       6 -70.7538       7 -70.5808       8 -70.7308       9 -70.7307      10 -70.5808
      11 -70.7538

 E-fermi :   5.1597     XC(G=0): -11.5306     alpha+bet :-13.0254

 spin component 1

 k-point     1 :       0.0000    0.0000    0.0000
  band No.  band energies     occupation
      1     -38.8148      1.00000
      2     -38.8082      1.00000
      3     -15.2415      1.00000
      4     -14.1786      1.00000
      5     -14.1043      1.00000
      6     -13.3099      1.00000
      7     -13.3048      1.00000
      8     -13.1106      1.00000
      9      -2.0295      1.00000
     10      -1.8530      1.00000
     11      -1.7194      1.00000
     12      -1.0855      1.00000
     13      -0.9973      1.00000
     14      -0.9364      1.00000
     15      -0.8365      1.00000
     16      -0.6798      1.00000
     17      -0.6602      1.00000
     18      -0.5583      1.00000
     19      -0.2608      1.00000
     20       1.1952      1.00000
     21       1.2266      1.00000
     22       1.8113      1.00000
     23       2.1328      1.00000
     24       2.3187      1.00000
     25       2.3210      1.00000
     26       2.6258      1.00000
     27       2.6880      1.00000
     28       2.8052      1.00000
     29       2.8294      1.00000
     30       3.0596      1.00000
     31       3.1650      1.00000
     32       3.1825      1.00000
     33       3.4540      1.00000
     34       3.4969      1.00000
     35       3.6273      1.00000
     36       4.9240      1.00000
     37       4.9241      1.00000
     38       5.4497      0.00000
     39       5.7666      0.00000
     40       5.8873      0.00000
     41       5.9255      0.00000
     42      10.4545      0.00000
     43      13.0733      0.00000
     44      13.0826      0.00000
     45      14.1535      0.00000
     46      15.4151      0.00000
     47      16.2846      0.00000
     48      16.9960      0.00000

[...]

 spin component 2

[...]

 k-point   117 :       0.4000    0.5000    0.5000
  band No.  band energies     occupation
      1     -38.7817      1.00000
      2     -38.7797      1.00000
      3     -13.8518      1.00000
      4     -13.6132      1.00000
      5     -13.2824      1.00000
      6     -13.2010      1.00000
      7     -13.1236      1.00000
      8     -13.0495      1.00000
      9      -2.2640      1.00000
     10      -1.7470      1.00000
     11      -1.7145      1.00000
     12      -1.2257      1.00000
     13      -1.1874      1.00000
     14      -0.9830      1.00000
     15      -0.6195      1.00000
     16      -0.1720      1.00000
     17       0.0373      1.00000
     18       0.0893      1.00000
     19       0.5041      1.00000
     20       0.6823      1.00000
     21       0.7273      1.00000
     22       1.0023      1.00000
     23       1.0640      1.00000
     24       1.3391      1.00000
     25       1.8787      1.00000
     26       2.0530      1.00000
     27       2.9477      1.00000
     28       3.0044      1.00000
     29       3.1852      1.00000
     30       3.2700      1.00000
     31       3.4627      1.00000
     32       3.5539      1.00000
     33       3.6281      1.00000
     34       3.8182      1.00000
     35       3.8800      1.00000
     36       5.4434      0.00000
     37       5.7078      0.00000
     38       5.7571      0.00000
     39       5.9279      0.00000
     40       6.0211      0.00000
     41       6.2700      0.00000
     42      13.0806      0.00000
     43      14.0859      0.00000
     44      15.1877      0.00000
     45      15.8086      0.00000
     46      16.0076      0.00000
     47      16.6032      0.00000
     48      17.2071      0.00000

 soft charge-density along one line, spin component           1
         0         1         2         3         4         5         6         7         8         9
 total charge-density along one line

 soft charge-density along one line, spin component           2
         0         1         2         3         4         5         6         7         8         9
 total charge-density along one line

------------------------ aborting loop because EDIFF is reached ----------------------------------------

  FORCE on cell =-STRESS in cart. coord.  units (eV):
  Direction    XX          YY          ZZ          XY          YZ          ZX
  Alpha Z   224.13401   224.13401   224.13401
  Ewald    -731.09026  -829.67664 -2768.77272     0.00000   -16.87419     0.00000
  Hartree  1186.78780  1123.06980  -339.29106     0.00000    -9.53882    -0.00000
  E(xc)    -365.27141  -365.30512  -365.52335    -0.00001     0.00334     0.00000
  Local   -1812.29915 -1654.77234  1719.82659    -0.00008    24.31395     0.00006
  n-local  -181.02445  -181.11521  -187.94588     0.04630    -0.47788     0.10424
  augment   597.12864   598.93724   606.54817     0.00015     0.90656    -0.00018
  Kinetic  1081.64963  1084.75544  1111.13262     0.16195     1.69665    -0.55242
  Fock        0.00000     0.00000     0.00000     0.00000     0.00000     0.00000
  Total        0.0148091      0.0271820      0.1083942     -0.0000000      0.0296049     -0.0000000
  in kB        0.2403554      0.4411693      1.7592622     -0.0000000      0.4804936     -0.0000000

 VOLUME and BASIS-vectors are now :
  energy-cutoff  :      500.00
  volume of cell :       98.72
      direct lattice vectors                 reciprocal lattice vectors
     2.825957920  0.000000000  0.000000000     0.353862311  0.067943406 -0.093940818
    -1.412978950  7.359065800  0.000000000     0.000000000  0.135886813  0.022788100
     1.412978950 -0.796028570  4.746766250     0.000000000  0.000000000  0.210669738

  length of vectors
     2.825957920  7.493487770  5.016169936     0.372370405  0.137784337  0.210669738

 FORCES acting on ions
    electron-ion (+dipol)            ewald-force                    non-local-force                 convergence-correction
   -.311E-05 0.171E+02 -.128E+01   0.103E-05 -.178E+02 0.109E+01   0.610E-09 0.706E+00 0.186E+00   -.333E-06 -.575E-02 -.340E-03
   0.265E-05 -.171E+02 0.128E+01   -.600E-06 0.178E+02 -.109E+01   -.610E-09 -.706E+00 -.186E+00   0.332E-06 0.575E-02 0.340E-03
   -.270E-04 0.569E+02 0.605E+02   -.136E-04 -.579E+02 -.606E+02   0.118E-08 0.104E+01 0.121E+00   -.416E-06 -.242E-01 -.385E-02
   -.121E-04 -.330E-04 -.360E-04   0.693E-05 -.194E-04 -.178E-05   0.000E+00 -.508E-20 0.000E+00   0.679E-08 0.295E-06 0.126E-06
   0.536E-04 -.569E+02 -.605E+02   0.491E-05 0.579E+02 0.606E+02   -.118E-08 -.104E+01 -.121E+00   0.404E-06 0.242E-01 0.385E-02
   -.163E-04 0.615E+02 0.312E+03   0.606E-05 -.637E+02 -.328E+03   -.275E-07 0.219E+01 0.162E+02   0.566E-07 -.172E-01 -.125E-01
   0.836E-05 -.177E+02 0.289E+03   -.177E-05 0.177E+02 -.302E+03   -.254E-07 0.184E-01 0.135E+02   -.557E-07 0.922E-02 -.892E-02
   0.233E-04 -.490E+02 0.320E+03   -.403E-05 0.523E+02 -.338E+03   -.384E-07 -.331E+01 0.181E+02   0.134E-07 0.999E-02 -.369E-02
   0.549E-05 0.490E+02 -.320E+03   0.117E-04 -.523E+02 0.338E+03   0.384E-07 0.331E+01 -.181E+02   -.255E-07 -.999E-02 0.369E-02
   -.274E-04 0.177E+02 -.289E+03   -.694E-05 -.177E+02 0.302E+03   0.254E-07 -.184E-01 -.135E+02   0.580E-07 -.922E-02 0.892E-02
   -.947E-05 -.615E+02 -.312E+03   -.368E-05 0.637E+02 0.328E+03   0.275E-07 -.219E+01 -.162E+02   -.468E-07 0.172E-01 0.125E-01
   -.198E-05 0.363E-04 -.618E-05   -.328E-14 0.000E+00 0.114E-12   0.520E-17 0.000E+00 0.000E+00   -.625E-08 0.436E-07 0.539E-08

 POSITION                                       TOTAL-FORCE (eV/Angst)
      2.82596      6.39678      4.72164        -0.000000     -0.003359     -0.001463
      1.41298      2.61928      0.02512         0.000000      0.003359      0.001463
      1.41298      5.73903      2.32170         0.000000      0.003453      0.001218
      1.41298      0.82850      2.37338         0.000000     -0.000000      0.000000
      2.82596      3.27703      2.42506        -0.000000     -0.003453     -0.001218
      0.00000      6.61040      1.35515        -0.000000      0.006115      0.005155
      2.82596      1.64534      1.34230         0.000000      0.006968      0.004996
      1.41298      4.02850      1.44447        -0.000000      0.003413      0.003263
      0.00000      4.98756      3.30230         0.000000     -0.003413     -0.003263
      2.82596      0.01165      3.40447        -0.000000     -0.006968     -0.004996
      1.41298      2.40566      3.39161         0.000000     -0.006115     -0.005155
    total drift:                               -0.000002      0.000036     -0.000006

  FREE ENERGIE OF THE ION-ELECTRON SYSTEM (eV)
  free  energy   TOTEN  =       -66.5190155372 eV

  energy  without entropy=      -66.5117641065  energy(sigma->0) =      -66.51538982

volume of typ            1:    15.8 %

[...]

volume of typ            3:     9.9 %

total charge

# of ion       s       p       d       tot
    1        2.079   0.254   0.097   2.430
    2        2.079   0.254   0.097   2.430
    3        0.275   0.362   7.841   8.478
    4        0.275   0.367   7.848   8.490
    5        0.275   0.362   7.841   8.478
    6        1.260   2.787   0.006   4.054
    7        1.263   2.776   0.005   4.045
    8        1.271   2.761   0.007   4.039
    9        1.271   2.761   0.007   4.039
   10        1.263   2.776   0.005   4.045
   11        1.260   2.787   0.006   4.054
tot          12.57   18.25   23.76   54.58

magnetization (x)

# of ion       s       p       d       tot
    1        0.005   0.012   0.001   0.018
    2        0.005   0.012   0.001   0.018
    3       -0.000   0.000   0.461   0.461
    4       -0.001  -0.000   0.511   0.510
    5       -0.000   0.000   0.461   0.460
    6        0.006   0.022   0.000   0.028
    7        0.012   0.081   0.000   0.093
    8        0.010   0.064   0.000   0.074
    9        0.010   0.064   0.000   0.074
   10        0.012   0.081   0.000   0.093
   11        0.006   0.022   0.000   0.028
tot           0.06    0.36    1.44    1.86