 vasp.5.4.4.18Apr17-6-g9f103f2a35 (build May 12 2020 04:58:55) complex

 MD_VERSION_INFO: Compiled 2020-05-12T11:58:55-UTC in devlin.sd.materialsdesign.
 com:/home/medea2/data/build/wwolf/vasp-gpu5.4.4/13047/x86_64/src/src/build/std
 from svn 13047

 executed on                        Lin64 date 2023.03.16  11:58:56

 INCAR:
 POTCAR:    PAW_PBE Li_sv 10Sep2004
 POTCAR:    PAW_PBE Ni 02Aug2007
 POTCAR:    PAW_PBE O 08Apr2002

 POTCAR:    PAW_PBE Li_sv 10Sep2004

 POTCAR:    PAW_PBE Ni 02Aug2007

 POTCAR:    PAW_PBE O 08Apr2002

 Optimization of the real space projectors (new method)

 maximal supplied QI-value         = 22.11
 optimisation between [QCUT,QGAM] = [ 11.28, 22.77] = [ 35.61,145.23] Ry
 Optimized for a Real-space Cutoff    1.10 Angstroem

   l    n(q)    QCUT    max X(q) W(low)/X(q) W(high)/X(q)  e(spline)
   0      7    11.276    10.506    0.54E-04    0.58E-04    0.16E-07
   0      7    11.276     8.367    0.11E-03    0.14E-03    0.35E-07
   1      7    11.276     8.983    0.23E-03    0.43E-03    0.86E-07
 Optimization of the real space projectors (new method)

[...]

   l    n(q)    QCUT    max X(q) W(low)/X(q) W(high)/X(q)  e(spline)
   2      9    11.376    60.317    0.17E-03    0.16E-04    0.16E-06
   2      9    11.376    55.921    0.17E-03    0.16E-04    0.17E-06
   0     10    11.376    51.690    0.45E-04    0.60E-04    0.21E-06
   0     10    11.376    30.015    0.37E-04    0.55E-04    0.19E-06
   1     10    11.376    18.849    0.83E-04    0.11E-03    0.92E-07
   1     10    11.376    14.624    0.69E-04    0.92E-04    0.82E-07
 Optimization of the real space projectors (new method)

 maximal supplied QI-value         = 24.76
 optimisation between [QCUT,QGAM] = [ 11.39, 22.77] = [ 36.31,145.25] Ry
 Optimized for a Real-space Cutoff    1.10 Angstroem

   l    n(q)    QCUT    max X(q) W(low)/X(q) W(high)/X(q)  e(spline)
   0      7    11.387    20.381    0.22E-03    0.48E-03    0.18E-06
   0      7    11.387    15.268    0.22E-03    0.52E-03    0.19E-06
   1      7    11.387     5.964    0.22E-03    0.73E-03    0.24E-06
   1      7    11.387     5.382    0.19E-03    0.60E-03    0.21E-06

  PAW_PBE Li_sv 10Sep2004               :
  PAW_PBE Ni 02Aug2007                  :
  PAW_PBE O 08Apr2002                   :

 POSCAR: ce33
  positions in direct lattice
 exchange correlation table for  LEXCH =       14
   RHO(1)=    0.500       N(1)  =     2000
   RHO(2)=  100.500       N(2)  =     4000

 ion  position               nearest neighbor table
   1  0.000  1.000  1.000-   9 2.06   9 2.06   9 2.06  14 2.10  14 2.10  14 2.10   6 2.83   6 2.83
                             6 2.83
   2  0.250  0.750  0.250-  11 2.06  11 2.06  11 2.06  10 2.10  10 2.10  10 2.10   6 2.83   6 2.83
                             6 2.83
   3  0.874  0.126  0.378-  12 1.87  12 1.87  12 1.87  10 1.94  10 1.94  10 1.94
   4  0.125  0.875  0.625-   7 1.87  13 1.87   7 1.87  13 1.87   7 1.87  13 1.87
   5  0.376  0.624  0.872-   8 1.87   8 1.87   8 1.87  14 1.94  14 1.94  14 1.94
   6  0.625  0.375  0.125-   9 1.94  11 1.94   9 1.94  11 1.94   9 1.94  11 1.94   1 2.83   2 2.83
                             1 2.83   2 2.83   1 2.83   2 2.83
   7  0.808  0.192  0.575-   4 1.87   4 1.87   4 1.87
   8  0.059  0.941  0.823-   5 1.87   5 1.87   5 1.87
   9  0.311  0.689  0.068-   6 1.94   6 1.94   6 1.94   1 2.06   1 2.06   1 2.06
  10  0.559  0.441  0.322-   3 1.94   3 1.94   3 1.94   2 2.10   2 2.10   2 2.10
  11  0.939  0.061  0.182-   6 1.94   6 1.94   6 1.94   2 2.06   2 2.06   2 2.06
  12  0.191  0.809  0.427-   3 1.87   3 1.87   3 1.87
  13  0.442  0.558  0.675-   4 1.87   4 1.87   4 1.87
  14  0.691  0.309  0.928-   5 1.94   5 1.94   5 1.94   1 2.10   1 2.10   1 2.10

  LATTYP: Found a trigonal (rhomboedric) cell.
 ALAT       =    18.5958492087
 COS(alpha) =     0.9884674845

  Lattice vectors:

 A1 = (  -1.4120921600,   0.8152717100, -18.5242256400)
 A2 = (   1.4120921600,   0.8152717100, -18.5242256400)
 A3 = (  -0.0000000000,  -1.6305436700, -18.5242256400)

Analysis of symmetry for initial positions (statically):
 Subroutine PRICEL returns:
 Original cell was already a primitive cell.

 Routine SETGRP: Setting up the symmetry group for a
 trigonal (rhombohedral) supercell.

 Subroutine GETGRP returns: Found 12 space group operations
 (whereof  6 operations were pure point group operations)
 out of a pool of 12 trial point group operations.

The static configuration has the point symmetry C_3v.
 The point group associated with its full space group is D_3d.

Analysis of symmetry for dynamics (positions and initial velocities):
 Subroutine PRICEL returns:
 Original cell was already a primitive cell.

[...]

The dynamic configuration has the point symmetry C_3v.
 The point group associated with its full space group is D_3d.

Analysis of structural, dynamic, and magnetic symmetry:
 Subroutine PRICEL returns:
 Original cell was already a primitive cell.

 Routine SETGRP: Setting up the symmetry group for a
 trigonal (rhombohedral) supercell.

 Subroutine GETGRP returns: Found 12 space group operations
 (whereof  6 operations were pure point group operations)
 out of a pool of 12 trial point group operations.

The magnetic configuration has the point symmetry C_3v.
 The point group associated with its full space group is D_3d.

 Subroutine INISYM returns: Found 12 space group operations
 (whereof  6 operations are pure point group operations),
 and found     1 'primitive' translations

 KPOINTS: Automatic mesh

Automatic generation of k-mesh.
Space group operators:
 irot       det(A)        alpha          n_x          n_y          n_z        tau_x        tau_y        tau_z
    1     1.000000     0.000000     1.000000     0.000000     0.000000     0.000000     0.000000     0.000000
    2    -1.000000   180.000000     0.500000     0.866025    -0.000000     0.000000     0.000000     0.000000
    3     1.000000   120.000000     0.000000     0.000000     1.000000     0.000000     0.000000     0.000000
    4    -1.000000   180.000000     1.000000     0.000000     0.000000     0.000000     0.000000     0.000000
    5     1.000000   120.000000     0.000000    -0.000000    -1.000000     0.000000     0.000000     0.000000
    6    -1.000000   180.000000    -0.500000     0.866025    -0.000000     0.000000     0.000000     0.000000
    7    -1.000000     0.000000     1.000000     0.000000     0.000000     0.250000    -0.250000    -0.750000
    8     1.000000   180.000000     0.500000     0.866025    -0.000000     0.250000    -0.250000    -0.750000
    9    -1.000000   120.000000     0.000000     0.000000     1.000000     0.250000    -0.250000    -0.750000
   10     1.000000   180.000000     1.000000     0.000000     0.000000     0.250000    -0.250000    -0.750000
   11    -1.000000   120.000000     0.000000    -0.000000    -1.000000     0.250000    -0.250000    -0.750000
   12     1.000000   180.000000    -0.500000     0.866025    -0.000000     0.250000    -0.250000    -0.750000

 Subroutine IBZKPT returns following result:

 Found     72 irreducible k-points:

 Following reciprocal coordinates:
            Coordinates               Weight
  0.000000  0.000000  0.000000      1.000000
  0.090909  0.000000  0.000000      4.000000
  0.181818  0.000000  0.000000      4.000000
  0.272727  0.000000 -0.000000      4.000000
  0.363636  0.000000  0.000000      4.000000
  0.454545  0.000000  0.000000      4.000000
  0.090909  0.090909 -0.000000      2.000000
  0.181818  0.090909  0.000000      4.000000
  0.272727  0.090909 -0.000000      4.000000
  0.363636  0.090909  0.000000      4.000000
  0.454545  0.090909  0.000000      4.000000
 -0.454545  0.090909  0.000000      4.000000
 -0.363636  0.090909 -0.000000      4.000000
 -0.272727  0.090909  0.000000      4.000000
 -0.181818  0.090909 -0.000000      4.000000
 -0.090909  0.090909  0.000000      2.000000
  0.181818  0.181818 -0.000000      2.000000
  0.272727  0.181818  0.000000      4.000000
  0.363636  0.181818  0.000000      4.000000
  0.454545  0.181818  0.000000      4.000000
 -0.454545  0.181818  0.000000      4.000000
 -0.363636  0.181818 -0.000000      4.000000
 -0.272727  0.181818  0.000000      4.000000
 -0.181818  0.181818  0.000000      2.000000
  0.272727  0.272727  0.000000      2.000000
  0.363636  0.272727  0.000000      4.000000
  0.454545  0.272727  0.000000      4.000000
 -0.454545  0.272727  0.000000      4.000000
 -0.363636  0.272727  0.000000      4.000000
 -0.272727  0.272727  0.000000      2.000000
  0.363636  0.363636 -0.000000      2.000000
  0.454545  0.363636  0.000000      4.000000
 -0.454545  0.363636  0.000000      4.000000
 -0.363636  0.363636  0.000000      2.000000
  0.454545  0.454545  0.000000      2.000000
 -0.454545  0.454545  0.000000      2.000000
  0.000000  0.000000  0.500000      1.000000
  0.090909  0.000000  0.500000      4.000000
  0.181818  0.000000  0.500000      4.000000
  0.272727  0.000000  0.500000      4.000000
  0.363636  0.000000  0.500000      4.000000
  0.454545  0.000000  0.500000      4.000000
  0.090909  0.090909  0.500000      2.000000
  0.181818  0.090909  0.500000      4.000000
  0.272727  0.090909  0.500000      4.000000
  0.363636  0.090909  0.500000      4.000000
  0.454545  0.090909  0.500000      4.000000
 -0.454545  0.090909  0.500000      4.000000
 -0.363636  0.090909  0.500000      4.000000
 -0.272727  0.090909  0.500000      4.000000
 -0.181818  0.090909  0.500000      4.000000
 -0.090909  0.090909  0.500000      2.000000
  0.181818  0.181818  0.500000      2.000000
  0.272727  0.181818  0.500000      4.000000
  0.363636  0.181818  0.500000      4.000000
  0.454545  0.181818  0.500000      4.000000
 -0.454545  0.181818  0.500000      4.000000
 -0.363636  0.181818  0.500000      4.000000
 -0.272727  0.181818  0.500000      4.000000
 -0.181818  0.181818  0.500000      2.000000
  0.272727  0.272727  0.500000      2.000000
  0.363636  0.272727  0.500000      4.000000
  0.454545  0.272727  0.500000      4.000000
 -0.454545  0.272727  0.500000      4.000000
 -0.363636  0.272727  0.500000      4.000000
 -0.272727  0.272727  0.500000      2.000000
  0.363636  0.363636  0.500000      2.000000
  0.454545  0.363636  0.500000      4.000000
 -0.454545  0.363636  0.500000      4.000000
 -0.363636  0.363636  0.500000      2.000000
  0.454545  0.454545  0.500000      2.000000
 -0.454545  0.454545  0.500000      2.000000

 Following cartesian coordinates:
            Coordinates               Weight
  0.000000  0.000000  0.000000      1.000000
  0.032190  0.018585 -0.001636      4.000000
  0.064379  0.037169 -0.003272      4.000000
  0.096569  0.055754 -0.004908      4.000000
  0.128758  0.074338 -0.006543      4.000000
  0.160948  0.092923 -0.008179      4.000000
  0.032190  0.055754 -0.000000      2.000000
  0.064379  0.074338 -0.001636      4.000000
  0.096569  0.092923 -0.003272      4.000000
  0.128758  0.111508 -0.004908      4.000000
  0.160948  0.130092 -0.006543      4.000000
 -0.160948 -0.055754  0.009815      4.000000
 -0.128758 -0.037169  0.008179      4.000000
 -0.096569 -0.018585  0.006543      4.000000
 -0.064379  0.000000  0.004908      4.000000
 -0.032190  0.018585  0.003272      2.000000
[...]
   IXMAX=    5   IYMAX=    5   IZMAX=   33
   IXMIN=   -5   IYMIN=   -5   IZMIN=  -34

 The following grids will avoid any aliasing or wrap around errors in the Hartre
 e energy
  - symmetry arguments have not been applied
  - exchange correlation energies might require even more grid points
  - we recommend to set PREC=Normal or Accurate and rely on VASP defaults
 NGX is ok and might be reduce to    24
 NGY is ok and might be reduce to    24
 NGZ is ok and might be reduce to   140

 serial   3D FFT for wavefunctions
 parallel 3D FFT for charge:
    minimum data exchange during FFTs selected (reduces bandwidth)

 Broyden mixing: mesh for mixing (old mesh)
   NGX = 11   NGY = 11   NGZ = 67
  (NGX  = 48   NGY  = 48   NGZ  =280)
  gives a total of   8107 points

 initial charge density was supplied:
 charge density of overlapping atoms calculated
 number of electron      94.0000000 magnetization      10.0000000
 keeping initial charge density in first step

 Maximum index for non-local projection operator         8217
 Maximum index for augmentation-charges         1265 (set IRDMAX)

 First call to EWALD:  gamma=   0.352
 Maximum number of real-space cells 5x 5x 1
 Maximum number of reciprocal cells 2x 2x 9

--------------------------------------- Iteration      1(   1)  ---------------------------------------

 eigenvalue-minimisations  : 18432
 total energy-change (2. order) : 0.9174101E+03  (-0.4427544E+04)
 number of electron      94.0000000 magnetization      10.0000000
 augmentation part       94.0000000 magnetization      10.0000000

 Free energy of the ion-electron system (eV)
  alpha Z        PSCENC =       297.24529368
  Ewald energy   TEWEN  =     -5548.32500339
  -Hartree energ DENC   =     -2814.40139420
  -exchange      EXHF   =         0.00000000
  -V(xc)+E(xc)   XCENC  =       382.46934831
  PAW double counting   =      6775.46300624    -7084.83456608
  entropy T*S    EENTRO =        -0.00531996
  eigenvalues    EBANDS =       754.34594882
  atomic energy  EATOM  =      8155.45276952
  Solvation  Ediel_sol  =         0.00000000
  free energy    TOTEN  =       917.41008293 eV

  energy without entropy =      917.41540289  energy(sigma->0) =      917.41274291

[...]

 eigenvalue-minimisations  : 20192
 total energy-change (2. order) :-0.9193338E+03  (-0.8288696E+03)
 number of electron      94.0000000 magnetization      10.0000000
 augmentation part       94.0000000 magnetization      10.0000000

[...]

 Broyden mixing:
  rms(total) = 0.59547E+01    rms(broyden)= 0.59542E+01
  rms(prec ) = 0.66797E+01
  weight for this iteration     100.00

[...]

 eigenvalues of (default mixing * dielectric matrix)
  average eigenvalue GAMMA=   0.0844
  0.0844

[...]

 eigenvalue-minimisations  : 22864
 total energy-change (2. order) :-0.6129408E-04  (-0.2243360E-05)
 number of electron      93.9999971 magnetization       1.9887669
 augmentation part       31.0745806 magnetization       1.3803015

[...]

 Broyden mixing:
  rms(total) = 0.27379E-02    rms(broyden)= 0.27377E-02
  rms(prec ) = 0.30219E-02
  weight for this iteration     100.00

 eigenvalues of (default mixing * dielectric matrix)
  average eigenvalue GAMMA=   1.1913
  4.9753  4.9753  3.7573  2.7637  2.7637  2.4418  2.2429  2.0437  2.0437  1.1708
  1.1708  1.4741  1.4741  0.1968  1.1715  1.1715  0.8747  0.8747  0.0657  0.5669
  0.5669  0.2510  0.2510  0.9207  0.9207  0.3099  0.3649  0.5049  0.5049  0.6582
  0.6582  0.6665  0.6665  0.7182  0.7182  0.6681  0.6681  0.5356  0.6167  0.6167
  0.5597  0.6452  0.6107  0.5979

[...]

--------------------------------------- Iteration      1(  70)  ---------------------------------------

 eigenvalue-minimisations  : 23232
 total energy-change (2. order) : 0.5336782E-05  (-0.2546972E-05)
 number of electron      93.9999971 magnetization       1.9990138
 augmentation part       31.0742414 magnetization       1.3922408

 Free energy of the ion-electron system (eV)
  alpha Z        PSCENC =       297.24529368
  Ewald energy   TEWEN  =     -5548.32500339
  -Hartree energ DENC   =     -2735.38054509
  -exchange      EXHF   =         0.00000000
  -V(xc)+E(xc)   XCENC  =       379.26094197
  PAW double counting   =      8895.88942223    -9219.40138549
  entropy T*S    EENTRO =        -0.00771632
  eigenvalues    EBANDS =      -309.58686831
  atomic energy  EATOM  =      8155.45276952
  Solvation  Ediel_sol  =         0.00000000
  free energy    TOTEN  =       -84.85309120 eV

  energy without entropy =      -84.84537487  energy(sigma->0) =      -84.84923303

 average (electrostatic) potential at core
  the test charge radii are     0.7079  0.9791  0.7215
  (the norm of the test charge is              1.0000)
       1 -58.5818       2 -58.5818       3 -87.8554       4 -87.8117       5 -87.8554
       6 -87.2448       7 -70.9094       8 -71.2101       9 -70.8383      10 -71.1081
      11 -70.8383      12 -71.2101      13 -70.9094      14 -71.1081

 E-fermi :   4.7863     XC(G=0): -11.5132     alpha+bet :-12.6192

 spin component 1

 k-point     1 :       0.0000    0.0000    0.0000
  band No.  band energies     occupation
      1     -39.3085      1.00000
      2     -39.3083      1.00000
      3     -15.6706      1.00000
      4     -15.6604      1.00000
      5     -15.4047      1.00000
      6     -15.3251      1.00000
      7     -13.8954      1.00000
      8     -13.6746      1.00000
      9     -13.6505      1.00000
     10     -12.9368      1.00000
     11      -2.3770      1.00000
     12      -1.9417      1.00000
     13      -1.6794      1.00000
     14      -1.5299      1.00000
     15      -1.5299      1.00000
     16      -1.5293      1.00000
     17      -1.5293      1.00000
     18      -1.4900      1.00000
     19      -1.4900      1.00000
     20      -1.1224      1.00000
     21      -0.9239      1.00000
     22      -0.9239      1.00000
     23       1.0992      1.00000
     24       1.8101      1.00000
     25       1.8101      1.00000
     26       1.8105      1.00000
     27       1.8105      1.00000
     28       1.8330      1.00000
     29       2.0452      1.00000
     30       2.0452      1.00000
     31       2.1571      1.00000
     32       2.1571      1.00000
     33       2.1941      1.00000
     34       2.4258      1.00000
     35       2.4258      1.00000
     36       2.4531      1.00000
     37       2.4531      1.00000
     38       2.4873      1.00000
     39       2.4873      1.00000
     40       2.8393      1.00000
     41       2.9998      1.00000
     42       2.9998      1.00000
     43       3.2256      1.00000
     44       3.4276      1.00000
     45       3.5824      1.00000
     46       4.0188      1.00000
     47       5.3080      0.00000
     48       5.3080      0.00000
     49       5.6574      0.00000
     50       5.6574      0.00000
     51       5.6574      0.00000
     52       5.6574      0.00000
     53       6.3377      0.00000
     54       6.3377      0.00000
     55      10.2571      0.00000
     56      11.0861      0.00000
     57      11.2247      0.00000
     58      12.2212      0.00000
     59      12.3957      0.00000
     60      13.1670      0.00000
     61      13.9026      0.00000
     62      14.6884      0.00000
     63      16.8427      0.00000
     64      17.2308      0.00000

[...]

 spin component 2

[...]

 k-point    72 :      -0.4545    0.4545    0.5000
  band No.  band energies     occupation
      1     -39.2548      1.00000
      2     -39.2548      1.00000
      3     -13.9487      1.00000
      4     -13.9444      1.00000
      5     -13.6590      1.00000
      6     -13.6496      1.00000
      7     -13.6081      1.00000
      8     -13.5839      1.00000
      9     -13.4368      1.00000
     10     -13.3134      1.00000
     11      -2.8084      1.00000
     12      -2.7947      1.00000
     13      -2.5545      1.00000
     14      -2.4328      1.00000
     15      -1.7421      1.00000
     16      -1.4747      1.00000
     17      -1.0637      1.00000
     18      -0.7309      1.00000
     19      -0.7234      1.00000
     20      -0.6981      1.00000
     21      -0.6244      1.00000
     22      -0.2040      1.00000
     23      -0.1141      1.00000
     24       0.0960      1.00000
     25       0.2624      1.00000
     26       0.5303      1.00000
     27       0.9171      1.00000
     28       0.9503      1.00000
     29       1.1503      1.00000
     30       1.2279      1.00000
     31       1.2698      1.00000
     32       1.3598      1.00000
     33       1.4206      1.00000
     34       2.2647      1.00000
     35       2.4681      1.00000
     36       2.5776      1.00000
     37       2.5778      1.00000
     38       2.5819      1.00000
     39       2.6276      1.00000
     40       2.6809      1.00000
     41       2.8275      1.00000
     42       3.0767      1.00000
     43       3.1022      1.00000
     44       3.1657      1.00000
     45       3.4015      1.00000
     46       3.7327      1.00000
     47       5.2510      0.00000
     48       5.3168      0.00000
     49       5.6238      0.00000
     50       5.7585      0.00000
     51       5.7853      0.00000
     52       5.8900      0.00000
     53       6.0188      0.00000
     54       6.2411      0.00000
     55      12.2085      0.00000
     56      13.2470      0.00000
     57      15.2692      0.00000
     58      15.4660      0.00000
     59      15.7601      0.00000
     60      15.9472      0.00000
     61      16.1805      0.00000
     62      16.4918      0.00000
     63      16.7350      0.00000
     64      16.7550      0.00000

 soft charge-density along one line, spin component           1
         0         1         2         3         4         5         6         7         8         9
 total charge-density along one line

 soft charge-density along one line, spin component           2
         0         1         2         3         4         5         6         7         8         9
 total charge-density along one line

------------------------ aborting loop because EDIFF is reached ----------------------------------------

  FORCE on cell =-STRESS in cart. coord.  units (eV):
  Direction    XX          YY          ZZ          XY          YZ          ZX
  Alpha Z   297.24529   297.24529   297.24529
  Ewald    -784.25214  -784.25218 -3979.83438    -0.00001    -0.00002     0.00001
  Hartree  1709.46071  1709.46071  -683.47794     0.00001     0.00000    -0.00001
  E(xc)    -477.53011  -477.53012  -478.00095    -0.00001    -0.00000     0.00000
  Local   -2713.59376 -2713.59385  2823.96082    -0.00009    -0.00002     0.00006
  n-local  -228.83763  -232.49974  -238.74182     1.05893    -4.93645    -2.86830
  augment   782.60619   782.60611   797.90316    -0.00007     0.00001    -0.00001
  Kinetic  1419.76170  1413.80536  1460.95091     1.71970     8.41216     4.85869
  Fock        0.00000     0.00000     0.00000     0.00000     0.00000     0.00000
  Total        0.0509173      0.0509173      0.0050901      0.0000000      0.0000000      0.0000000
  in kB        0.6375568      0.6375568      0.0637348      0.0000000      0.0000000      0.0000000

 VOLUME and BASIS-vectors are now :
  energy-cutoff  :      500.00
  volume of cell :      127.95
      direct lattice vectors                 reciprocal lattice vectors
     2.824184320  0.000000000  0.000000000     0.354084538  0.204430802 -0.017994455
    -1.412092160  2.445815380  0.000000000     0.000000000  0.408861604  0.017994453
     1.412092160 -0.815271710 18.524225640     0.000000000  0.000000000  0.053983363

  length of vectors
     2.824184320  2.824184332 18.595849209     0.409257392  0.409257391  0.053983363

 FORCES acting on ions
    electron-ion (+dipol)            ewald-force                    non-local-force                 convergence-correction
   -.643E-05 0.362E-05 0.548E+02   -.909E-07 0.976E-07 -.544E+02   0.000E+00 -.169E-08 -.375E+00   0.245E-07 -.141E-07 -.167E-02
   0.423E-05 -.235E-05 -.548E+02   0.909E-07 -.976E-07 0.544E+02   0.000E+00 0.169E-08 0.375E+00   -.245E-07 0.141E-07 0.167E-02
   -.103E-05 0.336E-06 -.351E+03   -.462E-05 0.307E-05 0.353E+03   0.191E-16 -.103E-07 -.228E+01   0.243E-07 -.140E-07 0.489E-01
   -.185E-05 0.107E-05 0.278E-05   -.119E-13 0.241E-13 0.000E+00   -.827E-24 -.414E-24 -.794E-22   0.127E-10 -.729E-11 0.187E-10
   -.176E-05 0.127E-05 0.351E+03   0.462E-05 -.307E-05 -.353E+03   -.694E-17 0.103E-07 0.228E+01   -.243E-07 0.141E-07 -.489E-01
   -.935E-06 0.540E-06 0.171E-05   -.171E-13 0.252E-13 -.227E-12   0.000E+00 -.496E-23 0.132E-22   0.147E-11 -.884E-12 -.552E-11
   -.334E-04 0.177E-04 0.318E+03   -.298E-05 0.405E-05 -.344E+03   0.278E-16 0.119E-06 0.265E+02   0.179E-07 -.104E-07 0.342E-01
   -.374E-04 0.201E-04 0.513E+03   -.261E-05 0.386E-05 -.539E+03   0.555E-16 0.117E-06 0.260E+02   0.117E-07 -.672E-08 -.481E-01
   -.275E-04 0.149E-04 0.298E+03   -.216E-05 0.277E-05 -.309E+03   -.833E-16 0.497E-07 0.110E+02   -.113E-07 0.652E-08 -.233E-02
   -.609E-05 0.256E-05 0.107E+03   0.200E-05 0.436E-06 -.120E+03   0.416E-16 0.584E-07 0.130E+02   -.429E-07 0.248E-07 0.842E-02
   0.249E-04 -.134E-04 -.298E+03   0.216E-05 -.277E-05 0.309E+03   0.971E-16 -.497E-07 -.110E+02   0.113E-07 -.651E-08 0.233E-02
   0.345E-04 -.184E-04 -.513E+03   0.261E-05 -.386E-05 0.539E+03   -.278E-16 -.117E-06 -.260E+02   -.117E-07 0.672E-08 0.481E-01
   0.316E-04 -.167E-04 -.318E+03   0.298E-05 -.405E-05 0.344E+03   0.000E+00 -.119E-06 -.265E+02   -.179E-07 0.104E-07 -.342E-01
   0.450E-05 -.165E-05 -.107E+03   -.200E-05 -.436E-06 0.120E+03   -.694E-16 -.584E-07 -.130E+02   0.429E-07 -.248E-07 -.842E-02
   -.167E-04 0.965E-05 -.518E-04   -.824E-13 0.961E-13 -.327E-12   0.538E-16 0.226E-16 -.178E-14   -.462E-10 0.267E-10 -.104E-09

 POSITION                                       TOTAL-FORCE (eV/Angst)
      0.00000      1.63054     18.52259         0.000000     -0.000000     -0.004014
     -0.00000      1.63054      4.63270        -0.000000      0.000000      0.004014
      2.82418      0.00000      7.00702        -0.000000      0.000000      0.000105
      0.00000      1.63054     11.57764        -0.000000     -0.000000     -0.000000
      1.41209      0.81527     16.14826        -0.000000     -0.000000     -0.000105
      1.41209      0.81527      2.31553        -0.000000     -0.000000     -0.000000
      2.82418      0.00000     10.65912         0.000000     -0.000000     -0.002061
      0.00000      1.63054     15.23817         0.000000     -0.000000     -0.004151
      0.00000      1.63054      1.26047        -0.000000     -0.000000     -0.001167
      1.41209      0.81527      5.96234         0.000000      0.000000      0.011199
      2.82418      0.00000      3.37059         0.000000      0.000000      0.001167
     -0.00000      1.63054      7.91711        -0.000000      0.000000      0.004151
      1.41209      0.81527     12.49616        -0.000000      0.000000      0.002061
      2.82418      0.00000     17.19294        -0.000000     -0.000000     -0.011199
    total drift:                               -0.000017      0.000010     -0.000052

  FREE ENERGIE OF THE ION-ELECTRON SYSTEM (eV)
  free  energy   TOTEN  =       -84.8530911969 eV

  energy  without entropy=      -84.8453748724  energy(sigma->0) =      -84.84923303

volume of typ            1:    12.2 %

[...]

volume of typ            3:    10.2 %

total charge

# of ion       s       p       d       tot
    1        2.090   0.285   0.111   2.485
    2        2.090   0.285   0.111   2.485
    3        0.283   0.374   7.836   8.493
    4        0.300   0.411   7.810   8.520
    5        0.283   0.374   7.836   8.493
    6        0.258   0.332   7.865   8.456
    7        1.284   2.721   0.008   4.013
    8        1.286   2.717   0.008   4.011
    9        1.256   2.801   0.005   4.063
   10        1.259   2.795   0.005   4.059
   11        1.256   2.801   0.005   4.063
   12        1.286   2.717   0.008   4.011
   13        1.284   2.721   0.008   4.013
   14        1.259   2.795   0.005   4.059
tot          15.47   24.13   31.62   71.23

magnetization (x)

# of ion       s       p       d       tot
    1        0.006   0.012   0.000   0.019
    2        0.006   0.012   0.000   0.019
    3       -0.000   0.000   0.315   0.315
    4       -0.000   0.000   0.012   0.013
    5       -0.000   0.000   0.315   0.315
    6       -0.000  -0.000   0.793   0.792
    7        0.000   0.001   0.000   0.002
    8        0.006   0.062   0.000   0.068
    9        0.013   0.078   0.000   0.091
   10        0.006   0.029   0.000   0.035
   11        0.013   0.078   0.000   0.091
   12        0.006   0.062   0.000   0.068
   13        0.000   0.001   0.000   0.002
   14        0.006   0.029   0.000   0.035
tot           0.06    0.36    1.44    1.86