 vasp.5.4.4.18Apr17-6-g9f103f2a35 (build May 12 2020 04:58:55) complex

 MD_VERSION_INFO: Compiled 2020-05-12T11:58:55-UTC in devlin.sd.materialsdesign.
 com:/home/medea2/data/build/wwolf/vasp-gpu5.4.4/13047/x86_64/src/src/build/std
 from svn 13047

 executed on                        Lin64 date 2023.03.16  11:46:53

 INCAR:
 POTCAR:    PAW_PBE Li_sv 10Sep2004
 POTCAR:    PAW_PBE Ni 02Aug2007
 POTCAR:    PAW_PBE O 08Apr2002

 POTCAR:    PAW_PBE Li_sv 10Sep2004

 POTCAR:    PAW_PBE Ni 02Aug2007

 POTCAR:    PAW_PBE O 08Apr2002

 Optimization of the real space projectors (new method)

 maximal supplied QI-value         = 22.11
 optimisation between [QCUT,QGAM] = [ 11.28, 22.77] = [ 35.61,145.23] Ry
 Optimized for a Real-space Cutoff    1.10 Angstroem

   l    n(q)    QCUT    max X(q) W(low)/X(q) W(high)/X(q)  e(spline)
   0      7    11.276    10.506    0.54E-04    0.58E-04    0.16E-07
   0      7    11.276     8.367    0.11E-03    0.14E-03    0.35E-07
   1      7    11.276     8.983    0.23E-03    0.43E-03    0.86E-07
 Optimization of the real space projectors (new method)

[...]

   l    n(q)    QCUT    max X(q) W(low)/X(q) W(high)/X(q)  e(spline)
   2      9    11.376    60.317    0.17E-03    0.16E-04    0.16E-06
   2      9    11.376    55.921    0.17E-03    0.16E-04    0.17E-06
   0     10    11.376    51.690    0.45E-04    0.60E-04    0.21E-06
   0     10    11.376    30.015    0.37E-04    0.55E-04    0.19E-06
   1     10    11.376    18.849    0.83E-04    0.11E-03    0.92E-07
   1     10    11.376    14.624    0.69E-04    0.92E-04    0.82E-07
 Optimization of the real space projectors (new method)

 maximal supplied QI-value         = 24.76
 optimisation between [QCUT,QGAM] = [ 11.39, 22.77] = [ 36.31,145.25] Ry
 Optimized for a Real-space Cutoff    1.10 Angstroem

   l    n(q)    QCUT    max X(q) W(low)/X(q) W(high)/X(q)  e(spline)
   0      7    11.387    20.381    0.22E-03    0.48E-03    0.18E-06
   0      7    11.387    15.268    0.22E-03    0.52E-03    0.19E-06
   1      7    11.387     5.964    0.22E-03    0.73E-03    0.24E-06
   1      7    11.387     5.382    0.19E-03    0.60E-03    0.21E-06

  PAW_PBE Li_sv 10Sep2004               :
  PAW_PBE Ni 02Aug2007                  :
  PAW_PBE O 08Apr2002                   :

 POSCAR: ce12
  positions in direct lattice
 exchange correlation table for  LEXCH =       14
   RHO(1)=    0.500       N(1)  =     2000
   RHO(2)=  100.500       N(2)  =     4000

 ion  position               nearest neighbor table
   1  0.000  0.000  0.000-   5 2.09   8 2.09   6 2.15  10 2.15   9 2.15   7 2.15
   2  0.500  0.000  0.500-   7 1.86   9 1.86   6 1.86  10 1.86   5 2.04   8 2.04   4 2.76   3 2.76
                             4 2.83   3 2.83   4 2.83   3 2.83
   3  0.832  0.335  0.500-   5 1.85   8 1.85   6 1.87   9 1.87   7 1.89  10 1.89   2 2.76   4 2.79
                             4 2.81   4 2.81   2 2.83   2 2.83
   4  0.168  0.665  0.500-   8 1.85   5 1.85  10 1.87   7 1.87   9 1.89   6 1.89   2 2.76   3 2.79
                             3 2.81   3 2.81   2 2.83   2 2.83
   5  0.788  0.000  0.292-   3 1.85   4 1.85   2 2.04   1 2.09
   6  0.097  0.327  0.305-   2 1.86   3 1.87   4 1.89   1 2.15
   7  0.425  0.673  0.305-   2 1.86   4 1.87   3 1.89   1 2.15
   8  0.212  0.000  0.708-   4 1.85   3 1.85   2 2.04   1 2.09
   9  0.575  0.327  0.695-   2 1.86   3 1.87   4 1.89   1 2.15
  10  0.903  0.673  0.695-   2 1.86   4 1.87   3 1.89   1 2.15

  LATTYP: Found a base centered monoclinic cell.
 ALAT       =     4.9148837900
 B/A-ratio  =     1.6920785303
 C/A-ratio  =     1.9250087585
 COS(beta)  =    -0.4370546383

  Lattice vectors:

 A1 = (   2.4574418700,   4.1581846700,   0.0000000000)
 A2 = (   2.4574419200,  -4.1581846700,   0.0000000000)
 A3 = (  -8.1273945300,  -0.0000000100,  -4.8435169600)

Analysis of symmetry for initial positions (statically):
 Subroutine PRICEL returns:
 Original cell was already a primitive cell.

 Routine SETGRP: Setting up the symmetry group for a
 base centered monoclinic supercell.

 Subroutine GETGRP returns: Found  4 space group operations
 (whereof  4 operations were pure point group operations)
 out of a pool of  4 trial point group operations.

The static configuration has the point symmetry C_2h.

Analysis of symmetry for dynamics (positions and initial velocities):
 Subroutine PRICEL returns:
 Original cell was already a primitive cell.

[...]

The dynamic configuration has the point symmetry C_2h.

Analysis of structural, dynamic, and magnetic symmetry:
 Subroutine PRICEL returns:
 Original cell was already a primitive cell.

 Routine SETGRP: Setting up the symmetry group for a
 base centered monoclinic supercell.

 Subroutine GETGRP returns: Found  4 space group operations
 (whereof  4 operations were pure point group operations)
 out of a pool of  4 trial point group operations.

The magnetic configuration has the point symmetry C_2h.

 Subroutine INISYM returns: Found  4 space group operations
 (whereof  4 operations are pure point group operations),
 and found     1 'primitive' translations

 KPOINTS: Automatic mesh

Automatic generation of k-mesh.
Space group operators:
 irot       det(A)        alpha          n_x          n_y          n_z        tau_x        tau_y        tau_z
    1     1.000000     0.000001     1.000000     0.000000     0.000000     0.000000     0.000000     0.000000
    2    -1.000000     0.000001     1.000000     0.000000     0.000000     0.000000     0.000000     0.000000
    3     1.000000   180.000000     0.000000     1.000000    -0.000000     0.000000     0.000000     0.000000
    4    -1.000000   180.000000     0.000000     1.000000    -0.000000     0.000000     0.000000     0.000000

 Subroutine IBZKPT returns following result:

 Found     88 irreducible k-points:

 Following reciprocal coordinates:
            Coordinates               Weight
  0.000000  0.000000  0.000000      1.000000
  0.142857  0.000000 -0.000000      4.000000
  0.285714  0.000000 -0.000000      4.000000
  0.428571  0.000000  0.000000      4.000000
  0.000000  0.142857 -0.000000      2.000000
  0.285714  0.142857  0.000000      2.000000
  0.428571  0.142857 -0.000000      4.000000
 -0.428571  0.142857  0.000000      4.000000
 -0.285714  0.142857  0.000000      4.000000
 -0.142857  0.142857 -0.000000      4.000000
  0.000000  0.285714 -0.000000      2.000000
 -0.428571  0.285714  0.000000      2.000000
 -0.285714  0.285714  0.000000      4.000000
 -0.142857  0.285714  0.000000      4.000000
  0.000000  0.428571 -0.000000      2.000000
 -0.142857  0.428571  0.000000      2.000000
  0.000000  0.000000  0.166667      2.000000
  0.142857  0.000000  0.166667      4.000000
  0.285714  0.000000  0.166667      4.000000
  0.428571  0.000000  0.166667      4.000000
 -0.428571 -0.000000  0.166667      4.000000
 -0.285714 -0.000000  0.166667      4.000000
 -0.142857 -0.000000  0.166667      4.000000
  0.000000  0.142857  0.166667      4.000000
  0.285714  0.142857  0.166667      2.000000
  0.428571  0.142857  0.166667      4.000000
 -0.428571  0.142857  0.166667      4.000000
 -0.285714  0.142857  0.166667      4.000000
 -0.142857  0.142857  0.166667      4.000000
  0.000000  0.285714  0.166667      4.000000
  0.142857  0.285714  0.166667      4.000000
 -0.428571  0.285714  0.166667      2.000000
 -0.285714  0.285714  0.166667      4.000000
 -0.142857  0.285714  0.166667      4.000000
  0.000000  0.428571  0.166667      4.000000
  0.142857  0.428571  0.166667      4.000000
  0.285714  0.428571  0.166667      4.000000
 -0.142857  0.428571  0.166667      2.000000
  0.142857 -0.428571  0.166667      2.000000
  0.285714 -0.428571  0.166667      4.000000
  0.428571 -0.428571  0.166667      4.000000
  0.428571 -0.285714  0.166667      2.000000
 -0.428571 -0.285714  0.166667      4.000000
 -0.285714 -0.142857  0.166667      2.000000
  0.000000  0.000000  0.333333      2.000000
  0.142857  0.000000  0.333333      4.000000
  0.285714  0.000000  0.333333      4.000000
  0.428571  0.000000  0.333333      4.000000
 -0.428571 -0.000000  0.333333      4.000000
 -0.285714 -0.000000  0.333333      4.000000
 -0.142857 -0.000000  0.333333      4.000000
  0.000000  0.142857  0.333333      4.000000
  0.285714  0.142857  0.333333      2.000000
  0.428571  0.142857  0.333333      4.000000
 -0.428571  0.142857  0.333333      4.000000
 -0.285714  0.142857  0.333333      4.000000
 -0.142857  0.142857  0.333333      4.000000
  0.000000  0.285714  0.333333      4.000000
  0.142857  0.285714  0.333333      4.000000
 -0.428571  0.285714  0.333333      2.000000
[...]
  0.142857  0.000000  0.500000      4.000000
  0.285714  0.000000  0.500000      4.000000
  0.428571  0.000000  0.500000      4.000000
  0.000000  0.142857  0.500000      2.000000
  0.285714  0.142857  0.500000      2.000000
  0.428571  0.142857  0.500000      4.000000
 -0.428571  0.142857  0.500000      4.000000
 -0.285714  0.142857  0.500000      4.000000
 -0.142857  0.142857  0.500000      4.000000
  0.000000  0.285714  0.500000      2.000000
 -0.428571  0.285714  0.500000      2.000000
 -0.285714  0.285714  0.500000      4.000000
 -0.142857  0.285714  0.500000      4.000000
  0.000000  0.428571  0.500000      2.000000
 -0.142857  0.428571  0.500000      2.000000

 Following cartesian coordinates:
            Coordinates               Weight
  0.000000  0.000000  0.000000      1.000000
  0.029066 -0.017178  0.010216      4.000000
  0.058132 -0.034356  0.020432      4.000000
  0.087199 -0.051533  0.030648      4.000000
  0.000000  0.034356 -0.000000      2.000000
  0.058132  0.000000  0.020432      2.000000
  0.087199 -0.017178  0.030648      4.000000
 -0.087199  0.085889 -0.030648      4.000000
 -0.058132  0.068711 -0.020432      4.000000
 -0.029066  0.051533 -0.010216      4.000000
  0.000000  0.068711 -0.000000      2.000000
 -0.087199  0.120245 -0.030648      2.000000
 -0.058132  0.103067 -0.020432      4.000000
 -0.029066  0.085889 -0.010216      4.000000
  0.000000  0.103067 -0.000000      2.000000
 -0.029066  0.120245 -0.010216      2.000000
  0.000000  0.000000  0.034410      2.000000
  0.029066 -0.017178  0.044626      4.000000
  0.058132 -0.034356  0.054842      4.000000
  0.087199 -0.051533  0.065058      4.000000
 -0.087199  0.051533  0.003762      4.000000
 -0.058132  0.034356  0.013978      4.000000
 -0.029066  0.017178  0.024194      4.000000
  0.000000  0.034356  0.034410      4.000000
  0.058132  0.000000  0.054842      2.000000
  0.087199 -0.017178  0.065058      4.000000
 -0.087199  0.085889  0.003762      4.000000
 -0.058132  0.068711  0.013978      4.000000
 -0.029066  0.051533  0.024194      4.000000
  0.000000  0.068711  0.034410      4.000000
  0.029066  0.051533  0.044626      4.000000
 -0.087199  0.120245  0.003762      2.000000
 -0.058132  0.103067  0.013978      4.000000
 -0.029066  0.085889  0.024194      4.000000
  0.000000  0.103067  0.034410      4.000000
  0.029066  0.085889  0.044626      4.000000
  0.058132  0.068711  0.054842      4.000000
 -0.029066  0.120245  0.024194      2.000000
  0.029066 -0.120245  0.044626      2.000000
  0.058132 -0.137423  0.054842      4.000000
  0.087199 -0.154600  0.065058      4.000000
[...]
 k-point 35 :   0.0000 0.4286 0.1667  plane waves:    2506
 k-point 36 :   0.1429 0.4286 0.1667  plane waves:    2518
 k-point 37 :   0.2857 0.4286 0.1667  plane waves:    2517
 k-point 38 :  -0.1429 0.4286 0.1667  plane waves:    2504
 k-point 39 :   0.1429-0.4286 0.1667  plane waves:    2524
 k-point 40 :   0.2857-0.4286 0.1667  plane waves:    2513
 k-point 41 :   0.4286-0.4286 0.1667  plane waves:    2522
 k-point 42 :   0.4286-0.2857 0.1667  plane waves:    2509
 k-point 43 :  -0.4286-0.2857 0.1667  plane waves:    2516
 k-point 44 :  -0.2857-0.1429 0.1667  plane waves:    2521
 k-point 45 :   0.0000 0.0000 0.3333  plane waves:    2505
 k-point 46 :   0.1429 0.0000 0.3333  plane waves:    2493
 k-point 47 :   0.2857 0.0000 0.3333  plane waves:    2508
 k-point 48 :   0.4286 0.0000 0.3333  plane waves:    2516
 k-point 49 :  -0.4286-0.0000 0.3333  plane waves:    2514
 k-point 50 :  -0.2857-0.0000 0.3333  plane waves:    2515
 k-point 51 :  -0.1429-0.0000 0.3333  plane waves:    2515
 k-point 52 :   0.0000 0.1429 0.3333  plane waves:    2505
 k-point 53 :   0.2857 0.1429 0.3333  plane waves:    2505
 k-point 54 :   0.4286 0.1429 0.3333  plane waves:    2513
 k-point 55 :  -0.4286 0.1429 0.3333  plane waves:    2515
 k-point 56 :  -0.2857 0.1429 0.3333  plane waves:    2522
 k-point 57 :  -0.1429 0.1429 0.3333  plane waves:    2514
 k-point 58 :   0.0000 0.2857 0.3333  plane waves:    2500
 k-point 59 :   0.1429 0.2857 0.3333  plane waves:    2506
 k-point 60 :  -0.4286 0.2857 0.3333  plane waves:    2521
[...]
 k-point 74 :   0.1429 0.0000 0.5000  plane waves:    2507
 k-point 75 :   0.2857 0.0000 0.5000  plane waves:    2510
 k-point 76 :   0.4286 0.0000 0.5000  plane waves:    2517
 k-point 77 :   0.0000 0.1429 0.5000  plane waves:    2514
 k-point 78 :   0.2857 0.1429 0.5000  plane waves:    2508
 k-point 79 :   0.4286 0.1429 0.5000  plane waves:    2514
 k-point 80 :  -0.4286 0.1429 0.5000  plane waves:    2520
 k-point 81 :  -0.2857 0.1429 0.5000  plane waves:    2513
 k-point 82 :  -0.1429 0.1429 0.5000  plane waves:    2510
 k-point 83 :   0.0000 0.2857 0.5000  plane waves:    2504
 k-point 84 :  -0.4286 0.2857 0.5000  plane waves:    2523
 k-point 85 :  -0.2857 0.2857 0.5000  plane waves:    2516
 k-point 86 :  -0.1429 0.2857 0.5000  plane waves:    2503
 k-point 87 :   0.0000 0.4286 0.5000  plane waves:    2500
 k-point 88 :  -0.1429 0.4286 0.5000  plane waves:    2513

 maximum and minimum number of plane-waves per node :      2531     2493

 maximum number of plane-waves:      2531
 maximum index in each direction:
   IXMAX=    9   IYMAX=    9   IZMAX=    9
   IXMIN=   -9   IYMIN=   -9   IZMIN=   -9

 The following grids will avoid any aliasing or wrap around errors in the Hartre
 e energy
  - symmetry arguments have not been applied
  - exchange correlation energies might require even more grid points
  - we recommend to set PREC=Normal or Accurate and rely on VASP defaults
 WARNING: aliasing errors must be expected set NGX to    40 to avoid them
 WARNING: aliasing errors must be expected set NGY to    40 to avoid them
 NGZ is ok and might be reduce to    40

 serial   3D FFT for wavefunctions
 parallel 3D FFT for charge:
    minimum data exchange during FFTs selected (reduces bandwidth)

 Broyden mixing: mesh for mixing (old mesh)
   NGX = 17   NGY = 17   NGZ = 19
  (NGX  = 72   NGY  = 72   NGZ  = 80)
  gives a total of   5491 points

 initial charge density was supplied:
 charge density of overlapping atoms calculated
 number of electron      69.0000000 magnetization       7.5000000
 keeping initial charge density in first step

 Maximum index for non-local projection operator         6791
 Maximum index for augmentation-charges         1416 (set IRDMAX)

 First call to EWALD:  gamma=   0.383
 Maximum number of real-space cells 3x 3x 3
 Maximum number of reciprocal cells 3x 3x 3

--------------------------------------- Iteration      1(   1)  ---------------------------------------

 eigenvalue-minimisations  : 16896
 total energy-change (2. order) : 0.5968127E+03  (-0.3309316E+04)
 number of electron      69.0000000 magnetization       7.5000000
 augmentation part       69.0000000 magnetization       7.5000000

 Free energy of the ion-electron system (eV)
  alpha Z        PSCENC =       208.85778299
  Ewald energy   TEWEN  =     -3866.30459980
  -Hartree energ DENC   =     -2274.20532116
  -exchange      EXHF   =         0.00000000
  -V(xc)+E(xc)   XCENC  =       279.94120531
  PAW double counting   =      5041.72537405    -5266.13972621
  entropy T*S    EENTRO =        -0.00259094
  eigenvalues    EBANDS =       456.85964289
  atomic energy  EATOM  =      6016.08090688
  Solvation  Ediel_sol  =         0.00000000
  free energy    TOTEN  =       596.81267400 eV

  energy without entropy =      596.81526494  energy(sigma->0) =      596.81396947

[...]

 eigenvalue-minimisations  : 18528
 total energy-change (2. order) :-0.6177434E+03  (-0.5680747E+03)
 number of electron      69.0000000 magnetization       7.5000000
 augmentation part       69.0000000 magnetization       7.5000000

[...]

 Broyden mixing:
  rms(total) = 0.51992E+01    rms(broyden)= 0.51985E+01
  rms(prec ) = 0.87084E+01
  weight for this iteration     100.00

[...]

 eigenvalues of (default mixing * dielectric matrix)
  average eigenvalue GAMMA=   0.2430
  0.2430

[...]

 eigenvalue-minimisations  : 27504
 total energy-change (2. order) : 0.3683807E-03  (-0.3981637E-03)
 number of electron      69.0000031 magnetization       1.0220146
 augmentation part       22.7702026 magnetization       0.6964344

[...]

 Broyden mixing:
  rms(total) = 0.23612E-02    rms(broyden)= 0.23606E-02
  rms(prec ) = 0.33591E-02
  weight for this iteration     100.00

 eigenvalues of (default mixing * dielectric matrix)
  average eigenvalue GAMMA=   1.0479
  2.5803  2.5803  1.4626  1.1334  0.1269  0.8425  0.8425  0.4828  0.4828  0.7182
  0.7182  0.6046

[...]

--------------------------------------- Iteration      1(  18)  ---------------------------------------

 eigenvalue-minimisations  : 16544
 total energy-change (2. order) :-0.1547753E-05  (-0.4627041E-06)
 number of electron      69.0000031 magnetization       0.9981047
 augmentation part       22.7676745 magnetization       0.6723929

 Free energy of the ion-electron system (eV)
  alpha Z        PSCENC =       208.85778299
  Ewald energy   TEWEN  =     -3866.30459980
  -Hartree energ DENC   =     -2216.81283440
  -exchange      EXHF   =         0.00000000
  -V(xc)+E(xc)   XCENC  =       277.58528731
  PAW double counting   =      6689.54476042    -6925.03663474
  entropy T*S    EENTRO =        -0.00134919
  eigenvalues    EBANDS =      -245.50845694
  atomic energy  EATOM  =      6016.08090688
  Solvation  Ediel_sol  =         0.00000000
  free energy    TOTEN  =       -61.59513748 eV

  energy without entropy =      -61.59378828  energy(sigma->0) =      -61.59446288

 average (electrostatic) potential at core
  the test charge radii are     0.7079  0.9791  0.7215
  (the norm of the test charge is              1.0000)
       1 -58.8784       2 -88.1376       3 -88.7980       4 -88.7980       5 -71.6462
       6 -71.8074       7 -71.8074       8 -71.6462       9 -71.8074      10 -71.8074

 E-fermi :   4.0812     XC(G=0): -11.0479     alpha+bet :-11.4786

 spin component 1

 k-point     1 :       0.0000    0.0000    0.0000
  band No.  band energies     occupation
      1     -39.5576      1.00000
      2     -16.3662      1.00000
      3     -14.4081      1.00000
      4     -14.3506      1.00000
      5     -14.3254      1.00000
      6     -14.2772      1.00000
      7     -14.1379      1.00000
      8      -2.9373      1.00000
      9      -2.7566      1.00000
     10      -2.5555      1.00000
     11      -2.4259      1.00000
     12      -2.3481      1.00000
     13      -2.3470      1.00000
     14      -2.1747      1.00000
     15      -2.1536      1.00000
     16      -1.6316      1.00000
     17      -0.7464      1.00000
     18      -0.4837      1.00000
     19      -0.4700      1.00000
     20      -0.2489      1.00000
     21      -0.1895      1.00000
     22       0.3790      1.00000
     23       1.1465      1.00000
     24       1.2711      1.00000
     25       1.3211      1.00000
     26       1.6014      1.00000
     27       1.8354      1.00000
     28       1.9956      1.00000
     29       2.0549      1.00000
     30       2.3077      1.00000
     31       2.3602      1.00000
     32       2.4334      1.00000
     33       2.5696      1.00000
     34       2.6795      1.00000
     35       3.9871      0.99610
     36       4.3729      0.00000
     37       4.4547      0.00000
     38       4.7219      0.00000
     39       5.1670      0.00000
     40       5.3007      0.00000
     41      10.0158      0.00000
     42      13.2726      0.00000
     43      15.1491      0.00000
     44      15.1545      0.00000
     45      16.3897      0.00000
     46      16.5841      0.00000
     47      16.8165      0.00000
     48      16.8200      0.00000

[...]

 spin component 2

[...]

 k-point    88 :      -0.1429    0.4286    0.5000
  band No.  band energies     occupation
      1     -39.5482      1.00000
      2     -15.2896      1.00000
      3     -15.1971      1.00000
      4     -14.7036      1.00000
      5     -14.2747      1.00000
      6     -14.2012      1.00000
      7     -13.9460      1.00000
      8      -3.2820      1.00000
      9      -2.8760      1.00000
     10      -2.4598      1.00000
     11      -2.0365      1.00000
     12      -1.9639      1.00000
     13      -1.7875      1.00000
     14      -1.7191      1.00000
     15      -1.5619      1.00000
     16      -1.1457      1.00000
     17      -0.9128      1.00000
     18      -0.7951      1.00000
     19      -0.4262      1.00000
     20      -0.1316      1.00000
     21      -0.0738      1.00000
     22       0.5310      1.00000
     23       1.0628      1.00000
     24       1.4625      1.00000
     25       1.7076      1.00000
     26       1.7176      1.00000
     27       1.8497      1.00000
     28       1.8904      1.00000
     29       2.1350      1.00000
     30       2.4916      1.00000
     31       2.5030      1.00000
     32       2.6876      1.00000
     33       2.8747      1.00000
     34       2.9389      1.00000
     35       4.2845      0.00000
     36       4.4276      0.00000
     37       4.5685      0.00000
     38       5.0208      0.00000
     39       5.0427      0.00000
     40       5.4155      0.00000
     41      12.9290      0.00000
     42      13.4278      0.00000
     43      14.3675      0.00000
     44      15.0305      0.00000
     45      15.0670      0.00000
     46      15.6832      0.00000
     47      16.4484      0.00000
     48      16.8584      0.00000

 soft charge-density along one line, spin component           1
         0         1         2         3         4         5         6         7         8         9
 total charge-density along one line

 soft charge-density along one line, spin component           2
         0         1         2         3         4         5         6         7         8         9
 total charge-density along one line

------------------------ aborting loop because EDIFF is reached ----------------------------------------

  FORCE on cell =-STRESS in cart. coord.  units (eV):
  Direction    XX          YY          ZZ          XY          YZ          ZX
  Alpha Z   208.85778   208.85778   208.85778
  Ewald    -409.71661  -306.90286 -3149.68820    -0.00000     0.00001    43.40617
  Hartree  1413.57591  1457.66870  -654.44279    -0.00000     0.00000    14.38270
  E(xc)    -351.10166  -351.15887  -351.54242     0.00002     0.00001    -0.01817
  Local   -2325.35909 -2460.07253  2452.55549     0.00020    -0.00001   -49.37265
  n-local  -161.68163  -159.58072  -166.51771     0.07920     0.29227     1.65060
  augment   580.52642   574.72072   588.92254    -0.00011     0.00001    -4.39060
  Kinetic  1044.85911  1036.43471  1071.98707     0.04442    -0.98563    -5.64226
  Fock        0.00000     0.00000     0.00000     0.00000     0.00000     0.00000
  Total       -0.0397603     -0.0330571      0.1317545      0.0000000      0.0000000      0.0157875
  in kB       -0.6435501     -0.5350537      2.1325451      0.0000000      0.0000000      0.2555324

 VOLUME and BASIS-vectors are now :
  energy-cutoff  :      500.00
  volume of cell :       98.99
      direct lattice vectors                 reciprocal lattice vectors
     4.914883790  0.000000000  0.000000000     0.203463610 -0.120244779  0.071512286
     2.457441870  4.158184670  0.000000000     0.000000000  0.240489560 -0.000000000
    -1.702373050  0.000000010  4.843516960     0.000000000  0.000000000  0.206461546

  length of vectors
     4.914883790  4.830064212  5.133978043     0.246921555  0.240489560  0.206461546

 FORCES acting on ions
    electron-ion (+dipol)            ewald-force                    non-local-force                 convergence-correction
   -.561E-14 0.201E-13 0.737E-14   0.000E+00 -.355E-14 -.711E-14   0.662E-23 -.105E-23 0.000E+00   0.142E-14 -.969E-14 0.348E-13
   -.584E-12 -.193E-13 0.953E-11   0.853E-13 0.568E-13 0.426E-13   -.199E-22 0.203E-22 0.000E+00   -.296E-13 0.229E-13 -.111E-12
   0.250E-05 -.452E+02 0.894E-06   -.112E-04 0.453E+02 0.107E-04   0.689E-09 -.115E+00 0.000E+00   0.511E-07 0.473E-02 0.576E-08
   -.250E-05 0.452E+02 -.894E-06   0.112E-04 -.453E+02 -.107E-04   -.689E-09 0.115E+00 0.000E+00   -.511E-07 -.473E-02 -.576E-08
   0.583E+02 0.123E-05 0.372E+03   -.652E+02 -.844E-06 -.393E+03   0.695E+01 0.429E-07 0.208E+02   -.275E-02 0.270E-07 0.279E-02
   -.167E+02 -.243E+02 0.359E+03   0.173E+02 0.262E+02 -.382E+03   -.567E+00 -.192E+01 0.226E+02   0.317E-02 -.511E-03 0.495E-02
   -.167E+02 0.243E+02 0.359E+03   0.173E+02 -.262E+02 -.382E+03   -.567E+00 0.192E+01 0.226E+02   0.317E-02 0.511E-03 0.495E-02
   -.583E+02 -.123E-05 -.372E+03   0.652E+02 0.844E-06 0.393E+03   -.695E+01 -.429E-07 -.208E+02   0.275E-02 -.270E-07 -.279E-02
   0.167E+02 -.243E+02 -.359E+03   -.173E+02 0.262E+02 0.382E+03   0.567E+00 -.192E+01 -.226E+02   -.317E-02 -.511E-03 -.495E-02
   0.167E+02 0.243E+02 -.359E+03   -.173E+02 -.262E+02 0.382E+03   0.567E+00 0.192E+01 -.226E+02   -.317E-02 0.511E-03 -.495E-02
   -.121E-11 0.206E-11 0.299E-10   0.533E-13 -.711E-14 -.568E-13   0.133E-14 0.444E-15 0.355E-14   -.846E-13 0.242E-13 -.412E-12

 POSITION                                       TOTAL-FORCE (eV/Angst)
      0.00000      0.00000      0.00000         0.000000      0.000000     -0.000000
      1.60626      0.00000      2.42176         0.000000      0.000000     -0.000000
      4.06370      1.39365      2.42176         0.000000     -0.003205     -0.000000
      1.60626      2.76454      2.42176        -0.000000      0.003205     -0.000000
      3.37567      0.00000      1.41475         0.000813      0.000000      0.016852
      0.76439      1.36174      1.47622         0.001258     -0.001121      0.012299
      3.22184      2.79645      1.47622         0.001258      0.001121      0.012299
     -0.16316      0.00000      3.42877        -0.000813     -0.000000     -0.016852
      2.44812      1.36174      3.36730        -0.001258     -0.001121     -0.012299
      4.90556      2.79645      3.36730        -0.001258      0.001121     -0.012299
    total drift:                               -0.000000      0.000000      0.000000

  FREE ENERGIE OF THE ION-ELECTRON SYSTEM (eV)
  free  energy   TOTEN  =       -61.5951374758 eV

  energy  without entropy=      -61.5937882842  energy(sigma->0) =      -61.59446288

volume of typ            1:     7.9 %

[...]

volume of typ            3:     9.9 %

total charge

# of ion       s       p       d       tot
    1        2.066   0.215   0.082   2.363
    2        0.281   0.368   7.847   8.496
    3        0.299   0.414   7.821   8.534
    4        0.299   0.414   7.821   8.534
    5        1.276   2.745   0.007   4.029
    6        1.271   2.761   0.007   4.039
    7        1.271   2.761   0.007   4.039
    8        1.276   2.745   0.007   4.029
    9        1.271   2.761   0.007   4.039
   10        1.271   2.761   0.007   4.039
tot          10.58   17.95   23.61   52.14

magnetization (x)

# of ion       s       p       d       tot
    1        0.004   0.007   0.001   0.012
    2        0.003  -0.000   0.613   0.616
    3       -0.001   0.000   0.029   0.029
    4       -0.001   0.000   0.029   0.029
    5        0.007   0.098   0.000   0.105
    6        0.002   0.005   0.000   0.007
    7        0.001   0.004   0.000   0.005
    8        0.007   0.098   0.000   0.105
    9        0.001   0.004   0.000   0.005
   10        0.002   0.005   0.000   0.007
tot           0.03    0.22    0.67    0.92