 vasp.5.4.4.18Apr17-6-g9f103f2a35 (build May 12 2020 04:58:55) complex

 MD_VERSION_INFO: Compiled 2020-05-12T11:58:55-UTC in devlin.sd.materialsdesign.
 com:/home/medea2/data/build/wwolf/vasp-gpu5.4.4/13047/x86_64/src/src/build/std
 from svn 13047

 executed on                        Lin64 date 2023.03.16  11:15:36

 INCAR:
 POTCAR:    PAW_PBE Li_sv 10Sep2004
 POTCAR:    PAW_PBE Ni 02Aug2007
 POTCAR:    PAW_PBE O 08Apr2002

 POTCAR:    PAW_PBE Li_sv 10Sep2004

 POTCAR:    PAW_PBE Ni 02Aug2007

 POTCAR:    PAW_PBE O 08Apr2002

 Optimization of the real space projectors (new method)

 maximal supplied QI-value         = 22.11
 optimisation between [QCUT,QGAM] = [ 11.28, 22.77] = [ 35.61,145.23] Ry
 Optimized for a Real-space Cutoff    1.10 Angstroem

   l    n(q)    QCUT    max X(q) W(low)/X(q) W(high)/X(q)  e(spline)
   0      7    11.276    10.506    0.54E-04    0.58E-04    0.16E-07
   0      7    11.276     8.367    0.11E-03    0.14E-03    0.35E-07
   1      7    11.276     8.983    0.23E-03    0.43E-03    0.86E-07
 Optimization of the real space projectors (new method)

[...]

   l    n(q)    QCUT    max X(q) W(low)/X(q) W(high)/X(q)  e(spline)
   2      9    11.376    60.317    0.17E-03    0.16E-04    0.16E-06
   2      9    11.376    55.921    0.17E-03    0.16E-04    0.17E-06
   0     10    11.376    51.690    0.45E-04    0.60E-04    0.21E-06
   0     10    11.376    30.015    0.37E-04    0.55E-04    0.19E-06
   1     10    11.376    18.849    0.83E-04    0.11E-03    0.92E-07
   1     10    11.376    14.624    0.69E-04    0.92E-04    0.82E-07
 Optimization of the real space projectors (new method)

 maximal supplied QI-value         = 24.76
 optimisation between [QCUT,QGAM] = [ 11.39, 22.77] = [ 36.31,145.25] Ry
 Optimized for a Real-space Cutoff    1.10 Angstroem

   l    n(q)    QCUT    max X(q) W(low)/X(q) W(high)/X(q)  e(spline)
   0      7    11.387    20.381    0.22E-03    0.48E-03    0.18E-06
   0      7    11.387    15.268    0.22E-03    0.52E-03    0.19E-06
   1      7    11.387     5.964    0.22E-03    0.73E-03    0.24E-06
   1      7    11.387     5.382    0.19E-03    0.60E-03    0.21E-06

  PAW_PBE Li_sv 10Sep2004               :
  PAW_PBE Ni 02Aug2007                  :
  PAW_PBE O 08Apr2002                   :

 POSCAR: ce14
  positions in direct lattice
 exchange correlation table for  LEXCH =       14
   RHO(1)=    0.500       N(1)  =     2000
   RHO(2)=  100.500       N(2)  =     4000

 ion  position               nearest neighbor table
   1  0.000  0.000  0.000-   6 2.11   9 2.11   8 2.11   7 2.11   7 2.11   8 2.11
   2  0.331  0.827  0.338-   7 1.87  10 1.87  10 1.87   6 1.88   6 1.88   9 1.88   3 2.80   3 2.80
                             4 2.80   4 2.80
   3  0.000  0.500  0.000-   5 1.86  10 1.86   8 1.93   7 1.93   7 1.93   8 1.93   2 2.80   4 2.80
                             2 2.80   4 2.80
   4  0.669  0.173  0.662-   8 1.87   5 1.87   5 1.87   9 1.88   9 1.88   6 1.88   3 2.80   3 2.80
                             2 2.80   2 2.80
   5  0.155  0.393  0.689-   3 1.86   4 1.87   4 1.87
   6  0.826  0.047  0.349-   2 1.88   2 1.88   4 1.88   1 2.11
   7  0.487  0.734  0.026-   2 1.87   3 1.93   3 1.93   1 2.11   1 2.11
   8  0.513  0.266  0.974-   4 1.87   3 1.93   3 1.93   1 2.11   1 2.11
   9  0.174  0.953  0.651-   4 1.88   4 1.88   2 1.88   1 2.11
  10  0.845  0.607  0.311-   3 1.86   2 1.87   2 1.87

  LATTYP: Found a base centered monoclinic cell.
 ALAT       =    12.4004083542
 B/A-ratio  =     0.2275936582
 C/A-ratio  =     0.9848429531
 COS(beta)  =    -0.8694308109

  Lattice vectors:

 A1 = (   1.4111271700,  -1.6346172300,   5.9808493000)
 A2 = (  -1.4111271300,  -1.6346172300,   5.9808493000)
 A3 = (  -0.0000000400,  -2.4620760400, -11.9616986000)

Analysis of symmetry for initial positions (statically):
 Subroutine PRICEL returns:
 Original cell was already a primitive cell.

 Routine SETGRP: Setting up the symmetry group for a
 base centered monoclinic supercell.

 Subroutine GETGRP returns: Found  4 space group operations
 (whereof  4 operations were pure point group operations)
 out of a pool of  4 trial point group operations.

The static configuration has the point symmetry C_2h.

Analysis of symmetry for dynamics (positions and initial velocities):
 Subroutine PRICEL returns:
 Original cell was already a primitive cell.

[...]

The dynamic configuration has the point symmetry C_2h.

Analysis of structural, dynamic, and magnetic symmetry:
 Subroutine PRICEL returns:
 Original cell was already a primitive cell.

 Routine SETGRP: Setting up the symmetry group for a
 base centered monoclinic supercell.

 Subroutine GETGRP returns: Found  4 space group operations
 (whereof  4 operations were pure point group operations)
 out of a pool of  4 trial point group operations.

The magnetic configuration has the point symmetry C_2h.

 Subroutine INISYM returns: Found  4 space group operations
 (whereof  4 operations are pure point group operations),
 and found     1 'primitive' translations

 KPOINTS: Automatic mesh

Automatic generation of k-mesh.
Space group operators:
 irot       det(A)        alpha          n_x          n_y          n_z        tau_x        tau_y        tau_z
    1     1.000000     0.000000     1.000000     0.000000     0.000000     0.000000     0.000000     0.000000
    2    -1.000000     0.000000     1.000000     0.000000     0.000000     0.000000     0.000000     0.000000
    3     1.000000   180.000000     1.000000     0.000000    -0.000000     0.000000     0.000000     0.000000
    4    -1.000000   180.000000     1.000000     0.000000    -0.000000     0.000000     0.000000     0.000000

 Subroutine IBZKPT returns following result:

 Found    102 irreducible k-points:

 Following reciprocal coordinates:
            Coordinates               Weight
  0.000000  0.000000  0.000000      1.000000
  0.100000  0.000000 -0.000000      2.000000
  0.200000  0.000000  0.000000      4.000000
  0.300000  0.000000  0.000000      2.000000
  0.400000  0.000000  0.000000      4.000000
  0.500000  0.000000  0.000000      1.000000
  0.000000  0.200000  0.000000      2.000000
  0.100000  0.200000 -0.000000      2.000000
  0.200000  0.200000  0.000000      4.000000
  0.300000  0.200000 -0.000000      2.000000
  0.400000  0.200000  0.000000      4.000000
  0.500000  0.200000 -0.000000      2.000000
 -0.400000  0.200000 -0.000000      4.000000
 -0.300000  0.200000  0.000000      2.000000
 -0.200000  0.200000 -0.000000      4.000000
 -0.100000  0.200000  0.000000      2.000000
  0.000000  0.400000  0.000000      2.000000
  0.100000  0.400000  0.000000      2.000000
  0.200000  0.400000  0.000000      4.000000
  0.300000  0.400000 -0.000000      2.000000
  0.400000  0.400000  0.000000      4.000000
  0.500000  0.400000  0.000000      2.000000
 -0.400000  0.400000 -0.000000      4.000000
 -0.300000  0.400000  0.000000      2.000000
 -0.200000  0.400000 -0.000000      4.000000
 -0.100000  0.400000  0.000000      2.000000
  0.000000  0.000000  0.200000      2.000000
  0.100000  0.000000  0.200000      2.000000
  0.300000  0.000000  0.200000      2.000000
  0.400000  0.000000  0.200000      2.000000
  0.500000  0.000000  0.200000      2.000000
 -0.400000  0.000000  0.200000      4.000000
 -0.300000  0.000000  0.200000      2.000000
 -0.200000  0.000000  0.200000      4.000000
 -0.100000  0.000000  0.200000      2.000000
  0.000000  0.200000  0.200000      2.000000
  0.100000  0.200000  0.200000      2.000000
  0.300000  0.200000  0.200000      2.000000
  0.400000  0.200000  0.200000      4.000000
  0.500000  0.200000  0.200000      2.000000
 -0.400000  0.200000  0.200000      4.000000
 -0.300000  0.200000  0.200000      2.000000
 -0.200000  0.200000  0.200000      4.000000
 -0.100000  0.200000  0.200000      2.000000
  0.000000  0.400000  0.200000      2.000000
  0.100000  0.400000  0.200000      2.000000
  0.300000  0.400000  0.200000      2.000000
  0.400000  0.400000  0.200000      4.000000
  0.500000  0.400000  0.200000      2.000000
 -0.400000  0.400000  0.200000      4.000000
 -0.300000  0.400000  0.200000      2.000000
 -0.200000  0.400000  0.200000      4.000000
 -0.100000  0.400000  0.200000      2.000000
  0.000000 -0.400000  0.200000      2.000000
  0.100000 -0.400000  0.200000      2.000000
  0.300000 -0.400000  0.200000      2.000000
  0.500000 -0.400000  0.200000      2.000000
 -0.400000 -0.400000  0.200000      4.000000
 -0.300000 -0.400000  0.200000      2.000000
 -0.200000 -0.400000  0.200000      4.000000
[...]
 -0.300000  0.400000  0.400000      2.000000
 -0.200000  0.400000  0.400000      4.000000
 -0.100000  0.400000  0.400000      2.000000
  0.000000 -0.400000  0.400000      2.000000
  0.100000 -0.400000  0.400000      2.000000
  0.300000 -0.400000  0.400000      2.000000
  0.500000 -0.400000  0.400000      2.000000
 -0.300000 -0.400000  0.400000      2.000000
 -0.100000 -0.400000  0.400000      2.000000
  0.000000 -0.200000  0.400000      2.000000
  0.100000 -0.200000  0.400000      2.000000
  0.300000 -0.200000  0.400000      2.000000
  0.500000 -0.200000  0.400000      2.000000
 -0.300000 -0.200000  0.400000      2.000000
 -0.100000 -0.200000  0.400000      2.000000

 Following cartesian coordinates:
            Coordinates               Weight
  0.000000  0.000000  0.000000      1.000000
  0.035433  0.000000 -0.008360      2.000000
  0.070865  0.000000 -0.016720      4.000000
  0.106298  0.000000 -0.025080      2.000000
  0.141731  0.000000 -0.033440      4.000000
  0.177163  0.000000 -0.041800      1.000000
  0.000000  0.034896  0.009537      2.000000
  0.035433  0.034896  0.001177      2.000000
  0.070865  0.034896 -0.007183      4.000000
  0.106298  0.034896 -0.015543      2.000000
  0.141731  0.034896 -0.023903      4.000000
  0.177163  0.034896 -0.032263      2.000000
 -0.141731  0.034896  0.042977      4.000000
 -0.106298  0.034896  0.034617      2.000000
 -0.070865  0.034896  0.026257      4.000000
 -0.035433  0.034896  0.017897      2.000000
  0.000000  0.069792  0.019075      2.000000
  0.035433  0.069792  0.010715      2.000000
  0.070865  0.069792  0.002355      4.000000
  0.106298  0.069792 -0.006005      2.000000
  0.141731  0.069792 -0.014365      4.000000
  0.177163  0.069792 -0.022725      2.000000
 -0.141731  0.069792  0.052515      4.000000
 -0.106298  0.069792  0.044155      2.000000
 -0.070865  0.069792  0.035795      4.000000
 -0.035433  0.069792  0.027435      2.000000
  0.000000  0.000000  0.033440      2.000000
  0.035433  0.000000  0.025080      2.000000
  0.106298  0.000000  0.008360      2.000000
  0.141731  0.000000 -0.000000      2.000000
  0.177163  0.000000 -0.008360      2.000000
 -0.141731  0.000000  0.066880      4.000000
 -0.106298  0.000000  0.058520      2.000000
 -0.070865  0.000000  0.050160      4.000000
 -0.035433  0.000000  0.041800      2.000000
  0.000000  0.034896  0.042977      2.000000
  0.035433  0.034896  0.034617      2.000000
  0.106298  0.034896  0.017897      2.000000
  0.141731  0.034896  0.009537      4.000000
  0.177163  0.034896  0.001177      2.000000
 -0.141731  0.034896  0.076418      4.000000
 -0.106298  0.034896  0.068058      2.000000
[...]
 k-point 37 :   0.1000 0.2000 0.2000  plane waves:    2450
 k-point 38 :   0.3000 0.2000 0.2000  plane waves:    2469
 k-point 39 :   0.4000 0.2000 0.2000  plane waves:    2466
 k-point 40 :   0.5000 0.2000 0.2000  plane waves:    2463
 k-point 41 :  -0.4000 0.2000 0.2000  plane waves:    2469
 k-point 42 :  -0.3000 0.2000 0.2000  plane waves:    2464
 k-point 43 :  -0.2000 0.2000 0.2000  plane waves:    2449
 k-point 44 :  -0.1000 0.2000 0.2000  plane waves:    2456
 k-point 45 :   0.0000 0.4000 0.2000  plane waves:    2447
 k-point 46 :   0.1000 0.4000 0.2000  plane waves:    2441
 k-point 47 :   0.3000 0.4000 0.2000  plane waves:    2458
 k-point 48 :   0.4000 0.4000 0.2000  plane waves:    2451
 k-point 49 :   0.5000 0.4000 0.2000  plane waves:    2467
 k-point 50 :  -0.4000 0.4000 0.2000  plane waves:    2465
 k-point 51 :  -0.3000 0.4000 0.2000  plane waves:    2458
 k-point 52 :  -0.2000 0.4000 0.2000  plane waves:    2440
 k-point 53 :  -0.1000 0.4000 0.2000  plane waves:    2443
 k-point 54 :   0.0000-0.4000 0.2000  plane waves:    2432
 k-point 55 :   0.1000-0.4000 0.2000  plane waves:    2442
 k-point 56 :   0.3000-0.4000 0.2000  plane waves:    2459
 k-point 57 :   0.5000-0.4000 0.2000  plane waves:    2459
 k-point 58 :  -0.4000-0.4000 0.2000  plane waves:    2469
 k-point 59 :  -0.3000-0.4000 0.2000  plane waves:    2459
 k-point 60 :  -0.2000-0.4000 0.2000  plane waves:    2453
[...]
 k-point 85 :   0.1000 0.4000 0.4000  plane waves:    2438
 k-point 86 :   0.3000 0.4000 0.4000  plane waves:    2456
 k-point 87 :   0.5000 0.4000 0.4000  plane waves:    2459
 k-point 88 :  -0.3000 0.4000 0.4000  plane waves:    2459
 k-point 89 :  -0.2000 0.4000 0.4000  plane waves:    2454
 k-point 90 :  -0.1000 0.4000 0.4000  plane waves:    2443
 k-point 91 :   0.0000-0.4000 0.4000  plane waves:    2450
 k-point 92 :   0.1000-0.4000 0.4000  plane waves:    2450
 k-point 93 :   0.3000-0.4000 0.4000  plane waves:    2456
 k-point 94 :   0.5000-0.4000 0.4000  plane waves:    2468
 k-point 95 :  -0.3000-0.4000 0.4000  plane waves:    2465
 k-point 96 :  -0.1000-0.4000 0.4000  plane waves:    2446
 k-point 97 :   0.0000-0.2000 0.4000  plane waves:    2450
 k-point 98 :   0.1000-0.2000 0.4000  plane waves:    2445
 k-point 99 :   0.3000-0.2000 0.4000  plane waves:    2464
 k-point ** :   0.5000-0.2000 0.4000  plane waves:    2472
 k-point ** :  -0.3000-0.2000 0.4000  plane waves:    2454
 k-point ** :  -0.1000-0.2000 0.4000  plane waves:    2446

 maximum and minimum number of plane-waves per node :      2481     2432

 maximum number of plane-waves:      2481
 maximum index in each direction:
   IXMAX=    5   IYMAX=   10   IZMAX=   11
   IXMIN=   -5   IYMIN=  -10   IZMIN=  -11

 The following grids will avoid any aliasing or wrap around errors in the Hartre
 e energy
  - symmetry arguments have not been applied
  - exchange correlation energies might require even more grid points
  - we recommend to set PREC=Normal or Accurate and rely on VASP defaults
 NGX is ok and might be reduce to    24
 NGY is ok and might be reduce to    42
 NGZ is ok and might be reduce to    48

 serial   3D FFT for wavefunctions
 parallel 3D FFT for charge:
    minimum data exchange during FFTs selected (reduces bandwidth)

 Broyden mixing: mesh for mixing (old mesh)
   NGX = 11   NGY = 21   NGZ = 23
  (NGX  = 48   NGY  = 84   NGZ  = 96)
  gives a total of   5313 points

 initial charge density was supplied:
 charge density of overlapping atoms calculated
 number of electron      69.0000000 magnetization       7.5000000
 keeping initial charge density in first step

 Maximum index for non-local projection operator         6531
 Maximum index for augmentation-charges          864 (set IRDMAX)

 First call to EWALD:  gamma=   0.386
 Maximum number of real-space cells 4x 2x 2
 Maximum number of reciprocal cells 2x 3x 4

--------------------------------------- Iteration      1(   1)  ---------------------------------------

 eigenvalue-minimisations  : 19600
 total energy-change (2. order) : 0.5970636E+03  (-0.3317047E+04)
 number of electron      69.0000000 magnetization       7.5000000
 augmentation part       69.0000000 magnetization       7.5000000

 Free energy of the ion-electron system (eV)
  alpha Z        PSCENC =       213.70543855
  Ewald energy   TEWEN  =     -3987.49780504
  -Hartree energ DENC   =     -2173.58897946
  -exchange      EXHF   =         0.00000000
  -V(xc)+E(xc)   XCENC  =       280.07697267
  PAW double counting   =      5041.72537405    -5266.13972621
  entropy T*S    EENTRO =        -0.00302097
  eigenvalues    EBANDS =       472.70448109
  atomic energy  EATOM  =      6016.08090688
  Solvation  Ediel_sol  =         0.00000000
  free energy    TOTEN  =       597.06364156 eV

  energy without entropy =      597.06666252  energy(sigma->0) =      597.06515204

[...]

 eigenvalue-minimisations  : 21696
 total energy-change (2. order) :-0.6188794E+03  (-0.5681345E+03)
 number of electron      69.0000000 magnetization       7.5000000
 augmentation part       69.0000000 magnetization       7.5000000

[...]

 Broyden mixing:
  rms(total) = 0.51888E+01    rms(broyden)= 0.51884E+01
  rms(prec ) = 0.76490E+01
  weight for this iteration     100.00

[...]

 eigenvalues of (default mixing * dielectric matrix)
  average eigenvalue GAMMA=   0.2421
  0.2421

[...]

 eigenvalue-minimisations  : 31888
 total energy-change (2. order) : 0.4765230E-03  (-0.1340241E-02)
 number of electron      69.0000018 magnetization       0.6939487
 augmentation part       22.7617995 magnetization       0.4845517

[...]

 Broyden mixing:
  rms(total) = 0.32010E-02    rms(broyden)= 0.31988E-02
  rms(prec ) = 0.42122E-02
  weight for this iteration     100.00

 eigenvalues of (default mixing * dielectric matrix)
  average eigenvalue GAMMA=   0.9740
  2.3326  2.2158  1.2140  1.2140  0.1725  0.8585  0.8585  0.4167  0.5576  0.5576
  0.6450  0.6450

[...]

--------------------------------------- Iteration      1(  18)  ---------------------------------------

 eigenvalue-minimisations  : 20368
 total energy-change (2. order) :-0.6530957E-05  (-0.1525657E-05)
 number of electron      69.0000018 magnetization       0.7218810
 augmentation part       22.7619101 magnetization       0.5054152

 Free energy of the ion-electron system (eV)
  alpha Z        PSCENC =       213.70543855
  Ewald energy   TEWEN  =     -3987.49780504
  -Hartree energ DENC   =     -2114.22969323
  -exchange      EXHF   =         0.00000000
  -V(xc)+E(xc)   XCENC  =       277.56064651
  PAW double counting   =      6679.10030019    -6914.42842162
  entropy T*S    EENTRO =        -0.00500954
  eigenvalues    EBANDS =      -231.73571307
  atomic energy  EATOM  =      6016.08090688
  Solvation  Ediel_sol  =         0.00000000
  free energy    TOTEN  =       -61.44935037 eV

  energy without entropy =      -61.44434082  energy(sigma->0) =      -61.44684560

 average (electrostatic) potential at core
  the test charge radii are     0.7079  0.9791  0.7215
  (the norm of the test charge is              1.0000)
       1 -58.8396       2 -88.4715       3 -88.0990       4 -88.4715       5 -71.5897
       6 -71.6171       7 -71.5213       8 -71.5213       9 -71.6171      10 -71.5897

 E-fermi :   4.4615     XC(G=0): -11.2291     alpha+bet :-11.7450

 spin component 1

 k-point     1 :       0.0000    0.0000    0.0000
  band No.  band energies     occupation
      1     -39.5334      1.00000
      2     -16.1769      1.00000
      3     -15.0207      1.00000
      4     -14.8216      1.00000
      5     -14.0855      1.00000
      6     -13.9819      1.00000
      7     -13.8682      1.00000
      8      -2.9205      1.00000
      9      -2.6651      1.00000
     10      -2.5214      1.00000
     11      -2.0310      1.00000
     12      -2.0139      1.00000
     13      -1.9785      1.00000
     14      -1.6967      1.00000
     15      -1.5101      1.00000
     16      -1.3613      1.00000
     17      -0.5733      1.00000
     18      -0.5049      1.00000
     19       0.0896      1.00000
     20       0.4403      1.00000
     21       1.3637      1.00000
     22       1.3979      1.00000
     23       1.4177      1.00000
     24       1.6242      1.00000
     25       2.0137      1.00000
     26       2.1102      1.00000
     27       2.1240      1.00000
     28       2.1344      1.00000
     29       2.2930      1.00000
     30       2.3384      1.00000
     31       2.4133      1.00000
     32       2.7829      1.00000
     33       2.8150      1.00000
     34       3.0279      1.00000
     35       4.2556      1.00000
     36       4.4090      0.93133
     37       4.8293      0.00000
     38       5.3567      0.00000
     39       5.4592      0.00000
     40       5.5382      0.00000
     41      10.3662      0.00000
     42      12.9755      0.00000
     43      13.6056      0.00000
     44      14.5831      0.00000
     45      15.1654      0.00000
     46      15.2299      0.00000
     47      17.1276      0.00000
     48      17.2426      0.00000

[...]

 spin component 2

[...]

 k-point   102 :      -0.1000   -0.2000    0.4000
  band No.  band energies     occupation
      1     -39.5213      1.00000
      2     -15.8958      1.00000
      3     -15.2994      1.00000
      4     -14.4475      1.00000
      5     -13.9807      1.00000
      6     -13.9451      1.00000
      7     -13.8654      1.00000
      8      -2.9891      1.00000
      9      -2.3553      1.00000
     10      -2.1627      1.00000
     11      -2.0448      1.00000
     12      -1.8367      1.00000
     13      -1.7590      1.00000
     14      -1.5263      1.00000
     15      -1.5096      1.00000
     16      -0.9573      1.00000
     17      -0.6548      1.00000
     18      -0.3621      1.00000
     19      -0.0141      1.00000
     20       0.2296      1.00000
     21       0.7561      1.00000
     22       1.0801      1.00000
     23       1.2182      1.00000
     24       1.7733      1.00000
     25       2.0014      1.00000
     26       2.0732      1.00000
     27       2.1025      1.00000
     28       2.2091      1.00000
     29       2.3921      1.00000
     30       2.5597      1.00000
     31       2.7195      1.00000
     32       2.8801      1.00000
     33       3.0776      1.00000
     34       3.4249      1.00000
     35       4.5875      0.00018
     36       4.9970      0.00000
     37       5.1498      0.00000
     38       5.2183      0.00000
     39       5.2841      0.00000
     40       5.5101      0.00000
     41      11.8837      0.00000
     42      12.7030      0.00000
     43      13.6600      0.00000
     44      13.8959      0.00000
     45      15.7313      0.00000
     46      15.9856      0.00000
     47      16.8662      0.00000
     48      17.2149      0.00000

 soft charge-density along one line, spin component           1
         0         1         2         3         4         5         6         7         8         9
 total charge-density along one line

 soft charge-density along one line, spin component           2
         0         1         2         3         4         5         6         7         8         9
 total charge-density along one line

------------------------ aborting loop because EDIFF is reached ----------------------------------------

  FORCE on cell =-STRESS in cart. coord.  units (eV):
  Direction    XX          YY          ZZ          XY          YZ          ZX
  Alpha Z   213.70544   213.70544   213.70544
  Ewald    -453.10878 -2259.87225 -1274.51922    -0.00001  1199.49554    -0.00000
  Hartree  1352.95087    27.54000   733.78180    -0.00000   883.50572    -0.00000
  E(xc)    -351.04572  -351.33754  -351.21019     0.00000     0.17657     0.00001
  Local   -2220.09189   883.29685  -786.21330    -0.00001 -2065.79013     0.00009
  n-local  -161.68409  -166.21451  -162.16817    -0.00937     2.79832    -0.08629
  augment   578.46837   586.95748   578.39276    -0.00009    -5.12670     0.00027
  Kinetic  1040.81805  1066.01609  1048.28481     0.00432   -15.11269     0.32093
  Fock        0.00000     0.00000     0.00000     0.00000     0.00000     0.00000
  Total        0.0122492      0.0915695      0.0539258     -0.0000000     -0.0533628      0.0000000
  in kB        0.2028649      1.5165206      0.8930872     -0.0000000     -0.8837638      0.0000000

 VOLUME and BASIS-vectors are now :
  energy-cutoff  :      500.00
  volume of cell :       96.74
      direct lattice vectors                 reciprocal lattice vectors
     2.822254300  0.000000000  0.000000000     0.354326681  0.000000000 -0.083600168
     0.000000000  5.731310500  0.000000000     0.000000000  0.174480165  0.047686920
     1.411127170 -1.634617230  5.980849300     0.000000000  0.000000000  0.167200334

  length of vectors
     2.822254300  5.731310500  6.358758662     0.364055470  0.180879436  0.167200334

 FORCES acting on ions
    electron-ion (+dipol)            ewald-force                    non-local-force                 convergence-correction
   -.169E-13 0.325E-13 -.389E-13   -.427E-14 0.302E-13 -.249E-13   -.827E-24 0.827E-24 0.000E+00   -.164E-13 0.208E-13 -.406E-13
   -.545E-04 0.623E+02 -.713E+02   -.209E-05 -.633E+02 0.722E+02   -.279E-08 0.966E+00 -.835E+00   0.237E-06 -.865E-03 0.527E-02
   -.669E-13 0.997E-12 -.219E-12   -.167E-13 0.284E-13 0.000E+00   0.265E-22 0.000E+00 0.000E+00   -.311E-13 -.743E-13 0.108E-12
   0.545E-04 -.623E+02 0.713E+02   0.209E-05 0.633E+02 -.722E+02   0.279E-08 -.966E+00 0.835E+00   -.237E-06 0.865E-03 -.527E-02
   -.113E-04 -.317E+03 0.223E+03   -.357E-05 0.339E+03 -.238E+03   0.491E-07 -.220E+02 0.147E+02   0.287E-07 0.160E-02 -.521E-02
   0.140E-04 -.302E+03 0.159E+03   0.808E-06 0.321E+03 -.170E+03   0.365E-07 -.186E+02 0.109E+02   0.180E-07 0.260E-02 0.326E-02
   -.245E-04 -.235E+03 0.214E+03   -.105E-05 0.247E+03 -.227E+03   0.435E-07 -.116E+02 0.130E+02   0.274E-07 -.857E-03 -.140E-02
   0.245E-04 0.235E+03 -.214E+03   0.105E-05 -.247E+03 0.227E+03   -.435E-07 0.116E+02 -.130E+02   -.274E-07 0.857E-03 0.140E-02
   -.140E-04 0.302E+03 -.159E+03   -.808E-06 -.321E+03 0.170E+03   -.365E-07 0.186E+02 -.109E+02   -.180E-07 -.260E-02 -.326E-02
   0.113E-04 0.317E+03 -.223E+03   0.357E-05 -.339E+03 0.238E+03   -.491E-07 0.220E+02 -.147E+02   -.287E-07 -.160E-02 0.521E-02
   0.267E-11 0.670E-11 0.472E-11   -.311E-14 0.171E-12 -.284E-13   0.265E-22 -.355E-14 -.178E-14   -.151E-12 -.676E-12 0.366E-12

 POSITION                                       TOTAL-FORCE (eV/Angst)
      0.00000      0.00000      0.00000         0.000000      0.000000     -0.000000
      1.41113      4.18759      2.02184         0.000000      0.010737      0.005760
      0.00000      2.86566      0.00000         0.000000      0.000000     -0.000000
      2.82225     -0.09090      3.95901        -0.000000     -0.010737     -0.005760
      1.41113      1.12699      4.12298         0.000000     -0.008317      0.004046
      2.82225     -0.30108      2.08655         0.000000     -0.003151      0.002684
      1.41113      4.16628      0.15643        -0.000000     -0.000583     -0.003256
      2.82225     -0.06958      5.82442         0.000000      0.000583      0.003256
      1.41113      4.39777      3.89430        -0.000000      0.003151     -0.002684
      2.82225      2.96971      1.85787        -0.000000      0.008317     -0.004046
    total drift:                                0.000000      0.000000      0.000000

  FREE ENERGIE OF THE ION-ELECTRON SYSTEM (eV)
  free  energy   TOTEN  =       -61.4493503659 eV

  energy  without entropy=      -61.4443408242  energy(sigma->0) =      -61.44684560

volume of typ            1:     8.1 %

[...]

volume of typ            3:    10.1 %

total charge

# of ion       s       p       d       tot
    1        2.074   0.239   0.091   2.404
    2        0.297   0.407   7.826   8.530
    3        0.278   0.372   7.839   8.490
    4        0.297   0.407   7.826   8.530
    5        1.283   2.727   0.008   4.017
    6        1.273   2.756   0.007   4.036
    7        1.267   2.773   0.006   4.047
    8        1.267   2.773   0.006   4.047
    9        1.273   2.756   0.007   4.036
   10        1.283   2.727   0.008   4.017
tot          10.59   17.94   23.63   52.16

magnetization (x)

# of ion       s       p       d       tot
    1        0.004   0.009   0.001   0.013
    2       -0.000   0.000   0.034   0.034
    3       -0.001  -0.000   0.446   0.445
    4       -0.000   0.000   0.034   0.034
    5        0.001  -0.004   0.000  -0.004
    6        0.001  -0.001   0.000  -0.000
    7        0.008   0.067   0.000   0.076
    8        0.008   0.067   0.000   0.076
    9        0.001  -0.001   0.000  -0.000
   10        0.001  -0.004   0.000  -0.004
tot           0.02    0.13    0.52    0.67