 vasp.5.4.4.18Apr17-6-g9f103f2a35 (build May 12 2020 04:58:55) complex

 MD_VERSION_INFO: Compiled 2020-05-12T11:58:55-UTC in devlin.sd.materialsdesign.
 com:/home/medea2/data/build/wwolf/vasp-gpu5.4.4/13047/x86_64/src/src/build/std
 from svn 13047

 executed on                        Lin64 date 2023.03.16  11:40:21

 INCAR:
 POTCAR:    PAW_PBE Li_sv 10Sep2004
 POTCAR:    PAW_PBE Ni 02Aug2007
 POTCAR:    PAW_PBE O 08Apr2002

 POTCAR:    PAW_PBE Li_sv 10Sep2004

 POTCAR:    PAW_PBE Ni 02Aug2007

 POTCAR:    PAW_PBE O 08Apr2002

 Optimization of the real space projectors (new method)

 maximal supplied QI-value         = 22.11
 optimisation between [QCUT,QGAM] = [ 11.28, 22.77] = [ 35.61,145.23] Ry
 Optimized for a Real-space Cutoff    1.10 Angstroem

   l    n(q)    QCUT    max X(q) W(low)/X(q) W(high)/X(q)  e(spline)
   0      7    11.276    10.506    0.54E-04    0.58E-04    0.16E-07
   0      7    11.276     8.367    0.11E-03    0.14E-03    0.35E-07
   1      7    11.276     8.983    0.23E-03    0.43E-03    0.86E-07
 Optimization of the real space projectors (new method)

[...]

   l    n(q)    QCUT    max X(q) W(low)/X(q) W(high)/X(q)  e(spline)
   2      9    11.376    60.317    0.17E-03    0.16E-04    0.16E-06
   2      9    11.376    55.921    0.17E-03    0.16E-04    0.17E-06
   0     10    11.376    51.690    0.45E-04    0.60E-04    0.21E-06
   0     10    11.376    30.015    0.37E-04    0.55E-04    0.19E-06
   1     10    11.376    18.849    0.83E-04    0.11E-03    0.92E-07
   1     10    11.376    14.624    0.69E-04    0.92E-04    0.82E-07
 Optimization of the real space projectors (new method)

 maximal supplied QI-value         = 24.76
 optimisation between [QCUT,QGAM] = [ 11.39, 22.77] = [ 36.31,145.25] Ry
 Optimized for a Real-space Cutoff    1.10 Angstroem

   l    n(q)    QCUT    max X(q) W(low)/X(q) W(high)/X(q)  e(spline)
   0      7    11.387    20.381    0.22E-03    0.48E-03    0.18E-06
   0      7    11.387    15.268    0.22E-03    0.52E-03    0.19E-06
   1      7    11.387     5.964    0.22E-03    0.73E-03    0.24E-06
   1      7    11.387     5.382    0.19E-03    0.60E-03    0.21E-06

  PAW_PBE Li_sv 10Sep2004               :
  PAW_PBE Ni 02Aug2007                  :
  PAW_PBE O 08Apr2002                   :

 POSCAR: ce38
  positions in direct lattice
 exchange correlation table for  LEXCH =       14
   RHO(1)=    0.500       N(1)  =     2000
   RHO(2)=  100.500       N(2)  =     4000

 ion  position               nearest neighbor table
   1  0.000  0.000  0.000-  11 2.11   6 2.11  11 2.11   6 2.11  13 2.12   8 2.12
   2  0.630  0.877  0.741-   9 1.86   7 1.87   7 1.87  13 1.88  13 1.88  11 1.88   4 2.80   4 2.80
                             4 2.80   4 2.80
   3  0.370  0.123  0.259-  12 1.86  10 1.87  10 1.87   8 1.88   8 1.88   6 1.88   5 2.80   5 2.80
                             5 2.80   5 2.80
   4  0.127  0.376  0.746-   9 1.87   9 1.87   7 1.87  13 1.90  11 1.91  11 1.91   2 2.80   2 2.80
                             2 2.80   2 2.80
   5  0.873  0.624  0.254-  12 1.87  12 1.87  10 1.87   8 1.90   6 1.91   6 1.91   3 2.80   3 2.80
                             3 2.80   3 2.80
   6  0.426  0.817  0.148-   3 1.88   5 1.91   5 1.91   1 2.11   1 2.11
   7  0.179  0.062  0.642-   2 1.87   2 1.87   4 1.87
   8  0.923  0.299  0.154-   3 1.88   3 1.88   5 1.90   1 2.12
   9  0.678  0.556  0.644-   2 1.86   4 1.87   4 1.87
  10  0.821  0.938  0.358-   3 1.87   3 1.87   5 1.87
  11  0.574  0.183  0.852-   2 1.88   4 1.91   4 1.91   1 2.11   1 2.11
  12  0.322  0.444  0.356-   3 1.86   5 1.87   5 1.87
  13  0.077  0.701  0.846-   2 1.88   2 1.88   4 1.90   1 2.12

  LATTYP: Found a base centered monoclinic cell.
 ALAT       =    18.6693630604
 B/A-ratio  =     0.1504571645
 C/A-ratio  =     1.0540550970
 COS(beta)  =    -0.9586835013

  Lattice vectors:

 A1 = (   1.4044697300,   0.7874044100,   9.3014124500)
 A2 = (  -1.4044697000,   0.7874044100,   9.3014124500)
 A3 = (  -0.0000000300,  -6.4171438900, -18.6028249000)

Analysis of symmetry for initial positions (statically):
 Subroutine PRICEL returns:
 Original cell was already a primitive cell.

 Routine SETGRP: Setting up the symmetry group for a
 base centered monoclinic supercell.

 Subroutine GETGRP returns: Found  4 space group operations
 (whereof  4 operations were pure point group operations)
 out of a pool of  4 trial point group operations.

The static configuration has the point symmetry C_2h.

Analysis of symmetry for dynamics (positions and initial velocities):
 Subroutine PRICEL returns:
 Original cell was already a primitive cell.

[...]

The dynamic configuration has the point symmetry C_2h.

Analysis of structural, dynamic, and magnetic symmetry:
 Subroutine PRICEL returns:
 Original cell was already a primitive cell.

 Routine SETGRP: Setting up the symmetry group for a
 base centered monoclinic supercell.

 Subroutine GETGRP returns: Found  4 space group operations
 (whereof  4 operations were pure point group operations)
 out of a pool of  4 trial point group operations.

The magnetic configuration has the point symmetry C_2h.

 Subroutine INISYM returns: Found  4 space group operations
 (whereof  4 operations are pure point group operations),
 and found     1 'primitive' translations

 KPOINTS: Automatic mesh

Automatic generation of k-mesh.
Space group operators:
 irot       det(A)        alpha          n_x          n_y          n_z        tau_x        tau_y        tau_z
    1     1.000000     0.000000     1.000000     0.000000     0.000000     0.000000     0.000000     0.000000
    2    -1.000000     0.000000     1.000000     0.000000     0.000000     0.000000     0.000000     0.000000
    3     1.000000   180.000000     1.000000     0.000000    -0.000000     0.000000     0.000000     0.000000
    4    -1.000000   180.000000     1.000000     0.000000    -0.000000     0.000000     0.000000     0.000000

 Subroutine IBZKPT returns following result:

 Found     92 irreducible k-points:

 Following reciprocal coordinates:
            Coordinates               Weight
  0.000000  0.000000  0.000000      1.000000
  0.100000  0.000000  0.000000      2.000000
  0.200000  0.000000  0.000000      2.000000
  0.300000  0.000000  0.000000      2.000000
  0.400000  0.000000  0.000000      2.000000
  0.500000  0.000000  0.000000      1.000000
  0.000000  0.166667  0.000000      2.000000
  0.100000  0.166667  0.000000      2.000000
  0.200000  0.166667  0.000000      2.000000
  0.300000  0.166667  0.000000      2.000000
  0.400000  0.166667  0.000000      2.000000
  0.500000  0.166667  0.000000      2.000000
 -0.400000  0.166667  0.000000      2.000000
 -0.300000  0.166667  0.000000      2.000000
 -0.200000  0.166667  0.000000      2.000000
 -0.100000  0.166667 -0.000000      2.000000
  0.000000  0.333333  0.000000      2.000000
  0.100000  0.333333  0.000000      2.000000
  0.200000  0.333333  0.000000      2.000000
  0.300000  0.333333  0.000000      2.000000
  0.400000  0.333333  0.000000      2.000000
  0.500000  0.333333 -0.000000      2.000000
 -0.400000  0.333333 -0.000000      2.000000
 -0.300000  0.333333 -0.000000      2.000000
 -0.200000  0.333333  0.000000      2.000000
 -0.100000  0.333333 -0.000000      2.000000
  0.000000  0.500000  0.000000      1.000000
  0.100000  0.500000  0.000000      2.000000
  0.200000  0.500000  0.000000      2.000000
  0.300000  0.500000  0.000000      2.000000
  0.400000  0.500000  0.000000      2.000000
  0.500000  0.500000 -0.000000      1.000000
  0.000000  0.000000  0.333333      2.000000
  0.100000  0.000000  0.333333      2.000000
  0.200000  0.000000  0.333333      2.000000
  0.300000  0.000000  0.333333      2.000000
  0.400000  0.000000  0.333333      2.000000
  0.500000  0.000000  0.333333      2.000000
 -0.400000  0.000000  0.333333      2.000000
 -0.300000  0.000000  0.333333      2.000000
 -0.200000  0.000000  0.333333      2.000000
 -0.100000  0.000000  0.333333      2.000000
  0.000000  0.166667  0.333333      2.000000
  0.100000  0.166667  0.333333      2.000000
  0.200000  0.166667  0.333333      2.000000
  0.300000  0.166667  0.333333      2.000000
  0.400000  0.166667  0.333333      2.000000
  0.500000  0.166667  0.333333      2.000000
 -0.400000  0.166667  0.333333      2.000000
 -0.300000  0.166667  0.333333      2.000000
 -0.200000  0.166667  0.333333      2.000000
 -0.100000  0.166667  0.333333      2.000000
  0.000000  0.333333  0.333333      2.000000
  0.100000  0.333333  0.333333      2.000000
  0.200000  0.333333  0.333333      2.000000
  0.300000  0.333333  0.333333      2.000000
  0.400000  0.333333  0.333333      2.000000
  0.500000  0.333333  0.333333      2.000000
 -0.400000  0.333333  0.333333      2.000000
 -0.300000  0.333333  0.333333      2.000000
[...]
  0.500000 -0.333333  0.333333      2.000000
 -0.400000 -0.333333  0.333333      2.000000
 -0.300000 -0.333333  0.333333      2.000000
 -0.200000 -0.333333  0.333333      2.000000
 -0.100000 -0.333333  0.333333      2.000000
  0.000000 -0.166667  0.333333      2.000000
  0.100000 -0.166667  0.333333      2.000000
  0.200000 -0.166667  0.333333      2.000000
  0.300000 -0.166667  0.333333      2.000000
  0.400000 -0.166667  0.333333      2.000000
  0.500000 -0.166667  0.333333      2.000000
 -0.400000 -0.166667  0.333333      2.000000
 -0.300000 -0.166667  0.333333      2.000000
 -0.200000 -0.166667  0.333333      2.000000
 -0.100000 -0.166667  0.333333      2.000000

 Following cartesian coordinates:
            Coordinates               Weight
  0.000000  0.000000  0.000000      1.000000
  0.035601  0.000000 -0.005376      2.000000
  0.071201  0.000000 -0.010751      2.000000
  0.106802  0.000000 -0.016127      2.000000
  0.142403  0.000000 -0.021502      2.000000
  0.178003  0.000000 -0.026878      1.000000
  0.000000  0.034419 -0.002914      2.000000
  0.035601  0.034419 -0.008289      2.000000
  0.071201  0.034419 -0.013665      2.000000
  0.106802  0.034419 -0.019040      2.000000
  0.142403  0.034419 -0.024416      2.000000
  0.178003  0.034419 -0.029791      2.000000
 -0.142403  0.034419  0.018588      2.000000
 -0.106802  0.034419  0.013213      2.000000
 -0.071201  0.034419  0.007837      2.000000
 -0.035601  0.034419  0.002462      2.000000
  0.000000  0.068837 -0.005827      2.000000
  0.035601  0.068837 -0.011203      2.000000
  0.071201  0.068837 -0.016578      2.000000
  0.106802  0.068837 -0.021954      2.000000
  0.142403  0.068837 -0.027329      2.000000
  0.178003  0.068837 -0.032705      2.000000
 -0.142403  0.068837  0.015675      2.000000
 -0.106802  0.068837  0.010299      2.000000
 -0.071201  0.068837  0.004924      2.000000
 -0.035601  0.068837 -0.000452      2.000000
  0.000000  0.103256 -0.008741      1.000000
  0.035601  0.103256 -0.014117      2.000000
  0.071201  0.103256 -0.019492      2.000000
  0.106802  0.103256 -0.024868      2.000000
  0.142403  0.103256 -0.030243      2.000000
  0.178003  0.103256 -0.035619      1.000000
  0.000000  0.000000  0.035837      2.000000
  0.035601  0.000000  0.030461      2.000000
  0.071201  0.000000  0.025086      2.000000
  0.106802  0.000000  0.019710      2.000000
  0.142403  0.000000  0.014335      2.000000
[...]
 k-point 89 :  -0.4000-0.1667 0.3333  plane waves:    3217
 k-point 90 :  -0.3000-0.1667 0.3333  plane waves:    3211
 k-point 91 :  -0.2000-0.1667 0.3333  plane waves:    3207
 k-point 92 :  -0.1000-0.1667 0.3333  plane waves:    3199

 maximum and minimum number of plane-waves per node :      3236     3180

 maximum number of plane-waves:      3236
 maximum index in each direction:
   IXMAX=    5   IYMAX=    9   IZMAX=   17
   IXMIN=   -5   IYMIN=   -9   IZMIN=  -17

 The following grids will avoid any aliasing or wrap around errors in the Hartre
 e energy
  - symmetry arguments have not been applied
  - exchange correlation energies might require even more grid points
  - we recommend to set PREC=Normal or Accurate and rely on VASP defaults
 WARNING: aliasing errors must be expected set NGX to    24 to avoid them
 WARNING: aliasing errors must be expected set NGY to    40 to avoid them
 NGZ is ok and might be reduce to    70

 serial   3D FFT for wavefunctions
 parallel 3D FFT for charge:
    minimum data exchange during FFTs selected (reduces bandwidth)

 Broyden mixing: mesh for mixing (old mesh)
   NGX = 11   NGY = 17   NGZ = 35
  (NGX  = 40   NGY  = 72   NGZ  =140)
  gives a total of   6545 points

 initial charge density was supplied:
 charge density of overlapping atoms calculated
 number of electron      91.0000000 magnetization      10.0000000
 keeping initial charge density in first step

 Maximum index for non-local projection operator         5184
 Maximum index for augmentation-charges         1220 (set IRDMAX)

 First call to EWALD:  gamma=   0.353
 Maximum number of real-space cells 5x 3x 2
 Maximum number of reciprocal cells 2x 3x 5

--------------------------------------- Iteration      1(   1)  ---------------------------------------

 eigenvalue-minimisations  : 23552
 total energy-change (2. order) : 0.8896587E+03  (-0.4261483E+04)
 number of electron      91.0000000 magnetization      10.0000000
 augmentation part       91.0000000 magnetization      10.0000000

 Free energy of the ion-electron system (eV)
  alpha Z        PSCENC =       285.51174336
  Ewald energy   TEWEN  =     -5328.40032479
  -Hartree energ DENC   =     -2842.02640324
  -exchange      EXHF   =         0.00000000
  -V(xc)+E(xc)   XCENC  =       369.02414152
  PAW double counting   =      6695.71924497    -6989.86216938
  entropy T*S    EENTRO =        -0.00346951
  eigenvalues    EBANDS =       745.26049836
  atomic energy  EATOM  =      7954.43542899
  Solvation  Ediel_sol  =         0.00000000
  free energy    TOTEN  =       889.65869030 eV

  energy without entropy =      889.66215981  energy(sigma->0) =      889.66042505

[...]

 eigenvalue-minimisations  : 26080
 total energy-change (2. order) :-0.8931582E+03  (-0.8027675E+03)
 number of electron      91.0000000 magnetization      10.0000000
 augmentation part       91.0000000 magnetization      10.0000000

[...]

 Broyden mixing:
  rms(total) = 0.60825E+01    rms(broyden)= 0.60820E+01
  rms(prec ) = 0.74033E+01
  weight for this iteration     100.00

[...]

 eigenvalues of (default mixing * dielectric matrix)
  average eigenvalue GAMMA=   0.2355
  0.2355

[...]

 eigenvalue-minimisations  : 15104
 total energy-change (2. order) :-0.1224014E-04  (-0.1281239E-05)
 number of electron      91.0000047 magnetization      -0.3402076
 augmentation part       29.9663515 magnetization      -0.2256855

 Broyden mixing:
  rms(total) = 0.74165E-02    rms(broyden)= 0.74159E-02
  rms(prec ) = 0.75384E-02
  weight for this iteration     100.00

 eigenvalues of (default mixing * dielectric matrix)
  average eigenvalue GAMMA=   1.0800
  6.8203  2.5618  2.5618  1.9652  1.9652  1.4143  1.4143  1.0701  1.0701  1.0159
  1.0159  0.1894  0.7170  0.7170  0.6450  0.6450  0.5402  0.5402  0.6687  0.6687
  0.3473  0.4161  0.5335  0.5335  0.4685  0.5329  0.1244  0.0566  0.0996

[...]

--------------------------------------- Iteration      1(  35)  ---------------------------------------

 eigenvalue-minimisations  : 12672
 total energy-change (2. order) : 0.4436060E-07  (-0.2565495E-06)
 number of electron      91.0000047 magnetization      -0.3402076
 augmentation part       29.9663515 magnetization      -0.2256855

 Free energy of the ion-electron system (eV)
  alpha Z        PSCENC =       285.51174336
  Ewald energy   TEWEN  =     -5328.40032479
  -Hartree energ DENC   =     -2759.57271582
  -exchange      EXHF   =         0.00000000
  -V(xc)+E(xc)   XCENC  =       365.43061854
  PAW double counting   =      8880.57003118    -9189.08493369
  entropy T*S    EENTRO =        -0.00982902
  eigenvalues    EBANDS =      -288.99942697
  atomic energy  EATOM  =      7954.43542899
  Solvation  Ediel_sol  =         0.00000000
  free energy    TOTEN  =       -80.11940821 eV

  energy without entropy =      -80.10957919  energy(sigma->0) =      -80.11449370

 average (electrostatic) potential at core
  the test charge radii are     0.7079  0.9791  0.7215
  (the norm of the test charge is              1.0000)
       1 -59.0497       2 -88.5186       3 -88.5186       4 -88.3848       5 -88.3848
       6 -71.6272       7 -71.6587       8 -71.6422       9 -71.7063      10 -71.6587
      11 -71.6272      12 -71.7063      13 -71.6422

 E-fermi :   4.4455     XC(G=0): -11.2746     alpha+bet :-11.5804

 spin component 1

 k-point     1 :       0.0000    0.0000    0.0000
  band No.  band energies     occupation
      1     -39.7359      1.00000
      2     -16.2315      1.00000
      3     -16.1281      1.00000
      4     -14.3602      1.00000
      5     -14.3224      1.00000
      6     -14.2087      1.00000
      7     -14.1738      1.00000
      8     -14.0563      1.00000
      9     -13.8744      1.00000
     10      -3.3809      1.00000
     11      -3.3509      1.00000
     12      -2.6354      1.00000
     13      -2.0411      1.00000
     14      -2.0271      1.00000
     15      -2.0220      1.00000
     16      -2.0104      1.00000
     17      -1.9576      1.00000
     18      -1.6712      1.00000
     19      -1.5208      1.00000
     20      -1.4030      1.00000
     21      -1.3969      1.00000
     22      -0.5497      1.00000
     23      -0.4306      1.00000
     24       0.4813      1.00000
     25       0.4961      1.00000
     26       0.9151      1.00000
     27       1.1865      1.00000
     28       1.2260      1.00000
     29       1.3955      1.00000
     30       1.3971      1.00000
     31       1.4057      1.00000
     32       1.4071      1.00000
     33       1.7892      1.00000
     34       1.8465      1.00000
     35       1.8479      1.00000
     36       1.8878      1.00000
     37       2.1431      1.00000
     38       2.1874      1.00000
     39       2.2072      1.00000
     40       2.2209      1.00000
     41       2.2828      1.00000
     42       2.4714      1.00000
     43       2.4979      1.00000
     44       2.9928      1.00000
     45       3.2741      1.00000
     46       4.8567      0.00000
     47       4.9161      0.00000
     48       5.3388      0.00000
     49       5.3557      0.00000
     50       5.5323      0.00000
     51       5.5509      0.00000
     52       5.5566      0.00000
     53       5.5804      0.00000
     54      10.4630      0.00000
     55      12.2126      0.00000
     56      12.8334      0.00000
     57      13.4616      0.00000
     58      13.8780      0.00000
     59      15.2100      0.00000
     60      15.6820      0.00000
     61      15.8768      0.00000
     62      16.4160      0.00000
     63      16.9416      0.00000
     64      17.1809      0.00000

[...]

 spin component 2

[...]

 k-point    92 :      -0.1000   -0.1667    0.3333
  band No.  band energies     occupation
      1     -39.7372      1.00000
      2     -16.0315      1.00000
      3     -16.0015      1.00000
      4     -14.5860      1.00000
      5     -14.5536      1.00000
      6     -14.1083      1.00000
      7     -14.0935      1.00000
      8     -13.9898      1.00000
      9     -13.9420      1.00000
     10      -3.1410      1.00000
     11      -2.9746      1.00000
     12      -2.4073      1.00000
     13      -2.2475      1.00000
     14      -2.1397      1.00000
     15      -2.0292      1.00000
     16      -1.9675      1.00000
     17      -1.9590      1.00000
     18      -1.9332      1.00000
     19      -1.8658      1.00000
     20      -1.3494      1.00000
     21      -1.2019      1.00000
     22      -0.6869      1.00000
     23      -0.2613      1.00000
     24      -0.0992      1.00000
     25       0.0095      1.00000
     26       0.6448      1.00000
     27       0.7032      1.00000
     28       0.8892      1.00000
     29       0.9235      1.00000
     30       1.0173      1.00000
     31       1.2254      1.00000
     32       1.7685      1.00000
     33       1.8851      1.00000
     34       1.9128      1.00000
     35       1.9880      1.00000
     36       2.0006      1.00000
     37       2.0557      1.00000
     38       2.0875      1.00000
     39       2.1708      1.00000
     40       2.4642      1.00000
     41       2.4850      1.00000
     42       2.6123      1.00000
     43       2.6980      1.00000
     44       3.1291      1.00000
     45       3.3440      1.00000
     46       4.6257      0.00000
     47       4.7945      0.00000
     48       4.9545      0.00000
     49       4.9821      0.00000
     50       5.1264      0.00000
     51       5.1923      0.00000
     52       5.3865      0.00000
     53       5.3977      0.00000
     54      11.3640      0.00000
     55      12.0667      0.00000
     56      13.4231      0.00000
     57      13.8260      0.00000
     58      14.5208      0.00000
     59      15.4989      0.00000
     60      15.7725      0.00000
     61      16.3246      0.00000
     62      16.9119      0.00000
     63      16.9778      0.00000
     64      17.2878      0.00000

 soft charge-density along one line, spin component           1
         0         1         2         3         4         5         6         7         8         9
 total charge-density along one line

 soft charge-density along one line, spin component           2
         0         1         2         3         4         5         6         7         8         9
 total charge-density along one line

------------------------ aborting loop because EDIFF is reached ----------------------------------------

  FORCE on cell =-STRESS in cart. coord.  units (eV):
  Direction    XX          YY          ZZ          XY          YZ          ZX
  Alpha Z   285.51174   285.51174   285.51174
  Ewald    -610.24870  -647.26175 -4070.90307    -0.00002    10.72735     0.00001
  Hartree  1763.12689  1737.08501  -740.67734     0.00000     4.92752    -0.00002
  E(xc)    -463.23313  -463.26775  -463.79641     0.00000    -0.00296     0.00000
  Local   -2901.32768 -2839.20350  3006.04449     0.00002   -14.65893     0.00016
  n-local  -208.85795  -208.40753  -216.75276     0.00056     0.23974     0.01028
  augment   762.83051   762.70220   779.58864     0.00046    -0.59063     0.00002
  Kinetic  1372.10461  1372.77544  1420.83192    -0.01111    -0.64892     0.00124
  Fock        0.00000     0.00000     0.00000     0.00000     0.00000     0.00000
  Total       -0.0937166     -0.0661366     -0.1527802     -0.0000000     -0.0068278     -0.0000000
  in kB       -1.1868093     -0.8375414     -1.9347804     -0.0000000     -0.0864664     -0.0000000

 VOLUME and BASIS-vectors are now :
  energy-cutoff  :      500.00
  volume of cell :      126.52
      direct lattice vectors                 reciprocal lattice vectors
     2.808939430  0.000000000  0.000000000     0.356006253  0.000000000 -0.053755277
     0.000000000  4.842335070  0.000000000     0.000000000  0.206511938 -0.017482120
     1.404469730  0.787404410  9.301412450     0.000000000  0.000000000  0.107510553

  length of vectors
     2.808939430  4.842335070  9.439746527     0.360041778  0.207250585  0.107510553

 FORCES acting on ions
    electron-ion (+dipol)            ewald-force                    non-local-force                 convergence-correction
   -.486E-14 0.950E-14 -.471E-13   0.113E-14 0.178E-13 0.000E+00   -.517E-25 0.181E-24 0.000E+00   -.991E-14 -.351E-14 0.568E-13
   0.139E-03 0.188E+02 0.646E+02   0.521E-05 -.190E+02 -.661E+02   0.235E-08 0.276E+00 0.146E+01   0.130E-06 0.634E-02 0.366E-02
   -.139E-03 -.188E+02 -.646E+02   -.521E-05 0.190E+02 0.661E+02   -.235E-08 -.276E+00 -.146E+01   -.130E-06 -.634E-02 -.366E-02
   0.439E-04 -.187E+02 0.259E+01   -.715E-05 0.191E+02 -.365E+01   0.169E-08 -.367E+00 0.105E+01   0.246E-06 -.578E-02 0.936E-02
   -.439E-04 0.187E+02 -.259E+01   0.715E-05 -.191E+02 0.365E+01   -.169E-08 0.367E+00 -.105E+01   -.246E-06 0.578E-02 -.936E-02
   -.231E-04 0.403E+02 0.319E+03   -.313E-05 -.432E+02 -.336E+03   0.281E-07 0.293E+01 0.174E+02   -.998E-08 0.241E-01 -.290E-02
   -.526E-04 -.545E+01 0.366E+03   -.609E-05 0.625E+01 -.393E+03   0.435E-07 -.780E+00 0.270E+02   -.261E-08 -.212E-01 0.103E-01
   0.812E-05 -.380E+02 0.340E+03   -.169E-05 0.406E+02 -.361E+03   0.343E-07 -.251E+01 0.212E+02   0.305E-07 -.189E-01 0.906E-02
   0.217E-04 0.693E+01 0.356E+03   0.361E-05 -.809E+01 -.383E+03   0.429E-07 0.114E+01 0.266E+02   -.192E-07 0.252E-01 -.868E-04
   0.526E-04 0.545E+01 -.366E+03   0.609E-05 -.625E+01 0.393E+03   -.435E-07 0.780E+00 -.270E+02   0.261E-08 0.212E-01 -.103E-01
   0.231E-04 -.403E+02 -.319E+03   0.313E-05 0.432E+02 0.336E+03   -.281E-07 -.293E+01 -.174E+02   0.998E-08 -.241E-01 0.290E-02
   -.217E-04 -.693E+01 -.356E+03   -.361E-05 0.809E+01 0.383E+03   -.429E-07 -.114E+01 -.266E+02   0.192E-07 -.252E-01 0.868E-04
   -.812E-05 0.380E+02 -.340E+03   0.169E-05 -.406E+02 0.361E+03   -.343E-07 0.251E+01 -.212E+02   -.305E-07 0.189E-01 -.906E-02
   -.504E-11 0.434E-11 0.864E-12   0.359E-13 -.355E-13 0.114E-12   0.000E+00 0.444E-15 0.355E-14   -.751E-13 -.136E-13 0.624E-13

 POSITION                                       TOTAL-FORCE (eV/Angst)
      0.00000      0.00000      0.00000        -0.000000     -0.000000     -0.000000
      2.80894      4.82935      6.88944        -0.000000      0.003925     -0.009746
      1.40447      0.80039      2.41197         0.000000     -0.003925      0.009746
      1.40447      2.40948      6.93922        -0.000000     -0.003740     -0.002045
      2.80894      3.22026      2.36219         0.000000      0.003740      0.002045
      1.40447      4.07336      1.37919         0.000000      0.002477      0.015626
      1.40447      0.80793      5.97425        -0.000000      0.002172     -0.015055
      2.80894      1.56845      1.43327         0.000000     -0.005944      0.011068
      2.80894      3.20117      5.99332        -0.000000     -0.002623     -0.007028
      2.80894      4.82181      3.32716         0.000000     -0.002172      0.015055
      2.80894      1.55638      7.92223        -0.000000     -0.002477     -0.015626
      1.40447      2.42857      3.30809         0.000000      0.002623      0.007028
      1.40447      4.06129      7.86814        -0.000000      0.005944     -0.011068
    total drift:                               -0.000000      0.000000      0.000000

  FREE ENERGIE OF THE ION-ELECTRON SYSTEM (eV)
  free  energy   TOTEN  =       -80.1194082096 eV

  energy  without entropy=      -80.1095791918  energy(sigma->0) =      -80.11449370

volume of typ            1:     6.2 %

[...]

volume of typ            3:    10.3 %

total charge

# of ion       s       p       d       tot
    1        2.073   0.233   0.089   2.395
    2        0.301   0.416   7.828   8.545
    3        0.301   0.416   7.828   8.545
    4        0.288   0.387   7.829   8.504
    5        0.288   0.387   7.829   8.504
    6        1.265   2.779   0.006   4.050
    7        1.286   2.719   0.008   4.013
    8        1.273   2.758   0.007   4.038
    9        1.288   2.716   0.008   4.012
   10        1.286   2.719   0.008   4.013
   11        1.265   2.779   0.006   4.050
   12        1.288   2.716   0.008   4.012
   13        1.273   2.758   0.007   4.038
tot          13.47   23.78   31.46   68.72

magnetization (x)

# of ion       s       p       d       tot
    1       -0.001  -0.002  -0.000  -0.004
    2        0.000  -0.000  -0.011  -0.011
    3        0.000  -0.000  -0.011  -0.011
    4        0.000   0.000  -0.109  -0.109
    5        0.000   0.000  -0.109  -0.109
    6       -0.002  -0.010  -0.000  -0.012
    7       -0.001  -0.003  -0.000  -0.004
    8       -0.001  -0.003  -0.000  -0.004
    9       -0.002  -0.018  -0.000  -0.020
   10       -0.001  -0.003  -0.000  -0.004
   11       -0.002  -0.010  -0.000  -0.012
   12       -0.002  -0.018  -0.000  -0.020
   13       -0.001  -0.003  -0.000  -0.004
tot          -0.01   -0.07   -0.24   -0.32