 vasp.5.4.4.18Apr17-6-g9f103f2a35 (build May 12 2020 04:58:55) complex

 MD_VERSION_INFO: Compiled 2020-05-12T11:58:55-UTC in devlin.sd.materialsdesign.
 com:/home/medea2/data/build/wwolf/vasp-gpu5.4.4/13047/x86_64/src/src/build/std
 from svn 13047

 executed on                        Lin64 date 2023.03.16  11:36:02

 INCAR:
 POTCAR:    PAW_PBE Li_sv 10Sep2004
 POTCAR:    PAW_PBE Ni 02Aug2007
 POTCAR:    PAW_PBE O 08Apr2002

 POTCAR:    PAW_PBE Li_sv 10Sep2004

 POTCAR:    PAW_PBE Ni 02Aug2007

 POTCAR:    PAW_PBE O 08Apr2002

 Optimization of the real space projectors (new method)

 maximal supplied QI-value         = 22.11
 optimisation between [QCUT,QGAM] = [ 11.28, 22.77] = [ 35.61,145.23] Ry
 Optimized for a Real-space Cutoff    1.10 Angstroem

   l    n(q)    QCUT    max X(q) W(low)/X(q) W(high)/X(q)  e(spline)
   0      7    11.276    10.506    0.54E-04    0.58E-04    0.16E-07
   0      7    11.276     8.367    0.11E-03    0.14E-03    0.35E-07
   1      7    11.276     8.983    0.23E-03    0.43E-03    0.86E-07
 Optimization of the real space projectors (new method)

[...]

   l    n(q)    QCUT    max X(q) W(low)/X(q) W(high)/X(q)  e(spline)
   2      9    11.376    60.317    0.17E-03    0.16E-04    0.16E-06
   2      9    11.376    55.921    0.17E-03    0.16E-04    0.17E-06
   0     10    11.376    51.690    0.45E-04    0.60E-04    0.21E-06
   0     10    11.376    30.015    0.37E-04    0.55E-04    0.19E-06
   1     10    11.376    18.849    0.83E-04    0.11E-03    0.92E-07
   1     10    11.376    14.624    0.69E-04    0.92E-04    0.82E-07
 Optimization of the real space projectors (new method)

 maximal supplied QI-value         = 24.76
 optimisation between [QCUT,QGAM] = [ 11.39, 22.77] = [ 36.31,145.25] Ry
 Optimized for a Real-space Cutoff    1.10 Angstroem

   l    n(q)    QCUT    max X(q) W(low)/X(q) W(high)/X(q)  e(spline)
   0      7    11.387    20.381    0.22E-03    0.48E-03    0.18E-06
   0      7    11.387    15.268    0.22E-03    0.52E-03    0.19E-06
   1      7    11.387     5.964    0.22E-03    0.73E-03    0.24E-06
   1      7    11.387     5.382    0.19E-03    0.60E-03    0.21E-06

  PAW_PBE Li_sv 10Sep2004               :
  PAW_PBE Ni 02Aug2007                  :
  PAW_PBE O 08Apr2002                   :

 POSCAR: ce36
  positions in direct lattice
 exchange correlation table for  LEXCH =       14
   RHO(1)=    0.500       N(1)  =     2000
   RHO(2)=  100.500       N(2)  =     4000

 ion  position               nearest neighbor table
   1  0.000  0.000  0.000-  12 2.12   9 2.12  10 2.13   7 2.13   8 2.14  13 2.14
   2  0.251  0.509  0.378-  11 1.86   6 1.87   8 1.87   9 1.88  12 1.89  10 1.91   4 2.79   3 2.79
                             5 2.80   3 2.80   5 2.80   4 2.81
   3  0.749  0.491  0.622-   6 1.86  11 1.87  13 1.87  12 1.88   9 1.89   7 1.91   5 2.79   2 2.79
                             4 2.80   2 2.80   4 2.80   5 2.81
   4  0.250  0.502  0.875-  12 1.86   6 1.87   8 1.87  10 1.87   7 1.87  13 1.90   2 2.79   3 2.80
                             3 2.80   5 2.80   5 2.81   2 2.81
   5  0.750  0.498  0.125-   9 1.86  11 1.87  13 1.87   7 1.87  10 1.87   8 1.90   3 2.79   2 2.80
                             2 2.80   4 2.80   4 2.81   3 2.81
   6  0.380  0.305  0.574-   3 1.86   4 1.87   2 1.87
   7  0.887  0.296  0.830-   5 1.87   4 1.87   3 1.91   1 2.13
   8  0.375  0.304  0.077-   4 1.87   2 1.87   5 1.90   1 2.14
   9  0.889  0.299  0.318-   5 1.86   2 1.88   3 1.89   1 2.12
  10  0.113  0.704  0.170-   4 1.87   5 1.87   2 1.91   1 2.13
  11  0.620  0.695  0.426-   2 1.86   5 1.87   3 1.87
  12  0.111  0.701  0.682-   4 1.86   3 1.88   2 1.89   1 2.12
  13  0.625  0.696  0.923-   5 1.87   3 1.87   4 1.90   1 2.14

  LATTYP: Found a triclinic cell.
 ALAT       =    10.9089631501
 B/A-ratio  =     0.4446747159
 C/A-ratio  =     0.5127283718
 COS(alpha) =     0.0001632800
 COS(beta)  =     0.3824082341
 COS(gamma) =     0.8128580478

  Lattice vectors:

 A1 = (  -8.8674384900,  -3.4091298500,  -5.3620747200)
 A2 = (  -4.8509400900,   0.0000000000,   0.0000000000)
 A3 = (  -0.0009132800,   1.5917127000,  -5.3620747200)

Analysis of symmetry for initial positions (statically):
 Subroutine PRICEL returns:
 Original cell was already a primitive cell.

 Routine SETGRP: Setting up the symmetry group for a
 triclinic supercell.

 Subroutine GETGRP returns: Found  2 space group operations
 (whereof  2 operations were pure point group operations)
 out of a pool of  2 trial point group operations.

The static configuration has the point symmetry S_2 .

Analysis of symmetry for dynamics (positions and initial velocities):
 Subroutine PRICEL returns:
 Original cell was already a primitive cell.

[...]

The dynamic configuration has the point symmetry S_2 .

Analysis of structural, dynamic, and magnetic symmetry:
 Subroutine PRICEL returns:
 Original cell was already a primitive cell.

 Routine SETGRP: Setting up the symmetry group for a
 triclinic supercell.

 Subroutine GETGRP returns: Found  2 space group operations
 (whereof  2 operations were pure point group operations)
 out of a pool of  2 trial point group operations.

The magnetic configuration has the point symmetry S_2 .

 Subroutine INISYM returns: Found  2 space group operations
 (whereof  2 operations are pure point group operations),
 and found     1 'primitive' translations

 KPOINTS: Automatic mesh

Automatic generation of k-mesh.
Space group operators:
 irot       det(A)        alpha          n_x          n_y          n_z        tau_x        tau_y        tau_z
    1     1.000000     0.000000     1.000000     0.000000     0.000000     0.000000     0.000000     0.000000
    2    -1.000000     0.000000     1.000000     0.000000     0.000000     0.000000     0.000000     0.000000

 Subroutine IBZKPT returns following result:

 Found     92 irreducible k-points:

 Following reciprocal coordinates:
            Coordinates               Weight
  0.000000  0.000000  0.000000      1.000000
  0.166667 -0.000000 -0.000000      2.000000
  0.333333 -0.000000  0.000000      2.000000
  0.500000 -0.000000  0.000000      1.000000
  0.000000  0.166667 -0.000000      2.000000
  0.166667  0.166667 -0.000000      2.000000
  0.333333  0.166667 -0.000000      2.000000
  0.500000  0.166667  0.000000      2.000000
 -0.333333  0.166667 -0.000000      2.000000
 -0.166667  0.166667 -0.000000      2.000000
  0.000000  0.333333  0.000000      2.000000
  0.166667  0.333333 -0.000000      2.000000
  0.333333  0.333333 -0.000000      2.000000
  0.500000  0.333333  0.000000      2.000000
 -0.333333  0.333333 -0.000000      2.000000
 -0.166667  0.333333 -0.000000      2.000000
  0.000000  0.500000 -0.000000      1.000000
  0.166667  0.500000  0.000000      2.000000
  0.333333  0.500000 -0.000000      2.000000
  0.500000  0.500000  0.000000      1.000000
  0.000000  0.000000  0.200000      2.000000
  0.166667 -0.000000  0.200000      2.000000
  0.333333 -0.000000  0.200000      2.000000
  0.500000 -0.000000  0.200000      2.000000
 -0.333333  0.000000  0.200000      2.000000
 -0.166667  0.000000  0.200000      2.000000
  0.000000  0.166667  0.200000      2.000000
  0.166667  0.166667  0.200000      2.000000
  0.333333  0.166667  0.200000      2.000000
  0.500000  0.166667  0.200000      2.000000
 -0.333333  0.166667  0.200000      2.000000
 -0.166667  0.166667  0.200000      2.000000
  0.000000  0.333333  0.200000      2.000000
  0.166667  0.333333  0.200000      2.000000
  0.333333  0.333333  0.200000      2.000000
  0.500000  0.333333  0.200000      2.000000
 -0.333333  0.333333  0.200000      2.000000
 -0.166667  0.333333  0.200000      2.000000
  0.000000  0.500000  0.200000      2.000000
  0.166667  0.500000  0.200000      2.000000
  0.333333  0.500000  0.200000      2.000000
  0.500000  0.500000  0.200000      2.000000
 -0.333333  0.500000  0.200000      2.000000
 -0.166667  0.500000  0.200000      2.000000
  0.000000 -0.333333  0.200000      2.000000
  0.166667 -0.333333  0.200000      2.000000
  0.333333 -0.333333  0.200000      2.000000
  0.500000 -0.333333  0.200000      2.000000
 -0.333333 -0.333333  0.200000      2.000000
 -0.166667 -0.333333  0.200000      2.000000
  0.000000 -0.166667  0.200000      2.000000
  0.166667 -0.166667  0.200000      2.000000
  0.333333 -0.166667  0.200000      2.000000
  0.500000 -0.166667  0.200000      2.000000
 -0.333333 -0.166667  0.200000      2.000000
 -0.166667 -0.166667  0.200000      2.000000
  0.000000  0.000000  0.400000      2.000000
  0.166667 -0.000000  0.400000      2.000000
  0.333333 -0.000000  0.400000      2.000000
  0.500000 -0.000000  0.400000      2.000000
[...]
  0.500000  0.500000  0.400000      2.000000
 -0.333333  0.500000  0.400000      2.000000
 -0.166667  0.500000  0.400000      2.000000
  0.000000 -0.333333  0.400000      2.000000
  0.166667 -0.333333  0.400000      2.000000
  0.333333 -0.333333  0.400000      2.000000
  0.500000 -0.333333  0.400000      2.000000
 -0.333333 -0.333333  0.400000      2.000000
 -0.166667 -0.333333  0.400000      2.000000
  0.000000 -0.166667  0.400000      2.000000
  0.166667 -0.166667  0.400000      2.000000
  0.333333 -0.166667  0.400000      2.000000
  0.500000 -0.166667  0.400000      2.000000
 -0.333333 -0.166667  0.400000      2.000000
 -0.166667 -0.166667  0.400000      2.000000

 Following cartesian coordinates:
            Coordinates               Weight
  0.000000  0.000000  0.000000      1.000000
  0.034358  0.005739  0.001698      2.000000
  0.068715  0.011478  0.003396      2.000000
  0.103073  0.017218  0.005093      1.000000
  0.000000  0.033328  0.009893      2.000000
  0.034358  0.039067  0.011591      2.000000
  0.068715  0.044806  0.013289      2.000000
  0.103073  0.050545  0.014987      2.000000
 -0.068715  0.021849  0.006498      2.000000
 -0.034358  0.027589  0.008195      2.000000
  0.000000  0.066655  0.019786      2.000000
  0.034358  0.072395  0.021484      2.000000
  0.068715  0.078134  0.023182      2.000000
  0.103073  0.083873  0.024880      2.000000
 -0.068715  0.055177  0.016391      2.000000
 -0.034358  0.060916  0.018089      2.000000
  0.000000  0.099983  0.029680      1.000000
  0.034358  0.105722  0.031377      2.000000
  0.068715  0.111462  0.033075      2.000000
  0.103073  0.117201  0.034773      1.000000
  0.000000  0.000000  0.037299      2.000000
  0.034358  0.005739  0.038997      2.000000
  0.068715  0.011478  0.040695      2.000000
  0.103073  0.017218  0.042392      2.000000
 -0.068715 -0.011478  0.033903      2.000000
 -0.034358 -0.005739  0.035601      2.000000
  0.000000  0.033328  0.047192      2.000000
  0.034358  0.039067  0.048890      2.000000
  0.068715  0.044806  0.050588      2.000000
  0.103073  0.050545  0.052286      2.000000
 -0.068715  0.021849  0.043797      2.000000
 -0.034358  0.027589  0.045494      2.000000
  0.000000  0.066655  0.057085      2.000000
  0.034358  0.072395  0.058783      2.000000
  0.068715  0.078134  0.060481      2.000000
  0.103073  0.083873  0.062179      2.000000
 -0.068715  0.055177  0.053690      2.000000
 -0.034358  0.060916  0.055388      2.000000
  0.000000  0.099983  0.066979      2.000000
  0.034358  0.105722  0.068676      2.000000
[...]
 k-point 86 :  -0.1667-0.3333 0.4000  plane waves:    3298
 k-point 87 :   0.0000-0.1667 0.4000  plane waves:    3301
 k-point 88 :   0.1667-0.1667 0.4000  plane waves:    3305
 k-point 89 :   0.3333-0.1667 0.4000  plane waves:    3310
 k-point 90 :   0.5000-0.1667 0.4000  plane waves:    3303
 k-point 91 :  -0.3333-0.1667 0.4000  plane waves:    3308
 k-point 92 :  -0.1667-0.1667 0.4000  plane waves:    3295

 maximum and minimum number of plane-waves per node :      3331     3283

 maximum number of plane-waves:      3331
 maximum index in each direction:
   IXMAX=    9   IYMAX=    9   IZMAX=   10
   IXMIN=   -9   IYMIN=   -9   IZMIN=  -10

 The following grids will avoid any aliasing or wrap around errors in the Hartre
 e energy
  - symmetry arguments have not been applied
  - exchange correlation energies might require even more grid points
  - we recommend to set PREC=Normal or Accurate and rely on VASP defaults
 WARNING: aliasing errors must be expected set NGX to    40 to avoid them
 NGY is ok and might be reduce to    40
 NGZ is ok and might be reduce to    42

 serial   3D FFT for wavefunctions
 parallel 3D FFT for charge:
    minimum data exchange during FFTs selected (reduces bandwidth)

 Broyden mixing: mesh for mixing (old mesh)
   NGX = 17   NGY = 19   NGZ = 21
  (NGX  = 72   NGY  = 80   NGZ  = 84)
  gives a total of   6783 points

 initial charge density was supplied:
 charge density of overlapping atoms calculated
 number of electron      91.0000000 magnetization      10.0000000
 keeping initial charge density in first step

 Maximum index for non-local projection operator         6069
 Maximum index for augmentation-charges         1021 (set IRDMAX)

 First call to EWALD:  gamma=   0.350
 Maximum number of real-space cells 3x 3x 3
 Maximum number of reciprocal cells 3x 3x 3

--------------------------------------- Iteration      1(   1)  ---------------------------------------

 eigenvalue-minimisations  : 23552
 total energy-change (2. order) : 0.8907888E+03  (-0.4251368E+04)
 number of electron      91.0000000 magnetization      10.0000000
 augmentation part       91.0000000 magnetization      10.0000000

 Free energy of the ion-electron system (eV)
  alpha Z        PSCENC =       277.69504900
  Ewald energy   TEWEN  =     -5099.42314165
  -Hartree energ DENC   =     -3035.50465655
  -exchange      EXHF   =         0.00000000
  -V(xc)+E(xc)   XCENC  =       368.94471111
  PAW double counting   =      6695.71924497    -6989.86216938
  entropy T*S    EENTRO =        -0.00358273
  eigenvalues    EBANDS =       718.78795699
  atomic energy  EATOM  =      7954.43542899
  Solvation  Ediel_sol  =         0.00000000
  free energy    TOTEN  =       890.78884077 eV

  energy without entropy =      890.79242349  energy(sigma->0) =      890.79063213

[...]

 eigenvalue-minimisations  : 26064
 total energy-change (2. order) :-0.8935689E+03  (-0.8029385E+03)
 number of electron      91.0000000 magnetization      10.0000000
 augmentation part       91.0000000 magnetization      10.0000000

[...]

 Broyden mixing:
  rms(total) = 0.61058E+01    rms(broyden)= 0.61052E+01
  rms(prec ) = 0.96113E+01
  weight for this iteration     100.00

[...]

 eigenvalues of (default mixing * dielectric matrix)
  average eigenvalue GAMMA=   0.2278
  0.2278

[...]

 eigenvalue-minimisations  : 36480
 total energy-change (2. order) : 0.5626535E-02  (-0.5470936E-02)
 number of electron      90.9999950 magnetization      -0.0569660
 augmentation part       29.9811383 magnetization      -0.0540526

[...]

 Broyden mixing:
  rms(total) = 0.14793E-02    rms(broyden)= 0.14786E-02
  rms(prec ) = 0.18200E-02
  weight for this iteration     100.00

 eigenvalues of (default mixing * dielectric matrix)
  average eigenvalue GAMMA=   0.9622
  2.4806  2.2639  1.2154  1.2154  0.8451  0.8451  0.8676  0.1926  0.6723  0.4682
  0.4682  0.4411  0.5331

[...]

--------------------------------------- Iteration      1(  19)  ---------------------------------------

 eigenvalue-minimisations  : 20544
 total energy-change (2. order) :-0.4393853E-05  (-0.7726421E-06)
 number of electron      90.9999950 magnetization      -0.0227798
 augmentation part       29.9752724 magnetization      -0.0152607

 Free energy of the ion-electron system (eV)
  alpha Z        PSCENC =       277.69504900
  Ewald energy   TEWEN  =     -5099.42314165
  -Hartree energ DENC   =     -2954.97784567
  -exchange      EXHF   =         0.00000000
  -V(xc)+E(xc)   XCENC  =       365.43905136
  PAW double counting   =      8902.07343300    -9210.82675434
  entropy T*S    EENTRO =        -0.00950449
  eigenvalues    EBANDS =      -314.73568402
  atomic energy  EATOM  =      7954.43542899
  Solvation  Ediel_sol  =         0.00000000
  free energy    TOTEN  =       -80.32996784 eV

  energy without entropy =      -80.32046334  energy(sigma->0) =      -80.32521559

 average (electrostatic) potential at core
  the test charge radii are     0.7079  0.9791  0.7215
  (the norm of the test charge is              1.0000)
       1 -59.0865       2 -88.7073       3 -88.7073       4 -88.7803       5 -88.7803
       6 -71.9603       7 -71.9314       8 -71.9418       9 -71.9136      10 -71.9314
      11 -71.9603      12 -71.9136      13 -71.9418

 E-fermi :   4.1847     XC(G=0): -11.0474     alpha+bet :-11.2634

 spin component 1

 k-point     1 :       0.0000    0.0000    0.0000
  band No.  band energies     occupation
      1     -39.7605      1.00000
      2     -16.5230      1.00000
      3     -14.8187      1.00000
      4     -14.8061      1.00000
      5     -14.5955      1.00000
      6     -14.5505      1.00000
      7     -14.3395      1.00000
      8     -14.3244      1.00000
      9     -14.1964      1.00000
     10      -3.6441      1.00000
     11      -2.9484      1.00000
     12      -2.7779      1.00000
     13      -2.7478      1.00000
     14      -2.6290      1.00000
     15      -2.5502      1.00000
     16      -2.3447      1.00000
     17      -2.3372      1.00000
     18      -1.7703      1.00000
     19      -1.7403      1.00000
     20      -1.5841      1.00000
     21      -1.5128      1.00000
     22      -1.1140      1.00000
     23      -1.0188      1.00000
     24      -0.8787      1.00000
     25      -0.6269      1.00000
     26      -0.4972      1.00000
     27       0.3022      1.00000
     28       0.6861      1.00000
     29       0.7213      1.00000
     30       0.8723      1.00000
     31       1.0953      1.00000
     32       1.1225      1.00000
     33       1.4630      1.00000
     34       1.5227      1.00000
     35       1.6856      1.00000
     36       1.6899      1.00000
     37       1.8561      1.00000
     38       1.8824      1.00000
     39       1.9416      1.00000
     40       1.9872      1.00000
     41       1.9916      1.00000
     42       2.1710      1.00000
     43       2.5958      1.00000
     44       2.6315      1.00000
     45       2.6972      1.00000
     46       4.3378      0.00001
     47       4.4510      0.00000
     48       4.4760      0.00000
     49       4.5266      0.00000
     50       4.5678      0.00000
     51       5.0787      0.00000
     52       5.2302      0.00000
     53       5.2388      0.00000
     54      10.1513      0.00000
     55      13.2887      0.00000
     56      14.0765      0.00000
     57      14.9966      0.00000
     58      15.0307      0.00000
     59      15.6812      0.00000
     60      16.2771      0.00000
     61      16.5180      0.00000
     62      16.7631      0.00000
     63      16.8079      0.00000
     64      17.2098      0.00000

[...]

 spin component 2

[...]

 k-point    92 :      -0.1667   -0.1667    0.4000
  band No.  band energies     occupation
      1     -39.7606      1.00000
      2     -16.0607      1.00000
      3     -15.6086      1.00000
      4     -14.7604      1.00000
      5     -14.6133      1.00000
      6     -14.3750      1.00000
      7     -14.3492      1.00000
      8     -14.2965      1.00000
      9     -14.1959      1.00000
     10      -3.0808      1.00000
     11      -2.8557      1.00000
     12      -2.7601      1.00000
     13      -2.6100      1.00000
     14      -2.5045      1.00000
     15      -2.4579      1.00000
     16      -2.3132      1.00000
     17      -2.1095      1.00000
     18      -2.0271      1.00000
     19      -1.8181      1.00000
     20      -1.7588      1.00000
     21      -1.4541      1.00000
     22      -1.0276      1.00000
     23      -0.9078      1.00000
     24      -0.7235      1.00000
     25      -0.6393      1.00000
     26      -0.5411      1.00000
     27      -0.4029      1.00000
     28      -0.0533      1.00000
     29       0.2930      1.00000
     30       0.3675      1.00000
     31       0.5230      1.00000
     32       1.4921      1.00000
     33       1.5720      1.00000
     34       1.6259      1.00000
     35       1.7096      1.00000
     36       1.8422      1.00000
     37       1.9470      1.00000
     38       2.0735      1.00000
     39       2.2195      1.00000
     40       2.3213      1.00000
     41       2.4113      1.00000
     42       2.5282      1.00000
     43       2.5598      1.00000
     44       2.6032      1.00000
     45       2.7285      1.00000
     46       4.1761      0.59603
     47       4.3063      0.00029
     48       4.3987      0.00000
     49       4.4971      0.00000
     50       4.5495      0.00000
     51       4.6585      0.00000
     52       4.9119      0.00000
     53       5.0229      0.00000
     54      11.5363      0.00000
     55      12.8286      0.00000
     56      14.5648      0.00000
     57      14.7735      0.00000
     58      15.0714      0.00000
     59      15.4167      0.00000
     60      16.5976      0.00000
     61      16.9014      0.00000
     62      17.1083      0.00000
     63      17.1445      0.00000
     64      17.4669      0.00000

 soft charge-density along one line, spin component           1
         0         1         2         3         4         5         6         7         8         9
 total charge-density along one line

 soft charge-density along one line, spin component           2
         0         1         2         3         4         5         6         7         8         9
 total charge-density along one line

------------------------ aborting loop because EDIFF is reached ----------------------------------------

  FORCE on cell =-STRESS in cart. coord.  units (eV):
  Direction    XX          YY          ZZ          XY          YZ          ZX
  Alpha Z   277.69505   277.69505   277.69505
  Ewald    -406.71328 -3971.09216  -721.62897    -6.38555 -1060.21762    -3.08406
  Hartree  1940.55847  -693.47135  1707.93081    -3.45958  -783.75517    -1.35241
  E(xc)    -463.30049  -463.84602  -463.34860    -0.00186    -0.16313    -0.00101
  Local   -3275.49051  2871.98312 -2732.75578     9.42820  1828.85506     4.15974
  n-local  -207.48670  -215.42759  -208.31304    -0.05687    -2.28555    -0.02247
  augment   763.07419   777.98286   764.46346     0.14121     4.42026     0.13621
  Kinetic  1371.67163  1416.41027  1375.96508     0.30613    13.19529     0.15824
  Fock        0.00000     0.00000     0.00000     0.00000     0.00000     0.00000
  Total        0.0083619      0.2341760      0.0080133     -0.0283181      0.0491372     -0.0057613
  in kB        0.1029949      2.8843701      0.0987002     -0.3487969      0.6052279     -0.0709627

 VOLUME and BASIS-vectors are now :
  energy-cutoff  :      500.00
  volume of cell :      130.08
      direct lattice vectors                 reciprocal lattice vectors
     4.850940090  0.000000000  0.000000000     0.206145609  0.034435149  0.010186840
    -0.835354970  5.000842550  0.000000000     0.000000000  0.199966304  0.059359282
     0.000913280 -1.591712700  5.362074720     0.000000000  0.000000000  0.186494977

  length of vectors
     4.850940090  5.070132556  5.593334914     0.209250002  0.208590620  0.186494977

 FORCES acting on ions
    electron-ion (+dipol)            ewald-force                    non-local-force                 convergence-correction
   -.369E-13 -.284E-13 -.858E-13   0.643E-12 0.878E-12 0.149E-11   -.160E-22 0.000E+00 0.000E+00   -.799E-14 -.280E-13 0.658E-14
   -.690E+01 -.539E+02 -.306E+02   0.707E+01 0.544E+02 0.309E+02   -.175E+00 -.507E+00 -.355E+00   0.409E-02 0.181E-02 0.272E-03
   0.690E+01 0.539E+02 0.306E+02   -.707E+01 -.544E+02 -.309E+02   0.175E+00 0.507E+00 0.355E+00   -.409E-02 -.181E-02 -.272E-03
   -.354E+02 -.107E+02 0.130E+02   0.359E+02 0.107E+02 -.133E+02   -.478E+00 -.248E-01 0.208E+00   0.270E-02 -.237E-03 -.382E-04
   0.354E+02 0.107E+02 -.130E+02   -.359E+02 -.107E+02 0.133E+02   0.478E+00 0.248E-01 -.208E+00   -.270E-02 0.237E-03 0.382E-04
   -.381E+01 0.367E+03 0.112E+03   0.306E+01 -.392E+03 -.120E+03   0.747E+00 0.249E+02 0.792E+01   0.889E-03 -.163E-03 0.176E-02
   0.194E+02 0.347E+03 0.138E+03   -.208E+02 -.367E+03 -.147E+03   0.135E+01 0.204E+02 0.890E+01   -.592E-03 0.134E-02 0.126E-02
   -.305E+02 0.343E+03 0.984E+02   0.331E+02 -.364E+03 -.104E+03   -.255E+01 0.208E+02 0.567E+01   0.241E-02 0.266E-02 -.131E-02
   0.139E+02 0.356E+03 0.704E+02   -.142E+02 -.379E+03 -.743E+02   0.286E+00 0.223E+02 0.387E+01   -.250E-02 -.634E-03 -.124E-02
   -.194E+02 -.347E+03 -.138E+03   0.208E+02 0.367E+03 0.147E+03   -.135E+01 -.204E+02 -.890E+01   0.592E-03 -.134E-02 -.126E-02
   0.381E+01 -.367E+03 -.112E+03   -.306E+01 0.392E+03 0.120E+03   -.747E+00 -.249E+02 -.792E+01   -.889E-03 0.163E-03 -.176E-02
   -.139E+02 -.356E+03 -.704E+02   0.142E+02 0.379E+03 0.743E+02   -.286E+00 -.223E+02 -.387E+01   0.250E-02 0.634E-03 0.124E-02
   0.305E+02 -.343E+03 -.984E+02   -.331E+02 0.364E+03 0.104E+03   0.255E+01 -.208E+02 -.567E+01   -.241E-02 -.266E-02 0.131E-02
   0.409E-10 -.411E-11 -.254E-10   0.497E-13 -.171E-12 0.284E-13   0.000E+00 0.355E-14 0.355E-14   -.118E-12 0.223E-12 0.111E-12

 POSITION                                       TOTAL-FORCE (eV/Angst)
      0.00000      0.00000      0.00000         0.000000     -0.000000     -0.000000
      0.79377      1.94445      2.02802         0.004491      0.001541      0.002936
      3.22273      1.46468      3.33406        -0.004491     -0.001541     -0.002936
      0.79584      1.11812      4.68951        -0.004289      0.000004      0.000312
      3.22066      2.29101      0.67257         0.004289     -0.000004     -0.000312
      1.58685      0.61334      3.07694        -0.003076      0.015429      0.002408
      4.05537      0.15742      4.44832        -0.001550      0.011823      0.000925
      1.56663      1.39728      0.41096        -0.006583      0.012038     -0.002904
      4.06257      0.99099      1.70485        -0.005664      0.011151     -0.000780
     -0.03887      3.25171      0.91376         0.001550     -0.011823     -0.000925
      2.42964      2.79579      2.28513         0.003076     -0.015429     -0.002408
     -0.04607      2.41814      3.65722         0.005664     -0.011151      0.000780
      2.44986      2.01185      4.95112         0.006583     -0.012038      0.002904
    total drift:                                0.000000     -0.000000     -0.000000

  FREE ENERGIE OF THE ION-ELECTRON SYSTEM (eV)
  free  energy   TOTEN  =       -80.3299678393 eV

  energy  without entropy=      -80.3204633447  energy(sigma->0) =      -80.32521559

volume of typ            1:     6.0 %

[...]

volume of typ            3:    10.0 %

total charge

# of ion       s       p       d       tot
    1        2.065   0.212   0.081   2.357
    2        0.293   0.399   7.827   8.518
    3        0.293   0.399   7.827   8.518
    4        0.298   0.412   7.830   8.541
    5        0.298   0.412   7.830   8.541
    6        1.285   2.725   0.008   4.018
    7        1.275   2.749   0.007   4.032
    8        1.275   2.752   0.007   4.035
    9        1.273   2.757   0.007   4.037
   10        1.275   2.749   0.007   4.032
   11        1.285   2.725   0.008   4.018
   12        1.273   2.757   0.007   4.037
   13        1.275   2.752   0.007   4.035
tot          13.46   23.80   31.45   68.72

magnetization (x)

# of ion       s       p       d       tot
    1       -0.000  -0.000  -0.000  -0.000
    2        0.000   0.000  -0.006  -0.006
    3        0.000   0.000  -0.006  -0.006
    4        0.000  -0.000  -0.002  -0.002
    5        0.000  -0.000  -0.002  -0.002
    6       -0.000  -0.001  -0.000  -0.001
    7       -0.000  -0.001  -0.000  -0.001
    8       -0.000  -0.001  -0.000  -0.001
    9       -0.000  -0.000  -0.000  -0.000
   10       -0.000  -0.001  -0.000  -0.001
   11       -0.000  -0.001  -0.000  -0.001
   12       -0.000  -0.000  -0.000  -0.000
   13       -0.000  -0.001  -0.000  -0.001
tot          -0.00   -0.00   -0.02   -0.02