 vasp.5.4.4.18Apr17-6-g9f103f2a35 (build May 12 2020 04:58:55) complex

 MD_VERSION_INFO: Compiled 2020-05-12T11:58:55-UTC in devlin.sd.materialsdesign.
 com:/home/medea2/data/build/wwolf/vasp-gpu5.4.4/13047/x86_64/src/src/build/std
 from svn 13047

 executed on                        Lin64 date 2023.03.17  12:44:01

 INCAR:
 POTCAR:    PAW_PBE Li_sv 10Sep2004
 POTCAR:    PAW_PBE Ni 02Aug2007
 POTCAR:    PAW_PBE O 08Apr2002

 POTCAR:    PAW_PBE Li_sv 10Sep2004

 POTCAR:    PAW_PBE Ni 02Aug2007

 POTCAR:    PAW_PBE O 08Apr2002

 Optimization of the real space projectors (new method)

 maximal supplied QI-value         = 22.11
 optimisation between [QCUT,QGAM] = [ 11.28, 22.77] = [ 35.61,145.23] Ry
 Optimized for a Real-space Cutoff    1.10 Angstroem

   l    n(q)    QCUT    max X(q) W(low)/X(q) W(high)/X(q)  e(spline)
   0      7    11.276    10.506    0.54E-04    0.58E-04    0.16E-07
   0      7    11.276     8.367    0.11E-03    0.14E-03    0.35E-07
   1      7    11.276     8.983    0.23E-03    0.43E-03    0.86E-07
 Optimization of the real space projectors (new method)

[...]

   l    n(q)    QCUT    max X(q) W(low)/X(q) W(high)/X(q)  e(spline)
   2      9    11.376    60.317    0.17E-03    0.16E-04    0.16E-06
   2      9    11.376    55.921    0.17E-03    0.16E-04    0.17E-06
   0     10    11.376    51.690    0.45E-04    0.60E-04    0.21E-06
   0     10    11.376    30.015    0.37E-04    0.55E-04    0.19E-06
   1     10    11.376    18.849    0.83E-04    0.11E-03    0.92E-07
   1     10    11.376    14.624    0.69E-04    0.92E-04    0.82E-07
 Optimization of the real space projectors (new method)

 maximal supplied QI-value         = 24.76
 optimisation between [QCUT,QGAM] = [ 11.39, 22.77] = [ 36.31,145.25] Ry
 Optimized for a Real-space Cutoff    1.10 Angstroem

   l    n(q)    QCUT    max X(q) W(low)/X(q) W(high)/X(q)  e(spline)
   0      7    11.387    20.381    0.22E-03    0.48E-03    0.18E-06
   0      7    11.387    15.268    0.22E-03    0.52E-03    0.19E-06
   1      7    11.387     5.964    0.22E-03    0.73E-03    0.24E-06
   1      7    11.387     5.382    0.19E-03    0.60E-03    0.21E-06

  PAW_PBE Li_sv 10Sep2004               :
  PAW_PBE Ni 02Aug2007                  :
  PAW_PBE O 08Apr2002                   :

 POSCAR: ce219565_1
  positions in direct lattice
 exchange correlation table for  LEXCH =       14
   RHO(1)=    0.500       N(1)  =     2000
   RHO(2)=  100.500       N(2)  =     4000

 ion  position               nearest neighbor table
   1  0.982  0.501  0.982-  94 1.95  93 1.98  81 2.12  58 2.19  45 2.24  41 2.80  40 2.82
   2  0.108  0.833  0.223-  47 2.04  60 2.09  42 2.11  59 2.12  65 2.16  66 2.17
   3  0.206  0.165  0.117-  43 1.98  44 2.02  50 2.11  67 2.15  80 2.20  16 2.82  15 2.84  27 2.84

   4  0.336  0.501  0.999-  46 2.05  87 2.09  51 2.11  52 2.13  82 2.16  81 2.17
   5  0.467  0.833  0.244-  72 1.99  71 2.00  66 2.13  53 2.16  48 2.21  30 2.79  29 2.80
   6  0.555  0.165  0.106-  73 2.08  86 2.10  56 2.15  49 2.16  55 2.17  50 2.17
   7  0.993  0.499  0.334-  63 2.08  76 2.10  58 2.11  57 2.13  45 2.19  64 2.20
   8  0.094  0.832  0.565-  77 1.99  78 2.02  83 2.12  84 2.13  60 2.16  33 2.79  32 2.80
   9  0.664  0.501  0.367-  75 1.98  70 1.99  76 2.05  51 2.06  29 2.76  31 2.76
  10  0.907  0.168  0.471-  62 2.00  79 2.04  61 2.07  74 2.14  25 2.80  33 2.83
  11  0.348  0.501  0.656-  88 2.00  69 2.02  64 2.11  63 2.16  87 2.18  28 2.80  38 2.80
  12  0.448  0.833  0.889-  89 2.10  53 2.12  84 2.14  48 2.14  54 2.14  83 2.18
  13  0.558  0.166  0.753-  68 2.03  91 2.05  85 2.09  86 2.17  92 2.20  55 2.28  28 2.83
  14  0.778  0.832  0.856-  90 1.98  95 2.00  89 2.05  42 2.07  39 2.76  41 2.77
  15  1.000  0.999  0.001-  80 1.86  59 1.88  44 1.89  95 1.89  92 1.89  47 1.89  21 2.80  24 2.81
                            18 2.81  27 2.81  33 2.82  39 2.83   3 2.84
  16  0.115  0.332  0.227-  43 1.85  67 1.86  58 1.87  64 1.89  61 2.04  46 2.06  28 2.78  25 2.81
                            19 2.82   3 2.82  40 2.82  34 2.83  22 2.87
  17  0.223  0.668  0.112-  81 1.85  66 1.85  48 1.92  45 1.93  51 2.03  42 2.03  26 2.80  35 2.80
                            29 2.81  41 2.81  20 2.84  23 2.85
  18  0.328  1.000  0.995-  50 1.85  80 1.86  53 1.87  83 1.88  47 2.03  86 2.05  33 2.78  36 2.80
                            15 2.81  27 2.83  30 2.84  21 2.88
  19  0.444  0.333  0.219-  67 1.87  70 1.87  46 1.88  73 1.88  52 1.88  49 1.88  34 2.79  22 2.79
                            37 2.81  16 2.82  31 2.82  28 2.82
  20  0.558  0.665  0.111-  51 1.85  48 1.86  72 1.87  54 1.89  57 1.90  87 1.92  38 2.79  23 2.80
                            29 2.81  32 2.82  17 2.84  35 2.85
  21  0.671  0.998  0.002-  86 1.85  89 1.86  92 1.87  59 1.90  56 1.90  53 1.91  30 2.79  15 2.80
                            24 2.80  39 2.82  36 2.83  18 2.88
  22  0.773  0.335  0.219-  61 1.85  76 1.85  73 1.86  58 1.90  55 1.90  52 1.91  40 2.78  19 2.79
                            37 2.81  31 2.82  25 2.85  16 2.87
  23  0.887  0.669  0.112-  42 1.85  93 1.86  45 1.87  57 1.89  54 1.90  60 1.92  32 2.79  20 2.80
                            41 2.80  26 2.83  38 2.83  17 2.85
  24  0.999  0.002  0.334-  62 1.85  77 1.85  65 1.87  44 1.89  59 1.90  56 1.90  33 2.79  21 2.80
                            15 2.81  27 2.82  30 2.83  36 2.84
  25  0.107  0.333  0.557-  61 1.85  79 1.86  64 1.87  82 1.89  85 2.05  76 2.07  34 2.77  10 2.80
                            16 2.81  31 2.81  37 2.82  22 2.85  28 2.87
  26  0.223  0.669  0.444-  63 1.86  69 1.87  60 1.87  84 1.90  66 1.91  45 1.92  17 2.80  29 2.81
                            38 2.82  35 2.82  23 2.83  32 2.83
  27  0.331  0.002  0.332-  47 1.87  71 1.87  44 1.88  50 1.88  65 1.90  68 1.90  36 2.79  15 2.81
                            24 2.82  18 2.83  30 2.83  39 2.84   3 2.84
  28  0.444  0.335  0.555-  85 1.85  88 1.86  91 1.87  70 1.89  67 1.90  64 1.91  16 2.78  37 2.78
                            31 2.80  11 2.80  19 2.82  13 2.83  25 2.87  40 2.87
  29  0.554  0.667  0.444-  72 1.86  75 1.87  69 1.90  66 1.91  90 1.92  51 1.93   9 2.76   5 2.80
                            26 2.81  17 2.81  38 2.81  20 2.81  32 2.84  41 2.86
  30  0.664  0.998  0.330-  71 1.85  56 1.86  74 1.87  53 1.91  77 2.03  50 2.06   5 2.79  21 2.79
                            39 2.80  24 2.83  27 2.83  18 2.84  33 2.85
  31  0.775  0.336  0.556-  79 1.86  70 1.86  91 1.89  76 1.90  94 2.02  73 2.05   9 2.76  28 2.80
                            25 2.81  40 2.81  19 2.82  22 2.82  34 2.86
  32  0.890  0.668  0.445-  78 1.85  57 1.87  75 1.89  60 1.93  72 1.98  63 2.00  23 2.79  35 2.80
                             8 2.80  41 2.82  20 2.82  26 2.83  29 2.84
  33  0.001  0.999  0.666-  77 1.85  62 1.86  74 1.87  80 1.90  95 1.90  83 1.91  18 2.78  24 2.79
                             8 2.79  39 2.82  15 2.82  10 2.83  30 2.85  36 2.85
  34  0.115  0.333  0.891-  43 1.85  94 1.86  46 1.86  79 1.89  82 1.91  49 1.91  25 2.77  19 2.79
                            37 2.82  16 2.83  40 2.83  31 2.86
  35  0.219  0.665  0.777-  78 1.86  84 1.87  87 1.87  81 1.91  63 1.96  48 1.98  41 2.80  32 2.80
                            17 2.80  26 2.82  38 2.84  20 2.85
  36  0.338  0.001  0.667-  68 1.85  83 1.86  86 1.90  65 1.90  62 2.03  89 2.06  27 2.79  18 2.80
                            39 2.81  21 2.83  24 2.84  33 2.85
  37  0.445  0.333  0.886-  85 1.85  88 1.85  82 1.87  55 1.87  52 1.89  49 1.90  28 2.78  22 2.81
                            19 2.81  34 2.82  25 2.82  40 2.83
  38  0.554  0.665  0.777-  69 1.85  54 1.87  90 1.88  87 1.91  93 2.01  84 2.04  20 2.79  11 2.80
                            29 2.81  26 2.82  23 2.83  35 2.84  41 2.84
  39  0.668  0.997  0.665-  68 1.86  95 1.87  92 1.90  74 1.92  71 1.93  89 1.93  14 2.76  30 2.80
                            36 2.81  33 2.82  21 2.82  15 2.83  27 2.84
  40  0.782  0.334  0.894-  94 1.84  91 1.86  55 1.89  58 1.91  43 2.03  88 2.05  22 2.78  31 2.81
                             1 2.82  16 2.82  37 2.83  34 2.83  28 2.87
  41  0.891  0.666  0.781-  93 1.85  90 1.87  78 1.90  81 1.91  75 1.92  42 1.93  14 2.77  35 2.80
                             1 2.80  23 2.80  17 2.81  32 2.82  38 2.84  29 2.86
  42  0.988  0.740  0.001-  23 1.85  41 1.93  17 2.03  14 2.07   2 2.11
  43  0.022  0.265  0.013-  16 1.85  34 1.85   3 1.98  40 2.03
  44  0.110  0.068  0.221-  27 1.88  15 1.89  24 1.89   3 2.02
  45  0.103  0.600  0.219-  23 1.87  26 1.92  17 1.93   7 2.19   1 2.24
  46  0.232  0.405  0.102-  34 1.86  19 1.88   4 2.05  16 2.06
  47  0.215  0.928  0.122-  27 1.87  15 1.89  18 2.03   2 2.04
  48  0.346  0.736  0.009-  20 1.86  17 1.92  35 1.98  12 2.14   5 2.21
  49  0.337  0.264  0.000-  19 1.88  37 1.90  34 1.91   6 2.16
  50  0.423  0.071  0.206-  18 1.85  27 1.88  30 2.06   3 2.11   6 2.17
  51  0.457  0.594  0.222-  20 1.85  29 1.93  17 2.03   9 2.06   4 2.11
  52  0.551  0.402  0.107-  19 1.88  37 1.89  22 1.91   4 2.13
  53  0.545  0.932  0.104-  18 1.87  30 1.91  21 1.91  12 2.12   5 2.16
  54  0.663  0.733  0.995-  38 1.87  20 1.89  23 1.90  12 2.14
  55  0.663  0.267  0.995-  37 1.87  40 1.89  22 1.90   6 2.17  13 2.28
  56  0.775  0.066  0.224-  30 1.86  21 1.90  24 1.90   6 2.15
  57  0.782  0.600  0.227-  32 1.87  23 1.89  20 1.90   7 2.13
  58  0.899  0.400  0.121-  16 1.87  22 1.90  40 1.91   7 2.11   1 2.19
  59  0.893  0.931  0.114-  15 1.88  21 1.90  24 1.90   2 2.12
  60  0.008  0.737  0.337-  26 1.87  23 1.92  32 1.93   2 2.09   8 2.16
  61  0.984  0.266  0.343-  25 1.85  22 1.85  16 2.04  10 2.07
  62  0.097  0.070  0.549-  24 1.85  33 1.86  10 2.00  36 2.03
  63  0.120  0.594  0.548-  26 1.86  35 1.96  32 2.00   7 2.08  11 2.16
  64  0.219  0.400  0.449-  25 1.87  16 1.89  28 1.91  11 2.11   7 2.20
  65  0.217  0.935  0.442-  24 1.87  27 1.90  36 1.90   2 2.16
  66  0.332  0.736  0.328-  17 1.85  26 1.91  29 1.91   5 2.13   2 2.17
  67  0.334  0.268  0.330-  16 1.86  19 1.87  28 1.90   3 2.15
  68  0.453  0.064  0.561-  36 1.85  39 1.86  27 1.90  13 2.03
  69  0.440  0.602  0.556-  38 1.85  26 1.87  29 1.90  11 2.02
  70  0.555  0.400  0.440-  31 1.86  19 1.87  28 1.89   9 1.99
  71  0.547  0.934  0.432-  30 1.85  27 1.87  39 1.93   5 2.00
  72  0.655  0.734  0.328-  29 1.86  20 1.87  32 1.98   5 1.99
  73  0.658  0.263  0.315-  22 1.86  19 1.88  31 2.05   6 2.08
  74  0.782  0.063  0.551-  33 1.87  30 1.87  39 1.92  10 2.14
  75  0.772  0.601  0.551-  29 1.87  32 1.89  41 1.92   9 1.98
  76  0.866  0.407  0.429-  22 1.85  31 1.90   9 2.05  25 2.07   7 2.10
  77  0.906  0.930  0.451-  33 1.85  24 1.85   8 1.99  30 2.03
  78  0.002  0.731  0.666-  32 1.85  35 1.86  41 1.90   8 2.02
  79  0.992  0.270  0.664-  31 1.86  25 1.86  34 1.89  10 2.04
  80  0.110  0.065  0.891-  15 1.86  18 1.86  33 1.90   3 2.20
  81  0.114  0.599  0.898-  17 1.85  35 1.91  41 1.91   1 2.12   4 2.17
  82  0.228  0.401  0.779-  37 1.87  25 1.89  34 1.91   4 2.16
  83  0.227  0.933  0.772-  36 1.86  18 1.88  33 1.91   8 2.12  12 2.18
  84  0.317  0.738  0.665-  35 1.87  26 1.90  38 2.04   8 2.13  12 2.14
  85  0.351  0.264  0.673-  37 1.85  28 1.85  25 2.05  13 2.09
[...]
   0.496E+02 0.327E+03 -.221E+02   -.549E+02 -.343E+03 0.225E+02   0.527E+01 0.159E+02 -.366E+00   0.901E-03 -.591E-01 -.164E-02
   -.367E+02 -.324E+03 0.744E+01   0.392E+02 0.343E+03 -.772E+01   -.243E+01 -.196E+02 0.270E+00   -.263E-01 -.504E-01 0.325E-02
   -.136E+02 0.302E+03 -.220E+02   0.148E+02 -.319E+03 0.226E+02   -.115E+01 0.169E+02 -.592E+00   0.149E-01 0.183E-01 -.182E-01
   -.548E+00 -.325E+03 -.174E+02   0.134E+01 0.344E+03 0.191E+02   -.813E+00 -.192E+02 -.172E+01   0.187E-01 -.283E-01 -.148E-01
   -.545E+02 0.343E+03 -.159E+01   0.568E+02 -.363E+03 0.209E+01   -.227E+01 0.194E+02 -.507E+00   -.428E-01 0.189E-01 0.972E-02
   -.175E+02 -.344E+03 0.934E+00   0.196E+02 0.364E+03 -.126E+01   -.206E+01 -.194E+02 0.317E+00   0.269E-01 0.290E-01 0.256E-03
   0.331E+01 0.329E+03 0.239E+02   -.411E+01 -.348E+03 -.259E+02   0.790E+00 0.193E+02 0.205E+01   0.134E-01 -.331E-01 -.915E-02
   0.832E+01 -.294E+03 0.220E+02   -.906E+01 0.311E+03 -.231E+02   0.745E+00 -.172E+02 0.106E+01   -.349E-02 -.896E-02 0.246E-01
   0.317E+02 0.307E+03 -.125E+02   -.338E+02 -.327E+03 0.135E+02   0.218E+01 0.194E+02 -.954E+00   -.136E-01 0.309E-01 0.617E-02
   0.421E+02 -.332E+03 0.384E+01   -.448E+02 0.349E+03 -.421E+01   0.275E+01 -.173E+02 0.385E+00   -.193E-02 -.180E-01 -.160E-01
[...]
   0.340E+02 -.303E+03 0.339E+02   -.358E+02 0.323E+03 -.354E+02   0.180E+01 -.191E+02 0.147E+01   -.141E-02 -.515E-01 0.154E-01
   0.230E+02 0.295E+03 -.104E+02   -.243E+02 -.313E+03 0.107E+02   0.130E+01 0.177E+02 -.395E+00   -.303E-01 0.178E-01 0.823E-02
   -.468E+02 -.331E+03 -.571E+00   0.512E+02 0.347E+03 0.938E+00   -.439E+01 -.161E+02 -.364E+00   0.369E-01 -.117E-01 -.409E-02
   0.487E+02 0.375E+03 0.498E+02   -.549E+02 -.395E+03 -.537E+02   0.618E+01 0.203E+02 0.385E+01   -.834E-02 0.411E-01 0.111E-01
   0.447E+02 -.338E+03 0.185E+02   -.491E+02 0.355E+03 -.185E+02   0.434E+01 -.164E+02 0.192E-01   0.193E-02 0.428E-01 0.291E-01
   -.371E+02 0.327E+03 -.462E+01   0.391E+02 -.344E+03 0.545E+01   -.200E+01 0.170E+02 -.829E+00   0.419E-01 -.456E-01 -.186E-02
   -.730E+02 -.334E+03 -.210E+02   0.798E+02 0.354E+03 0.249E+02   -.675E+01 -.192E+02 -.394E+01   -.352E-01 -.228E-01 -.129E-01
   0.158E+02 0.304E+03 0.598E+02   -.184E+02 -.320E+03 -.646E+02   0.253E+01 0.155E+02 0.470E+01   0.265E-01 0.119E-01 0.238E-01
   -.191E+01 -.333E+03 0.439E+02   0.197E+01 0.351E+03 -.473E+02   -.294E-01 -.182E+02 0.334E+01   -.281E-01 -.176E-01 0.223E-01
   -.417E+02 0.354E+03 0.120E+02   0.445E+02 -.374E+03 -.128E+02   -.276E+01 0.200E+02 0.912E+00   0.122E-01 0.235E-01 -.426E-01
   -.338E+02 -.385E+03 0.729E+01   0.353E+02 0.406E+03 -.710E+01   -.156E+01 -.211E+02 -.195E+00   0.974E-03 0.125E-01 0.192E-02
   0.463E+02 0.359E+03 0.418E+02   -.521E+02 -.378E+03 -.448E+02   0.588E+01 0.188E+02 0.299E+01   -.269E-01 -.224E-01 0.722E-02
   0.129E+02 -.311E+03 0.613E+02   -.125E+02 0.329E+03 -.677E+02   -.486E+00 -.184E+02 0.643E+01   0.376E-01 -.296E-01 -.242E-01
   -.341E+02 0.318E+03 0.325E+02   0.371E+02 -.338E+03 -.335E+02   -.298E+01 0.199E+02 0.103E+01   -.482E-03 0.333E-01 -.508E-02
   -.100E+01 0.646E+00 -.538E+00   0.711E-14 -.455E-12 -.462E-12   0.100E+01 -.590E+00 0.521E+00   -.104E-01 -.513E-01 -.161E-02

 POSITION                                       TOTAL-FORCE (eV/Angst)
      4.20442      7.21145      7.16916         0.007551     -0.008350      0.015509
     -0.04885     12.01686      1.62902         0.004311      0.000793     -0.000937
      1.25165      2.38189      0.85581         0.001630      0.005586     -0.003864
     -1.34324      7.20969      7.29620        -0.000689     -0.004561     -0.003040
      2.89996     12.00305      1.78462        -0.003312      0.003062     -0.006809
      4.25856      2.37359      0.77670         0.000381     -0.002454     -0.000725
      7.00598      7.19742      2.43969        -0.010369      0.001330      0.007162
     -1.60349     11.98726      4.12832        -0.001670     -0.003000      0.000629
      4.07551      7.22260      2.67870         0.001681     -0.004323     -0.001751
      5.71717      2.41733      3.44214        -0.010646      0.004756      0.008959
      0.19253      7.21553      4.78958        -0.003230      0.002855     -0.003221
      0.04638     11.99861      6.49049         0.002842     -0.005547     -0.002245
      1.57245      2.38839      5.50273         0.009693     -0.000662     -0.002452
      2.98600     11.98503      6.25117         0.005763     -0.001709      0.000445
      8.43444     14.40857      0.00423        -0.001206     -0.003060     -0.002106
      0.01567      4.79070      1.65986        -0.000395      0.004156     -0.001241
      1.39698      9.62729      0.81736        -0.000530     -0.000590     -0.000458
     -1.41700     14.40135      7.26526         0.001231     -0.004619     -0.003097
      2.83845      4.80542      1.60210        -0.001930     -0.000716      0.000351
      4.23450      9.58996      0.81313         0.000974      0.000329     -0.002233
      5.63716     14.38646      0.01608         0.000776     -0.000295      0.000639
      5.62832      4.82250      1.60132         0.000071      0.004859     -0.004104
      7.02925      9.64606      0.81881        -0.001388      0.001585      0.003809
      7.07909      0.02122      2.43834        -0.001463      0.003452     -0.003958
     -1.43287      4.79698      4.07035         0.002344      0.009903     -0.002784
      0.00770      9.63430      3.24309         0.001548      0.000624      0.000173
      1.41760      0.01814      2.42640         0.001502      0.001969      0.002792
      1.43464      4.81561      4.05319        -0.005060      0.001805      0.000446
      2.81426      9.61026      3.24084        -0.004278     -0.002789     -0.000339
      4.20768     14.38451      2.41168         0.002902     -0.002788     -0.004212
      4.23300      4.83520      4.05744         0.003471      0.004793     -0.001321
      5.65669      9.62217      3.25228        -0.002394      0.000424     -0.001566
     -2.81733     14.39145      4.86326         0.004316     -0.005308      0.001028
     -2.75975      4.78462      6.50514        -0.002002      0.001815     -0.001077
     -1.41912      9.57912      5.67373        -0.004950     -0.000245      0.000950
      0.07781      0.01014      4.86899        -0.000796      0.000969      0.001900
      0.05546      4.79411      6.46984        -0.003695     -0.001109      0.005232
      1.42044      9.57440      5.67780         0.000496     -0.000151      0.004562
      2.84504     14.36501      4.85859         0.005077     -0.003784     -0.003808
      2.88553      4.80826      6.52811        -0.003100      0.000652      0.004475
      4.26289      9.59387      5.70164         0.005688     -0.002688      0.003922
      8.34244     10.67347      0.00623        -0.001022      0.010483      0.003650
      0.12706      3.82396      0.09188        -0.002354     -0.004530     -0.004239
      0.01137      0.97110      1.61173        -0.000808      0.005863     -0.000222
     -0.06961      8.65253      1.59778         0.002952     -0.002521      0.001921
      1.52724      5.83966      0.74424         0.000943      0.002778      0.001838
      1.27871     13.38543      0.89125        -0.000989     -0.003160     -0.002250
      2.86759     10.60818      0.06478        -0.004866      0.007447      0.002322
      2.84920      3.81311      0.00074        -0.003374     -0.010342     -0.002277
      2.72337      1.01833      1.50667         0.009831      0.001105     -0.001949
      2.92095      8.56524      1.62414        -0.000076     -0.009970     -0.004478
      4.21021      5.80061      0.77952        -0.004360      0.005404      0.001211
      4.14695     13.43871      0.75644         0.002474     -0.012587     -0.005815
      1.43013     10.55707      7.26784         0.000527      0.005381      0.002542
      1.44929      3.83227      7.26769         0.000973     -0.003455      0.001837
      5.62756      0.95040      1.63809        -0.002498      0.005868     -0.004875
      5.65602      8.65038      1.65885        -0.001252     -0.003011     -0.003953
      7.10383      5.77239      0.88107         0.002169      0.006879     -0.000977
      7.05969     13.43006      0.83258        -0.003734     -0.003014      0.000860
     -1.37564     10.62772      2.46167        -0.003392      0.004730     -0.000069
[...]
     -2.81010      8.62213      6.55718         0.000485     -0.004291      0.000281
     -1.33722      5.76606      5.68820        -0.000452      0.005146      0.004427
     -1.34555     13.44820      5.64120        -0.001973     -0.006401     -0.000355
     -0.11777     10.63729      4.85313        -0.002028      0.009079     -0.001384
      0.15018      3.79699      4.91517        -0.008648     -0.007507      0.002481
      0.22599      0.99751      6.48182         0.001636      0.006787      0.002626
     -0.03010      8.60194      6.45736        -0.000930     -0.001493      0.001235
      1.34724      5.81106      5.61707        -0.005231      0.004464      0.007463
      1.50796     13.32534      5.78683         0.004218     -0.002536     -0.003374
      2.84555     10.52949      4.92063         0.001159      0.005517      0.006777
      2.82843      3.89733      4.90599        -0.002292     -0.010120     -0.000512
      2.87527      0.91223      6.49522         0.003284     -0.001157     -0.004112
      2.94665      8.61464      6.56535         0.004186     -0.009781      0.006412
      4.29760      5.77668      5.84532        -0.000162      0.007266     -0.001800
      4.24362     13.43176      5.68304         0.006498     -0.009225     -0.006793
    total drift:                               -0.009511      0.004807     -0.018837

  FREE ENERGIE OF THE ION-ELECTRON SYSTEM (eV)
  free  energy   TOTEN  =      -579.5813150288 eV

  energy  without entropy=     -579.5380350383  energy(sigma->0) =     -579.55967503

volume of typ            1:    12.2 %

[...]

volume of typ            3:     9.9 %

total charge

# of ion       s       p       d       tot
    1        2.079   0.252   0.096   2.428
    2        2.075   0.240   0.091   2.406
    3        2.075   0.238   0.092   2.405
    4        2.074   0.239   0.091   2.404
    5        2.076   0.243   0.092   2.411
    6        2.067   0.220   0.083   2.370
    7        2.069   0.225   0.085   2.379
    8        2.077   0.247   0.094   2.418
    9        2.083   0.264   0.102   2.448
   10        2.072   0.233   0.088   2.393
   11        2.077   0.245   0.094   2.416
   12        2.068   0.222   0.084   2.374
   13        2.069   0.226   0.085   2.381
   14        2.082   0.261   0.100   2.442
   15        0.293   0.401   7.830   8.524
   16        0.276   0.358   7.849   8.483
   17        0.269   0.349   7.853   8.471
   18        0.276   0.360   7.852   8.488
   19        0.297   0.409   7.828   8.534
   20        0.292   0.400   7.833   8.524
   21        0.293   0.402   7.830   8.525
   22        0.295   0.406   7.828   8.528
   23        0.293   0.401   7.831   8.525
   24        0.294   0.404   7.825   8.523
   25        0.276   0.356   7.851   8.483
   26        0.290   0.395   7.833   8.518
   27        0.291   0.397   7.829   8.516
   28        0.293   0.399   7.824   8.516
   29        0.283   0.379   7.832   8.494
   30        0.275   0.355   7.851   8.482
   31        0.271   0.350   7.844   8.465
   32        0.275   0.359   7.848   8.482
   33        0.293   0.400   7.825   8.518
   34        0.294   0.403   7.825   8.521
   35        0.281   0.374   7.846   8.501
   36        0.270   0.349   7.848   8.467
   37        0.300   0.415   7.829   8.544
   38        0.274   0.355   7.850   8.478
   39        0.281   0.374   7.835   8.489
   40        0.272   0.350   7.846   8.468
   41        0.283   0.380   7.831   8.494
   42        1.266   2.770   0.006   4.042
   43        1.271   2.761   0.007   4.039
   44        1.271   2.760   0.007   4.039
   45        1.269   2.765   0.006   4.039
   46        1.269   2.765   0.006   4.040
   47        1.269   2.764   0.006   4.039
   48        1.268   2.765   0.006   4.039
   49        1.268   2.766   0.007   4.041
   50        1.266   2.770   0.006   4.041
   51        1.266   2.772   0.006   4.043
   52        1.268   2.768   0.007   4.043
   53        1.261   2.784   0.006   4.051
   54        1.265   2.775   0.007   4.047
   55        1.266   2.774   0.007   4.046
   56        1.265   2.774   0.007   4.046
   57        1.265   2.775   0.007   4.047
   58        1.261   2.785   0.007   4.052
   59        1.268   2.770   0.007   4.044
   60        1.264   2.778   0.006   4.048
[...]
   81        1.261   2.786   0.007   4.053
   82        1.265   2.775   0.007   4.047
   83        1.261   2.788   0.007   4.055
   84        1.267   2.767   0.006   4.040
   85        1.276   2.746   0.007   4.028
   86        1.266   2.769   0.006   4.041
   87        1.262   2.781   0.006   4.050
   88        1.274   2.753   0.007   4.034
   89        1.266   2.771   0.006   4.042
   90        1.271   2.765   0.007   4.043
   91        1.270   2.765   0.007   4.042
   92        1.276   2.745   0.007   4.028
   93        1.273   2.758   0.007   4.038
   94        1.271   2.764   0.007   4.042
   95        1.269   2.766   0.007   4.042
tot         105.19  163.10  213.24  481.54

magnetization (x)

# of ion       s       p       d       tot
    1        0.005   0.012   0.002   0.019
    2        0.004   0.010   0.001   0.015
    3        0.005   0.009   0.001   0.015
    4        0.004   0.008   0.001   0.013
    5        0.005   0.011   0.001   0.017
    6        0.003   0.007   0.001   0.011
    7        0.004   0.007   0.001   0.012
    8        0.005   0.010   0.002   0.016
    9        0.005   0.012   0.002   0.018
   10        0.005   0.011   0.002   0.017
   11        0.005   0.009   0.001   0.015
   12        0.004   0.007   0.001   0.011
   13        0.004   0.010   0.002   0.015
   14        0.005   0.012   0.002   0.018
   15       -0.000  -0.000   0.166   0.165
   16        0.003  -0.000   0.644   0.646
   17        0.001  -0.000   0.705   0.706
   18        0.003  -0.000   0.632   0.634
   19       -0.000  -0.000   0.100   0.099
   20       -0.001   0.000   0.165   0.164
   21       -0.001   0.000   0.141   0.140
   22       -0.001   0.001   0.079   0.079
   23       -0.001   0.000   0.149   0.149
   24       -0.001   0.000   0.127   0.126
   25        0.003  -0.000   0.658   0.661
   26       -0.001   0.000   0.202   0.201
   27       -0.001   0.000   0.146   0.146
   28       -0.001   0.000   0.078   0.077
   29       -0.001  -0.000   0.304   0.304
   30        0.003   0.000   0.669   0.671
   31        0.002  -0.000   0.663   0.664
   32        0.000  -0.000   0.602   0.602
   33       -0.001   0.000   0.104   0.103
   34       -0.001   0.001   0.070   0.070
   35       -0.000  -0.000   0.424   0.424
   36        0.002  -0.000   0.695   0.697
   37       -0.001   0.000   0.080   0.079
   38        0.002  -0.000   0.656   0.658
   39       -0.000  -0.000   0.371   0.370
   40        0.002  -0.000   0.665   0.667
   41       -0.001  -0.000   0.290   0.290
   42        0.009   0.102   0.000   0.112
   43        0.008   0.109   0.000   0.117
   44        0.003   0.013   0.000   0.016
   45        0.007   0.045   0.000   0.053
   46        0.008   0.086   0.000   0.094
   47        0.009   0.098   0.000   0.107
   48        0.010   0.078   0.000   0.088
   49        0.002  -0.002   0.000  -0.000
   50        0.009   0.105   0.000   0.114
   51        0.009   0.104   0.000   0.114
   52        0.002  -0.009   0.000  -0.007
   53        0.005   0.025   0.000   0.030
   54        0.004   0.003   0.000   0.007
   55        0.003   0.001   0.000   0.004
   56        0.003   0.008   0.000   0.012
   57        0.003   0.000   0.000   0.003
   58        0.004   0.019   0.000   0.023
   59        0.003  -0.006   0.000  -0.003
   60        0.005   0.026   0.000   0.030
[...]
   81        0.004   0.010   0.000   0.013
   82        0.002   0.003   0.000   0.006
   83        0.003   0.011   0.000   0.015
   84        0.010   0.108   0.000   0.119
   85        0.008   0.100   0.000   0.108
   86        0.009   0.106   0.000   0.115
   87        0.005   0.025   0.000   0.030
   88        0.008   0.093   0.000   0.101
   89        0.010   0.115   0.000   0.125
   90        0.008   0.056   0.000   0.064
   91        0.005   0.040   0.000   0.045
   92        0.006   0.054   0.000   0.060
   93        0.009   0.098   0.000   0.108
   94        0.009   0.096   0.000   0.105
   95        0.003   0.008   0.000   0.012
tot           0.39    2.78    9.61   12.78