 vasp.5.4.4.18Apr17-6-g9f103f2a35 (build May 12 2020 04:58:55) complex

 MD_VERSION_INFO: Compiled 2020-05-12T11:58:55-UTC in devlin.sd.materialsdesign.
 com:/home/medea2/data/build/wwolf/vasp-gpu5.4.4/13047/x86_64/src/src/build/std
 from svn 13047

 executed on                        Lin64 date 2023.03.16  11:31:17

 INCAR:
 POTCAR:    PAW_PBE Li_sv 10Sep2004
 POTCAR:    PAW_PBE Ni 02Aug2007
 POTCAR:    PAW_PBE O 08Apr2002

 POTCAR:    PAW_PBE Li_sv 10Sep2004

 POTCAR:    PAW_PBE Ni 02Aug2007

 POTCAR:    PAW_PBE O 08Apr2002

 Optimization of the real space projectors (new method)

 maximal supplied QI-value         = 22.11
 optimisation between [QCUT,QGAM] = [ 11.28, 22.77] = [ 35.61,145.23] Ry
 Optimized for a Real-space Cutoff    1.10 Angstroem

   l    n(q)    QCUT    max X(q) W(low)/X(q) W(high)/X(q)  e(spline)
   0      7    11.276    10.506    0.54E-04    0.58E-04    0.16E-07
   0      7    11.276     8.367    0.11E-03    0.14E-03    0.35E-07
   1      7    11.276     8.983    0.23E-03    0.43E-03    0.86E-07
 Optimization of the real space projectors (new method)

[...]

   l    n(q)    QCUT    max X(q) W(low)/X(q) W(high)/X(q)  e(spline)
   2      9    11.376    60.317    0.17E-03    0.16E-04    0.16E-06
   2      9    11.376    55.921    0.17E-03    0.16E-04    0.17E-06
   0     10    11.376    51.690    0.45E-04    0.60E-04    0.21E-06
   0     10    11.376    30.015    0.37E-04    0.55E-04    0.19E-06
   1     10    11.376    18.849    0.83E-04    0.11E-03    0.92E-07
   1     10    11.376    14.624    0.69E-04    0.92E-04    0.82E-07
 Optimization of the real space projectors (new method)

 maximal supplied QI-value         = 24.76
 optimisation between [QCUT,QGAM] = [ 11.39, 22.77] = [ 36.31,145.25] Ry
 Optimized for a Real-space Cutoff    1.10 Angstroem

   l    n(q)    QCUT    max X(q) W(low)/X(q) W(high)/X(q)  e(spline)
   0      7    11.387    20.381    0.22E-03    0.48E-03    0.18E-06
   0      7    11.387    15.268    0.22E-03    0.52E-03    0.19E-06
   1      7    11.387     5.964    0.22E-03    0.73E-03    0.24E-06
   1      7    11.387     5.382    0.19E-03    0.60E-03    0.21E-06

  PAW_PBE Li_sv 10Sep2004               :
  PAW_PBE Ni 02Aug2007                  :
  PAW_PBE O 08Apr2002                   :

 POSCAR: ce48_1
  positions in direct lattice
 exchange correlation table for  LEXCH =       14
   RHO(1)=    0.500       N(1)  =     2000
   RHO(2)=  100.500       N(2)  =     4000

 ion  position               nearest neighbor table
   1  0.000  0.000  0.000-   9 2.13  12 2.13  10 2.13  11 2.13   8 2.13  13 2.13
   2  0.500  0.500  0.500-   9 1.92  12 1.92  10 1.92  11 1.92   8 1.92  13 1.92   4 2.80   5 2.80
                             4 2.80   5 2.80   3 2.80   3 2.80
   3  0.000  0.000  0.500-   8 1.86  10 1.86  11 1.86  13 1.86   6 1.87   7 1.87   4 2.80   5 2.80
                             5 2.80   4 2.80   2 2.80   2 2.80
   4  0.500  0.000  0.000-   8 1.86  11 1.86   9 1.86  12 1.86   6 1.87   7 1.87   2 2.80   3 2.80
                             2 2.80   3 2.80   5 2.80   5 2.80
   5  0.000  0.500  0.000-  10 1.86  13 1.86  12 1.86   9 1.86   6 1.87   7 1.87   2 2.80   3 2.80
                             3 2.80   2 2.80   4 2.80   4 2.80
   6  0.768  0.768  0.768-   3 1.87   4 1.87   5 1.87
   7  0.232  0.232  0.232-   3 1.87   4 1.87   5 1.87
   8  0.262  0.777  0.262-   4 1.86   3 1.86   2 1.92   1 2.13
   9  0.262  0.262  0.777-   4 1.86   5 1.86   2 1.92   1 2.13
  10  0.777  0.262  0.262-   5 1.86   3 1.86   2 1.92   1 2.13
  11  0.738  0.223  0.738-   4 1.86   3 1.86   2 1.92   1 2.13
  12  0.738  0.738  0.223-   4 1.86   5 1.86   2 1.92   1 2.13
  13  0.223  0.738  0.738-   5 1.86   3 1.86   2 1.92   1 2.13

  LATTYP: Found a trigonal (rhomboedric) cell.
 ALAT       =     5.8079709715
 COS(alpha) =     0.5363157642

  Lattice vectors:

 A1 = (   2.7965372300,   1.6145815200,   4.8275286500)
 A2 = (  -2.7965372300,   1.6145815200,   4.8275286500)
 A3 = (   0.0000000000,  -3.2291630400,   4.8275286500)

Analysis of symmetry for initial positions (statically):
 Subroutine PRICEL returns:
 Original cell was already a primitive cell.

 Routine SETGRP: Setting up the symmetry group for a
 trigonal (rhombohedral) supercell.

 Subroutine GETGRP returns: Found 12 space group operations
 (whereof 12 operations were pure point group operations)
 out of a pool of 12 trial point group operations.

The static configuration has the point symmetry D_3d.

Analysis of symmetry for dynamics (positions and initial velocities):
 Subroutine PRICEL returns:
 Original cell was already a primitive cell.

[...]

The dynamic configuration has the point symmetry D_3d.

Analysis of structural, dynamic, and magnetic symmetry:
 Subroutine PRICEL returns:
 Original cell was already a primitive cell.

 Routine SETGRP: Setting up the symmetry group for a
 trigonal (rhombohedral) supercell.

 Subroutine GETGRP returns: Found 12 space group operations
 (whereof 12 operations were pure point group operations)
 out of a pool of 12 trial point group operations.

The magnetic configuration has the point symmetry D_3d.

 Subroutine INISYM returns: Found 12 space group operations
 (whereof 12 operations are pure point group operations),
 and found     1 'primitive' translations

 KPOINTS: Automatic mesh

Automatic generation of k-mesh.
Space group operators:
 irot       det(A)        alpha          n_x          n_y          n_z        tau_x        tau_y        tau_z
    1     1.000000     0.000001     1.000000     0.000000     0.000000     0.000000     0.000000     0.000000
    2    -1.000000     0.000001     1.000000     0.000000     0.000000     0.000000     0.000000     0.000000
    3     1.000000   179.999999     0.500000    -0.866025     0.000000     0.000000     0.000000     0.000000
    4    -1.000000   179.999999     0.500000    -0.866025     0.000000     0.000000     0.000000     0.000000
    5     1.000000   120.000000     0.000000     0.000000    -1.000000     0.000000     0.000000     0.000000
    6    -1.000000   120.000000     0.000000     0.000000    -1.000000     0.000000     0.000000     0.000000
    7     1.000000   179.999999     1.000000     0.000000     0.000000     0.000000     0.000000     0.000000
    8    -1.000000   179.999999     1.000000     0.000000     0.000000     0.000000     0.000000     0.000000
    9     1.000000   120.000000     0.000000     0.000000     1.000000     0.000000     0.000000     0.000000
   10    -1.000000   120.000000     0.000000     0.000000     1.000000     0.000000     0.000000     0.000000
   11     1.000000   179.999999    -0.500000    -0.866025     0.000000     0.000000     0.000000     0.000000
   12    -1.000000   179.999999    -0.500000    -0.866025     0.000000     0.000000     0.000000     0.000000

 Subroutine IBZKPT returns following result:

 Found     32 irreducible k-points:

 Following reciprocal coordinates:
            Coordinates               Weight
  0.000000  0.000000  0.000000      1.000000
  0.166667 -0.000000  0.000000      6.000000
  0.333333  0.000000 -0.000000      6.000000
  0.500000 -0.000000  0.000000      3.000000
  0.166667  0.166667  0.000000      6.000000
  0.333333  0.166667 -0.000000     12.000000
  0.500000  0.166667  0.000000     12.000000
 -0.333333  0.166667  0.000000     12.000000
 -0.166667  0.166667  0.000000      6.000000
  0.333333  0.333333 -0.000000      6.000000
  0.500000  0.333333 -0.000000     12.000000
 -0.333333  0.333333 -0.000000      6.000000
  0.500000  0.500000  0.000000      3.000000
  0.166667  0.166667  0.166667      2.000000
  0.333333  0.166667  0.166667      6.000000
  0.500000  0.166667  0.166667      6.000000
 -0.333333  0.166667  0.166667      6.000000
 -0.166667  0.166667  0.166667      6.000000
  0.333333  0.333333  0.166667      6.000000
  0.500000  0.333333  0.166667     12.000000
 -0.333333  0.333333  0.166667     12.000000
 -0.166667  0.333333  0.166667     12.000000
  0.500000  0.500000  0.166667      6.000000
 -0.333333  0.500000  0.166667     12.000000
 -0.166667  0.500000  0.166667      6.000000
 -0.333333 -0.333333  0.166667      6.000000
  0.333333  0.333333  0.333333      2.000000
  0.500000  0.333333  0.333333      6.000000
 -0.333333  0.333333  0.333333      6.000000
  0.500000  0.500000  0.333333      6.000000
 -0.333333  0.500000  0.333333      6.000000
  0.500000  0.500000  0.500000      1.000000

 Following cartesian coordinates:
            Coordinates               Weight
  0.000000  0.000000  0.000000      1.000000
  0.029799  0.017204  0.011508      6.000000
  0.059598  0.034409  0.023016      6.000000
  0.089396  0.051613  0.034524      3.000000
  0.000000  0.034409  0.023016      6.000000
  0.029799  0.051613  0.034524     12.000000
  0.059598  0.068817  0.046032     12.000000
 -0.089396 -0.017204 -0.011508     12.000000
 -0.059598  0.000000  0.000000      6.000000
  0.000000  0.068817  0.046032      6.000000
  0.029799  0.086022  0.057540     12.000000
 -0.119195 -0.000000 -0.000000      6.000000
  0.000000  0.103226  0.069048      3.000000
  0.000000  0.000000  0.034524      2.000000
  0.029799  0.017204  0.046032      6.000000
  0.059598  0.034409  0.057540      6.000000
 -0.089396 -0.051613 -0.000000      6.000000
 -0.059598 -0.034409  0.011508      6.000000
  0.000000  0.034409  0.057540      6.000000
  0.029799  0.051613  0.069048     12.000000
 -0.119195 -0.034409  0.011508     12.000000
 -0.089396 -0.017204  0.023016     12.000000
  0.000000  0.068817  0.080557      6.000000
 -0.148994 -0.017204  0.023016     12.000000
 -0.119195 -0.000000  0.034524      6.000000
  0.000000 -0.103226 -0.034524      6.000000
  0.000000  0.000000  0.069048      2.000000
  0.029799  0.017204  0.080557      6.000000
 -0.119195 -0.068817  0.023016      6.000000
  0.000000  0.034409  0.092065      6.000000
 -0.148994 -0.051613  0.034524      6.000000
  0.000000  0.000000  0.103573      1.000000

 SYSTEM =  unknown system
 POSCAR =  ce48_1

 Startparameter for this run:
   NWRITE =      1    write-flag & timer
   PREC   = accura    normal or accurate (medium, high low for compatibility)
   ISTART =      0    job   : 0-new  1-cont  2-samecut
   ICHARG =      2    charge: 1-file 2-atom 10-const
   ISPIN  =      2    spin polarized calculation?
   LNONCOLLINEAR =      F non collinear calculations
   LSORBIT =      F    spin-orbit coupling
   INIWAV =      1    electr: 0-lowe 1-rand  2-diag
   LASPH  =      F    aspherical Exc in radial PAW
   METAGGA=      F    non-selfconsistent MetaGGA calc.

 Electronic Relaxation 1
   ENCUT  =  500.0 eV  36.75 Ry    6.06 a.u.  10.59 10.59 10.59*2*pi/ulx,y,z
   ENINI  =  500.0     initial cutoff
   ENAUG  =  628.9 eV  augmentation charge cutoff
   NELM   =     80;   NELMIN=  2; NELMDL= -5     # of ELM steps
   EDIFF  = 0.1E-04   stopping-criterion for ELM
   LREAL  =      T    real-space projection
   NLSPLINE    = F    spline interpolate recip. space projectors
   LCOMPAT=      F    compatible to vasp.4.4
   GGA_COMPAT  = T    GGA compatible to vasp.4.4-vasp.4.6
   LMAXPAW     = -100 max onsite density
   LMAXMIX     =    2 max onsite mixed and CHGCAR
   VOSKOWN=      1    Vosko Wilk Nusair interpolation
[...]
 k-point 28 :   0.5000 0.3333 0.3333  plane waves:    3307
 k-point 29 :  -0.3333 0.3333 0.3333  plane waves:    3310
 k-point 30 :   0.5000 0.5000 0.3333  plane waves:    3321
 k-point 31 :  -0.3333 0.5000 0.3333  plane waves:    3304
 k-point 32 :   0.5000 0.5000 0.5000  plane waves:    3336

 maximum and minimum number of plane-waves per node :      3336     3303

 maximum number of plane-waves:      3336
 maximum index in each direction:
   IXMAX=   10   IYMAX=   10   IZMAX=   10
   IXMIN=  -11   IYMIN=  -11   IZMIN=  -11

 The following grids will avoid any aliasing or wrap around errors in the Hartre
 e energy
  - symmetry arguments have not been applied
  - exchange correlation energies might require even more grid points
  - we recommend to set PREC=Normal or Accurate and rely on VASP defaults
 WARNING: aliasing errors must be expected set NGX to    48 to avoid them
 WARNING: aliasing errors must be expected set NGY to    48 to avoid them
 WARNING: aliasing errors must be expected set NGZ to    48 to avoid them

 serial   3D FFT for wavefunctions
 parallel 3D FFT for charge:
    minimum data exchange during FFTs selected (reduces bandwidth)

 Broyden mixing: mesh for mixing (old mesh)
   NGX = 21   NGY = 21   NGZ = 21
  (NGX  = 84   NGY  = 84   NGZ  = 84)
  gives a total of   9261 points

 initial charge density was supplied:
 charge density of overlapping atoms calculated
 number of electron      91.0000000 magnetization      10.0000000
 keeping initial charge density in first step

 Maximum index for non-local projection operator         7401
 Maximum index for augmentation-charges         1595 (set IRDMAX)

 First call to EWALD:  gamma=   0.349
 Maximum number of real-space cells 3x 3x 3
 Maximum number of reciprocal cells 3x 3x 3

--------------------------------------- Iteration      1(   1)  ---------------------------------------

 eigenvalue-minimisations  :  8192
 total energy-change (2. order) : 0.8886999E+03  (-0.4255144E+04)
 number of electron      91.0000000 magnetization      10.0000000
 augmentation part       91.0000000 magnetization      10.0000000

 Free energy of the ion-electron system (eV)
  alpha Z        PSCENC =       276.19346433
  Ewald energy   TEWEN  =     -5057.26095453
  -Hartree energ DENC   =     -3071.01934185
  -exchange      EXHF   =         0.00000000
  -V(xc)+E(xc)   XCENC  =       368.90219419
  PAW double counting   =      6695.71924497    -6989.86216938
  entropy T*S    EENTRO =        -0.00451921
  eigenvalues    EBANDS =       711.59656876
  atomic energy  EATOM  =      7954.43542899
  Solvation  Ediel_sol  =         0.00000000
  free energy    TOTEN  =       888.69991626 eV

  energy without entropy =      888.70443548  energy(sigma->0) =      888.70217587

[...]

 eigenvalue-minimisations  :  9008
 total energy-change (2. order) :-0.8905377E+03  (-0.8006566E+03)
 number of electron      91.0000000 magnetization      10.0000000
 augmentation part       91.0000000 magnetization      10.0000000

[...]

 Broyden mixing:
  rms(total) = 0.61250E+01    rms(broyden)= 0.61244E+01
  rms(prec ) = 0.10193E+02
  weight for this iteration     100.00

[...]

 eigenvalues of (default mixing * dielectric matrix)
  average eigenvalue GAMMA=   0.2485
  0.2485

[...]

 eigenvalue-minimisations  : 10144
 total energy-change (2. order) :-0.1431227E-04  (-0.6014360E-05)
 number of electron      90.9999999 magnetization       0.8836624
 augmentation part       29.9758084 magnetization       0.6171040

 Broyden mixing:
  rms(total) = 0.27424E-02    rms(broyden)= 0.27421E-02
  rms(prec ) = 0.39460E-02
  weight for this iteration     100.00

 eigenvalues of (default mixing * dielectric matrix)
  average eigenvalue GAMMA=   1.0600
  2.3876  2.2507  1.4837  1.4837  0.1246  1.0533  1.0533  0.8144  0.8144  0.5226
  0.5226  0.6347  0.6347

[...]

--------------------------------------- Iteration      1(  19)  ---------------------------------------

 eigenvalue-minimisations  :  7088
 total energy-change (2. order) : 0.5247421E-06  (-0.7976380E-06)
 number of electron      90.9999999 magnetization       0.8836624
 augmentation part       29.9758084 magnetization       0.6171040

 Free energy of the ion-electron system (eV)
  alpha Z        PSCENC =       276.19346433
  Ewald energy   TEWEN  =     -5057.26095453
  -Hartree energ DENC   =     -2990.97763050
  -exchange      EXHF   =         0.00000000
  -V(xc)+E(xc)   XCENC  =       365.52188987
  PAW double counting   =      8899.94359222    -9208.73790610
  entropy T*S    EENTRO =        -0.00675344
  eigenvalues    EBANDS =      -319.46536334
  atomic energy  EATOM  =      7954.43542899
  Solvation  Ediel_sol  =         0.00000000
  free energy    TOTEN  =       -80.35423250 eV

  energy without entropy =      -80.34747907  energy(sigma->0) =      -80.35085579

 average (electrostatic) potential at core
  the test charge radii are     0.7079  0.9791  0.7215
  (the norm of the test charge is              1.0000)
       1 -59.0737       2 -88.3197       3 -88.9767       4 -88.9767       5 -88.9767
       6 -72.0613       7 -72.0613       8 -71.9437       9 -71.9437      10 -71.9437
      11 -71.9437      12 -71.9437      13 -71.9437

 E-fermi :   4.0416     XC(G=0): -10.9986     alpha+bet :-11.2025

 spin component 1

 k-point     1 :       0.0000    0.0000    0.0000
  band No.  band energies     occupation
      1     -39.7543      1.00000
      2     -16.5927      1.00000
      3     -14.7923      1.00000
      4     -14.6510      1.00000
      5     -14.6510      1.00000
      6     -14.6074      1.00000
      7     -14.6074      1.00000
      8     -14.5238      1.00000
      9     -14.2771      1.00000
     10      -4.0205      1.00000
     11      -3.7042      1.00000
     12      -3.7042      1.00000
     13      -2.9502      1.00000
     14      -2.4753      1.00000
     15      -2.4753      1.00000
     16      -2.0985      1.00000
     17      -2.0985      1.00000
     18      -2.0125      1.00000
     19      -1.9929      1.00000
     20      -1.7301      1.00000
     21      -1.7301      1.00000
     22      -0.9500      1.00000
     23      -0.9500      1.00000
     24      -0.5687      1.00000
     25       0.1699      1.00000
     26       0.1699      1.00000
     27       0.2342      1.00000
     28       0.7854      1.00000
     29       0.9274      1.00000
     30       0.9274      1.00000
     31       0.9445      1.00000
     32       0.9445      1.00000
     33       1.2327      1.00000
     34       1.2327      1.00000
     35       1.3010      1.00000
     36       1.4389      1.00000
     37       1.4389      1.00000
     38       1.4476      1.00000
     39       1.8711      1.00000
     40       1.8711      1.00000
     41       1.9362      1.00000
     42       1.9659      1.00000
     43       1.9659      1.00000
     44       2.0447      1.00000
     45       2.5424      1.00000
     46       4.4768      0.00000
     47       4.4768      0.00000
     48       4.6272      0.00000
     49       4.9334      0.00000
     50       4.9334      0.00000
     51       5.1569      0.00000
     52       5.1689      0.00000
     53       5.1689      0.00000
     54      10.0591      0.00000
     55      12.9908      0.00000
     56      12.9908      0.00000
     57      13.2750      0.00000
     58      14.3762      0.00000
     59      14.9210      0.00000
     60      14.9627      0.00000
     61      14.9627      0.00000
     62      16.8515      0.00000
     63      17.1500      0.00000
     64      17.1535      0.00000

[...]

 spin component 2

[...]

 k-point    32 :       0.5000    0.5000    0.5000
  band No.  band energies     occupation
      1     -39.7409      1.00000
      2     -16.4855      1.00000
      3     -14.7486      1.00000
      4     -14.5821      1.00000
      5     -14.5821      1.00000
      6     -14.5459      1.00000
      7     -14.5459      1.00000
      8     -14.5365      1.00000
      9     -14.3588      1.00000
     10      -3.9278      1.00000
     11      -3.5223      1.00000
     12      -3.5223      1.00000
     13      -2.4211      1.00000
     14      -2.4211      1.00000
     15      -2.3382      1.00000
     16      -2.0127      1.00000
     17      -1.7849      1.00000
     18      -1.7849      1.00000
     19      -1.7039      1.00000
     20      -1.5585      1.00000
     21      -1.5585      1.00000
     22      -1.1817      1.00000
     23      -1.1817      1.00000
     24      -0.7821      1.00000
     25       0.2794      1.00000
     26       0.2794      1.00000
     27       0.3380      1.00000
     28       0.6155      1.00000
     29       0.8450      1.00000
     30       0.8450      1.00000
     31       1.0094      1.00000
     32       1.0094      1.00000
     33       1.0126      1.00000
     34       1.3080      1.00000
     35       1.3832      1.00000
     36       1.3832      1.00000
     37       1.5883      1.00000
     38       1.5883      1.00000
     39       1.7302      1.00000
     40       1.8871      1.00000
     41       1.8871      1.00000
     42       2.1552      1.00000
     43       2.2832      1.00000
     44       2.2832      1.00000
     45       2.9043      1.00000
     46       4.4673      0.00000
     47       4.5202      0.00000
     48       4.5202      0.00000
     49       5.0841      0.00000
     50       5.0841      0.00000
     51       5.1270      0.00000
     52       5.2798      0.00000
     53       5.2798      0.00000
     54      11.9523      0.00000
     55      12.1805      0.00000
     56      14.9058      0.00000
     57      14.9058      0.00000
     58      15.2062      0.00000
     59      15.2406      0.00000
     60      15.2406      0.00000
     61      15.7157      0.00000
     62      16.0809      0.00000
     63      16.0870      0.00000
     64      16.0870      0.00000

 soft charge-density along one line, spin component           1
         0         1         2         3         4         5         6         7         8         9
 total charge-density along one line

 soft charge-density along one line, spin component           2
         0         1         2         3         4         5         6         7         8         9
 total charge-density along one line

------------------------ aborting loop because EDIFF is reached ----------------------------------------

  FORCE on cell =-STRESS in cart. coord.  units (eV):
  Direction    XX          YY          ZZ          XY          YZ          ZX
  Alpha Z   276.19346   276.19346   276.19346
  Ewald    -376.43545  -376.43545 -4304.40102     0.00000     0.00000     0.00000
  Hartree  1969.20869  1969.20869  -947.43747     0.00000     0.00000     0.00000
  E(xc)    -463.38671  -463.38671  -463.99094    -0.00000    -0.00000    -0.00000
  Local   -3333.51706 -3333.51706  3456.85367    -0.00000    -0.00000     0.00000
  n-local  -208.18168  -207.18609  -215.96285    -0.41332    -0.05063     0.04700
  augment   763.13811   763.13810   779.41328     0.00000    -0.00000    -0.00000
  Kinetic  1371.74734  1373.13796  1419.57238     1.99735     1.49453    -4.43115
  Fock        0.00000     0.00000     0.00000     0.00000     0.00000     0.00000
  Total       -0.0402015     -0.0402015      0.2405059      0.0000000      0.0000000      0.0000000
  in kB       -0.4924890     -0.4924890      2.9463185      0.0000000      0.0000000      0.0000000

 VOLUME and BASIS-vectors are now :
  energy-cutoff  :      500.00
  volume of cell :      130.78
      direct lattice vectors                 reciprocal lattice vectors
     2.796537230  1.614581520  4.827528650     0.178792542  0.103225922  0.069048442
    -2.796537230  1.614581520  4.827528650    -0.178792542  0.103225922  0.069048442
     0.000000000 -3.229163040  4.827528650     0.000000000 -0.206451845  0.069048442

  length of vectors
     5.807970974  5.807970974  5.807970971     0.217692562  0.217692562  0.217692562

 FORCES acting on ions
    electron-ion (+dipol)            ewald-force                    non-local-force                 convergence-correction
   -.705E-14 0.648E-14 -.330E-13   0.000E+00 -.107E-13 0.000E+00   0.662E-23 -.331E-23 0.000E+00   0.202E-14 0.963E-15 -.223E-15
   -.272E-11 0.432E-11 -.203E-12   0.000E+00 -.426E-13 -.711E-13   0.331E-23 -.132E-22 0.132E-22   -.652E-13 -.210E-13 -.880E-13
   0.460E-13 -.556E-12 0.938E-12   0.568E-13 0.142E-13 -.426E-13   0.000E+00 0.000E+00 0.000E+00   0.433E-13 -.306E-13 -.421E-13
   0.770E-12 0.932E-11 -.188E-10   -.105E-12 0.787E-13 -.444E-13   -.463E-22 -.132E-22 -.265E-22   -.108E-13 -.825E-13 -.482E-13
   -.430E-12 0.246E-12 0.937E-12   0.675E-13 0.114E-12 -.426E-13   -.529E-22 0.372E-23 0.352E-22   -.866E-14 -.414E-13 -.321E-13
   -.244E-11 0.556E-06 0.399E+03   -.142E-13 -.474E-06 -.426E+03   0.000E+00 -.167E-15 0.266E+02   -.713E-14 0.810E-10 0.381E-02
   0.261E-11 -.556E-06 -.399E+03   0.810E-14 0.474E-06 0.426E+03   0.000E+00 0.111E-15 -.266E+02   0.281E-13 -.810E-10 -.381E-02
   -.448E+02 0.259E+02 0.364E+03   0.486E+02 -.281E+02 -.387E+03   -.376E+01 0.217E+01 0.222E+02   -.387E-02 0.224E-02 0.109E-02
   0.330E-11 -.518E+02 0.364E+03   0.693E-12 0.561E+02 -.387E+03   0.000E+00 -.434E+01 0.222E+02   0.787E-15 -.447E-02 0.109E-02
   0.448E+02 0.259E+02 0.364E+03   -.486E+02 -.281E+02 -.387E+03   0.376E+01 0.217E+01 0.222E+02   0.387E-02 0.224E-02 0.109E-02
   0.448E+02 -.259E+02 -.364E+03   -.486E+02 0.281E+02 0.387E+03   0.376E+01 -.217E+01 -.222E+02   0.387E-02 -.224E-02 -.109E-02
   -.188E-11 0.518E+02 -.364E+03   -.636E-12 -.561E+02 0.387E+03   0.000E+00 0.434E+01 -.222E+02   -.112E-13 0.447E-02 -.109E-02
   -.448E+02 -.259E+02 -.364E+03   0.486E+02 0.281E+02 0.387E+03   -.376E+01 -.217E+01 -.222E+02   -.387E-02 -.224E-02 -.109E-02
   0.101E-11 0.161E-10 -.181E-10   0.426E-13 0.249E-13 -.568E-13   0.444E-15 0.444E-15 0.711E-14   -.167E-13 -.122E-12 -.213E-12

 POSITION                                       TOTAL-FORCE (eV/Angst)
      0.00000      0.00000      0.00000         0.000000     -0.000000     -0.000000
      0.00000      0.00000      7.24129         0.000000     -0.000000     -0.000000
      0.00000     -1.61458      2.41376         0.000000     -0.000000     -0.000000
      1.39827      0.80729      2.41376        -0.000000     -0.000000     -0.000000
     -1.39827      0.80729      2.41376        -0.000000     -0.000000     -0.000000
      0.00000      0.00000     11.12359         0.000000     -0.000000      0.017345
      0.00000      0.00000      3.35899         0.000000     -0.000000     -0.017345
     -1.44001      0.83139      6.27771        -0.002374      0.001371      0.015245
      0.00000     -1.66278      6.27771         0.000000     -0.002742      0.015245
      1.44001      0.83139      6.27771         0.002374      0.001371      0.015245
      1.44001     -0.83139      8.20488         0.002374     -0.001371     -0.015245
      0.00000      1.66278      8.20488         0.000000      0.002742     -0.015245
     -1.44001     -0.83139      8.20488        -0.002374     -0.001371     -0.015245
    total drift:                                0.000000      0.000000     -0.000000

  FREE ENERGIE OF THE ION-ELECTRON SYSTEM (eV)
  free  energy   TOTEN  =       -80.3542325040 eV

  energy  without entropy=      -80.3474790663  energy(sigma->0) =      -80.35085579

volume of typ            1:     6.0 %

[...]

volume of typ            3:    10.0 %

total charge

# of ion       s       p       d       tot
    1        2.065   0.212   0.080   2.357
    2        0.267   0.343   7.830   8.440
    3        0.305   0.426   7.815   8.546
    4        0.306   0.427   7.845   8.578
    5        0.305   0.427   7.816   8.548
    6        1.283   2.726   0.008   4.017
    7        1.283   2.726   0.008   4.017
    8        1.273   2.746   0.007   4.026
    9        1.274   2.757   0.007   4.039
   10        1.275   2.759   0.007   4.041
   11        1.273   2.746   0.007   4.026
   12        1.274   2.757   0.007   4.039
   13        1.275   2.759   0.007   4.041
tot          13.46   23.81   31.45   68.72

magnetization (x)

# of ion       s       p       d       tot
    1        0.006   0.010   0.001   0.016
    2        0.000  -0.000   0.613   0.613
    3       -0.000  -0.000   0.004   0.003
    4       -0.000  -0.000   0.016   0.016
    5       -0.000   0.000   0.002   0.002
    6        0.000  -0.003   0.000  -0.003
    7        0.000  -0.003   0.000  -0.003
    8        0.003   0.014   0.000   0.017
    9        0.004   0.031   0.000   0.035
   10        0.004   0.034   0.000   0.038
   11        0.003   0.014   0.000   0.017
   12        0.004   0.031   0.000   0.035
   13        0.004   0.034   0.000   0.038
tot           0.03    0.16    0.64    0.82