 vasp.5.4.4.18Apr17-6-g9f103f2a35 (build May 12 2020 04:58:55) complex

 MD_VERSION_INFO: Compiled 2020-05-12T11:58:55-UTC in devlin.sd.materialsdesign.
 com:/home/medea2/data/build/wwolf/vasp-gpu5.4.4/13047/x86_64/src/src/build/std
 from svn 13047

 executed on                        Lin64 date 2023.03.16  12:02:04

 INCAR:
 POTCAR:    PAW_PBE Li_sv 10Sep2004
 POTCAR:    PAW_PBE Ni 02Aug2007
 POTCAR:    PAW_PBE O 08Apr2002

 POTCAR:    PAW_PBE Li_sv 10Sep2004

 POTCAR:    PAW_PBE Ni 02Aug2007

 POTCAR:    PAW_PBE O 08Apr2002

 Optimization of the real space projectors (new method)

 maximal supplied QI-value         = 22.11
 optimisation between [QCUT,QGAM] = [ 11.28, 22.77] = [ 35.61,145.23] Ry
 Optimized for a Real-space Cutoff    1.10 Angstroem

   l    n(q)    QCUT    max X(q) W(low)/X(q) W(high)/X(q)  e(spline)
   0      7    11.276    10.506    0.54E-04    0.58E-04    0.16E-07
   0      7    11.276     8.367    0.11E-03    0.14E-03    0.35E-07
   1      7    11.276     8.983    0.23E-03    0.43E-03    0.86E-07
 Optimization of the real space projectors (new method)

[...]

   l    n(q)    QCUT    max X(q) W(low)/X(q) W(high)/X(q)  e(spline)
   2      9    11.376    60.317    0.17E-03    0.16E-04    0.16E-06
   2      9    11.376    55.921    0.17E-03    0.16E-04    0.17E-06
   0     10    11.376    51.690    0.45E-04    0.60E-04    0.21E-06
   0     10    11.376    30.015    0.37E-04    0.55E-04    0.19E-06
   1     10    11.376    18.849    0.83E-04    0.11E-03    0.92E-07
   1     10    11.376    14.624    0.69E-04    0.92E-04    0.82E-07
 Optimization of the real space projectors (new method)

 maximal supplied QI-value         = 24.76
 optimisation between [QCUT,QGAM] = [ 11.39, 22.77] = [ 36.31,145.25] Ry
 Optimized for a Real-space Cutoff    1.10 Angstroem

   l    n(q)    QCUT    max X(q) W(low)/X(q) W(high)/X(q)  e(spline)
   0      7    11.387    20.381    0.22E-03    0.48E-03    0.18E-06
   0      7    11.387    15.268    0.22E-03    0.52E-03    0.19E-06
   1      7    11.387     5.964    0.22E-03    0.73E-03    0.24E-06
   1      7    11.387     5.382    0.19E-03    0.60E-03    0.21E-06

  PAW_PBE Li_sv 10Sep2004               :
  PAW_PBE Ni 02Aug2007                  :
  PAW_PBE O 08Apr2002                   :

 POSCAR: ce36_2
  positions in direct lattice
 exchange correlation table for  LEXCH =       14
   RHO(1)=    0.500       N(1)  =     2000
   RHO(2)=  100.500       N(2)  =     4000

 ion  position               nearest neighbor table
   1  0.000  0.000  0.000-  12 2.12  13 2.12   8 2.13   9 2.13  10 2.14  11 2.14
   2  0.378  0.509  0.749-   7 1.86   6 1.87  10 1.87  12 1.88  13 1.89   9 1.91   4 2.79   3 2.79
                             3 2.80   5 2.80   5 2.80   4 2.81
   3  0.622  0.491  0.251-   6 1.86   7 1.87  11 1.87  13 1.88  12 1.89   8 1.91   5 2.79   2 2.79
                             2 2.80   4 2.80   4 2.80   5 2.81
   4  0.875  0.502  0.750-  13 1.86   6 1.87  10 1.87   9 1.87   8 1.87  11 1.90   2 2.79   3 2.80
                             3 2.80   5 2.80   5 2.81   2 2.81
   5  0.125  0.498  0.250-  12 1.86   7 1.87  11 1.87   8 1.87   9 1.87  10 1.90   3 2.79   2 2.80
                             2 2.80   4 2.80   4 2.81   3 2.81
   6  0.574  0.306  0.620-   3 1.86   4 1.87   2 1.87
   7  0.426  0.694  0.380-   2 1.86   5 1.87   3 1.87
   8  0.830  0.296  0.113-   5 1.87   4 1.87   3 1.91   1 2.13
   9  0.170  0.704  0.887-   4 1.87   5 1.87   2 1.91   1 2.13
  10  0.077  0.304  0.625-   4 1.87   2 1.87   5 1.90   1 2.14
  11  0.923  0.696  0.375-   5 1.87   3 1.87   4 1.90   1 2.14
  12  0.318  0.300  0.111-   5 1.86   2 1.88   3 1.89   1 2.12
  13  0.682  0.700  0.889-   4 1.86   3 1.88   2 1.89   1 2.12

  LATTYP: Found a triclinic cell.
 ALAT       =    11.5934353011
 B/A-ratio  =     0.4823250430
 C/A-ratio  =     0.4183219999
 COS(alpha) =     0.0001980581
 COS(beta)  =     0.3463470527
 COS(gamma) =     0.8419079010

  Lattice vectors:

 A1 = (   9.7606047800,   4.0387141300,  -4.7777740200)
 A2 = (   5.5918041800,   0.0000000000,   0.0000000000)
 A3 = (   0.0009605400,  -0.8326633400,  -4.7777740200)

Analysis of symmetry for initial positions (statically):
 Subroutine PRICEL returns:
 Original cell was already a primitive cell.

 Routine SETGRP: Setting up the symmetry group for a
 triclinic supercell.

 Subroutine GETGRP returns: Found  2 space group operations
 (whereof  2 operations were pure point group operations)
 out of a pool of  2 trial point group operations.

The static configuration has the point symmetry S_2 .

Analysis of symmetry for dynamics (positions and initial velocities):
 Subroutine PRICEL returns:
 Original cell was already a primitive cell.

[...]

The dynamic configuration has the point symmetry S_2 .

Analysis of structural, dynamic, and magnetic symmetry:
 Subroutine PRICEL returns:
 Original cell was already a primitive cell.

 Routine SETGRP: Setting up the symmetry group for a
 triclinic supercell.

 Subroutine GETGRP returns: Found  2 space group operations
 (whereof  2 operations were pure point group operations)
 out of a pool of  2 trial point group operations.

The magnetic configuration has the point symmetry S_2 .

 Subroutine INISYM returns: Found  2 space group operations
 (whereof  2 operations are pure point group operations),
 and found     1 'primitive' translations

 KPOINTS: Automatic mesh

Automatic generation of k-mesh.
Space group operators:
 irot       det(A)        alpha          n_x          n_y          n_z        tau_x        tau_y        tau_z
    1     1.000000     0.000001     1.000000     0.000000     0.000000     0.000000     0.000000     0.000000
    2    -1.000000     0.000001     1.000000     0.000000     0.000000     0.000000     0.000000     0.000000

 Subroutine IBZKPT returns following result:

 Found     92 irreducible k-points:

 Following reciprocal coordinates:
            Coordinates               Weight
  0.000000  0.000000  0.000000      1.000000
  0.200000  0.000000  0.000000      2.000000
  0.400000  0.000000  0.000000      2.000000
  0.000000  0.166667  0.000000      2.000000
  0.200000  0.166667  0.000000      2.000000
  0.400000  0.166667  0.000000      2.000000
 -0.400000  0.166667  0.000000      2.000000
 -0.200000  0.166667  0.000000      2.000000
  0.000000  0.333333  0.000000      2.000000
  0.200000  0.333333  0.000000      2.000000
  0.400000  0.333333  0.000000      2.000000
 -0.400000  0.333333 -0.000000      2.000000
 -0.200000  0.333333 -0.000000      2.000000
  0.000000  0.500000  0.000000      1.000000
  0.200000  0.500000  0.000000      2.000000
  0.400000  0.500000  0.000000      2.000000
  0.000000  0.000000  0.166667      2.000000
  0.200000  0.000000  0.166667      2.000000
  0.400000  0.000000  0.166667      2.000000
 -0.400000 -0.000000  0.166667      2.000000
 -0.200000 -0.000000  0.166667      2.000000
  0.000000  0.166667  0.166667      2.000000
  0.200000  0.166667  0.166667      2.000000
  0.400000  0.166667  0.166667      2.000000
 -0.400000  0.166667  0.166667      2.000000
 -0.200000  0.166667  0.166667      2.000000
  0.000000  0.333333  0.166667      2.000000
  0.200000  0.333333  0.166667      2.000000
  0.400000  0.333333  0.166667      2.000000
 -0.400000  0.333333  0.166667      2.000000
 -0.200000  0.333333  0.166667      2.000000
  0.000000  0.500000  0.166667      2.000000
  0.200000  0.500000  0.166667      2.000000
  0.400000  0.500000  0.166667      2.000000
 -0.400000  0.500000  0.166667      2.000000
 -0.200000  0.500000  0.166667      2.000000
  0.000000 -0.333333  0.166667      2.000000
  0.200000 -0.333333  0.166667      2.000000
  0.400000 -0.333333  0.166667      2.000000
 -0.400000 -0.333333  0.166667      2.000000
 -0.200000 -0.333333  0.166667      2.000000
  0.000000 -0.166667  0.166667      2.000000
  0.200000 -0.166667  0.166667      2.000000
  0.400000 -0.166667  0.166667      2.000000
 -0.400000 -0.166667  0.166667      2.000000
 -0.200000 -0.166667  0.166667      2.000000
  0.000000  0.000000  0.333333      2.000000
  0.200000  0.000000  0.333333      2.000000
  0.400000  0.000000  0.333333      2.000000
 -0.400000 -0.000000  0.333333      2.000000
 -0.200000 -0.000000  0.333333      2.000000
  0.000000  0.166667  0.333333      2.000000
  0.200000  0.166667  0.333333      2.000000
  0.400000  0.166667  0.333333      2.000000
 -0.400000  0.166667  0.333333      2.000000
 -0.200000  0.166667  0.333333      2.000000
  0.000000  0.333333  0.333333      2.000000
  0.200000  0.333333  0.333333      2.000000
  0.400000  0.333333  0.333333      2.000000
 -0.400000  0.333333  0.333333      2.000000
[...]
  0.200000  0.000000  0.500000      2.000000
  0.400000  0.000000  0.500000      2.000000
  0.000000  0.166667  0.500000      2.000000
  0.200000  0.166667  0.500000      2.000000
  0.400000  0.166667  0.500000      2.000000
 -0.400000  0.166667  0.500000      2.000000
 -0.200000  0.166667  0.500000      2.000000
  0.000000  0.333333  0.500000      2.000000
  0.200000  0.333333  0.500000      2.000000
  0.400000  0.333333  0.500000      2.000000
 -0.400000  0.333333  0.500000      2.000000
 -0.200000  0.333333  0.500000      2.000000
  0.000000  0.500000  0.500000      1.000000
  0.200000  0.500000  0.500000      2.000000
  0.400000  0.500000  0.500000      2.000000

 Following cartesian coordinates:
            Coordinates               Weight
  0.000000  0.000000  0.000000      1.000000
  0.035767  0.010455 -0.001815      2.000000
  0.071533  0.020910 -0.003630      2.000000
  0.000000  0.034213 -0.005963      2.000000
  0.035767  0.044668 -0.007778      2.000000
  0.071533  0.055124 -0.009592      2.000000
 -0.071533  0.013303 -0.002333      2.000000
 -0.035767  0.023758 -0.004148      2.000000
  0.000000  0.068427 -0.011925      2.000000
  0.035767  0.078882 -0.013740      2.000000
  0.071533  0.089337 -0.015555      2.000000
 -0.071533  0.047517 -0.008296      2.000000
 -0.035767  0.057972 -0.010110      2.000000
  0.000000  0.102640 -0.017888      1.000000
  0.035767  0.113095 -0.019703      2.000000
  0.071533  0.123550 -0.021518      2.000000
  0.000000  0.000000  0.034884      2.000000
  0.035767  0.010455  0.033069      2.000000
  0.071533  0.020910  0.031254      2.000000
 -0.071533 -0.020910  0.038514      2.000000
 -0.035767 -0.010455  0.036699      2.000000
  0.000000  0.034213  0.028921      2.000000
  0.035767  0.044668  0.027106      2.000000
  0.071533  0.055124  0.025291      2.000000
 -0.071533  0.013303  0.032551      2.000000
 -0.035767  0.023758  0.030736      2.000000
  0.000000  0.068427  0.022958      2.000000
  0.035767  0.078882  0.021144      2.000000
  0.071533  0.089337  0.019329      2.000000
 -0.071533  0.047517  0.026588      2.000000
 -0.035767  0.057972  0.024773      2.000000
  0.000000  0.102640  0.016996      2.000000
  0.035767  0.113095  0.015181      2.000000
  0.071533  0.123550  0.013366      2.000000
 -0.071533  0.081730  0.020626      2.000000
 -0.035767  0.092185  0.018811      2.000000
  0.000000 -0.068427  0.046809      2.000000
  0.035767 -0.057972  0.044994      2.000000
  0.071533 -0.047517  0.043179      2.000000
 -0.071533 -0.089337  0.050439      2.000000
[...]
 k-point 86 :   0.2000 0.3333 0.5000  plane waves:    3304
 k-point 87 :   0.4000 0.3333 0.5000  plane waves:    3312
 k-point 88 :  -0.4000 0.3333 0.5000  plane waves:    3313
 k-point 89 :  -0.2000 0.3333 0.5000  plane waves:    3294
 k-point 90 :   0.0000 0.5000 0.5000  plane waves:    3308
 k-point 91 :   0.2000 0.5000 0.5000  plane waves:    3314
 k-point 92 :   0.4000 0.5000 0.5000  plane waves:    3310

 maximum and minimum number of plane-waves per node :      3333     3284

 maximum number of plane-waves:      3333
 maximum index in each direction:
   IXMAX=   10   IYMAX=    9   IZMAX=    8
   IXMIN=  -10   IYMIN=   -9   IZMIN=   -9

 The following grids will avoid any aliasing or wrap around errors in the Hartre
 e energy
  - symmetry arguments have not been applied
  - exchange correlation energies might require even more grid points
  - we recommend to set PREC=Normal or Accurate and rely on VASP defaults
 NGX is ok and might be reduce to    42
 NGY is ok and might be reduce to    40
 NGZ is ok and might be reduce to    36

 serial   3D FFT for wavefunctions
 parallel 3D FFT for charge:
    minimum data exchange during FFTs selected (reduces bandwidth)

 Broyden mixing: mesh for mixing (old mesh)
   NGX = 21   NGY = 19   NGZ = 17
  (NGX  = 84   NGY  = 80   NGZ  = 72)
  gives a total of   6783 points

 initial charge density was supplied:
 charge density of overlapping atoms calculated
 number of electron      91.0000000 magnetization      10.0000000
 keeping initial charge density in first step

 Maximum index for non-local projection operator         6064
 Maximum index for augmentation-charges         1406 (set IRDMAX)

 First call to EWALD:  gamma=   0.350
 Maximum number of real-space cells 3x 3x 3
 Maximum number of reciprocal cells 3x 3x 3

--------------------------------------- Iteration      1(   1)  ---------------------------------------

 eigenvalue-minimisations  : 23552
 total energy-change (2. order) : 0.8918534E+03  (-0.4252738E+04)
 number of electron      91.0000000 magnetization      10.0000000
 augmentation part       91.0000000 magnetization      10.0000000

 Free energy of the ion-electron system (eV)
  alpha Z        PSCENC =       277.54969114
  Ewald energy   TEWEN  =     -5092.32377423
  -Hartree energ DENC   =     -3041.85313105
  -exchange      EXHF   =         0.00000000
  -V(xc)+E(xc)   XCENC  =       368.95269798
  PAW double counting   =      6695.71924497    -6989.86216938
  entropy T*S    EENTRO =        -0.00325245
  eigenvalues    EBANDS =       719.23867573
  atomic energy  EATOM  =      7954.43542899
  Solvation  Ediel_sol  =         0.00000000
  free energy    TOTEN  =       891.85341169 eV

  energy without entropy =      891.85666415  energy(sigma->0) =      891.85503792

[...]

 eigenvalue-minimisations  : 26064
 total energy-change (2. order) :-0.8943174E+03  (-0.8035206E+03)
 number of electron      91.0000000 magnetization      10.0000000
 augmentation part       91.0000000 magnetization      10.0000000

[...]

 Broyden mixing:
  rms(total) = 0.61068E+01    rms(broyden)= 0.61063E+01
  rms(prec ) = 0.96102E+01
  weight for this iteration     100.00

[...]

 eigenvalues of (default mixing * dielectric matrix)
  average eigenvalue GAMMA=   0.2278
  0.2278

[...]

 eigenvalue-minimisations  : 36464
 total energy-change (2. order) : 0.5527690E-02  (-0.5412223E-02)
 number of electron      90.9999951 magnetization      -0.0561259
 augmentation part       29.9814115 magnetization      -0.0532004

[...]

 Broyden mixing:
  rms(total) = 0.14701E-02    rms(broyden)= 0.14695E-02
  rms(prec ) = 0.18124E-02
  weight for this iteration     100.00

 eigenvalues of (default mixing * dielectric matrix)
  average eigenvalue GAMMA=   0.9624
  2.4819  2.2616  1.2169  1.2169  0.8468  0.8468  0.8609  0.1928  0.6745  0.4683
  0.4683  0.4415  0.5341

[...]

--------------------------------------- Iteration      1(  19)  ---------------------------------------

 eigenvalue-minimisations  : 20560
 total energy-change (2. order) :-0.4373028E-05  (-0.7649336E-06)
 number of electron      90.9999951 magnetization      -0.0224393
 augmentation part       29.9754753 magnetization      -0.0150274

 Free energy of the ion-electron system (eV)
  alpha Z        PSCENC =       277.54969114
  Ewald energy   TEWEN  =     -5092.32377423
  -Hartree energ DENC   =     -2961.38324531
  -exchange      EXHF   =         0.00000000
  -V(xc)+E(xc)   XCENC  =       365.45055626
  PAW double counting   =      8905.24738078    -9214.02750868
  entropy T*S    EENTRO =        -0.00951462
  eigenvalues    EBANDS =      -315.26950287
  atomic energy  EATOM  =      7954.43542899
  Solvation  Ediel_sol  =         0.00000000
  free energy    TOTEN  =       -80.33048855 eV

  energy without entropy =      -80.32097392  energy(sigma->0) =      -80.32573124

 average (electrostatic) potential at core
  the test charge radii are     0.7079  0.9791  0.7215
  (the norm of the test charge is              1.0000)
       1 -59.0952       2 -88.7122       3 -88.7122       4 -88.7859       5 -88.7859
       6 -71.9666       7 -71.9666       8 -71.9365       9 -71.9365      10 -71.9451
      11 -71.9451      12 -71.9181      13 -71.9181

 E-fermi :   4.1819     XC(G=0): -11.0422     alpha+bet :-11.2575

 spin component 1

 k-point     1 :       0.0000    0.0000    0.0000
  band No.  band energies     occupation
      1     -39.7690      1.00000
      2     -16.5304      1.00000
      3     -14.8244      1.00000
      4     -14.8127      1.00000
      5     -14.6010      1.00000
      6     -14.5563      1.00000
      7     -14.3455      1.00000
      8     -14.3308      1.00000
      9     -14.2047      1.00000
     10      -3.6523      1.00000
     11      -2.9547      1.00000
     12      -2.7851      1.00000
     13      -2.7543      1.00000
     14      -2.6361      1.00000
     15      -2.5583      1.00000
     16      -2.3511      1.00000
     17      -2.3432      1.00000
     18      -1.7774      1.00000
     19      -1.7466      1.00000
     20      -1.5897      1.00000
     21      -1.5195      1.00000
     22      -1.1180      1.00000
     23      -1.0253      1.00000
     24      -0.8855      1.00000
     25      -0.6334      1.00000
     26      -0.5047      1.00000
     27       0.2978      1.00000
     28       0.6806      1.00000
     29       0.7149      1.00000
     30       0.8672      1.00000
     31       1.0899      1.00000
     32       1.1172      1.00000
     33       1.4575      1.00000
     34       1.5182      1.00000
     35       1.6814      1.00000
     36       1.6859      1.00000
     37       1.8506      1.00000
     38       1.8751      1.00000
     39       1.9374      1.00000
     40       1.9825      1.00000
     41       1.9870      1.00000
     42       2.1659      1.00000
     43       2.5913      1.00000
     44       2.6276      1.00000
     45       2.6925      1.00000
     46       4.3354      0.00001
     47       4.4476      0.00000
     48       4.4740      0.00000
     49       4.5240      0.00000
     50       4.5653      0.00000
     51       5.0766      0.00000
     52       5.2278      0.00000
     53       5.2365      0.00000
     54      10.1451      0.00000
     55      13.2887      0.00000
     56      14.0628      0.00000
     57      14.9875      0.00000
     58      15.0232      0.00000
     59      15.6772      0.00000
     60      16.2663      0.00000
     61      16.5136      0.00000
     62      16.7444      0.00000
     63      16.8081      0.00000
     64      17.2048      0.00000

[...]

 spin component 2

[...]

 k-point    92 :       0.4000    0.5000    0.5000
  band No.  band energies     occupation
      1     -39.7690      1.00000
      2     -15.4941      1.00000
      3     -15.4158      1.00000
      4     -15.1648      1.00000
      5     -15.1259      1.00000
      6     -14.3530      1.00000
      7     -14.3442      1.00000
      8     -14.3134      1.00000
      9     -14.2336      1.00000
     10      -3.1790      1.00000
     11      -2.9733      1.00000
     12      -2.8438      1.00000
     13      -2.7051      1.00000
     14      -2.3603      1.00000
     15      -2.3007      1.00000
     16      -2.2272      1.00000
     17      -2.1275      1.00000
     18      -1.6847      1.00000
     19      -1.6540      1.00000
     20      -1.6189      1.00000
     21      -1.5720      1.00000
     22      -1.1182      1.00000
     23      -0.9342      1.00000
     24      -0.7816      1.00000
     25      -0.6692      1.00000
     26      -0.5498      1.00000
     27      -0.5216      1.00000
     28      -0.3116      1.00000
     29      -0.2728      1.00000
     30       1.1461      1.00000
     31       1.2382      1.00000
     32       1.5346      1.00000
     33       1.5918      1.00000
     34       1.6258      1.00000
     35       1.7038      1.00000
     36       1.7643      1.00000
     37       1.7751      1.00000
     38       2.0434      1.00000
     39       2.1013      1.00000
     40       2.3925      1.00000
     41       2.4240      1.00000
     42       2.4589      1.00000
     43       2.5317      1.00000
     44       2.5714      1.00000
     45       2.6886      1.00000
     46       4.0984      0.99094
     47       4.1821      0.49804
     48       4.2227      0.12412
     49       4.3389      0.00000
     50       4.5957      0.00000
     51       4.7228      0.00000
     52       4.8647      0.00000
     53       4.9001      0.00000
     54      13.0069      0.00000
     55      13.4106      0.00000
     56      13.8799      0.00000
     57      14.2629      0.00000
     58      15.0508      0.00000
     59      15.4076      0.00000
     60      15.5986      0.00000
     61      15.9056      0.00000
     62      17.0096      0.00000
     63      17.1374      0.00000
     64      17.5449      0.00000

 soft charge-density along one line, spin component           1
         0         1         2         3         4         5         6         7         8         9
 total charge-density along one line

 soft charge-density along one line, spin component           2
         0         1         2         3         4         5         6         7         8         9
 total charge-density along one line

------------------------ aborting loop because EDIFF is reached ----------------------------------------

  FORCE on cell =-STRESS in cart. coord.  units (eV):
  Direction    XX          YY          ZZ          XY          YZ          ZX
  Alpha Z   277.54969   277.54969   277.54969
  Ewald    -398.74673 -4177.28365  -516.30466    -1.79094   665.51208     1.51641
  Hartree  1947.69162  -847.27665  1861.00827    -1.61037   490.73995     0.62525
  E(xc)    -463.31491  -463.89170  -463.33340    -0.00083     0.10239     0.00066
  Local   -3290.77070  3229.41439 -3088.02046     3.34093 -1146.42383    -1.98185
  n-local  -207.56811  -215.75682  -207.68869     0.02544     1.51593     0.00003
  augment   763.15303   778.73909   763.61352     0.00191    -2.90534    -0.09262
  Kinetic  1372.09967  1418.76665  1373.27024     0.01285    -8.54300    -0.06531
  Fock        0.00000     0.00000     0.00000     0.00000     0.00000     0.00000
  Total        0.0935694      0.2609913      0.0945353     -0.0210062     -0.0018167      0.0025806
  in kB        1.1519013      3.2129750      1.1637922     -0.2586004     -0.0223649      0.0317694

 VOLUME and BASIS-vectors are now :
  energy-cutoff  :      500.00
  volume of cell :      130.15
      direct lattice vectors                 reciprocal lattice vectors
     5.591804180  0.000000000  0.000000000     0.178833158  0.052275153 -0.009074482
    -1.423964120  4.871377470  0.000000000     0.000000000  0.205280746 -0.035776023
    -0.000960540  0.832663340  4.777774020     0.000000000  0.000000000  0.209302490

  length of vectors
     5.591804180  5.075233223  4.849789041     0.186537761  0.208374923  0.209302490

 FORCES acting on ions
    electron-ion (+dipol)            ewald-force                    non-local-force                 convergence-correction
   -.524E-14 0.108E-13 -.138E-13   -.213E-13 -.711E-14 0.533E-14   -.518E-23 0.827E-24 0.000E+00   -.934E-14 -.188E-13 -.436E-14
   -.138E+02 -.584E+02 0.169E+02   0.140E+02 0.589E+02 -.171E+02   -.195E+00 -.551E+00 0.275E+00   -.244E-03 0.109E-02 -.434E-02
   0.138E+02 0.584E+02 -.169E+02   -.140E+02 -.589E+02 0.171E+02   0.195E+00 0.551E+00 -.275E+00   0.244E-03 -.109E-02 0.434E-02
   0.154E+02 -.397E+00 0.361E+02   -.156E+02 0.283E+00 -.366E+02   0.203E+00 0.116E+00 0.462E+00   0.223E-04 -.717E-03 -.255E-02
   -.154E+02 0.397E+00 -.361E+02   0.156E+02 -.283E+00 0.366E+02   -.203E+00 -.116E+00 -.462E+00   -.223E-04 0.717E-03 0.255E-02
   0.296E+01 0.380E+03 -.624E+02   -.347E+01 -.406E+03 0.677E+02   0.504E+00 0.256E+02 -.523E+01   0.169E-02 0.155E-03 -.936E-03
   -.296E+01 -.380E+03 0.624E+02   0.347E+01 0.406E+03 -.677E+02   -.504E+00 -.256E+02 0.523E+01   -.169E-02 -.155E-03 0.936E-03
   0.341E+02 0.364E+03 -.832E+02   -.368E+02 -.385E+03 0.883E+02   0.272E+01 0.215E+02 -.512E+01   0.785E-03 0.169E-02 0.305E-03
   -.341E+02 -.364E+03 0.832E+02   0.368E+02 0.385E+03 -.883E+02   -.272E+01 -.215E+02 0.512E+01   -.785E-03 -.169E-02 -.305E-03
   -.329E+01 0.358E+03 -.314E+02   0.376E+01 -.379E+03 0.326E+02   -.473E+00 0.216E+02 -.118E+01   -.197E-02 0.170E-02 -.270E-02
   0.329E+01 -.358E+03 0.314E+02   -.376E+01 0.379E+03 -.326E+02   0.473E+00 -.216E+02 0.118E+01   0.197E-02 -.170E-02 0.270E-02
   -.338E+02 0.355E+03 -.758E+02   0.365E+02 -.377E+03 0.799E+02   -.262E+01 0.221E+02 -.412E+01   -.965E-03 -.504E-03 0.258E-02
   0.338E+02 -.355E+03 0.758E+02   -.365E+02 0.377E+03 -.799E+02   0.262E+01 -.221E+02 0.412E+01   0.965E-03 0.504E-03 -.258E-02
   0.110E-10 -.831E-11 0.128E-10   0.213E-13 0.000E+00 0.284E-13   0.000E+00 0.000E+00 0.000E+00   0.649E-13 0.124E-12 -.234E-12

 POSITION                                       TOTAL-FORCE (eV/Angst)
      0.00000      0.00000      0.00000        -0.000000     -0.000000      0.000000
      1.38929      3.10406      3.57703        -0.006422     -0.002307      0.009989
      2.77759      2.59998      1.20074         0.006422      0.002307     -0.009989
      4.17488      3.06949      3.58204         0.005775      0.001150     -0.006222
     -0.00801      2.63455      1.19573        -0.005775     -0.001150      0.006222
      2.77334      2.00490      2.96421        -0.001407      0.006144      0.005373
      1.39354      3.69914      1.81356         0.001407     -0.006144     -0.005373
      4.21782      1.53484      0.54113        -0.004274      0.005762      0.005383
     -0.05094      4.16920      4.23665         0.004274     -0.005762     -0.005383
     -0.00504      2.00099      2.98513        -0.004755      0.008036      0.003104
      4.17192      3.70305      1.79265         0.004755     -0.008036     -0.003104
      1.35121      1.55166      0.53073        -0.002846      0.006721     -0.001843
      2.81567      4.15238      4.24705         0.002846     -0.006721      0.001843
    total drift:                                0.000000     -0.000000      0.000000

  FREE ENERGIE OF THE ION-ELECTRON SYSTEM (eV)
  free  energy   TOTEN  =       -80.3304885478 eV

  energy  without entropy=      -80.3209739231  energy(sigma->0) =      -80.32573124

volume of typ            1:     6.0 %

[...]

volume of typ            3:    10.0 %

total charge

# of ion       s       p       d       tot
    1        2.064   0.211   0.080   2.355
    2        0.293   0.399   7.827   8.519
    3        0.293   0.399   7.827   8.519
    4        0.299   0.412   7.830   8.542
    5        0.299   0.412   7.830   8.542
    6        1.284   2.725   0.008   4.018
    7        1.284   2.725   0.008   4.018
    8        1.275   2.750   0.007   4.032
    9        1.275   2.750   0.007   4.032
   10        1.275   2.752   0.007   4.035
   11        1.275   2.752   0.007   4.035
   12        1.273   2.757   0.007   4.037
   13        1.273   2.757   0.007   4.037
tot          13.46   23.80   31.45   68.72

magnetization (x)

# of ion       s       p       d       tot
    1       -0.000  -0.000  -0.000  -0.000
    2        0.000   0.000  -0.006  -0.006
    3        0.000   0.000  -0.006  -0.006
    4        0.000  -0.000  -0.002  -0.002
    5        0.000  -0.000  -0.002  -0.002
    6       -0.000  -0.001  -0.000  -0.001
    7       -0.000  -0.001  -0.000  -0.001
    8       -0.000  -0.001  -0.000  -0.001
    9       -0.000  -0.001  -0.000  -0.001
   10       -0.000  -0.001  -0.000  -0.001
   11       -0.000  -0.001  -0.000  -0.001
   12       -0.000  -0.000  -0.000  -0.000
   13       -0.000  -0.000  -0.000  -0.000
tot          -0.00   -0.00   -0.02   -0.02