 vasp.5.4.4.18Apr17-6-g9f103f2a35 (build May 12 2020 04:58:55) complex

 MD_VERSION_INFO: Compiled 2020-05-12T11:58:55-UTC in devlin.sd.materialsdesign.
 com:/home/medea2/data/build/wwolf/vasp-gpu5.4.4/13047/x86_64/src/src/build/std
 from svn 13047

 executed on                        Lin64 date 2023.03.19  06:09:25

 INCAR:
 POTCAR:    PAW_PBE Li_sv 10Sep2004
 POTCAR:    PAW_PBE Ni 02Aug2007
 POTCAR:    PAW_PBE Ta_pv 07Sep2000
 POTCAR:    PAW_PBE O 08Apr2002

 POTCAR:    PAW_PBE Li_sv 10Sep2004

 POTCAR:    PAW_PBE Ni 02Aug2007

 POTCAR:    PAW_PBE Ta_pv 07Sep2000

 POTCAR:    PAW_PBE O 08Apr2002

 Optimization of the real space projectors (new method)

 maximal supplied QI-value         = 22.11
 optimisation between [QCUT,QGAM] = [ 11.28, 22.77] = [ 35.61,145.23] Ry
 Optimized for a Real-space Cutoff    1.10 Angstroem

   l    n(q)    QCUT    max X(q) W(low)/X(q) W(high)/X(q)  e(spline)
   0      7    11.276    10.506    0.54E-04    0.58E-04    0.16E-07
   0      7    11.276     8.367    0.11E-03    0.14E-03    0.35E-07
   1      7    11.276     8.983    0.23E-03    0.43E-03    0.86E-07
 Optimization of the real space projectors (new method)

[...]

   l    n(q)    QCUT    max X(q) W(low)/X(q) W(high)/X(q)  e(spline)
   1     11    11.338     4.092    0.40E-05    0.64E-05    0.47E-07
   1     11    11.338     4.834    0.13E-04    0.44E-04    0.21E-06
   2     10    11.338    62.294    0.15E-03    0.31E-03    0.77E-06
   2     10    11.338    50.966    0.15E-03    0.31E-03    0.77E-06
   0     11    11.338   103.792    0.33E-04    0.19E-04    0.90E-07
   0     11    11.338    56.335    0.26E-04    0.17E-04    0.79E-07
 Optimization of the real space projectors (new method)

 maximal supplied QI-value         = 24.76
 optimisation between [QCUT,QGAM] = [ 11.39, 22.77] = [ 36.31,145.25] Ry
 Optimized for a Real-space Cutoff    1.10 Angstroem

   l    n(q)    QCUT    max X(q) W(low)/X(q) W(high)/X(q)  e(spline)
   0      7    11.387    20.381    0.22E-03    0.48E-03    0.18E-06
   0      7    11.387    15.268    0.22E-03    0.52E-03    0.19E-06
   1      7    11.387     5.964    0.22E-03    0.73E-03    0.24E-06
   1      7    11.387     5.382    0.19E-03    0.60E-03    0.21E-06

  PAW_PBE Li_sv 10Sep2004               :
  PAW_PBE Ni 02Aug2007                  :
  PAW_PBE Ta_pv 07Sep2000               :
  PAW_PBE O 08Apr2002                   :

 POSCAR: ConfSearched 1.4 ce283491_2
  positions in direct lattice
 exchange correlation table for  LEXCH =       14
   RHO(1)=    0.500       N(1)  =     2000
   RHO(2)=  100.500       N(2)  =     4000

 ion  position               nearest neighbor table
   1  0.009  0.499  0.998-  47 2.09  94 2.10  95 2.12  82 2.14  46 2.14  59 2.21  34 2.83
   2  0.113  0.836  0.216-  48 2.02  60 2.07  43 2.10  61 2.10  66 2.11  67 2.26
   3  0.192  0.169  0.108-  44 1.94  45 1.96  81 2.10  68 2.16  17 2.77  16 2.78
   4  0.363  0.500  0.020-  52 1.96  53 2.02  47 2.06  88 2.13  83 2.28  19 2.78  20 2.79
   5  0.464  0.827  0.232-  49 2.02  73 2.06  48 2.11  54 2.13  67 2.16  72 2.18  20 2.80  42 2.98

   6  0.969  0.501  0.323-  77 1.96  58 2.01  64 2.06  59 2.12  32 2.78  22 2.78
   7  0.129  0.831  0.562-  84 1.93  85 1.98  66 2.14  61 2.17  79 2.23  36 2.84  35 2.85
   8  0.550  0.167  0.443-  69 2.06  75 2.08  51 2.12  92 2.15  68 2.16  74 2.20
   9  0.791  0.832  0.578-  78 2.07  96 2.08  91 2.10  79 2.11  72 2.24  73 2.26  41 2.84  33 2.84

  10  0.883  0.165  0.415-  62 1.98  57 1.99  63 2.16  74 2.21  75 2.26  24 2.83
  11  0.210  0.169  0.767-  87 2.07  50 2.08  63 2.12  86 2.13  80 2.14  81 2.14  42 3.06
  12  0.325  0.502  0.656-  64 2.10  89 2.10  70 2.10  65 2.13  83 2.14  88 2.21  26 2.84
  13  0.574  0.167  0.808-  93 1.97  56 2.00  87 2.04  92 2.09  21 2.79  40 2.80
  14  0.667  0.500  0.654-  76 1.98  71 1.98  95 2.17  70 2.19  89 2.24  94 2.25  29 2.81  31 2.81

  15  0.743  0.837  0.894-  90 1.99  55 2.01  91 2.08  60 2.11  21 2.72  38 2.77
  16  1.000  0.002  0.999-  60 1.83  45 1.84  96 1.90  81 1.92  93 2.02  48 2.18   3 2.78  33 2.78
                            21 2.81  24 2.82  39 2.85  27 2.87  42 2.93
  17  0.114  0.334  0.221-  44 1.84  59 1.87  65 1.89  68 1.90  62 2.04  47 2.06   3 2.77  28 2.80
                            19 2.82  25 2.83  34 2.85  40 2.86  22 2.88
  18  0.229  0.666  0.114-  49 1.86  52 1.86  82 1.87  67 1.87  43 1.90  46 1.91  26 2.81  20 2.81
                            41 2.82  35 2.83  29 2.84  23 2.84
  19  0.445  0.337  0.219-  53 1.85  68 1.86  47 1.92  74 1.93  71 2.02  50 2.04   4 2.78  22 2.81
                            37 2.82  17 2.82  31 2.85  34 2.86  28 2.87
  20  0.559  0.666  0.114-  49 1.86  52 1.87  58 1.91  88 1.91  73 1.91  55 1.91   4 2.79   5 2.80
                            38 2.80  32 2.80  18 2.81  23 2.87  29 2.87  35 2.88
  21  0.672  0.002  0.003-  90 1.86  93 1.87  57 1.89  54 1.96  60 2.02  87 2.13  15 2.72  13 2.79
                            24 2.80  42 2.80  16 2.81  39 2.83  30 2.85  36 2.91
  22  0.775  0.334  0.220-  77 1.86  62 1.86  56 1.90  74 1.91  53 1.91  59 1.91   6 2.78  40 2.80
                            25 2.81  19 2.81  37 2.86  31 2.87  17 2.88
  23  0.896  0.666  0.113-  94 1.88  61 1.88  58 1.88  55 1.89  43 1.89  46 1.90  41 2.79  26 2.80
                            32 2.83  38 2.83  18 2.84  20 2.87
  24  0.000  0.998  0.332-  57 1.85  66 1.86  60 1.91  63 1.92  45 2.03  78 2.08  21 2.80  36 2.80
                            16 2.82  10 2.83  30 2.84  27 2.86  33 2.88
  25  0.105  0.335  0.550-  77 1.86  62 1.86  80 1.87  65 1.87  86 1.90  83 1.91  22 2.81  34 2.81
                            28 2.82  17 2.83  37 2.84  31 2.84
  26  0.225  0.665  0.443-  85 1.85  64 1.85  61 1.86  67 1.91  70 1.91  46 1.91  29 2.80  23 2.80
                            18 2.81  12 2.84  35 2.85  32 2.86  38 2.87
  27  0.338  0.998  0.335-  45 1.86  69 1.88  48 1.88  66 1.89  51 1.89  72 1.91  39 2.79  36 2.80
                            30 2.82  24 2.86  16 2.87  42 2.99
  28  0.438  0.333  0.554-  92 1.85  71 1.86  89 1.86  86 1.91  65 1.91  68 1.91  17 2.80  37 2.80
                            25 2.82  40 2.85  31 2.86  19 2.87
  29  0.558  0.664  0.452-  76 1.85  73 1.87  67 1.90  70 1.90  52 2.03  91 2.07  26 2.80  14 2.81
                            38 2.81  18 2.84  41 2.85  32 2.86  20 2.87
  30  0.670  0.999  0.338-  75 1.85  78 1.86  57 1.89  72 1.89  54 1.90  51 1.91  33 2.78  39 2.81
                            27 2.82  24 2.84  21 2.85  42 2.96
  31  0.776  0.335  0.558-  71 1.85  74 1.87  95 1.90  80 1.90  77 2.03  92 2.07  34 2.80  14 2.81
                            40 2.82  25 2.84  19 2.85  28 2.86  22 2.87
  32  0.889  0.663  0.444-  58 1.85  79 1.86  64 1.91  73 1.91  76 2.04  61 2.07   6 2.78  20 2.80
                            35 2.82  23 2.83  29 2.86  26 2.86  41 2.87
  33  0.992  0.001  0.668-  63 1.85  78 1.85  96 1.89  81 1.96  75 2.01  84 2.10  30 2.78  16 2.78
                            42 2.79  39 2.80   9 2.84  24 2.88  36 2.90
  34  0.109  0.336  0.883-  47 1.85  44 1.86  50 1.86  95 1.91  80 1.91  83 1.92  31 2.80  37 2.81
                            25 2.81   1 2.83  17 2.85  19 2.86  40 2.88
  35  0.220  0.668  0.776-  85 1.85  88 1.87  82 1.89  79 1.90  49 2.05  64 2.07  41 2.80  32 2.82
                            18 2.83   7 2.85  26 2.85  38 2.86  20 2.88
  36  0.330  0.000  0.661-  66 1.93  90 1.95  63 1.97  87 1.98  69 1.98  84 2.06  42 2.70  24 2.80
                            27 2.80  39 2.83   7 2.84  33 2.90  21 2.91
  37  0.439  0.335  0.884-  53 1.88  50 1.88  56 1.88  89 1.88  86 1.89  83 1.90  28 2.80  34 2.81
                            19 2.82  40 2.83  25 2.84  22 2.86
  38  0.559  0.668  0.784-  55 1.85  70 1.86  91 1.91  88 1.92  85 2.04  94 2.06  15 2.77  20 2.80
                            29 2.81  23 2.83  35 2.86  41 2.86  26 2.87
  39  0.663  0.004  0.666-  96 1.86  69 1.87  90 1.87  93 1.87  75 1.90  72 1.91  27 2.79  33 2.80
                            30 2.81  36 2.83  21 2.83  16 2.85
  40  0.774  0.333  0.889-  56 1.85  95 1.86  92 1.91  59 1.92  44 2.03  89 2.06  13 2.80  22 2.80
                            31 2.82  37 2.83  28 2.85  17 2.86  34 2.88
  41  0.896  0.667  0.785-  76 1.86  91 1.86  94 1.86  79 1.90  43 1.91  82 1.91  23 2.79  35 2.80
                            18 2.82   9 2.84  29 2.85  38 2.86  32 2.87
  42  0.333  0.988  0.981-  84 1.89  87 1.97  54 1.98  48 2.01  81 2.03  51 2.15  36 2.70  33 2.79
                            21 2.80  16 2.93  30 2.96   5 2.98  27 2.99  11 3.06
  43  0.011  0.734  0.009-  23 1.89  18 1.90  41 1.91   2 2.10
  44  0.017  0.268  0.005-  17 1.84  34 1.86   3 1.94  40 2.03
  45  0.126  0.066  0.217-  16 1.84  27 1.86   3 1.96  24 2.03
  46  0.112  0.597  0.218-  23 1.90  18 1.91  26 1.91   1 2.14
  47  0.226  0.408  0.094-  34 1.85  19 1.92   4 2.06  17 2.06   1 2.09
  48  0.245  0.920  0.128-  27 1.88  42 2.01   2 2.02   5 2.11  16 2.18
  49  0.349  0.736  0.022-  18 1.86  20 1.86   5 2.02  35 2.05
  50  0.318  0.265  0.979-  34 1.86  37 1.88  19 2.04  11 2.08
  51  0.450  0.068  0.229-  27 1.89  30 1.91   8 2.12  42 2.15
  52  0.440  0.597  0.208-  18 1.86  20 1.87   4 1.96  29 2.03
  53  0.551  0.400  0.107-  19 1.85  37 1.88  22 1.91   4 2.02
  54  0.569  0.926  0.122-  30 1.90  21 1.96  42 1.98   5 2.13
  55  0.676  0.732  0.004-  38 1.85  23 1.89  20 1.91  15 2.01
  56  0.658  0.270  0.993-  40 1.85  37 1.88  22 1.90  13 2.00
  57  0.786  0.063  0.231-  24 1.85  30 1.89  21 1.89  10 1.99
  58  0.783  0.601  0.222-  32 1.85  23 1.88  20 1.91   6 2.01
  59  0.897  0.400  0.115-  17 1.87  22 1.91  40 1.92   6 2.12   1 2.21
  60  0.904  0.930  0.109-  16 1.83  24 1.91  21 2.02   2 2.07  15 2.11
  61  0.017  0.737  0.330-  26 1.86  23 1.88  32 2.07   2 2.10   7 2.17
  62  0.987  0.265  0.336-  25 1.86  22 1.86  10 1.98  17 2.04
  63  0.098  0.067  0.557-  33 1.85  24 1.92  36 1.97  11 2.12  10 2.16
  64  0.107  0.594  0.534-  26 1.85  32 1.91   6 2.06  35 2.07  12 2.10
  65  0.217  0.401  0.443-  25 1.87  17 1.89  28 1.91  12 2.13
  66  0.215  0.932  0.434-  24 1.86  27 1.89  36 1.93   2 2.11   7 2.14
  67  0.340  0.732  0.334-  18 1.87  29 1.90  26 1.91   5 2.16   2 2.26
  68  0.337  0.269  0.326-  19 1.86  17 1.90  28 1.91   8 2.16   3 2.16
  69  0.448  0.071  0.548-  39 1.87  27 1.88  36 1.98   8 2.06
  70  0.448  0.600  0.568-  38 1.86  29 1.90  26 1.91  12 2.10  14 2.19
  71  0.563  0.401  0.465-  31 1.85  28 1.86  14 1.98  19 2.02
  72  0.560  0.931  0.449-  30 1.89  39 1.91  27 1.91   5 2.18   9 2.24
  73  0.667  0.730  0.343-  29 1.87  20 1.91  32 1.91   5 2.06   9 2.26
  74  0.668  0.269  0.339-  31 1.87  22 1.91  19 1.93   8 2.20  10 2.21
  75  0.761  0.074  0.544-  30 1.85  39 1.90  33 2.01   8 2.08  10 2.26
  76  0.771  0.598  0.571-  29 1.85  41 1.86  14 1.98  32 2.04
  77  0.894  0.404  0.434-  25 1.86  22 1.86   6 1.96  31 2.03
  78  0.879  0.929  0.458-  33 1.85  30 1.86   9 2.07  24 2.08
  79  0.996  0.732  0.659-  32 1.86  35 1.90  41 1.90   9 2.11   7 2.23
  80  0.996  0.268  0.659-  25 1.87  31 1.90  34 1.91  11 2.14
  81  0.117  0.073  0.895-  16 1.92  33 1.96  42 2.03   3 2.10  11 2.14
[...]
   -.225E+02 -.317E+03 0.820E+02   0.235E+02 0.335E+03 -.837E+02   -.974E+00 -.188E+02 0.171E+01   -.218E-02 -.151E-01 -.709E-02
   -.221E+02 0.345E+03 -.630E+02   0.224E+02 -.364E+03 0.699E+02   -.301E+00 0.187E+02 -.686E+01   0.229E-02 0.385E-01 0.175E-01
   -.409E+02 -.322E+03 -.370E+02   0.445E+02 0.342E+03 0.384E+02   -.361E+01 -.201E+02 -.136E+01   -.705E-04 0.103E-01 -.174E-01
   -.358E+02 0.305E+03 0.403E+02   0.442E+02 -.327E+03 -.378E+02   -.836E+01 0.218E+02 -.248E+01   0.681E-04 -.163E-01 -.141E-02
   0.422E+02 -.339E+03 -.210E+02   -.446E+02 0.359E+03 0.241E+02   0.236E+01 -.194E+02 -.311E+01   -.128E-01 0.443E-02 -.738E-03
   -.726E+01 0.343E+03 -.492E+02   0.622E+01 -.364E+03 0.521E+02   0.105E+01 0.201E+02 -.297E+01   -.909E-02 0.211E-02 0.407E-03
   -.477E+01 -.334E+03 0.455E+02   0.445E+01 0.353E+03 -.479E+02   0.308E+00 -.198E+02 0.248E+01   0.130E-01 -.211E-01 0.248E-02
   0.476E+02 0.328E+03 0.235E+02   -.502E+02 -.348E+03 -.265E+02   0.261E+01 0.199E+02 0.304E+01   -.186E-01 0.226E-01 0.493E-03
   0.263E+02 -.291E+03 0.191E+02   -.275E+02 0.307E+03 -.205E+02   0.125E+01 -.163E+02 0.137E+01   -.172E-01 0.161E-01 -.102E-01
   0.489E+02 0.294E+03 -.959E+00   -.534E+02 -.311E+03 0.132E+01   0.447E+01 0.165E+02 -.376E+00   0.317E-02 -.369E-02 0.711E-02
[...]
   0.311E+02 -.329E+03 0.674E+01   -.333E+02 0.347E+03 -.729E+01   0.222E+01 -.181E+02 0.547E+00   0.174E-01 0.688E-02 0.799E-02
   -.430E+01 0.298E+03 -.442E+01   0.280E+01 -.318E+03 -.408E+01   0.149E+01 0.202E+02 0.851E+01   0.910E-03 -.769E-02 -.300E-02
   -.524E+02 -.343E+03 -.468E+02   0.582E+02 0.361E+03 0.502E+02   -.574E+01 -.186E+02 -.349E+01   0.489E-02 -.194E-03 -.351E-02
   -.747E+01 0.351E+03 0.376E+02   0.815E+01 -.370E+03 -.398E+02   -.680E+00 0.189E+02 0.219E+01   -.447E-02 0.218E-02 0.683E-02
   -.952E+01 -.282E+03 -.536E+02   0.156E+02 0.300E+03 0.547E+02   -.611E+01 -.183E+02 -.105E+01   -.203E-02 -.149E-01 -.428E-02
   -.320E+02 0.299E+03 -.750E+01   0.338E+02 -.315E+03 0.761E+01   -.181E+01 0.164E+02 -.109E+00   -.337E-02 0.182E-01 0.768E-02
   -.377E+02 -.322E+03 -.538E+02   0.417E+02 0.338E+03 0.581E+02   -.399E+01 -.168E+02 -.428E+01   -.180E-01 0.118E-01 0.703E-02
   0.558E+02 0.326E+03 0.929E+01   -.605E+02 -.344E+03 -.128E+02   0.463E+01 0.183E+02 0.347E+01   -.284E-02 -.134E-01 -.259E-02
   0.400E+02 -.325E+03 0.346E+02   -.425E+02 0.341E+03 -.388E+02   0.252E+01 -.152E+02 0.421E+01   -.555E-02 -.484E-02 -.268E-01
   -.563E+02 0.324E+03 -.961E+01   0.614E+02 -.340E+03 0.941E+01   -.505E+01 0.161E+02 0.170E+00   -.494E-01 -.290E-01 0.258E-01
   -.396E+02 -.343E+03 -.556E+02   0.457E+02 0.362E+03 0.592E+02   -.603E+01 -.191E+02 -.358E+01   0.262E-02 -.207E-01 0.621E-02
   0.646E+02 0.327E+03 0.115E+02   -.703E+02 -.344E+03 -.132E+02   0.567E+01 0.170E+02 0.171E+01   -.730E-02 0.159E-01 -.753E-02
   -.115E+02 -.296E+03 0.164E+02   0.128E+02 0.313E+03 -.172E+02   -.128E+01 -.174E+02 0.671E+00   -.454E-03 0.394E-01 0.527E-01
   -.244E+02 0.305E+03 -.350E+02   0.251E+02 -.323E+03 0.369E+02   -.654E+00 0.185E+02 -.189E+01   0.152E-02 -.120E-01 0.316E-02
   0.123E+01 0.309E+01 -.553E+00   -.220E-12 0.512E-12 0.117E-11   -.123E+01 -.309E+01 0.538E+00   0.538E-02 0.983E-03 0.217E-02

 POSITION                                       TOTAL-FORCE (eV/Angst)
     -4.21149      7.12096      7.33482         0.000563     -0.001100      0.001110
     -0.04651     12.02986      1.58905         0.005001     -0.000886     -0.000849
      1.15989      2.42576      0.79297         0.003924     -0.005590     -0.003658
      2.94667      7.20788      0.14962         0.001390     -0.000099     -0.001304
      2.87553     11.90596      1.70400         0.002423      0.002281     -0.000628
      6.82577      7.19262      2.37624        -0.000076     -0.001574      0.000177
     -1.37457     11.93992      4.12749         0.004525     -0.001188      0.002697
      2.78280      2.38201      3.25833        -0.004733      0.001476      0.002942
      4.19263     11.95431      4.24779         0.003206     -0.003193      0.002970
      5.74127      2.35049      3.05254        -0.000594     -0.000402      0.001746
     -1.48303      2.37914      5.63373         0.004616     -0.000741     -0.006132
     -0.07216      7.18849      4.81973        -0.000142      0.001769     -0.001080
      1.44241      2.34748      5.94058         0.001008      0.000971      0.005906
      2.84950      7.15431      4.81006         0.001231      0.000352      0.000345
      2.44120     12.00078      6.56939         0.000323      0.003623     -0.000129
      4.27792     -0.03636      7.34572        -0.001986     -0.003272      0.000910
     -0.00581      4.79640      1.62355        -0.000623     -0.002002     -0.002279
      1.39298      9.58999      0.83677         0.001766     -0.000652      0.000734
      2.81834      4.84049      1.61082        -0.000475      0.001154     -0.000438
      4.20314      9.59793      0.83911         0.000798      0.000742      0.000559
      5.70716      0.02168      0.02409        -0.003064     -0.000029     -0.000100
      5.62906      4.80415      1.61545        -0.001506     -0.000371      0.001170
      7.07004      9.59717      0.83375         0.000822     -0.000481      0.000490
     -1.51886     14.36539      2.44015        -0.001049     -0.000467     -0.001688
     -1.47167      4.78775      4.04072        -0.002767      0.001179     -0.001705
     -0.03761      9.55197      3.25300        -0.000809      0.000849      0.000602
      1.34035     14.35711      2.46354         0.002125      0.001841     -0.002050
      1.34676      4.76520      4.06949         0.000104      0.000566      0.000264
      2.76123      9.53334      3.32124         0.001467     -0.000074      0.001253
      4.15636     14.37635      2.48267        -0.000286      0.001274     -0.001142
      4.20613      4.79421      4.10232        -0.001767     -0.000032     -0.000311
      5.61596      9.53094      3.26025         0.000682     -0.000320      0.001034
      5.62252     -0.03212      4.90763        -0.000222      0.000608     -0.002061
     -2.85486      4.78161      6.48961        -0.000779     -0.000772      0.001127
     -1.49114      9.57431      5.70377         0.002371      0.000856      0.001467
      0.00290     -0.04007      4.86172        -0.000628     -0.000324      0.000751
     -0.04712      4.76772      6.49366        -0.001409      0.000400     -0.000846
      1.36580      9.57618      5.76077         0.000768      0.001579      0.001446
      2.82796      0.01815      4.89243         0.001475      0.000116     -0.001806
      2.78511      4.73104      6.53452        -0.001277     -0.001538     -0.000395
      4.22595      9.55874      5.76621        -0.000292      0.000241      0.002898
     -1.43479     14.17728      7.20691        -0.001495      0.003272      0.002818
     -0.02998     10.58626      0.06468         0.002384     -0.002837      0.003287
      0.09046      3.86076      0.03780         0.001456     -0.002224     -0.001510
      0.15132      0.94204      1.59161         0.003213     -0.003394     -0.000042
     -0.03621      8.58681      1.60297        -0.001599      0.001237     -0.000011
      1.48250      5.86823      0.68833        -0.001337     -0.002000      0.001133
      1.43477     13.24990      0.94348        -0.003795      0.001485     -0.000388
      2.79321     10.60434      0.15939         0.002360     -0.002243      0.002067
     -1.47141      3.75420      7.19286        -0.002965      0.003329     -0.003967
      2.85086      0.95983      1.68456         0.001305     -0.001197     -0.000017
      2.79470      8.58585      1.53035         0.001055      0.000661     -0.002164
      4.19940      5.75951      0.78299        -0.001561     -0.000378      0.001437
      4.22489     13.33658      0.89453        -0.003260      0.001278     -0.001333
      5.65324     10.54627      0.02940         0.002232     -0.001380      0.002257
      1.36605      3.81772      7.29963        -0.002519      0.002320     -0.001723
      5.71091      0.89801      1.69696         0.001051     -0.002003      0.002616
      5.65572      8.64640      1.63248         0.000011      0.000688      0.001250
      7.10180      5.75697      0.84716         0.001789     -0.003529     -0.000281
      7.13480     13.39481      0.80144        -0.003173      0.002943     -0.003120
[...]
     -2.85668      8.58475      6.56587         0.000949      0.002865     -0.000636
     -1.43158      5.77220      5.67537        -0.000507     -0.001199      0.001582
     -1.52263     13.10083      5.65728        -0.008507     -0.003947     -0.002136
     -0.17474     10.52593      4.82284         0.000417     -0.000045      0.002114
     -0.08455      3.79139      4.87378        -0.002019      0.002992     -0.002510
     -0.08079      1.10231      6.47207        -0.004012      0.002262      0.003228
     -0.10613      8.60983      6.51432         0.000953      0.003525     -0.000240
      1.27389      5.79141      5.62197        -0.003193     -0.000663     -0.000211
      1.36735     13.46078      5.74489        -0.003431      0.003115     -0.002840
      2.83692     10.59388      5.09211         0.002181     -0.000231      0.004353
      2.63032      3.73389      4.91813        -0.003393      0.003571     -0.002099
      2.75141      0.98186      6.49358         0.001993     -0.003135      0.000062
      2.92569      8.51968      6.60083         0.000419      0.001170      0.001595
      4.16483      5.71582      5.75939         0.000000     -0.002878      0.000305
      4.06762     13.44025      5.69935        -0.000681      0.001833     -0.004038
    total drift:                                0.002875      0.003202     -0.012790

  FREE ENERGIE OF THE ION-ELECTRON SYSTEM (eV)
  free  energy   TOTEN  =      -597.1309259032 eV

  energy  without entropy=     -597.0958407755  energy(sigma->0) =     -597.11338334

volume of typ            1:    13.0 %

[...]

volume of typ            4:     9.8 %

total charge

# of ion       s       p       d       tot
    1        2.071   0.230   0.087   2.388
    2        2.079   0.254   0.098   2.431
    3        2.080   0.256   0.098   2.434
    4        2.081   0.258   0.099   2.438
    5        2.077   0.254   0.098   2.429
    6        2.081   0.259   0.099   2.439
    7        2.079   0.255   0.100   2.434
    8        2.072   0.235   0.089   2.396
    9        2.070   0.228   0.085   2.383
   10        2.074   0.238   0.090   2.401
   11        2.074   0.244   0.094   2.411
   12        2.071   0.231   0.087   2.389
   13        2.080   0.259   0.100   2.439
   14        2.077   0.247   0.094   2.418
   15        2.075   0.242   0.091   2.408
   16        0.271   0.347   7.860   8.479
   17        0.271   0.348   7.848   8.467
   18        0.297   0.409   7.830   8.535
   19        0.267   0.342   7.845   8.454
   20        0.284   0.381   7.823   8.488
   21        0.265   0.336   7.866   8.467
   22        0.285   0.383   7.822   8.491
   23        0.291   0.397   7.830   8.518
   24        0.268   0.342   7.848   8.458
   25        0.297   0.408   7.830   8.534
   26        0.293   0.400   7.828   8.520
   27        0.289   0.397   7.832   8.517
   28        0.293   0.399   7.827   8.519
   29        0.271   0.349   7.847   8.467
   30        0.291   0.400   7.838   8.529
   31        0.270   0.346   7.848   8.464
   32        0.268   0.342   7.846   8.456
   33        0.268   0.347   7.870   8.485
   34        0.292   0.397   7.829   8.518
   35        0.270   0.344   7.846   8.460
   36        0.245   0.304   7.875   8.425
   37        0.291   0.397   7.831   8.519
   38        0.268   0.342   7.847   8.457
   39        0.295   0.406   7.828   8.530
   40        0.268   0.343   7.846   8.457
   41        0.293   0.400   7.828   8.521
   42        0.299   6.188   1.968   8.456
   43        1.269   2.765   0.007   4.040
   44        1.270   2.764   0.007   4.041
   45        1.270   2.766   0.007   4.042
   46        1.268   2.766   0.006   4.040
   47        1.265   2.772   0.006   4.043
   48        1.259   2.817   0.005   4.082
   49        1.274   2.749   0.007   4.030
   50        1.269   2.762   0.006   4.037
   51        1.263   2.792   0.006   4.060
   52        1.273   2.755   0.007   4.035
   53        1.268   2.767   0.007   4.042
   54        1.262   2.811   0.007   4.080
   55        1.268   2.769   0.007   4.043
   56        1.268   2.769   0.007   4.044
   57        1.265   2.778   0.007   4.050
   58        1.268   2.769   0.007   4.043
   59        1.264   2.774   0.006   4.045
   60        1.262   2.781   0.006   4.050
[...]
   82        1.266   2.773   0.007   4.045
   83        1.268   2.766   0.006   4.040
   84        1.268   2.808   0.007   4.082
   85        1.271   2.760   0.007   4.038
   86        1.268   2.767   0.006   4.041
   87        1.260   2.814   0.006   4.080
   88        1.264   2.774   0.006   4.045
   89        1.268   2.763   0.006   4.038
   90        1.268   2.769   0.007   4.045
   91        1.264   2.773   0.006   4.042
   92        1.266   2.768   0.006   4.040
   93        1.272   2.752   0.007   4.031
   94        1.269   2.763   0.006   4.038
   95        1.260   2.786   0.007   4.053
   96        1.262   2.787   0.007   4.055
tot         107.07  169.29  207.60  483.96

magnetization (x)

# of ion       s       p       d       tot
    1        0.004   0.007   0.001   0.012
    2        0.004   0.011   0.002   0.017
    3        0.005   0.011   0.002   0.019
    4        0.005   0.012   0.002   0.019
    5        0.004   0.010   0.002   0.016
    6        0.005   0.012   0.002   0.018
    7        0.003   0.006   0.001   0.010
    8        0.004   0.011   0.002   0.017
    9        0.003   0.007   0.001   0.012
   10        0.004   0.009   0.001   0.015
   11        0.004   0.009   0.002   0.015
   12        0.003   0.007   0.001   0.012
   13        0.004   0.010   0.002   0.016
   14        0.005   0.011   0.002   0.018
   15        0.004   0.009   0.001   0.014
   16        0.004   0.001   0.695   0.700
   17        0.002  -0.000   0.669   0.671
   18       -0.001   0.000   0.095   0.095
   19        0.001  -0.000   0.688   0.689
   20       -0.001   0.000   0.171   0.171
   21        0.003   0.001   0.722   0.725
   22       -0.001   0.000   0.158   0.158
   23       -0.000  -0.000   0.156   0.155
   24        0.001  -0.001   0.679   0.680
   25       -0.001   0.000   0.098   0.097
   26       -0.001   0.000   0.090   0.090
   27       -0.001   0.000   0.123   0.122
   28       -0.001   0.000   0.090   0.090
   29        0.002  -0.000   0.672   0.674
   30       -0.001  -0.000   0.119   0.118
   31        0.002  -0.000   0.681   0.683
   32        0.002  -0.000   0.700   0.702
   33        0.003   0.001   0.703   0.707
   34       -0.001   0.000   0.116   0.115
   35        0.002  -0.000   0.686   0.688
   36        0.001  -0.000   1.124   1.125
   37       -0.000  -0.000   0.154   0.153
   38        0.002  -0.000   0.705   0.706
   39       -0.001  -0.001   0.067   0.065
   40        0.002  -0.000   0.693   0.694
   41       -0.001   0.000   0.093   0.093
   42       -0.001   0.000  -0.012  -0.012
   43        0.003   0.003   0.000   0.006
   44        0.009   0.098   0.000   0.108
   45        0.009   0.108   0.000   0.118
   46        0.003   0.001   0.000   0.004
   47        0.010   0.115   0.000   0.125
   48        0.006   0.060   0.000   0.066
   49        0.008   0.095   0.000   0.103
   50        0.008   0.084   0.000   0.092
   51        0.002  -0.005   0.000  -0.003
   52        0.009   0.099   0.000   0.108
   53        0.003   0.004   0.000   0.007
   54        0.002   0.013   0.000   0.015
   55        0.004   0.016   0.000   0.020
   56        0.003   0.008   0.000   0.011
   57        0.003   0.014   0.000   0.017
   58        0.003   0.006   0.000   0.010
   59        0.007   0.044   0.000   0.051
   60        0.010   0.135   0.000   0.146
[...]
   82        0.003   0.003   0.000   0.006
   83        0.003   0.004   0.000   0.007
   84        0.008   0.106   0.000   0.114
   85        0.009   0.101   0.000   0.111
   86        0.002   0.004   0.000   0.006
   87        0.008   0.095   0.000   0.104
   88        0.007   0.042   0.000   0.049
   89        0.008   0.085   0.000   0.094
   90        0.007   0.057   0.000   0.065
   91        0.009   0.112   0.000   0.122
   92        0.009   0.115   0.000   0.124
   93        0.010   0.142   0.000   0.153
   94        0.008   0.084   0.000   0.092
   95        0.004   0.010   0.000   0.014
   96        0.003   0.012   0.000   0.015
tot           0.41    3.19   10.97   14.57