 vasp.5.4.4.18Apr17-6-g9f103f2a35 (build May 12 2020 04:58:55) complex

 MD_VERSION_INFO: Compiled 2020-05-12T11:58:55-UTC in devlin.sd.materialsdesign.
 com:/home/medea2/data/build/wwolf/vasp-gpu5.4.4/13047/x86_64/src/src/build/std
 from svn 13047

 executed on                        Lin64 date 2023.03.16  12:33:45

 INCAR:
 POTCAR:    PAW_PBE Li_sv 10Sep2004
 POTCAR:    PAW_PBE Ni 02Aug2007
 POTCAR:    PAW_PBE O 08Apr2002

 POTCAR:    PAW_PBE Li_sv 10Sep2004

 POTCAR:    PAW_PBE Ni 02Aug2007

 POTCAR:    PAW_PBE O 08Apr2002

 Optimization of the real space projectors (new method)

 maximal supplied QI-value         = 22.11
 optimisation between [QCUT,QGAM] = [ 11.28, 22.77] = [ 35.61,145.23] Ry
 Optimized for a Real-space Cutoff    1.10 Angstroem

   l    n(q)    QCUT    max X(q) W(low)/X(q) W(high)/X(q)  e(spline)
   0      7    11.276    10.506    0.54E-04    0.58E-04    0.16E-07
   0      7    11.276     8.367    0.11E-03    0.14E-03    0.35E-07
   1      7    11.276     8.983    0.23E-03    0.43E-03    0.86E-07
 Optimization of the real space projectors (new method)

[...]

   l    n(q)    QCUT    max X(q) W(low)/X(q) W(high)/X(q)  e(spline)
   2      9    11.376    60.317    0.17E-03    0.16E-04    0.16E-06
   2      9    11.376    55.921    0.17E-03    0.16E-04    0.17E-06
   0     10    11.376    51.690    0.45E-04    0.60E-04    0.21E-06
   0     10    11.376    30.015    0.37E-04    0.55E-04    0.19E-06
   1     10    11.376    18.849    0.83E-04    0.11E-03    0.92E-07
   1     10    11.376    14.624    0.69E-04    0.92E-04    0.82E-07
 Optimization of the real space projectors (new method)

 maximal supplied QI-value         = 24.76
 optimisation between [QCUT,QGAM] = [ 11.39, 22.77] = [ 36.31,145.25] Ry
 Optimized for a Real-space Cutoff    1.10 Angstroem

   l    n(q)    QCUT    max X(q) W(low)/X(q) W(high)/X(q)  e(spline)
   0      7    11.387    20.381    0.22E-03    0.48E-03    0.18E-06
   0      7    11.387    15.268    0.22E-03    0.52E-03    0.19E-06
   1      7    11.387     5.964    0.22E-03    0.73E-03    0.24E-06
   1      7    11.387     5.382    0.19E-03    0.60E-03    0.21E-06

  PAW_PBE Li_sv 10Sep2004               :
  PAW_PBE Ni 02Aug2007                  :
  PAW_PBE O 08Apr2002                   :

 POSCAR: LiNiO2r3m.cif
  positions in direct lattice
 exchange correlation table for  LEXCH =       14
   RHO(1)=    0.500       N(1)  =     2000
   RHO(2)=  100.500       N(2)  =     4000

 ion  position               nearest neighbor table
   1  0.000  0.000  0.000-   3 2.10   3 2.10   4 2.10   4 2.10   3 2.10   4 2.10
   2  0.500  0.500  0.500-   4 1.94   4 1.94   3 1.94   3 1.94   4 1.94   3 1.94
   3  0.760  0.760  0.760-   2 1.94   2 1.94   2 1.94   1 2.10   1 2.10   1 2.10
   4  0.240  0.240  0.240-   2 1.94   2 1.94   2 1.94   1 2.10   1 2.10   1 2.10

  LATTYP: Found a trigonal (rhomboedric) cell.
 ALAT       =     4.9435273266
 COS(alpha) =     0.8331896363

  Lattice vectors:

 A1 = (   1.4276884800,   0.8242763300,   4.6605511000)
 A2 = (  -1.4276884800,   0.8242763300,   4.6605511000)
 A3 = (   0.0000000000,  -1.6485526600,   4.6605511000)

Analysis of symmetry for initial positions (statically):
 Subroutine PRICEL returns:
 Original cell was already a primitive cell.

 Routine SETGRP: Setting up the symmetry group for a
 trigonal (rhombohedral) supercell.

 Subroutine GETGRP returns: Found 12 space group operations
 (whereof 12 operations were pure point group operations)
 out of a pool of 12 trial point group operations.

The static configuration has the point symmetry D_3d.

Analysis of symmetry for dynamics (positions and initial velocities):
 Subroutine PRICEL returns:
 Original cell was already a primitive cell.

[...]

The dynamic configuration has the point symmetry D_3d.

Analysis of structural, dynamic, and magnetic symmetry:
 Subroutine PRICEL returns:
 Original cell was already a primitive cell.

 Routine SETGRP: Setting up the symmetry group for a
 trigonal (rhombohedral) supercell.

 Subroutine GETGRP returns: Found 12 space group operations
 (whereof 12 operations were pure point group operations)
 out of a pool of 12 trial point group operations.

The magnetic configuration has the point symmetry D_3d.

 Subroutine INISYM returns: Found 12 space group operations
 (whereof 12 operations are pure point group operations),
 and found     1 'primitive' translations

 KPOINTS: Automatic mesh

Automatic generation of k-mesh.
Space group operators:
 irot       det(A)        alpha          n_x          n_y          n_z        tau_x        tau_y        tau_z
    1     1.000000     0.000000     1.000000     0.000000     0.000000     0.000000     0.000000     0.000000
    2    -1.000000     0.000000     1.000000     0.000000     0.000000     0.000000     0.000000     0.000000
    3     1.000000   180.000000     0.500000    -0.866025     0.000000     0.000000     0.000000     0.000000
    4    -1.000000   180.000000     0.500000    -0.866025     0.000000     0.000000     0.000000     0.000000
    5     1.000000   120.000000     0.000000     0.000000    -1.000000     0.000000     0.000000     0.000000
    6    -1.000000   120.000000     0.000000     0.000000    -1.000000     0.000000     0.000000     0.000000
    7     1.000000   180.000000     1.000000     0.000000     0.000000     0.000000     0.000000     0.000000
    8    -1.000000   180.000000     1.000000     0.000000     0.000000     0.000000     0.000000     0.000000
    9     1.000000   120.000000     0.000000     0.000000     1.000000     0.000000     0.000000     0.000000
   10    -1.000000   120.000000     0.000000     0.000000     1.000000     0.000000     0.000000     0.000000
   11     1.000000   180.000000    -0.500000    -0.866025     0.000000     0.000000     0.000000     0.000000
   12    -1.000000   180.000000    -0.500000    -0.866025     0.000000     0.000000     0.000000     0.000000

 Subroutine IBZKPT returns following result:

 Found    146 irreducible k-points:

 Following reciprocal coordinates:
            Coordinates               Weight
  0.000000  0.000000  0.000000      1.000000
  0.090909 -0.000000 -0.000000      6.000000
  0.181818 -0.000000 -0.000000      6.000000
  0.272727 -0.000000 -0.000000      6.000000
  0.363636 -0.000000 -0.000000      6.000000
  0.454545 -0.000000  0.000000      6.000000
  0.090909  0.090909 -0.000000      6.000000
  0.181818  0.090909 -0.000000     12.000000
  0.272727  0.090909 -0.000000     12.000000
  0.363636  0.090909 -0.000000     12.000000
  0.454545  0.090909 -0.000000     12.000000
 -0.454545  0.090909  0.000000     12.000000
 -0.363636  0.090909  0.000000     12.000000
 -0.272727  0.090909  0.000000     12.000000
 -0.181818  0.090909  0.000000     12.000000
 -0.090909  0.090909  0.000000      6.000000
  0.181818  0.181818 -0.000000      6.000000
  0.272727  0.181818 -0.000000     12.000000
  0.363636  0.181818 -0.000000     12.000000
  0.454545  0.181818 -0.000000     12.000000
 -0.454545  0.181818 -0.000000     12.000000
 -0.363636  0.181818  0.000000     12.000000
 -0.272727  0.181818  0.000000     12.000000
 -0.181818  0.181818  0.000000      6.000000
  0.272727  0.272727 -0.000000      6.000000
  0.363636  0.272727 -0.000000     12.000000
  0.454545  0.272727 -0.000000     12.000000
 -0.454545  0.272727 -0.000000     12.000000
 -0.363636  0.272727  0.000000     12.000000
 -0.272727  0.272727  0.000000      6.000000
  0.363636  0.363636 -0.000000      6.000000
  0.454545  0.363636 -0.000000     12.000000
 -0.454545  0.363636 -0.000000     12.000000
 -0.363636  0.363636  0.000000      6.000000
  0.454545  0.454545 -0.000000      6.000000
 -0.454545  0.454545 -0.000000      6.000000
  0.090909  0.090909  0.090909      2.000000
  0.181818  0.090909  0.090909      6.000000
  0.272727  0.090909  0.090909      6.000000
  0.363636  0.090909  0.090909      6.000000
  0.454545  0.090909  0.090909      6.000000
 -0.454545  0.090909  0.090909      6.000000
 -0.363636  0.090909  0.090909      6.000000
 -0.272727  0.090909  0.090909      6.000000
 -0.181818  0.090909  0.090909      6.000000
 -0.090909  0.090909  0.090909      6.000000
  0.181818  0.181818  0.090909      6.000000
  0.272727  0.181818  0.090909     12.000000
  0.363636  0.181818  0.090909     12.000000
  0.454545  0.181818  0.090909     12.000000
 -0.454545  0.181818  0.090909     12.000000
 -0.363636  0.181818  0.090909     12.000000
 -0.272727  0.181818  0.090909     12.000000
 -0.181818  0.181818  0.090909     12.000000
 -0.090909  0.181818  0.090909     12.000000
  0.272727  0.272727  0.090909      6.000000
  0.363636  0.272727  0.090909     12.000000
  0.454545  0.272727  0.090909     12.000000
 -0.454545  0.272727  0.090909     12.000000
 -0.363636  0.272727  0.090909     12.000000
[...]
 -0.363636  0.454545  0.272727     12.000000
 -0.272727  0.454545  0.272727     12.000000
 -0.454545 -0.454545  0.272727      6.000000
 -0.363636 -0.454545  0.272727     12.000000
 -0.363636 -0.363636  0.272727      6.000000
  0.363636  0.363636  0.363636      2.000000
  0.454545  0.363636  0.363636      6.000000
 -0.454545  0.363636  0.363636      6.000000
 -0.363636  0.363636  0.363636      6.000000
  0.454545  0.454545  0.363636      6.000000
 -0.454545  0.454545  0.363636     12.000000
 -0.363636  0.454545  0.363636     12.000000
 -0.454545 -0.454545  0.363636      6.000000
  0.454545  0.454545  0.454545      2.000000
 -0.454545  0.454545  0.454545      6.000000

 Following cartesian coordinates:
            Coordinates               Weight
  0.000000  0.000000  0.000000      1.000000
  0.031838  0.018382  0.006502      6.000000
  0.063676  0.036763  0.013004      6.000000
  0.095514  0.055145  0.019506      6.000000
  0.127351  0.073526  0.026008      6.000000
  0.159189  0.091908  0.032510      6.000000
  0.000000  0.036763  0.013004      6.000000
  0.031838  0.055145  0.019506     12.000000
  0.063676  0.073526  0.026008     12.000000
  0.095514  0.091908  0.032510     12.000000
  0.127351  0.110290  0.039012     12.000000
 -0.191027 -0.073526 -0.026008     12.000000
 -0.159189 -0.055145 -0.019506     12.000000
 -0.127351 -0.036763 -0.013004     12.000000
 -0.095514 -0.018382 -0.006502     12.000000
 -0.063676  0.000000  0.000000      6.000000
  0.000000  0.073526  0.026008      6.000000
  0.031838  0.091908  0.032510     12.000000
  0.063676  0.110290  0.039012     12.000000
  0.095514  0.128671  0.045514     12.000000
 -0.222865 -0.055145 -0.019506     12.000000
 -0.191027 -0.036763 -0.013004     12.000000
 -0.159189 -0.018382 -0.006502     12.000000
 -0.127351  0.000000  0.000000      6.000000
  0.000000  0.110290  0.039012      6.000000
  0.031838  0.128671  0.045514     12.000000
  0.063676  0.147053  0.052016     12.000000
 -0.254703 -0.036763 -0.013004     12.000000
 -0.222865 -0.018382 -0.006502     12.000000
 -0.191027  0.000000  0.000000      6.000000
  0.000000  0.147053  0.052016      6.000000
  0.031838  0.165434  0.058518     12.000000
 -0.286541 -0.018382 -0.006502     12.000000
 -0.254703  0.000000  0.000000      6.000000
  0.000000  0.183816  0.065020      6.000000
 -0.318379  0.000000  0.000000      6.000000
  0.000000  0.000000  0.019506      2.000000
[...]
 k-point 32 :   0.4545 0.3636-0.0000  plane waves:     839
 k-point 33 :  -0.4545 0.3636-0.0000  plane waves:     842
 k-point 34 :  -0.3636 0.3636 0.0000  plane waves:     835
 k-point 35 :   0.4545 0.4545-0.0000  plane waves:     847
 k-point 36 :  -0.4545 0.4545-0.0000  plane waves:     842
 k-point 37 :   0.0909 0.0909 0.0909  plane waves:     827
 k-point 38 :   0.1818 0.0909 0.0909  plane waves:     830
 k-point 39 :   0.2727 0.0909 0.0909  plane waves:     833
 k-point 40 :   0.3636 0.0909 0.0909  plane waves:     835
 k-point 41 :   0.4545 0.0909 0.0909  plane waves:     832
 k-point 42 :  -0.4545 0.0909 0.0909  plane waves:     839
 k-point 43 :  -0.3636 0.0909 0.0909  plane waves:     839
 k-point 44 :  -0.2727 0.0909 0.0909  plane waves:     840
 k-point 45 :  -0.1818 0.0909 0.0909  plane waves:     835
 k-point 46 :  -0.0909 0.0909 0.0909  plane waves:     826
 k-point 47 :   0.1818 0.1818 0.0909  plane waves:     836
 k-point 48 :   0.2727 0.1818 0.0909  plane waves:     829
 k-point 49 :   0.3636 0.1818 0.0909  plane waves:     838
 k-point 50 :   0.4545 0.1818 0.0909  plane waves:     837
 k-point 51 :  -0.4545 0.1818 0.0909  plane waves:     838
 k-point 52 :  -0.3636 0.1818 0.0909  plane waves:     842
 k-point 53 :  -0.2727 0.1818 0.0909  plane waves:     835
 k-point 54 :  -0.1818 0.1818 0.0909  plane waves:     835
 k-point 55 :  -0.0909 0.1818 0.0909  plane waves:     829
 k-point 56 :   0.2727 0.2727 0.0909  plane waves:     830
 k-point 57 :   0.3636 0.2727 0.0909  plane waves:     833
 k-point 58 :   0.4545 0.2727 0.0909  plane waves:     833
 k-point 59 :  -0.4545 0.2727 0.0909  plane waves:     834
 k-point 60 :  -0.3636 0.2727 0.0909  plane waves:     834
[...]
 k-point 85 :  -0.1818-0.2727 0.0909  plane waves:     834
 k-point 86 :  -0.1818-0.1818 0.0909  plane waves:     828
 k-point 87 :   0.1818 0.1818 0.1818  plane waves:     839
 k-point 88 :   0.2727 0.1818 0.1818  plane waves:     829
 k-point 89 :   0.3636 0.1818 0.1818  plane waves:     833
 k-point 90 :   0.4545 0.1818 0.1818  plane waves:     836
 k-point 91 :  -0.4545 0.1818 0.1818  plane waves:     840
 k-point 92 :  -0.3636 0.1818 0.1818  plane waves:     841
 k-point 93 :  -0.2727 0.1818 0.1818  plane waves:     844
 k-point 94 :  -0.1818 0.1818 0.1818  plane waves:     844
 k-point 95 :   0.2727 0.2727 0.1818  plane waves:     834
 k-point 96 :   0.3636 0.2727 0.1818  plane waves:     832
 k-point 97 :   0.4545 0.2727 0.1818  plane waves:     839
 k-point 98 :  -0.4545 0.2727 0.1818  plane waves:     839
 k-point 99 :  -0.3636 0.2727 0.1818  plane waves:     843
 k-point ** :  -0.2727 0.2727 0.1818  plane waves:     840
 k-point ** :  -0.1818 0.2727 0.1818  plane waves:     841
 k-point ** :   0.3636 0.3636 0.1818  plane waves:     831
 k-point ** :   0.4545 0.3636 0.1818  plane waves:     834
 k-point ** :  -0.4545 0.3636 0.1818  plane waves:     833
 k-point ** :  -0.3636 0.3636 0.1818  plane waves:     838
 k-point ** :  -0.2727 0.3636 0.1818  plane waves:     838
 k-point ** :  -0.1818 0.3636 0.1818  plane waves:     838
 k-point ** :   0.4545 0.4545 0.1818  plane waves:     842
 k-point ** :  -0.4545 0.4545 0.1818  plane waves:     842
 k-point ** :  -0.3636 0.4545 0.1818  plane waves:     840
 k-point ** :  -0.2727 0.4545 0.1818  plane waves:     830
 k-point ** :  -0.1818 0.4545 0.1818  plane waves:     838
 k-point ** :  -0.4545-0.4545 0.1818  plane waves:     842
 k-point ** :  -0.3636-0.4545 0.1818  plane waves:     843
 k-point ** :  -0.2727-0.4545 0.1818  plane waves:     838
 k-point ** :  -0.3636-0.3636 0.1818  plane waves:     835
 k-point ** :  -0.2727-0.3636 0.1818  plane waves:     839
 k-point ** :  -0.2727-0.2727 0.1818  plane waves:     841
 k-point ** :   0.2727 0.2727 0.2727  plane waves:     836
 k-point ** :   0.3636 0.2727 0.2727  plane waves:     828
 k-point ** :   0.4545 0.2727 0.2727  plane waves:     831
 k-point ** :  -0.4545 0.2727 0.2727  plane waves:     846
 k-point ** :  -0.3636 0.2727 0.2727  plane waves:     847
 k-point ** :  -0.2727 0.2727 0.2727  plane waves:     838
 k-point ** :   0.3636 0.3636 0.2727  plane waves:     830
 k-point ** :   0.4545 0.3636 0.2727  plane waves:     832
 k-point ** :  -0.4545 0.3636 0.2727  plane waves:     839
 k-point ** :  -0.3636 0.3636 0.2727  plane waves:     844
 k-point ** :  -0.2727 0.3636 0.2727  plane waves:     844
 k-point ** :   0.4545 0.4545 0.2727  plane waves:     831
 k-point ** :  -0.4545 0.4545 0.2727  plane waves:     834
 k-point ** :  -0.3636 0.4545 0.2727  plane waves:     836
 k-point ** :  -0.2727 0.4545 0.2727  plane waves:     839
 k-point ** :  -0.4545-0.4545 0.2727  plane waves:     845
 k-point ** :  -0.3636-0.4545 0.2727  plane waves:     840
 k-point ** :  -0.3636-0.3636 0.2727  plane waves:     844
 k-point ** :   0.3636 0.3636 0.3636  plane waves:     827
 k-point ** :   0.4545 0.3636 0.3636  plane waves:     833
 k-point ** :  -0.4545 0.3636 0.3636  plane waves:     838
 k-point ** :  -0.3636 0.3636 0.3636  plane waves:     843
 k-point ** :   0.4545 0.4545 0.3636  plane waves:     831
 k-point ** :  -0.4545 0.4545 0.3636  plane waves:     834
 k-point ** :  -0.3636 0.4545 0.3636  plane waves:     836
 k-point ** :  -0.4545-0.4545 0.3636  plane waves:     835
 k-point ** :   0.4545 0.4545 0.4545  plane waves:     827
 k-point ** :  -0.4545 0.4545 0.4545  plane waves:     832

 maximum and minimum number of plane-waves per node :       847      821

 maximum number of plane-waves:       847
 maximum index in each direction:
   IXMAX=    9   IYMAX=    9   IZMAX=    9
   IXMIN=   -9   IYMIN=   -9   IZMIN=   -9

 The following grids will avoid any aliasing or wrap around errors in the Hartre
 e energy
  - symmetry arguments have not been applied
  - exchange correlation energies might require even more grid points
  - we recommend to set PREC=Normal or Accurate and rely on VASP defaults
 WARNING: aliasing errors must be expected set NGX to    40 to avoid them
 WARNING: aliasing errors must be expected set NGY to    40 to avoid them
 WARNING: aliasing errors must be expected set NGZ to    40 to avoid them

 serial   3D FFT for wavefunctions
 parallel 3D FFT for charge:
    minimum data exchange during FFTs selected (reduces bandwidth)

 Broyden mixing: mesh for mixing (old mesh)
   NGX = 17   NGY = 17   NGZ = 17
  (NGX  = 72   NGY  = 72   NGZ  = 72)
  gives a total of   4913 points

 initial charge density was supplied:
 charge density of overlapping atoms calculated
 number of electron      25.0000000 magnetization       2.5000000
 keeping initial charge density in first step

 Maximum index for non-local projection operator        18415
 Maximum index for augmentation-charges         2766 (set IRDMAX)

 First call to EWALD:  gamma=   0.553
 Maximum number of real-space cells 3x 3x 3
 Maximum number of reciprocal cells 4x 4x 4

--------------------------------------- Iteration      1(   1)  ---------------------------------------

 eigenvalue-minimisations  : 18912
 total energy-change (2. order) : 0.9095979E+02  (-0.1149917E+04)
 number of electron      25.0000000 magnetization       2.5000000
 augmentation part       25.0000000 magnetization       2.5000000

 Free energy of the ion-electron system (eV)
  alpha Z        PSCENC =        79.76210887
  Ewald energy   TEWEN  =     -1597.37877330
  -Hartree energ DENC   =      -593.04623322
  -exchange      EXHF   =         0.00000000
  -V(xc)+E(xc)   XCENC  =       102.29303436
  PAW double counting   =      1733.73763220    -1818.69483988
  entropy T*S    EENTRO =        -0.00162768
  eigenvalues    EBANDS =        44.91662485
  atomic energy  EATOM  =      2139.37186265
  Solvation  Ediel_sol  =         0.00000000
  free energy    TOTEN  =        90.95978884 eV

  energy without entropy =       90.96141652  energy(sigma->0) =       90.96060268

[...]

 eigenvalue-minimisations  : 23360
 total energy-change (2. order) :-0.1178503E+03  (-0.1088220E+03)
 number of electron      25.0000000 magnetization       2.5000000
 augmentation part       25.0000000 magnetization       2.5000000

[...]

 Broyden mixing:
  rms(total) = 0.25354E+01    rms(broyden)= 0.25349E+01
  rms(prec ) = 0.45384E+01
  weight for this iteration     100.00

[...]

 eigenvalues of (default mixing * dielectric matrix)
  average eigenvalue GAMMA=   0.2600
  0.2600

[...]

 eigenvalue-minimisations  : 26752
 total energy-change (2. order) : 0.8269532E-02  (-0.2803258E-01)
 number of electron      25.0000009 magnetization       0.9427399
 augmentation part        8.3277095 magnetization       0.6445803

[...]

 Broyden mixing:
  rms(total) = 0.61520E-02    rms(broyden)= 0.61491E-02
  rms(prec ) = 0.73109E-02
  weight for this iteration     100.00

 eigenvalues of (default mixing * dielectric matrix)
  average eigenvalue GAMMA=   1.0586
  2.4251  1.3402  0.9417  0.9417  0.4222  0.6947  0.6447

[...]

--------------------------------------- Iteration      1(  13)  ---------------------------------------

 eigenvalue-minimisations  : 25168
 total energy-change (2. order) :-0.5268243E-05  (-0.5166194E-05)
 number of electron      25.0000009 magnetization       1.0029764
 augmentation part        8.3282776 magnetization       0.7108855

 Free energy of the ion-electron system (eV)
  alpha Z        PSCENC =        79.76210887
  Ewald energy   TEWEN  =     -1597.37877330
  -Hartree energ DENC   =      -573.90806074
  -exchange      EXHF   =         0.00000000
  -V(xc)+E(xc)   XCENC  =       101.69751143
  PAW double counting   =      2244.85903315    -2333.46599330
  entropy T*S    EENTRO =        -0.00226806
  eigenvalues    EBANDS =       -84.70993838
  atomic energy  EATOM  =      2139.37186265
  Solvation  Ediel_sol  =         0.00000000
  free energy    TOTEN  =       -23.77451768 eV

  energy without entropy =      -23.77224962  energy(sigma->0) =      -23.77338365

 average (electrostatic) potential at core
  the test charge radii are     0.7079  0.9791  0.7215
  (the norm of the test charge is              1.0000)
       1 -57.3746       2 -86.1664       3 -69.7170       4 -69.7170

 E-fermi :   5.9098     XC(G=0): -11.9623     alpha+bet :-14.5396

 spin component 1

 k-point     1 :       0.0000    0.0000    0.0000
  band No.  band energies     occupation
      1     -38.0972      1.00000
      2     -14.2166      1.00000
      3     -12.4817      1.00000
      4      -1.2730      1.00000
      5       0.1201      1.00000
      6       0.1201      1.00000
      7       3.2667      1.00000
      8       3.2667      1.00000
      9       3.6037      1.00000
     10       3.6037      1.00000
     11       3.6372      1.00000
     12       4.2798      1.00000
     13       6.4315      0.00000
     14       6.4315      0.00000
     15      10.9355      0.00000
     16      12.9989      0.00000
     17      18.5646      0.00000
     18      20.5793      0.00000
     19      20.5793      0.00000
     20      25.7013      0.00000
     21      25.7013      0.00000
     22      25.8182      0.00000
     23      26.5737      0.00000
     24      27.1138      0.00000
     25      27.7813      0.00000
     26      27.7813      0.00000
     27      30.0222      0.00000
     28      32.3282      0.00000
     29      32.3282      0.00000
     30      34.2863      0.00000
     31      34.2863      0.00000
     32      36.5698      0.00000

[...]

 spin component 2

[...]

 k-point   146 :      -0.4545    0.4545    0.4545
  band No.  band energies     occupation
      1     -38.0764      1.00000
      2     -13.7921      1.00000
      3     -12.5138      1.00000
      4       0.0480      1.00000
      5       0.4520      1.00000
      6       0.7741      1.00000
      7       2.5708      1.00000
      8       2.9262      1.00000
      9       3.2280      1.00000
     10       4.0860      1.00000
     11       4.2699      1.00000
     12       5.0749      1.00000
     13       6.9806      0.00000
     14       7.1874      0.00000
     15      12.7123      0.00000
     16      13.7917      0.00000
     17      17.8451      0.00000
     18      21.1671      0.00000
     19      21.8390      0.00000
     20      22.2039      0.00000
     21      22.3788      0.00000
     22      23.4698      0.00000
     23      26.8884      0.00000
     24      28.2666      0.00000
     25      28.8936      0.00000
     26      30.2190      0.00000
     27      30.9868      0.00000
     28      31.5632      0.00000
     29      36.7688      0.00000
     30      37.7864      0.00000
     31      37.9579      0.00000
     32      38.9771      0.00000

 soft charge-density along one line, spin component           1
         0         1         2         3         4         5         6         7         8         9
 total charge-density along one line

 soft charge-density along one line, spin component           2
         0         1         2         3         4         5         6         7         8         9
 total charge-density along one line

------------------------ aborting loop because EDIFF is reached ----------------------------------------

  FORCE on cell =-STRESS in cart. coord.  units (eV):
  Direction    XX          YY          ZZ          XY          YZ          ZX
  Alpha Z    79.76211    79.76211    79.76211
  Ewald    -385.92797  -385.92797  -825.52464     0.00000     0.00000    -0.00000
  Hartree   301.95823   301.95823   -29.98853     0.00000     0.00000     0.00000
  E(xc)    -126.52289  -126.52289  -126.56569     0.00000    -0.00000     0.00000
  Local    -383.69394  -383.69394   380.87827    -0.00000    -0.00000    -0.00000
  n-local   -67.78957   -67.20294   -69.39661     0.97935    -0.06253     0.76112
  augment   206.11028   206.11028   207.95649     0.00000    -0.00000    -0.00000
  Kinetic   375.92673   375.69272   382.87701     0.18845    -0.26253    -0.42992
  Fock        0.00000     0.00000     0.00000     0.00000     0.00000     0.00000
  Total       -0.0007036     -0.0007036     -0.0016060      0.0000000      0.0000000      0.0000000
  in kB       -0.0342544     -0.0342544     -0.0781933      0.0000000      0.0000000      0.0000000

 VOLUME and BASIS-vectors are now :
  energy-cutoff  :      500.00
  volume of cell :       32.91
      direct lattice vectors                 reciprocal lattice vectors
     1.427688480  0.824276330  4.660551100     0.350216456  0.202197565  0.071522300
    -1.427688480  0.824276330  4.660551100    -0.350216456  0.202197565  0.071522300
     0.000000000 -1.648552660  4.660551100     0.000000000 -0.404395130  0.071522300

  length of vectors
     4.943527326  4.943527326  4.943527327     0.410671232  0.410671232  0.410671231

 FORCES acting on ions
    electron-ion (+dipol)            ewald-force                    non-local-force                 convergence-correction
   0.780E-15 0.361E-14 -.376E-13   -.165E-14 0.205E-14 -.426E-13   -.165E-23 -.165E-23 0.000E+00   -.354E-14 -.214E-14 0.223E-13
   -.343E-12 -.566E-12 0.365E-11   0.164E-13 -.644E-14 0.000E+00   0.000E+00 -.562E-22 -.265E-22   -.223E-13 0.527E-14 -.614E-13
   -.421E-11 0.260E-06 0.251E+03   0.214E-14 -.381E-06 -.263E+03   -.278E-16 0.278E-16 0.114E+02   0.467E-13 0.462E-09 -.173E-01
   0.222E-11 -.260E-06 -.251E+03   -.180E-13 0.381E-06 0.263E+03   -.278E-16 -.278E-16 -.114E+02   -.389E-13 -.462E-09 0.173E-01
   -.233E-11 -.222E-12 -.746E-12   -.110E-14 -.162E-14 -.568E-13   -.555E-16 -.579E-22 -.178E-14   -.179E-13 0.504E-15 -.494E-13

 POSITION                                       TOTAL-FORCE (eV/Angst)
      0.00000      0.00000      0.00000         0.000000      0.000000     -0.000000
      0.00000      0.00000      6.99083         0.000000      0.000000      0.000000
      0.00000      0.00000     10.61965         0.000000     -0.000000     -0.007936
      0.00000      0.00000      3.36200         0.000000      0.000000      0.007936
    total drift:                               -0.000000     -0.000000     -0.000000

  FREE ENERGIE OF THE ION-ELECTRON SYSTEM (eV)
  free  energy   TOTEN  =       -23.7745176785 eV

  energy  without entropy=      -23.7722496209  energy(sigma->0) =      -23.77338365

volume of typ            1:    23.7 %

[...]

volume of typ            3:     9.9 %

total charge

# of ion       s       p       d       tot
    1        2.085   0.272   0.104   2.461
    2        0.258   0.330   7.856   8.444
    3        1.258   2.792   0.005   4.055
    4        1.258   2.792   0.005   4.055
tot           4.86    6.19    7.97   19.01

magnetization (x)

# of ion       s       p       d       tot
    1        0.007   0.014   0.001   0.022
    2       -0.000  -0.000   0.742   0.742
    3        0.013   0.076   0.000   0.089
    4        0.013   0.076   0.000   0.089
tot           0.03    0.17    0.74    0.94