 vasp.5.4.4.18Apr17-6-g9f103f2a35 (build May 12 2020 04:58:55) complex

 MD_VERSION_INFO: Compiled 2020-05-12T11:58:55-UTC in devlin.sd.materialsdesign.
 com:/home/medea2/data/build/wwolf/vasp-gpu5.4.4/13047/x86_64/src/src/build/std
 from svn 13047

 executed on                        Lin64 date 2023.03.16  15:31:48

 INCAR:
 POTCAR:    PAW_PBE Li_sv 10Sep2004
 POTCAR:    PAW_PBE Ni 02Aug2007
 POTCAR:    PAW_PBE O 08Apr2002

 POTCAR:    PAW_PBE Li_sv 10Sep2004

 POTCAR:    PAW_PBE Ni 02Aug2007

 POTCAR:    PAW_PBE O 08Apr2002

 Optimization of the real space projectors (new method)

 maximal supplied QI-value         = 22.11
 optimisation between [QCUT,QGAM] = [ 11.28, 22.77] = [ 35.61,145.23] Ry
 Optimized for a Real-space Cutoff    1.10 Angstroem

   l    n(q)    QCUT    max X(q) W(low)/X(q) W(high)/X(q)  e(spline)
   0      7    11.276    10.506    0.54E-04    0.58E-04    0.16E-07
   0      7    11.276     8.367    0.11E-03    0.14E-03    0.35E-07
   1      7    11.276     8.983    0.23E-03    0.43E-03    0.86E-07
 Optimization of the real space projectors (new method)

[...]

   l    n(q)    QCUT    max X(q) W(low)/X(q) W(high)/X(q)  e(spline)
   2      9    11.376    60.317    0.17E-03    0.16E-04    0.16E-06
   2      9    11.376    55.921    0.17E-03    0.16E-04    0.17E-06
   0     10    11.376    51.690    0.45E-04    0.60E-04    0.21E-06
   0     10    11.376    30.015    0.37E-04    0.55E-04    0.19E-06
   1     10    11.376    18.849    0.83E-04    0.11E-03    0.92E-07
   1     10    11.376    14.624    0.69E-04    0.92E-04    0.82E-07
 Optimization of the real space projectors (new method)

 maximal supplied QI-value         = 24.76
 optimisation between [QCUT,QGAM] = [ 11.39, 22.77] = [ 36.31,145.25] Ry
 Optimized for a Real-space Cutoff    1.10 Angstroem

   l    n(q)    QCUT    max X(q) W(low)/X(q) W(high)/X(q)  e(spline)
   0      7    11.387    20.381    0.22E-03    0.48E-03    0.18E-06
   0      7    11.387    15.268    0.22E-03    0.52E-03    0.19E-06
   1      7    11.387     5.964    0.22E-03    0.73E-03    0.24E-06
   1      7    11.387     5.382    0.19E-03    0.60E-03    0.21E-06

  PAW_PBE Li_sv 10Sep2004               :
  PAW_PBE Ni 02Aug2007                  :
  PAW_PBE O 08Apr2002                   :

 POSCAR: Copy of LiNiO2c2m.cif_1 merged with LiNi
  positions in direct lattice
 exchange correlation table for  LEXCH =       14
   RHO(1)=    0.500       N(1)  =     2000
   RHO(2)=  100.500       N(2)  =     4000

 ion  position               nearest neighbor table
   1  0.000  0.000  0.500-   4 2.09   4 2.09   3 2.09   3 2.09   4 2.11   3 2.11
   2  0.000  0.000  0.000-   4 1.90   4 1.90   3 1.90   3 1.90   3 2.05   4 2.05
   3  0.492  0.000  0.778-   2 1.90   2 1.90   2 2.05   1 2.09   1 2.09   1 2.11
   4  0.508  0.000  0.222-   2 1.90   2 1.90   2 2.05   1 2.09   1 2.09   1 2.11

  LATTYP: Found a base centered monoclinic cell.
 ALAT       =     5.0704965000
 B/A-ratio  =     0.5519351369
 C/A-ratio  =     1.1223676630
 COS(beta)  =    -0.5025014557

  Lattice vectors:

 A1 = (   2.5352482500,   1.3992925900,   0.0000000000)
 A2 = (   2.5352482500,  -1.3992925900,   0.0000000000)
 A3 = (  -3.2663824700,   0.0000000000,  -4.6602345600)

Analysis of symmetry for initial positions (statically):
 Subroutine PRICEL returns:
 Original cell was already a primitive cell.

 Routine SETGRP: Setting up the symmetry group for a
 base centered monoclinic supercell.

 Subroutine GETGRP returns: Found  4 space group operations
 (whereof  4 operations were pure point group operations)
 out of a pool of  4 trial point group operations.

The static configuration has the point symmetry C_2h.

Analysis of symmetry for dynamics (positions and initial velocities):
 Subroutine PRICEL returns:
 Original cell was already a primitive cell.

[...]

The dynamic configuration has the point symmetry C_2h.

Analysis of structural, dynamic, and magnetic symmetry:
 Subroutine PRICEL returns:
 Original cell was already a primitive cell.

 Routine SETGRP: Setting up the symmetry group for a
 base centered monoclinic supercell.

 Subroutine GETGRP returns: Found  4 space group operations
 (whereof  4 operations were pure point group operations)
 out of a pool of  4 trial point group operations.

The magnetic configuration has the point symmetry C_2h.

 Subroutine INISYM returns: Found  4 space group operations
 (whereof  4 operations are pure point group operations),
 and found     1 'primitive' translations

 KPOINTS: Automatic mesh

Automatic generation of k-mesh.
Space group operators:
 irot       det(A)        alpha          n_x          n_y          n_z        tau_x        tau_y        tau_z
    1     1.000000     0.000000     1.000000     0.000000     0.000000     0.000000     0.000000     0.000000
    2    -1.000000     0.000000     1.000000     0.000000     0.000000     0.000000     0.000000     0.000000
    3     1.000000   180.000000     0.000000     1.000000     0.000000     0.000000     0.000000     0.000000
    4    -1.000000   180.000000     0.000000     1.000000     0.000000     0.000000     0.000000     0.000000

 Subroutine IBZKPT returns following result:

 Found    524 irreducible k-points:

 Following reciprocal coordinates:
            Coordinates               Weight
  0.000000  0.000000  0.000000      1.000000
  0.055556  0.000000 -0.000000      4.000000
  0.111111  0.000000 -0.000000      4.000000
  0.166667  0.000000 -0.000000      4.000000
  0.222222  0.000000 -0.000000      4.000000
  0.277778 -0.000000  0.000000      4.000000
  0.333333  0.000000 -0.000000      4.000000
  0.388889  0.000000 -0.000000      4.000000
  0.444444  0.000000 -0.000000      4.000000
  0.500000  0.000000  0.000000      2.000000
  0.000000  0.055556  0.000000      2.000000
  0.111111  0.055556 -0.000000      2.000000
  0.166667  0.055556 -0.000000      4.000000
  0.222222  0.055556 -0.000000      4.000000
  0.277778  0.055556  0.000000      4.000000
  0.333333  0.055556 -0.000000      4.000000
  0.388889  0.055556 -0.000000      4.000000
  0.444444  0.055556 -0.000000      4.000000
  0.500000  0.055556  0.000000      4.000000
 -0.444444  0.055556  0.000000      4.000000
 -0.388889  0.055556  0.000000      4.000000
 -0.333333  0.055556  0.000000      4.000000
 -0.277778  0.055556  0.000000      4.000000
 -0.222222  0.055556  0.000000      4.000000
 -0.166667  0.055556  0.000000      4.000000
 -0.111111  0.055556  0.000000      4.000000
 -0.055556  0.055556  0.000000      4.000000
  0.000000  0.111111  0.000000      2.000000
  0.222222  0.111111 -0.000000      2.000000
  0.277778  0.111111  0.000000      4.000000
  0.333333  0.111111 -0.000000      4.000000
  0.388889  0.111111 -0.000000      4.000000
  0.444444  0.111111 -0.000000      4.000000
  0.500000  0.111111  0.000000      4.000000
 -0.444444  0.111111  0.000000      4.000000
 -0.388889  0.111111  0.000000      4.000000
 -0.333333  0.111111  0.000000      4.000000
 -0.277778  0.111111  0.000000      4.000000
 -0.222222  0.111111  0.000000      4.000000
 -0.166667  0.111111  0.000000      4.000000
 -0.111111  0.111111  0.000000      4.000000
 -0.055556  0.111111  0.000000      4.000000
  0.000000  0.166667  0.000000      2.000000
  0.333333  0.166667 -0.000000      2.000000
  0.388889  0.166667 -0.000000      4.000000
  0.444444  0.166667 -0.000000      4.000000
  0.500000  0.166667  0.000000      4.000000
 -0.444444  0.166667  0.000000      4.000000
 -0.388889  0.166667  0.000000      4.000000
 -0.333333  0.166667  0.000000      4.000000
 -0.277778  0.166667  0.000000      4.000000
 -0.222222  0.166667  0.000000      4.000000
 -0.166667  0.166667  0.000000      4.000000
 -0.111111  0.166667  0.000000      4.000000
 -0.055556  0.166667  0.000000      4.000000
  0.000000  0.222222  0.000000      2.000000
  0.444444  0.222222 -0.000000      2.000000
  0.500000  0.222222  0.000000      4.000000
 -0.444444  0.222222  0.000000      4.000000
 -0.388889  0.222222  0.000000      4.000000
[...]
 -0.333333  0.333333  0.500000      2.000000
 -0.277778  0.333333  0.500000      4.000000
 -0.222222  0.333333  0.500000      4.000000
 -0.166667  0.333333  0.500000      4.000000
 -0.111111  0.333333  0.500000      4.000000
 -0.055556  0.333333  0.500000      4.000000
  0.000000  0.388889  0.500000      2.000000
 -0.222222  0.388889  0.500000      2.000000
 -0.166667  0.388889  0.500000      4.000000
 -0.111111  0.388889  0.500000      4.000000
 -0.055556  0.388889  0.500000      4.000000
  0.000000  0.444444  0.500000      2.000000
 -0.111111  0.444444  0.500000      2.000000
 -0.055556  0.444444  0.500000      4.000000
  0.000000  0.500000  0.500000      1.000000

 Following cartesian coordinates:
            Coordinates               Weight
  0.000000  0.000000  0.000000      1.000000
  0.010957 -0.019851 -0.007680      4.000000
  0.021913 -0.039703 -0.015359      4.000000
  0.032870 -0.059554 -0.023039      4.000000
  0.043827 -0.079405 -0.030718      4.000000
  0.054783 -0.099257 -0.038398      4.000000
  0.065740 -0.119108 -0.046077      4.000000
  0.076696 -0.138959 -0.053757      4.000000
  0.087653 -0.158810 -0.061436      4.000000
  0.098610 -0.178662 -0.069116      2.000000
  0.000000  0.039703  0.000000      2.000000
  0.021913  0.000000 -0.015359      2.000000
  0.032870 -0.019851 -0.023039      4.000000
  0.043827 -0.039703 -0.030718      4.000000
  0.054783 -0.059554 -0.038398      4.000000
  0.065740 -0.079405 -0.046077      4.000000
  0.076696 -0.099257 -0.053757      4.000000
  0.087653 -0.119108 -0.061436      4.000000
  0.098610 -0.138959 -0.069116      4.000000
 -0.087653  0.198513  0.061436      4.000000
 -0.076696  0.178662  0.053757      4.000000
 -0.065740  0.158810  0.046077      4.000000
 -0.054783  0.138959  0.038398      4.000000
 -0.043827  0.119108  0.030718      4.000000
 -0.032870  0.099257  0.023039      4.000000
 -0.021913  0.079405  0.015359      4.000000
 -0.010957  0.059554  0.007680      4.000000
  0.000000  0.079405  0.000000      2.000000
  0.043827 -0.000000 -0.030718      2.000000
  0.054783 -0.019851 -0.038398      4.000000
  0.065740 -0.039703 -0.046077      4.000000
  0.076696 -0.059554 -0.053757      4.000000
  0.087653 -0.079405 -0.061436      4.000000
  0.098610 -0.099257 -0.069116      4.000000
 -0.087653  0.238216  0.061436      4.000000
 -0.076696  0.218364  0.053757      4.000000
 -0.065740  0.198513  0.046077      4.000000
 -0.054783  0.178662  0.038398      4.000000
 -0.043827  0.158810  0.030718      4.000000
 -0.032870  0.138959  0.023039      4.000000
 -0.021913  0.119108  0.015359      4.000000
 -0.010957  0.099257  0.007680      4.000000
  0.000000  0.119108  0.000000      2.000000
  0.065740  0.000000 -0.046077      2.000000
  0.076696 -0.019851 -0.053757      4.000000
  0.087653 -0.039703 -0.061436      4.000000
  0.098610 -0.059554 -0.069116      4.000000
 -0.087653  0.277918  0.061436      4.000000
 -0.076696  0.258067  0.053757      4.000000
 -0.065740  0.238216  0.046077      4.000000
 -0.054783  0.218364  0.038398      4.000000
 -0.043827  0.198513  0.030718      4.000000
 -0.032870  0.178662  0.023039      4.000000
 -0.021913  0.158810  0.015359      4.000000
[...]
 k-point 58 :   0.5000 0.2222 0.0000  plane waves:     837
 k-point 59 :  -0.4444 0.2222 0.0000  plane waves:     835
 k-point 60 :  -0.3889 0.2222 0.0000  plane waves:     835
[...]
 k-point 85 :  -0.1667 0.3889 0.0000  plane waves:     843
 k-point 86 :  -0.1111 0.3889 0.0000  plane waves:     850
 k-point 87 :  -0.0556 0.3889 0.0000  plane waves:     845
 k-point 88 :   0.0000 0.4444 0.0000  plane waves:     851
 k-point 89 :  -0.1111 0.4444 0.0000  plane waves:     842
 k-point 90 :  -0.0556 0.4444 0.0000  plane waves:     843
 k-point 91 :   0.0000 0.5000 0.0000  plane waves:     836
 k-point 92 :   0.0000 0.0000 0.1667  plane waves:     842
 k-point 93 :   0.0556 0.0000 0.1667  plane waves:     838
 k-point 94 :   0.1111 0.0000 0.1667  plane waves:     832
 k-point 95 :   0.1667 0.0000 0.1667  plane waves:     831
 k-point 96 :   0.2222 0.0000 0.1667  plane waves:     835
 k-point 97 :   0.2778-0.0000 0.1667  plane waves:     839
 k-point 98 :   0.3333 0.0000 0.1667  plane waves:     836
 k-point 99 :   0.3889 0.0000 0.1667  plane waves:     844
 k-point ** :   0.4444 0.0000 0.1667  plane waves:     849
 k-point ** :   0.5000 0.0000 0.1667  plane waves:     842
 k-point ** :  -0.4444 0.0000 0.1667  plane waves:     845
 k-point ** :  -0.3889 0.0000 0.1667  plane waves:     845
 k-point ** :  -0.3333 0.0000 0.1667  plane waves:     844
 k-point ** :  -0.2778 0.0000 0.1667  plane waves:     839
 k-point ** :  -0.2222 0.0000 0.1667  plane waves:     841
 k-point ** :  -0.1667 0.0000 0.1667  plane waves:     841
 k-point ** :  -0.1111 0.0000 0.1667  plane waves:     837
 k-point ** :  -0.0556 0.0000 0.1667  plane waves:     838
 k-point ** :   0.0000 0.0556 0.1667  plane waves:     835
 k-point ** :   0.1111 0.0556 0.1667  plane waves:     842
 k-point ** :   0.1667 0.0556 0.1667  plane waves:     837
 k-point ** :   0.2222 0.0556 0.1667  plane waves:     837
 k-point ** :   0.2778 0.0556 0.1667  plane waves:     830
 k-point ** :   0.3333 0.0556 0.1667  plane waves:     832
 k-point ** :   0.3889 0.0556 0.1667  plane waves:     833
 k-point ** :   0.4444 0.0556 0.1667  plane waves:     841
 k-point ** :   0.5000 0.0556 0.1667  plane waves:     842
 k-point ** :  -0.4444 0.0556 0.1667  plane waves:     845
 k-point ** :  -0.3889 0.0556 0.1667  plane waves:     847
 k-point ** :  -0.3333 0.0556 0.1667  plane waves:     850
 k-point ** :  -0.2778 0.0556 0.1667  plane waves:     848
 k-point ** :  -0.2222 0.0556 0.1667  plane waves:     845
 k-point ** :  -0.1667 0.0556 0.1667  plane waves:     843
 k-point ** :  -0.1111 0.0556 0.1667  plane waves:     846
 k-point ** :  -0.0556 0.0556 0.1667  plane waves:     839
 k-point ** :   0.0000 0.1111 0.1667  plane waves:     842
 k-point ** :   0.0556 0.1111 0.1667  plane waves:     838
 k-point ** :   0.2222 0.1111 0.1667  plane waves:     841
 k-point ** :   0.2778 0.1111 0.1667  plane waves:     841
 k-point ** :   0.3333 0.1111 0.1667  plane waves:     835
 k-point ** :   0.3889 0.1111 0.1667  plane waves:     842
 k-point ** :   0.4444 0.1111 0.1667  plane waves:     839
 k-point ** :   0.5000 0.1111 0.1667  plane waves:     841
 k-point ** :  -0.4444 0.1111 0.1667  plane waves:     840
 k-point ** :  -0.3889 0.1111 0.1667  plane waves:     849
 k-point ** :  -0.3333 0.1111 0.1667  plane waves:     847
 k-point ** :  -0.2778 0.1111 0.1667  plane waves:     848
 k-point ** :  -0.2222 0.1111 0.1667  plane waves:     844
 k-point ** :  -0.1667 0.1111 0.1667  plane waves:     845
 k-point ** :  -0.1111 0.1111 0.1667  plane waves:     843
 k-point ** :  -0.0556 0.1111 0.1667  plane waves:     844
 k-point ** :   0.0000 0.1667 0.1667  plane waves:     839
 k-point ** :   0.0556 0.1667 0.1667  plane waves:     835
 k-point ** :   0.1111 0.1667 0.1667  plane waves:     842
 k-point ** :   0.3333 0.1667 0.1667  plane waves:     843
 k-point ** :   0.3889 0.1667 0.1667  plane waves:     837
 k-point ** :   0.4444 0.1667 0.1667  plane waves:     833
 k-point ** :   0.5000 0.1667 0.1667  plane waves:     841
 k-point ** :  -0.4444 0.1667 0.1667  plane waves:     841
 k-point ** :  -0.3889 0.1667 0.1667  plane waves:     840
 k-point ** :  -0.3333 0.1667 0.1667  plane waves:     844
 k-point ** :  -0.2778 0.1667 0.1667  plane waves:     847
 k-point ** :  -0.2222 0.1667 0.1667  plane waves:     844
 k-point ** :  -0.1667 0.1667 0.1667  plane waves:     839
 k-point ** :  -0.1111 0.1667 0.1667  plane waves:     841
 k-point ** :  -0.0556 0.1667 0.1667  plane waves:     842
 k-point ** :   0.0000 0.2222 0.1667  plane waves:     843
 k-point ** :   0.0556 0.2222 0.1667  plane waves:     843
[...]
 k-point ** :  -0.3333 0.3333 0.5000  plane waves:     842
 k-point ** :  -0.2778 0.3333 0.5000  plane waves:     835
 k-point ** :  -0.2222 0.3333 0.5000  plane waves:     835
 k-point ** :  -0.1667 0.3333 0.5000  plane waves:     833
 k-point ** :  -0.1111 0.3333 0.5000  plane waves:     835
 k-point ** :  -0.0556 0.3333 0.5000  plane waves:     833
 k-point ** :   0.0000 0.3889 0.5000  plane waves:     840
 k-point ** :  -0.2222 0.3889 0.5000  plane waves:     835
 k-point ** :  -0.1667 0.3889 0.5000  plane waves:     833
 k-point ** :  -0.1111 0.3889 0.5000  plane waves:     834
 k-point ** :  -0.0556 0.3889 0.5000  plane waves:     834
 k-point ** :   0.0000 0.4444 0.5000  plane waves:     828
 k-point ** :  -0.1111 0.4444 0.5000  plane waves:     826
 k-point ** :  -0.0556 0.4444 0.5000  plane waves:     826
 k-point ** :   0.0000 0.5000 0.5000  plane waves:     828

 maximum and minimum number of plane-waves per node :       856      826

 maximum number of plane-waves:       856
 maximum index in each direction:
   IXMAX=    9   IYMAX=    5   IZMAX=   10
   IXMIN=   -9   IYMIN=   -5   IZMIN=  -10

 The following grids will avoid any aliasing or wrap around errors in the Hartre
 e energy
  - symmetry arguments have not been applied
  - exchange correlation energies might require even more grid points
  - we recommend to set PREC=Normal or Accurate and rely on VASP defaults
 NGX is ok and might be reduce to    40
 NGY is ok and might be reduce to    24
 NGZ is ok and might be reduce to    42

 serial   3D FFT for wavefunctions
 parallel 3D FFT for charge:
    minimum data exchange during FFTs selected (reduces bandwidth)

 Broyden mixing: mesh for mixing (old mesh)
   NGX = 19   NGY = 11   NGZ = 21
  (NGX  = 80   NGY  = 48   NGZ  = 84)
  gives a total of   4389 points

 initial charge density was supplied:
 charge density of overlapping atoms calculated
 number of electron      25.0000000 magnetization       2.5000000
 keeping initial charge density in first step

 Maximum index for non-local projection operator        15899
 Maximum index for augmentation-charges         2345 (set IRDMAX)

 First call to EWALD:  gamma=   0.552
 Maximum number of real-space cells 4x 6x 2
 Maximum number of reciprocal cells 4x 3x 4

--------------------------------------- Iteration      1(   1)  ---------------------------------------

 eigenvalue-minimisations  : 67920
 total energy-change (2. order) : 0.9820321E+02  (-0.1162461E+04)
 number of electron      25.0000000 magnetization       2.5000000
 augmentation part       25.0000000 magnetization       2.5000000

 Free energy of the ion-electron system (eV)
  alpha Z        PSCENC =        79.38247561
  Ewald energy   TEWEN  =     -1595.47497762
  -Hartree energ DENC   =      -593.14195327
  -exchange      EXHF   =         0.00000000
  -V(xc)+E(xc)   XCENC  =       102.26409963
  PAW double counting   =      1733.73763220    -1818.69483988
  entropy T*S    EENTRO =        -0.00120092
  eigenvalues    EBANDS =        50.76010803
  atomic energy  EATOM  =      2139.37186265
  Solvation  Ediel_sol  =         0.00000000
  free energy    TOTEN  =        98.20320642 eV

  energy without entropy =       98.20440735  energy(sigma->0) =       98.20380688

[...]

 eigenvalue-minimisations  : 84672
 total energy-change (2. order) :-0.1234216E+03  (-0.1143883E+03)
 number of electron      25.0000000 magnetization       2.5000000
 augmentation part       25.0000000 magnetization       2.5000000

[...]

 Broyden mixing:
  rms(total) = 0.25513E+01    rms(broyden)= 0.25511E+01
  rms(prec ) = 0.45640E+01
  weight for this iteration     100.00

[...]

 eigenvalues of (default mixing * dielectric matrix)
  average eigenvalue GAMMA=   0.2586
  0.2586

[...]

 eigenvalue-minimisations  : 96672
 total energy-change (2. order) : 0.1273363E-01  (-0.2484771E-01)
 number of electron      24.9999989 magnetization       0.9538658
 augmentation part        8.3329314 magnetization       0.6419252

[...]

 Broyden mixing:
  rms(total) = 0.40585E-02    rms(broyden)= 0.40559E-02
  rms(prec ) = 0.44230E-02
  weight for this iteration     100.00

 eigenvalues of (default mixing * dielectric matrix)
  average eigenvalue GAMMA=   1.0646
  2.4013  1.2541  1.1526  1.1526  0.4199  0.7587  0.7587  0.6191

[...]

--------------------------------------- Iteration      1(  14)  ---------------------------------------

 eigenvalue-minimisations  : 69584
 total energy-change (2. order) :-0.2132363E-05  (-0.9554305E-06)
 number of electron      24.9999989 magnetization       1.0011138
 augmentation part        8.3301857 magnetization       0.6994115

 Free energy of the ion-electron system (eV)
  alpha Z        PSCENC =        79.38247561
  Ewald energy   TEWEN  =     -1595.47497762
  -Hartree energ DENC   =      -574.12433021
  -exchange      EXHF   =         0.00000000
  -V(xc)+E(xc)   XCENC  =       101.68075201
  PAW double counting   =      2244.86257896    -2333.47756206
  entropy T*S    EENTRO =        -0.00246675
  eigenvalues    EBANDS =       -85.99958718
  atomic energy  EATOM  =      2139.37186265
  Solvation  Ediel_sol  =         0.00000000
  free energy    TOTEN  =       -23.78125460 eV

  energy without entropy =      -23.77878785  energy(sigma->0) =      -23.78002123

 average (electrostatic) potential at core
  the test charge radii are     0.7079  0.9791  0.7215
  (the norm of the test charge is              1.0000)
       1 -57.4424       2 -86.2420       3 -69.7497       4 -69.7497

 E-fermi :   5.8811     XC(G=0): -11.9317     alpha+bet :-14.4704

 spin component 1

 k-point     1 :       0.0000    0.0000    0.0000
  band No.  band energies     occupation
      1     -38.1620      1.00000
      2     -14.2481      1.00000
      3     -12.5274      1.00000
      4      -1.3304      1.00000
      5      -0.0240      1.00000
      6       0.1774      1.00000
      7       3.1096      1.00000
      8       3.3138      1.00000
      9       3.5024      1.00000
     10       3.5156      1.00000
     11       3.6502      1.00000
     12       4.2148      1.00000
     13       6.1160      0.00000
     14       6.5934      0.00000
     15      10.8739      0.00000
     16      12.8856      0.00000
     17      18.5141      0.00000
     18      20.0145      0.00000
     19      21.0366      0.00000
     20      25.2285      0.00000
     21      25.6356      0.00000
     22      25.9763      0.00000
     23      26.5142      0.00000
     24      26.8086      0.00000
     25      27.2713      0.00000
     26      28.5093      0.00000
     27      29.8637      0.00000
     28      31.8272      0.00000
     29      32.5616      0.00000
     30      33.4730      0.00000
     31      35.0394      0.00000
     32      36.4890      0.00000

[...]

 spin component 2

[...]

 k-point   524 :       0.0000    0.5000    0.5000
  band No.  band energies     occupation
      1     -38.1176      1.00000
      2     -12.6094      1.00000
      3     -12.3275      1.00000
      4      -1.3071      1.00000
      5       0.0914      1.00000
      6       0.5752      1.00000
      7       0.6061      1.00000
      8       2.4506      1.00000
      9       2.6014      1.00000
     10       4.0230      1.00000
     11       4.3593      1.00000
     12       4.7385      1.00000
     13       6.5549      0.00000
     14       6.9511      0.00000
     15      14.8194      0.00000
     16      16.2605      0.00000
     17      17.2030      0.00000
     18      17.5747      0.00000
     19      19.3017      0.00000
     20      20.7740      0.00000
     21      21.4671      0.00000
     22      24.8112      0.00000
     23      25.1453      0.00000
     24      27.6808      0.00000
     25      33.2852      0.00000
     26      34.8378      0.00000
     27      36.1967      0.00000
     28      36.9452      0.00000
     29      37.2740      0.00000
     30      37.3572      0.00000
     31      38.4737      0.00000
     32      38.8722      0.00000

 soft charge-density along one line, spin component           1
         0         1         2         3         4         5         6         7         8         9
 total charge-density along one line

 soft charge-density along one line, spin component           2
         0         1         2         3         4         5         6         7         8         9
 total charge-density along one line

------------------------ aborting loop because EDIFF is reached ----------------------------------------

  FORCE on cell =-STRESS in cart. coord.  units (eV):
  Direction    XX          YY          ZZ          XY          YZ          ZX
  Alpha Z    79.38248    79.38248    79.38248
  Ewald    -430.72195  -349.55944  -815.19483     0.00000     0.00000    45.16810
  Hartree   281.22695   316.43593   -23.51597    -0.00001    -0.00001    18.60274
  E(xc)    -126.51115  -126.52774  -126.55940     0.00001    -0.00000     0.00274
  Local    -322.92482  -429.90643   365.20788     0.00002     0.00001   -57.27884
  n-local   -68.22791   -66.67984   -69.03228    -0.46611    -0.31974     1.18322
  augment   208.57409   203.88803   207.69528    -0.00003    -0.00000    -3.19508
  Kinetic   379.11728   372.95147   381.98043     0.72355     0.67518    -4.50361
  Fock        0.00000     0.00000     0.00000     0.00000     0.00000     0.00000
  Total       -0.0850410     -0.0155563     -0.0364111      0.0000000      0.0000000     -0.0207279
  in kB       -4.1207129     -0.7537888     -1.7643193      0.0000000      0.0000000     -1.0043823

 VOLUME and BASIS-vectors are now :
  energy-cutoff  :      500.00
  volume of cell :       33.06
      direct lattice vectors                 reciprocal lattice vectors
     5.070496500  0.000000000  0.000000000     0.197219345 -0.357323410 -0.138232058
     2.535248250  1.399292590  0.000000000     0.000000000  0.714646820  0.000000000
     3.266382470  0.000000000  4.660234560     0.000000000  0.000000000  0.214581474

  length of vectors
     5.070496500  2.895773375  5.690961307     0.430910189  0.714646820  0.214581474

 FORCES acting on ions
    electron-ion (+dipol)            ewald-force                    non-local-force                 convergence-correction
   0.111E-12 0.585E-15 0.153E-12   0.200E-14 -.800E-15 -.142E-13   0.127E-20 0.000E+00 0.000E+00   -.394E-14 0.238E-14 0.574E-14
   -.374E-13 -.111E-13 0.345E-14   -.178E-13 -.819E-14 0.000E+00   0.000E+00 0.000E+00 0.000E+00   -.477E-13 0.151E-13 -.123E-13
   0.164E+02 -.116E-04 0.249E+03   -.198E+02 0.248E-13 -.261E+03   0.335E+01 -.694E-17 0.120E+02   0.707E-02 0.236E-07 -.707E-02
   -.164E+02 0.116E-04 -.249E+03   0.198E+02 -.129E-13 0.261E+03   -.335E+01 0.694E-17 -.120E+02   -.707E-02 -.236E-07 0.707E-02
   -.831E-12 -.105E-13 -.138E-11   0.711E-14 0.288E-14 0.000E+00   0.000E+00 0.000E+00 -.178E-14   -.354E-13 0.186E-13 -.223E-13

 POSITION                                       TOTAL-FORCE (eV/Angst)
      1.63319      0.00000      2.33012         0.000000      0.000000      0.000000
      0.00000      0.00000      0.00000         0.000000      0.000000      0.000000
      5.03300      0.00000      3.62401         0.002163      0.000000     -0.008564
      3.30388      0.00000      1.03622        -0.002163      0.000000      0.008564
    total drift:                               -0.000000      0.000000     -0.000000

  FREE ENERGIE OF THE ION-ELECTRON SYSTEM (eV)
  free  energy   TOTEN  =       -23.7812546036 eV

  energy  without entropy=      -23.7787878545  energy(sigma->0) =      -23.78002123

volume of typ            1:    23.6 %

[...]

volume of typ            3:     9.9 %

total charge

# of ion       s       p       d       tot
    1        2.084   0.269   0.104   2.457
    2        0.261   0.332   7.856   8.449
    3        1.256   2.794   0.005   4.056
    4        1.256   2.795   0.005   4.056
tot           4.86    6.19    7.97   19.02

magnetization (x)

# of ion       s       p       d       tot
    1        0.005   0.011   0.001   0.018
    2        0.001  -0.000   0.722   0.723
    3        0.011   0.088   0.000   0.100
    4        0.011   0.088   0.000   0.100
tot           0.03    0.19    0.72    0.94