 vasp.5.4.4.18Apr17-6-g9f103f2a35 (build May 12 2020 04:58:55) complex

 MD_VERSION_INFO: Compiled 2020-05-12T11:58:55-UTC in devlin.sd.materialsdesign.
 com:/home/medea2/data/build/wwolf/vasp-gpu5.4.4/13047/x86_64/src/src/build/std
 from svn 13047

 executed on                        Lin64 date 2023.03.16  22:47:21

 INCAR:
 POTCAR:    PAW_PBE Li_sv 10Sep2004
 POTCAR:    PAW_PBE Ni 02Aug2007
 POTCAR:    PAW_PBE O 08Apr2002

 POTCAR:    PAW_PBE Li_sv 10Sep2004

 POTCAR:    PAW_PBE Ni 02Aug2007

 POTCAR:    PAW_PBE O 08Apr2002

 Optimization of the real space projectors (new method)

 maximal supplied QI-value         = 22.11
 optimisation between [QCUT,QGAM] = [ 11.28, 22.77] = [ 35.61,145.23] Ry
 Optimized for a Real-space Cutoff    1.10 Angstroem

   l    n(q)    QCUT    max X(q) W(low)/X(q) W(high)/X(q)  e(spline)
   0      7    11.276    10.506    0.54E-04    0.58E-04    0.16E-07
   0      7    11.276     8.367    0.11E-03    0.14E-03    0.35E-07
   1      7    11.276     8.983    0.23E-03    0.43E-03    0.86E-07
 Optimization of the real space projectors (new method)

[...]

   l    n(q)    QCUT    max X(q) W(low)/X(q) W(high)/X(q)  e(spline)
   2      9    11.376    60.317    0.17E-03    0.16E-04    0.16E-06
   2      9    11.376    55.921    0.17E-03    0.16E-04    0.17E-06
   0     10    11.376    51.690    0.45E-04    0.60E-04    0.21E-06
   0     10    11.376    30.015    0.37E-04    0.55E-04    0.19E-06
   1     10    11.376    18.849    0.83E-04    0.11E-03    0.92E-07
   1     10    11.376    14.624    0.69E-04    0.92E-04    0.82E-07
 Optimization of the real space projectors (new method)

 maximal supplied QI-value         = 24.76
 optimisation between [QCUT,QGAM] = [ 11.39, 22.77] = [ 36.31,145.25] Ry
 Optimized for a Real-space Cutoff    1.10 Angstroem

   l    n(q)    QCUT    max X(q) W(low)/X(q) W(high)/X(q)  e(spline)
   0      7    11.387    20.381    0.22E-03    0.48E-03    0.18E-06
   0      7    11.387    15.268    0.22E-03    0.52E-03    0.19E-06
   1      7    11.387     5.964    0.22E-03    0.73E-03    0.24E-06
   1      7    11.387     5.382    0.19E-03    0.60E-03    0.21E-06

  PAW_PBE Li_sv 10Sep2004               :
  PAW_PBE Ni 02Aug2007                  :
  PAW_PBE O 08Apr2002                   :

 POSCAR: Li2NiBO4.cif
  positions in direct lattice
 exchange correlation table for  LEXCH =       14
   RHO(1)=    0.500       N(1)  =     2000
   RHO(2)=  100.500       N(2)  =     4000

 ion  position               nearest neighbor table
   1  0.887  0.853  0.711-  17 1.90  18 1.91  21 2.04  29 2.04   9 2.78
   2  0.113  0.353  0.789-  18 1.90  17 1.91  22 2.04  30 2.04  10 2.78
   3  0.113  0.147  0.289-  19 1.90  20 1.91  23 2.04  31 2.04  11 2.78
   4  0.887  0.647  0.211-  20 1.90  19 1.91  24 2.04  32 2.04  12 2.78
   5  0.733  0.668  0.924-  18 1.92  29 1.98  24 1.99  25 1.99
   6  0.267  0.168  0.576-  17 1.92  30 1.98  23 1.99  26 1.99
   7  0.267  0.332  0.076-  20 1.92  31 1.98  22 1.99  27 1.99
   8  0.733  0.832  0.424-  19 1.92  32 1.98  21 1.99  28 1.99
   9  0.499  0.666  0.664-  26 1.77  30 1.78  21 1.80  29 1.82   1 2.78  13 3.00
  10  0.501  0.166  0.836-  25 1.77  29 1.78  22 1.80  30 1.82   2 2.78  14 3.00
  11  0.501  0.334  0.336-  28 1.77  32 1.78  23 1.80  31 1.82   3 2.78  15 3.00
  12  0.499  0.834  0.164-  27 1.77  31 1.78  24 1.80  32 1.82   4 2.78  16 3.00
  13  0.825  0.318  0.562-  17 1.71  28 1.72  21 1.74   9 3.00
  14  0.175  0.818  0.938-  18 1.71  27 1.72  22 1.74  10 3.00
  15  0.175  0.682  0.438-  19 1.71  26 1.72  23 1.74  11 3.00
  16  0.825  0.182  0.062-  20 1.71  25 1.72  24 1.74  12 3.00
  17  0.000  0.165  0.653-  13 1.71   1 1.90   2 1.91   6 1.92
  18  1.000  0.665  0.847-  14 1.71   2 1.90   1 1.91   5 1.92
  19  1.000  0.835  0.347-  15 1.71   3 1.90   4 1.91   8 1.92
  20  0.000  0.335  0.153-  16 1.71   4 1.90   3 1.91   7 1.92
  21  0.741  0.631  0.583-  13 1.74   9 1.80   8 1.99   1 2.04
  22  0.259  0.131  0.917-  14 1.74  10 1.80   7 1.99   2 2.04
  23  0.259  0.369  0.417-  15 1.74  11 1.80   6 1.99   3 2.04
  24  0.741  0.869  0.083-  16 1.74  12 1.80   5 1.99   4 2.04
  25  0.683  0.294  0.940-  16 1.72  10 1.77   5 1.99
  26  0.317  0.794  0.560-  15 1.72   9 1.77   6 1.99
  27  0.317  0.706  0.060-  14 1.72  12 1.77   7 1.99
  28  0.683  0.206  0.440-  13 1.72  11 1.77   8 1.99
  29  0.600  0.863  0.789-  10 1.78   9 1.82   5 1.98   1 2.04
  30  0.400  0.363  0.711-   9 1.78  10 1.82   6 1.98   2 2.04
  31  0.400  0.137  0.211-  12 1.78  11 1.82   7 1.98   3 2.04
  32  0.600  0.637  0.289-  11 1.78  12 1.82   8 1.98   4 2.04

  LATTYP: Found a simple monoclinic cell.
 ALAT       =    12.5796023850
 B/A-ratio  =     0.4167052399
 C/A-ratio  =     1.7765201291
 COS(beta)  =    -0.9687564700

  Lattice vectors:

 A1 = (  -6.7296557100,   0.0000000000, -10.6281762400)
 A2 = (   0.0000000000,  -5.2419862300,   0.0000000000)
 A3 = (   6.8990482600,   0.0000000000,  21.2563524800)

Analysis of symmetry for initial positions (statically):
 Subroutine PRICEL returns:
 Original cell was already a primitive cell.

 Routine SETGRP: Setting up the symmetry group for a
 simple monoclinic supercell.

 Subroutine GETGRP returns: Found  4 space group operations
 (whereof  2 operations were pure point group operations)
 out of a pool of  4 trial point group operations.

The static configuration has the point symmetry S_2 .
 The point group associated with its full space group is C_2h.

Analysis of symmetry for dynamics (positions and initial velocities):
 Subroutine PRICEL returns:
 Original cell was already a primitive cell.

[...]

The dynamic configuration has the point symmetry S_2 .
 The point group associated with its full space group is C_2h.

Analysis of structural, dynamic, and magnetic symmetry:
 Subroutine PRICEL returns:
 Original cell was already a primitive cell.

 Routine SETGRP: Setting up the symmetry group for a
 simple monoclinic supercell.

 Subroutine GETGRP returns: Found  4 space group operations
 (whereof  2 operations were pure point group operations)
 out of a pool of  4 trial point group operations.

The magnetic configuration has the point symmetry S_2 .
 The point group associated with its full space group is C_2h.

 Subroutine INISYM returns: Found  4 space group operations
 (whereof  2 operations are pure point group operations),
 and found     1 'primitive' translations

 KPOINTS: Automatic mesh

Automatic generation of k-mesh.
Space group operators:
 irot       det(A)        alpha          n_x          n_y          n_z        tau_x        tau_y        tau_z
    1     1.000000     0.000001     1.000000     0.000000     0.000000     0.000000     0.000000     0.000000
    2    -1.000000     0.000001     1.000000     0.000000     0.000000     0.000000     0.000000     0.000000
    3     1.000000   180.000000     0.000000     1.000000     0.000000     0.000000    -0.500000     0.500000
    4    -1.000000   180.000000     0.000000     1.000000     0.000000     0.000000    -0.500000     0.500000

 Subroutine IBZKPT returns following result:

 Found     21 irreducible k-points:

 Following reciprocal coordinates:
            Coordinates               Weight
  0.000000  0.000000  0.000000      1.000000
  0.250000  0.000000  0.000000      2.000000
  0.500000  0.000000  0.000000      1.000000
  0.000000  0.200000  0.000000      2.000000
  0.250000  0.200000  0.000000      4.000000
  0.500000  0.200000  0.000000      2.000000
  0.000000  0.400000  0.000000      2.000000
  0.250000  0.400000  0.000000      4.000000
  0.500000  0.400000  0.000000      2.000000
  0.000000  0.000000  0.333333      2.000000
  0.250000  0.000000  0.333333      2.000000
  0.500000  0.000000  0.333333      2.000000
 -0.250000  0.000000  0.333333      2.000000
  0.000000  0.200000  0.333333      4.000000
  0.250000  0.200000  0.333333      4.000000
  0.500000  0.200000  0.333333      4.000000
 -0.250000  0.200000  0.333333      4.000000
  0.000000  0.400000  0.333333      4.000000
  0.250000  0.400000  0.333333      4.000000
  0.500000  0.400000  0.333333      4.000000
 -0.250000  0.400000  0.333333      4.000000

 Following cartesian coordinates:
            Coordinates               Weight
  0.000000  0.000000  0.000000      1.000000
  0.038108  0.000000 -0.000607      2.000000
  0.076216  0.000000 -0.001215      1.000000
  0.000000  0.038153  0.000000      2.000000
  0.038108  0.038153 -0.000607      4.000000
  0.076216  0.038153 -0.001215      2.000000
  0.000000  0.076307  0.000000      2.000000
  0.038108  0.076307 -0.000607      4.000000
  0.076216  0.076307 -0.001215      2.000000
  0.000000  0.000000  0.031363      2.000000
  0.038108  0.000000  0.030756      2.000000
  0.076216  0.000000  0.030148      2.000000
 -0.038108  0.000000  0.031971      2.000000
  0.000000  0.038153  0.031363      4.000000
  0.038108  0.038153  0.030756      4.000000
  0.076216  0.038153  0.030148      4.000000
 -0.038108  0.038153  0.031971      4.000000
  0.000000  0.076307  0.031363      4.000000
  0.038108  0.076307  0.030756      4.000000
  0.076216  0.076307  0.030148      4.000000
 -0.038108  0.076307  0.031971      4.000000

 SYSTEM =  unknown system
 POSCAR =  Li2NiBO4.cif

 Startparameter for this run:
   NWRITE =      1    write-flag & timer
   PREC   = accura    normal or accurate (medium, high low for compatibility)
   ISTART =      0    job   : 0-new  1-cont  2-samecut
   ICHARG =      2    charge: 1-file 2-atom 10-const
   ISPIN  =      2    spin polarized calculation?
   LNONCOLLINEAR =      F non collinear calculations
   LSORBIT =      F    spin-orbit coupling
   INIWAV =      1    electr: 0-lowe 1-rand  2-diag
   LASPH  =      F    aspherical Exc in radial PAW
   METAGGA=      F    non-selfconsistent MetaGGA calc.

 Electronic Relaxation 1
   ENCUT  =  500.0 eV  36.75 Ry    6.06 a.u.  11.96  9.56 19.38*2*pi/ulx,y,z
   ENINI  =  500.0     initial cutoff
   ENAUG  =  628.9 eV  augmentation charge cutoff
   NELM   =     80;   NELMIN=  2; NELMDL= -5     # of ELM steps
   EDIFF  = 0.1E-04   stopping-criterion for ELM
   LREAL  =      T    real-space projection
   NLSPLINE    = F    spline interpolate recip. space projectors
   LCOMPAT=      F    compatible to vasp.4.4
   GGA_COMPAT  = T    GGA compatible to vasp.4.4-vasp.4.6
   LMAXPAW     = -100 max onsite density
   LMAXMIX     =    2 max onsite mixed and CHGCAR
   VOSKOWN=      1    Vosko Wilk Nusair interpolation
   ROPT   =   -0.00025  -0.00025  -0.00025
 Ionic relaxation
   EDIFFG = 0.1E-03   stopping-criterion for IOM
   NSW    =      0    number of steps for IOM
   NBLOCK =      1;   KBLOCK =      1    inner block; outer block
   IBRION =     -1    ionic relax: 0-MD 1-quasi-New 2-CG
   NFREE  =      0    steps in history (QN), initial steepest desc. (CG)
   ISIF   =      2    stress and relaxation
   IWAVPR =     10    prediction:  0-non 1-charg 2-wave 3-comb
   ISYM   =      2    0-nonsym 1-usesym 2-fastsym
   LCORR  =      T    Harris-Foulkes like correction to forces

   POTIM  = 0.5000    time-step for ionic-motion
   TEIN   =    0.0    initial temperature
   TEBEG  =    0.0;   TEEND  =   0.0 temperature during run
[...]
     32      -3.5499      1.00000
     33      -3.4098      1.00000
     34      -3.2941      1.00000
     35      -3.2728      1.00000
     36      -3.1692      1.00000
     37      -3.0473      1.00000
     38      -2.9489      1.00000
     39      -2.8140      1.00000
     40      -2.6338      1.00000
     41      -2.6303      1.00000
     42      -2.5730      1.00000
     43      -2.5711      1.00000
     44      -2.5289      1.00000
     45      -2.5174      1.00000
     46      -2.4218      1.00000
     47      -2.4127      1.00000
     48      -2.2772      1.00000
     49      -2.0192      1.00000
     50      -1.9228      1.00000
     51      -1.8802      1.00000
     52      -1.8424      1.00000
     53      -1.7461      1.00000
     54      -1.6336      1.00000
     55      -1.5334      1.00000
     56      -1.5061      1.00000
     57      -1.4849      1.00000
     58      -1.2421      1.00000
     59      -1.2208      1.00000
     60      -1.1415      1.00000
[...]
    130      11.8537      0.00000
    131      12.0910      0.00000
    132      12.2870      0.00000
    133      12.6278      0.00000
    134      12.7129      0.00000
    135      12.7932      0.00000
    136      12.9266      0.00000
    137      13.1821      0.00000
    138      13.3021      0.00000
    139      13.7047      0.00000
    140      13.8176      0.00000
    141      13.8664      0.00000
    142      14.3373      0.00000
    143      14.5120      0.00000
    144      14.5268      0.00000

[...]

 spin component 2

[...]

 k-point    21 :      -0.2500    0.4000    0.3333
  band No.  band energies     occupation
      1     -40.7113      1.00000
      2     -40.7113      1.00000
      3     -40.7110      1.00000
      4     -40.7109      1.00000
      5     -40.5714      1.00000
      6     -40.5712      1.00000
      7     -40.5689      1.00000
      8     -40.5687      1.00000
      9     -16.3906      1.00000
     10     -16.3629      1.00000
     11     -16.1523      1.00000
     12     -16.1443      1.00000
     13     -16.0924      1.00000
     14     -16.0810      1.00000
     15     -15.8494      1.00000
     16     -15.8442      1.00000
     17     -15.5446      1.00000
     18     -15.5279      1.00000
     19     -15.4932      1.00000
     20     -15.4773      1.00000
     21     -14.7615      1.00000
     22     -14.7582      1.00000
     23     -14.7454      1.00000
     24     -14.7427      1.00000
     25      -4.0383      1.00000
     26      -4.0184      1.00000
     27      -3.9740      1.00000
     28      -3.9667      1.00000
     29      -3.7187      1.00000
     30      -3.7034      1.00000
     31      -3.6423      1.00000
     32      -3.6366      1.00000
     33      -3.3649      1.00000
     34      -3.2933      1.00000
     35      -3.2330      1.00000
     36      -3.1877      1.00000
     37      -3.1469      1.00000
     38      -3.0867      1.00000
     39      -2.8852      1.00000
     40      -2.8577      1.00000
     41      -2.7349      1.00000
     42      -2.6883      1.00000
     43      -2.6555      1.00000
     44      -2.5921      1.00000
     45      -2.3767      1.00000
     46      -2.3103      1.00000
     47      -2.2280      1.00000
     48      -2.1719      1.00000
     49      -2.0718      1.00000
     50      -1.9761      1.00000
     51      -1.8439      1.00000
     52      -1.7706      1.00000
     53      -1.7018      1.00000
     54      -1.6638      1.00000
     55      -1.5561      1.00000
     56      -1.4046      1.00000
     57      -1.3659      1.00000
     58      -1.2919      1.00000
     59      -1.2343      1.00000
     60      -1.1513      1.00000
[...]
    130      12.0780      0.00000
    131      12.3761      0.00000
    132      12.4488      0.00000
    133      12.6918      0.00000
    134      12.8263      0.00000
    135      13.0991      0.00000
    136      13.1187      0.00000
    137      13.2400      0.00000
    138      13.4269      0.00000
    139      13.5555      0.00000
    140      13.7091      0.00000
    141      13.8118      0.00000
    142      14.0139      0.00000
    143      14.3212      0.00000
    144      14.3899      0.00000

 soft charge-density along one line, spin component           1
         0         1         2         3         4         5         6         7         8         9
 total charge-density along one line

 soft charge-density along one line, spin component           2
         0         1         2         3         4         5         6         7         8         9
 total charge-density along one line

------------------------ aborting loop because EDIFF is reached ----------------------------------------

  FORCE on cell =-STRESS in cart. coord.  units (eV):
  Direction    XX          YY          ZZ          XY          YZ          ZX
  Alpha Z   459.61641   459.61641   459.61641
  Ewald   -3662.37630 -3285.31943 -3792.53131     0.00000    -0.00000  1290.31503
  Hartree  1869.16048  2101.72146  1865.11049     0.00000    -0.00000   674.97820
  E(xc)   -1006.41888 -1006.04148 -1006.79175     0.00000     0.00000     0.83968
  Local   -1795.88593 -2363.55238 -1686.20293    -0.00000     0.00000 -1878.55115
  n-local  -528.61842  -528.85925  -530.98407    -0.15651    -0.05842    10.52182
  augment  1642.92246  1627.64625  1659.02520     0.00000     0.00000   -43.85026
  Kinetic  3021.61877  2995.01036  3032.54460     0.85632    -0.16789   -54.32592
  Fock        0.00000     0.00000     0.00000     0.00000     0.00000     0.00000
  Total        0.0185850      0.2219459     -0.2133636      0.0000000      0.0000000     -0.0725980
  in kB        0.0814698      0.9729306     -0.9353089      0.0000000      0.0000000     -0.3182435

 VOLUME and BASIS-vectors are now :
  energy-cutoff  :      500.00
  volume of cell :      365.49
      direct lattice vectors                 reciprocal lattice vectors
     6.560263160  0.000000000  0.000000000     0.152432909  0.000000000 -0.002429485
     0.000000000  5.241986230  0.000000000     0.000000000  0.190767384  0.000000000
     0.169392550  0.000000000 10.628176240     0.000000000  0.000000000  0.094089520

  length of vectors
     6.560263160  5.241986230 10.629526049     0.152452269  0.190767384  0.094089520

 FORCES acting on ions
    electron-ion (+dipol)            ewald-force                    non-local-force                 convergence-correction
   -.443E+02 -.543E+01 0.636E+01   0.444E+02 0.595E+01 -.575E+01   -.123E+00 -.530E+00 -.617E+00   -.147E-02 -.567E-04 0.554E-03
   0.443E+02 -.543E+01 -.636E+01   -.444E+02 0.595E+01 0.575E+01   0.123E+00 -.530E+00 0.617E+00   0.147E-02 -.567E-04 -.554E-03
   0.443E+02 0.543E+01 -.636E+01   -.444E+02 -.595E+01 0.575E+01   0.123E+00 0.530E+00 0.617E+00   0.147E-02 0.567E-04 -.554E-03
   -.443E+02 0.543E+01 0.636E+01   0.444E+02 -.595E+01 -.575E+01   -.123E+00 0.530E+00 -.617E+00   -.147E-02 0.567E-04 0.554E-03
   -.575E+01 0.184E+02 -.520E+01   0.705E+01 -.181E+02 0.440E+01   -.129E+01 -.376E+00 0.806E+00   -.180E-02 0.604E-03 -.117E-02
   0.575E+01 0.184E+02 0.520E+01   -.705E+01 -.181E+02 -.440E+01   0.129E+01 -.376E+00 -.806E+00   0.180E-02 0.604E-03 0.117E-02
   0.575E+01 -.184E+02 0.520E+01   -.705E+01 0.181E+02 -.440E+01   0.129E+01 0.376E+00 -.806E+00   0.180E-02 -.604E-03 0.117E-02
   -.575E+01 -.184E+02 -.520E+01   0.705E+01 0.181E+02 0.440E+01   -.129E+01 0.376E+00 0.806E+00   -.180E-02 -.604E-03 -.117E-02
   0.520E+02 -.515E+02 -.360E+02   -.518E+02 0.505E+02 0.363E+02   -.156E+00 0.952E+00 -.317E+00   0.297E-04 -.126E-02 0.491E-02
   -.520E+02 -.515E+02 0.360E+02   0.518E+02 0.505E+02 -.363E+02   0.156E+00 0.952E+00 0.317E+00   -.297E-04 -.126E-02 -.491E-02
   -.520E+02 0.515E+02 0.360E+02   0.518E+02 -.505E+02 -.363E+02   0.156E+00 -.952E+00 0.317E+00   -.297E-04 0.126E-02 -.491E-02
   0.520E+02 0.515E+02 -.360E+02   -.518E+02 -.505E+02 0.363E+02   -.156E+00 -.952E+00 -.317E+00   0.297E-04 0.126E-02 0.491E-02
   -.119E+03 0.676E+02 -.209E+02   0.120E+03 -.678E+02 0.221E+02   -.148E+01 0.207E+00 -.120E+01   -.420E-02 0.667E-03 0.139E-02
   0.119E+03 0.676E+02 0.209E+02   -.120E+03 -.678E+02 -.221E+02   0.148E+01 0.207E+00 0.120E+01   0.420E-02 0.667E-03 -.139E-02
   0.119E+03 -.676E+02 0.209E+02   -.120E+03 0.678E+02 -.221E+02   0.148E+01 -.207E+00 0.120E+01   0.420E-02 -.667E-03 -.139E-02
   -.119E+03 -.676E+02 -.209E+02   0.120E+03 0.678E+02 0.221E+02   -.148E+01 -.207E+00 -.120E+01   -.420E-02 -.667E-03 0.139E-02
   -.919E+02 0.877E+02 -.996E+02   0.102E+03 -.952E+02 0.108E+03   -.961E+01 0.751E+01 -.812E+01   0.188E-02 -.944E-03 0.244E-02
   0.919E+02 0.877E+02 0.996E+02   -.102E+03 -.952E+02 -.108E+03   0.961E+01 0.751E+01 0.812E+01   -.188E-02 -.944E-03 -.244E-02
   0.919E+02 -.877E+02 0.996E+02   -.102E+03 0.952E+02 -.108E+03   0.961E+01 -.751E+01 0.812E+01   -.188E-02 0.944E-03 -.244E-02
   -.919E+02 -.877E+02 -.996E+02   0.102E+03 0.952E+02 0.108E+03   -.961E+01 -.751E+01 -.812E+01   0.188E-02 0.944E-03 0.244E-02
   -.134E+03 -.141E+03 0.413E+02   0.143E+03 0.154E+03 -.462E+02   -.805E+01 -.126E+02 0.491E+01   -.503E-02 0.242E-02 0.213E-02
   0.134E+03 -.141E+03 -.413E+02   -.143E+03 0.154E+03 0.462E+02   0.805E+01 -.126E+02 -.491E+01   0.503E-02 0.242E-02 -.213E-02
   0.134E+03 0.141E+03 -.413E+02   -.143E+03 -.154E+03 0.462E+02   0.805E+01 0.126E+02 -.491E+01   0.503E-02 -.242E-02 -.213E-02
   -.134E+03 0.141E+03 0.413E+02   0.143E+03 -.154E+03 -.462E+02   -.805E+01 0.126E+02 0.491E+01   -.503E-02 -.242E-02 0.213E-02
   -.596E+02 -.144E+03 0.388E+02   0.603E+02 0.153E+03 -.428E+02   -.697E+00 -.947E+01 0.404E+01   -.522E-02 -.275E-03 -.390E-02
   0.596E+02 -.144E+03 -.388E+02   -.603E+02 0.153E+03 0.428E+02   0.697E+00 -.947E+01 -.404E+01   0.522E-02 -.275E-03 0.390E-02
   0.596E+02 0.144E+03 -.388E+02   -.603E+02 -.153E+03 0.428E+02   0.697E+00 0.947E+01 -.404E+01   0.522E-02 0.275E-03 0.390E-02
   -.596E+02 0.144E+03 0.388E+02   0.603E+02 -.153E+03 -.428E+02   -.697E+00 0.947E+01 0.404E+01   -.522E-02 0.275E-03 -.390E-02
   -.117E+03 0.477E+02 -.521E+02   0.125E+03 -.523E+02 0.573E+02   -.779E+01 0.459E+01 -.517E+01   -.318E-02 0.369E-03 -.156E-02
   0.117E+03 0.477E+02 0.521E+02   -.125E+03 -.523E+02 -.573E+02   0.779E+01 0.459E+01 0.517E+01   0.318E-02 0.369E-03 0.156E-02
   0.117E+03 -.477E+02 0.521E+02   -.125E+03 0.523E+02 -.573E+02   0.779E+01 -.459E+01 0.517E+01   0.318E-02 -.369E-03 0.156E-02
   -.117E+03 -.477E+02 -.521E+02   0.125E+03 0.523E+02 0.573E+02   -.779E+01 -.459E+01 -.517E+01   -.318E-02 -.369E-03 -.156E-02
   0.167E-10 -.549E-11 -.220E-10   -.114E-12 0.782E-13 -.284E-12   0.622E-14 0.888E-15 0.888E-15   -.263E-12 0.605E-12 -.574E-12

 POSITION                                       TOTAL-FORCE (eV/Angst)
      5.93786      4.47262      7.56055        -0.000300     -0.009155     -0.005064
      0.87650      1.85163      8.38171         0.000300     -0.009155      0.005064
      0.79180      0.76936      3.06763         0.000300      0.009155      0.005064
      5.85316      3.39036      2.24646        -0.000300      0.009155     -0.005064
      4.96452      3.50113      9.82541         0.002676      0.007564      0.005074
      1.84983      0.88014      6.11685        -0.002676      0.007564     -0.005074
      1.76514      1.74085      0.80277        -0.002676     -0.007564     -0.005074
      4.87982      4.36185      4.51132         0.002676     -0.007564      0.005074
      3.38297      3.49209      7.05216        -0.003207      0.008507      0.003013
      3.43138      0.87110      8.89010         0.003207      0.008507     -0.003013
      3.34669      1.74990      3.57601         0.003207     -0.008507     -0.003013
      3.29827      4.37089      1.73808        -0.003207     -0.008507      0.003013
      5.50861      1.66885      5.97681        -0.013508     -0.012515      0.006614
      1.30574      4.28984      9.96546         0.013508     -0.012515     -0.006614
      1.22105      3.57314      4.65137         0.013508      0.012515     -0.006614
      5.42391      0.95215      0.66272        -0.013508      0.012515      0.006614
      0.11104      0.86728      6.93524         0.000262     -0.009781      0.003363
      6.70331      3.48827      9.00702        -0.000262     -0.009781     -0.003363
      6.61862      4.37471      3.69294        -0.000262      0.009781     -0.003363
      0.02634      1.75371      1.62115         0.000262      0.009781      0.003363
      4.96006      3.30813      6.19953        -0.009682     -0.016304      0.003905
      1.85429      0.68714      9.74274         0.009682     -0.016304     -0.003905
      1.76959      1.93385      4.42865         0.009682      0.016304     -0.003905
      4.87537      4.55485      0.88544        -0.009682      0.016304      0.003905
      4.64251      1.54173      9.98704        -0.002704      0.013218      0.005886
      2.17184      4.16272      5.95523         0.002704      0.013218     -0.005886
      2.08714      3.70026      0.64114         0.002704     -0.013218     -0.005886
      4.55782      1.07926      4.67295        -0.002704     -0.013218      0.005886
      4.06778      4.52417      8.38644         0.002837      0.007753     -0.002017
      2.74657      1.90318      7.55582        -0.002837      0.007753      0.002017
      2.66187      0.71782      2.24173        -0.002837     -0.007753      0.002017
      3.98309      3.33881      3.07235         0.002837     -0.007753     -0.002017
    total drift:                                0.000000     -0.000000     -0.000000

  FREE ENERGIE OF THE ION-ELECTRON SYSTEM (eV)
  free  energy   TOTEN  =      -182.0300448777 eV

  energy  without entropy=     -182.0063571865  energy(sigma->0) =     -182.01820103

volume of typ            1:    17.1 %

[...]

volume of typ            3:     7.1 %

total charge

# of ion       s       p       d       tot
    1        2.098   0.304   0.113   2.515
    2        2.097   0.304   0.113   2.515
    3        2.098   0.304   0.113   2.515
    4        2.097   0.304   0.113   2.515
    5        2.095   0.298   0.108   2.501
    6        2.095   0.298   0.108   2.501
    7        2.095   0.298   0.108   2.501
    8        2.095   0.298   0.108   2.501
    9        0.297   0.365   7.872   8.533
   10        0.297   0.364   7.854   8.514
   11        0.297   0.365   7.872   8.533
   12        0.297   0.364   7.854   8.514
   13        0.339   0.359   7.884   8.583
   14        0.339   0.359   7.879   8.577
   15        0.339   0.359   7.884   8.583
   16        0.339   0.359   7.879   8.577
   17        1.255   2.803   0.005   4.063
   18        1.255   2.803   0.005   4.062
   19        1.255   2.803   0.005   4.063
   20        1.255   2.803   0.005   4.062
   21        1.263   2.782   0.008   4.053
   22        1.263   2.782   0.008   4.053
   23        1.263   2.782   0.008   4.053
   24        1.263   2.782   0.008   4.053
   25        1.268   2.769   0.009   4.046
   26        1.268   2.772   0.009   4.049
   27        1.268   2.769   0.009   4.046
   28        1.268   2.772   0.009   4.049
   29        1.260   2.785   0.007   4.051
   30        1.260   2.783   0.007   4.050
   31        1.260   2.785   0.007   4.051
   32        1.260   2.783   0.007   4.050
tot          39.50   49.86   63.98  153.33

magnetization (x)

# of ion       s       p       d       tot
    1       -0.000   0.000   0.000   0.000
    2       -0.000   0.000   0.000   0.000
    3       -0.000   0.000   0.000   0.000
    4       -0.000   0.000   0.000   0.000
    5       -0.000  -0.000  -0.000  -0.000
    6       -0.000  -0.000  -0.000  -0.000
    7       -0.000  -0.000  -0.000  -0.000
    8       -0.000  -0.000  -0.000  -0.000
    9        0.000  -0.000  -0.001  -0.001
   10        0.000  -0.000  -0.001  -0.001
   11        0.000  -0.000  -0.001  -0.001
   12        0.000  -0.000  -0.001  -0.001
   13       -0.000   0.000   0.000   0.000
   14       -0.000   0.000   0.000   0.000
   15       -0.000   0.000   0.000   0.000
   16       -0.000   0.000   0.000   0.000
   17       -0.000   0.000   0.000   0.000
   18       -0.000   0.000   0.000   0.000
   19       -0.000   0.000   0.000   0.000
   20       -0.000   0.000   0.000   0.000
   21       -0.000  -0.000   0.000  -0.000
   22       -0.000  -0.000   0.000  -0.000
   23       -0.000  -0.000   0.000  -0.000
   24       -0.000  -0.000   0.000  -0.000
   25        0.000   0.000  -0.000   0.000
   26        0.000   0.000  -0.000   0.000
   27        0.000   0.000  -0.000   0.000
   28        0.000   0.000  -0.000   0.000
   29       -0.000  -0.000  -0.000  -0.000
   30       -0.000  -0.000  -0.000  -0.000
   31       -0.000  -0.000  -0.000  -0.000
   32       -0.000  -0.000  -0.000  -0.000
tot          -0.00   -0.00   -0.00   -0.00