 vasp.5.4.4.18Apr17-6-g9f103f2a35 (build May 12 2020 04:58:55) complex

 MD_VERSION_INFO: Compiled 2020-05-12T11:58:55-UTC in devlin.sd.materialsdesign.
 com:/home/medea2/data/build/wwolf/vasp-gpu5.4.4/13047/x86_64/src/src/build/std
 from svn 13047

 executed on                        Lin64 date 2023.03.16  12:26:31

 INCAR:
 POTCAR:    PAW_PBE Ni 02Aug2007
 POTCAR:    PAW_PBE O 08Apr2002

 POTCAR:    PAW_PBE Ni 02Aug2007

 POTCAR:    PAW_PBE O 08Apr2002

 Optimization of the real space projectors (new method)

 maximal supplied QI-value         = 16.25
 optimisation between [QCUT,QGAM] = [ 11.38, 22.75] = [ 36.24,144.96] Ry
 Optimized for a Real-space Cutoff    1.47 Angstroem

   l    n(q)    QCUT    max X(q) W(low)/X(q) W(high)/X(q)  e(spline)
   2      9    11.376    60.317    0.17E-03    0.16E-04    0.16E-06
   2      9    11.376    55.921    0.17E-03    0.16E-04    0.17E-06
   0     10    11.376    51.690    0.45E-04    0.60E-04    0.21E-06
   0     10    11.376    30.015    0.37E-04    0.55E-04    0.19E-06
   1     10    11.376    18.849    0.83E-04    0.11E-03    0.92E-07
   1     10    11.376    14.624    0.69E-04    0.92E-04    0.82E-07
 Optimization of the real space projectors (new method)

 maximal supplied QI-value         = 24.76
 optimisation between [QCUT,QGAM] = [ 11.39, 22.77] = [ 36.31,145.25] Ry
 Optimized for a Real-space Cutoff    1.10 Angstroem

   l    n(q)    QCUT    max X(q) W(low)/X(q) W(high)/X(q)  e(spline)
   0      7    11.387    20.381    0.22E-03    0.48E-03    0.18E-06
   0      7    11.387    15.268    0.22E-03    0.52E-03    0.19E-06
   1      7    11.387     5.964    0.22E-03    0.73E-03    0.24E-06
   1      7    11.387     5.382    0.19E-03    0.60E-03    0.21E-06

  PAW_PBE Ni 02Aug2007                  :
  PAW_PBE O 08Apr2002                   :

 POSCAR: (COD #4320487)_1
  positions in direct lattice
 exchange correlation table for  LEXCH =       14
   RHO(1)=    0.500       N(1)  =     2000
   RHO(2)=  100.500       N(2)  =     4000

 ion  position               nearest neighbor table
   1  0.000  0.000  0.000-   2 2.05   2 2.05   2 2.05   2 2.05   2 2.05   2 2.05
   2  0.500  0.500  0.500-   1 2.05   1 2.05   1 2.05   1 2.05   1 2.05   1 2.05

  LATTYP: Found a face centered cubic cell.
 ALAT       =     4.1099457600

  Lattice vectors:

 A1 = (   0.0000000000,   2.0549728800,   2.0549728800)
 A2 = (   2.0549728800,   0.0000000000,   2.0549728800)
 A3 = (   2.0549728800,   2.0549728800,   0.0000000000)

Analysis of symmetry for initial positions (statically):
 Subroutine PRICEL returns:
 Original cell was already a primitive cell.

 Routine SETGRP: Setting up the symmetry group for a
 face centered cubic supercell.

 Subroutine GETGRP returns: Found 48 space group operations
 (whereof 48 operations were pure point group operations)
 out of a pool of 48 trial point group operations.

The static configuration has the point symmetry O_h .

Analysis of symmetry for dynamics (positions and initial velocities):
 Subroutine PRICEL returns:
 Original cell was already a primitive cell.

[...]

The dynamic configuration has the point symmetry O_h .

Analysis of structural, dynamic, and magnetic symmetry:
 Subroutine PRICEL returns:
 Original cell was already a primitive cell.

 Routine SETGRP: Setting up the symmetry group for a
 face centered cubic supercell.

 Subroutine GETGRP returns: Found 48 space group operations
 (whereof 48 operations were pure point group operations)
 out of a pool of 48 trial point group operations.

The magnetic configuration has the point symmetry O_h .

 Subroutine INISYM returns: Found 48 space group operations
 (whereof 48 operations are pure point group operations),
 and found     1 'primitive' translations

 KPOINTS: Automatic mesh

Automatic generation of k-mesh.
Space group operators:
 irot       det(A)        alpha          n_x          n_y          n_z        tau_x        tau_y        tau_z
    1     1.000000     0.000000     1.000000     0.000000     0.000000     0.000000     0.000000     0.000000
    2    -1.000000     0.000000     1.000000     0.000000     0.000000     0.000000     0.000000     0.000000
    3     1.000000   120.000000    -0.577350    -0.577350    -0.577350     0.000000     0.000000     0.000000
    4    -1.000000   120.000000    -0.577350    -0.577350    -0.577350     0.000000     0.000000     0.000000
    5     1.000000   120.000000     0.577350     0.577350     0.577350     0.000000     0.000000     0.000000
    6    -1.000000   120.000000     0.577350     0.577350     0.577350     0.000000     0.000000     0.000000
    7     1.000000    90.000000     0.000000     0.000000    -1.000000     0.000000     0.000000     0.000000
    8    -1.000000    90.000000     0.000000     0.000000    -1.000000     0.000000     0.000000     0.000000
    9     1.000000   180.000000     0.000000     0.707107     0.707107     0.000000     0.000000     0.000000
   10    -1.000000   180.000000     0.000000     0.707107     0.707107     0.000000     0.000000     0.000000
   11     1.000000    90.000000     0.000000     1.000000     0.000000     0.000000     0.000000     0.000000
   12    -1.000000    90.000000     0.000000     1.000000     0.000000     0.000000     0.000000     0.000000
   13     1.000000   180.000000     0.000000     0.000000     1.000000     0.000000     0.000000     0.000000
   14    -1.000000   180.000000     0.000000     0.000000     1.000000     0.000000     0.000000     0.000000
   15     1.000000   120.000000    -0.577350     0.577350     0.577350     0.000000     0.000000     0.000000
   16    -1.000000   120.000000    -0.577350     0.577350     0.577350     0.000000     0.000000     0.000000
   17     1.000000   120.000000    -0.577350     0.577350    -0.577350     0.000000     0.000000     0.000000
   18    -1.000000   120.000000    -0.577350     0.577350    -0.577350     0.000000     0.000000     0.000000
   19     1.000000    90.000000     0.000000     0.000000     1.000000     0.000000     0.000000     0.000000
   20    -1.000000    90.000000     0.000000     0.000000     1.000000     0.000000     0.000000     0.000000
   21     1.000000    90.000000    -1.000000     0.000000     0.000000     0.000000     0.000000     0.000000
   22    -1.000000    90.000000    -1.000000     0.000000     0.000000     0.000000     0.000000     0.000000
   23     1.000000   180.000000     0.707107     0.000000     0.707107     0.000000     0.000000     0.000000
   24    -1.000000   180.000000     0.707107     0.000000     0.707107     0.000000     0.000000     0.000000
   25     1.000000   120.000000     0.577350    -0.577350     0.577350     0.000000     0.000000     0.000000
   26    -1.000000   120.000000     0.577350    -0.577350     0.577350     0.000000     0.000000     0.000000
   27     1.000000   120.000000    -0.577350    -0.577350     0.577350     0.000000     0.000000     0.000000
   28    -1.000000   120.000000    -0.577350    -0.577350     0.577350     0.000000     0.000000     0.000000
   29     1.000000   180.000000     1.000000     0.000000     0.000000     0.000000     0.000000     0.000000
   30    -1.000000   180.000000     1.000000     0.000000     0.000000     0.000000     0.000000     0.000000
   31     1.000000    90.000000     0.000000    -1.000000     0.000000     0.000000     0.000000     0.000000
   32    -1.000000    90.000000     0.000000    -1.000000     0.000000     0.000000     0.000000     0.000000
   33     1.000000   180.000000     0.707107     0.707107     0.000000     0.000000     0.000000     0.000000
   34    -1.000000   180.000000     0.707107     0.707107     0.000000     0.000000     0.000000     0.000000
   35     1.000000    90.000000     1.000000     0.000000     0.000000     0.000000     0.000000     0.000000
   36    -1.000000    90.000000     1.000000     0.000000     0.000000     0.000000     0.000000     0.000000
   37     1.000000   120.000000     0.577350    -0.577350    -0.577350     0.000000     0.000000     0.000000
   38    -1.000000   120.000000     0.577350    -0.577350    -0.577350     0.000000     0.000000     0.000000
   39     1.000000   180.000000     0.000000     1.000000     0.000000     0.000000     0.000000     0.000000
   40    -1.000000   180.000000     0.000000     1.000000     0.000000     0.000000     0.000000     0.000000
   41     1.000000   120.000000     0.577350     0.577350    -0.577350     0.000000     0.000000     0.000000
   42    -1.000000   120.000000     0.577350     0.577350    -0.577350     0.000000     0.000000     0.000000
   43     1.000000   180.000000     0.000000    -0.707107     0.707107     0.000000     0.000000     0.000000
   44    -1.000000   180.000000     0.000000    -0.707107     0.707107     0.000000     0.000000     0.000000
   45     1.000000   180.000000     0.707107    -0.707107     0.000000     0.000000     0.000000     0.000000
   46    -1.000000   180.000000     0.707107    -0.707107     0.000000     0.000000     0.000000     0.000000
   47     1.000000   180.000000     0.707107     0.000000    -0.707107     0.000000     0.000000     0.000000
   48    -1.000000   180.000000     0.707107     0.000000    -0.707107     0.000000     0.000000     0.000000

 Subroutine IBZKPT returns following result:

 Found     56 irreducible k-points:

 Following reciprocal coordinates:
            Coordinates               Weight
  0.000000  0.000000  0.000000      1.000000
  0.090909  0.000000  0.000000      8.000000
  0.181818  0.000000  0.000000      8.000000
  0.272727  0.000000  0.000000      8.000000
  0.363636  0.000000  0.000000      8.000000
  0.454545  0.000000  0.000000      8.000000
  0.090909  0.090909  0.000000      6.000000
  0.181818  0.090909  0.000000     24.000000
  0.272727  0.090909  0.000000     24.000000
  0.363636  0.090909  0.000000     24.000000
  0.454545  0.090909  0.000000     24.000000
 -0.454545  0.090909  0.000000     24.000000
 -0.363636  0.090909  0.000000     24.000000
 -0.272727  0.090909  0.000000     24.000000
 -0.181818  0.090909  0.000000     24.000000
 -0.090909  0.090909  0.000000     12.000000
  0.181818  0.181818  0.000000      6.000000
  0.272727  0.181818  0.000000     24.000000
  0.363636  0.181818  0.000000     24.000000
  0.454545  0.181818  0.000000     24.000000
 -0.454545  0.181818  0.000000     24.000000
 -0.363636  0.181818  0.000000     24.000000
 -0.272727  0.181818  0.000000     24.000000
 -0.181818  0.181818  0.000000     12.000000
  0.272727  0.272727  0.000000      6.000000
  0.363636  0.272727  0.000000     24.000000
  0.454545  0.272727  0.000000     24.000000
 -0.454545  0.272727  0.000000     24.000000
 -0.363636  0.272727  0.000000     24.000000
 -0.272727  0.272727  0.000000     12.000000
  0.363636  0.363636  0.000000      6.000000
  0.454545  0.363636  0.000000     24.000000
 -0.454545  0.363636  0.000000     24.000000
 -0.363636  0.363636  0.000000     12.000000
  0.454545  0.454545  0.000000      6.000000
 -0.454545  0.454545  0.000000     12.000000
  0.272727  0.181818  0.090909     24.000000
  0.363636  0.181818  0.090909     48.000000
  0.454545  0.181818  0.090909     48.000000
 -0.454545  0.181818  0.090909     48.000000
[...]
   0.00000000  0.04423858  0.13271575       0.018
  -0.02211929  0.06635788  0.15483504       0.036
   0.19907363 -0.15483504 -0.06635788       0.036
   0.17695434 -0.13271575 -0.04423858       0.036
   0.15483504 -0.11059646 -0.02211929       0.036
   0.13271575 -0.08847717  0.00000000       0.018
  -0.00000000  0.04423858  0.17695434       0.018
   0.22119292 -0.17695434 -0.04423858       0.036
   0.19907363 -0.15483504 -0.02211929       0.036
   0.17695434 -0.13271575 -0.00000000       0.018
   0.24331221 -0.19907363 -0.02211929       0.018
   0.22119292 -0.17695434  0.00000000       0.018
   0.24331221 -0.15483504 -0.06635788       0.018
   0.22119292 -0.13271575 -0.04423858       0.036
   0.24331221 -0.15483504 -0.02211929       0.018
   0.22119292 -0.13271575  0.00000000       0.018

 k-points in reciprocal lattice and weights: Automatic mesh
   0.00000000  0.00000000  0.00000000       0.001
   0.09090909  0.00000000  0.00000000       0.006
   0.18181818  0.00000000  0.00000000       0.006
   0.27272727  0.00000000  0.00000000       0.006
   0.36363636  0.00000000  0.00000000       0.006
   0.45454545  0.00000000  0.00000000       0.006
   0.09090909  0.09090909  0.00000000       0.005
   0.18181818  0.09090909  0.00000000       0.018
   0.27272727  0.09090909  0.00000000       0.018
   0.36363636  0.09090909  0.00000000       0.018
   0.45454545  0.09090909  0.00000000       0.018
  -0.45454545  0.09090909  0.00000000       0.018
  -0.36363636  0.09090909  0.00000000       0.018
  -0.27272727  0.09090909  0.00000000       0.018
  -0.18181818  0.09090909  0.00000000       0.018
  -0.09090909  0.09090909  0.00000000       0.009
   0.18181818  0.18181818  0.00000000       0.005
   0.27272727  0.18181818  0.00000000       0.018
   0.36363636  0.18181818  0.00000000       0.018
   0.45454545  0.18181818  0.00000000       0.018
  -0.45454545  0.18181818  0.00000000       0.018
  -0.36363636  0.18181818  0.00000000       0.018
  -0.27272727  0.18181818  0.00000000       0.018
  -0.18181818  0.18181818  0.00000000       0.009
   0.27272727  0.27272727  0.00000000       0.005
   0.36363636  0.27272727  0.00000000       0.018
   0.45454545  0.27272727  0.00000000       0.018
  -0.45454545  0.27272727  0.00000000       0.018
  -0.36363636  0.27272727  0.00000000       0.018
  -0.27272727  0.27272727  0.00000000       0.009
   0.36363636  0.36363636  0.00000000       0.005
   0.45454545  0.36363636  0.00000000       0.018
  -0.45454545  0.36363636  0.00000000       0.018
  -0.36363636  0.36363636  0.00000000       0.009
   0.45454545  0.45454545  0.00000000       0.005
  -0.45454545  0.45454545  0.00000000       0.009
   0.27272727  0.18181818  0.09090909       0.018
   0.36363636  0.18181818  0.09090909       0.036
   0.45454545  0.18181818  0.09090909       0.036
  -0.45454545  0.18181818  0.09090909       0.036
   0.36363636  0.27272727  0.09090909       0.018
   0.45454545  0.27272727  0.09090909       0.036
  -0.45454545  0.27272727  0.09090909       0.036
  -0.36363636  0.27272727  0.09090909       0.036
  -0.27272727  0.27272727  0.09090909       0.036
  -0.18181818  0.27272727  0.09090909       0.018
   0.45454545  0.36363636  0.09090909       0.018
  -0.45454545  0.36363636  0.09090909       0.036
  -0.36363636  0.36363636  0.09090909       0.036
  -0.27272727  0.36363636  0.09090909       0.018
  -0.45454545  0.45454545  0.09090909       0.018
  -0.36363636  0.45454545  0.09090909       0.018
  -0.45454545  0.36363636  0.18181818       0.018
  -0.36363636  0.36363636  0.18181818       0.036
  -0.36363636  0.45454545  0.18181818       0.018
  -0.27272727  0.45454545  0.18181818       0.018

 position of ions in fractional coordinates (direct lattice)
   0.00000000  0.00000000  0.00000000
   0.50000000  0.50000000  0.50000000

 position of ions in cartesian coordinates  (Angst):
   0.00000000  0.00000000  0.00000000
   2.05497288  2.05497288  2.05497288

 k-point  1 :   0.0000 0.0000 0.0000  plane waves:     459
 k-point  2 :   0.0909 0.0000 0.0000  plane waves:     441
 k-point  3 :   0.1818 0.0000 0.0000  plane waves:     456
 k-point  4 :   0.2727 0.0000 0.0000  plane waves:     438
 k-point  5 :   0.3636 0.0000 0.0000  plane waves:     431
 k-point  6 :   0.4545 0.0000 0.0000  plane waves:     434
 k-point  7 :   0.0909 0.0909 0.0000  plane waves:     435
 k-point  8 :   0.1818 0.0909 0.0000  plane waves:     450
 k-point  9 :   0.2727 0.0909 0.0000  plane waves:     441
 k-point 10 :   0.3636 0.0909 0.0000  plane waves:     440
 k-point 11 :   0.4545 0.0909 0.0000  plane waves:     438
 k-point 12 :  -0.4545 0.0909 0.0000  plane waves:     445
 k-point 13 :  -0.3636 0.0909 0.0000  plane waves:     439
 k-point 14 :  -0.2727 0.0909 0.0000  plane waves:     447
 k-point 15 :  -0.1818 0.0909 0.0000  plane waves:     445
 k-point 16 :  -0.0909 0.0909 0.0000  plane waves:     441
 k-point 17 :   0.1818 0.1818 0.0000  plane waves:     443
 k-point 18 :   0.2727 0.1818 0.0000  plane waves:     440
 k-point 19 :   0.3636 0.1818 0.0000  plane waves:     445
 k-point 20 :   0.4545 0.1818 0.0000  plane waves:     444
 k-point 21 :  -0.4545 0.1818 0.0000  plane waves:     439
 k-point 22 :  -0.3636 0.1818 0.0000  plane waves:     439
 k-point 23 :  -0.2727 0.1818 0.0000  plane waves:     438
 k-point 24 :  -0.1818 0.1818 0.0000  plane waves:     441
 k-point 25 :   0.2727 0.2727 0.0000  plane waves:     444
 k-point 26 :   0.3636 0.2727 0.0000  plane waves:     439
 k-point 27 :   0.4545 0.2727 0.0000  plane waves:     438
 k-point 28 :  -0.4545 0.2727 0.0000  plane waves:     442
 k-point 29 :  -0.3636 0.2727 0.0000  plane waves:     445
 k-point 30 :  -0.2727 0.2727 0.0000  plane waves:     437
 k-point 31 :   0.3636 0.3636 0.0000  plane waves:     444
 k-point 32 :   0.4545 0.3636 0.0000  plane waves:     445
 k-point 33 :  -0.4545 0.3636 0.0000  plane waves:     438
 k-point 34 :  -0.3636 0.3636 0.0000  plane waves:     440
 k-point 35 :   0.4545 0.4545 0.0000  plane waves:     452
 k-point 36 :  -0.4545 0.4545 0.0000  plane waves:     446
 k-point 37 :   0.2727 0.1818 0.0909  plane waves:     443
 k-point 38 :   0.3636 0.1818 0.0909  plane waves:     442
 k-point 39 :   0.4545 0.1818 0.0909  plane waves:     441
 k-point 40 :  -0.4545 0.1818 0.0909  plane waves:     438
 k-point 41 :   0.3636 0.2727 0.0909  plane waves:     441
 k-point 42 :   0.4545 0.2727 0.0909  plane waves:     437
 k-point 43 :  -0.4545 0.2727 0.0909  plane waves:     438
 k-point 44 :  -0.3636 0.2727 0.0909  plane waves:     436
 k-point 45 :  -0.2727 0.2727 0.0909  plane waves:     431
 k-point 46 :  -0.1818 0.2727 0.0909  plane waves:     434
 k-point 47 :   0.4545 0.3636 0.0909  plane waves:     442
 k-point 48 :  -0.4545 0.3636 0.0909  plane waves:     442
 k-point 49 :  -0.3636 0.3636 0.0909  plane waves:     439
 k-point 50 :  -0.2727 0.3636 0.0909  plane waves:     441
 k-point 51 :  -0.4545 0.4545 0.0909  plane waves:     442
 k-point 52 :  -0.3636 0.4545 0.0909  plane waves:     441
 k-point 53 :  -0.4545 0.3636 0.1818  plane waves:     442
 k-point 54 :  -0.3636 0.3636 0.1818  plane waves:     437
 k-point 55 :  -0.3636 0.4545 0.1818  plane waves:     439
 k-point 56 :  -0.2727 0.4545 0.1818  plane waves:     439

 maximum and minimum number of plane-waves per node :       459      431

 maximum number of plane-waves:       459
 maximum index in each direction:
   IXMAX=    5   IYMAX=    5   IZMAX=    5
   IXMIN=   -5   IYMIN=   -5   IZMIN=   -5

 The following grids will avoid any aliasing or wrap around errors in the Hartre
 e energy
  - symmetry arguments have not been applied
  - exchange correlation energies might require even more grid points
  - we recommend to set PREC=Normal or Accurate and rely on VASP defaults
 NGX is ok and might be reduce to    24
 NGY is ok and might be reduce to    24
 NGZ is ok and might be reduce to    24

 serial   3D FFT for wavefunctions
 parallel 3D FFT for charge:
    minimum data exchange during FFTs selected (reduces bandwidth)

 Broyden mixing: mesh for mixing (old mesh)
   NGX = 11   NGY = 11   NGZ = 11
  (NGX  = 48   NGY  = 48   NGZ  = 48)
  gives a total of   1331 points

 initial charge density was supplied:
 charge density of overlapping atoms calculated
 number of electron      16.0000000 magnetization       2.5000000
 keeping initial charge density in first step

 Maximum index for non-local projection operator        10425
 Maximum index for augmentation-charges         1621 (set IRDMAX)

 First call to EWALD:  gamma=   0.685
 Maximum number of real-space cells 3x 3x 3
 Maximum number of reciprocal cells 3x 3x 3

--------------------------------------- Iteration      1(   1)  ---------------------------------------

 eigenvalue-minimisations  :  3584
 total energy-change (2. order) : 0.2273203E+02  (-0.8775125E+03)
 number of electron      16.0000000 magnetization       2.5000000
 augmentation part       16.0000000 magnetization       2.5000000

 Free energy of the ion-electron system (eV)
  alpha Z        PSCENC =        68.36479326
  Ewald energy   TEWEN  =     -1321.41547416
  -Hartree energ DENC   =      -317.27230230
  -exchange      EXHF   =         0.00000000
  -V(xc)+E(xc)   XCENC  =        61.20466172
  PAW double counting   =      1307.70298864    -1376.11810819
  entropy T*S    EENTRO =        -0.00151945
  eigenvalues    EBANDS =        92.54569408
  atomic energy  EATOM  =      1507.72129817
  Solvation  Ediel_sol  =         0.00000000
  free energy    TOTEN  =        22.73203177 eV

  energy without entropy =       22.73355122  energy(sigma->0) =       22.73279150

[...]

 eigenvalue-minimisations  :  4000
 total energy-change (2. order) :-0.3689127E+02  (-0.3643028E+02)
 number of electron      16.0000000 magnetization       2.5000000
 augmentation part       16.0000000 magnetization       2.5000000

[...]

 Broyden mixing:
  rms(total) = 0.15315E+01    rms(broyden)= 0.15314E+01
  rms(prec ) = 0.43966E+01
  weight for this iteration     100.00

[...]

 eigenvalues of (default mixing * dielectric matrix)
  average eigenvalue GAMMA=   0.2946
  0.2946

[...]

 eigenvalue-minimisations  :  4352
 total energy-change (2. order) : 0.1855634E-02  (-0.8034951E-03)
 number of electron      15.9999988 magnetization       1.0370273
 augmentation part        6.8695119 magnetization       0.7761921

[...]

 Broyden mixing:
  rms(total) = 0.20654E-02    rms(broyden)= 0.20645E-02
  rms(prec ) = 0.23798E-02
  weight for this iteration     100.00

 eigenvalues of (default mixing * dielectric matrix)
  average eigenvalue GAMMA=   1.1847
  2.5231  1.9677  1.0165  1.0165  0.4741  0.6289  0.6663

[...]

--------------------------------------- Iteration      1(  13)  ---------------------------------------

 eigenvalue-minimisations  :  1984
 total energy-change (2. order) :-0.1999386E-05  (-0.6611777E-06)
 number of electron      15.9999988 magnetization       1.0606460
 augmentation part        6.8631933 magnetization       0.7942328

 Free energy of the ion-electron system (eV)
  alpha Z        PSCENC =        68.36479326
  Ewald energy   TEWEN  =     -1321.41547416
  -Hartree energ DENC   =      -307.37278454
  -exchange      EXHF   =         0.00000000
  -V(xc)+E(xc)   XCENC  =        60.51201399
  PAW double counting   =      1614.17537325    -1684.82690100
  entropy T*S    EENTRO =        -0.00195676
  eigenvalues    EBANDS =        50.47595669
  atomic energy  EATOM  =      1507.72129817
  Solvation  Ediel_sol  =         0.00000000
  free energy    TOTEN  =       -12.36768109 eV

  energy without entropy =      -12.36572433  energy(sigma->0) =      -12.36670271

 average (electrostatic) potential at core
  the test charge radii are     0.9791  0.7215
  (the norm of the test charge is              1.0000)
       1 -82.8087       2 -68.0442

 E-fermi :   8.4516     XC(G=0): -13.2299     alpha+bet :-14.6346

 spin component 1

 k-point     1 :       0.0000    0.0000    0.0000
  band No.  band energies     occupation
      1     -12.4451      1.00000
      2       5.1059      1.00000
      3       5.1059      1.00000
      4       5.1059      1.00000
      5       5.9439      1.00000
      6       5.9439      1.00000
      7       6.0444      1.00000
      8       6.0444      1.00000
      9       6.0444      1.00000
     10      10.1938      0.00000
     11      26.2199      0.00000
     12      27.6627      0.00000
     13      27.6627      0.00000
     14      27.6627      0.00000
     15      31.5753      0.00000
     16      31.5753      0.00000

[...]

 spin component 2

[...]

 k-point    56 :      -0.2727    0.4545    0.1818
  band No.  band energies     occupation
      1     -10.4523      1.00000
      2       1.9216      1.00000
      3       1.9754      1.00000
      4       2.7942      1.00000
      5       7.2815      1.00000
      6       7.5312      1.00000
      7       7.8946      1.00000
      8       8.2998      0.99999
      9       9.0580      0.00000
     10      17.6390      0.00000
     11      19.2367      0.00000
     12      19.3861      0.00000
     13      22.8612      0.00000
     14      30.3790      0.00000
     15      31.9355      0.00000
     16      40.0698      0.00000

 soft charge-density along one line, spin component           1
         0         1         2         3         4         5         6         7         8         9
 total charge-density along one line

 soft charge-density along one line, spin component           2
         0         1         2         3         4         5         6         7         8         9
 total charge-density along one line

------------------------ aborting loop because EDIFF is reached ----------------------------------------

  FORCE on cell =-STRESS in cart. coord.  units (eV):
  Direction    XX          YY          ZZ          XY          YZ          ZX
  Alpha Z    68.36479    68.36479    68.36479
  Ewald    -440.47196  -440.47196  -440.47196     0.00000     0.00000     0.00000
  Hartree   102.45683   102.45683   102.45683     0.00000     0.00000     0.00000
  E(xc)     -83.86426   -83.86426   -83.86426     0.00000     0.00000     0.00000
  Local      -4.25491    -4.25491    -4.25491     0.00004     0.00004     0.00004
  n-local   -34.34516   -35.02388   -32.09471    -0.11855     0.37328    -0.49579
  augment   183.20080   183.20080   183.20080    -0.00003    -0.00003    -0.00003
  Kinetic   212.19473   207.52285   205.44739     0.33930     0.03163    -0.08214
  Fock        0.00000     0.00000     0.00000     0.00000     0.00000     0.00000
  Total       -0.0016404     -0.0016404     -0.0016404     -0.0000000      0.0000000      0.0000000
  in kB       -0.1514338     -0.1514338     -0.1514338     -0.0000000      0.0000000      0.0000000

 VOLUME and BASIS-vectors are now :
  energy-cutoff  :      500.00
  volume of cell :       17.36
      direct lattice vectors                 reciprocal lattice vectors
     0.000000000  2.054972880  2.054972880    -0.243312213  0.243312213  0.243312213
     2.054972880  0.000000000  2.054972880     0.243312213 -0.243312213  0.243312213
     2.054972880  2.054972880  0.000000000     0.243312213  0.243312213 -0.243312213

  length of vectors
     2.906170517  2.906170517  2.906170517     0.421429116  0.421429116  0.421429116

 FORCES acting on ions
    electron-ion (+dipol)            ewald-force                    non-local-force                 convergence-correction
   -.351E-13 -.469E-13 -.388E-13   -.151E-14 -.489E-15 -.392E-14   -.496E-23 0.116E-22 -.662E-23   0.366E-14 -.139E-13 0.346E-14
   0.649E-12 -.137E-11 -.311E-12   0.795E-15 0.762E-15 0.358E-14   0.827E-24 0.165E-23 0.827E-24   -.481E-16 -.861E-15 0.209E-14
   0.614E-12 -.142E-11 -.350E-12   -.718E-15 0.273E-15 -.338E-15   -.414E-23 0.132E-22 -.579E-23   0.361E-14 -.147E-13 0.556E-14

 POSITION                                       TOTAL-FORCE (eV/Angst)
      0.00000      0.00000      0.00000        -0.000000     -0.000000     -0.000000
      2.05497      2.05497      2.05497         0.000000      0.000000      0.000000
    total drift:                                0.000000     -0.000000     -0.000000

  FREE ENERGIE OF THE ION-ELECTRON SYSTEM (eV)
  free  energy   TOTEN  =       -12.3676810901 eV

  energy  without entropy=      -12.3657243338  energy(sigma->0) =      -12.36670271

volume of typ            1:    36.7 %

volume of typ            2:     9.4 %

total charge

# of ion       s       p       d       tot
    1        0.201   0.218   7.975   8.394
    2        1.259   2.772   0.007   4.039
tot           1.46    2.99    7.98   12.43

magnetization (x)

# of ion       s       p       d       tot
    1        0.007   0.007   0.876   0.890
    2        0.020   0.112   0.001   0.133
tot           0.03    0.12    0.88    1.02