 vasp.5.4.4.18Apr17-6-g9f103f2a35 (build May 12 2020 04:58:55) complex

 MD_VERSION_INFO: Compiled 2020-05-12T11:58:55-UTC in devlin.sd.materialsdesign.
 com:/home/medea2/data/build/wwolf/vasp-gpu5.4.4/13047/x86_64/src/src/build/std
 from svn 13047

 executed on                        Lin64 date 2023.03.16  12:28:02

 INCAR:
 POTCAR:    PAW_PBE Ni 02Aug2007
 POTCAR:    PAW_PBE O 08Apr2002

 POTCAR:    PAW_PBE Ni 02Aug2007

 POTCAR:    PAW_PBE O 08Apr2002

 Optimization of the real space projectors (new method)

 maximal supplied QI-value         = 16.25
 optimisation between [QCUT,QGAM] = [ 11.38, 22.75] = [ 36.24,144.96] Ry
 Optimized for a Real-space Cutoff    1.47 Angstroem

   l    n(q)    QCUT    max X(q) W(low)/X(q) W(high)/X(q)  e(spline)
   2      9    11.376    60.317    0.17E-03    0.16E-04    0.16E-06
   2      9    11.376    55.921    0.17E-03    0.16E-04    0.17E-06
   0     10    11.376    51.690    0.45E-04    0.60E-04    0.21E-06
   0     10    11.376    30.015    0.37E-04    0.55E-04    0.19E-06
   1     10    11.376    18.849    0.83E-04    0.11E-03    0.92E-07
   1     10    11.376    14.624    0.69E-04    0.92E-04    0.82E-07
 Optimization of the real space projectors (new method)

 maximal supplied QI-value         = 24.76
 optimisation between [QCUT,QGAM] = [ 11.39, 22.77] = [ 36.31,145.25] Ry
 Optimized for a Real-space Cutoff    1.10 Angstroem

   l    n(q)    QCUT    max X(q) W(low)/X(q) W(high)/X(q)  e(spline)
   0      7    11.387    20.381    0.22E-03    0.48E-03    0.18E-06
   0      7    11.387    15.268    0.22E-03    0.52E-03    0.19E-06
   1      7    11.387     5.964    0.22E-03    0.73E-03    0.24E-06
   1      7    11.387     5.382    0.19E-03    0.60E-03    0.21E-06

  PAW_PBE Ni 02Aug2007                  :
  PAW_PBE O 08Apr2002                   :

 POSCAR: Ni O (COD #1526380)_3
  positions in direct lattice
 exchange correlation table for  LEXCH =       14
   RHO(1)=    0.500       N(1)  =     2000
   RHO(2)=  100.500       N(2)  =     4000

 ion  position               nearest neighbor table
   1  0.000  0.000  0.000-   2 2.05   2 2.05   2 2.05   2 2.05   2 2.05   2 2.05
   2  0.500  0.500  0.500-   1 2.05   1 2.05   1 2.05   1 2.05   1 2.05   1 2.05

  LATTYP: Found a trigonal (rhomboedric) cell.
 ALAT       =     2.9046022977
 COS(alpha) =     0.4990105693

  Lattice vectors:

 A1 = (   1.4537373900,   0.8393156700,   2.3704242900)
 A2 = (  -1.4537373900,   0.8393156700,   2.3704242900)
 A3 = (   0.0000000000,  -1.6786313500,   2.3704242900)

Analysis of symmetry for initial positions (statically):
 Subroutine PRICEL returns:
 Original cell was already a primitive cell.

 Routine SETGRP: Setting up the symmetry group for a
 trigonal (rhombohedral) supercell.

 Subroutine GETGRP returns: Found 12 space group operations
 (whereof 12 operations were pure point group operations)
 out of a pool of 12 trial point group operations.

The static configuration has the point symmetry D_3d.

Analysis of symmetry for dynamics (positions and initial velocities):
 Subroutine PRICEL returns:
 Original cell was already a primitive cell.

[...]

The dynamic configuration has the point symmetry D_3d.

Analysis of structural, dynamic, and magnetic symmetry:
 Subroutine PRICEL returns:
 Original cell was already a primitive cell.

 Routine SETGRP: Setting up the symmetry group for a
 trigonal (rhombohedral) supercell.

 Subroutine GETGRP returns: Found 12 space group operations
 (whereof 12 operations were pure point group operations)
 out of a pool of 12 trial point group operations.

The magnetic configuration has the point symmetry D_3d.

 Subroutine INISYM returns: Found 12 space group operations
 (whereof 12 operations are pure point group operations),
 and found     1 'primitive' translations

 KPOINTS: Automatic mesh

Automatic generation of k-mesh.
Space group operators:
 irot       det(A)        alpha          n_x          n_y          n_z        tau_x        tau_y        tau_z
    1     1.000000     0.000000     1.000000     0.000000     0.000000     0.000000     0.000000     0.000000
    2    -1.000000     0.000000     1.000000     0.000000     0.000000     0.000000     0.000000     0.000000
    3     1.000000   180.000000    -0.500000     0.866025     0.000000     0.000000     0.000000     0.000000
    4    -1.000000   180.000000    -0.500000     0.866025     0.000000     0.000000     0.000000     0.000000
    5     1.000000   120.000000    -0.000000     0.000000    -1.000000     0.000000     0.000000     0.000000
    6    -1.000000   120.000000    -0.000000     0.000000    -1.000000     0.000000     0.000000     0.000000
    7     1.000000   180.000000     1.000000     0.000000     0.000000     0.000000     0.000000     0.000000
    8    -1.000000   180.000000     1.000000     0.000000     0.000000     0.000000     0.000000     0.000000
    9     1.000000   120.000000    -0.000000    -0.000000     1.000000     0.000000     0.000000     0.000000
   10    -1.000000   120.000000    -0.000000    -0.000000     1.000000     0.000000     0.000000     0.000000
   11     1.000000   180.000000     0.500000     0.866025     0.000000     0.000000     0.000000     0.000000
   12    -1.000000   180.000000     0.500000     0.866025     0.000000     0.000000     0.000000     0.000000

 Subroutine IBZKPT returns following result:

 Found    146 irreducible k-points:

 Following reciprocal coordinates:
            Coordinates               Weight
  0.000000  0.000000  0.000000      1.000000
  0.090909  0.000000 -0.000000      6.000000
  0.181818  0.000000 -0.000000      6.000000
  0.272727 -0.000000  0.000000      6.000000
  0.363636  0.000000 -0.000000      6.000000
  0.454545  0.000000  0.000000      6.000000
  0.090909  0.090909 -0.000000      6.000000
  0.181818  0.090909  0.000000     12.000000
  0.272727  0.090909 -0.000000     12.000000
  0.363636  0.090909 -0.000000     12.000000
  0.454545  0.090909 -0.000000     12.000000
 -0.454545  0.090909  0.000000     12.000000
 -0.363636  0.090909 -0.000000     12.000000
 -0.272727  0.090909  0.000000     12.000000
 -0.181818  0.090909  0.000000     12.000000
 -0.090909  0.090909  0.000000      6.000000
  0.181818  0.181818 -0.000000      6.000000
  0.272727  0.181818  0.000000     12.000000
  0.363636  0.181818  0.000000     12.000000
  0.454545  0.181818 -0.000000     12.000000
 -0.454545  0.181818  0.000000     12.000000
 -0.363636  0.181818  0.000000     12.000000
 -0.272727  0.181818 -0.000000     12.000000
 -0.181818  0.181818  0.000000      6.000000
  0.272727  0.272727  0.000000      6.000000
  0.363636  0.272727  0.000000     12.000000
  0.454545  0.272727 -0.000000     12.000000
 -0.454545  0.272727  0.000000     12.000000
 -0.363636  0.272727  0.000000     12.000000
 -0.272727  0.272727  0.000000      6.000000
  0.363636  0.363636 -0.000000      6.000000
  0.454545  0.363636  0.000000     12.000000
 -0.454545  0.363636  0.000000     12.000000
 -0.363636  0.363636  0.000000      6.000000
  0.454545  0.454545 -0.000000      6.000000
 -0.454545  0.454545 -0.000000      6.000000
  0.090909  0.090909  0.090909      2.000000
  0.181818  0.090909  0.090909      6.000000
  0.272727  0.090909  0.090909      6.000000
  0.363636  0.090909  0.090909      6.000000
  0.454545  0.090909  0.090909      6.000000
 -0.454545  0.090909  0.090909      6.000000
 -0.363636  0.090909  0.090909      6.000000
 -0.272727  0.090909  0.090909      6.000000
 -0.181818  0.090909  0.090909      6.000000
 -0.090909  0.090909  0.090909      6.000000
  0.181818  0.181818  0.090909      6.000000
  0.272727  0.181818  0.090909     12.000000
  0.363636  0.181818  0.090909     12.000000
  0.454545  0.181818  0.090909     12.000000
 -0.454545  0.181818  0.090909     12.000000
 -0.363636  0.181818  0.090909     12.000000
 -0.272727  0.181818  0.090909     12.000000
 -0.181818  0.181818  0.090909     12.000000
 -0.090909  0.181818  0.090909     12.000000
  0.272727  0.272727  0.090909      6.000000
  0.363636  0.272727  0.090909     12.000000
  0.454545  0.272727  0.090909     12.000000
 -0.454545  0.272727  0.090909     12.000000
 -0.363636  0.272727  0.090909     12.000000
[...]
 -0.363636  0.454545  0.272727     12.000000
 -0.272727  0.454545  0.272727     12.000000
 -0.454545 -0.454545  0.272727      6.000000
 -0.363636 -0.454545  0.272727     12.000000
 -0.363636 -0.363636  0.272727      6.000000
  0.363636  0.363636  0.363636      2.000000
  0.454545  0.363636  0.363636      6.000000
 -0.454545  0.363636  0.363636      6.000000
 -0.363636  0.363636  0.363636      6.000000
  0.454545  0.454545  0.363636      6.000000
 -0.454545  0.454545  0.363636     12.000000
 -0.363636  0.454545  0.363636     12.000000
 -0.454545 -0.454545  0.363636      6.000000
  0.454545  0.454545  0.454545      2.000000
 -0.454545  0.454545  0.454545      6.000000

 Following cartesian coordinates:
            Coordinates               Weight
  0.000000  0.000000  0.000000      1.000000
  0.031267  0.018052  0.012784      6.000000
  0.062535  0.036104  0.025568      6.000000
  0.093802  0.054157  0.038351      6.000000
  0.125069  0.072209  0.051135      6.000000
  0.156337  0.090261  0.063919      6.000000
  0.000000  0.036104  0.025568      6.000000
  0.031267  0.054157  0.038351     12.000000
  0.062535  0.072209  0.051135     12.000000
  0.093802  0.090261  0.063919     12.000000
  0.125069  0.108313  0.076703     12.000000
 -0.187604 -0.072209 -0.051135     12.000000
 -0.156337 -0.054157 -0.038351     12.000000
 -0.125069 -0.036104 -0.025568     12.000000
 -0.093802 -0.018052 -0.012784     12.000000
 -0.062535  0.000000  0.000000      6.000000
  0.000000  0.072209  0.051135      6.000000
  0.031267  0.090261  0.063919     12.000000
  0.062535  0.108313  0.076703     12.000000
  0.093802  0.126366  0.089487     12.000000
 -0.218872 -0.054157 -0.038351     12.000000
 -0.187604 -0.036104 -0.025568     12.000000
 -0.156337 -0.018052 -0.012784     12.000000
 -0.125069  0.000000  0.000000      6.000000
  0.000000  0.108313  0.076703      6.000000
  0.031267  0.126366  0.089487     12.000000
  0.062535  0.144418  0.102270     12.000000
 -0.250139 -0.036104 -0.025568     12.000000
 -0.218872 -0.018052 -0.012784     12.000000
 -0.187604  0.000000  0.000000      6.000000
  0.000000  0.144418  0.102270      6.000000
  0.031267  0.162470  0.115054     12.000000
 -0.281406 -0.018052 -0.012784     12.000000
 -0.250139  0.000000  0.000000      6.000000
  0.000000  0.180522  0.127838      6.000000
 -0.312674  0.000000  0.000000      6.000000
  0.000000  0.000000  0.038351      2.000000
  0.031267  0.018052  0.051135      6.000000
  0.062535  0.036104  0.063919      6.000000
  0.093802  0.054157  0.076703      6.000000
  0.125069  0.072209  0.089487      6.000000
 -0.187604 -0.108313 -0.038351      6.000000
 -0.156337 -0.090261 -0.025568      6.000000
 -0.125069 -0.072209 -0.012784      6.000000
 -0.093802 -0.054157 -0.000000      6.000000
 -0.062535 -0.036104  0.012784      6.000000
  0.000000  0.036104  0.063919      6.000000
  0.031267  0.054157  0.076703     12.000000
  0.062535  0.072209  0.089487     12.000000
  0.093802  0.090261  0.102270     12.000000
[...]
   0.00000000 -0.00000001  3.55563643

 k-point  1 :   0.0000 0.0000 0.0000  plane waves:     459
 k-point  2 :   0.0909 0.0000-0.0000  plane waves:     441
 k-point  3 :   0.1818 0.0000-0.0000  plane waves:     452
 k-point  4 :   0.2727-0.0000 0.0000  plane waves:     437
 k-point  5 :   0.3636 0.0000-0.0000  plane waves:     431
 k-point  6 :   0.4545 0.0000 0.0000  plane waves:     434
 k-point  7 :   0.0909 0.0909-0.0000  plane waves:     435
 k-point  8 :   0.1818 0.0909 0.0000  plane waves:     450
 k-point  9 :   0.2727 0.0909-0.0000  plane waves:     443
 k-point 10 :   0.3636 0.0909-0.0000  plane waves:     440
 k-point 11 :   0.4545 0.0909-0.0000  plane waves:     438
 k-point 12 :  -0.4545 0.0909 0.0000  plane waves:     444
 k-point 13 :  -0.3636 0.0909-0.0000  plane waves:     439
 k-point 14 :  -0.2727 0.0909 0.0000  plane waves:     447
 k-point 15 :  -0.1818 0.0909 0.0000  plane waves:     448
 k-point 16 :  -0.0909 0.0909 0.0000  plane waves:     445
 k-point 17 :   0.1818 0.1818-0.0000  plane waves:     443
 k-point 18 :   0.2727 0.1818 0.0000  plane waves:     440
 k-point 19 :   0.3636 0.1818 0.0000  plane waves:     444
 k-point 20 :   0.4545 0.1818-0.0000  plane waves:     443
 k-point 21 :  -0.4545 0.1818 0.0000  plane waves:     444
 k-point 22 :  -0.3636 0.1818 0.0000  plane waves:     439
 k-point 23 :  -0.2727 0.1818-0.0000  plane waves:     438
 k-point 24 :  -0.1818 0.1818 0.0000  plane waves:     441
 k-point 25 :   0.2727 0.2727 0.0000  plane waves:     444
 k-point 26 :   0.3636 0.2727 0.0000  plane waves:     439
 k-point 27 :   0.4545 0.2727-0.0000  plane waves:     438
 k-point 28 :  -0.4545 0.2727 0.0000  plane waves:     441
 k-point 29 :  -0.3636 0.2727 0.0000  plane waves:     445
 k-point 30 :  -0.2727 0.2727 0.0000  plane waves:     437
 k-point 31 :   0.3636 0.3636-0.0000  plane waves:     444
 k-point 32 :   0.4545 0.3636 0.0000  plane waves:     445
 k-point 33 :  -0.4545 0.3636 0.0000  plane waves:     439
 k-point 34 :  -0.3636 0.3636 0.0000  plane waves:     440
 k-point 35 :   0.4545 0.4545-0.0000  plane waves:     451
 k-point 36 :  -0.4545 0.4545-0.0000  plane waves:     446
 k-point 37 :   0.0909 0.0909 0.0909  plane waves:     441
 k-point 38 :   0.1818 0.0909 0.0909  plane waves:     445
 k-point 39 :   0.2727 0.0909 0.0909  plane waves:     447
 k-point 40 :   0.3636 0.0909 0.0909  plane waves:     447
 k-point 41 :   0.4545 0.0909 0.0909  plane waves:     439
 k-point 42 :  -0.4545 0.0909 0.0909  plane waves:     445
 k-point 43 :  -0.3636 0.0909 0.0909  plane waves:     438
 k-point 44 :  -0.2727 0.0909 0.0909  plane waves:     440
 k-point 45 :  -0.1818 0.0909 0.0909  plane waves:     441
 k-point 46 :  -0.0909 0.0909 0.0909  plane waves:     450
 k-point 47 :   0.1818 0.1818 0.0909  plane waves:     450
 k-point 48 :   0.2727 0.1818 0.0909  plane waves:     445
 k-point 49 :   0.3636 0.1818 0.0909  plane waves:     443
 k-point 50 :   0.4545 0.1818 0.0909  plane waves:     441
 k-point 51 :  -0.4545 0.1818 0.0909  plane waves:     438
 k-point 52 :  -0.3636 0.1818 0.0909  plane waves:     438
 k-point 53 :  -0.2727 0.1818 0.0909  plane waves:     441
 k-point 54 :  -0.1818 0.1818 0.0909  plane waves:     443
 k-point 55 :  -0.0909 0.1818 0.0909  plane waves:     445
 k-point 56 :   0.2727 0.2727 0.0909  plane waves:     440
 k-point 57 :   0.3636 0.2727 0.0909  plane waves:     441
 k-point 58 :   0.4545 0.2727 0.0909  plane waves:     437
 k-point 59 :  -0.4545 0.2727 0.0909  plane waves:     438
 k-point 60 :  -0.3636 0.2727 0.0909  plane waves:     436
[...]
 k-point 85 :  -0.1818-0.2727 0.0909  plane waves:     441
 k-point 86 :  -0.1818-0.1818 0.0909  plane waves:     438
 k-point 87 :   0.1818 0.1818 0.1818  plane waves:     456
 k-point 88 :   0.2727 0.1818 0.1818  plane waves:     449
 k-point 89 :   0.3636 0.1818 0.1818  plane waves:     441
 k-point 90 :   0.4545 0.1818 0.1818  plane waves:     438
 k-point 91 :  -0.4545 0.1818 0.1818  plane waves:     439
 k-point 92 :  -0.3636 0.1818 0.1818  plane waves:     439
 k-point 93 :  -0.2727 0.1818 0.1818  plane waves:     444
 k-point 94 :  -0.1818 0.1818 0.1818  plane waves:     445
 k-point 95 :   0.2727 0.2727 0.1818  plane waves:     441
 k-point 96 :   0.3636 0.2727 0.1818  plane waves:     442
 k-point 97 :   0.4545 0.2727 0.1818  plane waves:     439
 k-point 98 :  -0.4545 0.2727 0.1818  plane waves:     431
 k-point 99 :  -0.3636 0.2727 0.1818  plane waves:     435
 k-point ** :  -0.2727 0.2727 0.1818  plane waves:     438
 k-point ** :  -0.1818 0.2727 0.1818  plane waves:     437
 k-point ** :   0.3636 0.3636 0.1818  plane waves:     444
 k-point ** :   0.4545 0.3636 0.1818  plane waves:     437
 k-point ** :  -0.4545 0.3636 0.1818  plane waves:     442
 k-point ** :  -0.3636 0.3636 0.1818  plane waves:     439
 k-point ** :  -0.2727 0.3636 0.1818  plane waves:     441
 k-point ** :  -0.1818 0.3636 0.1818  plane waves:     442
 k-point ** :   0.4545 0.4545 0.1818  plane waves:     438
 k-point ** :  -0.4545 0.4545 0.1818  plane waves:     442
 k-point ** :  -0.3636 0.4545 0.1818  plane waves:     439
 k-point ** :  -0.2727 0.4545 0.1818  plane waves:     439
 k-point ** :  -0.1818 0.4545 0.1818  plane waves:     441
 k-point ** :  -0.4545-0.4545 0.1818  plane waves:     440
 k-point ** :  -0.3636-0.4545 0.1818  plane waves:     441
 k-point ** :  -0.2727-0.4545 0.1818  plane waves:     439
 k-point ** :  -0.3636-0.3636 0.1818  plane waves:     440
 k-point ** :  -0.2727-0.3636 0.1818  plane waves:     442
 k-point ** :  -0.2727-0.2727 0.1818  plane waves:     438
 k-point ** :   0.2727 0.2727 0.2727  plane waves:     432
 k-point ** :   0.3636 0.2727 0.2727  plane waves:     447
 k-point ** :   0.4545 0.2727 0.2727  plane waves:     438
 k-point ** :  -0.4545 0.2727 0.2727  plane waves:     437
 k-point ** :  -0.3636 0.2727 0.2727  plane waves:     445
 k-point ** :  -0.2727 0.2727 0.2727  plane waves:     442
 k-point ** :   0.3636 0.3636 0.2727  plane waves:     440
 k-point ** :   0.4545 0.3636 0.2727  plane waves:     441
 k-point ** :  -0.4545 0.3636 0.2727  plane waves:     433
 k-point ** :  -0.3636 0.3636 0.2727  plane waves:     441
 k-point ** :  -0.2727 0.3636 0.2727  plane waves:     439
 k-point ** :   0.4545 0.4545 0.2727  plane waves:     444
 k-point ** :  -0.4545 0.4545 0.2727  plane waves:     438
 k-point ** :  -0.3636 0.4545 0.2727  plane waves:     441
 k-point ** :  -0.2727 0.4545 0.2727  plane waves:     439
 k-point ** :  -0.4545-0.4545 0.2727  plane waves:     442
 k-point ** :  -0.3636-0.4545 0.2727  plane waves:     439
 k-point ** :  -0.3636-0.3636 0.2727  plane waves:     440
 k-point ** :   0.3636 0.3636 0.3636  plane waves:     431
 k-point ** :   0.4545 0.3636 0.3636  plane waves:     439
 k-point ** :  -0.4545 0.3636 0.3636  plane waves:     439
 k-point ** :  -0.3636 0.3636 0.3636  plane waves:     445
 k-point ** :   0.4545 0.4545 0.3636  plane waves:     438
 k-point ** :  -0.4545 0.4545 0.3636  plane waves:     438
 k-point ** :  -0.3636 0.4545 0.3636  plane waves:     436
 k-point ** :  -0.4545-0.4545 0.3636  plane waves:     441
 k-point ** :   0.4545 0.4545 0.4545  plane waves:     434
 k-point ** :  -0.4545 0.4545 0.4545  plane waves:     444

 maximum and minimum number of plane-waves per node :       459      431

 maximum number of plane-waves:       459
 maximum index in each direction:
   IXMAX=    5   IYMAX=    5   IZMAX=    5
   IXMIN=   -5   IYMIN=   -5   IZMIN=   -5

 The following grids will avoid any aliasing or wrap around errors in the Hartre
 e energy
  - symmetry arguments have not been applied
  - exchange correlation energies might require even more grid points
  - we recommend to set PREC=Normal or Accurate and rely on VASP defaults
 NGX is ok and might be reduce to    24
 NGY is ok and might be reduce to    24
 NGZ is ok and might be reduce to    24

 serial   3D FFT for wavefunctions
 parallel 3D FFT for charge:
    minimum data exchange during FFTs selected (reduces bandwidth)

 Broyden mixing: mesh for mixing (old mesh)
   NGX = 11   NGY = 11   NGZ = 11
  (NGX  = 48   NGY  = 48   NGZ  = 48)
  gives a total of   1331 points

 initial charge density was supplied:
 charge density of overlapping atoms calculated
 number of electron      16.0000000 magnetization       2.5000000
 keeping initial charge density in first step

 Maximum index for non-local projection operator        10425
 Maximum index for augmentation-charges         1621 (set IRDMAX)

 First call to EWALD:  gamma=   0.685
 Maximum number of real-space cells 3x 3x 3
 Maximum number of reciprocal cells 3x 3x 3

--------------------------------------- Iteration      1(   1)  ---------------------------------------

 eigenvalue-minimisations  :  9360
 total energy-change (2. order) : 0.2313894E+02  (-0.8838919E+03)
 number of electron      16.0000000 magnetization       2.5000000
 augmentation part       16.0000000 magnetization       2.5000000

 Free energy of the ion-electron system (eV)
  alpha Z        PSCENC =        68.37418328
  Ewald energy   TEWEN  =     -1321.47613541
  -Hartree energ DENC   =      -317.24426106
  -exchange      EXHF   =         0.00000000
  -V(xc)+E(xc)   XCENC  =        61.20540201
  PAW double counting   =      1307.70298864    -1376.11810819
  entropy T*S    EENTRO =        -0.00259591
  eigenvalues    EBANDS =        92.97616380
  atomic energy  EATOM  =      1507.72129817
  Solvation  Ediel_sol  =         0.00000000
  free energy    TOTEN  =        23.13893535 eV

  energy without entropy =       23.14153125  energy(sigma->0) =       23.14023330

[...]

 eigenvalue-minimisations  : 10416
 total energy-change (2. order) :-0.3729832E+02  (-0.3684125E+02)
 number of electron      16.0000000 magnetization       2.5000000
 augmentation part       16.0000000 magnetization       2.5000000

[...]

 Broyden mixing:
  rms(total) = 0.15318E+01    rms(broyden)= 0.15316E+01
  rms(prec ) = 0.43954E+01
  weight for this iteration     100.00

[...]

 eigenvalues of (default mixing * dielectric matrix)
  average eigenvalue GAMMA=   0.2947
  0.2947

[...]

 eigenvalue-minimisations  : 11488
 total energy-change (2. order) : 0.1881394E-02  (-0.7926159E-03)
 number of electron      15.9999989 magnetization       1.0367626
 augmentation part        6.8695474 magnetization       0.7759865

[...]

 Broyden mixing:
  rms(total) = 0.20584E-02    rms(broyden)= 0.20575E-02
  rms(prec ) = 0.23874E-02
  weight for this iteration     100.00

 eigenvalues of (default mixing * dielectric matrix)
  average eigenvalue GAMMA=   1.1859
  2.5251  1.9734  1.0167  1.0167  0.4742  0.6289  0.6664

[...]

--------------------------------------- Iteration      1(  13)  ---------------------------------------

 eigenvalue-minimisations  :  5600
 total energy-change (2. order) :-0.1855274E-05  (-0.6865547E-06)
 number of electron      15.9999989 magnetization       1.0604544
 augmentation part        6.8631954 magnetization       0.7940967

 Free energy of the ion-electron system (eV)
  alpha Z        PSCENC =        68.37418328
  Ewald energy   TEWEN  =     -1321.47613541
  -Hartree energ DENC   =      -307.34575088
  -exchange      EXHF   =         0.00000000
  -V(xc)+E(xc)   XCENC  =        60.51273740
  PAW double counting   =      1614.29542669    -1684.94788896
  entropy T*S    EENTRO =        -0.00195737
  eigenvalues    EBANDS =        50.50038029
  atomic energy  EATOM  =      1507.72129817
  Solvation  Ediel_sol  =         0.00000000
  free energy    TOTEN  =       -12.36770679 eV

  energy without entropy =      -12.36574942  energy(sigma->0) =      -12.36672810

 average (electrostatic) potential at core
  the test charge radii are     0.9791  0.7215
  (the norm of the test charge is              1.0000)
       1 -82.8068       2 -68.0427

 E-fermi :   8.4537     XC(G=0): -13.2307     alpha+bet :-14.6367

 spin component 1

 k-point     1 :       0.0000    0.0000    0.0000
  band No.  band energies     occupation
      1     -12.4443      1.00000
      2       5.1039      1.00000
      3       5.1039      1.00000
      4       5.1146      1.00000
      5       5.9458      1.00000
      6       5.9458      1.00000
      7       6.0439      1.00000
      8       6.0439      1.00000
      9       6.0506      1.00000
     10      10.1968      0.00000
     11      26.2224      0.00000
     12      27.6516      0.00000
     13      27.6516      0.00000
     14      27.6945      0.00000
     15      31.5700      0.00000
     16      31.5700      0.00000

[...]

 spin component 2

[...]

 k-point   146 :      -0.4545    0.4545    0.4545
  band No.  band energies     occupation
      1     -10.6160      1.00000
      2       0.0560      1.00000
      3       2.8671      1.00000
      4       2.9746      1.00000
      5       7.5668      1.00000
      6       7.5972      1.00000
      7       7.9671      1.00000
      8       9.9506      0.00000
      9      10.2518      0.00000
     10      14.6646      0.00000
     11      19.0114      0.00000
     12      22.1448      0.00000
     13      23.0913      0.00000
     14      31.5902      0.00000
     15      33.4920      0.00000
     16      34.2734      0.00000

 soft charge-density along one line, spin component           1
         0         1         2         3         4         5         6         7         8         9
 total charge-density along one line

 soft charge-density along one line, spin component           2
         0         1         2         3         4         5         6         7         8         9
 total charge-density along one line

------------------------ aborting loop because EDIFF is reached ----------------------------------------

  FORCE on cell =-STRESS in cart. coord.  units (eV):
  Direction    XX          YY          ZZ          XY          YZ          ZX
  Alpha Z    68.37418    68.37418    68.37418
  Ewald    -440.38130  -440.38130  -440.71394     0.00000     0.00000    -0.00000
  Hartree   102.49849   102.49849   102.34657    -0.00000     0.00000     0.00000
  E(xc)     -83.86474   -83.86474   -83.86579     0.00000     0.00000     0.00000
  Local      -4.37942    -4.37942    -3.94712     0.00000    -0.00000    -0.00000
  n-local   -34.57422   -33.06343   -33.81990     0.37787     0.94309    -0.35496
  augment   183.19260   183.19260   183.21602     0.00000    -0.00000    -0.00000
  Kinetic   209.84495   206.90702   208.42272     1.32400    -1.82069    -1.77677
  Fock        0.00000     0.00000     0.00000     0.00000     0.00000     0.00000
  Total       -0.0030256     -0.0030256      0.0127488      0.0000000     -0.0000000      0.0000000
  in kB       -0.2793409     -0.2793409      1.1770374      0.0000000     -0.0000000      0.0000000

 VOLUME and BASIS-vectors are now :
  energy-cutoff  :      500.00
  volume of cell :       17.35
      direct lattice vectors                 reciprocal lattice vectors
     1.453737390  0.839315670  2.370424290     0.343941075  0.198574472  0.140621802
    -1.453737390  0.839315670  2.370424290    -0.343941075  0.198574472  0.140621802
     0.000000000 -1.678631350  2.370424290     0.000000000 -0.397148944  0.140621801

  length of vectors
     2.904602298  2.904602298  2.904602300     0.421309595  0.421309595  0.421309595

 FORCES acting on ions
    electron-ion (+dipol)            ewald-force                    non-local-force                 convergence-correction
   -.184E-14 0.800E-14 -.751E-13   0.442E-14 0.114E-15 -.106E-14   0.000E+00 0.000E+00 0.331E-23   -.901E-14 -.252E-14 0.337E-14
   -.142E-11 0.473E-13 -.595E-12   -.335E-14 -.247E-14 0.173E-14   0.000E+00 -.662E-23 0.000E+00   -.321E-14 -.746E-14 0.532E-14
   -.142E-11 0.553E-13 -.670E-12   0.107E-14 -.236E-14 0.662E-15   0.000E+00 -.662E-23 0.331E-23   -.122E-13 -.998E-14 0.869E-14

 POSITION                                       TOTAL-FORCE (eV/Angst)
      0.00000      0.00000      0.00000         0.000000      0.000000      0.000000
      0.00000     -0.00000      3.55564        -0.000000      0.000000     -0.000000
    total drift:                               -0.000000      0.000000     -0.000000

  FREE ENERGIE OF THE ION-ELECTRON SYSTEM (eV)
  free  energy   TOTEN  =       -12.3677067865 eV

  energy  without entropy=      -12.3657494205  energy(sigma->0) =      -12.36672810

volume of typ            1:    36.7 %

volume of typ            2:     9.4 %

total charge

# of ion       s       p       d       tot
    1        0.201   0.218   7.975   8.394
    2        1.259   2.772   0.007   4.039
tot           1.46    2.99    7.98   12.43

magnetization (x)

# of ion       s       p       d       tot
    1        0.007   0.007   0.876   0.890
    2        0.020   0.112   0.001   0.133
tot           0.03    0.12    0.88    1.02