 vasp.5.4.4.18Apr17-6-g9f103f2a35 (build May 12 2020 04:58:55) complex

 MD_VERSION_INFO: Compiled 2020-05-12T11:58:55-UTC in devlin.sd.materialsdesign.
 com:/home/medea2/data/build/wwolf/vasp-gpu5.4.4/13047/x86_64/src/src/build/std
 from svn 13047

 executed on                        Lin64 date 2023.03.16  12:31:20

 INCAR:
 POTCAR:    PAW_PBE Li_sv 10Sep2004
 POTCAR:    PAW_PBE Ni 02Aug2007
 POTCAR:    PAW_PBE O 08Apr2002

 POTCAR:    PAW_PBE Li_sv 10Sep2004

 POTCAR:    PAW_PBE Ni 02Aug2007

 POTCAR:    PAW_PBE O 08Apr2002

 Optimization of the real space projectors (new method)

 maximal supplied QI-value         = 22.11
 optimisation between [QCUT,QGAM] = [ 11.28, 22.77] = [ 35.61,145.23] Ry
 Optimized for a Real-space Cutoff    1.10 Angstroem

   l    n(q)    QCUT    max X(q) W(low)/X(q) W(high)/X(q)  e(spline)
   0      7    11.276    10.506    0.54E-04    0.58E-04    0.16E-07
   0      7    11.276     8.367    0.11E-03    0.14E-03    0.35E-07
   1      7    11.276     8.983    0.23E-03    0.43E-03    0.86E-07
 Optimization of the real space projectors (new method)

[...]

   l    n(q)    QCUT    max X(q) W(low)/X(q) W(high)/X(q)  e(spline)
   2      9    11.376    60.317    0.17E-03    0.16E-04    0.16E-06
   2      9    11.376    55.921    0.17E-03    0.16E-04    0.17E-06
   0     10    11.376    51.690    0.45E-04    0.60E-04    0.21E-06
   0     10    11.376    30.015    0.37E-04    0.55E-04    0.19E-06
   1     10    11.376    18.849    0.83E-04    0.11E-03    0.92E-07
   1     10    11.376    14.624    0.69E-04    0.92E-04    0.82E-07
 Optimization of the real space projectors (new method)

 maximal supplied QI-value         = 24.76
 optimisation between [QCUT,QGAM] = [ 11.39, 22.77] = [ 36.31,145.25] Ry
 Optimized for a Real-space Cutoff    1.10 Angstroem

   l    n(q)    QCUT    max X(q) W(low)/X(q) W(high)/X(q)  e(spline)
   0      7    11.387    20.381    0.22E-03    0.48E-03    0.18E-06
   0      7    11.387    15.268    0.22E-03    0.52E-03    0.19E-06
   1      7    11.387     5.964    0.22E-03    0.73E-03    0.24E-06
   1      7    11.387     5.382    0.19E-03    0.60E-03    0.21E-06

  PAW_PBE Li_sv 10Sep2004               :
  PAW_PBE Ni 02Aug2007                  :
  PAW_PBE O 08Apr2002                   :

 POSCAR: Li(NiO2)2_fd3m.cif
  positions in direct lattice
 exchange correlation table for  LEXCH =       14
   RHO(1)=    0.500       N(1)  =     2000
   RHO(2)=  100.500       N(2)  =     4000

 ion  position               nearest neighbor table
   1  0.375  0.375  0.375-  14 1.93  13 1.93  12 1.93  11 1.93
   2  0.625  0.625  0.625-  10 1.93   9 1.93   8 1.93   7 1.93
   3  0.000  0.000  0.000-   8 1.90   9 1.90  10 1.90  12 1.90  13 1.90  14 1.90   4 2.83   5 2.83
                             6 2.83   6 2.83   5 2.83   4 2.83
   4  0.500  0.000  0.000-   7 1.90  11 1.90  10 1.90   9 1.90  13 1.90  14 1.90   3 2.83   6 2.83
                             5 2.83   3 2.83   5 2.83   6 2.83
   5  0.000  0.500  0.000-   7 1.90  11 1.90  10 1.90   8 1.90  12 1.90  14 1.90   3 2.83   6 2.83
                             3 2.83   4 2.83   6 2.83   4 2.83
   6  0.000  0.000  0.500-   7 1.90  11 1.90   9 1.90   8 1.90  12 1.90  13 1.90   3 2.83   3 2.83
                             4 2.83   5 2.83   5 2.83   4 2.83
   7  0.764  0.764  0.764-   4 1.90   5 1.90   6 1.90   2 1.93
   8  0.208  0.764  0.764-   3 1.90   5 1.90   6 1.90   2 1.93
   9  0.764  0.208  0.764-   3 1.90   4 1.90   6 1.90   2 1.93
  10  0.764  0.764  0.208-   3 1.90   4 1.90   5 1.90   2 1.93
  11  0.236  0.236  0.236-   4 1.90   5 1.90   6 1.90   1 1.93
  12  0.792  0.236  0.236-   3 1.90   5 1.90   6 1.90   1 1.93
  13  0.236  0.792  0.236-   3 1.90   4 1.90   6 1.90   1 1.93
  14  0.236  0.236  0.792-   3 1.90   4 1.90   5 1.90   1 1.93

  LATTYP: Found a face centered cubic cell.
 ALAT       =     8.0099635000

  Lattice vectors:

 A1 = (   0.0000000000,   4.0049817500,   4.0049817500)
 A2 = (   4.0049817500,   0.0000000000,   4.0049817500)
 A3 = (   4.0049817500,   4.0049817500,   0.0000000000)

Analysis of symmetry for initial positions (statically):
 Subroutine PRICEL returns:
 Original cell was already a primitive cell.

 Routine SETGRP: Setting up the symmetry group for a
 face centered cubic supercell.

 Subroutine GETGRP returns: Found 48 space group operations
 (whereof 12 operations were pure point group operations)
 out of a pool of 48 trial point group operations.

The static configuration has the point symmetry D_3d.
 The point group associated with its full space group is O_h .

Analysis of symmetry for dynamics (positions and initial velocities):
 Subroutine PRICEL returns:
 Original cell was already a primitive cell.

[...]

The dynamic configuration has the point symmetry D_3d.
 The point group associated with its full space group is O_h .

Analysis of structural, dynamic, and magnetic symmetry:
 Subroutine PRICEL returns:
 Original cell was already a primitive cell.

 Routine SETGRP: Setting up the symmetry group for a
 face centered cubic supercell.

 Subroutine GETGRP returns: Found 48 space group operations
 (whereof 12 operations were pure point group operations)
 out of a pool of 48 trial point group operations.

The magnetic configuration has the point symmetry D_3d.
 The point group associated with its full space group is O_h .

 Subroutine INISYM returns: Found 48 space group operations
 (whereof 12 operations are pure point group operations),
 and found     1 'primitive' translations

 KPOINTS: Automatic mesh

Automatic generation of k-mesh.
Space group operators:
 irot       det(A)        alpha          n_x          n_y          n_z        tau_x        tau_y        tau_z
    1     1.000000     0.000000     1.000000     0.000000     0.000000     0.000000     0.000000     0.000000
    2    -1.000000     0.000000     1.000000     0.000000     0.000000     0.000000     0.000000     0.000000
    3     1.000000   120.000000    -0.577350    -0.577350    -0.577350     0.000000     0.000000     0.000000
    4    -1.000000   120.000000    -0.577350    -0.577350    -0.577350     0.000000     0.000000     0.000000
    5     1.000000   120.000000     0.577350     0.577350     0.577350     0.000000     0.000000     0.000000
    6    -1.000000   120.000000     0.577350     0.577350     0.577350     0.000000     0.000000     0.000000
    7     1.000000   180.000000     0.000000    -0.707107     0.707107     0.000000     0.000000     0.000000
    8    -1.000000   180.000000     0.000000    -0.707107     0.707107     0.000000     0.000000     0.000000
    9     1.000000   180.000000     0.707107    -0.707107     0.000000     0.000000     0.000000     0.000000
   10    -1.000000   180.000000     0.707107    -0.707107     0.000000     0.000000     0.000000     0.000000
   11     1.000000   180.000000     0.707107     0.000000    -0.707107     0.000000     0.000000     0.000000
   12    -1.000000   180.000000     0.707107     0.000000    -0.707107     0.000000     0.000000     0.000000
   13     1.000000    90.000000     0.000000     0.000000    -1.000000     0.500000     0.000000     0.000000
   14    -1.000000    90.000000     0.000000     0.000000    -1.000000     0.500000     0.000000     0.000000
   15     1.000000   180.000000     0.000000     0.707107     0.707107     0.500000     0.000000     0.000000
   16    -1.000000   180.000000     0.000000     0.707107     0.707107     0.500000     0.000000     0.000000
   17     1.000000    90.000000     0.000000     1.000000     0.000000     0.500000     0.000000     0.000000
   18    -1.000000    90.000000     0.000000     1.000000     0.000000     0.500000     0.000000     0.000000
   19     1.000000   180.000000     0.000000     0.000000     1.000000     0.000000     0.000000     0.500000
   20    -1.000000   180.000000     0.000000     0.000000     1.000000     0.000000     0.000000     0.500000
   21     1.000000   120.000000    -0.577350     0.577350     0.577350     0.000000     0.000000     0.500000
   22    -1.000000   120.000000    -0.577350     0.577350     0.577350     0.000000     0.000000     0.500000
   23     1.000000   120.000000    -0.577350     0.577350    -0.577350     0.000000     0.000000     0.500000
   24    -1.000000   120.000000    -0.577350     0.577350    -0.577350     0.000000     0.000000     0.500000
   25     1.000000    90.000000     0.000000     0.000000     1.000000     0.000000     0.500000     0.000000
   26    -1.000000    90.000000     0.000000     0.000000     1.000000     0.000000     0.500000     0.000000
   27     1.000000    90.000000    -1.000000     0.000000     0.000000     0.000000     0.500000     0.000000
   28    -1.000000    90.000000    -1.000000     0.000000     0.000000     0.000000     0.500000     0.000000
   29     1.000000   180.000000     0.707107     0.000000     0.707107     0.000000     0.500000     0.000000
   30    -1.000000   180.000000     0.707107     0.000000     0.707107     0.000000     0.500000     0.000000
   31     1.000000   120.000000     0.577350    -0.577350     0.577350     0.500000     0.000000     0.000000
   32    -1.000000   120.000000     0.577350    -0.577350     0.577350     0.500000     0.000000     0.000000
   33     1.000000   120.000000    -0.577350    -0.577350     0.577350     0.500000     0.000000     0.000000
   34    -1.000000   120.000000    -0.577350    -0.577350     0.577350     0.500000     0.000000     0.000000
   35     1.000000   180.000000     1.000000     0.000000     0.000000     0.500000     0.000000     0.000000
   36    -1.000000   180.000000     1.000000     0.000000     0.000000     0.500000     0.000000     0.000000
   37     1.000000    90.000000     0.000000    -1.000000     0.000000     0.000000     0.000000     0.500000
   38    -1.000000    90.000000     0.000000    -1.000000     0.000000     0.000000     0.000000     0.500000
   39     1.000000   180.000000     0.707107     0.707107     0.000000     0.000000     0.000000     0.500000
   40    -1.000000   180.000000     0.707107     0.707107     0.000000     0.000000     0.000000     0.500000
   41     1.000000    90.000000     1.000000     0.000000     0.000000     0.000000     0.000000     0.500000
   42    -1.000000    90.000000     1.000000     0.000000     0.000000     0.000000     0.000000     0.500000
   43     1.000000   120.000000     0.577350    -0.577350    -0.577350     0.000000     0.500000     0.000000
   44    -1.000000   120.000000     0.577350    -0.577350    -0.577350     0.000000     0.500000     0.000000
   45     1.000000   180.000000     0.000000     1.000000     0.000000     0.000000     0.500000     0.000000
   46    -1.000000   180.000000     0.000000     1.000000     0.000000     0.000000     0.500000     0.000000
   47     1.000000   120.000000     0.577350     0.577350    -0.577350     0.000000     0.500000     0.000000
   48    -1.000000   120.000000     0.577350     0.577350    -0.577350     0.000000     0.500000     0.000000

 Subroutine IBZKPT returns following result:

 Found     16 irreducible k-points:

 Following reciprocal coordinates:
            Coordinates               Weight
  0.000000  0.000000  0.000000      1.000000
[...]
 k-point 15 :  -0.3333 0.3333 0.1667  plane waves:    3254
 k-point 16 :  -0.3333 0.5000 0.1667  plane waves:    3256

 maximum and minimum number of plane-waves per node :      3287     3236

 maximum number of plane-waves:      3287
 maximum index in each direction:
   IXMAX=   10   IYMAX=   10   IZMAX=   10
   IXMIN=  -10   IYMIN=  -10   IZMIN=  -10

 The following grids will avoid any aliasing or wrap around errors in the Hartre
 e energy
  - symmetry arguments have not been applied
  - exchange correlation energies might require even more grid points
  - we recommend to set PREC=Normal or Accurate and rely on VASP defaults
 NGX is ok and might be reduce to    42
 NGY is ok and might be reduce to    42
 NGZ is ok and might be reduce to    42

 serial   3D FFT for wavefunctions
 parallel 3D FFT for charge:
    minimum data exchange during FFTs selected (reduces bandwidth)

 Broyden mixing: mesh for mixing (old mesh)
   NGX = 21   NGY = 21   NGZ = 21
  (NGX  = 84   NGY  = 84   NGZ  = 84)
  gives a total of   9261 points

 initial charge density was supplied:
 charge density of overlapping atoms calculated
 number of electron      94.0000000 magnetization      10.0000000
 keeping initial charge density in first step

 Maximum index for non-local projection operator         7635
 Maximum index for augmentation-charges         1618 (set IRDMAX)

 First call to EWALD:  gamma=   0.351
 Maximum number of real-space cells 3x 3x 3
 Maximum number of reciprocal cells 3x 3x 3

--------------------------------------- Iteration      1(   1)  ---------------------------------------

 eigenvalue-minimisations  :  4096
 total energy-change (2. order) : 0.9312106E+03  (-0.4418961E+04)
 number of electron      94.0000000 magnetization      10.0000000
 augmentation part       94.0000000 magnetization      10.0000000

 Free energy of the ion-electron system (eV)
  alpha Z        PSCENC =       296.03300844
  Ewald energy   TEWEN  =     -5723.82430637
  -Hartree energ DENC   =     -2646.93846846
  -exchange      EXHF   =         0.00000000
  -V(xc)+E(xc)   XCENC  =       382.17542186
  PAW double counting   =      6775.46300624    -7084.83456608
  entropy T*S    EENTRO =        -0.00522649
  eigenvalues    EBANDS =       777.68892331
  atomic energy  EATOM  =      8155.45276952
  Solvation  Ediel_sol  =         0.00000000
  free energy    TOTEN  =       931.21056196 eV

  energy without entropy =      931.21578845  energy(sigma->0) =      931.21317520

[...]

 eigenvalue-minimisations  :  4448
 total energy-change (2. order) :-0.9307706E+03  (-0.8350947E+03)
 number of electron      94.0000000 magnetization      10.0000000
 augmentation part       94.0000000 magnetization      10.0000000

[...]

 Broyden mixing:
  rms(total) = 0.59192E+01    rms(broyden)= 0.59188E+01
  rms(prec ) = 0.10180E+02
  weight for this iteration     100.00

[...]

 eigenvalues of (default mixing * dielectric matrix)
  average eigenvalue GAMMA=   0.2667
  0.2667

[...]

 eigenvalue-minimisations  :  5776
 total energy-change (2. order) : 0.1056927E-02  (-0.1137812E-01)
 number of electron      93.9999947 magnetization       1.7148166
 augmentation part       31.0646019 magnetization       1.1474707

[...]

 Broyden mixing:
  rms(total) = 0.14985E-02    rms(broyden)= 0.14985E-02
  rms(prec ) = 0.17978E-02
  weight for this iteration     100.00

 eigenvalues of (default mixing * dielectric matrix)
  average eigenvalue GAMMA=   1.1295
  2.5516  2.2403  1.2973  1.2973  0.9105  0.9105  0.4531  0.8218  0.6819  0.6298
  0.6298

[...]

--------------------------------------- Iteration      1(  17)  ---------------------------------------

 eigenvalue-minimisations  :  3584
 total energy-change (2. order) :-0.4917956E-05  (-0.4818352E-06)
 number of electron      93.9999947 magnetization       1.9280254
 augmentation part       31.0439345 magnetization       1.3346975

 Free energy of the ion-electron system (eV)
  alpha Z        PSCENC =       296.03300844
  Ewald energy   TEWEN  =     -5723.82430637
  -Hartree energ DENC   =     -2573.12833149
  -exchange      EXHF   =         0.00000000
  -V(xc)+E(xc)   XCENC  =       379.43947088
  PAW double counting   =      8932.72970546    -9256.19143928
  entropy T*S    EENTRO =        -0.01323973
  eigenvalues    EBANDS =      -296.62788367
  atomic energy  EATOM  =      8155.45276952
  Solvation  Ediel_sol  =         0.00000000
  free energy    TOTEN  =       -86.13024623 eV

  energy without entropy =      -86.11700650  energy(sigma->0) =      -86.12362636

 average (electrostatic) potential at core
  the test charge radii are     0.7079  0.9791  0.7215
  (the norm of the test charge is              1.0000)
       1 -57.4557       2 -57.4557       3 -87.6046       4 -87.6046       5 -87.6046
       6 -87.6046       7 -70.8953       8 -70.8953       9 -70.8953      10 -70.8953
      11 -70.8953      12 -70.8953      13 -70.8953      14 -70.8953

 E-fermi :   5.0426     XC(G=0): -11.5043     alpha+bet :-12.5677

 spin component 1

 k-point     1 :       0.0000    0.0000    0.0000
  band No.  band energies     occupation
      1     -38.1565      1.00000
      2     -38.1531      1.00000
      3     -15.4806      1.00000
      4     -13.9749      1.00000
      5     -13.5519      1.00000
      6     -13.5519      1.00000
      7     -13.5519      1.00000
      8     -13.4676      1.00000
      9     -13.4676      1.00000
     10     -13.4676      1.00000
     11      -2.7791      1.00000
     12      -2.6244      1.00000
     13      -2.6244      1.00000
     14      -2.6244      1.00000
     15      -1.4078      1.00000
     16      -1.4078      1.00000
     17      -1.2498      1.00000
     18      -1.2498      1.00000
     19      -0.8590      1.00000
     20      -0.7106      1.00000
     21      -0.7106      1.00000
     22      -0.7106      1.00000
     23       0.2339      1.00000
     24       0.2339      1.00000
     25       0.2339      1.00000
     26       1.1331      1.00000
     27       1.1331      1.00000
     28       1.1331      1.00000
     29       1.5923      1.00000
     30       1.5923      1.00000
     31       1.5923      1.00000
     32       1.7256      1.00000
     33       1.7256      1.00000
     34       2.3433      1.00000
     35       2.3433      1.00000
     36       2.3433      1.00000
     37       2.5940      1.00000
     38       2.5940      1.00000
     39       2.5940      1.00000
     40       2.7920      1.00000
     41       2.7920      1.00000
     42       2.7920      1.00000
     43       3.0246      1.00000
     44       3.0246      1.00000
     45       3.0246      1.00000
     46       3.3062      1.00000
     47       5.3376      0.00000
     48       5.3376      0.00000
     49       5.3376      0.00000
     50       5.8352      0.00000
     51       5.8352      0.00000
     52       5.8352      0.00000
     53       5.9178      0.00000
     54       5.9178      0.00000
     55      10.4294      0.00000
     56      13.3510      0.00000
     57      13.3510      0.00000
     58      13.3510      0.00000
     59      13.8929      0.00000
     60      13.8929      0.00000
     61      13.8929      0.00000
     62      16.9567      0.00000
     63      17.8645      0.00000
     64      17.8645      0.00000

[...]

 spin component 2

[...]

 k-point    16 :      -0.3333    0.5000    0.1667
  band No.  band energies     occupation
      1     -38.1451      1.00000
      2     -38.1451      1.00000
      3     -14.6611      1.00000
      4     -14.6611      1.00000
      5     -13.6066      1.00000
      6     -13.6066      1.00000
      7     -13.3631      1.00000
      8     -13.3631      1.00000
      9     -13.2841      1.00000
     10     -13.2841      1.00000
     11      -1.7361      1.00000
     12      -1.7361      1.00000
     13      -1.4365      1.00000
     14      -1.4365      1.00000
     15      -1.3486      1.00000
     16      -1.3486      1.00000
     17      -1.0681      1.00000
     18      -1.0681      1.00000
     19      -0.8041      1.00000
     20      -0.8041      1.00000
     21      -0.3839      1.00000
     22      -0.3839      1.00000
     23      -0.2407      1.00000
     24      -0.2407      1.00000
     25       0.0770      1.00000
     26       0.0770      1.00000
     27       0.7255      1.00000
     28       0.7255      1.00000
     29       1.3431      1.00000
     30       1.3431      1.00000
     31       1.5965      1.00000
     32       1.5965      1.00000
     33       1.9239      1.00000
     34       1.9239      1.00000
     35       2.9486      1.00000
     36       2.9486      1.00000
     37       3.0385      1.00000
     38       3.0385      1.00000
     39       3.1451      1.00000
     40       3.1451      1.00000
     41       3.4188      1.00000
     42       3.4188      1.00000
     43       3.6154      1.00000
     44       3.6154      1.00000
     45       3.7744      1.00000
     46       3.7744      1.00000
     47       5.1692      0.00017
     48       5.1692      0.00017
     49       5.3487      0.00000
     50       5.3487      0.00000
     51       5.6272      0.00000
     52       5.6272      0.00000
     53       5.9749      0.00000
     54       5.9749      0.00000
     55      13.4500      0.00000
     56      13.4501      0.00000
     57      13.8774      0.00000
     58      13.8774      0.00000
     59      15.8625      0.00000
     60      15.8626      0.00000
     61      17.2017      0.00000
     62      17.2017      0.00000
     63      17.8964      0.00000
     64      17.8966      0.00000

 soft charge-density along one line, spin component           1
         0         1         2         3         4         5         6         7         8         9
 total charge-density along one line

 soft charge-density along one line, spin component           2
         0         1         2         3         4         5         6         7         8         9
 total charge-density along one line

------------------------ aborting loop because EDIFF is reached ----------------------------------------

  FORCE on cell =-STRESS in cart. coord.  units (eV):
  Direction    XX          YY          ZZ          XY          YZ          ZX
  Alpha Z   296.03301   296.03301   296.03301
  Ewald   -1907.94585 -1907.94585 -1907.94585     0.00000     0.00000     0.00000
  Hartree   857.69790   857.69790   857.69790     0.00000     0.00000     0.00000
  E(xc)    -477.87726  -477.87726  -477.87726     0.00001     0.00001     0.00001
  Local    -754.38901  -754.38901  -754.38901     0.00024     0.00024     0.00024
  n-local  -236.87396  -236.66018  -236.69756     0.41844    -0.66321     0.55437
  augment   787.04056   787.04056   787.04056    -0.00008    -0.00008    -0.00008
  Kinetic  1433.05804  1427.28180  1447.85386     0.86739    -0.45573     0.16707
  Fock        0.00000     0.00000     0.00000     0.00000     0.00000     0.00000
  Total       -0.1199808     -0.1199808     -0.1199808      0.0000000     -0.0000000      0.0000000
  in kB       -1.4962039     -1.4962039     -1.4962039      0.0000000     -0.0000000      0.0000000

 VOLUME and BASIS-vectors are now :
  energy-cutoff  :      500.00
  volume of cell :      128.48
      direct lattice vectors                 reciprocal lattice vectors
     0.000000000  4.004981750  4.004981750    -0.124844514  0.124844514  0.124844514
     4.004981750  0.000000000  4.004981750     0.124844514 -0.124844514  0.124844514
     4.004981750  4.004981750  0.000000000     0.124844514  0.124844514 -0.124844514

  length of vectors
     5.663899508  5.663899508  5.663899508     0.216237041  0.216237041  0.216237041

 FORCES acting on ions
    electron-ion (+dipol)            ewald-force                    non-local-force                 convergence-correction
   -.267E-06 -.267E-06 -.191E-06   0.249E-13 0.924E-13 0.110E-12   0.244E-18 0.623E-18 0.400E-18   -.654E-08 -.654E-08 -.654E-08
   0.267E-06 0.267E-06 0.191E-06   -.715E-13 -.280E-13 -.488E-14   -.244E-18 -.623E-18 -.379E-18   0.654E-08 0.654E-08 0.654E-08
   -.866E-13 -.478E-13 -.695E-13   0.568E-13 0.231E-13 -.568E-13   -.154E-22 -.154E-22 0.132E-22   -.481E-13 -.344E-13 -.660E-13
   -.142E-10 -.135E-10 0.615E-12   -.117E-12 0.853E-13 0.302E-13   0.265E-22 0.397E-22 -.662E-23   -.768E-13 0.729E-13 -.295E-13
   0.648E-12 0.526E-13 0.663E-12   0.568E-13 -.444E-13 -.657E-13   0.165E-22 0.298E-22 0.256E-22   0.234E-13 -.821E-13 0.338E-13
   0.678E-12 0.737E-12 0.221E-13   0.258E-13 -.249E-13 -.338E-13   0.199E-22 0.000E+00 0.132E-22   -.229E-13 0.406E-13 -.106E-12
   0.175E+03 0.175E+03 0.175E+03   -.184E+03 -.184E+03 -.184E+03   0.941E+01 0.941E+01 0.941E+01   0.446E-04 0.446E-04 0.446E-04
   0.175E+03 -.175E+03 -.175E+03   -.184E+03 0.184E+03 0.184E+03   0.941E+01 -.941E+01 -.941E+01   0.446E-04 -.446E-04 -.446E-04
   -.175E+03 0.175E+03 -.175E+03   0.184E+03 -.184E+03 0.184E+03   -.941E+01 0.941E+01 -.941E+01   -.446E-04 0.446E-04 -.446E-04
   -.175E+03 -.175E+03 0.175E+03   0.184E+03 0.184E+03 -.184E+03   -.941E+01 -.941E+01 0.941E+01   -.446E-04 -.446E-04 0.446E-04
   -.175E+03 -.175E+03 -.175E+03   0.184E+03 0.184E+03 0.184E+03   -.941E+01 -.941E+01 -.941E+01   -.446E-04 -.446E-04 -.446E-04
   -.175E+03 0.175E+03 0.175E+03   0.184E+03 -.184E+03 -.184E+03   -.941E+01 0.941E+01 0.941E+01   -.446E-04 0.446E-04 0.446E-04
   0.175E+03 -.175E+03 0.175E+03   -.184E+03 0.184E+03 -.184E+03   0.941E+01 -.941E+01 0.941E+01   0.446E-04 -.446E-04 0.446E-04
   0.175E+03 0.175E+03 -.175E+03   -.184E+03 -.184E+03 0.184E+03   0.941E+01 0.941E+01 -.941E+01   0.446E-04 0.446E-04 -.446E-04
   -.205E-10 -.205E-10 0.529E-11   0.000E+00 0.284E-13 -.284E-13   0.355E-14 0.178E-14 -.711E-14   -.138E-12 0.792E-15 -.205E-12

 POSITION                                       TOTAL-FORCE (eV/Angst)
      3.00374      3.00374      3.00374         0.000000      0.000000      0.000000
      5.00623      5.00623      5.00623         0.000000      0.000000      0.000000
      0.00000      0.00000      0.00000         0.000000      0.000000      0.000000
      0.00000      2.00249      2.00249         0.000000      0.000000      0.000000
      2.00249      0.00000      2.00249         0.000000      0.000000      0.000000
      2.00249      2.00249      0.00000         0.000000      0.000000      0.000000
      6.12038      6.12038      6.12038         0.002685      0.002685      0.002685
      6.12038      3.89208      3.89208         0.002685     -0.002685     -0.002685
      3.89208      6.12038      3.89208        -0.002685      0.002685     -0.002685
      3.89208      3.89208      6.12038        -0.002685     -0.002685      0.002685
      1.88959      1.88959      1.88959        -0.002685     -0.002685     -0.002685
      1.88959      4.11789      4.11789        -0.002685      0.002685      0.002685
      4.11789      1.88959      4.11789         0.002685     -0.002685      0.002685
      4.11789      4.11789      1.88959         0.002685      0.002685     -0.002685
    total drift:                               -0.000000     -0.000000      0.000000

  FREE ENERGIE OF THE ION-ELECTRON SYSTEM (eV)
  free  energy   TOTEN  =       -86.1302462284 eV

  energy  without entropy=      -86.1170064993  energy(sigma->0) =      -86.12362636

volume of typ            1:    12.1 %

[...]

volume of typ            3:    10.1 %

total charge

# of ion       s       p       d       tot
    1        2.110   0.328   0.121   2.559
    2        2.110   0.328   0.121   2.559
    3        0.283   0.378   7.827   8.487
    4        0.284   0.378   7.850   8.512
    5        0.283   0.377   7.811   8.471
    6        0.282   0.378   7.822   8.482
    7        1.267   2.782   0.006   4.056
    8        1.267   2.736   0.007   4.010
    9        1.267   2.786   0.007   4.059
   10        1.266   2.785   0.006   4.058
   11        1.267   2.782   0.006   4.056
   12        1.267   2.736   0.007   4.010
   13        1.267   2.786   0.007   4.059
   14        1.266   2.785   0.006   4.058
tot          15.49   24.35   31.60   71.44

magnetization (x)

# of ion       s       p       d       tot
    1        0.004   0.008   0.001   0.013
    2        0.004   0.008   0.001   0.013
    3       -0.001  -0.000   0.338   0.337
    4       -0.000   0.000   0.368   0.368
    5       -0.001  -0.000   0.319   0.318
    6       -0.001  -0.000   0.335   0.334
    7        0.007   0.044   0.000   0.051
    8        0.006   0.031   0.000   0.037
    9        0.007   0.048   0.000   0.055
   10        0.007   0.041   0.000   0.048
   11        0.007   0.044   0.000   0.051
   12        0.006   0.031   0.000   0.037
   13        0.007   0.048   0.000   0.055
   14        0.007   0.041   0.000   0.048
tot           0.06    0.34    1.36    1.77