 vasp.5.4.4.18Apr17-6-g9f103f2a35 (build May 12 2020 04:58:55) complex

 MD_VERSION_INFO: Compiled 2020-05-12T11:58:55-UTC in devlin.sd.materialsdesign.
 com:/home/medea2/data/build/wwolf/vasp-gpu5.4.4/13047/x86_64/src/src/build/std
 from svn 13047

 executed on                        Lin64 date 2023.03.18  07:07:32

 INCAR:
 POTCAR:    PAW_PBE Li_sv 10Sep2004
 POTCAR:    PAW_PBE Ni 02Aug2007
 POTCAR:    PAW_PBE O 08Apr2002

 POTCAR:    PAW_PBE Li_sv 10Sep2004

 POTCAR:    PAW_PBE Ni 02Aug2007

 POTCAR:    PAW_PBE O 08Apr2002

 Optimization of the real space projectors (new method)

 maximal supplied QI-value         = 22.11
 optimisation between [QCUT,QGAM] = [ 11.28, 22.77] = [ 35.61,145.23] Ry
 Optimized for a Real-space Cutoff    1.10 Angstroem

   l    n(q)    QCUT    max X(q) W(low)/X(q) W(high)/X(q)  e(spline)
   0      7    11.276    10.506    0.54E-04    0.58E-04    0.16E-07
   0      7    11.276     8.367    0.11E-03    0.14E-03    0.35E-07
   1      7    11.276     8.983    0.23E-03    0.43E-03    0.86E-07
 Optimization of the real space projectors (new method)

[...]

   l    n(q)    QCUT    max X(q) W(low)/X(q) W(high)/X(q)  e(spline)
   2      9    11.376    60.317    0.17E-03    0.16E-04    0.16E-06
   2      9    11.376    55.921    0.17E-03    0.16E-04    0.17E-06
   0     10    11.376    51.690    0.45E-04    0.60E-04    0.21E-06
   0     10    11.376    30.015    0.37E-04    0.55E-04    0.19E-06
   1     10    11.376    18.849    0.83E-04    0.11E-03    0.92E-07
   1     10    11.376    14.624    0.69E-04    0.92E-04    0.82E-07
 Optimization of the real space projectors (new method)

 maximal supplied QI-value         = 24.76
 optimisation between [QCUT,QGAM] = [ 11.39, 22.77] = [ 36.31,145.25] Ry
 Optimized for a Real-space Cutoff    1.10 Angstroem

   l    n(q)    QCUT    max X(q) W(low)/X(q) W(high)/X(q)  e(spline)
   0      7    11.387    20.381    0.22E-03    0.48E-03    0.18E-06
   0      7    11.387    15.268    0.22E-03    0.52E-03    0.19E-06
   1      7    11.387     5.964    0.22E-03    0.73E-03    0.24E-06
   1      7    11.387     5.382    0.19E-03    0.60E-03    0.21E-06

  PAW_PBE Li_sv 10Sep2004               :
  PAW_PBE Ni 02Aug2007                  :
  PAW_PBE O 08Apr2002                   :

 POSCAR: ce425729_1
  positions in direct lattice
 exchange correlation table for  LEXCH =       14
   RHO(1)=    0.500       N(1)  =     2000
   RHO(2)=  100.500       N(2)  =     4000

 ion  position               nearest neighbor table
   1  0.000  0.000  0.500-  37 2.11  38 2.11  39 2.13  40 2.13  41 2.13  42 2.13
   2  0.889  0.000  0.833-  81 2.14  46 2.14  43 2.14  33 2.15  66 2.15  63 2.15
   3  0.111  0.000  0.167-  82 2.14  45 2.14  44 2.14  34 2.15  65 2.15  64 2.15
   4  0.775  0.000  0.167-  35 2.05  84 2.13  74 2.14  71 2.14  67 2.16  70 2.16
   5  0.225  0.000  0.833-  36 2.05  83 2.13  72 2.14  73 2.14  69 2.16  68 2.16
   6  0.000  0.000  0.000-  44 1.86  46 1.86  45 1.86  43 1.86  35 2.03  36 2.03  14 2.78  13 2.78
                            24 2.81  21 2.81  22 2.81  23 2.81
   7  0.889  0.000  0.333-  70 1.86  67 1.86  39 1.87  42 1.87  79 1.87  34 1.91  18 2.79  15 2.79
                            11 2.80  10 2.80  28 2.80  25 2.80
   8  0.111  0.000  0.667-  68 1.86  69 1.86  40 1.87  41 1.87  80 1.87  33 1.91  17 2.79  16 2.79
                            12 2.80   9 2.80  27 2.80  26 2.80
   9  0.112  0.664  0.665-  55 1.86  47 1.86  40 1.86  66 1.86  33 1.88  37 1.88  19 2.78  26 2.79
                            16 2.79   8 2.80  29 2.81  12 2.81
  10  0.223  0.664  0.335-  56 1.86  48 1.86  39 1.86  65 1.86  34 1.88  38 1.88  20 2.78  25 2.79
                            15 2.79   7 2.80  30 2.81  11 2.81
  11  0.888  0.336  0.335-  57 1.86  49 1.86  42 1.86  64 1.86  34 1.88  38 1.88  20 2.78  28 2.79
                            18 2.79   7 2.80  30 2.81  10 2.81
  12  0.777  0.336  0.665-  58 1.86  50 1.86  41 1.86  63 1.86  33 1.88  37 1.88  19 2.78  27 2.79
                            17 2.79   8 2.80  29 2.81   9 2.81
  13  0.332  0.336  0.000-  61 1.87  62 1.87  52 1.87  51 1.87  43 1.90  44 1.90   6 2.78  31 2.79
                            32 2.79  24 2.80  23 2.80  14 2.82
  14  0.668  0.664  0.000-  61 1.87  62 1.87  54 1.87  53 1.87  45 1.90  46 1.90   6 2.78  32 2.79
                            31 2.79  22 2.80  21 2.80  13 2.82
  15  0.222  0.334  0.335-  85 1.86  59 1.87  76 1.87  48 1.87  39 1.89  70 1.90   7 2.79  10 2.79
                            28 2.79  30 2.79  18 2.80  20 2.80
  16  0.444  0.334  0.665-  86 1.86  60 1.87  75 1.87  47 1.87  40 1.89  69 1.90   8 2.79   9 2.79
                            27 2.79  29 2.79  17 2.80  19 2.80
  17  0.778  0.666  0.665-  86 1.86  60 1.87  78 1.87  50 1.87  41 1.89  68 1.90   8 2.79  12 2.79
                            26 2.79  29 2.79  16 2.80  19 2.80
  18  0.556  0.666  0.335-  85 1.86  59 1.87  77 1.87  49 1.87  42 1.89  67 1.90   7 2.79  11 2.79
                            25 2.79  30 2.79  15 2.80  20 2.80
  19  0.444  0.000  0.666-  47 1.86  50 1.86  60 1.86  58 1.87  55 1.87  83 1.90   9 2.78  12 2.78
                            26 2.80  27 2.80  17 2.80  16 2.80
  20  0.556  0.000  0.334-  48 1.86  49 1.86  59 1.86  57 1.87  56 1.87  84 1.90  10 2.78  11 2.78
                            28 2.80  25 2.80  15 2.80  18 2.80
  21  0.665  0.334  0.000-  35 1.85  46 1.85  71 1.87  54 1.87  81 1.88  73 1.88  23 2.77  31 2.79
                            24 2.80  14 2.80  32 2.80   6 2.81
  22  0.001  0.334  1.000-  36 1.85  45 1.85  72 1.87  53 1.87  82 1.88  74 1.88  24 2.77  32 2.79
                            23 2.80  14 2.80  31 2.80   6 2.81
  23  0.335  0.666  1.000-  36 1.85  44 1.85  73 1.87  52 1.87  82 1.88  71 1.88  21 2.77  32 2.79
                            22 2.80  13 2.80  31 2.80   6 2.81
  24  0.999  0.666  0.000-  35 1.85  43 1.85  74 1.87  51 1.87  81 1.88  72 1.88  22 2.77  31 2.79
                            21 2.80  13 2.80  32 2.80   6 2.81
  25  0.555  0.335  0.336-  77 1.86  56 1.87  79 1.87  67 1.87  84 1.87  65 1.89  30 2.79  10 2.79
                            18 2.79  20 2.80   7 2.80  28 2.81
  26  0.110  0.335  0.664-  78 1.86  55 1.87  80 1.87  68 1.87  83 1.87  66 1.89  29 2.79   9 2.79
                            17 2.79  19 2.80   8 2.80  27 2.81
  27  0.445  0.665  0.664-  75 1.86  58 1.87  80 1.87  69 1.87  83 1.87  63 1.89  29 2.79  12 2.79
                            16 2.79  19 2.80   8 2.80  26 2.81
  28  0.890  0.665  0.336-  76 1.86  57 1.87  79 1.87  70 1.87  84 1.87  64 1.89  30 2.79  11 2.79
                            15 2.79  20 2.80   7 2.80  25 2.81
  29  0.777  0.000  0.662-  75 1.86  78 1.86  86 1.87  66 1.87  63 1.87  37 1.90  27 2.79  26 2.79
                            16 2.79  17 2.79  12 2.81   9 2.81
  30  0.223  0.000  0.338-  77 1.86  76 1.86  85 1.87  65 1.87  64 1.87  38 1.90  28 2.79  25 2.79
                            18 2.79  15 2.79  11 2.81  10 2.81
  31  0.334  0.000  0.003-  61 1.86  54 1.86  51 1.86  73 1.87  72 1.87  82 1.90  24 2.79  21 2.79
                            14 2.79  13 2.79  23 2.80  22 2.80
  32  0.666  0.000  0.997-  62 1.86  53 1.86  52 1.86  71 1.87  74 1.87  81 1.90  23 2.79  22 2.79
                            14 2.79  13 2.79  21 2.80  24 2.80
  33  0.998  0.000  0.733-  12 1.88   9 1.88   8 1.91   2 2.15
  34  0.002  0.000  0.267-  10 1.88  11 1.88   7 1.91   3 2.15
  35  0.879  0.000  0.070-  24 1.85  21 1.85   6 2.03   4 2.05
  36  0.121  0.000  0.930-  22 1.85  23 1.85   6 2.03   5 2.05
  37  0.891  0.000  0.597-   9 1.88  12 1.88  29 1.90   1 2.11
  38  0.109  0.000  0.403-  11 1.88  10 1.88  30 1.90   1 2.11
  39  0.109  0.673  0.401-  10 1.86   7 1.87  15 1.89   1 2.13
  40  0.218  0.673  0.599-   9 1.86   8 1.87  16 1.89   1 2.13
  41  0.891  0.327  0.599-  12 1.86   8 1.87  17 1.89   1 2.13
  42  0.782  0.327  0.401-  11 1.86   7 1.87  18 1.89   1 2.13
  43  0.104  0.675  0.935-  24 1.85   6 1.86  13 1.90   2 2.14
  44  0.221  0.675  0.065-  23 1.85   6 1.86  13 1.90   3 2.14
  45  0.896  0.325  0.065-  22 1.85   6 1.86  14 1.90   3 2.14
  46  0.779  0.325  0.935-  21 1.85   6 1.86  14 1.90   2 2.14
  47  0.334  0.334  0.731-   9 1.86  19 1.86  16 1.87
  48  0.333  0.334  0.269-  10 1.86  20 1.86  15 1.87
  49  0.666  0.666  0.269-  11 1.86  20 1.86  18 1.87
  50  0.667  0.666  0.731-  12 1.86  19 1.86  17 1.87
  51  0.221  0.337  0.067-  31 1.86  24 1.87  13 1.87
  52  0.442  0.337  0.933-  32 1.86  23 1.87  13 1.87
  53  0.779  0.663  0.933-  32 1.86  22 1.87  14 1.87
  54  0.558  0.663  0.067-  31 1.86  21 1.87  14 1.87
  55  0.223  0.333  0.600-   9 1.86  26 1.87  19 1.87
  56  0.445  0.333  0.400-  10 1.86  25 1.87  20 1.87
  57  0.777  0.667  0.400-  11 1.86  28 1.87  20 1.87
  58  0.555  0.667  0.600-  12 1.86  27 1.87  19 1.87
  59  0.445  0.000  0.399-  20 1.86  15 1.87  18 1.87
  60  0.555  0.000  0.601-  19 1.86  17 1.87  16 1.87
  61  0.444  0.000  0.937-  31 1.86  14 1.87  13 1.87
  62  0.556  0.000  0.063-  32 1.86  14 1.87  13 1.87
  63  0.671  0.326  0.731-  12 1.86  29 1.87  27 1.89   2 2.15
  64  0.003  0.326  0.269-  11 1.86  30 1.87  28 1.89   3 2.15
  65  0.329  0.674  0.269-  10 1.86  30 1.87  25 1.89   3 2.15
  66  0.997  0.674  0.731-   9 1.86  29 1.87  26 1.89   2 2.15
  67  0.667  0.329  0.268-   7 1.86  25 1.87  18 1.90   4 2.16
  68  0.004  0.329  0.732-   8 1.86  26 1.87  17 1.90   5 2.16
  69  0.333  0.671  0.732-   8 1.86  27 1.87  16 1.90   5 2.16
  70  0.996  0.671  0.268-   7 1.86  28 1.87  15 1.90   4 2.16
  71  0.558  0.326  0.066-  21 1.87  32 1.87  23 1.88   4 2.14
  72  0.115  0.326  0.934-  22 1.87  31 1.87  24 1.88   5 2.14
  73  0.442  0.674  0.934-  23 1.87  31 1.87  21 1.88   5 2.14
  74  0.885  0.674  0.066-  24 1.87  32 1.87  22 1.88   4 2.14
  75  0.554  0.334  0.599-  29 1.86  27 1.86  16 1.87
  76  0.111  0.334  0.401-  30 1.86  28 1.86  15 1.87
  77  0.446  0.666  0.401-  30 1.86  25 1.86  18 1.87
  78  0.889  0.666  0.599-  29 1.86  26 1.86  17 1.87
  79  0.778  0.000  0.400-  25 1.87  28 1.87   7 1.87
  80  0.222  0.000  0.600-  27 1.87  26 1.87   8 1.87
  81  0.779  0.000  0.932-  21 1.88  24 1.88  32 1.90   2 2.14
  82  0.221  0.000  0.068-  23 1.88  22 1.88  31 1.90   3 2.14
  83  0.331  0.000  0.732-  26 1.87  27 1.87  19 1.90   5 2.13
  84  0.669  0.000  0.268-  28 1.87  25 1.87  20 1.90   4 2.13
  85  0.332  0.000  0.271-  18 1.86  15 1.86  30 1.87
  86  0.668  0.000  0.729-  16 1.86  17 1.86  29 1.87

  LATTYP: Found a base centered monoclinic cell.
 ALAT       =    14.5458574800
 B/A-ratio  =     0.5759784606
 C/A-ratio  =     1.4027517583
 COS(beta)  =    -0.6154335153

  Lattice vectors:

 A1 = (   7.2729287400,   4.1890503000,   0.0000000000)
 A2 = (   7.2729287400,  -4.1890503000,   0.0000000000)
 A3 = ( -14.4914832600,   0.0000000000, -14.3641706600)

Analysis of symmetry for initial positions (statically):
 Subroutine PRICEL returns:
 Original cell was already a primitive cell.

 Routine SETGRP: Setting up the symmetry group for a
 base centered monoclinic supercell.

 Subroutine GETGRP returns: Found  4 space group operations
 (whereof  4 operations were pure point group operations)
[...]
   -.181E+02 0.919E+01 -.394E+03   0.190E+02 -.862E+01 0.420E+03   -.707E+00 -.558E+00 -.268E+02   -.101E+00 -.119E-01 0.119E+00
   0.181E+02 0.919E+01 0.394E+03   -.190E+02 -.862E+01 -.420E+03   0.707E+00 -.558E+00 0.268E+02   0.101E+00 -.119E-01 -.119E+00
   0.181E+02 -.919E+01 0.394E+03   -.190E+02 0.862E+01 -.420E+03   0.707E+00 0.558E+00 0.268E+02   0.101E+00 0.119E-01 -.119E+00
   -.181E+02 -.919E+01 -.394E+03   0.190E+02 0.862E+01 0.420E+03   -.707E+00 0.558E+00 -.268E+02   -.101E+00 0.119E-01 0.119E+00
   0.136E+01 0.170E+02 0.383E+03   -.128E+01 -.176E+02 -.410E+03   -.576E-01 0.635E+00 0.271E+02   -.271E-01 -.999E-01 0.252E-01
   -.136E+01 0.170E+02 -.383E+03   0.128E+01 -.176E+02 0.410E+03   0.576E-01 0.635E+00 -.271E+02   0.271E-01 -.999E-01 -.252E-01
   -.136E+01 -.170E+02 -.383E+03   0.128E+01 0.176E+02 0.410E+03   0.576E-01 -.635E+00 -.271E+02   0.271E-01 0.999E-01 -.252E-01
   0.136E+01 -.170E+02 0.383E+03   -.128E+01 0.176E+02 -.410E+03   -.576E-01 -.635E+00 0.271E+02   -.271E-01 0.999E-01 0.252E-01
   -.905E+00 0.925E-05 -.380E+03   0.102E+01 -.990E-11 0.407E+03   -.113E+00 0.000E+00 -.267E+02   -.441E-03 -.327E-07 -.579E-01
   0.905E+00 -.925E-05 0.380E+03   -.102E+01 0.981E-11 -.407E+03   0.113E+00 0.000E+00 0.267E+02   0.441E-03 0.327E-07 0.579E-01
[...]
   -.251E+02 0.218E+02 0.364E+03   0.267E+02 -.233E+02 -.386E+03   -.161E+01 0.148E+01 0.227E+02   -.633E-02 0.103E-01 -.722E-01
   0.251E+02 0.218E+02 -.364E+03   -.267E+02 -.233E+02 0.386E+03   0.161E+01 0.148E+01 -.227E+02   0.633E-02 0.103E-01 0.722E-01
   0.816E+01 -.537E-01 0.385E+03   -.875E+01 0.456E+00 -.412E+03   0.650E+00 -.451E+00 0.272E+02   -.624E-01 0.475E-01 0.239E-01
   -.816E+01 -.537E-01 -.385E+03   0.875E+01 0.456E+00 0.412E+03   -.650E+00 -.451E+00 -.272E+02   0.624E-01 0.475E-01 -.239E-01
   -.816E+01 0.537E-01 -.385E+03   0.875E+01 -.456E+00 0.412E+03   -.650E+00 0.451E+00 -.272E+02   0.624E-01 -.475E-01 -.239E-01
   0.816E+01 0.537E-01 0.385E+03   -.875E+01 -.456E+00 -.412E+03   0.650E+00 0.451E+00 0.272E+02   -.624E-01 -.475E-01 0.239E-01
   0.108E+02 -.101E-06 -.390E+03   -.104E+02 0.343E-10 0.417E+03   -.302E+00 0.000E+00 -.264E+02   -.727E-01 0.434E-07 -.456E-01
   -.108E+02 0.101E-06 0.390E+03   0.104E+02 -.343E-10 -.417E+03   0.302E+00 0.000E+00 0.264E+02   0.727E-01 -.434E-07 0.456E-01
   0.359E+02 -.233E-04 0.380E+03   -.383E+02 0.178E-11 -.402E+03   0.247E+01 0.000E+00 0.222E+02   -.310E-01 0.281E-06 -.665E-01
   -.359E+02 0.233E-04 -.380E+03   0.383E+02 -.190E-11 0.402E+03   -.247E+01 0.000E+00 -.222E+02   0.310E-01 -.281E-06 0.665E-01
   -.427E+02 0.380E-05 -.363E+03   0.454E+02 0.238E-10 0.385E+03   -.276E+01 0.173E-17 -.220E+02   0.165E-02 0.152E-06 -.145E+00
   0.427E+02 -.380E-05 0.363E+03   -.454E+02 -.237E-10 -.385E+03   0.276E+01 -.173E-17 0.220E+02   -.165E-02 -.152E-06 0.145E+00
   -.121E+02 -.942E-05 0.390E+03   0.117E+02 -.196E-10 -.416E+03   0.313E+00 0.867E-18 0.265E+02   0.817E-01 0.129E-06 0.107E+00
   0.121E+02 0.942E-05 -.390E+03   -.117E+02 0.196E-10 0.416E+03   -.313E+00 -.867E-18 -.265E+02   -.817E-01 -.129E-06 -.107E+00
   0.146E-09 0.821E-10 -.230E-09   -.320E-13 -.918E-13 0.625E-12   -.133E-14 0.944E-15 -.711E-14   -.472E-12 -.286E-12 0.372E-12

 POSITION                                       TOTAL-FORCE (eV/Angst)
     -0.02719      0.00000      7.18209         0.000000      0.000000     -0.000000
     12.87875      0.00000     11.96503        -0.000584      0.000000      0.000010
      1.61274      0.00000      2.39914         0.000584      0.000000     -0.000010
     11.26362      0.00000      2.39518        -0.013273      0.000000      0.003167
      3.22787      0.00000     11.96899         0.013273      0.000000     -0.003167
      0.00000      0.00000      0.00000         0.000000      0.000000     -0.000000
     12.91190      0.00000      4.78954        -0.005344      0.000000      0.004938
      1.57958      0.00000      9.57464         0.005344      0.000000     -0.004938
      6.42965      2.78278      9.55671        -0.000630      0.003418     -0.002867
      8.06183      2.78278      4.80746         0.000630      0.003418      0.002867
     15.33476      1.40628      4.80746         0.000630     -0.003418      0.002867
     13.70258      1.40628      9.55671        -0.000630     -0.003418     -0.002867
      7.27293      1.40960      0.00000        -0.000000     -0.009259     -0.000000
     14.54586      2.77945      0.00000        -0.000000      0.009259     -0.000000
      5.63720      1.39997      4.80991         0.002722     -0.005581      0.011737
      8.85428      1.39997      9.55426        -0.002722     -0.005581     -0.011737
     16.12721      2.78908      9.55426        -0.002722      0.005581     -0.011737
     12.91013      2.78908      4.80991         0.002722      0.005581      0.011737
      6.42867      0.00000      9.57009         0.003417      0.000000     -0.004497
      8.06281      0.00000      4.79408        -0.003417      0.000000      0.004497
     12.10765      1.39987      0.00706        -0.005829     -0.003569      0.000356
      2.38384      1.39987     14.35711         0.005829     -0.003569     -0.000356
      9.65677      2.78918     14.35711         0.005829      0.003569     -0.000356
     19.38058      2.78918      0.00706        -0.005829      0.003569      0.000356
     10.48436      1.40342      4.82209        -0.001768     -0.001985      0.001587
      4.00713      1.40342      9.54208         0.001768     -0.001985     -0.001587
     11.28006      2.78563      9.54208         0.001768      0.001985     -0.001587
     17.75729      2.78563      4.82209        -0.001768      0.001985      0.001587
     11.27252      0.00000      9.51029        -0.001605      0.000000     -0.000890
      3.21896      0.00000      4.85388         0.001605      0.000000      0.000890
      4.86443      0.00000      0.04941        -0.004294      0.000000     -0.006501
      9.62706      0.00000     14.31476         0.004294      0.000000      0.006501
     14.47398      0.00000     10.52848         0.002110      0.000000      0.002790
      0.01750      0.00000      3.83569        -0.002110      0.000000     -0.002790
     12.78188      0.00000      1.01242        -0.005786      0.000000      0.003530
      1.70960      0.00000     13.35175         0.005786      0.000000     -0.003530
     12.93290      0.00000      8.58086         0.003035      0.000000     -0.002903
      1.55858      0.00000      5.78331        -0.003035      0.000000      0.002903
      6.45962      2.81995      5.75744         0.002960     -0.000234      0.000963
      8.03186      2.81995      8.60673        -0.002960     -0.000234     -0.000963
     15.30479      1.36910      8.60673        -0.002960      0.000234     -0.000963
     13.73255      1.36910      5.75744         0.002960      0.000234      0.000963
      6.37385      2.82742     13.42466         0.002452     -0.000103      0.000860
      8.11763      2.82742      0.93951        -0.002452     -0.000103     -0.000860
     15.39056      1.36163      0.93951        -0.002452      0.000103     -0.000860
     13.64678      1.36163     13.42466         0.002452      0.000103      0.000860
      7.24009      1.39707     10.49839        -0.001258      0.002258     -0.001167
      7.25139      1.39707      3.86578         0.001258      0.002258      0.001167
     14.52432      2.79198      3.86578         0.001258     -0.002258      0.001167
     14.51302      2.79198     10.49839        -0.001258     -0.002258     -0.001167
      5.66657      1.41106      0.96018        -0.004036     -0.003348      0.002388
      8.82492      1.41106     13.40399         0.004036     -0.003348     -0.002388
     16.09784      2.77799     13.40399         0.004036      0.003348     -0.002388
     12.93950      2.77799      0.96018        -0.004036      0.003348      0.002388
      5.62770      1.39327      8.61861        -0.001712     -0.000500     -0.004878
      8.86378      1.39327      5.74556         0.001712     -0.000500      0.004878
     16.13671      2.79578      5.74556         0.001712      0.000500      0.004878
     12.90063      2.79578      8.61861        -0.001712      0.000500     -0.004878
      6.45264      0.00000      5.73448        -0.003228      0.000000     -0.000702
      8.03884      0.00000      8.62969         0.003228      0.000000      0.000702
[...]
      4.00163      1.36665     13.41885        -0.004519      0.005406      0.003123
     11.27456      2.82240     13.41885        -0.004519     -0.005406      0.003123
     17.76278      2.82240      0.94532         0.004519     -0.005406     -0.003123
     10.46098      1.40113      8.60072        -0.002089     -0.001153     -0.004947
      4.03051      1.40113      5.76345         0.002089     -0.001153      0.004947
     11.30343      2.78792      5.76345         0.002089      0.001153      0.004947
     17.73391      2.78792      8.60072        -0.002089      0.001153     -0.004947
     11.30044      0.00000      5.74480        -0.002249      0.000000      0.006655
      3.19105      0.00000      8.61937         0.002249      0.000000     -0.006655
     11.28094      0.00000     13.38378         0.007563      0.000000     -0.005454
      3.21055      0.00000      0.98040        -0.007563      0.000000      0.005454
      4.78059      0.00000     10.51051         0.008455      0.000000     -0.005650
      9.71090      0.00000      3.85366        -0.008455      0.000000      0.005650
      4.81932      0.00000      3.89512        -0.003760      0.000000      0.004327
      9.67217      0.00000     10.46905         0.003760      0.000000     -0.004327
    total drift:                                0.000000      0.000000     -0.000000

  FREE ENERGIE OF THE ION-ELECTRON SYSTEM (eV)
  free  energy   TOTEN  =      -532.7106373740 eV

  energy  without entropy=     -532.6672440604  energy(sigma->0) =     -532.68894072

volume of typ            1:     4.5 %

[...]

volume of typ            3:    10.1 %

total charge

# of ion       s       p       d       tot
    1        2.067   0.216   0.084   2.367
    2        2.061   0.199   0.076   2.336
    3        2.061   0.199   0.076   2.336
    4        2.066   0.214   0.082   2.362
    5        2.066   0.214   0.082   2.362
    6        0.282   0.370   7.853   8.505
    7        0.299   0.412   7.832   8.543
    8        0.299   0.412   7.832   8.543
    9        0.304   0.422   7.829   8.556
   10        0.304   0.422   7.831   8.557
   11        0.304   0.422   7.829   8.556
   12        0.304   0.422   7.831   8.557
   13        0.294   0.399   7.824   8.517
   14        0.294   0.399   7.824   8.517
   15        0.295   0.402   7.817   8.514
   16        0.295   0.402   7.817   8.515
   17        0.295   0.402   7.817   8.514
   18        0.295   0.402   7.817   8.515
   19        0.299   0.412   7.816   8.527
   20        0.299   0.412   7.816   8.527
   21        0.302   0.420   7.825   8.547
   22        0.302   0.420   7.832   8.554
   23        0.302   0.420   7.825   8.547
   24        0.302   0.420   7.832   8.554
   25        0.299   0.412   7.822   8.532
   26        0.299   0.412   7.823   8.534
   27        0.299   0.412   7.822   8.532
   28        0.299   0.412   7.823   8.534
   29        0.299   0.412   7.825   8.536
   30        0.299   0.412   7.825   8.536
   31        0.300   0.414   7.823   8.537
   32        0.300   0.414   7.823   8.537
   33        1.274   2.754   0.007   4.035
   34        1.274   2.754   0.007   4.035
   35        1.276   2.749   0.007   4.032
   36        1.276   2.749   0.007   4.032
   37        1.274   2.753   0.007   4.035
   38        1.274   2.753   0.007   4.035
   39        1.274   2.756   0.007   4.037
   40        1.274   2.756   0.007   4.038
   41        1.274   2.756   0.007   4.037
   42        1.274   2.756   0.007   4.038
   43        1.271   2.763   0.008   4.042
   44        1.271   2.761   0.008   4.040
   45        1.271   2.763   0.008   4.042
   46        1.271   2.761   0.008   4.040
   47        1.284   2.726   0.008   4.018
   48        1.284   2.727   0.008   4.020
   49        1.284   2.726   0.008   4.018
   50        1.284   2.727   0.008   4.020
   51        1.284   2.723   0.008   4.015
   52        1.284   2.725   0.008   4.017
   53        1.284   2.723   0.008   4.015
   54        1.284   2.725   0.008   4.017
   55        1.284   2.726   0.008   4.018
   56        1.284   2.726   0.008   4.019
   57        1.284   2.726   0.008   4.018
   58        1.284   2.726   0.008   4.019
   59        1.288   2.716   0.008   4.012
   60        1.288   2.716   0.008   4.012
[...]
   72        1.273   2.758   0.007   4.039
   73        1.273   2.757   0.007   4.038
   74        1.273   2.758   0.007   4.039
   75        1.285   2.725   0.008   4.018
   76        1.285   2.724   0.008   4.017
   77        1.285   2.725   0.008   4.018
   78        1.285   2.724   0.008   4.017
   79        1.287   2.715   0.008   4.011
   80        1.287   2.715   0.008   4.011
   81        1.274   2.752   0.007   4.033
   82        1.274   2.752   0.007   4.033
   83        1.274   2.755   0.007   4.035
   84        1.274   2.755   0.007   4.035
   85        1.287   2.720   0.008   4.015
   86        1.287   2.720   0.008   4.015
tot          87.44  160.15  212.10  459.69

magnetization (x)

# of ion       s       p       d       tot
    1        0.000   0.000   0.000   0.000
    2       -0.000   0.000   0.000   0.000
    3       -0.000   0.000   0.000   0.000
    4        0.002   0.004   0.001   0.006
    5        0.002   0.004   0.001   0.006
    6        0.003  -0.000   0.625   0.628
    7        0.000  -0.000  -0.001  -0.001
    8        0.000  -0.000  -0.001  -0.001
    9        0.000   0.000   0.001   0.001
   10        0.000   0.000   0.000   0.000
   11        0.000   0.000   0.001   0.001
   12        0.000   0.000   0.000   0.000
   13       -0.000  -0.000   0.008   0.008
   14       -0.000  -0.000   0.008   0.008
   15       -0.000   0.000   0.003   0.003
   16       -0.000   0.000   0.003   0.003
   17       -0.000   0.000   0.003   0.003
   18       -0.000   0.000   0.003   0.003
   19       -0.000  -0.000   0.002   0.002
   20       -0.000  -0.000   0.002   0.002
   21       -0.000   0.000   0.007   0.007
   22       -0.000  -0.000   0.014   0.013
   23       -0.000   0.000   0.007   0.007
   24       -0.000  -0.000   0.014   0.013
   25       -0.000  -0.000   0.000   0.000
   26       -0.000   0.000  -0.000  -0.000
   27       -0.000  -0.000   0.000   0.000
   28       -0.000   0.000  -0.000  -0.000
   29       -0.000   0.000   0.003   0.003
   30       -0.000   0.000   0.003   0.003
   31        0.000   0.000   0.000   0.000
   32        0.000   0.000   0.000   0.000
   33        0.000  -0.000  -0.000  -0.000
   34        0.000  -0.000  -0.000  -0.000
   35        0.007   0.097   0.000   0.104
   36        0.007   0.097   0.000   0.104
   37        0.000   0.000   0.000   0.000
   38        0.000   0.000   0.000   0.000
   39        0.000   0.000   0.000   0.000
   40        0.000   0.000   0.000   0.000
   41        0.000   0.000   0.000   0.000
   42        0.000   0.000   0.000   0.000
   43        0.001   0.016   0.000   0.017
   44        0.001   0.014   0.000   0.015
   45        0.001   0.016   0.000   0.017
   46        0.001   0.014   0.000   0.015
   47        0.000  -0.000   0.000  -0.000
   48        0.000  -0.000   0.000  -0.000
   49        0.000  -0.000   0.000  -0.000
   50        0.000  -0.000   0.000  -0.000
   51        0.000  -0.002   0.000  -0.002
   52        0.000  -0.002   0.000  -0.001
   53        0.000  -0.002   0.000  -0.002
   54        0.000  -0.002   0.000  -0.001
   55        0.000  -0.000  -0.000  -0.000
   56        0.000  -0.000  -0.000  -0.000
   57        0.000  -0.000  -0.000  -0.000
   58        0.000  -0.000  -0.000  -0.000
   59        0.000   0.000   0.000   0.000
   60        0.000   0.000   0.000   0.000
[...]
   72        0.000  -0.006   0.000  -0.006
   73        0.000  -0.007   0.000  -0.006
   74        0.000  -0.006   0.000  -0.006
   75        0.000   0.001   0.000   0.001
   76        0.000   0.000   0.000   0.001
   77        0.000   0.001   0.000   0.001
   78        0.000   0.000   0.000   0.001
   79       -0.000  -0.001  -0.000  -0.001
   80       -0.000  -0.001  -0.000  -0.001
   81        0.000  -0.000   0.000  -0.000
   82        0.000  -0.000   0.000  -0.000
   83        0.000   0.001   0.000   0.001
   84        0.000   0.001   0.000   0.001
   85        0.000   0.001   0.000   0.001
   86        0.000   0.001   0.000   0.001
tot           0.03    0.23    0.70    0.96