 vasp.5.4.4.18Apr17-6-g9f103f2a35 (build May 12 2020 04:58:55) complex

 MD_VERSION_INFO: Compiled 2020-05-12T11:58:55-UTC in devlin.sd.materialsdesign.
 com:/home/medea2/data/build/wwolf/vasp-gpu5.4.4/13047/x86_64/src/src/build/std
 from svn 13047

 executed on                        Lin64 date 2023.03.18  19:12:00

 INCAR:
 POTCAR:    PAW_PBE Li_sv 10Sep2004
 POTCAR:    PAW_PBE Ni 02Aug2007
 POTCAR:    PAW_PBE O 08Apr2002

 POTCAR:    PAW_PBE Li_sv 10Sep2004

 POTCAR:    PAW_PBE Ni 02Aug2007

 POTCAR:    PAW_PBE O 08Apr2002

 Optimization of the real space projectors (new method)

 maximal supplied QI-value         = 22.11
 optimisation between [QCUT,QGAM] = [ 11.28, 22.77] = [ 35.61,145.23] Ry
 Optimized for a Real-space Cutoff    1.10 Angstroem

   l    n(q)    QCUT    max X(q) W(low)/X(q) W(high)/X(q)  e(spline)
   0      7    11.276    10.506    0.54E-04    0.58E-04    0.16E-07
   0      7    11.276     8.367    0.11E-03    0.14E-03    0.35E-07
   1      7    11.276     8.983    0.23E-03    0.43E-03    0.86E-07
 Optimization of the real space projectors (new method)

[...]

   l    n(q)    QCUT    max X(q) W(low)/X(q) W(high)/X(q)  e(spline)
   2      9    11.376    60.317    0.17E-03    0.16E-04    0.16E-06
   2      9    11.376    55.921    0.17E-03    0.16E-04    0.17E-06
   0     10    11.376    51.690    0.45E-04    0.60E-04    0.21E-06
   0     10    11.376    30.015    0.37E-04    0.55E-04    0.19E-06
   1     10    11.376    18.849    0.83E-04    0.11E-03    0.92E-07
   1     10    11.376    14.624    0.69E-04    0.92E-04    0.82E-07
 Optimization of the real space projectors (new method)

 maximal supplied QI-value         = 24.76
 optimisation between [QCUT,QGAM] = [ 11.39, 22.77] = [ 36.31,145.25] Ry
 Optimized for a Real-space Cutoff    1.10 Angstroem

   l    n(q)    QCUT    max X(q) W(low)/X(q) W(high)/X(q)  e(spline)
   0      7    11.387    20.381    0.22E-03    0.48E-03    0.18E-06
   0      7    11.387    15.268    0.22E-03    0.52E-03    0.19E-06
   1      7    11.387     5.964    0.22E-03    0.73E-03    0.24E-06
   1      7    11.387     5.382    0.19E-03    0.60E-03    0.21E-06

  PAW_PBE Li_sv 10Sep2004               :
  PAW_PBE Ni 02Aug2007                  :
  PAW_PBE O 08Apr2002                   :

 POSCAR: ce425828_1
  positions in direct lattice
 exchange correlation table for  LEXCH =       14
   RHO(1)=    0.500       N(1)  =     2000
   RHO(2)=  100.500       N(2)  =     4000

 ion  position               nearest neighbor table
   1  0.888  0.000  0.668-  77 2.11  49 2.12  50 2.12  42 2.13  38 2.14  41 2.14
   2  0.112  0.000  0.332-  76 2.11  51 2.12  48 2.12  43 2.13  40 2.14  39 2.14
   3  0.889  0.000  0.166-  79 1.86  45 1.86  46 1.86  34 1.87  37 1.87  43 1.89  21 2.79  18 2.79
                             6 2.79   7 2.79  17 2.79  14 2.79
   4  0.111  0.000  0.834-  78 1.86  47 1.86  44 1.86  36 1.87  35 1.87  42 1.89  19 2.79  20 2.79
                             8 2.79   5 2.79  15 2.79  16 2.79
   5  0.777  0.334  0.838-  64 1.86  35 1.86  72 1.86  42 1.87  50 1.87  32 1.87  22 2.79  19 2.79
                            16 2.79   4 2.79  27 2.80   8 2.80
   6  0.888  0.334  0.162-  65 1.86  34 1.86  73 1.86  43 1.87  51 1.87  33 1.87  23 2.79  18 2.79
                            17 2.79   3 2.79  26 2.80   7 2.80
   7  0.223  0.666  0.162-  66 1.86  37 1.86  74 1.86  43 1.87  48 1.87  33 1.87  23 2.79  21 2.79
                            14 2.79   3 2.79  26 2.80   6 2.80
   8  0.112  0.666  0.838-  67 1.86  36 1.86  75 1.86  42 1.87  49 1.87  32 1.87  22 2.79  20 2.79
                            15 2.79   4 2.79  27 2.80   5 2.80
   9  0.000  0.000  0.500-  39 1.86  41 1.86  40 1.86  38 1.86  30 1.87  31 1.87  24 2.79  25 2.79
                            13 2.79  11 2.79  10 2.79  12 2.79
  10  0.334  0.665  0.502-  62 1.86  54 1.86  52 1.86  40 1.87  31 1.87  76 1.87  12 2.79  29 2.79
                            25 2.79  28 2.79   9 2.79  13 2.80
  11  0.001  0.665  0.498-  63 1.86  55 1.86  53 1.86  41 1.87  30 1.87  77 1.87  13 2.79  28 2.79
                            25 2.79  29 2.79   9 2.79  12 2.80
  12  0.666  0.335  0.498-  60 1.86  52 1.86  54 1.86  38 1.87  30 1.87  77 1.87  10 2.79  28 2.79
                            24 2.79  29 2.79   9 2.79  11 2.80
  13  0.999  0.335  0.502-  61 1.86  53 1.86  55 1.86  39 1.87  31 1.87  76 1.87  11 2.79  29 2.79
                            24 2.79  28 2.79   9 2.79  10 2.80
  14  0.556  0.333  0.165-  79 1.86  46 1.86  81 1.86  66 1.87  58 1.87  48 1.89  18 2.79  23 2.79
                             7 2.79  26 2.79   3 2.79  17 2.79
  15  0.111  0.333  0.835-  78 1.86  47 1.86  80 1.86  67 1.87  59 1.87  49 1.89  19 2.79  22 2.79
                             8 2.79  27 2.79   4 2.79  16 2.79
  16  0.444  0.667  0.835-  78 1.86  44 1.86  80 1.86  64 1.87  56 1.87  50 1.89  20 2.79  22 2.79
                             5 2.79  27 2.79   4 2.79  15 2.79
  17  0.889  0.667  0.165-  79 1.86  45 1.86  81 1.86  65 1.87  57 1.87  51 1.89  21 2.79  23 2.79
                             6 2.79  26 2.79   3 2.79  14 2.79
  18  0.556  0.666  0.164-  34 1.86  58 1.86  82 1.86  73 1.86  68 1.86  46 1.86  26 2.79   6 2.79
                            14 2.79   3 2.79  21 2.79  23 2.79
  19  0.778  0.666  0.836-  35 1.86  59 1.86  83 1.86  72 1.86  69 1.86  47 1.86  27 2.79   5 2.79
                            15 2.79   4 2.79  20 2.79  22 2.79
  20  0.444  0.334  0.836-  36 1.86  56 1.86  83 1.86  75 1.86  69 1.86  44 1.86  27 2.79   8 2.79
                            16 2.79   4 2.79  19 2.79  22 2.79
  21  0.222  0.334  0.164-  37 1.86  57 1.86  82 1.86  74 1.86  68 1.86  45 1.86  26 2.79   7 2.79
                            17 2.79   3 2.79  18 2.79  23 2.79
  22  0.444  0.000  0.836-  64 1.86  67 1.86  75 1.86  72 1.86  80 1.86  69 1.86   8 2.79   5 2.79
                            16 2.79  15 2.79  20 2.79  19 2.79
  23  0.556  0.000  0.164-  66 1.86  65 1.86  73 1.86  74 1.86  81 1.86  68 1.86   6 2.79   7 2.79
                            14 2.79  17 2.79  18 2.79  21 2.79
  24  0.667  0.666  0.500-  71 1.86  70 1.86  61 1.87  60 1.87  38 1.90  39 1.90   9 2.79  12 2.79
                            13 2.79  29 2.79  28 2.79  25 2.80
  25  0.333  0.334  0.500-  70 1.86  71 1.86  63 1.87  62 1.87  40 1.90  41 1.90   9 2.79  10 2.79
                            11 2.79  28 2.79  29 2.79  24 2.80
  26  0.223  0.000  0.162-  57 1.86  58 1.86  82 1.86  48 1.87  51 1.87  33 1.87  21 2.79  18 2.79
                            14 2.79  17 2.79   7 2.80   6 2.80
  27  0.777  0.000  0.838-  59 1.86  56 1.86  83 1.86  50 1.87  49 1.87  32 1.87  19 2.79  20 2.79
                            16 2.79  15 2.79   5 2.80   8 2.80
  28  0.333  0.000  0.499-  70 1.86  63 1.86  60 1.86  54 1.87  53 1.87  76 1.89  12 2.79  11 2.79
                            25 2.79  24 2.79  10 2.79  13 2.79
  29  0.667  0.000  0.501-  71 1.86  61 1.86  62 1.86  52 1.87  55 1.87  77 1.89  10 2.79  13 2.79
                            24 2.79  25 2.79  12 2.79  11 2.79
  30  0.889  0.000  0.432-  11 1.87  12 1.87   9 1.87
  31  0.111  0.000  0.568-  13 1.87  10 1.87   9 1.87
  32  0.889  0.000  0.904-  27 1.87   5 1.87   8 1.87
  33  0.111  0.000  0.096-  26 1.87   7 1.87   6 1.87
  34  0.777  0.333  0.098-   6 1.86  18 1.86   3 1.87
  35  0.890  0.333  0.902-   5 1.86  19 1.86   4 1.87
  36  0.223  0.667  0.902-   8 1.86  20 1.86   4 1.87
  37  0.110  0.667  0.098-   7 1.86  21 1.86   3 1.87
  38  0.780  0.327  0.567-   9 1.86  12 1.87  24 1.90   1 2.14
  39  0.893  0.327  0.433-   9 1.86  13 1.87  24 1.90   2 2.14
  40  0.220  0.673  0.433-   9 1.86  10 1.87  25 1.90   2 2.14
  41  0.107  0.673  0.567-   9 1.86  11 1.87  25 1.90   1 2.14
  42  0.997  0.000  0.769-   8 1.87   5 1.87   4 1.89   1 2.13
  43  0.003  0.000  0.231-   6 1.87   7 1.87   3 1.89   2 2.13
  44  0.333  0.666  0.769-   4 1.86  16 1.86  20 1.86
  45  0.001  0.666  0.231-   3 1.86  17 1.86  21 1.86
  46  0.667  0.334  0.231-   3 1.86  14 1.86  18 1.86
  47  0.999  0.334  0.769-   4 1.86  15 1.86  19 1.86
  48  0.329  0.674  0.231-  26 1.87   7 1.87  14 1.89   2 2.12
  49  0.997  0.674  0.769-  27 1.87   8 1.87  15 1.89   1 2.12
  50  0.671  0.326  0.769-  27 1.87   5 1.87  16 1.89   1 2.12
  51  0.003  0.326  0.231-  26 1.87   6 1.87  17 1.89   2 2.12
  52  0.554  0.335  0.434-  12 1.86  10 1.86  29 1.87
  53  0.112  0.335  0.566-  13 1.86  11 1.86  28 1.87
  54  0.446  0.665  0.566-  10 1.86  12 1.86  28 1.87
  55  0.888  0.665  0.434-  11 1.86  13 1.86  29 1.87
  56  0.554  0.335  0.902-  27 1.86  20 1.86  16 1.87
  57  0.110  0.335  0.098-  26 1.86  21 1.86  17 1.87
  58  0.446  0.665  0.098-  26 1.86  18 1.86  14 1.87
  59  0.890  0.665  0.902-  27 1.86  19 1.86  15 1.87
  60  0.556  0.667  0.433-  12 1.86  28 1.86  24 1.87
  61  0.777  0.667  0.567-  13 1.86  29 1.86  24 1.87
  62  0.444  0.333  0.567-  10 1.86  29 1.86  25 1.87
  63  0.223  0.333  0.433-  11 1.86  28 1.86  25 1.87
  64  0.554  0.668  0.902-   5 1.86  22 1.86  16 1.87
  65  0.777  0.668  0.098-   6 1.86  23 1.86  17 1.87
  66  0.446  0.332  0.098-   7 1.86  23 1.86  14 1.87
  67  0.223  0.332  0.902-   8 1.86  22 1.86  15 1.87
  68  0.444  0.000  0.098-  18 1.86  21 1.86  23 1.86
  69  0.556  0.000  0.902-  20 1.86  19 1.86  22 1.86
  70  0.444  0.000  0.565-  28 1.86  25 1.86  24 1.86
  71  0.556  0.000  0.435-  29 1.86  24 1.86  25 1.86
  72  0.667  0.665  0.770-  22 1.86  19 1.86   5 1.86
  73  0.668  0.665  0.230-  23 1.86  18 1.86   6 1.86
  74  0.333  0.335  0.230-  23 1.86  21 1.86   7 1.86
  75  0.332  0.335  0.770-  22 1.86  20 1.86   8 1.86
  76  0.219  0.000  0.433-  10 1.87  13 1.87  28 1.89   2 2.11
  77  0.781  0.000  0.567-  12 1.87  11 1.87  29 1.89   1 2.11
  78  0.222  0.000  0.900-  15 1.86  16 1.86   4 1.86
  79  0.778  0.000  0.100-  17 1.86  14 1.86   3 1.86
  80  0.333  0.000  0.769-  16 1.86  15 1.86  22 1.86
  81  0.667  0.000  0.231-  14 1.86  17 1.86  23 1.86
  82  0.333  0.000  0.230-  21 1.86  18 1.86  26 1.86
  83  0.667  0.000  0.770-  19 1.86  20 1.86  27 1.86

  LATTYP: Found a base centered monoclinic cell.
 ALAT       =    14.5036781100
 B/A-ratio  =     0.5774262995
 C/A-ratio  =     2.2225464594
 COS(beta)  =    -0.7784874778

  Lattice vectors:

 A1 = (   7.2518390500,   4.1874025900,   0.0000000000)
 A2 = (   7.2518390600,  -4.1874025900,   0.0000000000)
 A3 = ( -28.9777257900,   0.0000000000, -14.1206578800)

Analysis of symmetry for initial positions (statically):
 Subroutine PRICEL returns:
 Original cell was already a primitive cell.

 Routine SETGRP: Setting up the symmetry group for a
 base centered monoclinic supercell.

 Subroutine GETGRP returns: Found  4 space group operations
 (whereof  4 operations were pure point group operations)
 out of a pool of  4 trial point group operations.

The static configuration has the point symmetry C_2h.

Analysis of symmetry for dynamics (positions and initial velocities):
 Subroutine PRICEL returns:
 Original cell was already a primitive cell.

[...]

The dynamic configuration has the point symmetry C_2h.

Analysis of structural, dynamic, and magnetic symmetry:
 Subroutine PRICEL returns:
[...]
   -.194E+02 -.340E+02 -.368E+03   0.206E+02 0.362E+02 0.390E+03   -.125E+01 -.220E+01 -.228E+02   0.800E-03 -.233E-02 0.317E-01
   0.280E+01 0.985E+01 0.383E+03   -.356E+01 -.101E+02 -.410E+03   0.763E+00 0.229E+00 0.272E+02   0.742E-03 0.169E-02 0.230E-01
   -.280E+01 0.985E+01 -.383E+03   0.356E+01 -.101E+02 0.410E+03   -.763E+00 0.229E+00 -.272E+02   -.742E-03 0.169E-02 -.230E-01
   -.280E+01 -.985E+01 -.383E+03   0.356E+01 0.101E+02 0.410E+03   -.763E+00 -.229E+00 -.272E+02   -.742E-03 -.169E-02 -.230E-01
   0.280E+01 -.985E+01 0.383E+03   -.356E+01 0.101E+02 -.410E+03   0.763E+00 -.229E+00 0.272E+02   0.742E-03 -.169E-02 0.230E-01
   0.276E+01 -.620E+01 -.366E+03   -.288E+01 0.705E+01 0.394E+03   0.107E+00 -.846E+00 -.275E+02   0.201E-02 -.566E-03 -.203E-01
   -.276E+01 -.620E+01 0.366E+03   0.288E+01 0.705E+01 -.394E+03   -.107E+00 -.846E+00 0.275E+02   -.201E-02 -.566E-03 0.203E-01
   -.276E+01 0.620E+01 0.366E+03   0.288E+01 -.705E+01 -.394E+03   -.107E+00 0.846E+00 0.275E+02   -.201E-02 0.566E-03 0.203E-01
   0.276E+01 0.620E+01 -.366E+03   -.288E+01 -.705E+01 0.394E+03   0.107E+00 0.846E+00 -.275E+02   0.201E-02 0.566E-03 -.203E-01
   -.451E+01 -.789E+01 0.386E+03   0.498E+01 0.823E+01 -.413E+03   -.474E+00 -.334E+00 0.274E+02   0.119E-02 -.292E-02 0.238E-01
[...]
   -.121E+01 -.567E-05 -.383E+03   0.118E+01 -.303E-06 0.410E+03   0.246E-01 -.347E-17 -.269E+02   0.673E-03 -.109E-07 -.213E-01
   0.121E+01 0.567E-05 0.383E+03   -.118E+01 0.303E-06 -.410E+03   -.246E-01 0.347E-17 0.269E+02   -.673E-03 0.109E-07 0.213E-01
   -.446E+01 -.104E+02 0.396E+03   0.441E+01 0.103E+02 -.423E+03   0.445E-01 0.114E+00 0.272E+02   0.258E-02 -.379E-02 -.350E-01
   0.446E+01 -.104E+02 -.396E+03   -.441E+01 0.103E+02 0.423E+03   -.445E-01 0.114E+00 -.272E+02   -.258E-02 -.379E-02 0.350E-01
   0.446E+01 0.104E+02 -.396E+03   -.441E+01 -.103E+02 0.423E+03   -.445E-01 -.114E+00 -.272E+02   -.258E-02 0.379E-02 0.350E-01
   -.446E+01 0.104E+02 0.396E+03   0.441E+01 -.103E+02 -.423E+03   0.445E-01 -.114E+00 0.272E+02   0.258E-02 0.379E-02 -.350E-01
   -.411E+02 0.916E-05 0.352E+03   0.438E+02 0.274E-06 -.374E+03   -.266E+01 0.347E-17 0.224E+02   -.308E-02 -.210E-07 0.224E-01
   0.411E+02 -.916E-05 -.352E+03   -.438E+02 -.274E-06 0.374E+03   0.266E+01 -.347E-17 -.224E+02   0.308E-02 0.210E-07 -.224E-01
   -.159E+01 -.348E-05 -.361E+03   0.157E+01 -.317E-06 0.389E+03   0.166E-01 0.347E-17 -.277E+02   0.453E-02 0.476E-08 -.153E-01
   0.159E+01 0.348E-05 0.361E+03   -.157E+01 0.317E-06 -.389E+03   -.166E-01 -.347E-17 0.277E+02   -.453E-02 -.476E-08 0.153E-01
   -.146E+01 0.376E-06 0.399E+03   0.169E+01 0.291E-06 -.426E+03   -.221E+00 0.000E+00 0.273E+02   -.434E-02 -.298E-07 -.336E-01
   0.146E+01 -.376E-06 -.399E+03   -.169E+01 -.291E-06 0.426E+03   0.221E+00 0.000E+00 -.273E+02   0.434E-02 0.298E-07 0.336E-01
   -.105E+02 -.572E-05 -.395E+03   0.104E+02 -.322E-06 0.422E+03   0.981E-01 -.347E-17 -.272E+02   -.178E-02 0.299E-08 0.315E-01
   0.105E+02 0.572E-05 0.395E+03   -.104E+02 0.322E-06 -.422E+03   -.981E-01 0.347E-17 0.272E+02   0.178E-02 -.299E-08 -.315E-01
   0.295E-09 0.547E-10 -.238E-09   -.275E-12 -.263E-13 0.171E-12   -.139E-16 -.444E-15 -.355E-14   -.111E-11 -.217E-12 -.217E-12

 POSITION                                       TOTAL-FORCE (eV/Angst)
     12.85567      0.00000      9.43618         0.000844      0.000000      0.004355
      1.61838      0.00000      4.68447        -0.000844      0.000000     -0.004355
     12.88851      0.00000      2.33704        -0.001550      0.000000     -0.004470
      1.58554      0.00000     11.78362         0.001550      0.000000      0.004470
     13.67503      1.40012     11.83094        -0.002204      0.000622      0.008199
     15.30270      1.40012      2.28972         0.002204      0.000622     -0.008199
      8.05086      2.78728      2.28972         0.002204     -0.000622     -0.008199
      6.42319      2.78728     11.83094        -0.002204     -0.000622      0.008199
     -0.01482      0.00000      7.06033        -0.000000      0.000000      0.000000
      9.65519      2.78663      7.08936         0.004427      0.001177     -0.000690
      4.81885      2.78663      7.03130        -0.004427      0.001177      0.000690
     12.07069      1.40077      7.03130        -0.004427     -0.001177      0.000690
     16.90703      1.40077      7.08936         0.004427     -0.001177     -0.000690
     10.47031      1.39642      2.33666        -0.000617     -0.001370     -0.004959
      4.00374      1.39642     11.78400         0.000617     -0.001370      0.004959
     11.25558      2.79098     11.78400         0.000617      0.001370      0.004959
     17.72215      2.79098      2.33666        -0.000617      0.001370     -0.004959
     12.88682      2.79036      2.31932         0.001419      0.001098     -0.005730
     16.09090      2.79036     11.80134        -0.001419      0.001098      0.005730
      8.83906      1.39704     11.80134        -0.001419     -0.001098      0.005730
      5.63498      1.39704      2.31932         0.001419     -0.001098     -0.005730
      6.41916      0.00000     11.80159         0.001504      0.000000      0.001697
      8.05489      0.00000      2.31906        -0.001504      0.000000     -0.001697
     14.48886      2.78752      7.06033        -0.000000      0.015005      0.000000
      7.23702      1.39988      7.06033         0.000000     -0.015005      0.000000
      3.22360      0.00000      2.28945        -0.000365      0.000000     -0.011989
     11.25045      0.00000     11.83121         0.000365      0.000000      0.011989
      4.82111      0.00000      7.04397        -0.000498      0.000000     -0.001388
      9.65294      0.00000      7.07669         0.000498      0.000000      0.001388
     12.88487      0.00000      6.09842        -0.009032      0.000000     -0.002578
      1.58917      0.00000      8.02224         0.009032      0.000000      0.002578
     12.86672      0.00000     12.76892        -0.002617      0.000000      0.004538
      1.60732      0.00000      1.35174         0.002617      0.000000     -0.004538
     13.68354      1.39421      1.38188         0.005759      0.001564     -0.004444
     15.29419      1.39421     12.73878        -0.005759      0.001564      0.004444
      8.04235      2.79319     12.73878        -0.005759     -0.001564      0.004444
      6.43170      2.79319      1.38188         0.005759     -0.001564     -0.004444
     13.66164      1.36855      8.00926        -0.007414      0.010624     -0.008981
     15.31608      1.36855      6.11140         0.007414      0.010624      0.008981
      8.06424      2.81885      6.11140         0.007414     -0.010624      0.008981
      6.40981      2.81885      8.00926        -0.007414     -0.010624     -0.008981
     14.44243      0.00000     10.86114         0.003336      0.000000      0.009304
      0.03162      0.00000      3.25952        -0.003336      0.000000     -0.009304
      9.64123      2.78734     10.85315         0.004010     -0.000807      0.006158
      4.83282      2.78734      3.26751        -0.004010     -0.000807     -0.006158
     12.08466      1.40006      3.26751        -0.004010      0.000807     -0.006158
     16.89307      1.40006     10.85315         0.004010      0.000807      0.006158
      9.64775      2.82222      3.25907        -0.004268     -0.002129     -0.009144
     19.32997      2.82222     10.86159         0.004268     -0.002129      0.009144
     12.07813      1.36518     10.86159         0.004268      0.002129      0.009144
      2.39591      1.36518      3.25907        -0.004268      0.002129     -0.009144
     10.44684      1.40072      6.12787         0.005013     -0.002911     -0.004611
      4.02721      1.40072      7.99279        -0.005013     -0.002911      0.004611
     11.27905      2.78668      7.99279        -0.005013      0.002911      0.004611
     17.69868      2.78668      6.12787         0.005013      0.002911     -0.004611
     10.44682      1.40444     12.74017        -0.005056      0.000946      0.002460
      4.02723      1.40444      1.38049         0.005056      0.000946     -0.002460
     11.27907      2.78297      1.38049         0.005056     -0.000946     -0.002460
     17.69866      2.78297     12.74017        -0.005056     -0.000946      0.002460
     12.88315      2.79380      6.11059        -0.004291      0.006040     -0.008738
[...]
      8.03293      0.00000     12.73596        -0.004900      0.000000      0.008944
      6.42651      0.00000      7.98172        -0.004905      0.000000      0.000698
      8.04753      0.00000      6.13894         0.004905      0.000000     -0.000698
     14.47456      2.78604     10.87290         0.003081     -0.000271      0.006985
     14.50317      2.78604      3.24775        -0.003081     -0.000271     -0.006985
      7.25133      1.40136      3.24775        -0.003081      0.000271     -0.006985
      7.22272      1.40136     10.87290         0.003081      0.000271      0.006985
      3.17056      0.00000      6.11733         0.010754      0.000000     -0.002007
     11.30349      0.00000      8.00332        -0.010754      0.000000      0.002007
      3.19807      0.00000     12.70800         0.000693      0.000000      0.001755
     11.27598      0.00000      1.41266        -0.000693      0.000000     -0.001755
      4.81392      0.00000     10.85280         0.003976      0.000000      0.006008
      9.66013      0.00000      3.26786        -0.003976      0.000000     -0.006008
      4.82316      0.00000      3.24732        -0.000338      0.000000     -0.004184
      9.65089      0.00000     10.87333         0.000338      0.000000      0.004184
    total drift:                                0.000000      0.000000     -0.000000

  FREE ENERGIE OF THE ION-ELECTRON SYSTEM (eV)
  free  energy   TOTEN  =      -516.5472521691 eV

  energy  without entropy=     -516.5170114089  energy(sigma->0) =     -516.53213179

volume of typ            1:     1.8 %

[...]

volume of typ            3:    10.3 %

total charge

# of ion       s       p       d       tot
    1        2.065   0.212   0.083   2.359
    2        2.065   0.212   0.083   2.359
    3        0.301   0.415   7.818   8.534
    4        0.301   0.415   7.818   8.534
    5        0.305   0.424   7.825   8.554
    6        0.305   0.424   7.822   8.551
    7        0.305   0.424   7.825   8.554
    8        0.305   0.424   7.822   8.551
    9        0.306   0.427   7.829   8.563
   10        0.305   0.424   7.821   8.550
   11        0.305   0.424   7.825   8.554
   12        0.305   0.424   7.821   8.550
   13        0.305   0.424   7.825   8.554
   14        0.301   0.415   7.819   8.535
   15        0.301   0.415   7.817   8.533
   16        0.301   0.415   7.819   8.535
   17        0.301   0.415   7.817   8.533
   18        0.305   0.423   7.817   8.545
   19        0.305   0.423   7.818   8.546
   20        0.305   0.423   7.817   8.545
   21        0.305   0.423   7.818   8.546
   22        0.305   0.424   7.818   8.546
   23        0.305   0.424   7.818   8.546
   24        0.296   0.405   7.821   8.521
   25        0.296   0.405   7.821   8.521
   26        0.305   0.425   7.823   8.553
   27        0.305   0.425   7.823   8.553
   28        0.300   0.414   7.819   8.533
   29        0.300   0.414   7.819   8.533
   30        1.284   2.724   0.008   4.016
   31        1.284   2.724   0.008   4.016
   32        1.285   2.723   0.008   4.016
   33        1.285   2.723   0.008   4.016
   34        1.285   2.725   0.008   4.018
   35        1.285   2.725   0.008   4.018
   36        1.285   2.725   0.008   4.018
   37        1.285   2.725   0.008   4.018
   38        1.274   2.756   0.007   4.037
   39        1.274   2.755   0.007   4.037
   40        1.274   2.756   0.007   4.037
   41        1.274   2.755   0.007   4.037
   42        1.274   2.757   0.007   4.038
   43        1.274   2.757   0.007   4.038
   44        1.285   2.726   0.008   4.019
   45        1.285   2.725   0.008   4.018
   46        1.285   2.726   0.008   4.019
   47        1.285   2.725   0.008   4.018
   48        1.273   2.757   0.007   4.038
   49        1.273   2.758   0.007   4.038
   50        1.273   2.757   0.007   4.038
   51        1.273   2.758   0.007   4.038
   52        1.284   2.727   0.008   4.019
   53        1.284   2.726   0.008   4.019
   54        1.284   2.727   0.008   4.019
   55        1.284   2.726   0.008   4.019
   56        1.285   2.725   0.008   4.018
   57        1.285   2.725   0.008   4.018
   58        1.285   2.725   0.008   4.018
   59        1.285   2.725   0.008   4.018
   60        1.285   2.726   0.008   4.019
[...]
   69        1.285   2.724   0.008   4.017
   70        1.287   2.718   0.008   4.014
   71        1.287   2.718   0.008   4.014
   72        1.284   2.727   0.008   4.019
   73        1.284   2.727   0.008   4.019
   74        1.284   2.727   0.008   4.019
   75        1.284   2.727   0.008   4.019
   76        1.274   2.757   0.007   4.038
   77        1.274   2.757   0.007   4.038
   78        1.287   2.719   0.008   4.014
   79        1.287   2.719   0.008   4.014
   80        1.285   2.725   0.008   4.018
   81        1.285   2.725   0.008   4.018
   82        1.284   2.727   0.008   4.019
   83        1.284   2.727   0.008   4.019
tot          81.56  159.28  211.75  452.59

magnetization (x)

# of ion       s       p       d       tot
    1        0.000  -0.000  -0.000  -0.000
    2        0.000  -0.000  -0.000  -0.000
    3        0.000   0.000  -0.000  -0.000
    4        0.000   0.000  -0.000  -0.000
    5        0.000   0.000   0.000   0.000
    6        0.000   0.000   0.000   0.000
    7        0.000   0.000   0.000   0.000
    8        0.000   0.000   0.000   0.000
    9       -0.000  -0.000  -0.000  -0.000
   10       -0.000  -0.000  -0.000  -0.000
   11       -0.000  -0.000  -0.000  -0.000
   12       -0.000  -0.000  -0.000  -0.000
   13       -0.000  -0.000  -0.000  -0.000
   14        0.000   0.000   0.000   0.000
   15        0.000   0.000   0.000   0.000
   16        0.000   0.000   0.000   0.000
   17        0.000   0.000   0.000   0.000
   18        0.000   0.000  -0.000  -0.000
   19        0.000   0.000  -0.000  -0.000
   20        0.000   0.000  -0.000  -0.000
   21        0.000   0.000  -0.000  -0.000
   22       -0.000  -0.000  -0.000  -0.000
   23       -0.000  -0.000  -0.000  -0.000
   24       -0.000  -0.000   0.000   0.000
   25       -0.000  -0.000   0.000   0.000
   26        0.000   0.000   0.000   0.000
   27        0.000   0.000   0.000   0.000
   28       -0.000  -0.000  -0.000  -0.000
   29       -0.000  -0.000  -0.000  -0.000
   30       -0.000   0.000  -0.000   0.000
   31       -0.000   0.000  -0.000   0.000
   32        0.000   0.000   0.000   0.000
   33        0.000   0.000   0.000   0.000
   34       -0.000  -0.000   0.000  -0.000
   35       -0.000  -0.000   0.000  -0.000
   36       -0.000  -0.000   0.000  -0.000
   37       -0.000  -0.000   0.000  -0.000
   38       -0.000  -0.000  -0.000  -0.000
   39       -0.000  -0.000  -0.000  -0.000
   40       -0.000  -0.000  -0.000  -0.000
   41       -0.000  -0.000  -0.000  -0.000
   42       -0.000  -0.000  -0.000  -0.000
   43       -0.000  -0.000  -0.000  -0.000
   44       -0.000  -0.000   0.000  -0.000
   45       -0.000  -0.000   0.000  -0.000
   46       -0.000  -0.000   0.000  -0.000
   47       -0.000  -0.000   0.000  -0.000
   48        0.000   0.000   0.000   0.000
   49        0.000   0.000   0.000   0.000
   50        0.000   0.000   0.000   0.000
   51        0.000   0.000   0.000   0.000
   52        0.000   0.000  -0.000   0.000
   53        0.000   0.000  -0.000   0.000
   54        0.000   0.000  -0.000   0.000
   55        0.000   0.000  -0.000   0.000
   56       -0.000  -0.000   0.000  -0.000
   57       -0.000  -0.000   0.000  -0.000
   58       -0.000  -0.000   0.000  -0.000
   59       -0.000  -0.000   0.000  -0.000
   60        0.000   0.000  -0.000   0.000
[...]
   69       -0.000   0.000  -0.000   0.000
   70        0.000   0.000  -0.000   0.000
   71        0.000   0.000  -0.000   0.000
   72       -0.000  -0.000   0.000  -0.000
   73       -0.000  -0.000   0.000  -0.000
   74       -0.000  -0.000   0.000  -0.000
   75       -0.000  -0.000   0.000  -0.000
   76        0.000   0.000  -0.000   0.000
   77        0.000   0.000  -0.000   0.000
   78       -0.000  -0.000  -0.000  -0.000
   79       -0.000  -0.000  -0.000  -0.000
   80       -0.000  -0.000   0.000  -0.000
   81       -0.000  -0.000   0.000  -0.000
   82       -0.000  -0.000   0.000  -0.000
   83       -0.000  -0.000   0.000  -0.000
tot          -0.00    0.00   -0.00   -0.00