 vasp.5.4.4.18Apr17-6-g9f103f2a35 (build May 12 2020 04:58:55) complex

 MD_VERSION_INFO: Compiled 2020-05-12T11:58:55-UTC in devlin.sd.materialsdesign.
 com:/home/medea2/data/build/wwolf/vasp-gpu5.4.4/13047/x86_64/src/src/build/std
 from svn 13047

 executed on                        Lin64 date 2023.03.25  01:08:03

 INCAR:
 POTCAR:    PAW_PBE Ni 02Aug2007
 POTCAR:    PAW_PBE O 08Apr2002

 POTCAR:    PAW_PBE Ni 02Aug2007

 POTCAR:    PAW_PBE O 08Apr2002

 Optimization of the real space projectors (new method)

 maximal supplied QI-value         = 16.25
 optimisation between [QCUT,QGAM] = [ 11.38, 22.75] = [ 36.24,144.96] Ry
 Optimized for a Real-space Cutoff    1.47 Angstroem

   l    n(q)    QCUT    max X(q) W(low)/X(q) W(high)/X(q)  e(spline)
   2      9    11.376    60.317    0.17E-03    0.16E-04    0.16E-06
   2      9    11.376    55.921    0.17E-03    0.16E-04    0.17E-06
   0     10    11.376    51.690    0.45E-04    0.60E-04    0.21E-06
   0     10    11.376    30.015    0.37E-04    0.55E-04    0.19E-06
   1     10    11.376    18.849    0.83E-04    0.11E-03    0.92E-07
   1     10    11.376    14.624    0.69E-04    0.92E-04    0.82E-07
 Optimization of the real space projectors (new method)

 maximal supplied QI-value         = 24.76
 optimisation between [QCUT,QGAM] = [ 11.39, 22.77] = [ 36.31,145.25] Ry
 Optimized for a Real-space Cutoff    1.10 Angstroem

   l    n(q)    QCUT    max X(q) W(low)/X(q) W(high)/X(q)  e(spline)
   0      7    11.387    20.381    0.22E-03    0.48E-03    0.18E-06
   0      7    11.387    15.268    0.22E-03    0.52E-03    0.19E-06
   1      7    11.387     5.964    0.22E-03    0.73E-03    0.24E-06
   1      7    11.387     5.382    0.19E-03    0.60E-03    0.21E-06

  PAW_PBE Ni 02Aug2007                  :
  PAW_PBE O 08Apr2002                   :

 POSCAR: Ni2O3_Cmcm_scale_1_050_disp_0_15_round_2
  positions in direct lattice
 exchange correlation table for  LEXCH =       14
   RHO(1)=    0.500       N(1)  =     2000
   RHO(2)=  100.500       N(2)  =     4000

 ion  position               nearest neighbor table
   1  0.017  0.341  0.046-  62 1.87  56 1.92  52 2.17 104 2.51  15 2.73  17 2.81   7 2.90   2 3.02
                            47 3.03
   2  0.163  0.149  0.924-  55 1.73  51 1.97  79 2.47  74 2.48   8 2.93   1 3.02
   3  0.992  0.328  0.429-  58 1.70  53 2.01  61 2.10  57 2.21 105 2.37 109 2.46   6 2.51   4 2.81
                            19 2.82  35 3.00
   4  0.156  0.123  0.504-  57 1.75  49 1.83  58 1.97  73 2.01  54 2.05  82 2.24   6 2.74  22 2.75
                            19 2.80   3 2.81  20 3.02
   5  0.177  0.386  0.630-  59 1.54  90 1.73  82 2.09  58 2.33  66 2.34  21 2.92  28 3.00   8 3.02

   6  0.020  0.118  0.344-  60 1.69  57 1.95 105 2.33  65 2.44   3 2.51  22 2.72   4 2.74
   7  0.022  0.090  0.134-  60 1.87  56 1.95  64 2.39  50 2.47  23 2.62   1 2.90
   8  0.128  0.393  0.825-  63 1.60  59 1.75  55 1.86  87 2.12  79 2.42  10 2.80   2 2.93  26 2.94
                            40 2.99   5 3.02
   9  0.158  0.829  0.051-  64 1.79  68 2.10  92 2.18  50 2.39  74 2.43  25 3.01  15 3.08
  10  0.014  0.609  0.915-  63 1.81  67 1.96  62 2.27 115 2.29  26 2.59   8 2.80  16 2.85
  11  0.148  0.811  0.447-  69 1.81  70 1.90  65 1.97  49 2.12  93 2.20  73 2.32  12 2.47  28 2.77
                            13 2.78  29 2.98  27 3.00
  12  0.990  0.637  0.509-  69 1.74 118 1.95  61 2.15 109 2.33  70 2.47  11 2.47  66 2.52  13 2.69
                            28 2.84  43 2.85
  13  0.004  0.859  0.604-  71 2.06  49 2.20  70 2.24 118 2.39  54 2.48  12 2.69  11 2.78  29 2.93

  14  0.157  0.552  0.331-  72 1.48  53 1.71  77 1.86  69 2.08  93 2.32  61 2.32  30 2.73  19 2.94
                            15 3.03
  15  0.116  0.556  0.135-  52 1.37  68 1.97  76 2.08  72 2.12  62 2.19  47 2.70   1 2.73  14 3.03
                             9 3.08
  16  0.972  0.844  0.816-  71 1.61 115 1.92  67 2.29  10 2.85
  17  0.324  0.345  0.051-  76 1.82  80 1.99  56 2.06  62 2.23  86 2.28  23 2.75   1 2.81  33 3.04

  18  0.513  0.099  0.913-  75 1.90  98 2.03 103 2.04  34 2.40  74 2.40  79 2.52  48 2.91  24 3.04

  19  0.300  0.329  0.418-  57 1.69  77 1.78  81 1.97  82 2.16  85 2.29  61 2.31  22 2.77   4 2.80
                             3 2.82  20 2.90  30 2.94  14 2.94
  20  0.486  0.139  0.505-  81 1.63  97 1.89 106 1.94  82 2.18  78 2.21  73 2.33  38 2.84  22 2.87
                            19 2.90  21 2.96  36 2.96  35 3.00   4 3.02
  21  0.495  0.383  0.610-  83 1.66 114 1.85 106 2.04  82 2.16  90 2.17  85 2.24  44 2.73  37 2.87
                             5 2.92  20 2.96
  22  0.313  0.076  0.354-  57 1.90  84 2.03  89 2.15  65 2.18  73 2.21  81 2.33   6 2.72   4 2.75
                            19 2.77  20 2.87  27 3.00
  23  0.307  0.100  0.126-  84 1.86  56 1.90  80 1.91  74 2.20  88 2.41  64 2.45   7 2.62  17 2.75
                            39 2.79
  24  0.492  0.377  0.843-  79 1.54 103 1.77  87 1.92 111 2.09  83 2.11  86 2.36  42 2.80  40 2.84
                            18 3.04
  25  0.486  0.808  0.049-  92 1.64  88 1.72 116 1.98  31 2.34  74 2.50  41 2.85   9 3.01
  26  0.297  0.606  0.906-  87 1.67  67 1.93  91 2.34  62 2.48  10 2.59   8 2.94  32 3.01
  27  0.470  0.834  0.416-  89 1.60 117 2.03  93 2.06  94 2.23  73 2.37  30 2.98  11 3.00  22 3.00

[...]

  34  0.773  0.129  0.915-  99 1.90 103 2.00  98 2.12  18 2.40  33 3.00  40 3.01
  35  0.666  0.351  0.421- 101 2.01 109 2.06 106 2.10 105 2.11  81 2.14  85 2.37  46 2.59  44 2.84
                            38 2.90  20 3.00   3 3.00  30 3.08
  36  0.804  0.113  0.538- 102 1.61  97 2.07 106 2.18 105 2.20  20 2.96
  37  0.804  0.421  0.625- 114 1.50 107 1.88  66 1.97  44 2.78  21 2.87
  38  0.651  0.086  0.351- 108 1.80 105 1.81 113 2.06  81 2.30  97 2.36  89 2.51  20 2.84  35 2.90

  39  0.610  0.132  0.122-  80 1.66 108 1.86 104 1.96  98 2.10  33 2.17  23 2.79
  40  0.801  0.392  0.827- 107 1.72 111 1.93  63 1.99 103 2.21 110 2.41  24 2.84  42 2.85   8 2.99
                            34 3.01
  41  0.797  0.825  0.050- 112 1.71 116 2.19  68 2.32  50 2.41  25 2.85  47 3.02
  42  0.638  0.599  0.905- 111 1.65  91 1.85 110 2.18  86 2.21 115 2.26 116 2.52  24 2.80  40 2.85
                            48 2.90
  43  0.811  0.829  0.426- 113 1.78 117 2.02 118 2.06  12 2.85  46 3.04
  44  0.630  0.582  0.522- 114 1.89  85 1.99 109 2.06  94 2.18 117 2.22 118 2.26  21 2.73  37 2.78
                            35 2.84  46 3.01  28 3.05
  45  0.639  0.868  0.619- 119 1.80 102 2.18  78 2.22  94 2.25  97 2.36 118 2.43  29 2.88
  46  0.796  0.552  0.353- 109 1.76 120 1.92 101 1.99 117 2.26  53 2.45  35 2.59  44 3.01  43 3.04

  47  0.821  0.552  0.124- 120 2.00  52 2.05 100 2.12  68 2.24 116 2.27 110 2.51  15 2.70  41 3.02
                             1 3.03
  48  0.625  0.861  0.832-  91 1.85 119 1.87  99 2.17  75 2.19 115 2.28  32 2.73  42 2.90  18 2.91

  49  0.034  0.982  0.488-   4 1.83  11 2.12  13 2.20
  50  0.978  0.976  0.994-   9 2.39  41 2.41   7 2.47
  51  0.167  0.034  0.821-   2 1.97  32 2.17
  52  0.014  0.466  0.161-  15 1.37  47 2.05   1 2.17
  53  0.024  0.436  0.321-  14 1.71   3 2.01  46 2.45
  54  0.194  0.031  0.621-   4 2.05  29 2.10  13 2.48
  55  0.034  0.257  0.884-   2 1.73   8 1.86
  56  0.160  0.217  0.086-  23 1.90   1 1.92   7 1.95  17 2.06
  57  0.184  0.202  0.404-  19 1.69   4 1.75  22 1.90   6 1.95   3 2.21
  58  0.028  0.273  0.532-   3 1.70   4 1.97   5 2.33
  59  0.152  0.324  0.721-   5 1.54   8 1.75
  60  0.980  0.168  0.241-   6 1.69   7 1.87
  61  0.132  0.477  0.473-  28 2.07   3 2.10  12 2.15  19 2.31  14 2.32
  62  0.141  0.472  0.004-   1 1.87  15 2.19  17 2.23  10 2.27  26 2.48
  63  0.990  0.489  0.828-   8 1.60  10 1.81  40 1.99
  64  0.169  0.900  0.157-   9 1.79   7 2.39  23 2.45
  65  0.159  0.914  0.338-  11 1.97  22 2.18   6 2.44
  66  0.979  0.526  0.655-  37 1.97   5 2.34  12 2.52
  67  0.158  0.748  0.894-  26 1.93  10 1.96  32 2.26  16 2.29
  68  0.995  0.688  0.075-  15 1.97   9 2.10  47 2.24  41 2.32
  69  0.032  0.683  0.402-  12 1.74  11 1.81  14 2.08
  70  0.208  0.758  0.560-  29 1.66  11 1.90  28 1.94  13 2.24  12 2.47
  71  0.982  0.770  0.724-  16 1.61  13 2.06
  72  0.179  0.641  0.255-  14 1.48  15 2.12
  73  0.305  0.981  0.484-   4 2.01  22 2.21  29 2.25  11 2.32  20 2.33  27 2.37
  74  0.329  0.995  0.001-  23 2.20  18 2.40   9 2.43   2 2.48  25 2.50
  75  0.485  0.029  0.800-  18 1.90  32 2.17  48 2.19
  76  0.291  0.428  0.154-  17 1.82  15 2.08
  77  0.325  0.449  0.335-  30 1.65  19 1.78  14 1.86
  78  0.499  0.045  0.635-  20 2.21  45 2.22  29 2.49
  79  0.358  0.289  0.862-  24 1.54   8 2.42   2 2.47  18 2.52
  80  0.464  0.201  0.078-  39 1.66  23 1.91  17 1.99  33 2.11
  81  0.480  0.224  0.414-  20 1.63  19 1.97  35 2.14  38 2.30  22 2.33
  82  0.317  0.272  0.554-   5 2.09  19 2.16  21 2.16  20 2.18   4 2.24
  83  0.486  0.321  0.710-  21 1.66  24 2.11
  84  0.321  0.169  0.237-  23 1.86  22 2.03
  85  0.466  0.472  0.477-  44 1.99  28 2.09  30 2.16  21 2.24  19 2.29  35 2.37
  86  0.501  0.467  0.985-  42 2.21  17 2.28  33 2.34  24 2.36
  87  0.330  0.496  0.828-  26 1.67  24 1.92   8 2.12
  88  0.468  0.913  0.136-  25 1.72  23 2.41
  89  0.458  0.915  0.327-  27 1.60  22 2.15  38 2.51
  90  0.305  0.510  0.619-   5 1.73  28 1.82  21 2.17
  91  0.507  0.730  0.876-  48 1.85  42 1.85  26 2.34  32 2.35
  92  0.351  0.704  0.062-  25 1.64  31 1.79   9 2.18
  93  0.326  0.679  0.407-  28 1.88  30 1.91  27 2.06  11 2.20  14 2.32
  94  0.477  0.741  0.548-  29 2.07  44 2.18  27 2.23  28 2.24  45 2.25
  95  0.323  0.778  0.709-  29 1.77  32 2.08
  96  0.479  0.619  0.245-  30 1.72  31 1.84
  97  0.627  0.004  0.495-  20 1.89  36 2.07  38 2.36  45 2.36
  98  0.646  0.024  0.007-  18 2.03  39 2.10  34 2.12
  99  0.772  0.025  0.813-  34 1.90  48 2.17
 100  0.616  0.467  0.155-  31 1.98  47 2.12  33 2.26
 101  0.631  0.445  0.307-  46 1.99  35 2.01  30 2.09
 102  0.788  0.034  0.628-  36 1.61  45 2.18
 103  0.626  0.262  0.875-  24 1.77  34 2.00  18 2.04  40 2.21
 104  0.794  0.207  0.079-  33 1.72  39 1.96   1 2.51
 105  0.795  0.182  0.402-  38 1.81  35 2.11  36 2.20   6 2.33   3 2.37
 106  0.634  0.262  0.543-  20 1.94  21 2.04  35 2.10  36 2.18
 107  0.788  0.319  0.726-  40 1.72  37 1.88
 108  0.623  0.150  0.243-  38 1.80  39 1.86
 109  0.807  0.496  0.461-  46 1.76  44 2.06  35 2.06  12 2.33   3 2.46
 110  0.765  0.453  0.977-  33 2.10  42 2.18  40 2.41  47 2.51
 111  0.648  0.519  0.811-  42 1.65  40 1.93  24 2.09
 112  0.777  0.900  0.149-  41 1.71
 113  0.756  0.910  0.329-  43 1.78  38 2.06
 114  0.658  0.488  0.627-  37 1.50  21 1.85  44 1.89
 115  0.822  0.738  0.871-  16 1.92  42 2.26  48 2.28  10 2.29
 116  0.635  0.669  0.063-  31 1.83  25 1.98  41 2.19  47 2.27  42 2.52
 117  0.641  0.708  0.403-  43 2.02  27 2.03  44 2.22  46 2.26  30 2.43
 118  0.812  0.729  0.543-  12 1.95  43 2.06  44 2.26  13 2.39  45 2.43
 119  0.650  0.784  0.722-  45 1.80  48 1.87
 120  0.783  0.633  0.240-  46 1.92  47 2.00

  LATTYP: Found a simple orthorhombic cell.
 ALAT       =     9.1436835000
 B/A-ratio  =     1.1146370060
 C/A-ratio  =     1.6738812646

  Lattice vectors:

[...]
   0.109E+03 -.511E+01 0.158E+03   -.113E+03 0.741E+01 -.171E+03   0.434E+01 -.312E+01 0.148E+02   0.183E-01 -.150E-01 -.343E-03
   0.242E+03 0.247E+03 -.161E+03   -.270E+03 -.285E+03 0.188E+03   0.108E+02 0.224E+02 -.217E+02   0.391E-01 0.598E-02 -.125E+00
   0.194E+03 0.146E+03 0.306E+03   -.205E+03 -.159E+03 -.320E+03   0.773E+01 0.109E+02 0.149E+02   0.181E+00 0.107E+00 -.439E-01
   0.951E+02 -.109E+03 -.449E+03   -.953E+02 0.116E+03 0.461E+03   -.557E+00 -.840E+01 -.130E+02   -.584E-01 0.824E-01 0.116E+00
   0.187E+03 0.163E+03 0.802E+02   -.205E+03 -.163E+03 -.829E+02   0.174E+02 0.725E+00 0.352E+01   0.570E-01 0.491E-01 -.656E-01
   0.891E+02 0.610E+02 0.991E+01   -.884E+02 -.575E+02 -.768E+01   -.129E+01 -.386E+01 -.322E+01   -.356E-01 0.525E-02 -.157E+00
   0.993E+02 0.274E+02 0.233E+03   -.105E+03 -.244E+02 -.244E+03   0.389E+01 -.479E+01 0.721E+01   0.156E+00 0.401E-01 0.136E+00
   0.158E+03 0.708E+02 -.392E+03   -.160E+03 -.686E+02 0.411E+03   0.126E+01 -.443E+01 -.169E+02   0.137E+00 -.570E-01 0.230E+00
   0.732E+02 0.315E+03 -.136E+03   -.748E+02 -.337E+03 0.147E+03   0.110E+01 0.205E+02 -.574E+01   0.302E-02 0.514E-01 -.136E-01
   0.152E+03 -.411E+02 0.174E+03   -.160E+03 0.549E+02 -.180E+03   0.853E+01 -.149E+02 0.494E+01   0.462E-01 0.123E-01 -.121E+00
[...]
   -.824E+02 0.307E+03 -.292E+01   0.783E+02 -.327E+03 -.313E+01   0.446E+01 0.211E+02 0.443E+01   0.270E-01 -.636E-02 0.210E+00
   -.783E+02 -.317E+02 0.103E+03   0.769E+02 0.404E+02 -.103E+03   0.144E+01 -.936E+01 0.851E-01   0.136E-02 -.275E-01 0.395E-01
   -.111E+03 0.442E+02 -.105E+03   0.121E+03 -.463E+02 0.119E+03   -.103E+02 0.745E+00 -.133E+02   0.136E-01 0.545E-01 0.195E+00
   -.141E+03 -.137E+02 -.524E+01   0.144E+03 0.148E+02 0.589E+01   -.223E+01 -.126E+01 -.489E+00   0.174E+00 0.948E-01 -.261E+00
   -.147E+02 -.126E+03 0.267E+03   0.121E+02 0.131E+03 -.295E+03   0.238E+01 -.782E+01 0.264E+02   0.114E+00 0.936E-02 -.608E-02
   -.650E+02 -.634E+02 -.216E+03   0.623E+02 0.701E+02 0.235E+03   0.282E+01 -.669E+01 -.200E+02   0.114E+00 -.511E-01 -.221E+00
   -.102E+03 0.135E+02 0.377E+03   0.996E+02 -.158E+02 -.396E+03   0.229E+01 0.327E+01 0.209E+02   0.626E-01 0.619E-01 -.871E-02
   0.555E+02 -.216E+03 -.342E+03   -.735E+02 0.235E+03 0.359E+03   0.937E+01 -.149E+02 -.188E+02   -.141E+00 0.916E-01 0.130E+00
   -.143E+02 -.542E+02 -.152E+02   0.944E+01 0.496E+02 0.155E+02   0.494E+01 0.502E+01 0.583E+00   0.454E-01 0.330E-02 -.721E-01
   -.176E+03 -.751E+02 0.405E+02   0.187E+03 0.673E+02 -.459E+02   -.104E+02 0.894E+01 0.438E+01   0.373E+00 0.154E+00 -.339E+00
   -.606E+02 -.939E+02 0.189E+03   0.597E+02 0.908E+02 -.195E+03   0.601E+00 0.256E+01 0.607E+01   0.113E+00 -.139E-01 0.202E+00
   0.410E+02 -.846E+02 -.266E+03   -.484E+02 0.836E+02 0.275E+03   0.797E+01 0.196E+01 -.103E+02   -.252E-01 0.720E-01 0.249E+00
   -.647E+02 0.119E+03 -.601E+02   0.681E+02 -.135E+03 0.611E+02   -.366E+01 0.181E+02 -.166E+01   0.249E-01 0.863E-01 0.176E+00
   -.510E+02 -.235E+03 0.112E+03   0.459E+02 0.249E+03 -.114E+03   0.597E+01 -.148E+02 0.259E+01   0.183E+00 0.453E-01 -.101E+00
   -.978E+02 -.526E+02 -.660E+02   0.303E-11 0.369E-12 -.469E-12   0.987E+02 0.527E+02 0.647E+02   -.868E+00 -.385E-01 0.119E+01

 POSITION                                       TOTAL-FORCE (eV/Angst)
      0.15131      3.47851      0.70062        -0.692700      0.182270      0.289552
      1.49337      1.51961     14.13895         0.670201     -2.994591     -1.001050
      9.07330      3.33957      6.56778         0.079727      2.927588     -1.994166
      1.42927      1.25428      7.71350         1.439935     -1.604690      5.462688
      1.61669      3.93354      9.64283        -0.792119      2.004033     -6.093447
      0.18145      1.20308      5.27049        -0.407360     -1.060227      0.408531
      0.19814      0.91518      2.04620        -0.276246     -0.079166      0.293849
      1.17138      4.00311     12.62466         4.561515     -3.589972     -0.151053
      1.44448      8.44418      0.77841        -0.627891      0.564631      0.128766
      0.12707      6.20807     14.00005        -0.222932      0.276102      0.526089
      1.35066      8.26748      6.84374         0.785675      3.393722     -2.322308
      9.05394      6.49555      7.78684        -0.965112     -2.473339      2.039021
      0.03239      8.75561      9.24348         0.168436      0.132593      1.021819
      1.43897      5.62612      5.06540        -0.490603     -4.342827      8.687903
      1.06476      5.66560      2.06126        16.638694     14.828934     -6.411279
      8.88383      8.59693     12.49539        -0.680105      1.266632      3.090274
      2.95989      3.51713      0.77813         0.156502      1.022853      0.342210
      4.69262      1.00894     13.97715        -0.720852     -0.606322     -0.227002
      2.74275      3.35480      6.40477         2.626081      2.907634      2.552266
      4.44795      1.42080      7.72404        -0.093816     -3.265086      7.395431
      4.52311      3.90512      9.33047        -1.239470     -0.010089     -1.355736
      2.86539      0.77073      5.42409         0.486581     -2.226666     -2.317370
      2.81092      1.01586      1.92121         0.808197     -2.022179      0.728429
      4.49787      3.84159     12.89692         3.940029      5.926354     -2.786240
      4.44352      8.23210      0.74492         2.754396      4.319545     -0.616795
      2.71546      6.18102     13.86258         0.014442      1.882284      1.584399
      4.30200      8.49876      6.36890         0.581527     -2.845103      4.258561
      2.72290      6.10275      7.89321         1.599293     -0.698240      0.841226
      2.96206      8.78132      9.29809         2.492094      3.967783      1.653990
      4.15160      5.70507      5.33610         4.449401      1.441664      0.078081
      4.36688      6.20368      1.90701         0.764562     -3.993064      2.490884
      2.98465      8.93232     12.66947        -0.661165      0.991730     -1.579317
      5.97671      3.18004      0.79207        -0.432834      4.692832     -1.832378
      7.06980      1.31910     14.01126        -0.148234     -1.332876     -0.537914
      6.08624      3.57653      6.43812        -0.833501     -0.405257     -0.013490
      7.35482      1.14968      8.23356        -0.823115      1.196458     -3.590284
      7.35536      4.29502      9.56063        10.293949     -3.517450      2.137620
      5.95150      0.87957      5.37902        -0.086563     -1.885645     -1.673130
      5.58218      1.34087      1.87271         3.184414     -3.588431      2.951960
      7.32589      3.99096     12.65453        -0.224087      0.563783      1.080247
      7.29098      8.41210      0.76035         0.608683      0.620326      0.488316
      5.83806      6.10059     13.85336         0.405758      0.619497      3.977808
      7.41313      8.45232      6.52408        -1.497196     -0.400906     -0.320666
      5.76207      5.93292      7.98458         1.028431      2.051326     -0.693929
      5.83884      8.84612      9.47707        -0.180082      0.929754      0.325186
      7.27909      5.62833      5.40324        -0.815246      1.233127     -4.225708
      7.51038      5.62339      1.89140        -1.276360      0.715870      1.419586
      5.71256      8.77591     12.73114         1.138506      1.127426     -1.792927
      0.31379     10.01178      7.46373        -1.779858     -1.083438      0.022065
      8.94197      9.94260     15.20689         0.186267     -0.351557      1.204295
      1.52980      0.34354     12.56275         0.597571     -0.828452      1.931815
      0.12544      4.75016      2.46470       -17.039101    -15.354462      5.293625
      0.22342      4.43890      4.90625        -2.434892     -1.372017      0.770993
      1.77276      0.31206      9.50150        -0.805231     -1.169798     -0.862890
      0.31545      2.62183     13.52340        -0.492539      0.498253      0.743110
      1.45843      2.21011      1.32019        -0.564400     -0.397623     -1.147235
      1.68154      2.05475      6.17790        -1.592725     -1.750121     -2.851423
      0.25816      2.77876      8.14057        -0.691765     -2.280770      1.910351
      1.39207      3.30575     11.02936        -0.523131     -2.068152      4.988806
      8.96493      1.71616      3.69581         0.298479     -1.060319     -1.780152
[...]
      5.80136      2.67535      8.31458         0.168583      0.137999     -0.581468
      7.20896      3.24658     11.10850         0.427944      0.875504     -1.406431
      5.69482      1.52462      3.71564         0.079232     -0.660441     -0.377361
      7.37679      5.05628      7.06295        -0.529133     -1.338005      1.017364
      6.99653      4.62029     14.95929         0.701590     -0.050440     -0.100721
      5.92875      5.29361     12.41579        -0.088028     -2.794179     -1.293160
      7.10241      9.17428      2.28054         0.235095      0.016907     -0.957980
      6.90840      9.27927      5.03417         0.404138      1.038171      1.681246
      6.01555      4.97048      9.59650        -8.787826      4.828657     -0.691507
      7.51994      7.52065     13.32396         0.164857      0.389959      0.884373
      5.81026      6.81443      0.96337         1.410994      1.308159     -1.385261
      5.85911      7.21197      6.17197        -0.171748     -0.561349      0.884894
      7.42781      7.42577      8.31238         0.481167      1.020117     -0.837817
      5.94131      7.99032     11.05266        -0.227683      1.646425     -0.437141
      7.15910      6.45401      3.67842         1.012923     -1.531874      0.325760
    total drift:                               -0.006109      0.016421     -0.024507

  FREE ENERGIE OF THE ION-ELECTRON SYSTEM (eV)
  free  energy   TOTEN  =      -671.0676423666 eV

  energy  without entropy=     -670.9263068373  energy(sigma->0) =     -670.99697460

volume of typ            1:    21.4 %

volume of typ            2:     8.2 %

total charge

# of ion       s       p       d       tot
    1        0.197   0.174   7.941   8.312
    2        0.222   0.192   7.895   8.309
    3        0.232   0.251   7.936   8.419
    4        0.263   0.327   7.867   8.457
    5        0.307   0.361   7.889   8.557
    6        0.233   0.223   7.923   8.378
    7        0.193   0.164   7.882   8.239
    8        0.304   0.368   7.901   8.573
    9        0.207   0.184   7.838   8.229
   10        0.204   0.195   7.893   8.292
   11        0.243   0.278   7.876   8.397
   12        0.236   0.239   7.930   8.405
   13        0.165   0.127   7.899   8.191
   14        0.362   0.469   7.903   8.735
   15        0.355   0.430   8.022   8.808
   16        0.253   0.240   7.886   8.379
   17        0.212   0.204   7.881   8.298
   18        0.219   0.196   7.855   8.270
   19        0.259   0.310   7.927   8.496
   20        0.273   0.329   7.881   8.483
   21        0.262   0.305   7.856   8.422
   22        0.201   0.201   7.886   8.289
   23        0.225   0.244   7.856   8.325
   24        0.310   0.405   7.887   8.601
   25        0.295   0.324   7.928   8.547
   26        0.246   0.239   7.904   8.388
   27        0.260   0.285   7.897   8.441
   28        0.242   0.291   7.869   8.402
   29        0.273   0.314   7.853   8.441
   30        0.291   0.359   7.890   8.540
   31        0.258   0.306   7.881   8.445
   32        0.176   0.135   7.850   8.161
   33        0.241   0.245   7.915   8.400
   34        0.200   0.175   7.878   8.252
   35        0.202   0.200   7.893   8.296
   36        0.247   0.251   7.906   8.404
   37        0.316   0.343   7.949   8.608
   38        0.232   0.240   7.850   8.322
   39        0.271   0.324   7.896   8.491
   40        0.243   0.249   7.869   8.360
   41        0.218   0.186   7.854   8.258
   42        0.257   0.276   7.886   8.419
   43        0.223   0.202   7.880   8.306
   44        0.208   0.219   7.881   8.307
   45        0.206   0.184   7.826   8.216
   46        0.236   0.255   7.874   8.365
   47        0.189   0.164   7.865   8.219
   48        0.223   0.220   7.853   8.296
   49        1.287   2.679   0.005   3.972
   50        1.293   2.598   0.001   3.892
   51        1.297   2.601   0.003   3.900
   52        1.310   2.795   0.028   4.133
   53        1.284   2.703   0.007   3.994
   54        1.302   2.599   0.003   3.903
   55        1.281   2.715   0.008   4.004
   56        1.270   2.735   0.008   4.013
   57        1.265   2.830   0.017   4.112
   58        1.281   2.723   0.008   4.011
   59        1.291   2.759   0.016   4.066
   60        1.279   2.708   0.008   3.995
[...]
  106        1.289   2.685   0.005   3.979
  107        1.289   2.683   0.008   3.980
  108        1.283   2.677   0.006   3.966
  109        1.280   2.727   0.008   4.014
  110        1.291   2.631   0.002   3.924
  111        1.287   2.723   0.011   4.020
  112        1.306   2.612   0.006   3.924
  113        1.297   2.638   0.005   3.940
  114        1.286   2.807   0.020   4.113
  115        1.284   2.656   0.003   3.943
  116        1.278   2.708   0.006   3.993
  117        1.289   2.664   0.004   3.957
  118        1.276   2.683   0.004   3.963
  119        1.290   2.661   0.006   3.957
  120        1.295   2.619   0.004   3.918
tot         104.45  205.76  379.17  689.37

magnetization (x)

# of ion       s       p       d       tot
    1        0.005   0.006   0.760   0.770
    2       -0.001   0.002   0.628   0.628
    3        0.006   0.003   0.601   0.610
    4       -0.002   0.000  -0.129  -0.131
    5        0.002   0.002   0.346   0.351
    6        0.008   0.014   1.117   1.139
    7        0.003   0.005   1.195   1.203
    8       -0.003  -0.002   0.090   0.085
    9        0.004   0.012   1.298   1.315
   10        0.004   0.007   1.074   1.085
   11        0.001   0.003   0.630   0.634
   12        0.004   0.003   0.427   0.434
   13        0.001   0.002   1.217   1.219
   14        0.001   0.005   0.402   0.407
   15        0.002   0.001  -0.343  -0.339
   16        0.010   0.012   1.079   1.100
   17       -0.002  -0.011  -0.982  -0.995
   18        0.001   0.013   1.317   1.330
   19        0.001  -0.002  -0.199  -0.200
   20       -0.003  -0.006  -0.300  -0.309
   21        0.001   0.004   0.768   0.774
   22       -0.003   0.002   0.499   0.498
   23       -0.002  -0.003   0.214   0.208
   24        0.003   0.005   0.515   0.523
   25        0.004   0.006   0.551   0.561
   26        0.019   0.021   1.204   1.244
   27        0.011   0.010   0.647   0.668
   28       -0.001   0.003  -0.356  -0.354
   29       -0.003  -0.000   0.638   0.634
   30       -0.001   0.003   0.327   0.328
   31        0.002   0.001   0.078   0.081
   32       -0.005   0.007   1.378   1.380
   33       -0.001   0.001   0.698   0.699
   34        0.000   0.011   1.396   1.407
   35        0.004   0.004   0.677   0.685
   36        0.004   0.008   0.751   0.762
   37        0.001  -0.008  -0.206  -0.213
   38        0.001   0.004   0.893   0.898
   39       -0.001   0.000   0.567   0.566
   40       -0.002  -0.006  -0.589  -0.597
   41        0.006   0.019   1.404   1.429
   42        0.000  -0.002  -0.149  -0.151
   43        0.012   0.006   1.027   1.044
   44       -0.002  -0.001  -0.657  -0.659
   45       -0.002   0.008   1.310   1.316
   46       -0.000   0.001   0.631   0.632
   47       -0.003   0.003   0.967   0.968
   48       -0.005  -0.000   0.086   0.080
   49        0.004   0.166   0.000   0.171
   50        0.010   0.436   0.000   0.446
   51        0.012   0.515  -0.000   0.526
   52        0.001  -0.039  -0.000  -0.038
   53        0.004   0.118   0.000   0.122
   54        0.010   0.443   0.000   0.452
   55        0.002   0.101  -0.000   0.103
   56        0.004   0.074   0.000   0.078
   57        0.003   0.028   0.000   0.031
   58        0.003   0.106   0.000   0.109
   59        0.004   0.128   0.000   0.132
   60        0.012   0.470  -0.000   0.482
[...]
  106        0.002   0.061   0.000   0.063
  107       -0.002  -0.121  -0.000  -0.123
  108        0.012   0.450   0.000   0.463
  109        0.000   0.028   0.000   0.029
  110        0.002   0.087   0.000   0.089
  111       -0.002  -0.052  -0.000  -0.054
  112        0.016   0.819  -0.000   0.835
  113        0.012   0.527  -0.000   0.539
  114        0.000  -0.009  -0.000  -0.009
  115        0.003   0.022   0.000   0.026
  116        0.006   0.135   0.000   0.141
  117        0.005   0.105   0.000   0.110
  118        0.003   0.089   0.000   0.092
  119        0.010   0.489  -0.000   0.499
  120        0.012   0.514  -0.000   0.526
tot           0.49   15.51   25.50   41.50