 vasp.5.4.4.18Apr17-6-g9f103f2a35 (build May 12 2020 04:58:55) complex

 MD_VERSION_INFO: Compiled 2020-05-12T11:58:55-UTC in devlin.sd.materialsdesign.
 com:/home/medea2/data/build/wwolf/vasp-gpu5.4.4/13047/x86_64/src/src/build/std
 from svn 13047

 executed on                        Lin64 date 2023.03.25  11:43:53

 INCAR:
 POTCAR:    PAW_PBE Ni 02Aug2007
 POTCAR:    PAW_PBE O 08Apr2002

 POTCAR:    PAW_PBE Ni 02Aug2007

 POTCAR:    PAW_PBE O 08Apr2002

 Optimization of the real space projectors (new method)

 maximal supplied QI-value         = 16.25
 optimisation between [QCUT,QGAM] = [ 11.38, 22.75] = [ 36.24,144.96] Ry
 Optimized for a Real-space Cutoff    1.47 Angstroem

   l    n(q)    QCUT    max X(q) W(low)/X(q) W(high)/X(q)  e(spline)
   2      9    11.376    60.317    0.17E-03    0.16E-04    0.16E-06
   2      9    11.376    55.921    0.17E-03    0.16E-04    0.17E-06
   0     10    11.376    51.690    0.45E-04    0.60E-04    0.21E-06
   0     10    11.376    30.015    0.37E-04    0.55E-04    0.19E-06
   1     10    11.376    18.849    0.83E-04    0.11E-03    0.92E-07
   1     10    11.376    14.624    0.69E-04    0.92E-04    0.82E-07
 Optimization of the real space projectors (new method)

 maximal supplied QI-value         = 24.76
 optimisation between [QCUT,QGAM] = [ 11.39, 22.77] = [ 36.31,145.25] Ry
 Optimized for a Real-space Cutoff    1.10 Angstroem

   l    n(q)    QCUT    max X(q) W(low)/X(q) W(high)/X(q)  e(spline)
   0      7    11.387    20.381    0.22E-03    0.48E-03    0.18E-06
   0      7    11.387    15.268    0.22E-03    0.52E-03    0.19E-06
   1      7    11.387     5.964    0.22E-03    0.73E-03    0.24E-06
   1      7    11.387     5.382    0.19E-03    0.60E-03    0.21E-06

  PAW_PBE Ni 02Aug2007                  :
  PAW_PBE O 08Apr2002                   :

 POSCAR: Ni2O3_Cc_scale_1_050_disp_0_20_round_1
  positions in direct lattice
 exchange correlation table for  LEXCH =       14
   RHO(1)=    0.500       N(1)  =     2000
   RHO(2)=  100.500       N(2)  =     4000

 ion  position               nearest neighbor table
   1  0.820  0.425  0.224-  38 1.67  60 1.73  33 2.07   8 2.87
   2  0.711  0.174  0.258-  36 1.81  40 1.85  37 1.95  38 2.31  15 2.82
   3  0.405  0.303  0.985-  35 1.64  54 2.23  40 2.28  39 2.41   8 2.94
   4  0.242  0.041  0.982-  39 1.94  55 2.07  59 2.18  58 2.44
   5  0.385  0.191  0.247-  42 1.53  44 1.67  39 1.88  37 2.23   6 3.01
   6  0.250  0.422  0.244-  68 1.50  67 1.90  42 1.92  34 2.26   5 3.01  28 3.07
   7  0.884  0.067  0.022-  41 1.46  48 2.38   8 2.95
   8  0.715  0.279  0.009-  41 1.68  33 1.90  40 2.28  49 2.30   1 2.87   3 2.94   7 2.95
   9  0.895  0.423  0.686-  45 1.17  50 1.69  79 2.16  16 2.52  31 2.65  14 2.78
  10  0.725  0.223  0.768-  49 1.61  50 2.05  48 2.28  11 3.07
  11  0.426  0.293  0.512-  47 1.70  51 1.87  52 2.10  42 2.25  28 2.87  10 3.07
  12  0.263  0.055  0.484-  51 1.45  43 1.68  71 2.24  70 2.38  13 2.85
  13  0.367  0.177  0.713-  56 1.62  54 1.85  49 2.18  51 2.27  12 2.85
  14  0.195  0.430  0.717-  79 1.34  54 1.90  46 1.99   9 2.78  31 3.07
  15  0.885  0.043  0.482-  53 1.73  36 2.08  70 2.22   2 2.82
  16  0.724  0.304  0.490-  45 1.69  37 1.85  52 1.88  53 2.19   9 2.52  31 2.93
  17  0.889  0.892  0.268-  62 1.25  36 2.04  57 2.16  24 3.06
  18  0.723  0.663  0.278-  61 1.52  60 1.72  77 2.21  62 2.23  64 2.34  32 2.51  31 2.78  21 2.88

  19  0.362  0.770  0.985-  59 1.52  64 1.75  63 2.18  78 2.48  21 2.71  20 3.03
  20  0.276  0.533  0.025-  63 1.54  34 1.83  35 1.87  21 2.46  19 3.03
  21  0.389  0.678  0.194-  63 1.27  61 1.85  68 2.35  66 2.40  20 2.46  19 2.71  18 2.88
  22  0.246  0.926  0.245-  66 1.94  44 2.05  58 2.13  27 3.08
  23  0.878  0.528  0.012-  33 1.83  65 2.18  34 2.40
  24  0.695  0.771  0.012-  57 1.46  64 1.94  65 2.01  73 2.33  17 3.06
  25  0.900  0.935  0.724-  69 1.80  55 2.04  48 2.09  74 2.49  26 2.96
  26  0.720  0.723  0.690-  74 1.39  76 1.49  72 2.05  73 2.27  25 2.96  32 3.01
  27  0.350  0.759  0.467-  66 1.76  75 1.90  71 2.00  76 2.44  22 3.08
  28  0.250  0.501  0.477-  47 1.71  67 2.01  75 2.01  46 2.33  11 2.87   6 3.07
  29  0.411  0.677  0.723-  80 1.54  73 1.74  75 1.94  78 2.07
  30  0.256  0.911  0.716-  78 2.10  70 2.18  55 2.32  56 2.37
  31  0.876  0.518  0.487-  46 1.74  77 1.84  60 1.88  45 1.95   9 2.65  18 2.78  16 2.93  14 3.07

  32  0.716  0.764  0.452-  77 1.64  61 1.67  69 1.88  76 2.28  18 2.51  26 3.01
  33  0.745  0.439  0.035-  23 1.83   8 1.90   1 2.07
  34  0.119  0.459  0.034-  20 1.83   6 2.26  23 2.40
  35  0.426  0.416  0.069-   3 1.64  20 1.87
  36  0.770  0.025  0.286-   2 1.81  17 2.04  15 2.08
  37  0.615  0.281  0.316-  16 1.85   2 1.95   5 2.23
  38  0.910  0.307  0.308-   1 1.67   2 2.31
  39  0.286  0.185  0.070-   5 1.88   4 1.94   3 2.41
  40  0.598  0.165  0.083-   2 1.85   8 2.28   3 2.28
  41  0.857  0.189  0.026-   7 1.46   8 1.68
  42  0.314  0.268  0.303-   5 1.53   6 1.92  11 2.25
  43  0.098  0.053  0.337-  12 1.68
  44  0.410  0.052  0.285-   5 1.67  22 2.05
  45  0.806  0.424  0.576-   9 1.17  16 1.69  31 1.95
  46  0.065  0.468  0.533-  31 1.74  14 1.99  28 2.33
  47  0.433  0.434  0.548-  11 1.70  28 1.71
  48  0.818  0.039  0.811-  25 2.09  10 2.28   7 2.38
  49  0.591  0.270  0.792-  10 1.61  13 2.18   8 2.30
  50  0.909  0.316  0.783-   9 1.69  10 2.05
  51  0.293  0.177  0.508-  12 1.45  11 1.87  13 2.27
  52  0.617  0.199  0.532-  16 1.88  11 2.10
  53  0.916  0.182  0.539-  15 1.73  16 2.19
  54  0.293  0.285  0.776-  13 1.85  14 1.90   3 2.23
  55  0.119  0.008  0.790-  25 2.04   4 2.07  30 2.32
  56  0.438  0.067  0.806-  13 1.62  30 2.37
  57  0.769  0.882  0.064-  24 1.46  17 2.16
  58  0.106  0.909  0.044-  22 2.13   4 2.44
  59  0.398  0.892  0.032-  19 1.52   4 2.18
  60  0.809  0.529  0.316-  18 1.72   1 1.73  31 1.88
  61  0.606  0.688  0.318-  18 1.52  32 1.67  21 1.85
  62  0.878  0.786  0.256-  17 1.25  18 2.23
  63  0.287  0.653  0.078-  21 1.27  20 1.54  19 2.18
  64  0.556  0.711  0.063-  19 1.75  24 1.94  18 2.34
  65  0.913  0.706  0.071-  24 2.01  23 2.18
  66  0.288  0.770  0.307-  27 1.76  22 1.94  21 2.40
  67  0.107  0.473  0.289-   6 1.90  28 2.01
  68  0.376  0.513  0.294-   6 1.50  21 2.35
  69  0.767  0.888  0.562-  25 1.80  32 1.88
  70  0.089  0.938  0.513-  30 2.18  15 2.22  12 2.38
  71  0.441  0.917  0.526-  27 2.00  12 2.24
  72  0.741  0.561  0.762-  26 2.05
  73  0.597  0.743  0.798-  29 1.74  26 2.27  24 2.33
  74  0.882  0.736  0.782-  26 1.39  25 2.49
  75  0.271  0.661  0.540-  27 1.90  29 1.94  28 2.01
  76  0.618  0.677  0.558-  26 1.49  32 2.28  27 2.44
  77  0.862  0.675  0.487-  32 1.64  31 1.84  18 2.21
  78  0.240  0.739  0.754-  29 2.07  30 2.10  19 2.48
  79  0.136  0.490  0.774-  14 1.34   9 2.16
  80  0.449  0.552  0.768-  29 1.54

  LATTYP: Found a simple monoclinic cell.
 ALAT       =    16.7450373351
 B/A-ratio  =     0.6987547872
 C/A-ratio  =     1.5833429410
 COS(beta)  =    -0.9717709890

  Lattice vectors:

 A1 = ( -13.0139522300,   0.0000000000, -10.5372350600)
 A2 = (   0.0000000000, -11.7006750000,   0.0000000000)
 A3 = (  16.0876699600,   0.0000000000,  21.0744701200)

Analysis of symmetry for initial positions (statically):
 Subroutine PRICEL returns:
 Original cell was already a primitive cell.

 Routine SETGRP: Setting up the symmetry group for a
 simple monoclinic supercell.

 Subroutine GETGRP returns: Found  1 space group operations
 (whereof  1 operations were pure point group operations)
 out of a pool of  4 trial point group operations.

The static configuration has the point symmetry C_1 .

Analysis of symmetry for dynamics (positions and initial velocities):
 Subroutine PRICEL returns:
 Original cell was already a primitive cell.

[...]

The dynamic configuration has the point symmetry C_1 .

Analysis of structural, dynamic, and magnetic symmetry:
 Subroutine PRICEL returns:
 Original cell was already a primitive cell.

 Routine SETGRP: Setting up the symmetry group for a
 simple monoclinic supercell.

 Subroutine GETGRP returns: Found  1 space group operations
 (whereof  1 operations were pure point group operations)
 out of a pool of  4 trial point group operations.

The magnetic configuration has the point symmetry C_1 .

 Subroutine INISYM returns: Found  1 space group operations
 (whereof  1 operations are pure point group operations),
 and found     1 'primitive' translations

 KPOINTS: Automatic mesh

Automatic generation of k-mesh.
Space group operators:
 irot       det(A)        alpha          n_x          n_y          n_z        tau_x        tau_y        tau_z
    1     1.000000     0.000000     1.000000     0.000000     0.000000     0.000000     0.000000     0.000000

 Subroutine IBZKPT returns following result:

 Found     19 irreducible k-points:

 Following reciprocal coordinates:
            Coordinates               Weight
  0.000000  0.000000  0.000000      1.000000
  0.250000  0.000000  0.000000      2.000000
  0.500000  0.000000  0.000000      1.000000
  0.000000  0.333333  0.000000      2.000000
  0.250000  0.333333  0.000000      2.000000
  0.500000  0.333333  0.000000      2.000000
 -0.250000  0.333333  0.000000      2.000000
  0.000000  0.000000  0.333333      2.000000
  0.250000  0.000000  0.333333      2.000000
  0.500000  0.000000  0.333333      2.000000
 -0.250000  0.000000  0.333333      2.000000
  0.000000  0.333333  0.333333      2.000000
  0.250000  0.333333  0.333333      2.000000
  0.500000  0.333333  0.333333      2.000000
 -0.250000  0.333333  0.333333      2.000000
  0.000000 -0.333333  0.333333      2.000000
  0.250000 -0.333333  0.333333      2.000000
  0.500000 -0.333333  0.333333      2.000000
 -0.250000 -0.333333  0.333333      2.000000

 Following cartesian coordinates:
            Coordinates               Weight
  0.000000  0.000000  0.000000      1.000000
  0.025150  0.000000  0.016389      2.000000
  0.050301  0.000000  0.032778      1.000000
  0.000000  0.028488  0.000000      2.000000
  0.025150  0.028488  0.016389      2.000000
  0.050301  0.028488  0.032778      2.000000
 -0.025150  0.028488 -0.016389      2.000000
  0.000000  0.000000  0.031634      2.000000
  0.025150  0.000000  0.048023      2.000000
  0.050301  0.000000  0.064412      2.000000
 -0.025150  0.000000  0.015245      2.000000
  0.000000  0.028488  0.031634      2.000000
  0.025150  0.028488  0.048023      2.000000
  0.050301  0.028488  0.064412      2.000000
 -0.025150  0.028488  0.015245      2.000000
  0.000000 -0.028488  0.031634      2.000000
  0.025150 -0.028488  0.048023      2.000000
  0.050301 -0.028488  0.064412      2.000000
 -0.025150 -0.028488  0.015245      2.000000

 SYSTEM =  unknown system
 POSCAR =  Ni2O3_Cc_scale_1_050_disp_0_20_round_1

 Startparameter for this run:
   NWRITE =      1    write-flag & timer
   PREC   = accura    normal or accurate (medium, high low for compatibility)
   ISTART =      0    job   : 0-new  1-cont  2-samecut
   ICHARG =      2    charge: 1-file 2-atom 10-const
   ISPIN  =      2    spin polarized calculation?
   LNONCOLLINEAR =      F non collinear calculations
   LSORBIT =      F    spin-orbit coupling
   INIWAV =      1    electr: 0-lowe 1-rand  2-diag
[...]
   0.975E+02 -.143E+03 0.130E+01   -.102E+03 0.173E+03 -.179E+01   0.717E+01 -.175E+02 0.475E+01   -.639E-01 -.699E-01 -.183E+00
   0.169E+02 0.291E+03 -.101E+03   -.176E+02 -.308E+03 0.102E+03   -.290E+00 0.199E+02 -.895E+00   0.605E-01 -.393E-02 0.427E-01
   -.104E+03 -.266E+02 -.189E+03   0.109E+03 0.397E+02 0.199E+03   -.623E+01 -.136E+02 -.113E+02   0.310E-01 0.139E+00 0.671E-01
   0.852E+02 0.894E+02 -.309E+02   -.901E+02 -.939E+02 0.348E+02   0.508E+01 0.517E+01 -.329E+01   -.327E+00 0.603E+00 -.140E+00
   -.146E+02 -.832E+02 0.161E+02   0.196E+02 0.907E+02 -.210E+02   -.545E+01 -.895E+01 0.577E+01   -.107E+00 0.915E-02 0.110E+00
   -.568E+02 0.240E+03 -.192E+03   0.610E+02 -.256E+03 0.211E+03   -.489E+01 0.128E+02 -.191E+02   0.115E-01 -.261E+00 0.170E+00
   -.113E+03 -.339E+03 0.886E+02   0.121E+03 0.371E+03 -.831E+02   -.618E+01 -.215E+02 -.122E+01   0.455E-01 0.645E-01 0.197E-01
   0.786E+02 0.488E+02 0.123E+03   -.810E+02 -.558E+02 -.131E+03   0.277E+01 0.883E+01 0.107E+02   0.131E-01 0.735E-01 -.104E+00
   -.378E+02 -.293E+03 -.733E+02   0.447E+02 0.320E+03 0.877E+02   -.782E+01 -.186E+02 -.127E+02   -.597E-01 0.467E-01 -.258E-01
   -.887E+02 0.438E+02 0.779E+02   0.923E+02 -.474E+02 -.750E+02   -.355E+01 0.309E+01 -.339E+01   0.289E-01 -.303E-01 0.188E+00
[...]
   0.118E+03 -.548E+02 0.111E+03   -.129E+03 0.594E+02 -.118E+03   0.128E+02 -.484E+01 0.790E+01   -.755E-01 0.148E-01 0.370E-01
   -.121E+03 -.154E+03 -.139E+03   0.140E+03 0.174E+03 0.154E+03   -.142E+02 -.144E+02 -.129E+02   -.648E-02 0.720E-02 0.283E-02
   0.476E+02 -.173E+03 0.364E+02   -.550E+02 0.177E+03 -.431E+02   0.828E+01 -.530E+01 0.636E+01   0.234E-02 0.283E-01 0.105E+00
   -.493E+01 0.895E+02 -.342E+02   0.740E+01 -.950E+02 0.289E+02   -.298E+01 0.662E+01 0.677E+01   0.311E-01 -.702E-01 -.450E-01
   -.864E+02 -.118E+03 -.135E+03   0.968E+02 0.123E+03 0.142E+03   -.124E+02 -.651E+01 -.765E+01   -.433E-01 -.833E-01 -.393E-02
   0.214E+02 0.129E+03 -.127E+03   -.245E+02 -.138E+03 0.127E+03   0.345E+01 0.950E+01 0.379E+00   0.524E-01 -.521E-01 -.927E-02
   -.109E+03 -.206E+03 -.111E+03   0.122E+03 0.214E+03 0.118E+03   -.131E+02 -.823E+01 -.731E+01   -.328E-01 -.122E+00 -.739E-01
   -.283E+03 -.644E+02 -.373E+03   0.317E+03 0.656E+02 0.409E+03   -.214E+02 0.212E+01 -.244E+02   0.622E-01 -.128E+00 0.244E-01
   0.150E+03 -.904E+02 0.724E+02   -.165E+03 0.916E+02 -.767E+02   0.164E+02 -.123E+01 0.382E+01   -.512E-01 -.654E-01 0.487E-01
   0.691E+02 0.123E+03 0.174E+03   -.730E+02 -.142E+03 -.203E+03   0.277E+01 0.170E+02 0.206E+02   -.473E-01 -.133E+00 0.371E-01
   -.236E+03 -.130E+03 -.266E+03   0.255E+03 0.131E+03 0.279E+03   -.172E+02 -.285E+01 -.115E+02   0.170E+00 -.349E+00 0.661E-01
   0.167E+03 -.805E+00 0.901E+01   -.180E+03 -.678E+01 -.119E+02   0.147E+02 0.984E+01 0.347E+01   -.133E-01 -.209E+00 -.485E-01
   0.193E+03 -.262E+03 -.260E+03   -.227E+03 0.296E+03 0.288E+03   0.151E+02 -.207E+02 -.153E+02   0.326E+00 -.241E+00 -.337E+00
   -.415E+02 0.263E+03 -.179E+03   0.463E+02 -.292E+03 0.190E+03   -.483E+01 0.246E+02 -.957E+01   -.149E+00 -.374E-03 -.859E-01
   -.655E+00 -.779E+01 0.522E+02   0.540E-12 0.142E-11 0.369E-12   0.330E-01 0.778E+01 -.530E+02   0.616E+00 0.318E-01 0.711E+00

 POSITION                                       TOTAL-FORCE (eV/Angst)
      6.61711      4.96841      2.35606         1.389306     -0.456185     -1.479935
      5.29383      2.03520      2.71608        -0.042922      1.006240     -0.586558
     -2.74024      3.54038     10.37723         0.522089     -3.023522     -0.824620
     -4.34193      0.47695     10.34709        -0.228518     -0.980097     -0.508383
      2.12638      2.23201      2.60275         5.663980     -3.459486     -3.909413
      0.81195      4.93546      2.56877        -5.842051     -5.280826     -2.833260
      8.63366      0.78373      0.23336         3.292353    -12.315591     -1.585080
      7.04547      3.26348      0.09134        -1.654465      1.094193     -0.069365
      4.18675      4.94852      7.23319         7.648248     -0.270737     72.880786
      1.93303      2.60486      8.09053         4.986246     -1.472110     -0.920050
      0.71356      3.43397      5.39895         1.259081     -2.121742     -0.515219
     -0.70887      0.64652      5.10002        -1.433058    -13.670913     -2.219445
     -1.24802      2.06955      7.51094         0.203989      2.378757     -0.536719
     -2.98915      5.03222      7.55423        19.546710    -14.558853    -12.522317
      5.48782      0.50666      5.07413         1.390382     -0.528676     -0.453731
      3.83216      3.56015      5.16160        -0.398237     -3.873558     -2.196427
      7.00240     10.44232      2.82195         0.668595     45.652743      4.623873
      5.27485      7.76241      2.93140         9.011664     -0.204059     -3.564932
     -3.15912      9.00879     10.37545         0.110778     -5.952906     -3.048015
      2.57078      6.23432      0.25929         0.370122     -7.962718     -2.115059
      2.53744      7.93604      2.04042         6.157042      9.611323     40.797226
      0.75930     10.83129      2.58102         1.017523      0.052342     -1.063254
      8.65042      6.17849      0.12521         0.366902      1.632245      0.007700
      6.82281      9.01892      0.12384        -1.099810    -10.938859     -4.003305
      3.98174     10.94469      7.62551        -0.087758      1.796565      0.972943
      2.41386      8.45977      7.27332       -12.193235     -0.821795     -3.657657
      0.27632      8.88628      4.92052         0.249143      1.202749      1.069602
     -0.78808      5.85639      5.02436        -1.122683      1.016571     -1.012391
     -0.88364      7.92125      7.61794        -1.466762      4.558359     -1.384045
     -2.36972     10.66227      7.54415        -1.589223     -0.227978     -0.470739
      5.36377      6.05987      5.12941         0.084608      0.586399     -0.304859
      4.01073      8.93516      4.76125        -2.430806      3.926054      3.167567
      7.16385      5.13805      0.37140         0.443401     -0.694583      1.233353
      0.95583      5.37586      0.35482        -0.484948      0.625148      1.006058
      3.75944      4.86804      0.73116        -0.874335      2.410715     -0.159643
      5.68992      0.29475      3.01802         0.603737     -0.384506      1.539230
      3.94485      3.29281      3.33473         0.405225     -1.401645     -0.024492
      6.92318      3.58993      3.24984        -0.967569     -0.934462     -0.447082
      2.36000      2.16936      0.73615         0.830722     -1.328011     -0.291856
      5.37530      1.92892      0.87074         0.245168      2.457880     -0.103898
      8.33688      2.20815      0.27855        -1.663902     10.116761      0.664675
      1.04493      3.13772      3.19106        -5.207849      5.556551      2.779456
     -1.34252      0.61627      3.54950         0.096947     -1.536103     -1.437586
      2.11659      0.60997      3.00083        -1.445221     -2.199015     -0.261294
      4.05741      4.96399      6.06715        -7.536827      2.433789    -71.259956
     -3.00906      5.47978      5.61279         1.593710     -0.935147      2.268670
      0.53837      5.07941      5.77363        -0.221314     -0.053609     -0.124923
      2.56118      0.45908      8.54972         0.439669      0.467688      0.079332
      0.44262      3.16292      8.34264        -3.053093      0.282480      0.780594
      3.65977      3.70307      8.25488        -1.753199     -1.140080      0.271517
     -0.57104      2.07097      5.34932         2.108899     13.176662      4.084859
      2.48567      2.33238      5.60370        -0.914456      2.499132      0.591684
      5.40617      2.12522      5.68221        -0.744284     -0.327652     -0.659805
     -2.41961      3.33262      8.17638        -0.116626      1.294202      0.460946
     -4.23617      0.09312      8.31932        -0.607461     -1.457589      0.931315
     -1.18128      0.78537      8.49062        -0.640797     -2.783856      0.029162
      7.20175     10.32059      0.67366         2.545210     10.747674      4.292516
      0.75448     10.63715      0.46180         0.317164      1.910520      1.996324
      3.73394     10.44018      0.34118        -0.944979      7.890407      1.597350
      5.87193      6.19515      3.32714         0.101793     -0.529826     -0.289178
[...]
      0.75222      9.00801      3.23138         0.717856      1.178907     -0.883433
     -0.92484      5.53345      3.04800         0.955570     -0.305995      1.091806
      1.72539      5.99989      3.09418         5.025792      5.876995      2.102197
      3.76329     10.39280      5.92607         0.936104     -0.641589     -0.302131
     -2.63863     10.97967      5.40648        -0.475491      1.122778      1.457896
      0.77583     10.72700      5.53812        -2.023394     -1.004929     -1.054418
      2.13220      6.56929      8.02786         0.383831      0.284131      0.628688
      0.45934      8.69716      8.40462        -0.373205      0.117031      0.273289
      3.39282      8.60941      8.24310        12.650992      3.177219     12.305516
     -1.01874      7.73645      5.69447         1.227345     -0.087905     -0.378816
      2.30527      7.92028      5.88380        -1.093531     -1.878490     -8.046684
      5.22789      7.89297      5.13254         2.165625     -1.907241      1.236514
     -2.79539      8.64308      7.94474         2.100460      2.045834      0.563754
     -3.96166      5.73051      8.15474       -19.259828     13.365638     11.697387
     -0.81093      6.46121      8.09280        -0.261180     -4.508869      1.127949
    total drift:                               -0.006347      0.029069     -0.051867

  FREE ENERGIE OF THE ION-ELECTRON SYSTEM (eV)
  free  energy   TOTEN  =      -401.5264090251 eV

  energy  without entropy=     -401.4302792236  energy(sigma->0) =     -401.47834412

volume of typ            1:    16.6 %

volume of typ            2:     6.4 %

total charge

# of ion       s       p       d       tot
    1        0.288   0.291   7.877   8.456
    2        0.249   0.242   7.821   8.313
    3        0.236   0.209   7.903   8.348
    4        0.194   0.142   7.824   8.160
    5        0.348   0.427   7.892   8.667
    6        0.321   0.369   7.897   8.586
    7        0.288   0.264   8.039   8.592
    8        0.236   0.234   7.922   8.392
    9        0.535   0.697   8.242   9.475
   10        0.260   0.240   7.867   8.367
   11        0.249   0.256   7.898   8.404
   12        0.369   0.418   7.946   8.734
   13        0.280   0.284   7.887   8.451
   14        0.404   0.468   8.027   8.899
   15        0.228   0.194   7.843   8.265
   16        0.264   0.302   7.914   8.480
   17        0.428   0.507   8.120   9.055
   18        0.312   0.370   8.003   8.685
   19        0.320   0.344   7.961   8.624
   20        0.310   0.351   7.972   8.633
   21        0.423   0.531   8.188   9.142
   22        0.200   0.147   7.841   8.189
   23        0.190   0.137   7.855   8.182
   24        0.323   0.358   7.940   8.621
   25        0.219   0.188   7.823   8.229
   26        0.435   0.636   8.005   9.076
   27        0.255   0.234   7.829   8.318
   28        0.243   0.232   7.842   8.317
   29        0.341   0.406   7.842   8.589
   30        0.174   0.107   7.857   8.139
   31        0.258   0.303   7.920   8.482
   32        0.304   0.347   7.959   8.611
   33        1.264   2.723   0.006   3.993
   34        1.283   2.655   0.004   3.941
   35        1.278   2.733   0.010   4.020
   36        1.269   2.714   0.005   3.987
   37        1.278   2.689   0.005   3.972
   38        1.297   2.653   0.007   3.957
   39        1.276   2.681   0.004   3.961
   40        1.288   2.644   0.004   3.936
   41        1.283   2.832   0.024   4.140
   42        1.283   2.775   0.015   4.073
   43        1.295   2.658   0.006   3.960
   44        1.284   2.693   0.007   3.984
   45        1.315   3.014   0.062   4.391
   46        1.279   2.699   0.006   3.984
   47        1.281   2.737   0.011   4.028
   48        1.284   2.618   0.002   3.903
   49        1.285   2.718   0.009   4.012
   50        1.282   2.697   0.006   3.984
   51        1.281   2.815   0.020   4.116
   52        1.289   2.644   0.004   3.937
   53        1.290   2.657   0.005   3.952
   54        1.269   2.711   0.005   3.985
   55        1.280   2.643   0.003   3.925
   56        1.292   2.683   0.008   3.984
   57        1.298   2.752   0.017   4.067
   58        1.299   2.581   0.001   3.881
   59        1.292   2.732   0.013   4.037
   60        1.262   2.799   0.012   4.074
[...]
   66        1.272   2.710   0.006   3.988
   67        1.285   2.655   0.004   3.944
   68        1.299   2.731   0.014   4.044
   69        1.269   2.714   0.006   3.989
   70        1.292   2.611   0.002   3.904
   71        1.296   2.601   0.002   3.900
   72        1.311   2.559   0.002   3.872
   73        1.290   2.665   0.005   3.961
   74        1.315   2.763   0.022   4.100
   75        1.271   2.710   0.005   3.986
   76        1.300   2.743   0.014   4.057
   77        1.283   2.746   0.011   4.041
   78        1.290   2.619   0.002   3.911
   79        1.309   2.818   0.028   4.155
   80        1.306   2.684   0.012   4.001
tot          71.30  140.54  254.30  466.14

magnetization (x)

# of ion       s       p       d       tot
    1        0.009   0.014   0.915   0.937
    2       -0.000   0.012   1.162   1.174
    3       -0.020  -0.015  -1.140  -1.175
    4        0.006   0.007   1.375   1.388
    5        0.002   0.004   0.301   0.308
    6        0.003   0.006   0.881   0.890
    7        0.029   0.019   0.855   0.903
    8       -0.000   0.006   0.575   0.581
    9       -0.007  -0.000  -0.216  -0.223
   10        0.024   0.023   1.307   1.354
   11        0.002   0.001  -0.335  -0.331
   12        0.002   0.003   0.734   0.739
   13        0.008   0.016   1.142   1.165
   14       -0.002  -0.007   0.113   0.103
   15        0.011   0.021   1.476   1.509
   16       -0.003   0.002   0.224   0.223
   17        0.019   0.032   0.761   0.812
   18        0.002  -0.002   0.085   0.085
   19        0.014   0.017   0.757   0.788
   20       -0.002   0.004   0.066   0.068
   21        0.005   0.007   0.063   0.075
   22       -0.002   0.011   1.453   1.462
   23       -0.004  -0.009  -1.368  -1.381
   24        0.009   0.013   0.455   0.476
   25        0.007   0.012   1.378   1.396
   26        0.017  -0.006  -0.090  -0.079
   27        0.003   0.017   1.267   1.288
   28        0.000   0.015   1.184   1.199
   29        0.006   0.011   0.734   0.750
   30       -0.010  -0.008  -1.220  -1.238
   31        0.006   0.011   0.769   0.786
   32        0.006   0.002   0.134   0.142
   33       -0.001  -0.096   0.000  -0.097
   34        0.004   0.151   0.000   0.155
   35       -0.007  -0.331  -0.000  -0.339
   36        0.011   0.273   0.000   0.284
   37        0.006   0.219   0.000   0.226
   38        0.011   0.543  -0.000   0.553
   39        0.003   0.134   0.000   0.138
   40        0.005   0.187   0.000   0.192
   41        0.007   0.312   0.000   0.320
   42        0.002  -0.009   0.000  -0.006
   43        0.008   0.374   0.000   0.382
   44        0.007   0.318  -0.000   0.325
   45        0.001  -0.044  -0.001  -0.044
   46        0.009   0.245   0.000   0.254
   47        0.005   0.182   0.000   0.187
   48        0.015   0.511   0.000   0.525
   49        0.011   0.405   0.000   0.416
   50        0.002   0.022   0.000   0.024
   51        0.004   0.113   0.001   0.118
   52        0.001   0.036   0.000   0.037
   53        0.013   0.603   0.000   0.615
   54        0.003   0.041   0.000   0.044
   55        0.007   0.279   0.000   0.286
   56        0.009   0.462   0.000   0.471
   57        0.008   0.226   0.001   0.234
   58        0.014   0.669  -0.000   0.682
   59        0.009   0.399   0.000   0.409
   60        0.010   0.067   0.000   0.077
[...]
   66        0.011   0.330   0.000   0.341
   67        0.008   0.310   0.000   0.318
   68        0.008   0.410   0.000   0.419
   69        0.009   0.272   0.000   0.281
   70        0.005   0.220   0.000   0.225
   71        0.013   0.606   0.000   0.619
   72       -0.013  -0.697  -0.000  -0.710
   73        0.001  -0.071   0.000  -0.070
   74       -0.000   0.019  -0.000   0.018
   75        0.010   0.266   0.000   0.276
   76       -0.001  -0.019  -0.000  -0.020
   77        0.006   0.183   0.000   0.189
   78        0.001   0.028   0.000   0.029
   79        0.000   0.007   0.000   0.007
   80        0.009   0.464   0.000   0.473
tot           0.39    8.99   15.80   25.19