 vasp.5.4.4.18Apr17-6-g9f103f2a35 (build May 12 2020 04:58:55) complex

 MD_VERSION_INFO: Compiled 2020-05-12T11:58:55-UTC in devlin.sd.materialsdesign.
 com:/home/medea2/data/build/wwolf/vasp-gpu5.4.4/13047/x86_64/src/src/build/std
 from svn 13047

 executed on                        Lin64 date 2023.03.25  11:53:59

 INCAR:
 POTCAR:    PAW_PBE Ni 02Aug2007
 POTCAR:    PAW_PBE O 08Apr2002

 POTCAR:    PAW_PBE Ni 02Aug2007

 POTCAR:    PAW_PBE O 08Apr2002

 Optimization of the real space projectors (new method)

 maximal supplied QI-value         = 16.25
 optimisation between [QCUT,QGAM] = [ 11.38, 22.75] = [ 36.24,144.96] Ry
 Optimized for a Real-space Cutoff    1.47 Angstroem

   l    n(q)    QCUT    max X(q) W(low)/X(q) W(high)/X(q)  e(spline)
   2      9    11.376    60.317    0.17E-03    0.16E-04    0.16E-06
   2      9    11.376    55.921    0.17E-03    0.16E-04    0.17E-06
   0     10    11.376    51.690    0.45E-04    0.60E-04    0.21E-06
   0     10    11.376    30.015    0.37E-04    0.55E-04    0.19E-06
   1     10    11.376    18.849    0.83E-04    0.11E-03    0.92E-07
   1     10    11.376    14.624    0.69E-04    0.92E-04    0.82E-07
 Optimization of the real space projectors (new method)

 maximal supplied QI-value         = 24.76
 optimisation between [QCUT,QGAM] = [ 11.39, 22.77] = [ 36.31,145.25] Ry
 Optimized for a Real-space Cutoff    1.10 Angstroem

   l    n(q)    QCUT    max X(q) W(low)/X(q) W(high)/X(q)  e(spline)
   0      7    11.387    20.381    0.22E-03    0.48E-03    0.18E-06
   0      7    11.387    15.268    0.22E-03    0.52E-03    0.19E-06
   1      7    11.387     5.964    0.22E-03    0.73E-03    0.24E-06
   1      7    11.387     5.382    0.19E-03    0.60E-03    0.21E-06

  PAW_PBE Ni 02Aug2007                  :
  PAW_PBE O 08Apr2002                   :

 POSCAR: Ni2O3_Cc_scale_1_050_disp_0_15_round_2
  positions in direct lattice
 exchange correlation table for  LEXCH =       14
   RHO(1)=    0.500       N(1)  =     2000
   RHO(2)=  100.500       N(2)  =     4000

 ion  position               nearest neighbor table
   1  0.885  0.428  0.240-  33 1.79  38 1.85  60 2.08  67 2.24  18 2.90   2 2.99   8 3.00
   2  0.739  0.215  0.266-  38 1.55  36 1.66  37 1.74  40 2.26  15 2.97   1 2.99  16 3.06
   3  0.382  0.267  0.996-  40 1.72  35 1.97  39 2.11  54 2.45   8 3.02
   4  0.223  0.034  0.980-  39 2.00  55 2.01  59 2.03  58 2.32
   5  0.434  0.193  0.274-  44 1.55  37 1.66  42 1.95  39 2.18  16 2.74  11 2.82
   6  0.258  0.461  0.238-  68 1.29  34 1.73  67 1.88  42 2.39  21 2.84
   7  0.893  0.045  0.007-  41 1.66  58 2.22  48 2.37  57 2.41
   8  0.692  0.283  0.006-  40 1.94  33 1.94  49 2.34  41 2.47   1 3.00   3 3.02
   9  0.884  0.423  0.705-  45 1.82  50 1.84  72 2.07  79 2.17  16 2.87  10 2.98
  10  0.746  0.199  0.712-  50 1.82  52 1.84  48 2.16  49 2.22  16 2.81   9 2.98  11 3.02
  11  0.429  0.274  0.483-  52 1.53  47 1.90  42 2.06  51 2.10  16 2.72   5 2.82  10 3.02
  12  0.256  0.046  0.499-  43 1.82  51 1.86  70 2.03  71 2.43  13 2.82
  13  0.416  0.187  0.716-  51 1.65  49 1.78  56 1.83  54 1.91  12 2.82
  14  0.250  0.441  0.693-  46 1.60  80 1.64  54 2.00  79 2.09  28 2.63
  15  0.869  0.057  0.485-  53 1.64  36 2.16  69 2.37   2 2.97  16 3.07
  16  0.704  0.280  0.485-  52 1.75  45 1.84  37 1.98  53 2.22  11 2.72   5 2.74  10 2.81   9 2.87
                             2 3.06  15 3.07
  17  0.880  0.907  0.247-  62 1.86  57 1.92  36 2.51  24 2.96
  18  0.758  0.647  0.250-  62 1.61  60 1.64  64 2.03  61 2.24  31 2.71   1 2.90  24 2.95
  19  0.363  0.744  0.981-  63 1.52  59 2.07  64 2.12  78 2.32  20 2.87
  20  0.236  0.524  0.981-  35 1.99  34 2.02  63 2.26  79 2.27  19 2.87
  21  0.414  0.667  0.245-  61 1.80  66 1.89  68 2.00  63 2.05   6 2.84  27 2.92  32 3.05
  22  0.246  0.900  0.253-  66 1.77  58 2.06  43 2.24  27 2.56
  23  0.856  0.530  0.995-  65 1.59  33 1.89  24 2.86
  24  0.752  0.746  0.032-  65 1.65  57 1.77  64 1.80  23 2.86  18 2.95  17 2.96
  25  0.883  0.910  0.725-  74 1.76  69 1.97  48 2.04  55 2.28  26 2.95
  26  0.749  0.687  0.732-  74 1.46  72 2.04  73 2.11  76 2.21  25 2.95
  27  0.413  0.778  0.452-  66 1.62  71 1.83  76 1.89  75 2.23  22 2.56  32 2.90  21 2.92
  28  0.236  0.509  0.487-  75 1.87  46 1.91  47 2.00  67 2.02  14 2.63
  29  0.407  0.682  0.731-  73 1.58  78 1.74  80 2.15  75 2.16
  30  0.246  0.917  0.724-  78 1.92  70 2.18  55 2.20  56 2.32
  31  0.873  0.531  0.470-  77 1.68  60 1.88  46 2.19  45 2.19  18 2.71  32 3.08
  32  0.721  0.756  0.479-  76 1.53  69 1.82  61 1.85  77 1.93  27 2.90  21 3.05  31 3.08
  33  0.776  0.435  0.070-   1 1.79  23 1.89   8 1.94
  34  0.140  0.457  0.074-   6 1.73  20 2.02
  35  0.424  0.420  0.071-   3 1.97  20 1.99
  36  0.750  0.074  0.282-   2 1.66  15 2.16  17 2.51
  37  0.599  0.256  0.300-   5 1.66   2 1.74  16 1.98
  38  0.877  0.272  0.263-   2 1.55   1 1.85
  39  0.261  0.183  0.070-   4 2.00   3 2.11   5 2.18
  40  0.564  0.200  0.054-   3 1.72   8 1.94   2 2.26
  41  0.938  0.177  0.066-   7 1.66   8 2.47
  42  0.268  0.263  0.290-   5 1.95  11 2.06   6 2.39
  43  0.146  0.025  0.328-  12 1.82  22 2.24
  44  0.443  0.064  0.304-   5 1.55
  45  0.743  0.431  0.533-   9 1.82  16 1.84  31 2.19
  46  0.108  0.451  0.546-  14 1.60  28 1.91  31 2.19
  47  0.435  0.415  0.562-  11 1.90  28 2.00
  48  0.788  0.027  0.788-  25 2.04  10 2.16   7 2.37
  49  0.609  0.253  0.795-  13 1.78  10 2.22   8 2.34
  50  0.905  0.302  0.807-  10 1.82   9 1.84
  51  0.309  0.196  0.559-  13 1.65  12 1.86  11 2.10
  52  0.594  0.219  0.542-  11 1.53  16 1.75  10 1.84
  53  0.924  0.190  0.525-  15 1.64  16 2.22
  54  0.350  0.297  0.791-  13 1.91  14 2.00   3 2.45
  55  0.114  0.008  0.792-   4 2.01  30 2.20  25 2.28
  56  0.455  0.045  0.788-  13 1.83  30 2.32
  57  0.784  0.893  0.067-  24 1.77  17 1.92   7 2.41
  58  0.100  0.931  0.061-  22 2.06   7 2.22   4 2.32
  59  0.398  0.916  0.026-   4 2.03  19 2.07
  60  0.747  0.516  0.292-  18 1.64  31 1.88   1 2.08
  61  0.605  0.735  0.306-  21 1.80  32 1.85  18 2.24
  62  0.876  0.755  0.289-  18 1.61  17 1.86
  63  0.291  0.705  0.055-  19 1.52  21 2.05  20 2.26
  64  0.609  0.704  0.070-  24 1.80  18 2.03  19 2.12
  65  0.892  0.652  0.061-  23 1.59  24 1.65
  66  0.306  0.757  0.300-  27 1.62  22 1.77  21 1.89
  67  0.125  0.497  0.297-   6 1.88  28 2.02   1 2.24
  68  0.399  0.507  0.294-   6 1.29  21 2.00
  69  0.762  0.903  0.539-  32 1.82  25 1.97  15 2.37
  70  0.128  0.922  0.518-  12 2.03  30 2.18
  71  0.455  0.897  0.561-  27 1.83  12 2.43
  72  0.750  0.514  0.756-  26 2.04   9 2.07
  73  0.580  0.729  0.778-  29 1.58  26 2.11
  74  0.877  0.764  0.754-  26 1.46  25 1.76
  75  0.320  0.656  0.534-  28 1.87  29 2.16  27 2.23
  76  0.616  0.709  0.524-  32 1.53  27 1.89  26 2.21
  77  0.907  0.663  0.531-  31 1.68  32 1.93
  78  0.293  0.759  0.773-  29 1.74  30 1.92  19 2.32
  79  0.120  0.491  0.770-  14 2.09   9 2.17  20 2.27
  80  0.428  0.502  0.773-  14 1.64  29 2.15

  LATTYP: Found a simple monoclinic cell.
 ALAT       =    16.7450373351
 B/A-ratio  =     0.6987547872
 C/A-ratio  =     1.5833429410
 COS(beta)  =    -0.9717709890

  Lattice vectors:

 A1 = ( -13.0139522300,   0.0000000000, -10.5372350600)
 A2 = (   0.0000000000, -11.7006750000,   0.0000000000)
 A3 = (  16.0876699600,   0.0000000000,  21.0744701200)

Analysis of symmetry for initial positions (statically):
 Subroutine PRICEL returns:
 Original cell was already a primitive cell.

 Routine SETGRP: Setting up the symmetry group for a
 simple monoclinic supercell.

 Subroutine GETGRP returns: Found  1 space group operations
 (whereof  1 operations were pure point group operations)
 out of a pool of  4 trial point group operations.

The static configuration has the point symmetry C_1 .

Analysis of symmetry for dynamics (positions and initial velocities):
 Subroutine PRICEL returns:
 Original cell was already a primitive cell.

[...]

The dynamic configuration has the point symmetry C_1 .

Analysis of structural, dynamic, and magnetic symmetry:
 Subroutine PRICEL returns:
 Original cell was already a primitive cell.

 Routine SETGRP: Setting up the symmetry group for a
 simple monoclinic supercell.

 Subroutine GETGRP returns: Found  1 space group operations
 (whereof  1 operations were pure point group operations)
 out of a pool of  4 trial point group operations.

The magnetic configuration has the point symmetry C_1 .

 Subroutine INISYM returns: Found  1 space group operations
 (whereof  1 operations are pure point group operations),
 and found     1 'primitive' translations

 KPOINTS: Automatic mesh

Automatic generation of k-mesh.
Space group operators:
 irot       det(A)        alpha          n_x          n_y          n_z        tau_x        tau_y        tau_z
    1     1.000000     0.000000     1.000000     0.000000     0.000000     0.000000     0.000000     0.000000

 Subroutine IBZKPT returns following result:

 Found     19 irreducible k-points:

 Following reciprocal coordinates:
            Coordinates               Weight
  0.000000  0.000000  0.000000      1.000000
  0.250000  0.000000  0.000000      2.000000
  0.500000  0.000000  0.000000      1.000000
  0.000000  0.333333  0.000000      2.000000
  0.250000  0.333333  0.000000      2.000000
  0.500000  0.333333  0.000000      2.000000
 -0.250000  0.333333  0.000000      2.000000
  0.000000  0.000000  0.333333      2.000000
  0.250000  0.000000  0.333333      2.000000
  0.500000  0.000000  0.333333      2.000000
 -0.250000  0.000000  0.333333      2.000000
  0.000000  0.333333  0.333333      2.000000
  0.250000  0.333333  0.333333      2.000000
  0.500000  0.333333  0.333333      2.000000
 -0.250000  0.333333  0.333333      2.000000
  0.000000 -0.333333  0.333333      2.000000
  0.250000 -0.333333  0.333333      2.000000
  0.500000 -0.333333  0.333333      2.000000
 -0.250000 -0.333333  0.333333      2.000000

 Following cartesian coordinates:
            Coordinates               Weight
  0.000000  0.000000  0.000000      1.000000
  0.025150  0.000000  0.016389      2.000000
  0.050301  0.000000  0.032778      1.000000
  0.000000  0.028488  0.000000      2.000000
  0.025150  0.028488  0.016389      2.000000
  0.050301  0.028488  0.032778      2.000000
 -0.025150  0.028488 -0.016389      2.000000
  0.000000  0.000000  0.031634      2.000000
  0.025150  0.000000  0.048023      2.000000
  0.050301  0.000000  0.064412      2.000000
 -0.025150  0.000000  0.015245      2.000000
  0.000000  0.028488  0.031634      2.000000
  0.025150  0.028488  0.048023      2.000000
  0.050301  0.028488  0.064412      2.000000
 -0.025150  0.028488  0.015245      2.000000
  0.000000 -0.028488  0.031634      2.000000
  0.025150 -0.028488  0.048023      2.000000
  0.050301 -0.028488  0.064412      2.000000
 -0.025150 -0.028488  0.015245      2.000000

 SYSTEM =  unknown system
 POSCAR =  Ni2O3_Cc_scale_1_050_disp_0_15_round_2

 Startparameter for this run:
   NWRITE =      1    write-flag & timer
   PREC   = accura    normal or accurate (medium, high low for compatibility)
   ISTART =      0    job   : 0-new  1-cont  2-samecut
   ICHARG =      2    charge: 1-file 2-atom 10-const
[...]
   0.177E+03 -.240E+02 0.152E+03   -.185E+03 0.372E+02 -.168E+03   0.850E+01 -.139E+02 0.124E+02   -.347E-01 0.586E-01 -.542E-01
   -.420E+02 0.274E+03 -.985E+02   0.490E+02 -.294E+03 0.104E+03   -.123E+01 0.159E+02 -.717E+00   0.761E-01 0.694E-02 0.424E-01
   -.202E+03 -.967E+02 -.222E+03   0.213E+03 0.116E+03 0.231E+03   -.128E+02 -.179E+02 -.860E+01   0.880E-02 0.854E-01 -.611E-01
   0.166E+03 0.716E+02 -.833E+02   -.171E+03 -.716E+02 0.908E+02   0.463E+01 0.917E-01 -.806E+01   0.368E-02 0.572E-01 0.172E-01
   -.193E+02 -.923E+02 0.479E+02   0.193E+02 0.997E+02 -.546E+02   -.149E+00 -.874E+01 0.724E+01   -.759E-01 0.314E-01 0.461E-02
   -.161E+02 0.196E+03 -.177E+03   0.213E+02 -.207E+03 0.188E+03   -.645E+01 0.116E+02 -.127E+02   0.561E-01 0.643E-02 0.629E-01
   0.173E+01 -.222E+03 0.150E+03   -.400E+01 0.235E+03 -.159E+03   0.291E+01 -.129E+02 0.102E+02   -.406E-02 0.839E-02 0.177E+00
   0.180E+02 0.776E+02 0.109E+03   -.179E+02 -.853E+02 -.116E+03   -.257E+00 0.922E+01 0.831E+01   -.758E-01 0.746E-02 -.649E-02
   -.112E+03 -.928E+02 -.462E+02   0.122E+03 0.968E+02 0.530E+02   -.113E+02 -.456E+01 -.809E+01   0.450E-01 0.721E-01 0.550E-01
   0.123E+03 0.176E+03 0.886E+02   -.139E+03 -.196E+03 -.950E+02   0.167E+02 0.162E+02 0.761E+01   0.624E-01 -.292E-02 0.129E+00
[...]
   0.841E+02 -.711E+02 0.624E+02   -.914E+02 0.786E+02 -.677E+02   0.670E+01 -.821E+01 0.600E+01   -.596E-01 0.233E-02 0.415E-01
   -.277E+03 -.560E+02 -.189E+03   0.329E+03 0.724E+02 0.223E+03   -.246E+02 -.948E+00 -.193E+02   -.456E-01 -.853E-01 0.506E-01
   -.400E+02 -.211E+03 0.458E+02   0.346E+02 0.222E+03 -.512E+02   0.664E+01 -.108E+02 0.656E+01   0.221E-02 -.694E-01 -.363E-02
   0.960E+02 0.106E+03 0.282E+02   -.100E+03 -.117E+03 -.350E+02   0.457E+01 0.126E+02 0.857E+01   -.299E-01 -.478E-01 -.154E+00
   0.246E+02 -.162E+03 -.176E+03   -.240E+02 0.171E+03 0.189E+03   -.923E+00 -.991E+01 -.146E+02   0.180E-01 -.167E-01 0.136E-01
   0.705E+02 0.382E+02 -.936E+02   -.812E+02 -.460E+02 0.925E+02   0.122E+02 0.974E+01 0.164E+01   -.322E-01 0.234E-01 0.167E-01
   -.125E+03 -.197E+03 -.132E+03   0.140E+03 0.211E+03 0.141E+03   -.107E+02 -.128E+02 -.770E+01   0.593E-01 -.479E-01 0.184E-01
   -.255E+03 -.400E+02 -.250E+03   0.282E+03 0.466E+02 0.259E+03   -.186E+02 0.112E+01 -.739E+01   -.486E-01 -.302E-01 -.356E-01
   0.644E+02 -.151E+03 0.331E+02   -.635E+02 0.159E+03 -.345E+02   -.109E+01 -.858E+01 0.191E+01   -.521E-01 -.113E+00 -.354E-01
   0.136E+03 0.143E+03 -.128E+03   -.154E+03 -.162E+03 0.137E+03   0.102E+02 0.167E+02 -.618E+01   0.827E-01 -.351E-01 0.400E-01
   -.190E+03 -.197E+03 -.235E+03   0.200E+03 0.210E+03 0.248E+03   -.113E+02 -.121E+02 -.138E+02   0.217E-02 -.139E+00 -.102E+00
   0.177E+03 -.302E+02 -.150E+02   -.191E+03 0.272E+02 0.170E+02   0.141E+02 0.438E+01 -.731E+00   0.254E-01 -.945E-01 -.536E-01
   0.365E+02 -.662E+02 -.791E+02   -.370E+02 0.728E+02 0.778E+02   -.203E+00 -.742E+01 0.192E+01   -.486E-03 -.754E-02 -.111E+00
   -.154E+03 -.426E+02 -.235E+03   0.173E+03 0.437E+02 0.250E+03   -.186E+02 0.135E+01 -.151E+02   0.458E-01 -.127E-01 -.264E-01
   -.928E+01 0.595E+02 0.676E+02   -.426E-12 -.199E-12 0.108E-11   0.892E+01 -.595E+02 -.679E+02   0.378E+00 0.208E-01 0.229E+00

 POSITION                                       TOTAL-FORCE (eV/Angst)
      7.14637      5.00266      2.52843         0.086133     -0.198186      0.428152
      5.52062      2.51283      2.79882        -3.788426     -1.662489     -0.988599
     -3.04040      3.11909     10.49857        -1.512287      1.486014      0.337796
     -4.50856      0.39433     10.32713         0.624723     -1.354239      0.228958
      2.42690      2.25774      2.89056        -4.059821      2.886925     -3.118624
      0.92666      5.39626      2.51045       -28.445178    -14.326285    -14.986192
      8.82808      0.52358      0.07336         1.184886     -1.949535     -0.635863
      6.83351      3.31428      0.06745         0.137054     -0.218116     -0.278548
      3.94871      4.94493      7.42793        -0.685504      0.682035      1.424605
      2.53023      2.32340      7.50297        -0.625953     -0.456343      2.099934
      0.94218      3.20787      5.09287        -8.417860      4.710275     -4.031024
     -0.88265      0.54364      5.25614        -0.716876     -1.836219     -0.962907
     -0.77803      2.18718      7.54453        -0.585502     -0.579086      4.443670
     -2.26640      5.16369      7.29709        -1.083733     -2.006280      5.280009
      5.30084      0.66893      5.11503        -0.480670     -2.433135     -1.278205
      3.66501      3.27256      5.11555         2.105502      0.364472     -0.334238
      7.05222     10.61303      2.60594         0.033811     -0.791727     -0.573121
      5.81714      7.57390      2.63703        -1.851601      1.402557     -2.391458
     -3.13000      8.70608     10.33556         7.288537      4.441562     -3.654343
     -4.39260      6.13260     10.33768         0.505025     -1.579413      0.456359
      2.43059      7.80107      2.57819         0.007713     -0.104968     -0.774320
      0.70787     10.53565      2.66405        -0.847139      2.108373     -1.456952
      1.67162      6.19601     10.48561         0.225603     -4.046968     -1.602401
      7.25727      8.72451      0.33971        -1.644724      1.646362      0.044498
      3.79257     10.65036      7.64275        -0.301964      1.674507     -0.303386
      2.41578      8.03718      7.71344       -10.190806     -8.981930     -1.803310
      1.00033      9.10425      4.76373        -1.339192      1.438034      6.167383
     -1.00034      5.95367      5.13030         1.845954      0.034798     -0.198246
     -0.97097      7.98433      7.70267        -2.408760     -2.513388     -2.505875
     -2.52656     10.72415      7.63090         0.014097      0.720559     -0.344351
      5.45091      6.20727      4.95315        -0.222688     -1.499736     -0.182932
      3.87489      8.85142      5.05211         7.876488      2.777846     -2.337907
      7.23204      5.09131      0.74254         0.820167     -0.548750     -1.238881
      0.88637      5.34661      0.77918         0.261887      0.995410     -1.030594
      3.72610      4.91862      0.75211        -1.201183     -0.193259     -2.094092
      5.51435      0.86032      2.97152         0.517277     -2.804794      1.675891
      3.89026      3.00078      3.16509         1.209161      1.592293      1.545568
      6.91297      3.18684      2.77442         4.873362      3.784298     -0.092589
      2.11888      2.14162      0.73361         2.016882     -0.774679     -0.924686
      5.23290      2.33484      0.56630         1.980310      0.652798      0.042691
      8.87408      2.06542      0.69064        -1.096397      0.358982     -0.405841
      0.66893      3.08095      3.05590         2.230068      0.404405      1.873450
     -0.79718      0.28898      3.45227         0.494740     -1.317149      0.603362
      2.31741      0.74542      3.20580        -0.690624     -4.737827      0.862350
      3.72027      5.03742      5.62060         1.648680     -0.040325     -0.053192
     -2.67357      5.27882      5.75056        -1.090784      1.085491     -4.599398
      0.46883      4.85390      5.91816        -1.002123     -0.488868     -1.904426
      2.42816      0.31480      8.29809         1.310122      0.568711     -0.006281
      0.59194      2.95702      8.37584         0.562001     -0.642438      0.296262
      3.45977      3.52825      8.50304         0.035030     -0.027377     -1.614996
     -0.77011      2.28959      5.89373         0.874453     -0.716633     -3.114160
      2.17835      2.56254      5.71478         5.882840     -3.853847      4.408511
      5.58030      2.22523      5.53183        -1.007571      1.672115      0.309222
     -1.94699      3.47740      8.33094        -0.409815      0.191118     -0.493894
     -4.30667      0.09113      8.34673        -0.200580     -1.354610      0.498425
     -0.89251      0.52579      8.30663        -1.240982      0.361400     -1.385420
      7.32835     10.45098      0.70904         0.636850      0.467805      1.224613
      0.57204     10.89131      0.64171        -0.151889      1.518518      1.124901
      3.77472     10.72165      0.27728        -1.565573     -0.456653     -1.233222
      5.42426      6.03928      3.07790         0.766018     -3.093101      1.291966
[...]
      0.97495      8.85446      3.16517         0.404796     -0.917715     -4.068800
     -0.79623      5.81214      3.13030        -0.613397     -0.712449      0.747845
      1.94967      5.92734      3.09872        27.479340     15.442337     14.954903
      3.87906     10.56080      5.67829         1.241816      0.397089      1.117668
     -2.28379     10.79316      5.46081         0.239566      1.864282      1.641657
      0.67300     10.49357      5.91109        -0.236932     -0.659444     -1.509296
      2.25938      6.01945      7.96848         1.454999      1.878844      0.628564
      0.42434      8.53406      8.20119         4.778343      0.754474      1.371296
      3.54210      8.93491      7.94442         8.376709      7.695083      2.066537
     -0.48145      7.67583      5.62361        -0.220854     -0.711811      0.516780
      2.52948      8.29568      5.51809        -7.116955     -2.495657      2.851103
      5.36724      7.75195      5.59606        -1.310100      1.470368     -0.217687
     -2.39222      8.87859      8.14501        -0.510511      1.246250      1.126533
     -4.09795      5.74767      8.11494        -0.692195     -0.790761      0.511238
     -1.05145      5.87613      8.14168         0.831959      2.363324      0.230295
    total drift:                                0.014239     -0.014498     -0.015742

  FREE ENERGIE OF THE ION-ELECTRON SYSTEM (eV)
  free  energy   TOTEN  =      -435.7696983740 eV

  energy  without entropy=     -435.6688918665  energy(sigma->0) =     -435.71929512

volume of typ            1:    16.6 %

volume of typ            2:     6.4 %

total charge

# of ion       s       p       d       tot
    1        0.220   0.222   7.910   8.352
    2        0.368   0.464   7.902   8.734
    3        0.239   0.218   7.835   8.292
    4        0.209   0.166   7.787   8.161
    5        0.344   0.422   7.876   8.643
    6        0.453   0.594   8.039   9.085
    7        0.234   0.192   7.850   8.276
    8        0.187   0.148   7.868   8.203
    9        0.242   0.239   7.804   8.286
   10        0.225   0.221   7.858   8.304
   11        0.307   0.353   7.911   8.570
   12        0.241   0.217   7.828   8.287
   13        0.319   0.387   7.808   8.514
   14        0.328   0.407   7.858   8.592
   15        0.250   0.202   7.901   8.353
   16        0.247   0.269   7.919   8.434
   17        0.195   0.143   7.898   8.236
   18        0.312   0.395   7.906   8.613
   19        0.287   0.295   7.940   8.522
   20        0.189   0.146   7.869   8.204
   21        0.230   0.238   7.908   8.376
   22        0.211   0.175   7.902   8.288
   23        0.251   0.241   7.957   8.449
   24        0.311   0.341   7.885   8.537
   25        0.223   0.213   7.850   8.286
   26        0.311   0.350   7.958   8.619
   27        0.294   0.351   7.877   8.522
   28        0.237   0.244   7.799   8.281
   29        0.308   0.345   7.853   8.505
   30        0.190   0.139   7.828   8.157
   31        0.252   0.259   7.885   8.396
   32        0.336   0.420   7.881   8.637
   33        1.262   2.745   0.008   4.015
   34        1.281   2.689   0.006   3.976
   35        1.288   2.635   0.003   3.927
   36        1.283   2.698   0.007   3.988
   37        1.268   2.799   0.013   4.080
   38        1.284   2.760   0.014   4.059
   39        1.284   2.645   0.003   3.933
   40        1.278   2.715   0.007   4.000
   41        1.295   2.652   0.007   3.954
   42        1.294   2.630   0.004   3.928
   43        1.288   2.636   0.004   3.928
   44        1.298   2.695   0.011   4.004
   45        1.274   2.714   0.007   3.995
   46        1.273   2.764   0.011   4.049
   47        1.293   2.632   0.004   3.930
   48        1.281   2.633   0.002   3.916
   49        1.288   2.657   0.005   3.950
   50        1.284   2.680   0.006   3.970
   51        1.276   2.752   0.011   4.039
   52        1.270   2.844   0.021   4.135
   53        1.289   2.690   0.008   3.987
   54        1.286   2.654   0.004   3.944
   55        1.278   2.645   0.002   3.926
   56        1.295   2.621   0.004   3.919
   57        1.272   2.703   0.006   3.981
   58        1.284   2.626   0.002   3.912
   59        1.296   2.600   0.002   3.898
   60        1.272   2.755   0.011   4.038
[...]
   66        1.264   2.807   0.015   4.086
   67        1.275   2.685   0.004   3.964
   68        1.314   2.853   0.033   4.201
   69        1.274   2.693   0.005   3.972
   70        1.292   2.609   0.002   3.904
   71        1.297   2.611   0.003   3.912
   72        1.290   2.618   0.002   3.910
   73        1.287   2.717   0.010   4.015
   74        1.286   2.814   0.021   4.122
   75        1.282   2.661   0.004   3.946
   76        1.289   2.768   0.016   4.072
   77        1.285   2.702   0.008   3.995
   78        1.266   2.730   0.007   4.003
   79        1.284   2.631   0.002   3.917
   80        1.295   2.676   0.008   3.979
tot          70.15  138.54  252.54  461.23

magnetization (x)

# of ion       s       p       d       tot
    1        0.004   0.009   0.666   0.678
    2        0.010   0.006   0.447   0.463
    3        0.003   0.029   1.497   1.529
    4       -0.001   0.013   1.558   1.569
    5        0.008   0.013   0.859   0.880
    6       -0.001  -0.004  -0.004  -0.009
    7        0.022   0.027   1.519   1.568
    8        0.010   0.014   1.413   1.436
    9        0.002   0.021   1.359   1.382
   10        0.001   0.012   1.149   1.162
   11       -0.001  -0.012  -0.830  -0.843
   12       -0.001   0.012   1.214   1.226
   13       -0.003   0.009   0.670   0.675
   14       -0.003   0.007   0.414   0.418
   15        0.016   0.024   1.362   1.402
   16       -0.000   0.010   0.775   0.785
   17        0.000   0.008   1.026   1.034
   18       -0.000  -0.003   0.123   0.120
   19       -0.002   0.005   0.477   0.480
   20       -0.003   0.011   1.311   1.319
   21        0.002   0.016   0.765   0.783
   22        0.001   0.008   0.949   0.958
   23        0.009   0.008   0.641   0.658
   24        0.005   0.002   0.205   0.213
   25       -0.000   0.006   0.972   0.977
   26        0.002  -0.001   0.054   0.055
   27        0.003   0.006   0.583   0.592
   28       -0.000  -0.012  -1.305  -1.317
   29        0.011   0.016   0.996   1.024
   30       -0.002   0.015   1.516   1.529
   31        0.004   0.017   0.937   0.958
   32       -0.001  -0.006  -0.331  -0.339
   33        0.010   0.229   0.000   0.239
   34        0.005   0.196  -0.000   0.201
   35        0.014   0.628   0.000   0.643
   36        0.008   0.255   0.000   0.263
   37        0.006   0.087   0.001   0.093
   38        0.005   0.176   0.000   0.182
   39        0.014   0.502   0.000   0.515
   40        0.014   0.464   0.000   0.478
   41        0.014   0.697   0.000   0.711
   42       -0.001  -0.116   0.000  -0.117
   43        0.011   0.483  -0.000   0.494
   44        0.009   0.475   0.000   0.484
   45        0.008   0.284   0.000   0.292
   46       -0.001  -0.031   0.000  -0.032
   47       -0.011  -0.528  -0.000  -0.540
   48        0.012   0.468   0.000   0.480
   49        0.009   0.325  -0.000   0.334
   50        0.012   0.514   0.000   0.526
   51        0.002   0.047   0.000   0.049
   52        0.001  -0.006  -0.001  -0.006
   53        0.011   0.550   0.000   0.561
   54        0.006   0.146   0.000   0.152
   55        0.013   0.469   0.000   0.482
   56        0.011   0.555  -0.000   0.567
   57        0.006   0.130   0.000   0.136
   58        0.013   0.508   0.000   0.520
   59        0.011   0.542  -0.000   0.554
   60        0.004   0.071   0.000   0.075
[...]
   66        0.006   0.151   0.000   0.157
   67       -0.003  -0.123  -0.000  -0.127
   68        0.001   0.010  -0.000   0.010
   69        0.002   0.049  -0.000   0.051
   70        0.013   0.579  -0.000   0.592
   71        0.013   0.654  -0.000   0.667
   72        0.008   0.287   0.000   0.296
   73        0.007   0.269   0.000   0.276
   74        0.003   0.098  -0.000   0.101
   75       -0.002  -0.167  -0.000  -0.169
   76       -0.000  -0.068  -0.000  -0.068
   77        0.006   0.275   0.000   0.280
   78        0.009   0.263   0.000   0.272
   79        0.009   0.366   0.000   0.374
   80        0.007   0.310   0.000   0.317
tot           0.41   12.04   22.99   35.43