 vasp.5.4.4.18Apr17-6-g9f103f2a35 (build May 12 2020 04:58:55) complex

 MD_VERSION_INFO: Compiled 2020-05-12T11:58:55-UTC in devlin.sd.materialsdesign.
 com:/home/medea2/data/build/wwolf/vasp-gpu5.4.4/13047/x86_64/src/src/build/std
 from svn 13047

 executed on                        Lin64 date 2023.03.25  13:27:03

 INCAR:
 POTCAR:    PAW_PBE Ni 02Aug2007
 POTCAR:    PAW_PBE O 08Apr2002

 POTCAR:    PAW_PBE Ni 02Aug2007

 POTCAR:    PAW_PBE O 08Apr2002

 Optimization of the real space projectors (new method)

 maximal supplied QI-value         = 16.25
 optimisation between [QCUT,QGAM] = [ 11.38, 22.75] = [ 36.24,144.96] Ry
 Optimized for a Real-space Cutoff    1.47 Angstroem

   l    n(q)    QCUT    max X(q) W(low)/X(q) W(high)/X(q)  e(spline)
   2      9    11.376    60.317    0.17E-03    0.16E-04    0.16E-06
   2      9    11.376    55.921    0.17E-03    0.16E-04    0.17E-06
   0     10    11.376    51.690    0.45E-04    0.60E-04    0.21E-06
   0     10    11.376    30.015    0.37E-04    0.55E-04    0.19E-06
   1     10    11.376    18.849    0.83E-04    0.11E-03    0.92E-07
   1     10    11.376    14.624    0.69E-04    0.92E-04    0.82E-07
 Optimization of the real space projectors (new method)

 maximal supplied QI-value         = 24.76
 optimisation between [QCUT,QGAM] = [ 11.39, 22.77] = [ 36.31,145.25] Ry
 Optimized for a Real-space Cutoff    1.10 Angstroem

   l    n(q)    QCUT    max X(q) W(low)/X(q) W(high)/X(q)  e(spline)
   0      7    11.387    20.381    0.22E-03    0.48E-03    0.18E-06
   0      7    11.387    15.268    0.22E-03    0.52E-03    0.19E-06
   1      7    11.387     5.964    0.22E-03    0.73E-03    0.24E-06
   1      7    11.387     5.382    0.19E-03    0.60E-03    0.21E-06

  PAW_PBE Ni 02Aug2007                  :
  PAW_PBE O 08Apr2002                   :

 POSCAR: Ni2O3_Cc_scale_1_050_disp_0_10_round_1
  positions in direct lattice
 exchange correlation table for  LEXCH =       14
   RHO(1)=    0.500       N(1)  =     2000
   RHO(2)=  100.500       N(2)  =     4000

 ion  position               nearest neighbor table
   1  0.855  0.418  0.224-  38 1.76  33 1.85  60 2.09   8 2.94   2 3.02
   2  0.715  0.196  0.245-  37 1.85  40 1.93  38 1.94  36 1.95   1 3.02  15 3.05  16 3.08
   3  0.390  0.300  0.999-  35 1.58  39 2.00  40 2.08  54 2.52  20 2.82
   4  0.243  0.038  0.998-  39 1.82  59 2.25  58 2.30  55 2.52
   5  0.385  0.203  0.228-  44 1.74  37 1.78  39 1.90  42 1.96  11 3.08
   6  0.226  0.428  0.250-  67 1.72  42 1.76  34 2.07  68 2.15  11 2.85
   7  0.868  0.047  0.015-  41 1.86  57 2.36   8 2.83  17 2.98
   8  0.728  0.260  0.008-  41 1.50  40 1.84  33 2.01  49 2.16   7 2.83   1 2.94
   9  0.882  0.426  0.718-  50 1.72  45 1.79  72 1.94  79 2.19  16 3.05
  10  0.694  0.193  0.724-  49 1.77  48 1.81  52 2.10  50 2.16  13 2.93
  11  0.394  0.282  0.466-  42 1.79  47 1.91  51 1.93  52 1.96   6 2.85  12 3.06   5 3.08  16 3.08

  12  0.240  0.054  0.463-  43 1.66  51 1.80  71 2.26  70 2.42  11 3.06
  13  0.395  0.198  0.718-  54 1.80  51 1.98  49 2.04  56 2.07  10 2.93
  14  0.228  0.439  0.720-  79 1.75  46 1.81  54 1.97  80 2.02  28 3.01
  15  0.871  0.052  0.485-  53 1.79  36 1.90  69 2.24   2 3.05
  16  0.707  0.292  0.470-  52 1.76  45 1.77  53 1.88  37 1.93   9 3.05  11 3.08   2 3.08
  17  0.869  0.914  0.217-  57 1.62  62 1.89  36 2.35  43 2.49   7 2.98
  18  0.717  0.666  0.251-  61 1.74  60 1.86  64 1.93  62 2.04  31 2.90  32 3.06
  19  0.400  0.770  0.006-  59 1.56  64 1.94  63 1.95
  20  0.245  0.506  0.999-  35 1.75  34 1.85  63 2.13  79 2.34   3 2.82
  21  0.395  0.657  0.251-  68 1.60  63 1.90  66 1.92  61 1.94  27 3.02
  22  0.252  0.896  0.251-  66 1.60  58 1.98  43 2.38  44 2.45  27 2.85
  23  0.854  0.527  0.994-  33 1.88  65 1.89  34 2.41  72 2.43  24 2.97
  24  0.696  0.744  0.988-  65 1.58  64 1.83  57 1.90  73 2.17  23 2.97
  25  0.867  0.907  0.712-  74 1.63  69 1.88  48 2.30  26 3.02  32 3.05
  26  0.712  0.683  0.708-  76 1.70  73 1.87  74 1.93  72 2.00  32 2.94  25 3.02  27 3.03
  27  0.398  0.757  0.473-  66 1.85  76 1.86  71 1.89  75 1.92  22 2.85  21 3.02  26 3.03
  28  0.230  0.508  0.490-  46 1.75  47 1.80  67 2.01  75 2.02  14 3.01  29 3.05
  29  0.379  0.683  0.705-  78 1.62  75 1.75  80 1.96  73 2.06  28 3.05
  30  0.221  0.914  0.708-  70 1.78  55 1.97  78 2.03  56 2.14
  31  0.875  0.529  0.480-  77 1.55  60 1.88  45 1.92  46 2.20  18 2.90  32 2.97
  32  0.722  0.745  0.485-  77 1.82  76 1.84  69 1.93  61 2.07  26 2.94  31 2.97  25 3.05  18 3.06

  33  0.756  0.428  0.050-   1 1.85  23 1.88   8 2.01
  34  0.119  0.462  0.059-  20 1.85   6 2.07  23 2.41
  35  0.416  0.420  0.065-   3 1.58  20 1.75
  36  0.774  0.040  0.307-  15 1.90   2 1.95  17 2.35
  37  0.581  0.256  0.291-   5 1.78   2 1.85  16 1.93
  38  0.908  0.284  0.300-   1 1.76   2 1.94
  39  0.285  0.186  0.050-   4 1.82   5 1.90   3 2.00
  40  0.600  0.209  0.063-   8 1.84   2 1.93   3 2.08
  41  0.881  0.205  0.039-   8 1.50   7 1.86
  42  0.275  0.284  0.296-   6 1.76  11 1.79   5 1.96
  43  0.120  0.028  0.308-  12 1.66  22 2.38  17 2.49
  44  0.419  0.062  0.281-   5 1.74  22 2.45
  45  0.801  0.420  0.552-  16 1.77   9 1.79  31 1.92
  46  0.116  0.460  0.549-  28 1.75  14 1.81  31 2.20
  47  0.407  0.437  0.517-  28 1.80  11 1.91
  48  0.767  0.048  0.777-  10 1.81  25 2.30
  49  0.621  0.266  0.805-  10 1.77  13 2.04   8 2.16
  50  0.904  0.286  0.763-   9 1.72  10 2.16
  51  0.291  0.194  0.532-  12 1.80  11 1.93  13 1.98
  52  0.609  0.219  0.532-  16 1.76  11 1.96  10 2.10
  53  0.890  0.199  0.529-  15 1.79  16 1.88
  54  0.282  0.277  0.767-  13 1.80  14 1.97   3 2.52
  55  0.114  0.019  0.763-  30 1.97   4 2.52
  56  0.418  0.024  0.756-  13 2.07  30 2.14
  57  0.765  0.890  0.065-  17 1.62  24 1.90   7 2.36
  58  0.113  0.928  0.067-  22 1.98   4 2.30
  59  0.416  0.891  0.065-  19 1.56   4 2.25
  60  0.754  0.514  0.303-  18 1.86  31 1.88   1 2.09
  61  0.591  0.732  0.289-  18 1.74  21 1.94  32 2.07
  62  0.906  0.765  0.286-  17 1.89  18 2.04
  63  0.301  0.675  0.074-  21 1.90  19 1.95  20 2.13
  64  0.603  0.693  0.071-  24 1.83  18 1.93  19 1.94
  65  0.862  0.683  0.037-  24 1.58  23 1.89
  66  0.291  0.766  0.298-  22 1.60  27 1.85  21 1.92
  67  0.134  0.516  0.303-   6 1.72  28 2.01
  68  0.434  0.528  0.299-  21 1.60   6 2.15
  69  0.774  0.903  0.536-  25 1.88  32 1.93  15 2.24
  70  0.115  0.932  0.541-  30 1.78  12 2.42
  71  0.420  0.910  0.531-  27 1.89  12 2.26
  72  0.773  0.523  0.773-   9 1.94  26 2.00  23 2.43
  73  0.613  0.736  0.789-  26 1.87  29 2.06  24 2.17
  74  0.901  0.775  0.763-  25 1.63  26 1.93
  75  0.297  0.672  0.541-  29 1.75  27 1.92  28 2.02
  76  0.602  0.694  0.547-  26 1.70  32 1.84  27 1.86
  77  0.891  0.657  0.517-  31 1.55  32 1.82
  78  0.310  0.756  0.775-  29 1.62  30 2.03
  79  0.118  0.496  0.778-  14 1.75   9 2.19  20 2.34
  80  0.427  0.523  0.759-  29 1.96  14 2.02

  LATTYP: Found a simple monoclinic cell.
 ALAT       =    16.7450373351
 B/A-ratio  =     0.6987547872
 C/A-ratio  =     1.5833429410
 COS(beta)  =    -0.9717709890

  Lattice vectors:

 A1 = ( -13.0139522300,   0.0000000000, -10.5372350600)
 A2 = (   0.0000000000, -11.7006750000,   0.0000000000)
 A3 = (  16.0876699600,   0.0000000000,  21.0744701200)

Analysis of symmetry for initial positions (statically):
 Subroutine PRICEL returns:
 Original cell was already a primitive cell.

 Routine SETGRP: Setting up the symmetry group for a
 simple monoclinic supercell.

 Subroutine GETGRP returns: Found  1 space group operations
 (whereof  1 operations were pure point group operations)
 out of a pool of  4 trial point group operations.

The static configuration has the point symmetry C_1 .

Analysis of symmetry for dynamics (positions and initial velocities):
 Subroutine PRICEL returns:
 Original cell was already a primitive cell.

[...]

The dynamic configuration has the point symmetry C_1 .

Analysis of structural, dynamic, and magnetic symmetry:
 Subroutine PRICEL returns:
 Original cell was already a primitive cell.

 Routine SETGRP: Setting up the symmetry group for a
 simple monoclinic supercell.

 Subroutine GETGRP returns: Found  1 space group operations
 (whereof  1 operations were pure point group operations)
 out of a pool of  4 trial point group operations.

The magnetic configuration has the point symmetry C_1 .

 Subroutine INISYM returns: Found  1 space group operations
 (whereof  1 operations are pure point group operations),
 and found     1 'primitive' translations

 KPOINTS: Automatic mesh

Automatic generation of k-mesh.
Space group operators:
 irot       det(A)        alpha          n_x          n_y          n_z        tau_x        tau_y        tau_z
    1     1.000000     0.000000     1.000000     0.000000     0.000000     0.000000     0.000000     0.000000

 Subroutine IBZKPT returns following result:

 Found     19 irreducible k-points:

 Following reciprocal coordinates:
            Coordinates               Weight
  0.000000  0.000000  0.000000      1.000000
  0.250000  0.000000  0.000000      2.000000
  0.500000  0.000000  0.000000      1.000000
  0.000000  0.333333  0.000000      2.000000
  0.250000  0.333333  0.000000      2.000000
  0.500000  0.333333  0.000000      2.000000
 -0.250000  0.333333  0.000000      2.000000
  0.000000  0.000000  0.333333      2.000000
  0.250000  0.000000  0.333333      2.000000
  0.500000  0.000000  0.333333      2.000000
 -0.250000  0.000000  0.333333      2.000000
  0.000000  0.333333  0.333333      2.000000
  0.250000  0.333333  0.333333      2.000000
  0.500000  0.333333  0.333333      2.000000
 -0.250000  0.333333  0.333333      2.000000
  0.000000 -0.333333  0.333333      2.000000
  0.250000 -0.333333  0.333333      2.000000
  0.500000 -0.333333  0.333333      2.000000
 -0.250000 -0.333333  0.333333      2.000000

 Following cartesian coordinates:
            Coordinates               Weight
  0.000000  0.000000  0.000000      1.000000
  0.025150  0.000000  0.016389      2.000000
  0.050301  0.000000  0.032778      1.000000
  0.000000  0.028488  0.000000      2.000000
  0.025150  0.028488  0.016389      2.000000
  0.050301  0.028488  0.032778      2.000000
 -0.025150  0.028488 -0.016389      2.000000
  0.000000  0.000000  0.031634      2.000000
  0.025150  0.000000  0.048023      2.000000
  0.050301  0.000000  0.064412      2.000000
 -0.025150  0.000000  0.015245      2.000000
  0.000000  0.028488  0.031634      2.000000
  0.025150  0.028488  0.048023      2.000000
  0.050301  0.028488  0.064412      2.000000
 -0.025150  0.028488  0.015245      2.000000
  0.000000 -0.028488  0.031634      2.000000
  0.025150 -0.028488  0.048023      2.000000
  0.050301 -0.028488  0.064412      2.000000
 -0.025150 -0.028488  0.015245      2.000000

 SYSTEM =  unknown system
 POSCAR =  Ni2O3_Cc_scale_1_050_disp_0_10_round_1

 Startparameter for this run:
   NWRITE =      1    write-flag & timer
   PREC   = accura    normal or accurate (medium, high low for compatibility)
   ISTART =      0    job   : 0-new  1-cont  2-samecut
   ICHARG =      2    charge: 1-file 2-atom 10-const
   ISPIN  =      2    spin polarized calculation?
   LNONCOLLINEAR =      F non collinear calculations
[...]
   0.159E+03 -.687E+01 -.334E+00   -.170E+03 0.172E+02 -.196E+01   0.114E+02 -.100E+02 0.259E+01   -.184E+00 -.358E+00 0.364E+00
   0.248E+02 0.237E+03 -.921E+02   -.266E+02 -.250E+03 0.930E+02   -.845E-01 0.146E+02 -.819E+00   -.105E-01 -.587E+00 0.995E+00
   -.186E+03 0.239E+02 -.207E+03   0.197E+03 -.142E+02 0.219E+03   -.123E+02 -.101E+02 -.129E+02   0.225E+00 -.777E+00 0.164E+00
   0.165E+03 0.132E+03 -.519E+02   -.178E+03 -.137E+03 0.549E+02   0.138E+02 0.583E+01 -.262E+01   -.105E+00 -.265E+00 0.109E+00
   0.688E+02 -.108E+03 -.873E+02   -.744E+02 0.121E+03 0.868E+02   0.568E+01 -.137E+02 0.111E+01   0.188E+00 -.522E+00 -.261E+00
   -.674E+02 0.928E+02 -.144E+03   0.756E+02 -.977E+02 0.150E+03   -.919E+01 0.669E+01 -.640E+01   -.553E-01 -.748E+00 -.267E-01
   -.514E+01 -.149E+03 0.221E+03   0.199E+01 0.154E+03 -.239E+03   0.373E+01 -.386E+01 0.151E+02   -.104E-01 -.141E+01 -.785E+00
   0.524E+02 0.436E+02 0.190E+03   -.552E+02 -.488E+02 -.200E+03   0.335E+01 0.705E+01 0.116E+02   -.117E+00 -.417E+00 -.173E+00
   -.439E+01 -.275E+03 -.422E+02   0.466E+01 0.295E+03 0.587E+02   -.181E+01 -.161E+02 -.160E+02   0.422E-01 0.471E+00 -.461E-02
   0.215E+02 0.110E+03 0.107E+03   -.315E+02 -.123E+03 -.115E+03   0.113E+02 0.117E+02 0.815E+01   0.123E+00 0.598E+00 0.969E-01
[...]
   0.155E+03 -.190E+03 0.107E+03   -.166E+03 0.205E+03 -.111E+03   0.950E+01 -.155E+02 0.530E+01   -.626E+00 0.727E+00 -.152E+00
   -.671E+02 0.183E+03 -.868E+02   0.753E+02 -.204E+03 0.976E+02   -.973E+01 0.175E+02 -.100E+02   0.372E+00 0.318E+00 -.125E+00
   -.941E+01 -.159E+03 0.736E+02   0.714E+01 0.167E+03 -.841E+02   0.247E+01 -.719E+01 0.112E+02   0.269E+00 0.202E-01 0.169E+00
   0.215E+02 0.500E+02 0.126E+03   -.208E+02 -.537E+02 -.143E+03   -.665E+00 0.491E+01 0.160E+02   -.291E+00 -.254E+00 0.752E+00
   -.357E+02 -.168E+03 -.138E+03   0.395E+02 0.176E+03 0.147E+03   -.453E+01 -.916E+01 -.112E+02   -.363E-01 0.303E+00 0.668E+00
   0.610E+02 0.441E+02 -.106E+03   -.709E+02 -.491E+02 0.107E+03   0.114E+02 0.493E+01 -.183E+01   -.453E+00 0.658E+00 0.645E+00
   -.877E+01 -.193E+03 -.987E+02   0.799E+01 0.203E+03 0.100E+03   0.567E+00 -.100E+02 -.234E+01   -.442E+00 -.123E+00 0.809E+00
   -.169E+03 0.754E+02 -.286E+03   0.180E+03 -.915E+02 0.300E+03   -.121E+02 0.141E+02 -.133E+02   -.198E+00 -.930E-01 0.153E+00
   0.136E+03 -.109E+03 0.120E+03   -.143E+03 0.112E+03 -.133E+03   0.783E+01 -.348E+01 0.108E+02   -.628E+00 0.146E-01 0.111E+01
   0.102E+02 0.691E+02 0.184E+02   -.124E+02 -.798E+02 -.284E+02   0.176E+01 0.113E+02 0.757E+01   0.556E+00 -.846E-02 0.689E+00
   -.197E+03 -.252E+03 -.214E+03   0.208E+03 0.273E+03 0.226E+03   -.133E+02 -.152E+02 -.113E+02   0.960E-01 0.674E-01 0.221E-02
   0.219E+03 -.843E+02 -.117E+03   -.235E+03 0.864E+02 0.128E+03   0.135E+02 0.606E+00 -.932E+01   0.743E+00 0.445E-03 -.494E+00
   0.950E+02 -.156E+03 -.108E+03   -.103E+03 0.166E+03 0.111E+03   0.722E+01 -.112E+02 -.178E+01   -.219E+00 0.664E+00 0.561E+00
   -.108E+03 0.878E+02 -.181E+03   0.119E+03 -.959E+02 0.188E+03   -.133E+02 0.799E+01 -.865E+01   0.426E+00 0.111E+01 0.255E+00
   -.278E+02 -.272E+02 0.355E+02   -.199E-12 0.568E-12 -.284E-12   0.260E+02 0.252E+02 -.360E+02   0.172E+01 0.199E+01 0.515E+00

 POSITION                                       TOTAL-FORCE (eV/Angst)
      6.96317      4.89083      2.35575        -0.742200      0.353657      0.444588
      5.42161      2.29785      2.58052         1.040692     -0.394436      0.134519
     -2.98496      3.50758     10.52796         0.968007     -5.197181     -1.388011
     -4.44420      0.44381     10.51960        -0.298455     -1.613948      0.491702
      2.25999      2.36967      2.40078        -0.864043     -1.173791     -0.211420
      0.52462      5.01027      2.63833         1.533647      1.668535     -1.542224
      8.52992      0.55497      0.15500         0.560036      0.366671     -0.030484
      7.18255      3.04765      0.07961        -7.388442      4.157186     -2.539468
      3.83070      4.98957      7.57074        -0.286153      0.732419      1.184878
      1.92794      2.25416      7.62554         2.093417     -0.266341     -0.214333
      0.72000      3.29536      4.90606         0.092244      0.388862      1.726898
     -0.79056      0.62944      4.87389         0.253920     -1.387946      1.824255
     -1.00192      2.31325      7.56496         0.164670     -1.093333      0.141332
     -2.67579      5.13430      7.58231         1.573375     -0.436263      0.438441
      5.33089      0.60628      5.11148         0.026805     -0.179047     -0.706369
      3.80166      3.41127      4.95751         1.428090     -1.132651     -0.448288
      7.14696     10.69787      2.28236        -0.372399     -0.789330      3.885050
      5.40259      7.79572      2.64742         2.237626      0.754452     -1.007615
      3.92802      9.01234      0.06830         0.530342     -5.004869     -0.410136
     -4.42700      5.92622     10.52873        -0.800962      0.502644      0.480849
      2.20751      7.69031      2.64165         0.411554      3.525128     -1.842409
      0.77965     10.48373      2.64559        -0.377210      5.594495     -3.093708
      1.66932      6.16310     10.47055         0.351850      0.769324     -0.049965
      0.12998      8.70006     10.41346        -2.648178      2.243451     -1.342066
      3.72538     10.60826      7.50080         0.081472      3.393762     -1.283817
      2.21977      7.99306      7.45831         0.285549     -0.711553      3.417954
      0.70492      8.86085      4.98398        -0.829367      1.457360      0.755368
     -1.07763      5.93871      5.16608         1.743891      0.582722     -0.743960
     -1.07192      7.98770      7.42522         2.981759     -2.494515      0.224216
     -2.66917     10.69872      7.46000         0.341727      1.529129      0.510951
      5.40409      6.19222      5.06191         0.575020     -5.950741     -1.473931
      3.84105      8.72045      5.11254         0.979460      0.796268     -0.470908
      7.17483      5.00514      0.52254         0.975373     -0.229467      0.266523
      0.77989      5.40026      0.62490        -0.145844      0.476534      0.627822
      3.68597      4.90977      0.68865        -1.109256      3.718487      0.719187
      5.58341      0.47104      3.23186         0.593784      0.548828      0.686675
      3.78013      2.99804      3.06858         0.656242      0.325617      1.142380
      6.95792      3.32628      3.16594        -1.113834      0.165793     -0.960363
      2.49064      2.18089      0.52700         0.877565      0.113496     -0.357443
      5.53830      2.44848      0.65959        -0.539555      1.223766      0.123260
      8.49206      2.39429      0.40575         7.092633     -6.070911      1.757607
      0.70517      3.32785      3.11807         1.045707     -0.969590     -0.736967
     -0.92387      0.32758      3.24427        -0.041727     -1.535557     -1.509770
      2.24115      0.71964      2.95571        -0.992175     -0.219978     -0.572848
      4.17969      4.91834      5.81176         0.486393      0.792931     -0.551802
     -2.61939      5.37857      5.78620        -1.148826      0.455019     -0.344211
      0.49507      5.11289      5.44295        -0.699440     -1.042347     -0.470149
      2.28628      0.56739      8.19170         0.280954      0.520759      0.067967
      0.64168      3.10793      8.48301        -0.908113     -1.269317     -0.007012
      3.74729      3.34130      8.04359        -1.667859     -0.000981     -0.276288
     -0.76355      2.27442      5.60457         0.630448     -0.052993      0.664269
      2.39814      2.56308      5.60259        -1.914673      0.511258      0.986906
      5.21361      2.33245      5.57009        -0.765223     -1.172938     -0.890818
     -2.46196      3.23799      8.08184         0.630532      1.075649      0.511564
     -4.10473      0.21974      8.03531         0.236823     -1.910698      0.361954
     -1.03283      0.28095      7.96748        -1.090664      1.089067     -0.687416
      7.15712     10.41410      0.68530         0.581126      0.209221     -2.994985
      0.66468     10.85463      0.70174         0.464600      1.415697      1.546070
      3.68825     10.42563      0.68361        -1.500686      4.997927      0.536676
      5.41067      6.01822      3.19309         1.427754     -0.097845      0.345691
[...]
      0.85137      8.96142      3.13782         0.859587     -3.892299      1.117431
     -0.74832      6.03298      3.18840        -1.427455     -0.316069      0.948556
      2.26604      6.17276      3.14599        -1.087579     -3.280233      0.677575
      4.01658     10.56920      5.64428         0.470591     -0.094310      0.827968
     -2.57353     10.90955      5.69618        -0.269061      0.940784      0.292011
      0.53460     10.64640      5.59375        -0.773640     -0.410636     -1.187229
      2.37015      6.12179      8.14852         1.089961      0.623816      0.142579
      0.67582      8.61697      8.31402        -0.653906     -0.827037      0.105888
      3.71468      9.07339      8.04289        -1.279056     -2.176652      0.274367
     -0.76694      7.86384      5.70559         0.688981     -0.704605     -0.541329
      2.22689      8.12043      5.76659         0.143165      0.528089     -1.744162
      5.30120      7.68722      5.45109        -1.429416      5.512357      1.076532
     -2.23913      8.84167      8.16249        -2.287640      2.759053      1.294590
     -4.17099      5.79894      8.20306        -1.072566     -0.488182      1.087752
     -0.96593      6.12077      8.00234        -1.964584      0.976643     -0.993542
    total drift:                               -0.041073      0.015212      0.001379

  FREE ENERGIE OF THE ION-ELECTRON SYSTEM (eV)
  free  energy   TOTEN  =      -449.7729955849 eV

  energy  without entropy=     -449.6655256590  energy(sigma->0) =     -449.71926062

volume of typ            1:    16.6 %

volume of typ            2:     6.4 %

total charge

# of ion       s       p       d       tot
    1        0.247   0.230   7.864   8.340
    2        0.244   0.257   7.813   8.313
    3        0.264   0.266   7.939   8.469
    4        0.190   0.135   7.869   8.195
    5        0.278   0.323   7.857   8.457
    6        0.274   0.291   7.845   8.410
    7        0.162   0.109   7.983   8.254
    8        0.316   0.379   7.953   8.648
    9        0.271   0.293   7.826   8.390
   10        0.250   0.251   7.809   8.310
   11        0.252   0.276   7.854   8.382
   12        0.275   0.267   7.833   8.374
   13        0.235   0.228   7.806   8.270
   14        0.269   0.297   7.806   8.372
   15        0.226   0.192   7.816   8.234
   16        0.276   0.320   7.848   8.444
   17        0.260   0.236   7.919   8.415
   18        0.261   0.286   7.818   8.365
   19        0.291   0.303   7.926   8.521
   20        0.232   0.222   7.854   8.308
   21        0.298   0.353   7.859   8.510
   22        0.258   0.237   7.904   8.400
   23        0.198   0.162   7.851   8.210
   24        0.292   0.330   7.855   8.477
   25        0.268   0.247   7.875   8.390
   26        0.267   0.302   7.839   8.408
   27        0.249   0.276   7.881   8.406
   28        0.264   0.288   7.819   8.371
   29        0.304   0.362   7.814   8.480
   30        0.241   0.227   7.767   8.236
   31        0.301   0.346   7.905   8.552
   32        0.240   0.259   7.868   8.368
   33        1.265   2.729   0.007   4.001
   34        1.277   2.668   0.004   3.949
   35        1.285   2.754   0.015   4.054
   36        1.276   2.675   0.004   3.955
   37        1.268   2.757   0.009   4.034
   38        1.282   2.690   0.006   3.979
   39        1.265   2.730   0.007   4.002
   40        1.271   2.708   0.006   3.985
   41        1.288   2.773   0.017   4.078
   42        1.264   2.776   0.010   4.049
   43        1.287   2.682   0.007   3.975
   44        1.297   2.634   0.005   3.936
   45        1.266   2.765   0.009   4.040
   46        1.271   2.742   0.008   4.021
   47        1.286   2.678   0.006   3.970
   48        1.283   2.626   0.004   3.912
   49        1.281   2.685   0.006   3.973
   50        1.293   2.664   0.006   3.964
   51        1.263   2.742   0.007   4.012
   52        1.275   2.715   0.007   3.997
   53        1.285   2.674   0.006   3.966
   54        1.276   2.687   0.005   3.968
   55        1.293   2.604   0.002   3.899
   56        1.296   2.593   0.002   3.890
   57        1.276   2.733   0.010   4.020
   58        1.289   2.611   0.002   3.902
   59        1.292   2.708   0.011   4.011
   60        1.272   2.710   0.006   3.988
[...]
   66        1.268   2.788   0.014   4.070
   67        1.282   2.695   0.006   3.983
   68        1.290   2.708   0.010   4.007
   69        1.272   2.687   0.005   3.964
   70        1.291   2.645   0.004   3.940
   71        1.295   2.615   0.003   3.913
   72        1.278   2.656   0.003   3.938
   73        1.282   2.661   0.004   3.947
   74        1.285   2.714   0.010   4.008
   75        1.271   2.731   0.008   4.009
   76        1.268   2.775   0.012   4.055
   77        1.285   2.754   0.015   4.054
   78        1.275   2.732   0.009   4.016
   79        1.280   2.685   0.005   3.970
   80        1.294   2.622   0.003   3.919
tot          69.69  138.01  251.81  459.52

magnetization (x)

# of ion       s       p       d       tot
    1        0.010   0.022   1.273   1.305
    2       -0.001   0.023   1.324   1.346
    3       -0.006  -0.002   0.091   0.083
    4        0.004   0.009   1.269   1.282
    5        0.001   0.018   1.003   1.022
    6        0.007   0.023   1.203   1.234
    7       -0.012  -0.003  -0.572  -0.587
    8       -0.001   0.003   0.182   0.185
    9        0.000   0.014   1.071   1.085
   10       -0.003  -0.008   0.096   0.085
   11        0.001   0.024   1.080   1.106
   12        0.011   0.021   1.343   1.376
   13        0.001   0.020   1.420   1.441
   14        0.000   0.025   1.328   1.353
   15        0.000   0.011   1.269   1.280
   16       -0.001  -0.011  -0.754  -0.766
   17       -0.003   0.002   0.353   0.351
   18        0.002   0.019   1.151   1.171
   19        0.011   0.008   0.712   0.731
   20       -0.000  -0.005  -0.379  -0.384
   21        0.009   0.023   0.869   0.901
   22       -0.003   0.002   0.285   0.283
   23        0.008   0.014   1.213   1.235
   24        0.003   0.002   0.025   0.030
   25        0.006   0.015   1.021   1.042
   26        0.000   0.012   0.569   0.581
   27        0.000   0.013   0.789   0.803
   28        0.007   0.022   1.137   1.167
   29        0.002   0.006   0.410   0.417
   30       -0.002   0.024   1.546   1.568
   31       -0.002   0.003  -0.091  -0.090
   32        0.000   0.008   0.412   0.420
   33        0.007   0.226   0.000   0.234
   34        0.006   0.215  -0.000   0.220
   35       -0.001  -0.067   0.000  -0.068
   36        0.011   0.353   0.000   0.364
   37        0.006   0.101   0.000   0.107
   38        0.011   0.507   0.000   0.518
   39        0.008   0.215   0.000   0.224
   40        0.006   0.174   0.000   0.181
   41       -0.000  -0.026   0.000  -0.026
   42        0.009   0.201   0.001   0.211
   43        0.009   0.404   0.000   0.414
   44        0.011   0.556   0.000   0.567
   45        0.003  -0.021   0.000  -0.017
   46        0.008   0.221   0.000   0.229
   47        0.012   0.498   0.000   0.509
   48        0.004   0.162  -0.000   0.167
   49        0.004   0.127  -0.000   0.131
   50        0.009   0.415   0.000   0.424
   51        0.012   0.288   0.000   0.300
   52        0.001   0.008  -0.000   0.009
   53        0.004   0.241   0.000   0.245
   54        0.011   0.362   0.000   0.372
   55        0.013   0.602   0.000   0.615
   56        0.017   0.777   0.000   0.794
   57        0.000  -0.024   0.000  -0.023
   58        0.007   0.299  -0.000   0.306
   59        0.008   0.374   0.000   0.382
   60        0.006   0.146   0.000   0.153
[...]
   66        0.005   0.049   0.000   0.054
   67        0.011   0.426   0.000   0.438
   68        0.010   0.416   0.000   0.426
   69        0.007   0.180   0.000   0.187
   70        0.014   0.631   0.000   0.645
   71        0.014   0.644   0.000   0.658
   72        0.009   0.302   0.000   0.312
   73        0.005   0.141   0.000   0.146
   74        0.007   0.321   0.000   0.329
   75        0.007   0.082   0.000   0.089
   76        0.005   0.102   0.000   0.107
   77        0.002   0.039   0.000   0.040
   78        0.006   0.159   0.000   0.164
   79        0.008   0.300   0.000   0.308
   80        0.010   0.465  -0.000   0.475
tot           0.41   13.05   22.66   36.12