 vasp.5.4.4.18Apr17-6-g9f103f2a35 (build May 12 2020 04:58:55) complex

 MD_VERSION_INFO: Compiled 2020-05-12T11:58:55-UTC in devlin.sd.materialsdesign.
 com:/home/medea2/data/build/wwolf/vasp-gpu5.4.4/13047/x86_64/src/src/build/std
 from svn 13047

 executed on                        Lin64 date 2023.03.25  14:08:57

 INCAR:
 POTCAR:    PAW_PBE Ni 02Aug2007
 POTCAR:    PAW_PBE O 08Apr2002

 POTCAR:    PAW_PBE Ni 02Aug2007

 POTCAR:    PAW_PBE O 08Apr2002

 Optimization of the real space projectors (new method)

 maximal supplied QI-value         = 16.25
 optimisation between [QCUT,QGAM] = [ 11.38, 22.75] = [ 36.24,144.96] Ry
 Optimized for a Real-space Cutoff    1.47 Angstroem

   l    n(q)    QCUT    max X(q) W(low)/X(q) W(high)/X(q)  e(spline)
   2      9    11.376    60.317    0.17E-03    0.16E-04    0.16E-06
   2      9    11.376    55.921    0.17E-03    0.16E-04    0.17E-06
   0     10    11.376    51.690    0.45E-04    0.60E-04    0.21E-06
   0     10    11.376    30.015    0.37E-04    0.55E-04    0.19E-06
   1     10    11.376    18.849    0.83E-04    0.11E-03    0.92E-07
   1     10    11.376    14.624    0.69E-04    0.92E-04    0.82E-07
 Optimization of the real space projectors (new method)

 maximal supplied QI-value         = 24.76
 optimisation between [QCUT,QGAM] = [ 11.39, 22.77] = [ 36.31,145.25] Ry
 Optimized for a Real-space Cutoff    1.10 Angstroem

   l    n(q)    QCUT    max X(q) W(low)/X(q) W(high)/X(q)  e(spline)
   0      7    11.387    20.381    0.22E-03    0.48E-03    0.18E-06
   0      7    11.387    15.268    0.22E-03    0.52E-03    0.19E-06
   1      7    11.387     5.964    0.22E-03    0.73E-03    0.24E-06
   1      7    11.387     5.382    0.19E-03    0.60E-03    0.21E-06

  PAW_PBE Ni 02Aug2007                  :
  PAW_PBE O 08Apr2002                   :

 POSCAR: Ni2O3_Cc_scale_1_050_disp_0_05_round_2
  positions in direct lattice
 exchange correlation table for  LEXCH =       14
   RHO(1)=    0.500       N(1)  =     2000
   RHO(2)=  100.500       N(2)  =     4000

 ion  position               nearest neighbor table
   1  0.870  0.438  0.236-  38 1.86  33 1.88  60 1.99  67 2.24   8 2.97  23 2.99
   2  0.722  0.196  0.239-  36 1.79  38 1.86  40 1.86  37 1.97   8 2.99  15 3.03
   3  0.386  0.283  0.994-  39 1.90  35 1.90  40 2.00  54 2.30
   4  0.239  0.037  0.998-  39 1.93  58 2.09  59 2.21  55 2.48   5 3.06
   5  0.379  0.192  0.231-  39 1.78  44 1.80  42 1.85  37 1.90   4 3.06
   6  0.248  0.434  0.252-  68 1.77  67 1.85  42 1.85  34 2.00  11 2.94  28 3.06  21 3.07
   7  0.857  0.048  0.997-  41 1.74  57 2.17  48 2.49
   8  0.723  0.280  0.015-  33 1.74  40 1.79  41 1.83   1 2.97   2 2.99
   9  0.868  0.440  0.714-  72 1.76  45 1.81  50 1.99  79 2.30
  10  0.714  0.200  0.711-  52 1.82  49 1.83  50 1.83  48 1.90
  11  0.386  0.279  0.470-  42 1.80  51 1.85  52 1.87  47 1.90   6 2.94
  12  0.245  0.040  0.487-  51 1.86  43 1.98  70 2.12  71 2.23
  13  0.399  0.196  0.726-  56 1.76  54 1.86  49 1.90  51 1.96
  14  0.245  0.440  0.715-  80 1.79  46 1.85  79 1.88  54 1.95  29 3.00
  15  0.863  0.043  0.471-  53 1.75  36 1.83  69 2.19   2 3.03
  16  0.720  0.281  0.478-  45 1.84  37 1.91  52 1.94  53 1.98
  17  0.866  0.901  0.236-  62 1.69  57 1.92  36 2.37  24 3.00  18 3.07
  18  0.710  0.674  0.234-  64 1.78  62 1.86  60 1.92  61 1.97  24 3.05  19 3.05  17 3.07
  19  0.402  0.766  0.002-  59 1.67  63 1.94  64 1.96  78 2.42  18 3.05
  20  0.250  0.520  0.013-  35 1.72  63 1.82  34 1.97  21 2.98
  21  0.388  0.666  0.245-  68 1.78  66 1.91  61 1.92  63 2.01  20 2.98  27 3.04   6 3.07
  22  0.242  0.913  0.243-  66 1.83  58 1.98  44 2.14  43 2.14  27 3.07
  23  0.869  0.518  0.010-  65 1.77  33 1.81  34 2.31   1 2.99
  24  0.715  0.753  0.005-  64 1.74  65 1.84  57 1.92  73 2.45  17 3.00  18 3.05
  25  0.879  0.907  0.713-  69 1.78  74 1.80  48 2.30  55 2.45  32 3.02
  26  0.723  0.675  0.721-  73 1.85  76 1.89  74 1.90  72 1.93
  27  0.397  0.755  0.475-  71 1.75  66 1.79  75 1.80  76 1.90  21 3.04  22 3.07
  28  0.245  0.522  0.479-  47 1.76  75 1.82  67 1.89  46 1.90  29 3.04   6 3.06
  29  0.389  0.666  0.718-  80 1.69  78 1.84  73 1.94  75 1.99  14 3.00  28 3.04
  30  0.242  0.913  0.720-  78 1.96  70 1.99  55 2.15  56 2.29
  31  0.871  0.527  0.482-  77 1.64  60 1.80  45 1.92  46 2.45  32 3.04
  32  0.719  0.752  0.484-  76 1.84  77 1.85  61 1.92  69 2.00  25 3.02  31 3.04
  33  0.770  0.423  0.059-   8 1.74  23 1.81   1 1.88
  34  0.115  0.445  0.063-  20 1.97   6 2.00  23 2.31
  35  0.412  0.438  0.046-  20 1.72   3 1.90
  36  0.765  0.053  0.299-   2 1.79  15 1.83  17 2.37
  37  0.589  0.251  0.301-   5 1.90  16 1.91   2 1.97
  38  0.900  0.288  0.293-   1 1.86   2 1.86
  39  0.299  0.190  0.066-   5 1.78   3 1.90   4 1.93
  40  0.602  0.213  0.063-   8 1.79   2 1.86   3 2.00
  41  0.893  0.189  0.051-   7 1.74   8 1.83
  42  0.295  0.282  0.301-  11 1.80   5 1.85   6 1.85
  43  0.125  0.028  0.300-  12 1.98  22 2.14
  44  0.410  0.048  0.289-   5 1.80  22 2.14
  45  0.776  0.426  0.545-   9 1.81  16 1.84  31 1.92
  46  0.130  0.447  0.541-  14 1.85  28 1.90  31 2.45
  47  0.410  0.435  0.519-  28 1.76  11 1.90
  48  0.765  0.047  0.768-  10 1.90  25 2.30   7 2.49
  49  0.603  0.257  0.776-  10 1.83  13 1.90
  50  0.903  0.278  0.771-  10 1.83   9 1.99
  51  0.304  0.189  0.543-  11 1.85  12 1.86  13 1.96
  52  0.593  0.219  0.540-  10 1.82  11 1.87  16 1.94
  53  0.907  0.185  0.523-  15 1.75  16 1.98
  54  0.293  0.284  0.781-  13 1.86  14 1.95   3 2.30
  55  0.109  0.027  0.765-  30 2.15  25 2.45   4 2.48
  56  0.431  0.051  0.770-  13 1.76  30 2.29
  57  0.770  0.909  0.056-  24 1.92  17 1.92   7 2.17
  58  0.117  0.937  0.056-  22 1.98   4 2.09
  59  0.420  0.903  0.044-  19 1.67   4 2.21
  60  0.771  0.526  0.312-  31 1.80  18 1.92   1 1.99
[...]
  66  0.298  0.768  0.307-  27 1.79  22 1.83  21 1.91
  67  0.120  0.494  0.303-   6 1.85  28 1.89   1 2.24
  68  0.416  0.519  0.292-   6 1.77  21 1.78
  69  0.776  0.914  0.545-  25 1.78  32 2.00  15 2.19
  70  0.114  0.930  0.532-  30 1.99  12 2.12
  71  0.414  0.897  0.523-  27 1.75  12 2.23
  72  0.771  0.517  0.773-   9 1.76  26 1.93
  73  0.597  0.731  0.776-  26 1.85  29 1.94  24 2.45
  74  0.909  0.759  0.763-  25 1.80  26 1.90
  75  0.301  0.669  0.534-  27 1.80  28 1.82  29 1.99
  76  0.602  0.689  0.543-  32 1.84  26 1.89  27 1.90
  77  0.894  0.663  0.521-  31 1.64  32 1.85
  78  0.288  0.754  0.775-  29 1.84  30 1.96  19 2.42
  79  0.122  0.496  0.776-  14 1.88   9 2.30
  80  0.417  0.526  0.757-  29 1.69  14 1.79

  LATTYP: Found a simple monoclinic cell.
 ALAT       =    16.7450373351
 B/A-ratio  =     0.6987547872
 C/A-ratio  =     1.5833429410
 COS(beta)  =    -0.9717709890

  Lattice vectors:

 A1 = ( -13.0139522300,   0.0000000000, -10.5372350600)
 A2 = (   0.0000000000, -11.7006750000,   0.0000000000)
 A3 = (  16.0876699600,   0.0000000000,  21.0744701200)

Analysis of symmetry for initial positions (statically):
 Subroutine PRICEL returns:
 Original cell was already a primitive cell.

 Routine SETGRP: Setting up the symmetry group for a
 simple monoclinic supercell.

 Subroutine GETGRP returns: Found  1 space group operations
 (whereof  1 operations were pure point group operations)
 out of a pool of  4 trial point group operations.

The static configuration has the point symmetry C_1 .

Analysis of symmetry for dynamics (positions and initial velocities):
 Subroutine PRICEL returns:
 Original cell was already a primitive cell.

[...]

The dynamic configuration has the point symmetry C_1 .

Analysis of structural, dynamic, and magnetic symmetry:
 Subroutine PRICEL returns:
 Original cell was already a primitive cell.

 Routine SETGRP: Setting up the symmetry group for a
 simple monoclinic supercell.

 Subroutine GETGRP returns: Found  1 space group operations
 (whereof  1 operations were pure point group operations)
 out of a pool of  4 trial point group operations.

The magnetic configuration has the point symmetry C_1 .

 Subroutine INISYM returns: Found  1 space group operations
 (whereof  1 operations are pure point group operations),
 and found     1 'primitive' translations

 KPOINTS: Automatic mesh

Automatic generation of k-mesh.
Space group operators:
 irot       det(A)        alpha          n_x          n_y          n_z        tau_x        tau_y        tau_z
    1     1.000000     0.000000     1.000000     0.000000     0.000000     0.000000     0.000000     0.000000

 Subroutine IBZKPT returns following result:

 Found     19 irreducible k-points:

 Following reciprocal coordinates:
            Coordinates               Weight
  0.000000  0.000000  0.000000      1.000000
  0.250000  0.000000  0.000000      2.000000
  0.500000  0.000000  0.000000      1.000000
  0.000000  0.333333  0.000000      2.000000
  0.250000  0.333333  0.000000      2.000000
  0.500000  0.333333  0.000000      2.000000
 -0.250000  0.333333  0.000000      2.000000
  0.000000  0.000000  0.333333      2.000000
  0.250000  0.000000  0.333333      2.000000
  0.500000  0.000000  0.333333      2.000000
 -0.250000  0.000000  0.333333      2.000000
  0.000000  0.333333  0.333333      2.000000
  0.250000  0.333333  0.333333      2.000000
  0.500000  0.333333  0.333333      2.000000
 -0.250000  0.333333  0.333333      2.000000
  0.000000 -0.333333  0.333333      2.000000
  0.250000 -0.333333  0.333333      2.000000
  0.500000 -0.333333  0.333333      2.000000
 -0.250000 -0.333333  0.333333      2.000000

 Following cartesian coordinates:
            Coordinates               Weight
  0.000000  0.000000  0.000000      1.000000
  0.025150  0.000000  0.016389      2.000000
  0.050301  0.000000  0.032778      1.000000
  0.000000  0.028488  0.000000      2.000000
  0.025150  0.028488  0.016389      2.000000
  0.050301  0.028488  0.032778      2.000000
 -0.025150  0.028488 -0.016389      2.000000
  0.000000  0.000000  0.031634      2.000000
  0.025150  0.000000  0.048023      2.000000
  0.050301  0.000000  0.064412      2.000000
 -0.025150  0.000000  0.015245      2.000000
  0.000000  0.028488  0.031634      2.000000
  0.025150  0.028488  0.048023      2.000000
  0.050301  0.028488  0.064412      2.000000
 -0.025150  0.028488  0.015245      2.000000
  0.000000 -0.028488  0.031634      2.000000
  0.025150 -0.028488  0.048023      2.000000
  0.050301 -0.028488  0.064412      2.000000
 -0.025150 -0.028488  0.015245      2.000000

 SYSTEM =  unknown system
 POSCAR =  Ni2O3_Cc_scale_1_050_disp_0_05_round_2

 Startparameter for this run:
   NWRITE =      1    write-flag & timer
   PREC   = accura    normal or accurate (medium, high low for compatibility)
   ISTART =      0    job   : 0-new  1-cont  2-samecut
   ICHARG =      2    charge: 1-file 2-atom 10-const
   ISPIN  =      2    spin polarized calculation?
   LNONCOLLINEAR =      F non collinear calculations
   LSORBIT =      F    spin-orbit coupling
   INIWAV =      1    electr: 0-lowe 1-rand  2-diag
   LASPH  =      F    aspherical Exc in radial PAW
   METAGGA=      F    non-selfconsistent MetaGGA calc.

 Electronic Relaxation 1
   ENCUT  =  500.0 eV  36.75 Ry    6.06 a.u.  18.12 21.33 22.93*2*pi/ulx,y,z
   ENINI  =  500.0     initial cutoff
[...]
   0.163E+03 0.260E+02 0.312E+02   -.172E+03 -.194E+02 -.326E+02   0.936E+01 -.669E+01 0.194E+01   -.619E-01 -.271E+00 -.322E+00
   -.316E+02 0.201E+03 0.112E+01   0.323E+02 -.210E+03 -.782E+01   -.574E+00 0.106E+02 0.668E+01   0.906E-01 -.361E-01 -.126E+00
   -.177E+03 -.456E+02 -.207E+03   0.188E+03 0.572E+02 0.218E+03   -.131E+02 -.112E+02 -.110E+02   0.259E-01 -.506E+00 -.266E+00
   0.172E+03 0.116E+03 -.332E+02   -.185E+03 -.121E+03 0.347E+02   0.131E+02 0.596E+01 -.137E+01   -.125E+00 -.829E+00 0.411E+00
   0.360E+02 -.945E+02 -.514E+02   -.386E+02 0.105E+03 0.486E+02   0.291E+01 -.124E+02 0.367E+01   0.424E-01 -.189E+00 -.141E+00
   -.362E+02 0.216E+03 -.156E+03   0.425E+02 -.229E+03 0.164E+03   -.740E+01 0.131E+02 -.890E+01   -.178E-01 -.451E+00 0.549E-02
   -.172E+02 -.147E+03 0.149E+03   0.142E+02 0.154E+03 -.157E+03   0.352E+01 -.708E+01 0.812E+01   0.177E+00 0.265E+00 0.418E+00
   0.784E+02 0.819E+02 0.175E+03   -.834E+02 -.892E+02 -.184E+03   0.583E+01 0.867E+01 0.969E+01   -.287E+00 0.104E+00 -.146E+00
   -.321E+02 -.227E+03 -.205E+02   0.369E+02 0.242E+03 0.295E+02   -.603E+01 -.146E+02 -.976E+01   0.909E-01 0.412E+00 0.249E+00
   0.460E+02 0.837E+02 0.895E+02   -.544E+02 -.910E+02 -.972E+02   0.970E+01 0.729E+01 0.730E+01   -.624E-02 0.165E+00 -.554E-01
[...]
   0.117E+03 -.100E+03 0.121E+03   -.125E+03 0.106E+03 -.129E+03   0.660E+01 -.644E+01 0.798E+01   0.306E+00 0.150E+00 0.177E+00
   -.155E+03 0.666E+02 -.779E+02   0.170E+03 -.739E+02 0.884E+02   -.153E+02 0.753E+01 -.111E+02   -.345E+00 0.249E+00 0.136E+00
   0.174E+02 -.135E+03 0.790E+02   -.225E+02 0.142E+03 -.903E+02   0.583E+01 -.702E+01 0.111E+02   0.133E+00 -.171E+00 -.371E+00
   0.566E+02 0.813E+02 0.538E+02   -.608E+02 -.895E+02 -.629E+02   0.484E+01 0.983E+01 0.104E+02   -.106E+00 -.770E-01 -.165E+00
   -.291E+02 -.213E+03 -.151E+03   0.334E+02 0.226E+03 0.161E+03   -.526E+01 -.125E+02 -.990E+01   -.399E-01 -.306E+00 -.134E+00
   0.102E+03 0.440E+02 -.146E+03   -.117E+03 -.479E+02 0.153E+03   0.151E+02 0.531E+01 -.589E+01   0.303E+00 -.395E+00 -.152E+00
   -.593E+01 -.223E+03 -.133E+03   0.481E+01 0.235E+03 0.137E+03   0.100E+01 -.126E+02 -.423E+01   -.237E+00 0.165E+00 -.122E+00
   -.168E+03 0.183E+02 -.248E+03   0.180E+03 -.278E+02 0.258E+03   -.135E+02 0.101E+02 -.108E+02   0.711E-01 0.197E+00 -.131E+00
   0.179E+03 -.150E+03 0.310E+02   -.189E+03 0.157E+03 -.312E+02   0.102E+02 -.764E+01 0.135E+01   0.191E+00 -.600E-01 -.400E+00
   0.310E-01 0.739E+02 -.259E+02   -.192E+01 -.861E+02 0.228E+02   0.149E+01 0.128E+02 0.417E+01   0.541E-01 0.167E+00 -.630E+00
   -.206E+03 -.208E+03 -.195E+03   0.220E+03 0.223E+03 0.206E+03   -.143E+02 -.135E+02 -.104E+02   -.320E+00 0.485E+00 -.358E+00
   0.176E+03 -.369E+02 -.405E+02   -.189E+03 0.318E+02 0.439E+02   0.138E+02 0.589E+01 -.282E+01   0.208E+00 0.389E+00 -.406E+00
   0.942E+02 -.992E+02 -.909E+02   -.991E+02 0.107E+03 0.944E+02   0.590E+01 -.950E+01 -.378E+01   -.101E+01 0.209E+00 -.340E-02
   -.133E+03 0.110E+03 -.212E+03   0.147E+03 -.122E+03 0.223E+03   -.158E+02 0.107E+02 -.108E+02   0.915E+00 0.813E+00 -.353E-01
   -.444E+01 0.163E+01 0.351E+02   0.455E-12 0.455E-12 -.313E-12   0.314E+01 -.307E+01 -.348E+02   0.132E+01 0.144E+01 -.254E+00

 POSITION                                       TOTAL-FORCE (eV/Angst)
      7.02888      5.12718      2.48367        -0.127714     -0.499900      0.988447
      5.53616      2.28998      2.51659         0.229320      0.732584      0.506570
     -2.98677      3.31115     10.46876         0.570330      0.653685      0.175168
     -4.47503      0.43685     10.51855        -0.199228     -1.568064      0.370051
      2.18171      2.25038      2.43669         0.245789     -0.751328      1.143731
      0.73522      5.07776      2.65295        -0.266557      0.215556     -1.044430
      1.67819      0.56630     10.50304         0.131338     -0.677258     -0.014348
      7.07996      3.27946      0.15803         1.085607     -1.614926     -0.422069
      3.72529      5.14368      7.52386         0.720124     -1.053395      0.906947
      2.21775      2.34190      7.48961         0.400597     -0.855151      1.432057
      0.61235      3.25939      4.95565        -0.133450      0.527961      1.033525
     -0.90442      0.46456      5.12720        -0.068817     -1.913391     -0.882366
     -1.01682      2.29384      7.64795         0.273533     -0.037459      0.065372
     -2.47204      5.14303      7.53841        -1.028128     -0.336914      0.421145
      5.34324      0.50529      4.96091        -0.033206     -0.521128      0.261357
      3.86710      3.29331      5.04170         0.693463     -1.074820     -0.328153
      6.98409     10.54713      2.48893         0.254898      1.243614     -0.966464
      5.45211      7.88504      2.46303         0.109009     -0.034821      1.219588
      3.98192      8.96286      0.01646        -0.215149     -1.357347     -0.240661
      2.39022      6.08113      0.14182        -0.866053     -0.645988      0.135716
      2.18103      7.78896      2.57747         0.633133      0.301298     -0.276024
      0.73709     10.68049      2.55645         0.089205      2.751333     -0.817640
      8.57128      6.06311      0.10297         1.005220      0.517735      0.166878
      7.07602      8.80578      0.05049         2.215442      0.586522     -0.366146
      3.83741     10.60973      7.51522        -0.004946      0.670682      0.577464
      2.23390      7.90017      7.59697         0.320414     -0.120624      0.505997
      0.68489      8.83449      5.00631         0.020116      0.569340      0.788342
     -0.85897      6.10479      5.05095        -0.123996     -0.940309     -0.390383
     -1.06840      7.78964      7.57031         0.770938      1.731849      0.067731
     -2.54358     10.68789      7.58797        -0.555351      1.029045     -0.713535
      5.34383      6.16833      5.08369        -0.362756     -2.211821     -0.375348
      3.82467      8.79844      5.10207         1.183650      0.223706     -0.105636
      7.24681      4.94638      0.62078         0.579263      0.822683      0.534275
      0.70820      5.20827      0.66165         0.342734      1.496258      0.443506
      3.77373      5.12354      0.48928        -0.417896     -1.547442     -0.896576
      5.54932      0.61512      3.15029         0.669205     -0.857151      0.646893
      3.79271      2.93739      3.17071         0.142988     -0.435961      0.507364
      6.94070      3.37340      3.08215        -1.166147      0.821486     -0.975628
      2.52472      2.22628      0.69298         0.795159     -0.663972     -1.404928
      5.55409      2.49572      0.66566        -0.846361      0.948815     -0.091108
      8.52561      2.21428      0.53495        -1.195229     -0.534774     -0.880635
      0.85843      3.30319      3.17521         0.581356      0.229541     -0.266271
     -0.81715      0.32602      3.15729         0.246903     -1.540541      1.211367
      2.09660      0.56083      3.04001        -1.109658     -0.123904     -0.912986
      3.97750      4.98763      5.73783         1.131666      0.071297     -0.243499
     -2.42279      5.23067      5.69549         0.273855      1.115343      0.543432
      0.51185      5.08554      5.47252        -0.709637     -1.133270     -0.695103
      2.32426      0.54577      8.09722         0.640646      0.464380      0.406020
      0.66502      3.01170      8.17757        -0.456394     -0.776420     -0.057640
      3.67887      3.24716      8.12167        -1.081522      1.342601     -1.179048
     -0.70824      2.21362      5.71857         0.363405     -0.350994      0.182262
      2.18933      2.56075      5.68504         0.236702      0.812870     -0.152569
      5.42570      2.16642      5.51255        -1.587759     -0.065927     -0.670329
     -2.45628      3.32554      8.23129         0.774115      0.851894      0.557414
     -4.17509      0.31017      8.06286         0.284122     -2.193998      0.687646
     -1.00047      0.59690      8.11117        -1.068125     -0.294857     -0.585221
      7.26731     10.63432      0.59280         0.686153      0.146653      0.531303
      0.77336     10.96631      0.59332         0.571346      1.471116      0.891357
      3.87339     10.56855      0.46590        -1.081166      1.629039     -0.525704
      5.52287      6.14921      3.28899         1.317483      0.174647     -0.399616
[...]
      0.85462      8.98832      3.23511         0.654304     -0.035039     -0.782244
     -0.88992      5.77627      3.19355        -0.663723     -0.391004      0.283441
      2.12931      6.07733      3.07949        -0.525848      0.532419     -0.483575
      3.97428     10.69044      5.74412         0.900291     -0.249483     -0.609486
     -2.51751     10.88343      5.60863         0.517463      1.536700      1.192169
      0.52553     10.49811      5.51509        -0.988574      0.494434     -0.591489
      2.35159      6.05290      8.14790         0.483847      1.071334      0.262235
      0.60374      8.55415      8.17844        -0.362717     -0.991152      0.116937
      3.79092      8.88662      8.04327        -1.345937      0.780084     -0.718853
     -0.67182      7.82415      5.62398        -0.082074     -0.469527      0.758802
      2.26056      8.05817      5.71838        -0.354152      0.738193      0.363316
      5.30837      7.75697      5.49213        -1.208661      2.052533      0.103407
     -2.46548      8.82310      8.16995         0.803957      1.227085      0.181753
     -4.10943      5.80864      8.17171         0.071162     -1.106776     -0.281672
     -1.05977      6.14875      7.98169        -1.094623     -0.861028     -0.125341
    total drift:                                0.017728      0.008433     -0.020627

  FREE ENERGIE OF THE ION-ELECTRON SYSTEM (eV)
  free  energy   TOTEN  =      -457.7727841611 eV

  energy  without entropy=     -457.6682931260  energy(sigma->0) =     -457.72053864

volume of typ            1:    16.6 %

volume of typ            2:     6.4 %

total charge

# of ion       s       p       d       tot
    1        0.223   0.216   7.859   8.298
    2        0.264   0.294   7.814   8.371
    3        0.207   0.194   7.857   8.258
    4        0.186   0.135   7.850   8.171
    5        0.279   0.326   7.839   8.444
    6        0.268   0.302   7.806   8.376
    7        0.202   0.154   7.859   8.214
    8        0.273   0.283   7.904   8.461
    9        0.254   0.259   7.804   8.317
   10        0.280   0.321   7.780   8.381
   11        0.266   0.302   7.829   8.397
   12        0.218   0.189   7.802   8.209
   13        0.271   0.300   7.789   8.360
   14        0.271   0.300   7.830   8.401
   15        0.242   0.217   7.847   8.305
   16        0.239   0.253   7.842   8.334
   17        0.241   0.211   7.854   8.306
   18        0.256   0.283   7.838   8.377
   19        0.254   0.260   7.875   8.389
   20        0.266   0.262   7.861   8.389
   21        0.247   0.271   7.828   8.346
   22        0.222   0.197   7.821   8.241
   23        0.231   0.210   7.883   8.323
   24        0.250   0.256   7.868   8.375
   25        0.242   0.215   7.842   8.299
   26        0.253   0.273   7.821   8.347
   27        0.291   0.350   7.833   8.474
   28        0.278   0.318   7.798   8.394
   29        0.276   0.313   7.825   8.415
   30        0.205   0.161   7.794   8.161
   31        0.281   0.300   7.894   8.474
   32        0.247   0.264   7.816   8.326
   33        1.261   2.775   0.011   4.047
   34        1.280   2.658   0.003   3.942
   35        1.282   2.695   0.007   3.984
   36        1.269   2.718   0.007   3.994
   37        1.274   2.710   0.006   3.991
   38        1.285   2.671   0.006   3.961
   39        1.260   2.754   0.008   4.022
   40        1.269   2.734   0.008   4.011
   41        1.281   2.698   0.008   3.986
   42        1.266   2.758   0.009   4.033
   43        1.289   2.623   0.003   3.915
   44        1.291   2.641   0.004   3.936
   45        1.266   2.747   0.008   4.021
   46        1.283   2.683   0.005   3.971
   47        1.285   2.683   0.007   3.975
   48        1.283   2.637   0.003   3.923
   49        1.282   2.686   0.005   3.973
   50        1.289   2.653   0.005   3.947
   51        1.264   2.741   0.007   4.012
   52        1.270   2.735   0.007   4.013
   53        1.287   2.665   0.006   3.958
   54        1.274   2.690   0.005   3.969
   55        1.297   2.588   0.001   3.886
   56        1.290   2.649   0.005   3.944
   57        1.265   2.701   0.005   3.971
   58        1.283   2.634   0.003   3.920
   59        1.285   2.680   0.007   3.972
   60        1.268   2.725   0.007   4.000
[...]
   66        1.261   2.768   0.009   4.037
   67        1.276   2.701   0.006   3.982
   68        1.281   2.709   0.008   3.998
   69        1.270   2.705   0.006   3.981
   70        1.287   2.632   0.003   3.921
   71        1.291   2.646   0.005   3.943
   72        1.276   2.697   0.006   3.979
   73        1.279   2.682   0.005   3.965
   74        1.282   2.681   0.006   3.969
   75        1.271   2.737   0.008   4.016
   76        1.272   2.733   0.008   4.013
   77        1.284   2.720   0.010   4.014
   78        1.272   2.691   0.005   3.968
   79        1.290   2.644   0.003   3.936
   80        1.285   2.719   0.010   4.013
tot          69.31  137.58  251.06  457.95

magnetization (x)

# of ion       s       p       d       tot
    1        0.001   0.017   1.054   1.072
    2        0.003   0.021   1.037   1.060
    3        0.006   0.011   0.936   0.952
    4       -0.002   0.012   1.419   1.428
    5       -0.000   0.008   0.460   0.467
    6        0.000   0.017   1.020   1.038
    7        0.011   0.013   1.343   1.367
    8        0.002  -0.007  -0.375  -0.381
    9        0.004   0.018   1.060   1.081
   10       -0.002   0.021   1.112   1.131
   11        0.002  -0.014  -1.020  -1.032
   12       -0.002   0.015   1.451   1.463
   13        0.002   0.023   1.280   1.305
   14       -0.000   0.009   0.619   0.628
   15        0.005   0.015   1.095   1.115
   16        0.001   0.018   0.928   0.947
   17        0.004   0.018   1.253   1.275
   18       -0.002  -0.012  -0.886  -0.899
   19        0.013   0.018   1.096   1.128
   20        0.006   0.004   0.657   0.667
   21        0.003   0.021   1.112   1.136
   22        0.000   0.016   1.400   1.416
   23        0.011   0.016   0.968   0.995
   24        0.003   0.012   0.857   0.872
   25        0.002   0.014   1.196   1.212
   26        0.001   0.017   0.961   0.979
   27        0.001  -0.002   0.138   0.138
   28        0.000   0.016   0.831   0.847
   29        0.004   0.012   0.625   0.641
   30       -0.004   0.016   1.556   1.567
   31       -0.001  -0.004  -0.179  -0.184
   32        0.002   0.017   0.940   0.960
   33        0.005   0.058   0.000   0.063
   34        0.009   0.278   0.000   0.287
   35        0.007   0.313   0.000   0.320
   36        0.010   0.232   0.000   0.242
   37        0.007   0.177   0.000   0.184
   38        0.011   0.474   0.000   0.485
   39        0.009   0.184   0.000   0.193
   40        0.005   0.057   0.000   0.062
   41        0.006   0.314  -0.000   0.320
   42        0.002  -0.058   0.000  -0.056
   43        0.014   0.610   0.000   0.624
   44        0.011   0.471  -0.000   0.482
   45        0.006   0.107   0.000   0.113
   46        0.007   0.201   0.000   0.208
   47        0.002   0.045   0.000   0.046
   48        0.012   0.435   0.000   0.447
   49        0.009   0.313   0.000   0.322
   50        0.011   0.467   0.000   0.478
   51        0.007   0.106   0.000   0.113
   52        0.003   0.030   0.000   0.033
   53        0.011   0.486   0.000   0.497
   54        0.009   0.219   0.000   0.228
   55        0.014   0.667  -0.000   0.681
   56        0.014   0.610   0.000   0.624
   57        0.011   0.293   0.000   0.304
   58        0.013   0.532   0.000   0.545
   59        0.012   0.536   0.000   0.548
   60       -0.001  -0.048   0.000  -0.048
[...]
   66        0.007   0.147   0.000   0.154
   67        0.009   0.276   0.000   0.284
   68        0.009   0.387   0.000   0.396
   69        0.010   0.259   0.000   0.269
   70        0.014   0.579   0.000   0.593
   71        0.009   0.401  -0.000   0.410
   72        0.008   0.272   0.000   0.281
   73        0.007   0.240   0.000   0.247
   74        0.009   0.404   0.000   0.413
   75        0.006   0.077   0.000   0.083
   76        0.007   0.130   0.000   0.137
   77        0.003   0.105  -0.000   0.108
   78        0.009   0.302   0.000   0.312
   79        0.009   0.365   0.000   0.374
   80        0.005   0.166   0.000   0.172
tot           0.46   13.44   25.95   39.85