 vasp.5.4.4.18Apr17-6-g9f103f2a35 (build May 12 2020 04:58:55) complex

 MD_VERSION_INFO: Compiled 2020-05-12T11:58:55-UTC in devlin.sd.materialsdesign.
 com:/home/medea2/data/build/wwolf/vasp-gpu5.4.4/13047/x86_64/src/src/build/std
 from svn 13047

 executed on                        Lin64 date 2023.03.25  15:03:51

 INCAR:
 POTCAR:    PAW_PBE Ni 02Aug2007
 POTCAR:    PAW_PBE O 08Apr2002

 POTCAR:    PAW_PBE Ni 02Aug2007

 POTCAR:    PAW_PBE O 08Apr2002

 Optimization of the real space projectors (new method)

 maximal supplied QI-value         = 16.25
 optimisation between [QCUT,QGAM] = [ 11.38, 22.75] = [ 36.24,144.96] Ry
 Optimized for a Real-space Cutoff    1.47 Angstroem

   l    n(q)    QCUT    max X(q) W(low)/X(q) W(high)/X(q)  e(spline)
   2      9    11.376    60.317    0.17E-03    0.16E-04    0.16E-06
   2      9    11.376    55.921    0.17E-03    0.16E-04    0.17E-06
   0     10    11.376    51.690    0.45E-04    0.60E-04    0.21E-06
   0     10    11.376    30.015    0.37E-04    0.55E-04    0.19E-06
   1     10    11.376    18.849    0.83E-04    0.11E-03    0.92E-07
   1     10    11.376    14.624    0.69E-04    0.92E-04    0.82E-07
 Optimization of the real space projectors (new method)

 maximal supplied QI-value         = 24.76
 optimisation between [QCUT,QGAM] = [ 11.39, 22.77] = [ 36.31,145.25] Ry
 Optimized for a Real-space Cutoff    1.10 Angstroem

   l    n(q)    QCUT    max X(q) W(low)/X(q) W(high)/X(q)  e(spline)
   0      7    11.387    20.381    0.22E-03    0.48E-03    0.18E-06
   0      7    11.387    15.268    0.22E-03    0.52E-03    0.19E-06
   1      7    11.387     5.964    0.22E-03    0.73E-03    0.24E-06
   1      7    11.387     5.382    0.19E-03    0.60E-03    0.21E-06

  PAW_PBE Ni 02Aug2007                  :
  PAW_PBE O 08Apr2002                   :

 POSCAR: Ni2O3_Cc_scale_1_025_disp_0_20_round_2
  positions in direct lattice
 exchange correlation table for  LEXCH =       14
   RHO(1)=    0.500       N(1)  =     2000
   RHO(2)=  100.500       N(2)  =     4000

 ion  position               nearest neighbor table
   1  0.882  0.436  0.246-  60 1.54  38 1.74  33 2.06  67 2.23   8 2.94  23 3.09
   2  0.710  0.199  0.234-  40 1.48  37 1.66  38 1.85  36 1.97
   3  0.376  0.322  0.986-  35 1.74  39 1.90  54 2.03  40 2.35  20 2.53  14 2.97
   4  0.245  0.046  0.002-  55 1.99  39 2.10  59 2.13  58 2.47
   5  0.397  0.182  0.267-  42 1.45  44 1.60  37 1.94  39 2.27  11 2.86   6 3.02
   6  0.242  0.416  0.249-  42 1.75  68 1.94  34 2.06  67 2.10  11 2.94   5 3.02  28 3.02
   7  0.865  0.033  0.982-  41 1.93  57 1.95  48 2.09  58 2.17
   8  0.762  0.319  0.996-  33 1.46  41 2.18  23 2.61   1 2.94
   9  0.930  0.427  0.737-  50 1.34  79 1.61  45 1.91  72 2.29  31 2.78  14 2.79  16 2.82  10 2.99

  10  0.782  0.196  0.734-  50 1.70  48 1.98  52 2.28  49 2.52  16 2.66  25 2.75   9 2.99
  11  0.391  0.268  0.483-  52 1.66  51 1.98  47 1.99  42 2.22   5 2.86  16 2.91  12 2.92   6 2.94

[...]

  17  0.879  0.937  0.249-  36 1.81  57 1.99  62 2.19  43 2.30  15 3.03  18 3.05
  18  0.728  0.703  0.247-  62 1.82  64 1.91  61 2.12  60 2.31  17 3.05
  19  0.385  0.792  0.995-  59 1.59  64 1.86  78 2.24  63 2.28  30 2.86  21 2.95
  20  0.256  0.517  0.993-  35 1.77  63 1.77  34 1.95  79 2.04   3 2.53  21 2.94
  21  0.364  0.686  0.205-  63 1.49  68 1.83  66 1.84  61 1.85  20 2.94  19 2.95
  22  0.247  0.929  0.240-  58 1.79  66 1.87  44 2.01
  23  0.861  0.533  0.002-  33 1.65  65 1.96  72 2.11  34 2.30   8 2.61  24 2.90   1 3.09
  24  0.755  0.768  0.012-  65 1.71  57 1.79  73 1.96  64 2.09  23 2.90
  25  0.869  0.971  0.719-  48 1.64  69 2.00  55 2.16  10 2.75  32 3.02  15 3.07
  26  0.780  0.678  0.757-  74 1.62  72 1.73  73 2.39  32 3.03
  27  0.425  0.779  0.525-  76 1.65  75 1.68  71 1.85  66 2.41  29 3.01
  28  0.251  0.520  0.480-  47 1.64  67 1.67  75 1.78  46 2.14   6 3.02
  29  0.400  0.712  0.750-  78 1.51  73 1.77  80 2.30  75 2.50  30 2.97  27 3.01
  30  0.261  0.936  0.771-  56 1.59  78 1.70  55 2.01  70 2.17  19 2.86  13 2.86  29 2.97
  31  0.918  0.527  0.526-  45 1.69  77 2.15  60 2.25  46 2.30  14 2.75   9 2.78
  32  0.761  0.777  0.520-  77 1.55  76 1.92  69 2.01  61 2.18  25 3.02  26 3.03
  33  0.776  0.436  0.048-   8 1.46  23 1.65   1 2.06
  34  0.121  0.476  0.060-  20 1.95   6 2.06  23 2.30
  35  0.454  0.453  0.071-   3 1.74  20 1.77
  36  0.785  0.040  0.302-  17 1.81   2 1.97  15 2.07
  37  0.596  0.245  0.288-   2 1.66   5 1.94  16 2.42
  38  0.893  0.291  0.292-   1 1.74   2 1.85
  39  0.282  0.224  0.054-   3 1.90   4 2.10   5 2.27
  40  0.618  0.210  0.090-   2 1.48   3 2.35
  41  0.951  0.186  0.058-   7 1.93   8 2.18
  42  0.289  0.267  0.271-   5 1.45   6 1.75  11 2.22
  43  0.095  0.064  0.314-  12 1.95  17 2.30
  44  0.427  0.043  0.284-   5 1.60  22 2.01
  45  0.795  0.445  0.553-  31 1.69  16 1.83   9 1.91
  46  0.176  0.454  0.603-  14 1.39  28 2.14  31 2.30
  47  0.413  0.436  0.532-  28 1.64  11 1.99
  48  0.779  0.032  0.785-  25 1.64  10 1.98   7 2.09
  49  0.549  0.225  0.766-  13 1.66  10 2.52
  50  0.894  0.316  0.746-   9 1.34  10 1.70  16 2.42
  51  0.303  0.166  0.562-  12 1.67  11 1.98  13 2.00
  52  0.588  0.272  0.536-  16 1.36  11 1.66  10 2.28
  53  0.935  0.190  0.530-  15 1.95  16 2.42
  54  0.322  0.270  0.809-  13 1.77   3 2.03  14 2.15
  55  0.119  0.033  0.810-   4 1.99  30 2.01  25 2.16
  56  0.384  0.034  0.781-  13 1.44  30 1.59
  57  0.799  0.918  0.063-  24 1.79   7 1.95  17 1.99
  58  0.089  0.930  0.070-  22 1.79   7 2.17   4 2.47
  59  0.433  0.922  0.049-  19 1.59   4 2.13
  60  0.818  0.513  0.313-   1 1.54  31 2.25  18 2.31
  61  0.576  0.740  0.317-  21 1.85  18 2.12  32 2.18
  62  0.937  0.759  0.327-  18 1.82  17 2.19
  63  0.276  0.656  0.064-  21 1.49  20 1.77  19 2.28
  64  0.589  0.722  0.063-  19 1.86  18 1.91  24 2.09
  65  0.934  0.692  0.070-  24 1.71  23 1.96
  66  0.292  0.772  0.292-  21 1.84  22 1.87  27 2.41
  67  0.126  0.519  0.318-  28 1.67   6 2.10   1 2.23
  68  0.394  0.540  0.277-  21 1.83   6 1.94
  69  0.812  0.949  0.537-  15 1.64  25 2.00  32 2.01
  70  0.114  0.944  0.561-  15 1.76  30 2.17  12 2.37
  71  0.398  0.940  0.518-  12 1.52  27 1.85
  72  0.795  0.535  0.807-  26 1.73  23 2.11   9 2.29
  73  0.607  0.755  0.823-  29 1.77  24 1.96  26 2.39
  74  0.944  0.751  0.798-  26 1.62
  75  0.306  0.670  0.519-  27 1.68  28 1.78  29 2.50
  76  0.573  0.718  0.515-  27 1.65  32 1.92
  77  0.907  0.715  0.526-  32 1.55  31 2.15
  78  0.307  0.791  0.787-  29 1.51  30 1.70  19 2.24
  79  0.081  0.518  0.798-   9 1.61  20 2.04  14 2.10
  80  0.464  0.517  0.801-  14 2.30  29 2.30

  LATTYP: Found a simple monoclinic cell.
 ALAT       =    16.3463459659
 B/A-ratio  =     0.6987547874
 C/A-ratio  =     1.5833429409
 COS(beta)  =    -0.9717709890

  Lattice vectors:

 A1 = ( -12.7040962200,   0.0000000000, -10.2863485100)
 A2 = (   0.0000000000, -11.4220875000,   0.0000000000)
 A3 = (  15.7046301900,   0.0000000000,  20.5726970200)

Analysis of symmetry for initial positions (statically):
 Subroutine PRICEL returns:
 Original cell was already a primitive cell.

 Routine SETGRP: Setting up the symmetry group for a
 simple monoclinic supercell.

 Subroutine GETGRP returns: Found  1 space group operations
 (whereof  1 operations were pure point group operations)
 out of a pool of  4 trial point group operations.

The static configuration has the point symmetry C_1 .

Analysis of symmetry for dynamics (positions and initial velocities):
 Subroutine PRICEL returns:
 Original cell was already a primitive cell.

[...]

The dynamic configuration has the point symmetry C_1 .

Analysis of structural, dynamic, and magnetic symmetry:
 Subroutine PRICEL returns:
 Original cell was already a primitive cell.

 Routine SETGRP: Setting up the symmetry group for a
 simple monoclinic supercell.

 Subroutine GETGRP returns: Found  1 space group operations
 (whereof  1 operations were pure point group operations)
 out of a pool of  4 trial point group operations.

The magnetic configuration has the point symmetry C_1 .

 Subroutine INISYM returns: Found  1 space group operations
 (whereof  1 operations are pure point group operations),
 and found     1 'primitive' translations

 KPOINTS: Automatic mesh

Automatic generation of k-mesh.
Space group operators:
 irot       det(A)        alpha          n_x          n_y          n_z        tau_x        tau_y        tau_z
    1     1.000000     0.000000     1.000000     0.000000     0.000000     0.000000     0.000000     0.000000

 Subroutine IBZKPT returns following result:

 Found     19 irreducible k-points:

 Following reciprocal coordinates:
            Coordinates               Weight
  0.000000  0.000000  0.000000      1.000000
  0.250000  0.000000  0.000000      2.000000
  0.500000  0.000000  0.000000      1.000000
  0.000000  0.333333  0.000000      2.000000
  0.250000  0.333333  0.000000      2.000000
  0.500000  0.333333  0.000000      2.000000
 -0.250000  0.333333 -0.000000      2.000000
  0.000000  0.000000  0.333333      2.000000
  0.250000  0.000000  0.333333      2.000000
  0.500000  0.000000  0.333333      2.000000
 -0.250000  0.000000  0.333333      2.000000
  0.000000  0.333333  0.333333      2.000000
  0.250000  0.333333  0.333333      2.000000
  0.500000  0.333333  0.333333      2.000000
 -0.250000  0.333333  0.333333      2.000000
  0.000000 -0.333333  0.333333      2.000000
  0.250000 -0.333333  0.333333      2.000000
  0.500000 -0.333333  0.333333      2.000000
 -0.250000 -0.333333  0.333333      2.000000

 Following cartesian coordinates:
            Coordinates               Weight
  0.000000  0.000000  0.000000      1.000000
  0.025764  0.000000  0.016789      2.000000
  0.051527  0.000000  0.033578      1.000000
  0.000000  0.029183  0.000000      2.000000
  0.025764  0.029183  0.016789      2.000000
  0.051527  0.029183  0.033578      2.000000
 -0.025764  0.029183 -0.016789      2.000000
  0.000000  0.000000  0.032405      2.000000
  0.025764  0.000000  0.049194      2.000000
  0.051527  0.000000  0.065983      2.000000
 -0.025764  0.000000  0.015617      2.000000
  0.000000  0.029183  0.032405      2.000000
  0.025764  0.029183  0.049194      2.000000
  0.051527  0.029183  0.065983      2.000000
 -0.025764  0.029183  0.015617      2.000000
  0.000000 -0.029183  0.032405      2.000000
  0.025764 -0.029183  0.049194      2.000000
  0.051527 -0.029183  0.065983      2.000000
 -0.025764 -0.029183  0.015617      2.000000

 SYSTEM =  unknown system
 POSCAR =  Ni2O3_Cc_scale_1_025_disp_0_20_round_2

 Startparameter for this run:
   NWRITE =      1    write-flag & timer
   PREC   = accura    normal or accurate (medium, high low for compatibility)
   ISTART =      0    job   : 0-new  1-cont  2-samecut
   ICHARG =      2    charge: 1-file 2-atom 10-const
   ISPIN  =      2    spin polarized calculation?
   LNONCOLLINEAR =      F non collinear calculations
   LSORBIT =      F    spin-orbit coupling
   INIWAV =      1    electr: 0-lowe 1-rand  2-diag
   LASPH  =      F    aspherical Exc in radial PAW
   METAGGA=      F    non-selfconsistent MetaGGA calc.

 Electronic Relaxation 1
[...]
   0.113E+03 -.145E+03 0.167E+02   -.122E+03 0.161E+03 -.133E+02   0.929E+01 -.135E+02 -.370E+01   -.292E-02 0.204E-01 0.134E-01
   0.154E+03 0.785E+02 -.102E+03   -.185E+03 -.856E+02 0.114E+03   0.113E+02 0.151E+01 -.763E+01   0.313E-01 0.138E-01 0.192E-01
   -.816E+02 -.107E+03 -.555E+02   0.871E+02 0.117E+03 0.582E+02   -.655E+01 -.116E+02 -.308E+01   -.813E-02 0.356E-01 0.340E-01
   0.596E+02 -.837E+01 0.613E+01   -.650E+02 0.122E+02 -.683E+01   0.373E+01 -.231E+01 0.193E+01   -.746E-02 0.264E-01 -.340E-01
   0.670E+02 -.933E+02 0.132E+02   -.683E+02 0.104E+03 -.199E+02   0.723E+00 -.119E+02 0.755E+01   -.132E-02 -.317E-02 -.182E-01
   -.180E+03 0.138E+03 -.164E+03   0.191E+03 -.159E+03 0.175E+03   -.111E+02 0.112E+02 -.746E+01   -.353E-01 -.139E-01 -.105E-01
   0.512E+02 -.125E+03 0.477E+02   -.556E+02 0.132E+03 -.488E+02   0.461E+01 -.624E+01 0.167E+01   0.659E-02 0.432E-01 -.189E-01
   0.621E+01 0.722E+02 0.152E+03   -.839E+01 -.806E+02 -.165E+03   0.251E+01 0.102E+02 0.125E+02   0.255E-01 0.156E-01 -.353E-02
   -.847E+02 -.211E+03 -.142E+03   0.946E+02 0.230E+03 0.156E+03   -.114E+02 -.158E+02 -.136E+02   -.138E-01 0.225E-01 -.192E-01
   0.177E+03 -.910E+02 -.571E+02   -.198E+03 0.102E+03 0.650E+02   0.166E+02 -.667E+01 -.459E+01   -.148E-01 0.157E-01 0.365E-01
[...]
   0.621E+02 -.112E+03 0.145E+03   -.638E+02 0.124E+03 -.163E+03   0.141E+01 -.139E+02 0.163E+02   0.214E-01 -.327E-01 0.283E-01
   -.113E+03 0.685E+02 -.165E+03   0.122E+03 -.743E+02 0.176E+03   -.914E+01 0.524E+01 -.112E+02   -.179E-01 -.403E-01 0.559E-02
   0.184E+03 0.489E+01 0.631E+02   -.200E+03 -.700E+01 -.684E+02   0.124E+02 -.497E+00 0.776E+01   -.105E-01 0.344E-01 0.507E-01
   -.935E+02 0.165E+03 0.342E+02   0.105E+03 -.177E+03 -.351E+02   -.119E+02 0.130E+02 0.135E+01   0.555E-02 0.528E-02 0.517E-01
   -.200E+03 0.463E+02 -.969E+02   0.220E+03 -.544E+02 0.102E+03   -.156E+02 0.152E+01 -.398E+01   -.495E-02 0.457E-01 0.118E-01
   0.114E+03 0.135E+03 0.381E+02   -.118E+03 -.151E+03 -.392E+02   0.406E+01 0.163E+02 0.218E+01   0.800E-02 -.147E-01 -.977E-02
   -.120E+03 -.104E+03 0.499E+02   0.131E+03 0.111E+03 -.520E+02   -.105E+02 -.756E+01 0.280E+01   -.115E-01 -.124E-01 -.476E-01
   -.194E+03 -.139E+03 -.119E+03   0.215E+03 0.149E+03 0.128E+03   -.203E+02 -.780E+01 -.973E+01   0.254E-04 -.400E-02 -.758E-02
   0.150E+03 -.435E+02 -.341E+01   -.162E+03 0.439E+02 0.255E+01   0.101E+02 -.996E+00 0.224E+01   -.415E-01 -.709E-01 0.653E-02
   -.624E+02 0.131E+03 -.221E+02   0.713E+02 -.148E+03 0.140E+02   -.619E+01 0.172E+02 0.956E+01   0.166E-01 -.430E-01 0.851E-02
   -.264E+03 0.309E+02 -.730E+02   0.292E+03 -.349E+02 0.750E+02   -.227E+02 -.105E+00 -.154E+01   0.394E-01 -.586E-01 0.118E-01
   0.183E+03 0.703E+02 0.197E+02   -.202E+03 -.706E+02 -.162E+02   0.135E+02 0.356E+01 -.962E+00   -.976E-02 0.226E-01 -.240E-01
   -.864E+02 -.251E+03 -.483E+02   0.933E+02 0.274E+03 0.525E+02   -.283E+01 -.209E+02 -.168E+01   0.253E-01 -.249E-01 -.375E-01
   -.897E+02 0.388E+02 -.540E+02   0.971E+02 -.431E+02 0.582E+02   -.891E+01 0.565E+01 -.477E+01   -.238E-01 -.271E-01 -.227E-01
   0.842E+02 0.714E+02 0.514E+02   0.256E-12 0.853E-13 -.284E-13   -.841E+02 -.713E+02 -.513E+02   -.378E-01 -.631E-01 -.435E-01

 POSITION                                       TOTAL-FORCE (eV/Angst)
      6.91211      4.98445      2.52549         4.345225     -3.241352     -2.083523
      5.32045      2.27580      2.40239         2.241463     -1.594690      9.201632
     -2.96195      3.67637     10.14563         0.231466     -1.886168     -0.186297
      2.36289      0.52394      0.01989         0.472299     -0.022676     -0.490835
      2.06507      2.08149      2.74915        10.419980     -5.360877     -1.761025
      0.67693      4.75367      2.56525         0.737574      3.200944     -1.612645
      1.81253      0.38051     10.09973         1.049799      0.369681      1.293159
      0.71741      3.64772     10.24549         2.387837    -13.500580     -4.597133
      4.08794      4.87218      7.57983         5.544203     23.218114     -2.600996
      2.66696      2.24378      7.54853        -1.100666     -1.575161      0.263266
      0.55296      3.06355      4.97088        -3.001846      0.767502      0.516351
     -0.63736      0.40059      5.06966        -5.441660      3.679526     -4.017083
     -1.26421      1.78117      7.72751         2.022726     13.059663     -2.921888
     -2.83041      4.99228      7.48540        -5.774244     -2.780058     19.167713
      5.65288      0.24652      5.17131         2.398000      3.636853     -1.075655
      3.43154      3.38905      5.27574        23.373472      4.102298     -4.940379
      6.85535     10.70715      2.56475         0.868036      0.030711      0.040771
      5.40837      8.02474      2.54435         0.087782      0.153968      0.651178
     -2.93829      9.04389     10.23829         0.626610     -3.343053     -0.776465
     -4.17039      5.90085     10.21455        -1.436990     -0.704786     -0.231233
      2.15558      7.83548      2.10955        -1.235480      1.726927     11.169594
      0.78828     10.60912      2.46475         0.608408     -0.369375     -0.470138
      8.34090      6.08668      0.02287         3.705792      3.123092     -1.239613
      7.24880      8.77481      0.12568        -0.829205     -0.111010     -0.727240
      3.61595     11.08852      7.39084         3.870883     -0.813260     -1.669922
      2.48997      7.74520      7.78906        -1.709906     -0.572915     -0.285173
      0.61061      8.90351      5.39664        -0.873307      2.178031     -0.785538
     -0.78216      5.94049      4.93386        -1.032924      1.706234      1.229747
     -1.14736      8.12969      7.70988         7.269322     -6.693323     -1.627562
     -2.63270     10.69585      7.92951        -4.430319     -0.815277     -1.307474
      5.38370      6.02235      5.41088         1.920629      2.210772     -1.640537
      3.89694      8.87488      5.35077        -5.734087      2.344141     -1.510191
      7.21206      4.98548      0.49221        -3.138262      9.731923      5.836361
      0.76730      5.44048      0.62152        -0.336264     -0.700494      0.554406
      3.93031      5.16874      0.73531        -0.547799     -0.124168     -0.661510
      5.58566      0.46103      3.11048         0.592919      0.060490      0.374244
      3.85431      2.80143      2.96603        -2.759175      0.302460      1.560567
      6.71042      3.32910      3.00625        -0.570550     -0.271800     -0.492274
      2.37048      2.55944      0.55608         1.042316     -1.192808     -1.049787
      5.38863      2.39352      0.92803         0.543257      1.443223    -10.003693
      8.84038      2.12094      0.59254        -1.948160     -0.750873     -2.017307
      0.98445      3.04490      2.78827        -9.948844      9.006632      1.390525
     -1.18651      0.73623      3.22921         0.347071     -2.076773      1.440985
      2.24341      0.49681      2.92068        -1.171767     -4.100943     -0.220458
      4.00526      5.08111      5.68514        -0.943628     -1.035122      0.046331
     -2.33356      5.18124      6.20553         6.577970      3.375551    -19.254053
      0.43936      4.98480      5.46901         0.695029     -2.380537     -0.256875
      2.30426      0.36767      8.07074        -2.057358      2.338978      2.142582
      0.19305      2.57162      7.87973         2.684591      0.892420      1.447941
      3.66836      3.60766      7.67579        -9.212978    -25.821722      2.598683
     -0.82743      1.90010      5.78096         0.455454      1.853517     -0.293300
      2.11920      3.11243      5.50995       -19.765722     -5.502059      4.637950
      5.51931      2.17234      5.45622        -1.001712     -1.674503     -0.396841
     -2.29685      3.08685      8.32374        -1.703887      1.549279      1.194296
     -4.26992      0.37172      8.32819        -0.552269     -1.465567      0.821537
     -1.50375      0.39214      8.03036         0.498054     -9.665092      3.338430
      7.33172     10.48923      0.64728         0.252387      0.861264      0.595368
      0.39408     10.62503      0.71570         0.354082      1.841628      0.164786
      3.87631     10.53544      0.50509        -1.464523      4.194881      0.560955
      5.84531      5.86289      3.21532        -4.224257      4.362260      3.321273
[...]
      0.88065      8.82042      3.00168         0.301599      1.648661     -0.667580
     -0.90977      5.92863      3.26647        -0.275744     -1.939397     -2.094351
      1.96350      6.17040      2.85269        -0.945262     -0.564321     -0.259412
      4.28165     10.84126      5.52246        -3.051174     -2.575801      2.492911
     -2.65546     10.78471      5.76562        -0.114692      0.767610      0.532403
      0.39445     10.73704      5.32744         4.553447     -6.500766      1.210903
      2.30688      6.10843      8.30344        -0.089831      0.049080      1.059544
      0.37458      8.61938      8.46246         0.527256     -0.448390      0.663044
      3.80901      8.58304      8.20591         0.823298      1.674645     -0.362078
     -0.51242      7.65406      5.33574        -1.329536     -0.643926      1.386824
      2.10371      8.19730      5.29802         2.698244      0.030384      1.466731
      5.27347      8.16578      5.40894         4.583378     -4.168636      0.434681
     -2.29381      9.03383      8.09499        -6.203690      3.252718      2.524447
     -4.56446      5.91902      8.20937         4.150741      2.425585      2.406862
     -0.86427      5.90799      8.24017        -1.480571      1.354185     -0.687361
    total drift:                                0.000185      0.033899     -0.032383

  FREE ENERGIE OF THE ION-ELECTRON SYSTEM (eV)
  free  energy   TOTEN  =      -431.9534024196 eV

  energy  without entropy=     -431.8597576260  energy(sigma->0) =     -431.90658002

volume of typ            1:    17.9 %

volume of typ            2:     6.9 %

total charge

# of ion       s       p       d       tot
    1        0.317   0.358   7.930   8.606
    2        0.377   0.495   7.894   8.766
    3        0.258   0.253   7.845   8.355
    4        0.188   0.135   7.854   8.177
    5        0.392   0.528   7.960   8.880
    6        0.228   0.231   7.872   8.330
    7        0.207   0.179   7.829   8.215
    8        0.298   0.296   8.039   8.633
    9        0.431   0.647   8.063   9.140
   10        0.211   0.203   7.993   8.407
   11        0.238   0.252   7.955   8.445
   12        0.352   0.436   7.904   8.693
   13        0.389   0.548   7.936   8.873
   14        0.341   0.402   8.019   8.763
   15        0.303   0.349   7.813   8.465
   16        0.367   0.441   8.085   8.893
   17        0.216   0.187   7.835   8.239
   18        0.234   0.209   7.822   8.265
   19        0.275   0.278   7.936   8.489
   20        0.265   0.294   7.878   8.437
   21        0.355   0.464   7.880   8.699
   22        0.242   0.225   7.827   8.294
   23        0.246   0.255   7.914   8.415
   24        0.275   0.301   7.832   8.408
   25        0.254   0.246   7.903   8.404
   26        0.310   0.307   7.864   8.480
   27        0.311   0.349   7.897   8.557
   28        0.329   0.387   7.876   8.592
   29        0.320   0.339   7.953   8.612
   30        0.297   0.362   7.921   8.579
   31        0.216   0.194   7.952   8.362
   32        0.293   0.327   7.893   8.513
   33        1.280   2.854   0.028   4.162
   34        1.285   2.648   0.003   3.936
   35        1.284   2.707   0.009   4.000
   36        1.277   2.703   0.006   3.986
   37        1.284   2.724   0.009   4.017
   38        1.286   2.693   0.008   3.988
   39        1.284   2.657   0.004   3.945
   40        1.297   2.745   0.015   4.057
   41        1.291   2.618   0.003   3.912
   42        1.283   2.833   0.023   4.139
   43        1.297   2.606   0.003   3.906
   44        1.283   2.728   0.010   4.020
   45        1.268   2.775   0.011   4.054
   46        1.298   2.807   0.024   4.129
   47        1.289   2.703   0.009   4.001
   48        1.264   2.761   0.010   4.035
   49        1.288   2.686   0.007   3.981
   50        1.299   2.897   0.035   4.231
   51        1.277   2.742   0.009   4.028
   52        1.294   2.885   0.035   4.214
   53        1.295   2.606   0.002   3.903
   54        1.269   2.715   0.005   3.989
   55        1.277   2.672   0.004   3.953
   56        1.290   2.870   0.028   4.188
   57        1.266   2.730   0.006   4.002
   58        1.286   2.657   0.004   3.947
   59        1.288   2.705   0.010   4.004
   60        1.286   2.734   0.012   4.031
[...]
   66        1.286   2.681   0.006   3.972
   67        1.285   2.700   0.008   3.993
   68        1.291   2.654   0.005   3.950
   69        1.273   2.747   0.010   4.030
   70        1.289   2.669   0.005   3.964
   71        1.279   2.788   0.015   4.081
   72        1.282   2.691   0.006   3.979
   73        1.280   2.694   0.006   3.980
   74        1.296   2.673   0.008   3.977
   75        1.277   2.739   0.010   4.025
   76        1.287   2.712   0.009   4.009
   77        1.290   2.720   0.012   4.021
   78        1.272   2.831   0.020   4.123
   79        1.275   2.763   0.011   4.049
   80        1.306   2.563   0.001   3.870
tot          70.99  141.06  253.68  465.72

magnetization (x)

# of ion       s       p       d       tot
    1        0.008  -0.001   0.371   0.377
    2       -0.003  -0.001  -0.216  -0.221
    3        0.005   0.015   1.072   1.092
    4        0.000   0.012   1.404   1.416
    5       -0.002  -0.004  -0.008  -0.013
    6       -0.002   0.006   0.855   0.859
    7       -0.004  -0.011  -1.277  -1.293
    8       -0.006  -0.007  -0.446  -0.459
    9        0.001   0.009   0.343   0.352
   10       -0.000   0.001   0.086   0.087
   11        0.001   0.008   0.484   0.493
   12       -0.002   0.002   0.281   0.281
   13        0.007  -0.001   0.203   0.209
   14        0.006   0.010   0.893   0.908
   15        0.001   0.010   0.996   1.006
   16        0.012   0.001   0.210   0.223
   17       -0.001   0.015   1.366   1.379
   18        0.004   0.019   1.362   1.384
   19        0.014   0.018   0.837   0.869
   20        0.003   0.008   0.403   0.414
   21       -0.004   0.002   0.033   0.030
   22        0.003   0.015   1.231   1.248
   23       -0.007  -0.002  -0.046  -0.055
   24        0.002   0.011   0.804   0.817
   25       -0.019  -0.011  -0.961  -0.991
   26        0.019   0.021   1.174   1.214
   27        0.001   0.000   0.085   0.086
   28       -0.001  -0.001   0.187   0.185
   29        0.005   0.002   0.482   0.490
   30        0.003   0.009   0.636   0.648
   31        0.004   0.013   0.915   0.931
   32        0.014   0.012   0.853   0.880
   33       -0.001  -0.075  -0.000  -0.077
   34        0.007   0.257   0.000   0.264
   35        0.006   0.285   0.000   0.291
   36        0.007   0.281   0.000   0.288
   37        0.000  -0.002  -0.000  -0.002
   38        0.001   0.028   0.000   0.029
   39        0.012   0.426   0.000   0.438
   40       -0.001  -0.086  -0.000  -0.088
   41       -0.010  -0.479   0.000  -0.488
   42        0.002   0.034  -0.000   0.036
   43        0.008   0.388  -0.000   0.396
   44        0.004   0.091  -0.000   0.094
   45        0.004   0.105   0.000   0.109
   46        0.008   0.334   0.001   0.343
   47        0.004   0.189  -0.000   0.193
   48       -0.007  -0.226  -0.000  -0.233
   49       -0.000  -0.006   0.000  -0.006
   50        0.003   0.108   0.000   0.111
   51        0.005   0.071   0.000   0.077
   52        0.002   0.078  -0.000   0.080
   53        0.012   0.567   0.000   0.579
   54        0.006   0.127   0.000   0.133
   55        0.004   0.188   0.000   0.192
   56        0.004   0.136  -0.000   0.139
   57        0.004   0.089   0.000   0.093
   58        0.007   0.307   0.000   0.314
   59        0.009   0.429   0.000   0.438
   60        0.007   0.237   0.000   0.244
[...]
   66        0.005   0.214   0.000   0.219
   67        0.005   0.161   0.000   0.166
   68        0.009   0.417  -0.000   0.426
   69        0.004   0.042   0.000   0.047
   70        0.007   0.309   0.000   0.316
   71        0.001   0.034   0.000   0.035
   72        0.006   0.248   0.000   0.254
   73        0.006   0.171   0.000   0.177
   74        0.009   0.443   0.000   0.452
   75        0.002   0.015   0.000   0.017
   76        0.005   0.192  -0.000   0.197
   77        0.010   0.432   0.000   0.442
   78        0.006   0.131   0.000   0.137
   79        0.004   0.102   0.000   0.106
   80        0.014   0.730  -0.000   0.744
tot           0.30    8.89   14.61   23.80