 vasp.5.4.4.18Apr17-6-g9f103f2a35 (build May 12 2020 04:58:55) complex

 MD_VERSION_INFO: Compiled 2020-05-12T11:58:55-UTC in devlin.sd.materialsdesign.
 com:/home/medea2/data/build/wwolf/vasp-gpu5.4.4/13047/x86_64/src/src/build/std
 from svn 13047

 executed on                        Lin64 date 2023.03.25  15:05:29

 INCAR:
 POTCAR:    PAW_PBE Ni 02Aug2007
 POTCAR:    PAW_PBE O 08Apr2002

 POTCAR:    PAW_PBE Ni 02Aug2007

 POTCAR:    PAW_PBE O 08Apr2002

 Optimization of the real space projectors (new method)

 maximal supplied QI-value         = 16.25
 optimisation between [QCUT,QGAM] = [ 11.38, 22.75] = [ 36.24,144.96] Ry
 Optimized for a Real-space Cutoff    1.47 Angstroem

   l    n(q)    QCUT    max X(q) W(low)/X(q) W(high)/X(q)  e(spline)
   2      9    11.376    60.317    0.17E-03    0.16E-04    0.16E-06
   2      9    11.376    55.921    0.17E-03    0.16E-04    0.17E-06
   0     10    11.376    51.690    0.45E-04    0.60E-04    0.21E-06
   0     10    11.376    30.015    0.37E-04    0.55E-04    0.19E-06
   1     10    11.376    18.849    0.83E-04    0.11E-03    0.92E-07
   1     10    11.376    14.624    0.69E-04    0.92E-04    0.82E-07
 Optimization of the real space projectors (new method)

 maximal supplied QI-value         = 24.76
 optimisation between [QCUT,QGAM] = [ 11.39, 22.77] = [ 36.31,145.25] Ry
 Optimized for a Real-space Cutoff    1.10 Angstroem

   l    n(q)    QCUT    max X(q) W(low)/X(q) W(high)/X(q)  e(spline)
   0      7    11.387    20.381    0.22E-03    0.48E-03    0.18E-06
   0      7    11.387    15.268    0.22E-03    0.52E-03    0.19E-06
   1      7    11.387     5.964    0.22E-03    0.73E-03    0.24E-06
   1      7    11.387     5.382    0.19E-03    0.60E-03    0.21E-06

  PAW_PBE Ni 02Aug2007                  :
  PAW_PBE O 08Apr2002                   :

 POSCAR: Ni2O3_Cc_scale_1_025_disp_0_20_round_1
  positions in direct lattice
 exchange correlation table for  LEXCH =       14
   RHO(1)=    0.500       N(1)  =     2000
   RHO(2)=  100.500       N(2)  =     4000

 ion  position               nearest neighbor table
   1  0.924  0.437  0.256-  38 1.50  67 1.67  33 1.92  60 2.23  31 2.50  23 2.84  28 2.88
   2  0.744  0.207  0.247-  40 1.75  38 1.84  36 1.94  37 2.23  15 3.02   3 3.09
   3  0.409  0.294  0.016-  39 1.66  35 2.20  40 2.21  54 2.24   4 3.04   2 3.09
   4  0.279  0.051  0.012-  59 1.55  39 1.76  58 2.21  55 2.45   3 3.04   5 3.06
   5  0.406  0.181  0.268-  44 1.64  42 1.73  37 2.07  39 2.20  22 2.96   4 3.06
   6  0.234  0.442  0.243-  67 1.55  68 1.89  42 1.94  34 2.08  11 3.07
   7  0.877  0.037  0.989-  57 1.72  48 2.05  58 2.19  41 2.23  17 2.84
   8  0.740  0.288  0.996-  33 1.68  40 2.06  41 2.07  49 2.30  23 2.95
   9  0.880  0.431  0.737-  45 1.68  72 1.90  50 1.95  79 2.24  10 2.89  16 2.97  26 3.03
  10  0.730  0.210  0.729-  50 1.53  49 1.70  52 1.85  48 2.05   9 2.89
  11  0.371  0.286  0.485-  51 1.42  42 1.90  47 2.03  52 2.17  28 3.05   6 3.07
  12  0.202  0.042  0.463-  43 1.90  71 2.29  70 2.36  51 2.39
  13  0.386  0.208  0.733-  51 1.83  54 1.94  49 1.95  56 2.08
  14  0.287  0.465  0.754-  80 1.57  79 1.99  46 2.14  54 2.35  29 2.88
  15  0.886  0.056  0.487-  53 1.77  36 1.78  69 2.06  70 2.32  16 2.98   2 3.02
  16  0.755  0.288  0.498-  53 1.68  52 1.85  37 1.88  45 1.88   9 2.97  15 2.98
  17  0.887  0.945  0.208-  57 1.76  62 2.07  43 2.17  36 2.31  24 2.77   7 2.84
  18  0.793  0.694  0.285-  62 1.31  61 1.98  60 2.06  64 2.21  77 2.44  31 2.55
  19  0.404  0.788  0.002-  59 1.93  63 2.02  64 2.05  78 2.41
  20  0.246  0.535  0.010-  63 1.57  35 1.89  34 2.22  79 2.28
  21  0.412  0.688  0.290-  66 1.69  68 1.70  61 1.92  63 2.48  27 2.64  22 3.00  32 3.02
  22  0.298  0.937  0.260-  66 1.67  44 2.01  58 2.08  43 2.15   5 2.96  21 3.00  27 3.02
  23  0.867  0.528  0.019-  33 1.67  34 1.78  65 2.09  67 2.45  72 2.50   1 2.84   8 2.95  24 3.02

  24  0.754  0.776  0.016-  65 1.57  57 1.78  64 1.85  73 2.29  17 2.77  23 3.02
  25  0.865  0.917  0.748-  48 1.78  74 1.92  69 2.19  32 2.81
  26  0.727  0.666  0.727-  72 1.50  73 1.83  76 1.91  74 2.11  27 2.95  29 3.01   9 3.03
  27  0.448  0.785  0.500-  76 1.76  71 1.79  66 1.96  75 2.45  32 2.62  21 2.64  26 2.95  29 3.02
                            22 3.02
  28  0.224  0.523  0.482-  75 1.73  47 2.00  46 2.24  67 2.51  31 2.69  29 2.88   1 2.88  11 3.05

  29  0.401  0.677  0.702-  75 1.42  80 2.02  78 2.06  73 2.07  14 2.88  28 2.88  26 3.01  27 3.02

  30  0.292  0.946  0.760-  56 1.72  78 1.80  55 2.02  70 2.15
  31  0.923  0.523  0.442-  60 1.34  46 1.71  77 2.11   1 2.50  18 2.55  28 2.69
  32  0.719  0.809  0.504-  69 1.55  76 1.86  61 2.12  77 2.39  27 2.62  25 2.81  21 3.02
  33  0.803  0.419  0.071-  23 1.67   8 1.68   1 1.92
  34  0.057  0.478  0.048-  23 1.78   6 2.08  20 2.22
  35  0.460  0.471  0.100-  20 1.89   3 2.20
  36  0.792  0.049  0.316-  15 1.78   2 1.94  17 2.31
  37  0.600  0.293  0.318-  16 1.88   5 2.07   2 2.23
  38  0.906  0.309  0.272-   1 1.50   2 1.84
  39  0.323  0.197  0.062-   3 1.66   4 1.76   5 2.20
  40  0.636  0.195  0.078-   2 1.75   8 2.06   3 2.21
  41  0.969  0.214  0.072-   8 2.07   7 2.23
  42  0.322  0.288  0.312-   5 1.73  11 1.90   6 1.94
  43  0.123  0.029  0.284-  12 1.90  22 2.15  17 2.17
  44  0.478  0.047  0.291-   5 1.64  22 2.01
  45  0.792  0.437  0.575-   9 1.68  16 1.88
  46  0.084  0.441  0.559-  31 1.71  14 2.14  28 2.24
  47  0.446  0.450  0.558-  28 2.00  11 2.03
  48  0.813  0.045  0.801-  25 1.78  10 2.05   7 2.05
  49  0.603  0.256  0.776-  10 1.70  13 1.95   8 2.30
  50  0.899  0.269  0.794-  10 1.53   9 1.95
  51  0.335  0.223  0.565-  11 1.42  13 1.83  12 2.39
  52  0.621  0.234  0.552-  10 1.85  16 1.85  11 2.17
  53  0.918  0.201  0.547-  16 1.68  15 1.77
  54  0.261  0.270  0.800-  13 1.94   3 2.24  14 2.35
  55  0.117  0.024  0.776-  30 2.02   4 2.45
  56  0.454  0.037  0.797-  30 1.72  13 2.08
  57  0.804  0.927  0.041-   7 1.72  17 1.76  24 1.78
  58  0.121  0.961  0.064-  22 2.08   7 2.19   4 2.21
  59  0.393  0.955  0.014-   4 1.55  19 1.93
  60  0.779  0.521  0.326-  31 1.34  18 2.06   1 2.23
  61  0.619  0.734  0.317-  21 1.92  18 1.98  32 2.12
  62  0.863  0.795  0.292-  18 1.31  17 2.07
  63  0.306  0.664  0.057-  20 1.57  19 2.02  21 2.48
  64  0.628  0.712  0.072-  24 1.85  19 2.05  18 2.21
  65  0.915  0.707  0.056-  24 1.57  23 2.09
  66  0.312  0.799  0.310-  22 1.67  21 1.69  27 1.96
  67  0.081  0.479  0.244-   6 1.55   1 1.67  23 2.45  28 2.51
  68  0.414  0.539  0.286-  21 1.70   6 1.89
  69  0.775  0.937  0.542-  32 1.55  15 2.06  25 2.19
  70  0.099  0.922  0.559-  30 2.15  15 2.32  12 2.36
  71  0.433  0.930  0.545-  27 1.79  12 2.29
  72  0.789  0.548  0.790-  26 1.50   9 1.90  23 2.50
  73  0.633  0.752  0.797-  26 1.83  29 2.07  24 2.29
  74  0.946  0.759  0.793-  25 1.92  26 2.11
  75  0.310  0.652  0.567-  29 1.42  28 1.73  27 2.45
  76  0.618  0.694  0.544-  27 1.76  32 1.86  26 1.91
  77  0.931  0.689  0.521-  31 2.11  32 2.39  18 2.44
  78  0.301  0.789  0.773-  30 1.80  29 2.06  19 2.41
  79  0.120  0.511  0.791-  14 1.99   9 2.24  20 2.28
  80  0.450  0.539  0.821-  14 1.57  29 2.02

  LATTYP: Found a simple monoclinic cell.
 ALAT       =    16.3463459659
 B/A-ratio  =     0.6987547874
 C/A-ratio  =     1.5833429409
 COS(beta)  =    -0.9717709890

  Lattice vectors:

 A1 = ( -12.7040962200,   0.0000000000, -10.2863485100)
 A2 = (   0.0000000000, -11.4220875000,   0.0000000000)
 A3 = (  15.7046301900,   0.0000000000,  20.5726970200)

Analysis of symmetry for initial positions (statically):
 Subroutine PRICEL returns:
 Original cell was already a primitive cell.

 Routine SETGRP: Setting up the symmetry group for a
 simple monoclinic supercell.

 Subroutine GETGRP returns: Found  1 space group operations
 (whereof  1 operations were pure point group operations)
 out of a pool of  4 trial point group operations.

The static configuration has the point symmetry C_1 .

Analysis of symmetry for dynamics (positions and initial velocities):
 Subroutine PRICEL returns:
 Original cell was already a primitive cell.

[...]

The dynamic configuration has the point symmetry C_1 .

Analysis of structural, dynamic, and magnetic symmetry:
 Subroutine PRICEL returns:
 Original cell was already a primitive cell.

 Routine SETGRP: Setting up the symmetry group for a
 simple monoclinic supercell.

 Subroutine GETGRP returns: Found  1 space group operations
 (whereof  1 operations were pure point group operations)
 out of a pool of  4 trial point group operations.

The magnetic configuration has the point symmetry C_1 .

 Subroutine INISYM returns: Found  1 space group operations
 (whereof  1 operations are pure point group operations),
 and found     1 'primitive' translations

 KPOINTS: Automatic mesh

Automatic generation of k-mesh.
Space group operators:
 irot       det(A)        alpha          n_x          n_y          n_z        tau_x        tau_y        tau_z
    1     1.000000     0.000000     1.000000     0.000000     0.000000     0.000000     0.000000     0.000000

 Subroutine IBZKPT returns following result:

 Found     19 irreducible k-points:

 Following reciprocal coordinates:
            Coordinates               Weight
  0.000000  0.000000  0.000000      1.000000
  0.250000  0.000000  0.000000      2.000000
  0.500000  0.000000  0.000000      1.000000
  0.000000  0.333333  0.000000      2.000000
  0.250000  0.333333  0.000000      2.000000
  0.500000  0.333333  0.000000      2.000000
 -0.250000  0.333333 -0.000000      2.000000
  0.000000  0.000000  0.333333      2.000000
  0.250000  0.000000  0.333333      2.000000
  0.500000  0.000000  0.333333      2.000000
 -0.250000  0.000000  0.333333      2.000000
  0.000000  0.333333  0.333333      2.000000
  0.250000  0.333333  0.333333      2.000000
  0.500000  0.333333  0.333333      2.000000
 -0.250000  0.333333  0.333333      2.000000
  0.000000 -0.333333  0.333333      2.000000
  0.250000 -0.333333  0.333333      2.000000
  0.500000 -0.333333  0.333333      2.000000
 -0.250000 -0.333333  0.333333      2.000000

 Following cartesian coordinates:
            Coordinates               Weight
  0.000000  0.000000  0.000000      1.000000
  0.025764  0.000000  0.016789      2.000000
  0.051527  0.000000  0.033578      1.000000
  0.000000  0.029183  0.000000      2.000000
  0.025764  0.029183  0.016789      2.000000
  0.051527  0.029183  0.033578      2.000000
 -0.025764  0.029183 -0.016789      2.000000
  0.000000  0.000000  0.032405      2.000000
  0.025764  0.000000  0.049194      2.000000
  0.051527  0.000000  0.065983      2.000000
 -0.025764  0.000000  0.015617      2.000000
  0.000000  0.029183  0.032405      2.000000
  0.025764  0.029183  0.049194      2.000000
  0.051527  0.029183  0.065983      2.000000
 -0.025764  0.029183  0.015617      2.000000
  0.000000 -0.029183  0.032405      2.000000
  0.025764 -0.029183  0.049194      2.000000
  0.051527 -0.029183  0.065983      2.000000
 -0.025764 -0.029183  0.015617      2.000000

 SYSTEM =  unknown system
 POSCAR =  Ni2O3_Cc_scale_1_025_disp_0_20_round_1

 Startparameter for this run:
   NWRITE =      1    write-flag & timer
[...]
   0.222E+03 0.176E+03 -.359E+02   -.243E+03 -.192E+03 0.497E+02   0.999E+01 0.712E+01 -.501E+01   -.155E+00 -.185E+00 0.122E+00
   0.510E+02 0.140E+03 0.466E+02   -.574E+02 -.144E+03 -.554E+02   0.563E+01 0.488E+01 0.921E+01   0.233E+00 -.233E+00 0.181E+00
   -.217E+03 0.432E+01 -.203E+03   0.233E+03 0.474E+00 0.217E+03   -.157E+02 -.551E+01 -.152E+02   -.165E-01 -.517E+00 -.813E-01
   0.162E+03 0.470E+02 0.185E+02   -.177E+03 -.493E+02 -.213E+02   0.182E+02 0.296E+01 0.334E+01   -.104E+00 0.457E-01 0.595E-01
   0.848E+02 -.612E+02 0.841E+01   -.916E+02 0.688E+02 -.114E+02   0.785E+01 -.851E+01 0.368E+01   -.182E+00 -.348E-01 -.508E-01
   -.159E+03 0.221E+02 -.878E+02   0.176E+03 -.200E+02 0.966E+02   -.178E+02 -.519E+00 -.955E+01   0.500E-01 -.714E-03 0.126E+00
   0.745E+02 -.431E+02 0.121E+03   -.804E+02 0.442E+02 -.130E+03   0.503E+01 -.187E+01 0.981E+01   -.335E-01 0.242E+00 -.593E-01
   -.161E+01 0.105E+03 0.104E+03   -.153E+00 -.112E+03 -.110E+03   0.265E+01 0.856E+01 0.633E+01   0.359E-01 0.546E-01 -.398E+00
   -.174E+03 0.813E+02 -.357E+02   0.195E+03 -.887E+02 0.385E+02   -.170E+02 0.215E+01 -.274E+01   0.497E-01 -.502E+00 -.153E+00
   0.280E+03 0.545E+02 0.292E+03   -.316E+03 -.615E+02 -.339E+03   0.247E+02 0.739E+01 0.228E+02   0.632E-01 0.108E-02 -.370E+00
[...]
   0.143E+01 -.176E+03 -.386E+02   -.786E+01 0.189E+03 0.331E+02   0.226E+01 -.107E+02 0.792E+01   -.156E+00 -.177E+00 -.280E+00
   -.122E+03 0.108E+03 -.567E+02   0.135E+03 -.121E+03 0.616E+02   -.149E+02 0.123E+02 -.479E+01   0.132E+00 -.746E+00 -.357E+00
   -.186E+02 -.209E+03 -.435E+02   0.178E+02 0.232E+03 0.463E+02   0.227E+01 -.176E+02 -.114E+01   0.364E+00 0.519E+00 0.231E+00
   -.101E+02 0.105E+03 0.389E+02   0.671E+01 -.116E+03 -.424E+02   0.445E+01 0.137E+02 0.334E+01   -.309E+00 0.215E+00 -.144E-01
   0.406E+02 -.177E+03 -.127E+03   -.393E+02 0.190E+03 0.137E+03   -.241E+01 -.135E+02 -.105E+02   0.222E-01 -.715E-01 0.201E+00
   0.175E+02 0.152E+03 -.140E+03   -.217E+02 -.173E+03 0.155E+03   0.563E+01 0.128E+02 -.113E+02   0.372E-01 0.199E+00 0.113E+00
   0.555E+02 -.190E+03 -.858E+02   -.591E+02 0.203E+03 0.912E+02   0.273E+01 -.142E+02 -.547E+01   -.566E-01 0.251E-01 -.479E-01
   -.209E+03 0.420E+02 -.150E+03   0.222E+03 -.512E+02 0.158E+03   -.146E+02 0.109E+02 -.901E+01   0.128E+00 0.214E+00 0.908E-01
   0.644E+02 -.153E+03 0.229E+03   -.646E+02 0.158E+03 -.261E+03   0.722E+00 -.777E+01 0.161E+02   -.115E+00 0.511E+00 0.585E+00
   -.746E+02 0.202E+03 -.334E+01   0.813E+02 -.223E+03 -.205E+01   -.624E+01 0.202E+02 0.573E+01   -.608E-01 0.218E+00 0.525E+00
   -.645E+02 -.109E+03 -.208E+03   0.670E+02 0.116E+03 0.217E+03   -.274E+01 -.777E+01 -.104E+02   0.142E+00 0.188E+00 0.159E+00
   0.127E+03 0.894E+02 -.425E+01   -.136E+03 -.101E+03 0.236E+01   0.100E+02 0.113E+02 0.250E+01   -.101E+00 -.183E+00 0.349E+00
   0.407E+02 -.102E+03 -.149E+02   -.454E+02 0.110E+03 0.103E+02   0.464E+01 -.898E+01 0.567E+01   0.255E+00 0.529E-01 0.165E+00
   -.122E+03 -.276E+02 -.231E+03   0.141E+03 0.342E+02 0.250E+03   -.156E+02 -.400E+01 -.188E+02   -.319E+00 0.478E-01 0.738E-01
   0.923E+02 -.863E+01 0.440E+02   -.398E-12 -.924E-12 -.313E-12   -.919E+02 0.871E+01 -.443E+02   -.464E+00 -.625E-01 0.340E+00

 POSITION                                       TOTAL-FORCE (eV/Angst)
      7.25218      4.99041      2.63308        -0.396819      7.882164     -0.647589
      5.55785      2.36420      2.54416         0.151634     -0.089168      0.907180
      3.86064      3.35507      0.16461         2.223847      2.261086     -0.890606
      2.62350      0.57825      0.12151        -4.939971      2.724568     -0.550102
      2.14939      2.06371      2.75450         1.127617      2.232454     -0.400186
      0.63912      5.05030      2.49678         7.276319     -1.054101     -0.762683
      1.87944      0.41855     10.17758         3.045660      1.896987     -0.258490
      0.50226      3.29135     10.24898         0.793643     -3.439302     -0.543262
      3.59929      4.92548      7.57687         0.735208      0.565931      2.066519
      2.19804      2.40115      7.50134        -3.491854     -3.864661     -2.916065
      0.35257      3.27051      4.98752        11.584891      9.396938     -8.786867
     -1.14466      0.48208      4.75885         0.679828     -1.848655     -0.012557
     -1.16135      2.38102      7.53535        -0.271611     -0.669000      0.884437
     -2.26736      5.30918      7.76040        -5.974729     -2.712344     -1.743069
      5.33129      0.63889      5.01070         0.228503     -1.274267      0.810314
      3.98680      3.29388      5.12767        -1.538819      1.659764     -0.333832
      7.20713     10.78825      2.14258        -0.170792      0.486273      2.026534
      5.77887      7.93044      2.93542       -16.971759    -26.289423     -1.501362
      3.90415      8.99912      0.01921         0.498822     -0.479346      0.291503
      2.32177      6.11129      0.10177         0.517837     -5.002482     -1.532142
      2.05394      7.86090      2.98329         2.374958     -1.248977     -0.796201
      1.14483     10.70308      2.67621        -0.540876      4.088362     -2.093891
      8.28200      6.03233      0.19678         2.167739      3.171640     -0.675277
      7.21248      8.86029      0.16002        -3.760423      1.479325     -1.920038
      3.38131     10.47038      7.69397         1.614310     -1.154075      0.120403
      2.17854      7.60388      7.47563        -0.119774      8.693035     -3.146318
      0.99335      8.96213      5.14158        -0.939778      2.079120     -0.195431
     -1.05830      5.97670      4.95881         0.771261     -1.916480      0.815512
     -0.81503      7.73241      7.22523        -0.589188      4.470171     17.120783
     -2.25584     10.80210      7.81428        -1.983844     -0.391614     -1.389099
      5.98664      5.97230      4.55029        11.374417      1.403059     24.621153
      3.59859      9.23989      5.18259         0.328668     -7.245440     -2.212802
      7.31422      4.78472      0.72956        -1.578468      0.658061      0.157946
      0.23497      5.46274      0.49520         1.952263      0.237061     -0.151937
      3.79273      5.37523      1.02959        -1.709644     -1.630133     -2.384020
      5.56541      0.56066      3.24571         1.072206      0.893306     -0.306823
      3.68922      3.34485      3.27165         0.755176     -1.830951      0.331978
      6.96842      3.52559      2.79457        -3.260822     -9.729531      1.761673
      2.71686      2.25288      0.64146        -1.934346     -1.644210      1.039531
      5.65509      2.22801      0.79846         0.142985      1.658108     -1.455711
      8.92216      2.44814      0.74319        -2.243161     -1.259317     -1.990141
      1.02798      3.29311      3.21345        -1.393355      1.571637      0.700665
     -0.71232      0.33011      2.91938        -0.793794     -1.240823      1.381919
      2.68907      0.53317      2.99149        -0.953404     -2.659533     -0.158440
      3.82907      4.99497      5.91589         0.483791     -1.627514     -1.467509
     -2.92837      5.03273      5.74623         2.096728      0.828909      1.047351
      0.58803      5.14395      5.73956        -2.358684     -1.256461     -2.155263
      2.52665      0.51739      8.23621        -0.746283      0.182085      0.973651
      0.65321      2.92828      7.97786        -2.098995     -0.109683      1.693719
      3.40890      3.07265      8.16246         5.095587      4.512834      2.067946
     -0.54373      2.54313      5.81554       -10.769153     -8.505245      8.878410
      2.32694      2.67673      5.67466        -0.443543      0.037064      0.598837
      5.24513      2.29109      5.62719         0.269905     -1.233570     -0.553092
     -2.83234      3.08068      8.22931         2.719370      0.755786      0.581696
     -4.06476      0.26922      7.97907         0.807451     -0.992238      0.687947
     -0.94401      0.42192      8.20177        -0.544480      1.669524     -0.616502
      7.52991     10.59270      0.41896        -0.944441     -0.552456      0.374649
      0.74270     10.97432      0.65515         0.922408      1.330221      0.530067
      3.72089     10.91159      0.14051         3.757858     -5.731124     -0.135776
      5.37831      5.95620      3.35324       -11.467214      0.410513    -24.004260
[...]
      0.94561      9.12210      3.18847        -0.883795     -1.093843      1.385860
     -0.85236      5.46612      2.51485        -4.327769      2.581408      2.147117
      2.10106      6.16176      2.94502        -1.421894     -0.978241     -0.208595
      3.88232     10.70685      5.57610         1.810878      6.299051      1.906646
     -2.78757     10.53071      5.75132         0.748576      2.564748     -0.192618
      0.54877     10.62735      5.61058        -1.140580     -0.394952     -1.041725
      2.36444      6.26253      8.12202         1.525672     -8.609615      3.638684
      0.80607      8.58601      8.19334        -0.936686     -1.108070     -0.151849
      3.86887      8.66668      8.15569        -1.976600      2.037324     -1.305746
     -0.79520      7.44228      5.83363         0.451249     -2.759855    -15.090280
      2.34652      7.92901      5.59797         0.370493     -0.284111      0.862163
      5.54125      7.86525      5.36246        -0.180324     -1.029759     -1.499946
     -2.25783      9.00939      7.95201         1.081218     -0.184904      0.949685
     -4.14360      5.83783      8.14155         0.210996     -1.094323      1.213755
     -1.13420      6.15923      8.44860         2.884979      2.630792      0.469559
    total drift:                               -0.052872      0.018827     -0.038004

  FREE ENERGIE OF THE ION-ELECTRON SYSTEM (eV)
  free  energy   TOTEN  =      -432.9195243747 eV

  energy  without entropy=     -432.8125907798  energy(sigma->0) =     -432.86605758

volume of typ            1:    17.9 %

volume of typ            2:     6.9 %

total charge

# of ion       s       p       d       tot
    1        0.340   0.440   8.000   8.781
    2        0.253   0.260   7.852   8.366
    3        0.230   0.218   7.878   8.326
    4        0.299   0.335   7.909   8.543
    5        0.286   0.336   7.873   8.495
    6        0.291   0.349   7.906   8.545
    7        0.220   0.210   7.864   8.294
    8        0.232   0.226   7.886   8.344
    9        0.257   0.266   7.868   8.391
   10        0.342   0.437   7.880   8.659
   11        0.343   0.432   7.961   8.736
   12        0.185   0.123   7.903   8.212
   13        0.233   0.227   7.857   8.316
   14        0.287   0.289   7.850   8.426
   15        0.249   0.244   7.851   8.345
   16        0.293   0.348   7.818   8.459
   17        0.202   0.179   7.941   8.322
   18        0.383   0.506   8.045   8.934
   19        0.187   0.154   7.859   8.199
   20        0.283   0.284   7.875   8.442
   21        0.298   0.333   7.894   8.525
   22        0.244   0.248   7.872   8.364
   23        0.266   0.267   7.931   8.465
   24        0.318   0.372   7.904   8.594
   25        0.229   0.203   7.832   8.263
   26        0.330   0.406   7.892   8.628
   27        0.265   0.281   7.897   8.443
   28        0.224   0.201   7.967   8.392
   29        0.339   0.411   7.956   8.706
   30        0.279   0.297   7.769   8.345
   31        0.422   0.575   8.029   9.026
   32        0.306   0.343   7.895   8.544
   33        1.271   2.805   0.015   4.091
   34        1.283   2.681   0.005   3.970
   35        1.299   2.604   0.003   3.906
   36        1.275   2.698   0.006   3.979
   37        1.288   2.658   0.004   3.949
   38        1.286   2.787   0.017   4.090
   39        1.270   2.769   0.011   4.051
   40        1.278   2.694   0.006   3.978
   41        1.300   2.586   0.002   3.888
   42        1.261   2.771   0.008   4.040
   43        1.280   2.658   0.004   3.942
   44        1.284   2.712   0.009   4.005
   45        1.286   2.707   0.009   4.001
   46        1.283   2.693   0.006   3.983
   47        1.295   2.622   0.003   3.920
   48        1.267   2.717   0.005   3.989
   49        1.277   2.722   0.008   4.007
   50        1.291   2.740   0.014   4.045
   51        1.286   2.828   0.023   4.137
   52        1.283   2.699   0.006   3.988
   53        1.283   2.721   0.010   4.015
   54        1.290   2.621   0.003   3.915
   55        1.300   2.586   0.002   3.888
   56        1.285   2.676   0.006   3.967
   57        1.262   2.797   0.014   4.072
   58        1.289   2.621   0.002   3.912
   59        1.282   2.750   0.013   4.045
   60        1.306   2.838   0.029   4.174
[...]
   66        1.267   2.798   0.014   4.080
   67        1.284   2.814   0.019   4.116
   68        1.284   2.714   0.008   4.006
   69        1.279   2.757   0.013   4.048
   70        1.301   2.584   0.002   3.887
   71        1.290   2.643   0.004   3.936
   72        1.286   2.773   0.016   4.075
   73        1.285   2.667   0.005   3.956
   74        1.296   2.611   0.003   3.910
   75        1.288   2.834   0.026   4.148
   76        1.270   2.757   0.010   4.037
   77        1.308   2.568   0.002   3.877
   78        1.282   2.669   0.005   3.956
   79        1.290   2.619   0.002   3.912
   80        1.286   2.727   0.011   4.024
tot          70.60  139.74  253.16  463.50

magnetization (x)

# of ion       s       p       d       tot
    1        0.004   0.001   0.090   0.095
    2        0.001   0.012   1.019   1.031
    3        0.001   0.013   1.145   1.160
    4       -0.004  -0.001   0.344   0.339
    5        0.010   0.014   0.962   0.985
    6        0.004   0.008   0.574   0.585
    7        0.001   0.007   1.110   1.117
    8       -0.004   0.015   1.089   1.100
    9       -0.001  -0.012  -0.727  -0.740
   10       -0.003  -0.009  -0.474  -0.485
   11       -0.006  -0.007  -0.383  -0.397
   12        0.001   0.013   1.291   1.305
   13        0.001   0.005   0.625   0.631
   14        0.020   0.016   1.088   1.124
   15       -0.004  -0.002  -0.030  -0.036
   16        0.002   0.014   0.691   0.707
   17       -0.001  -0.004  -0.526  -0.531
   18        0.008   0.010   0.796   0.813
   19        0.002   0.006   0.991   0.999
   20       -0.000   0.001   0.760   0.761
   21       -0.006  -0.007  -0.789  -0.802
   22        0.000   0.013   1.104   1.118
   23        0.002  -0.002  -0.020  -0.021
   24        0.002   0.000   0.006   0.008
   25        0.020   0.005   1.339   1.364
   26       -0.001   0.016   0.662   0.676
   27        0.012   0.009   0.877   0.898
   28       -0.002   0.003   0.363   0.364
   29       -0.016  -0.011  -0.494  -0.521
   30        0.003   0.019   1.486   1.509
   31       -0.011  -0.013  -0.507  -0.532
   32        0.021   0.012   0.958   0.992
   33        0.004   0.090   0.000   0.094
   34        0.005   0.162  -0.000   0.167
   35        0.007   0.383  -0.000   0.390
   36        0.003   0.057   0.000   0.061
   37        0.008   0.326   0.000   0.334
   38        0.004   0.133  -0.000   0.137
   39        0.009   0.189   0.000   0.198
   40        0.009   0.344   0.000   0.353
   41        0.014   0.686  -0.000   0.699
   42        0.003   0.079   0.000   0.082
   43        0.007   0.298  -0.000   0.304
   44        0.008   0.383   0.000   0.391
   45       -0.002  -0.127  -0.000  -0.129
   46       -0.000  -0.058  -0.000  -0.058
   47        0.002   0.113  -0.000   0.115
   48        0.007   0.244   0.000   0.251
   49       -0.001  -0.001  -0.000  -0.002
   50       -0.004  -0.196  -0.000  -0.200
   51        0.001  -0.056  -0.001  -0.056
   52        0.002   0.003   0.000   0.005
   53        0.003   0.110   0.000   0.113
   54        0.009   0.391  -0.000   0.400
   55        0.016   0.726   0.000   0.742
   56        0.011   0.453   0.000   0.464
   57        0.001   0.007   0.000   0.007
   58        0.010   0.395  -0.000   0.405
   59        0.005   0.190  -0.000   0.195
   60       -0.003  -0.165  -0.001  -0.169
[...]
   66        0.004   0.031   0.000   0.035
   67        0.007   0.170   0.000   0.177
   68       -0.005  -0.223   0.000  -0.228
   69        0.008   0.277   0.001   0.285
   70        0.013   0.611   0.000   0.625
   71        0.012   0.557  -0.000   0.569
   72        0.002   0.071   0.001   0.074
   73        0.003   0.121   0.000   0.124
   74        0.011   0.576  -0.000   0.587
   75       -0.001  -0.114  -0.001  -0.116
   76        0.006   0.129   0.000   0.135
   77        0.011   0.546   0.000   0.556
   78        0.007   0.287   0.000   0.294
   79        0.006   0.212   0.000   0.218
   80        0.004   0.278   0.000   0.283
tot           0.31    9.57   15.42   25.30