 vasp.5.4.4.18Apr17-6-g9f103f2a35 (build May 12 2020 04:58:55) complex

 MD_VERSION_INFO: Compiled 2020-05-12T11:58:55-UTC in devlin.sd.materialsdesign.
 com:/home/medea2/data/build/wwolf/vasp-gpu5.4.4/13047/x86_64/src/src/build/std
 from svn 13047

 executed on                        Lin64 date 2023.03.25  16:11:55

 INCAR:
 POTCAR:    PAW_PBE Ni 02Aug2007
 POTCAR:    PAW_PBE O 08Apr2002

 POTCAR:    PAW_PBE Ni 02Aug2007

 POTCAR:    PAW_PBE O 08Apr2002

 Optimization of the real space projectors (new method)

 maximal supplied QI-value         = 16.25
 optimisation between [QCUT,QGAM] = [ 11.38, 22.75] = [ 36.24,144.96] Ry
 Optimized for a Real-space Cutoff    1.47 Angstroem

   l    n(q)    QCUT    max X(q) W(low)/X(q) W(high)/X(q)  e(spline)
   2      9    11.376    60.317    0.17E-03    0.16E-04    0.16E-06
   2      9    11.376    55.921    0.17E-03    0.16E-04    0.17E-06
   0     10    11.376    51.690    0.45E-04    0.60E-04    0.21E-06
   0     10    11.376    30.015    0.37E-04    0.55E-04    0.19E-06
   1     10    11.376    18.849    0.83E-04    0.11E-03    0.92E-07
   1     10    11.376    14.624    0.69E-04    0.92E-04    0.82E-07
 Optimization of the real space projectors (new method)

 maximal supplied QI-value         = 24.76
 optimisation between [QCUT,QGAM] = [ 11.39, 22.77] = [ 36.31,145.25] Ry
 Optimized for a Real-space Cutoff    1.10 Angstroem

   l    n(q)    QCUT    max X(q) W(low)/X(q) W(high)/X(q)  e(spline)
   0      7    11.387    20.381    0.22E-03    0.48E-03    0.18E-06
   0      7    11.387    15.268    0.22E-03    0.52E-03    0.19E-06
   1      7    11.387     5.964    0.22E-03    0.73E-03    0.24E-06
   1      7    11.387     5.382    0.19E-03    0.60E-03    0.21E-06

  PAW_PBE Ni 02Aug2007                  :
  PAW_PBE O 08Apr2002                   :

 POSCAR: Ni2O3_Cc_scale_1_025_disp_0_05_round_2
  positions in direct lattice
 exchange correlation table for  LEXCH =       14
   RHO(1)=    0.500       N(1)  =     2000
   RHO(2)=  100.500       N(2)  =     4000

 ion  position               nearest neighbor table
   1  0.891  0.450  0.243-  60 1.75  33 1.91  38 1.92  67 2.04
   2  0.736  0.203  0.256-  37 1.85  38 1.87  40 1.92  36 1.96  16 3.02  15 3.02
   3  0.401  0.288  0.996-  35 1.85  39 1.91  40 1.94  54 2.13
   4  0.237  0.042  0.992-  39 1.90  59 1.98  55 2.08  58 2.12
   5  0.399  0.191  0.245-  44 1.68  39 1.85  42 1.94  37 1.94
   6  0.254  0.444  0.247-  68 1.79  42 1.82  34 1.90  67 1.95  11 3.04  20 3.07  28 3.08  21 3.09

   7  0.886  0.047  1.000-  41 1.87  57 1.99  48 2.03  58 2.19
   8  0.733  0.284  0.005-  41 1.80  40 1.87  33 1.91  49 2.16
   9  0.888  0.440  0.725-  50 1.80  72 1.93  45 1.95  79 2.11  16 3.03  31 3.06
  10  0.742  0.204  0.737-  50 1.75  48 1.87  49 1.91  52 1.91
  11  0.406  0.291  0.489-  42 1.82  47 1.84  52 1.88  51 1.88  28 3.03   6 3.04
  12  0.244  0.047  0.485-  43 1.81  51 1.81  71 2.08  70 2.15  13 3.07
  13  0.395  0.196  0.733-  56 1.77  54 1.80  51 1.89  49 1.95  12 3.07
  14  0.243  0.454  0.730-  80 1.78  46 1.85  79 1.88  54 2.02  29 3.01
  15  0.890  0.045  0.491-  36 1.88  53 1.91  69 2.03  70 2.27   2 3.02
  16  0.729  0.283  0.486-  53 1.81  37 1.83  52 1.84  45 1.88   2 3.02   9 3.03
  17  0.895  0.933  0.246-  62 1.86  57 1.91  36 1.95  43 2.20  24 3.05
  18  0.742  0.690  0.247-  62 1.80  61 1.84  64 1.88  60 1.91  24 3.03
  19  0.405  0.776  0.999-  63 1.89  64 1.89  59 1.93  78 2.14
  20  0.249  0.529  0.007-  35 1.81  63 1.82  34 1.84  79 2.20  21 3.01   6 3.07
  21  0.392  0.686  0.242-  66 1.77  68 1.87  63 1.94  61 2.06  20 3.01   6 3.09
  22  0.246  0.939  0.249-  44 1.88  58 1.89  43 1.90  66 1.91
  23  0.898  0.533  0.001-  33 1.86  65 1.90  34 2.04  72 2.19
  24  0.734  0.773  0.009-  64 1.85  65 1.86  57 1.86  73 2.14  18 3.03  17 3.05
  25  0.886  0.938  0.730-  74 1.84  69 1.90  48 2.12  55 2.12
  26  0.738  0.681  0.728-  72 1.79  74 1.85  76 1.94  73 2.06
  27  0.403  0.777  0.500-  75 1.77  71 1.78  76 1.89  66 2.15  29 3.08
  28  0.255  0.524  0.487-  47 1.69  67 1.80  46 1.95  75 1.99  11 3.03   6 3.08
  29  0.400  0.682  0.733-  80 1.85  75 1.85  73 1.92  78 1.95  14 3.01  27 3.08
  30  0.246  0.928  0.738-  78 1.67  70 1.85  55 2.03  56 2.08
  31  0.895  0.535  0.494-  77 1.78  45 1.79  60 1.98  46 2.09   9 3.06
  32  0.731  0.771  0.487-  77 1.82  69 1.87  76 1.88  61 1.88
  33  0.790  0.443  0.059-  23 1.86   1 1.91   8 1.91
  34  0.124  0.466  0.064-  20 1.84   6 1.90  23 2.04
  35  0.429  0.441  0.055-  20 1.81   3 1.85
  36  0.800  0.041  0.311-  15 1.88  17 1.95   2 1.96
  37  0.608  0.268  0.309-  16 1.83   2 1.85   5 1.94
  38  0.923  0.289  0.297-   2 1.87   1 1.92
  39  0.307  0.193  0.068-   5 1.85   4 1.90   3 1.91
  40  0.616  0.218  0.070-   8 1.87   2 1.92   3 1.94
  41  0.916  0.204  0.050-   8 1.80   7 1.87
  42  0.306  0.296  0.313-  11 1.82   6 1.82   5 1.94
  43  0.131  0.019  0.312-  12 1.81  22 1.90  17 2.20
  44  0.410  0.048  0.283-   5 1.68  22 1.88
  45  0.784  0.441  0.537-  31 1.79  16 1.88   9 1.95
  46  0.123  0.463  0.550-  14 1.85  28 1.95  31 2.09
  47  0.427  0.447  0.535-  28 1.69  11 1.84
  48  0.785  0.053  0.805-  10 1.87   7 2.03  25 2.12
  49  0.611  0.264  0.797-  10 1.91  13 1.95   8 2.16
  50  0.913  0.292  0.782-  10 1.75   9 1.80
  51  0.311  0.193  0.554-  12 1.81  11 1.88  13 1.89
  52  0.613  0.225  0.553-  16 1.84  11 1.88  10 1.91
  53  0.919  0.207  0.541-  16 1.81  15 1.91
  54  0.296  0.286  0.792-  13 1.80  14 2.02   3 2.13
  55  0.115  0.019  0.792-  30 2.03   4 2.08  25 2.12
  56  0.431  0.049  0.787-  13 1.77  30 2.08
  57  0.798  0.927  0.062-  24 1.86  17 1.91   7 1.99
  58  0.115  0.952  0.067-  22 1.89   4 2.12   7 2.19
  59  0.429  0.938  0.052-  19 1.93   4 1.98
  60  0.795  0.532  0.304-   1 1.75  18 1.91  31 1.98
  61  0.620  0.754  0.305-  18 1.84  32 1.88  21 2.06
  62  0.921  0.775  0.289-  18 1.80  17 1.86
  63  0.298  0.681  0.056-  20 1.82  19 1.89  21 1.94
  64  0.611  0.704  0.065-  24 1.85  18 1.88  19 1.89
  65  0.925  0.687  0.070-  24 1.86  23 1.90
  66  0.289  0.777  0.293-  21 1.77  22 1.91  27 2.15
  67  0.125  0.503  0.314-  28 1.80   6 1.95   1 2.04
  68  0.434  0.530  0.298-   6 1.79  21 1.87
  69  0.786  0.925  0.547-  32 1.87  25 1.90  15 2.03
  70  0.126  0.946  0.559-  30 1.85  12 2.15  15 2.27
  71  0.434  0.929  0.539-  27 1.78  12 2.08
  72  0.786  0.535  0.791-  26 1.79   9 1.93  23 2.19
  73  0.612  0.753  0.803-  29 1.92  26 2.06  24 2.14
  74  0.911  0.784  0.780-  25 1.84  26 1.85
  75  0.303  0.688  0.555-  27 1.77  29 1.85  28 1.99
  76  0.601  0.705  0.541-  32 1.88  27 1.89  26 1.94
  77  0.914  0.686  0.536-  31 1.78  32 1.82
  78  0.306  0.793  0.796-  30 1.67  29 1.95  19 2.14
  79  0.123  0.512  0.795-  14 1.88   9 2.11  20 2.20
  80  0.432  0.528  0.787-  14 1.78  29 1.85

  LATTYP: Found a simple monoclinic cell.
 ALAT       =    16.3463459659
 B/A-ratio  =     0.6987547874
 C/A-ratio  =     1.5833429409
 COS(beta)  =    -0.9717709890

  Lattice vectors:

 A1 = ( -12.7040962200,   0.0000000000, -10.2863485100)
 A2 = (   0.0000000000, -11.4220875000,   0.0000000000)
 A3 = (  15.7046301900,   0.0000000000,  20.5726970200)

Analysis of symmetry for initial positions (statically):
 Subroutine PRICEL returns:
 Original cell was already a primitive cell.

 Routine SETGRP: Setting up the symmetry group for a
 simple monoclinic supercell.

 Subroutine GETGRP returns: Found  1 space group operations
 (whereof  1 operations were pure point group operations)
 out of a pool of  4 trial point group operations.

The static configuration has the point symmetry C_1 .

Analysis of symmetry for dynamics (positions and initial velocities):
 Subroutine PRICEL returns:
 Original cell was already a primitive cell.

[...]

The dynamic configuration has the point symmetry C_1 .

Analysis of structural, dynamic, and magnetic symmetry:
 Subroutine PRICEL returns:
 Original cell was already a primitive cell.

 Routine SETGRP: Setting up the symmetry group for a
 simple monoclinic supercell.

 Subroutine GETGRP returns: Found  1 space group operations
 (whereof  1 operations were pure point group operations)
 out of a pool of  4 trial point group operations.

The magnetic configuration has the point symmetry C_1 .

 Subroutine INISYM returns: Found  1 space group operations
 (whereof  1 operations are pure point group operations),
 and found     1 'primitive' translations

 KPOINTS: Automatic mesh

Automatic generation of k-mesh.
Space group operators:
 irot       det(A)        alpha          n_x          n_y          n_z        tau_x        tau_y        tau_z
    1     1.000000     0.000000     1.000000     0.000000     0.000000     0.000000     0.000000     0.000000

 Subroutine IBZKPT returns following result:

 Found     19 irreducible k-points:

 Following reciprocal coordinates:
            Coordinates               Weight
  0.000000  0.000000  0.000000      1.000000
  0.250000  0.000000  0.000000      2.000000
  0.500000  0.000000  0.000000      1.000000
  0.000000  0.333333  0.000000      2.000000
  0.250000  0.333333  0.000000      2.000000
  0.500000  0.333333  0.000000      2.000000
 -0.250000  0.333333 -0.000000      2.000000
  0.000000  0.000000  0.333333      2.000000
  0.250000  0.000000  0.333333      2.000000
  0.500000  0.000000  0.333333      2.000000
 -0.250000  0.000000  0.333333      2.000000
  0.000000  0.333333  0.333333      2.000000
  0.250000  0.333333  0.333333      2.000000
  0.500000  0.333333  0.333333      2.000000
 -0.250000  0.333333  0.333333      2.000000
  0.000000 -0.333333  0.333333      2.000000
  0.250000 -0.333333  0.333333      2.000000
  0.500000 -0.333333  0.333333      2.000000
 -0.250000 -0.333333  0.333333      2.000000

 Following cartesian coordinates:
            Coordinates               Weight
  0.000000  0.000000  0.000000      1.000000
  0.025764  0.000000  0.016789      2.000000
  0.051527  0.000000  0.033578      1.000000
  0.000000  0.029183  0.000000      2.000000
  0.025764  0.029183  0.016789      2.000000
  0.051527  0.029183  0.033578      2.000000
 -0.025764  0.029183 -0.016789      2.000000
  0.000000  0.000000  0.032405      2.000000
  0.025764  0.000000  0.049194      2.000000
  0.051527  0.000000  0.065983      2.000000
 -0.025764  0.000000  0.015617      2.000000
  0.000000  0.029183  0.032405      2.000000
  0.025764  0.029183  0.049194      2.000000
  0.051527  0.029183  0.065983      2.000000
 -0.025764  0.029183  0.015617      2.000000
  0.000000 -0.029183  0.032405      2.000000
  0.025764 -0.029183  0.049194      2.000000
  0.051527 -0.029183  0.065983      2.000000
 -0.025764 -0.029183  0.015617      2.000000

 SYSTEM =  unknown system
 POSCAR =  Ni2O3_Cc_scale_1_025_disp_0_05_round_2

 Startparameter for this run:
   NWRITE =      1    write-flag & timer
   PREC   = accura    normal or accurate (medium, high low for compatibility)
   ISTART =      0    job   : 0-new  1-cont  2-samecut
   ICHARG =      2    charge: 1-file 2-atom 10-const
   ISPIN  =      2    spin polarized calculation?
   LNONCOLLINEAR =      F non collinear calculations
   LSORBIT =      F    spin-orbit coupling
[...]
   0.120E+03 -.242E+02 0.465E+02   -.128E+03 0.311E+02 -.495E+02   0.756E+01 -.693E+01 0.353E+01   0.692E+00 0.268E+00 -.434E+00
   0.817E+01 0.189E+03 -.113E+02   -.941E+01 -.200E+03 0.821E+01   0.904E+00 0.117E+02 0.337E+01   -.166E+00 -.311E-01 0.379E+00
   -.198E+03 -.481E+01 -.174E+03   0.213E+03 0.109E+02 0.185E+03   -.153E+02 -.756E+01 -.116E+02   -.483E+00 -.905E-01 -.211E-01
   0.159E+03 0.627E+02 0.761E+01   -.171E+03 -.641E+02 -.849E+01   0.130E+02 0.262E+01 0.163E+01   -.206E+00 -.252E+00 0.138E+00
   0.206E+02 -.111E+03 0.346E+01   -.197E+02 0.121E+03 -.794E+01   -.657E+00 -.117E+02 0.531E+01   -.723E+00 0.381E+00 0.122E+00
   -.839E+02 0.150E+03 -.149E+03   0.917E+02 -.162E+03 0.158E+03   -.966E+01 0.113E+02 -.107E+02   0.463E+00 0.236E+00 0.182E+00
   0.475E+02 -.103E+03 0.118E+03   -.522E+02 0.108E+03 -.124E+03   0.515E+01 -.535E+01 0.609E+01   0.360E+00 0.747E+00 0.355E+00
   0.156E+02 0.110E+03 0.146E+03   -.166E+02 -.120E+03 -.154E+03   0.137E+01 0.114E+02 0.886E+01   -.217E+00 0.574E+00 -.108E+00
   -.101E+03 -.867E+02 -.730E+02   0.111E+03 0.921E+02 0.817E+02   -.108E+02 -.705E+01 -.107E+02   -.249E+00 0.573E+00 0.429E+00
   0.118E+03 0.482E+02 0.459E+02   -.131E+03 -.523E+02 -.475E+02   0.132E+02 0.500E+01 0.267E+01   -.107E+00 0.824E-01 -.131E+00
[...]
   0.476E+02 -.934E+02 0.102E+03   -.498E+02 0.100E+03 -.111E+03   0.217E+01 -.739E+01 0.899E+01   -.249E+00 -.151E+00 -.108E+00
   -.163E+03 0.420E+02 -.107E+03   0.177E+03 -.471E+02 0.118E+03   -.158E+02 0.597E+01 -.115E+02   0.401E+00 0.199E+00 0.363E-01
   0.579E+02 -.105E+03 0.574E+02   -.635E+02 0.110E+03 -.638E+02   0.644E+01 -.524E+01 0.697E+01   -.951E-01 0.162E+00 -.139E+00
   0.219E+02 0.883E+02 0.834E+02   -.228E+02 -.967E+02 -.939E+02   0.986E+00 0.979E+01 0.113E+02   -.251E+00 0.202E+00 -.614E+00
   -.990E+02 -.145E+03 -.136E+03   0.107E+03 0.156E+03 0.145E+03   -.983E+01 -.113E+02 -.944E+01   0.352E+00 0.531E+00 -.124E+00
   0.871E+02 0.831E+02 -.549E+02   -.979E+02 -.920E+02 0.575E+02   0.116E+02 0.918E+01 -.166E+01   0.165E+00 -.654E+00 -.980E-01
   -.526E+02 -.166E+03 -.441E+02   0.558E+02 0.177E+03 0.433E+02   -.355E+01 -.119E+02 0.110E+01   0.125E+00 0.325E+00 0.244E-01
   -.140E+03 0.281E+02 -.194E+03   0.151E+03 -.343E+02 0.205E+03   -.124E+02 0.645E+01 -.112E+02   0.176E+00 0.540E+00 -.418E-01
   0.165E+03 -.781E+02 0.762E+02   -.178E+03 0.797E+02 -.820E+02   0.129E+02 -.300E+01 0.624E+01   -.741E-01 0.792E-01 -.213E+00
   0.970E+00 0.907E+02 0.129E+02   -.196E+01 -.102E+03 -.184E+02   0.499E+00 0.124E+02 0.661E+01   0.504E+00 0.137E+00 -.468E+00
   -.179E+03 -.134E+03 -.173E+03   0.193E+03 0.143E+03 0.184E+03   -.145E+02 -.942E+01 -.114E+02   -.332E+00 0.328E+00 -.300E+00
   0.103E+03 0.830E+02 -.184E+02   -.108E+03 -.949E+02 0.214E+02   0.612E+01 0.974E+01 -.143E+01   -.130E+00 -.145E+00 -.597E-01
   0.515E+02 -.122E+03 -.414E+02   -.552E+02 0.133E+03 0.421E+02   0.373E+01 -.113E+02 -.605E+00   -.471E+00 -.170E+00 0.187E+00
   -.149E+03 0.727E+02 -.179E+03   0.164E+03 -.795E+02 0.191E+03   -.159E+02 0.806E+01 -.125E+02   0.283E+00 -.188E+00 0.154E+00
   0.533E+02 -.155E+02 0.268E+02   0.654E-12 0.144E-11 -.117E-11   -.526E+02 0.162E+02 -.262E+02   -.764E+00 -.782E+00 -.616E+00

 POSITION                                       TOTAL-FORCE (eV/Angst)
      7.01738      5.13458      2.49605         1.085852     -1.386942     -0.065832
      5.43026      2.32248      2.63076         1.350953      0.047543      0.088376
     -2.78969      3.29138     10.24482         0.257453      0.429123      0.144385
     -4.34882      0.47903     10.20828         0.689235     -1.477409     -0.167079
      2.22904      2.17648      2.52098         0.143367      1.579575     -0.138124
      0.80718      5.07288      2.54172        -0.019967      0.453900     -0.335728
      1.89998      0.54166     10.28199         0.481737     -0.157095     -0.127881
      7.07504      3.24304      0.05500         0.977103     -0.300372     -0.203986
      3.75870      5.02849      7.45268         0.369621      0.269664      0.507148
      2.25572      2.33522      7.58369        -0.588391     -0.489091      0.398977
      0.65964      3.32847      5.03096        -0.030077      0.167224      0.512979
     -0.87843      0.53924      4.98678         0.332598     -1.707184      0.503322
     -1.08245      2.24091      7.53872         0.688041     -0.201219      0.549607
     -2.52741      5.18111      7.50404        -0.338119     -0.403586      0.514553
      5.33904      0.51810      5.05488         0.279893     -0.167909      0.383507
      3.80866      3.23672      5.00398         0.815977      0.176020      0.197165
      7.03835     10.66136      2.52809         0.289789     -0.123447      0.099266
      5.54530      7.88536      2.53785         0.306632     -0.110568      0.119487
     -2.76379      8.86358     10.27442        -0.159790      1.398665      0.259597
      2.36474      6.03929      0.07574         0.798216     -0.659539     -0.615587
      2.18158      7.83562      2.48958         1.197280     -0.841263     -0.156555
      0.71906     10.72223      2.56506         0.550331      0.451475     -0.351330
      8.70622      6.09164      0.01478         0.507324      0.788063      0.096191
      7.06555      8.82492      0.09048         1.316791     -0.360508     -0.516752
      3.70342     10.71957      7.51037         0.399391      0.164629      0.382801
      2.28098      7.77944      7.48637        -0.065389      1.231311      0.270850
      0.55840      8.87545      5.14218         0.766566      0.874593     -0.498699
     -0.79127      5.98512      5.01288        -1.248681      0.637668     -0.021548
     -1.03177      7.79034      7.54315         0.383103      0.150788      0.965722
     -2.55660     10.59963      7.58625        -0.197323      3.549548     -1.017601
      5.36961      6.11304      5.08317         0.922066      0.369838     -0.448955
      3.82744      8.80955      5.01033         0.798270     -0.079935     -0.048081
      7.27582      5.06208      0.60480         0.539038     -0.517299      0.474988
      0.77869      5.32345      0.65855        -0.768083      0.973106      0.175344
      3.79187      5.03405      0.56193        -1.065520     -0.893122     -1.200718
      5.67708      0.46542      3.20206         0.605659      0.169170      0.174140
      3.82774      3.06257      3.18295        -0.644426     -0.797563     -0.208917
      6.96428      3.30157      3.05451        -1.301386      1.061595     -0.897122
      2.52124      2.20595      0.69585         0.540859     -0.576974     -0.363740
      5.50331      2.48859      0.72349        -0.465424      0.913703     -0.258853
      8.55679      2.33446      0.51309        -1.074636     -1.533870     -1.061484
      0.87297      3.38028      3.22050         0.914636     -0.223583     -0.143927
     -0.81702      0.21437      3.20833        -0.583100     -1.064178     -0.044433
      2.08148      0.55144      2.91386        -1.375923     -1.431154     -0.051225
      4.00942      5.03667      5.51944         0.290325     -0.434361      1.032044
     -2.49548      5.29002      5.65726        -0.300321      1.254457      0.260644
      0.56138      5.10039      5.50158         0.112141     -1.397013     -0.273061
      2.22484      0.60177      8.27712         1.083449      0.287624      0.824421
      0.58359      3.01864      8.19916        -0.283973     -0.938633      0.417940
      3.61308      3.33059      8.04629        -0.504819      0.852377     -0.668362
     -0.69345      2.19943      5.69393         0.452154      0.157323      0.156906
      2.24403      2.56461      5.68889        -0.504515      0.491491      0.672373
      5.28856      2.35917      5.56236        -0.673346     -1.561843     -0.781521
     -2.43432      3.26873      8.14493         0.313456      0.962323      0.889702
     -4.19785      0.22192      8.14893        -0.460347     -1.427341      0.946010
     -1.09065      0.56471      8.09757        -1.323817     -0.056528     -0.770114
      7.32725     10.58357      0.64147         0.804767      0.617924      0.246023
      0.66661     10.87914      0.68717         0.101257      1.848292      0.009537
      3.81336     10.71304      0.53033        -1.626683     -1.072061     -1.490143
      5.67556      6.07312      3.12547         0.006548      0.938319      0.912793
[...]
      0.84493      8.87370      3.01407        -0.059172      1.219435      0.748647
     -0.88654      5.74914      3.22839        -0.312040     -0.756099     -0.292060
      2.21700      6.05156      3.06297        -0.952842      1.053598     -0.876861
      3.96089     10.56827      5.62925         0.777053      0.312705      0.450036
     -2.52542     10.81071      5.75257        -0.070626      1.601926      0.165021
      0.59774     10.60718      5.54208        -1.184025     -0.012524     -0.805460
      2.32169      6.11308      8.13506         0.915285     -0.384819      0.783177
      0.55453      8.60308      8.25746        -0.194168     -1.053098      0.413809
      3.60796      8.95595      8.02517        -1.024151      0.708032     -0.765051
     -0.77820      7.85339      5.70724         0.043592     -1.343243      0.230301
      2.20069      8.04989      5.56668         0.012313      0.819842      0.694509
      5.27461      7.83813      5.51740        -1.080631     -0.566570     -0.700656
     -2.36675      9.05399      8.18371         0.776683     -2.284313      1.490434
     -4.14176      5.85322      8.18150        -0.432388     -1.151480      0.251728
     -1.08236      6.03057      8.09933        -0.871380      1.070980     -0.883547
    total drift:                               -0.006679     -0.009024     -0.045594

  FREE ENERGIE OF THE ION-ELECTRON SYSTEM (eV)
  free  energy   TOTEN  =      -468.3033398202 eV

  energy  without entropy=     -468.1861150232  energy(sigma->0) =     -468.24472742

volume of typ            1:    17.9 %

volume of typ            2:     6.9 %

total charge

# of ion       s       p       d       tot
    1        0.253   0.271   7.836   8.360
    2        0.250   0.270   7.810   8.330
    3        0.229   0.230   7.841   8.299
    4        0.214   0.193   7.801   8.208
    5        0.275   0.317   7.832   8.423
    6        0.264   0.296   7.847   8.407
    7        0.210   0.191   7.832   8.233
    8        0.246   0.257   7.823   8.326
    9        0.237   0.241   7.836   8.314
   10        0.270   0.304   7.794   8.368
   11        0.261   0.298   7.835   8.394
   12        0.242   0.243   7.828   8.313
   13        0.278   0.312   7.813   8.403
   14        0.267   0.293   7.816   8.376
   15        0.220   0.202   7.825   8.247
   16        0.275   0.320   7.824   8.419
   17        0.226   0.218   7.816   8.260
   18        0.265   0.302   7.822   8.388
   19        0.229   0.226   7.854   8.309
   20        0.258   0.275   7.833   8.366
   21        0.251   0.271   7.819   8.341
   22        0.249   0.264   7.811   8.324
   23        0.221   0.209   7.849   8.279
   24        0.248   0.258   7.823   8.328
   25        0.225   0.213   7.811   8.249
   26        0.254   0.273   7.821   8.348
   27        0.268   0.296   7.834   8.398
   28        0.279   0.316   7.857   8.452
   29        0.251   0.272   7.835   8.358
   30        0.274   0.298   7.824   8.397
   31        0.255   0.274   7.852   8.380
   32        0.262   0.291   7.824   8.377
   33        1.266   2.729   0.007   4.002
   34        1.270   2.715   0.006   3.991
   35        1.284   2.681   0.006   3.971
   36        1.263   2.725   0.006   3.994
   37        1.270   2.738   0.008   4.015
   38        1.287   2.662   0.005   3.954
   39        1.266   2.733   0.007   4.005
   40        1.268   2.724   0.006   3.999
   41        1.284   2.679   0.006   3.970
   42        1.269   2.739   0.008   4.016
   43        1.273   2.711   0.006   3.990
   44        1.283   2.706   0.009   3.997
   45        1.268   2.739   0.008   4.015
   46        1.277   2.700   0.006   3.982
   47        1.284   2.710   0.009   4.004
   48        1.274   2.677   0.005   3.956
   49        1.281   2.676   0.005   3.961
   50        1.283   2.699   0.008   3.991
   51        1.263   2.751   0.008   4.022
   52        1.271   2.735   0.008   4.014
   53        1.284   2.676   0.006   3.966
   54        1.273   2.702   0.005   3.980
   55        1.279   2.656   0.003   3.939
   56        1.290   2.659   0.005   3.954
   57        1.266   2.719   0.006   3.991
   58        1.282   2.660   0.004   3.946
   59        1.286   2.648   0.004   3.938
   60        1.271   2.729   0.008   4.008
[...]
   66        1.269   2.724   0.007   4.000
   67        1.276   2.712   0.006   3.994
   68        1.285   2.687   0.006   3.979
   69        1.267   2.715   0.006   3.988
   70        1.282   2.664   0.004   3.950
   71        1.287   2.662   0.005   3.953
   72        1.269   2.718   0.006   3.993
   73        1.279   2.670   0.004   3.954
   74        1.282   2.681   0.006   3.968
   75        1.267   2.744   0.008   4.019
   76        1.273   2.721   0.007   4.000
   77        1.284   2.688   0.007   3.979
   78        1.270   2.745   0.009   4.023
   79        1.280   2.670   0.004   3.954
   80        1.285   2.692   0.007   3.984
tot          69.25  138.19  250.78  458.22

magnetization (x)

# of ion       s       p       d       tot
    1        0.001   0.014   0.671   0.685
    2        0.001   0.025   1.367   1.393
    3        0.002   0.017   1.072   1.091
    4       -0.001  -0.013  -1.225  -1.238
    5        0.002   0.002   0.149   0.153
    6        0.002   0.016   0.824   0.842
    7        0.003   0.004   0.233   0.240
    8        0.004   0.017   1.042   1.063
    9        0.002   0.015   0.954   0.971
   10        0.002   0.008   0.437   0.447
   11        0.002   0.009   0.320   0.331
   12        0.005   0.021   1.243   1.269
   13        0.003   0.016   0.931   0.950
   14        0.001   0.019   0.929   0.949
   15        0.002   0.019   1.367   1.388
   16        0.001   0.026   1.055   1.081
   17        0.005   0.019   1.265   1.289
   18        0.002   0.021   0.903   0.926
   19        0.005   0.013   0.896   0.914
   20        0.003   0.008   0.606   0.616
   21        0.004   0.019   1.051   1.074
   22        0.002   0.017   1.006   1.025
   23        0.005   0.018   1.139   1.162
   24        0.001   0.021   1.228   1.250
   25        0.003   0.018   1.250   1.271
   26        0.002   0.021   1.183   1.206
   27        0.007   0.022   1.092   1.121
   28        0.002   0.007   0.407   0.416
   29        0.001   0.020   0.858   0.880
   30        0.005   0.017   1.037   1.058
   31        0.003   0.009   0.605   0.617
   32        0.001   0.003   0.118   0.123
   33        0.009   0.173   0.000   0.182
   34        0.007   0.173   0.000   0.181
   35        0.009   0.370   0.000   0.378
   36        0.013   0.334   0.000   0.348
   37        0.008   0.218   0.000   0.227
   38        0.011   0.486   0.000   0.497
   39        0.002  -0.027   0.000  -0.025
   40        0.011   0.292   0.000   0.303
   41        0.007   0.300   0.000   0.307
   42        0.004   0.050   0.000   0.055
   43        0.012   0.348   0.000   0.360
   44        0.006   0.200  -0.000   0.206
   45        0.009   0.177   0.000   0.186
   46        0.007   0.187   0.000   0.194
   47        0.006   0.203   0.000   0.209
   48        0.005   0.085   0.000   0.089
   49        0.008   0.236   0.000   0.245
   50        0.007   0.264   0.000   0.271
   51        0.008   0.135   0.000   0.144
   52        0.006   0.117   0.000   0.124
   53        0.011   0.482   0.000   0.493
   54        0.008   0.207   0.000   0.216
   55        0.005   0.132   0.000   0.137
   56        0.011   0.458   0.000   0.470
   57        0.009   0.200   0.000   0.209
   58        0.002   0.007   0.000   0.009
   59        0.001   0.060   0.000   0.062
   60        0.006   0.097   0.000   0.103
[...]
   66        0.010   0.247   0.000   0.258
   67        0.005   0.137   0.000   0.142
   68        0.009   0.403   0.000   0.412
   69        0.008   0.182   0.000   0.190
   70        0.010   0.391   0.000   0.402
   71        0.013   0.547   0.000   0.561
   72        0.009   0.247   0.000   0.256
   73        0.011   0.362   0.000   0.373
   74        0.012   0.480   0.000   0.492
   75        0.007   0.136   0.000   0.144
   76        0.007   0.164   0.000   0.172
   77        0.005   0.189   0.000   0.195
   78        0.007   0.165   0.000   0.172
   79        0.008   0.274   0.000   0.282
   80        0.008   0.336   0.000   0.344
tot           0.47   12.19   26.02   38.68