 vasp.5.4.4.18Apr17-6-g9f103f2a35 (build May 12 2020 04:58:55) complex

 MD_VERSION_INFO: Compiled 2020-05-12T11:58:55-UTC in devlin.sd.materialsdesign.
 com:/home/medea2/data/build/wwolf/vasp-gpu5.4.4/13047/x86_64/src/src/build/std
 from svn 13047

 executed on                        Lin64 date 2023.03.25  16:15:19

 INCAR:
 POTCAR:    PAW_PBE Ni 02Aug2007
 POTCAR:    PAW_PBE O 08Apr2002

 POTCAR:    PAW_PBE Ni 02Aug2007

 POTCAR:    PAW_PBE O 08Apr2002

 Optimization of the real space projectors (new method)

 maximal supplied QI-value         = 16.25
 optimisation between [QCUT,QGAM] = [ 11.38, 22.75] = [ 36.24,144.96] Ry
 Optimized for a Real-space Cutoff    1.47 Angstroem

   l    n(q)    QCUT    max X(q) W(low)/X(q) W(high)/X(q)  e(spline)
   2      9    11.376    60.317    0.17E-03    0.16E-04    0.16E-06
   2      9    11.376    55.921    0.17E-03    0.16E-04    0.17E-06
   0     10    11.376    51.690    0.45E-04    0.60E-04    0.21E-06
   0     10    11.376    30.015    0.37E-04    0.55E-04    0.19E-06
   1     10    11.376    18.849    0.83E-04    0.11E-03    0.92E-07
   1     10    11.376    14.624    0.69E-04    0.92E-04    0.82E-07
 Optimization of the real space projectors (new method)

 maximal supplied QI-value         = 24.76
 optimisation between [QCUT,QGAM] = [ 11.39, 22.77] = [ 36.31,145.25] Ry
 Optimized for a Real-space Cutoff    1.10 Angstroem

   l    n(q)    QCUT    max X(q) W(low)/X(q) W(high)/X(q)  e(spline)
   0      7    11.387    20.381    0.22E-03    0.48E-03    0.18E-06
   0      7    11.387    15.268    0.22E-03    0.52E-03    0.19E-06
   1      7    11.387     5.964    0.22E-03    0.73E-03    0.24E-06
   1      7    11.387     5.382    0.19E-03    0.60E-03    0.21E-06

  PAW_PBE Ni 02Aug2007                  :
  PAW_PBE O 08Apr2002                   :

 POSCAR: Ni2O3_Cc_scale_1_025_disp_0_05_round_1
  positions in direct lattice
 exchange correlation table for  LEXCH =       14
   RHO(1)=    0.500       N(1)  =     2000
   RHO(2)=  100.500       N(2)  =     4000

 ion  position               nearest neighbor table
   1  0.895  0.439  0.242-  38 1.72  33 1.86  60 1.90  67 2.16   8 2.98  23 3.06
   2  0.726  0.198  0.241-  36 1.75  40 1.83  37 1.89  38 1.96  15 2.96
   3  0.399  0.291  0.992-  35 1.87  40 1.92  39 2.00  54 2.10
   4  0.256  0.044  0.014-  39 1.87  58 1.95  59 2.05  55 2.20   5 2.94
   5  0.405  0.199  0.242-  39 1.79  44 1.85  37 1.86  42 1.88   4 2.94
   6  0.256  0.453  0.254-  68 1.75  67 1.84  34 1.89  42 1.89  11 3.06  28 3.07  21 3.07
   7  0.886  0.048  0.994-  41 1.81  57 2.07  48 2.08  58 2.25
   8  0.739  0.291  0.004-  41 1.82  33 1.87  40 1.93  49 2.24   1 2.98
   9  0.889  0.441  0.736-  50 1.79  72 1.84  45 1.93  79 2.13  16 3.06
  10  0.723  0.205  0.731-  49 1.75  52 1.84  48 1.84  50 1.96
  11  0.384  0.284  0.482-  51 1.71  42 1.88  47 1.90  52 1.94  12 3.05   6 3.06
  12  0.261  0.045  0.503-  51 1.82  71 1.95  43 2.00  70 2.06  13 2.92  11 3.05
  13  0.399  0.197  0.731-  56 1.78  54 1.86  51 1.87  49 1.95  12 2.92
  14  0.257  0.450  0.736-  80 1.76  54 1.84  79 1.89  46 1.89
  15  0.880  0.054  0.480-  53 1.76  36 1.90  69 2.10  70 2.29   2 2.96  16 3.02
  16  0.737  0.284  0.495-  53 1.80  52 1.90  45 1.94  37 1.95  15 3.02   9 3.06
  17  0.886  0.931  0.244-  62 1.86  57 1.89  36 2.07  43 2.24
  18  0.735  0.687  0.249-  60 1.80  62 1.87  61 1.88  64 1.91  31 2.98
  19  0.391  0.770  0.993-  63 1.78  59 1.88  64 1.94  78 2.16
  20  0.237  0.531  0.001-  34 1.78  63 1.89  35 1.91  79 2.18
  21  0.411  0.688  0.252-  61 1.74  68 1.79  66 1.82  63 2.00  32 3.01   6 3.07
  22  0.250  0.938  0.246-  58 1.91  66 1.94  44 1.94  43 2.05
  23  0.884  0.536  0.006-  65 1.73  33 1.76  72 2.22  34 2.26  24 3.04   1 3.06
  24  0.732  0.770  0.002-  65 1.84  64 1.85  57 1.96  73 2.15  23 3.04
  25  0.892  0.926  0.741-  74 1.74  69 2.04  48 2.08  55 2.23  26 3.07
  26  0.739  0.691  0.741-  74 1.75  72 1.87  76 1.88  73 1.91  25 3.07
  27  0.388  0.779  0.489-  75 1.79  71 1.82  66 1.87  76 2.04  29 3.07
  28  0.248  0.526  0.490-  47 1.75  67 1.81  46 1.94  75 1.97   6 3.07
  29  0.410  0.692  0.735-  73 1.75  78 1.82  75 1.82  80 1.93  27 3.07
  30  0.249  0.935  0.735-  78 1.88  70 1.96  56 1.99  55 2.15
  31  0.881  0.535  0.484-  77 1.81  45 1.86  60 1.88  46 2.14  18 2.98
  32  0.725  0.772  0.490-  77 1.85  69 1.86  76 1.88  61 1.93  21 3.01
  33  0.790  0.445  0.063-  23 1.76   1 1.86   8 1.87
  34  0.135  0.467  0.071-  20 1.78   6 1.89  23 2.26
  35  0.433  0.443  0.058-   3 1.87  20 1.91
  36  0.776  0.054  0.297-   2 1.75  15 1.90  17 2.07
  37  0.609  0.269  0.307-   5 1.86   2 1.89  16 1.95
  38  0.919  0.297  0.295-   1 1.72   2 1.96
  39  0.295  0.200  0.068-   5 1.79   4 1.87   3 2.00
  40  0.612  0.222  0.066-   2 1.83   3 1.92   8 1.93
  41  0.914  0.195  0.058-   7 1.81   8 1.82
  42  0.306  0.295  0.305-  11 1.88   5 1.88   6 1.89
  43  0.122  0.025  0.310-  12 2.00  22 2.05  17 2.24
  44  0.431  0.045  0.296-   5 1.85  22 1.94
  45  0.782  0.446  0.550-  31 1.86   9 1.93  16 1.94
  46  0.118  0.463  0.553-  14 1.89  28 1.94  31 2.14
  47  0.423  0.444  0.533-  28 1.75  11 1.90
  48  0.793  0.056  0.796-  10 1.84  25 2.08   7 2.08
  49  0.610  0.270  0.788-  10 1.75  13 1.95   8 2.24
  50  0.926  0.291  0.786-   9 1.79  10 1.96
  51  0.308  0.198  0.552-  11 1.71  12 1.82  13 1.87
  52  0.605  0.225  0.554-  10 1.84  16 1.90  11 1.94
  53  0.915  0.201  0.532-  15 1.76  16 1.80
  54  0.305  0.298  0.793-  14 1.84  13 1.86   3 2.10
  55  0.117  0.031  0.801-  30 2.15   4 2.20  25 2.23
  56  0.429  0.047  0.779-  13 1.78  30 1.99
  57  0.785  0.933  0.062-  17 1.89  24 1.96   7 2.07
  58  0.124  0.955  0.061-  22 1.91   4 1.95   7 2.25
  59  0.436  0.927  0.046-  19 1.88   4 2.05
  60  0.795  0.538  0.305-  18 1.80  31 1.88   1 1.90
[...]
  66  0.316  0.780  0.313-  21 1.82  27 1.87  22 1.94
  67  0.135  0.512  0.315-  28 1.81   6 1.84   1 2.16
  68  0.431  0.535  0.293-   6 1.75  21 1.79
  69  0.783  0.927  0.544-  32 1.86  25 2.04  15 2.10
  70  0.115  0.951  0.545-  30 1.96  12 2.06  15 2.29
  71  0.430  0.932  0.537-  27 1.82  12 1.95
  72  0.789  0.535  0.795-   9 1.84  26 1.87  23 2.22
  73  0.603  0.753  0.795-  29 1.75  26 1.91  24 2.15
  74  0.908  0.778  0.777-  25 1.74  26 1.75
  75  0.305  0.687  0.559-  27 1.79  29 1.82  28 1.97
  76  0.612  0.704  0.559-  26 1.88  32 1.88  27 2.04
  77  0.911  0.686  0.538-  31 1.81  32 1.85
  78  0.298  0.778  0.788-  29 1.82  30 1.88  19 2.16
  79  0.124  0.509  0.792-  14 1.89   9 2.13  20 2.18
  80  0.437  0.532  0.793-  14 1.76  29 1.93

  LATTYP: Found a simple monoclinic cell.
 ALAT       =    16.3463459659
 B/A-ratio  =     0.6987547874
 C/A-ratio  =     1.5833429409
 COS(beta)  =    -0.9717709890

  Lattice vectors:

 A1 = ( -12.7040962200,   0.0000000000, -10.2863485100)
 A2 = (   0.0000000000, -11.4220875000,   0.0000000000)
 A3 = (  15.7046301900,   0.0000000000,  20.5726970200)

Analysis of symmetry for initial positions (statically):
 Subroutine PRICEL returns:
 Original cell was already a primitive cell.

 Routine SETGRP: Setting up the symmetry group for a
 simple monoclinic supercell.

 Subroutine GETGRP returns: Found  1 space group operations
 (whereof  1 operations were pure point group operations)
 out of a pool of  4 trial point group operations.

The static configuration has the point symmetry C_1 .

Analysis of symmetry for dynamics (positions and initial velocities):
 Subroutine PRICEL returns:
 Original cell was already a primitive cell.

[...]

The dynamic configuration has the point symmetry C_1 .

Analysis of structural, dynamic, and magnetic symmetry:
 Subroutine PRICEL returns:
 Original cell was already a primitive cell.

 Routine SETGRP: Setting up the symmetry group for a
 simple monoclinic supercell.

 Subroutine GETGRP returns: Found  1 space group operations
 (whereof  1 operations were pure point group operations)
 out of a pool of  4 trial point group operations.

The magnetic configuration has the point symmetry C_1 .

 Subroutine INISYM returns: Found  1 space group operations
 (whereof  1 operations are pure point group operations),
 and found     1 'primitive' translations

 KPOINTS: Automatic mesh

Automatic generation of k-mesh.
Space group operators:
 irot       det(A)        alpha          n_x          n_y          n_z        tau_x        tau_y        tau_z
    1     1.000000     0.000000     1.000000     0.000000     0.000000     0.000000     0.000000     0.000000

 Subroutine IBZKPT returns following result:

 Found     19 irreducible k-points:

 Following reciprocal coordinates:
            Coordinates               Weight
  0.000000  0.000000  0.000000      1.000000
  0.250000  0.000000  0.000000      2.000000
  0.500000  0.000000  0.000000      1.000000
  0.000000  0.333333  0.000000      2.000000
  0.250000  0.333333  0.000000      2.000000
  0.500000  0.333333  0.000000      2.000000
 -0.250000  0.333333 -0.000000      2.000000
  0.000000  0.000000  0.333333      2.000000
  0.250000  0.000000  0.333333      2.000000
  0.500000  0.000000  0.333333      2.000000
 -0.250000  0.000000  0.333333      2.000000
  0.000000  0.333333  0.333333      2.000000
  0.250000  0.333333  0.333333      2.000000
  0.500000  0.333333  0.333333      2.000000
 -0.250000  0.333333  0.333333      2.000000
  0.000000 -0.333333  0.333333      2.000000
  0.250000 -0.333333  0.333333      2.000000
  0.500000 -0.333333  0.333333      2.000000
 -0.250000 -0.333333  0.333333      2.000000

 Following cartesian coordinates:
            Coordinates               Weight
  0.000000  0.000000  0.000000      1.000000
  0.025764  0.000000  0.016789      2.000000
  0.051527  0.000000  0.033578      1.000000
  0.000000  0.029183  0.000000      2.000000
  0.025764  0.029183  0.016789      2.000000
  0.051527  0.029183  0.033578      2.000000
 -0.025764  0.029183 -0.016789      2.000000
  0.000000  0.000000  0.032405      2.000000
  0.025764  0.000000  0.049194      2.000000
  0.051527  0.000000  0.065983      2.000000
 -0.025764  0.000000  0.015617      2.000000
  0.000000  0.029183  0.032405      2.000000
  0.025764  0.029183  0.049194      2.000000
  0.051527  0.029183  0.065983      2.000000
 -0.025764  0.029183  0.015617      2.000000
  0.000000 -0.029183  0.032405      2.000000
  0.025764 -0.029183  0.049194      2.000000
  0.051527 -0.029183  0.065983      2.000000
 -0.025764 -0.029183  0.015617      2.000000

 SYSTEM =  unknown system
 POSCAR =  Ni2O3_Cc_scale_1_025_disp_0_05_round_1

 Startparameter for this run:
   NWRITE =      1    write-flag & timer
   PREC   = accura    normal or accurate (medium, high low for compatibility)
   ISTART =      0    job   : 0-new  1-cont  2-samecut
   ICHARG =      2    charge: 1-file 2-atom 10-const
   ISPIN  =      2    spin polarized calculation?
   LNONCOLLINEAR =      F non collinear calculations
   LSORBIT =      F    spin-orbit coupling
   INIWAV =      1    electr: 0-lowe 1-rand  2-diag
   LASPH  =      F    aspherical Exc in radial PAW
   METAGGA=      F    non-selfconsistent MetaGGA calc.

 Electronic Relaxation 1
   ENCUT  =  500.0 eV  36.75 Ry    6.06 a.u.  17.69 20.83 22.38*2*pi/ulx,y,z
[...]
   0.175E+03 -.659E+01 0.539E+02   -.187E+03 0.114E+02 -.566E+02   0.114E+02 -.543E+01 0.287E+01   -.203E+00 -.187E+00 0.459E+00
   -.212E+02 0.156E+03 0.304E+02   0.201E+02 -.164E+03 -.369E+02   0.102E+01 0.939E+01 0.649E+01   -.802E-01 -.102E+00 -.111E+00
   -.194E+03 -.412E+02 -.189E+03   0.208E+03 0.503E+02 0.199E+03   -.156E+02 -.937E+01 -.108E+02   0.125E+00 -.120E+00 0.117E-01
   0.142E+03 0.114E+03 0.457E+01   -.153E+03 -.120E+03 -.508E+01   0.104E+02 0.604E+01 0.135E+01   0.295E+00 -.233E+00 0.692E-01
   0.129E+02 -.102E+03 0.179E+02   -.139E+02 0.113E+03 -.219E+02   0.113E+01 -.126E+02 0.486E+01   -.165E+00 0.244E+00 -.174E+00
   -.774E+02 0.141E+03 -.166E+03   0.871E+02 -.152E+03 0.176E+03   -.113E+02 0.100E+02 -.106E+02   0.110E+00 0.852E+00 -.155E+00
   0.414E+02 -.971E+02 0.117E+03   -.484E+02 0.103E+03 -.124E+03   0.778E+01 -.672E+01 0.702E+01   0.175E+00 0.396E+00 -.189E+00
   0.641E+02 0.120E+03 0.128E+03   -.681E+02 -.130E+03 -.136E+03   0.424E+01 0.116E+02 0.939E+01   -.270E+00 0.195E+00 -.227E+00
   -.933E+02 -.124E+03 -.448E+02   0.103E+03 0.131E+03 0.523E+02   -.120E+02 -.792E+01 -.859E+01   0.110E+00 0.401E+00 -.378E-01
   0.535E+02 0.820E+02 0.651E+02   -.610E+02 -.896E+02 -.700E+02   0.808E+01 0.756E+01 0.539E+01   0.171E+00 -.489E+00 -.754E-01
[...]
   0.792E+02 -.125E+03 0.104E+03   -.849E+02 0.134E+03 -.113E+03   0.467E+01 -.980E+01 0.888E+01   0.348E+00 -.383E+00 -.440E+00
   -.156E+03 0.820E+02 -.103E+03   0.172E+03 -.887E+02 0.113E+03   -.162E+02 0.833E+01 -.992E+01   -.549E+00 -.888E+00 -.185E+00
   0.246E+02 -.130E+03 0.238E+02   -.295E+02 0.138E+03 -.281E+02   0.566E+01 -.839E+01 0.471E+01   -.848E-02 0.410E+00 0.357E+00
   0.665E+02 0.102E+03 0.579E+02   -.701E+02 -.112E+03 -.664E+02   0.367E+01 0.117E+02 0.948E+01   0.110E+00 0.461E+00 -.670E-01
   -.120E+03 -.116E+03 -.125E+03   0.131E+03 0.123E+03 0.133E+03   -.131E+02 -.802E+01 -.893E+01   -.112E+00 0.283E+00 0.631E-01
   0.828E+02 0.680E+02 -.386E+02   -.935E+02 -.737E+02 0.390E+02   0.115E+02 0.629E+01 -.210E+00   -.233E+00 0.500E-01 0.610E+00
   -.507E+02 -.202E+03 -.668E+02   0.551E+02 0.215E+03 0.684E+02   -.377E+01 -.142E+02 -.352E+00   0.489E+00 0.120E+00 0.803E-01
   -.196E+03 0.333E+02 -.186E+03   0.211E+03 -.419E+02 0.195E+03   -.155E+02 0.883E+01 -.913E+01   -.122E+00 0.331E+00 0.246E-01
   0.164E+03 -.666E+02 0.840E+02   -.176E+03 0.681E+02 -.893E+02   0.119E+02 -.260E+01 0.539E+01   0.124E+00 0.216E-01 -.340E+00
   0.201E+02 0.916E+02 0.209E+02   -.232E+02 -.102E+03 -.269E+02   0.282E+01 0.115E+02 0.595E+01   -.177E+00 0.273E-01 0.231E+00
   -.186E+03 -.129E+03 -.179E+03   0.199E+03 0.138E+03 0.190E+03   -.140E+02 -.898E+01 -.117E+02   0.939E-01 -.404E-01 0.204E+00
   0.173E+03 0.897E+01 0.885E+01   -.185E+03 -.146E+02 -.898E+01   0.118E+02 0.658E+01 0.104E+01   -.244E+00 0.938E-01 -.670E-02
   0.525E+02 -.112E+03 -.155E+02   -.566E+02 0.121E+03 0.128E+02   0.322E+01 -.102E+02 0.322E+01   0.290E+00 -.290E+00 0.216E+00
   -.136E+03 0.443E+02 -.160E+03   0.151E+03 -.470E+02 0.172E+03   -.152E+02 0.458E+01 -.123E+02   -.131E+00 -.716E+00 0.120E+00
   0.409E+02 0.430E+01 0.321E+02   -.853E-13 0.220E-12 0.881E-12   -.403E+02 -.291E+01 -.315E+02   -.570E+00 -.137E+01 -.579E+00

 POSITION                                       TOTAL-FORCE (eV/Angst)
      7.06152      5.01262      2.49345         0.093249      0.585069      0.409671
      5.42911      2.26598      2.48309         0.821376      1.357646      0.072432
     -2.77831      3.32129     10.20543        -0.049993      0.677436      0.120124
      2.39107      0.50030      0.14063         0.475508     -1.555207     -1.021684
      2.30969      2.27045      2.48521        -0.423721     -0.436399      1.163998
      0.78772      5.17807      2.60792         0.388787     -0.178642     -0.674212
      1.93519      0.54638     10.21990         0.310178     -0.289053      0.004278
      7.14168      3.32187      0.04300         0.204163     -0.625200     -0.197033
      3.68969      5.03928      7.56985         0.677949      0.017318      0.207267
      2.11477      2.34055      7.51930         1.813864     -0.330455      0.266646
      0.49789      3.24525      4.96029         1.824001      1.741447     -0.627639
     -0.84311      0.51557      5.17520        -0.206894     -2.270881     -0.852096
     -1.02908      2.24856      7.51963         0.362849     -0.137400      0.944251
     -2.44650      5.13963      7.57423        -0.580161      0.252030     -0.047967
      5.31755      0.61970      4.93662         0.216500     -1.390488      0.223435
      3.83202      3.24403      5.09682         0.062958      0.161557     -0.093636
      6.96230     10.62952      2.51271         0.356190      0.126416      0.293545
      5.46096      7.84628      2.56253         0.694073      1.091856     -0.229307
     -2.86428      8.79634     10.21483         1.074139      1.766332      0.043511
      2.29678      6.06662      0.00661         1.426115     -0.507861     -0.614027
      2.29835      7.85424      2.59446        -1.010279     -0.941395     -0.966267
      0.77987     10.71418      2.52559         0.082599      1.053543      0.225769
      8.53906      6.12251      0.05708         1.140778     -0.010773     -0.775583
      7.09146      8.79635      0.02482         0.965991      0.258398      0.061822
      3.69202     10.58018      7.62386         0.633679      1.657139     -0.485152
      2.20939      7.89429      7.62006        -0.282838     -0.479176     -0.318821
      0.48322      8.89583      5.03141         1.107704      0.749064     -0.067451
     -0.88439      6.00922      5.04363        -0.189607      0.015820      0.444155
     -0.95364      7.90836      7.56165        -0.994994     -1.128224      0.484436
     -2.51530     10.68252      7.56210        -0.138297      1.112033     -0.223828
      5.30360      6.10793      4.97802         0.608425      0.121501      0.408560
      3.75501      8.81707      5.04035         0.720740      0.054010      0.204551
      7.24506      5.08777      0.64548         0.230242     -0.647923      0.201638
      0.84070      5.33585      0.72616        -0.870348      0.562438      0.412517
      3.80757      5.05739      0.59955        -1.263012     -0.719558     -1.344702
      5.53779      0.61581      3.04998         0.954353     -1.104489      0.954389
      3.85138      3.07108      3.15382         0.269016     -0.768611      0.671366
      6.93995      3.38943      3.03859        -1.402376     -0.500268     -0.638784
      2.40701      2.28171      0.69711         1.196410     -0.597587     -1.162952
      5.49866      2.53116      0.67662         0.054300      1.110161     -0.460349
      8.47886      2.22591      0.60027        -0.722296     -0.785769     -1.046810
      0.92371      3.36503      3.13265         0.249418      0.427224      0.453064
     -0.89223      0.28373      3.18859         0.037075     -1.385093      0.396285
      2.19381      0.51340      3.04904        -1.169237      0.270380     -0.781486
      3.90381      5.09508      5.65689         0.696216     -0.586917      0.307748
     -2.55913      5.28340      5.68957        -0.036619      1.228157      0.237782
      0.52810      5.07496      5.48444        -0.840973     -1.226681     -0.658100
      2.35549      0.64307      8.18750         0.616029     -0.623302      0.880124
      0.63806      3.08312      8.10748        -1.425155     -0.409269      1.003965
      3.71718      3.31980      8.08390        -1.256499      0.577314     -0.848751
     -0.70902      2.26487      5.67357        -0.804741     -0.807631      0.560530
      2.15884      2.57284      5.69669        -0.078208      0.781968     -0.087013
      5.31431      2.29506      5.47701        -0.767721     -0.376482     -0.309544
     -2.34948      3.39970      8.15307         0.412939     -0.015578      0.914225
     -4.23314      0.35896      8.23435         0.003312     -1.976851      0.676320
     -1.05324      0.54073      8.01092        -1.510906     -0.032057     -0.877170
      7.20218     10.65641      0.63686         0.939787     -0.318102     -0.034378
      0.79602     10.90535      0.62901        -0.056897      1.579833      0.446078
      3.92092     10.59183      0.47496        -1.874815     -0.654181     -1.130864
      5.67440      6.14852      3.13620         0.741444     -0.584398      0.405376
[...]
      0.96277      8.91325      3.22385         0.071398      0.807918     -0.065712
     -0.80458      5.85356      3.24456        -0.721491     -0.755451     -0.089256
      2.21615      6.11372      3.01161        -0.707437      0.732288     -0.340938
      3.95351     10.58373      5.59828         0.681016      0.270878      0.765301
     -2.53987     10.85704      5.60833         0.196562      1.729697      0.890994
      0.57307     10.64348      5.52103        -1.310829     -0.065023     -0.589707
      2.32144      6.10961      8.18069         0.550649      0.668894      0.849085
      0.52784      8.60552      8.17441         1.193820     -0.364667      1.285998
      3.59999      8.88500      7.99221        -0.466505      0.608097     -0.009927
     -0.78730      7.84980      5.74569        -0.007545     -1.080316     -0.240407
      2.19517      8.03901      5.74823        -0.430718      0.962087      0.175369
      5.23583      7.83148      5.53392        -0.950214     -0.693162     -0.747826
     -2.39150      8.88532      8.10458         0.173487      0.999325      0.905737
     -4.11213      5.81229      8.15020        -0.577466     -0.882003      0.776066
     -1.07150      6.07227      8.15249        -0.693996      1.170796     -0.918381
    total drift:                               -0.004841      0.023543      0.004103

  FREE ENERGIE OF THE ION-ELECTRON SYSTEM (eV)
  free  energy   TOTEN  =      -467.6298244447 eV

  energy  without entropy=     -467.5223292619  energy(sigma->0) =     -467.57607685

volume of typ            1:    17.9 %

volume of typ            2:     6.9 %

total charge

# of ion       s       p       d       tot
    1        0.262   0.284   7.850   8.395
    2        0.272   0.311   7.810   8.392
    3        0.223   0.219   7.818   8.260
    4        0.223   0.203   7.805   8.231
    5        0.273   0.318   7.805   8.395
    6        0.272   0.313   7.813   8.398
    7        0.210   0.187   7.820   8.218
    8        0.233   0.237   7.864   8.335
    9        0.255   0.268   7.816   8.339
   10        0.278   0.318   7.809   8.405
   11        0.271   0.311   7.838   8.420
   12        0.234   0.233   7.797   8.264
   13        0.265   0.297   7.799   8.362
   14        0.279   0.320   7.790   8.388
   15        0.232   0.223   7.836   8.290
   16        0.250   0.270   7.827   8.347
   17        0.221   0.204   7.821   8.247
   18        0.261   0.293   7.831   8.386
   19        0.245   0.252   7.830   8.327
   20        0.246   0.255   7.822   8.324
   21        0.281   0.333   7.845   8.460
   22        0.231   0.225   7.797   8.253
   23        0.253   0.256   7.866   8.375
   24        0.238   0.242   7.828   8.308
   25        0.227   0.216   7.815   8.258
   26        0.271   0.308   7.815   8.394
   27        0.264   0.292   7.816   8.371
   28        0.270   0.300   7.834   8.404
   29        0.283   0.333   7.835   8.450
   30        0.227   0.208   7.793   8.228
   31        0.250   0.261   7.836   8.347
   32        0.259   0.286   7.805   8.350
   33        1.265   2.759   0.010   4.034
   34        1.277   2.704   0.007   3.987
   35        1.286   2.662   0.005   3.953
   36        1.268   2.735   0.007   4.011
   37        1.273   2.722   0.007   4.002
   38        1.285   2.688   0.007   3.980
   39        1.266   2.744   0.008   4.017
   40        1.268   2.732   0.007   4.007
   41        1.281   2.693   0.007   3.980
   42        1.267   2.736   0.007   4.010
   43        1.281   2.656   0.003   3.940
   44        1.283   2.671   0.005   3.959
   45        1.267   2.729   0.006   4.003
   46        1.278   2.688   0.005   3.971
   47        1.286   2.689   0.007   3.982
   48        1.268   2.703   0.004   3.975
   49        1.277   2.708   0.007   3.991
   50        1.287   2.668   0.005   3.961
   51        1.262   2.786   0.011   4.059
   52        1.271   2.730   0.007   4.009
   53        1.280   2.709   0.008   3.997
   54        1.268   2.721   0.006   3.995
   55        1.288   2.614   0.002   3.904
   56        1.284   2.672   0.005   3.962
   57        1.266   2.709   0.005   3.979
   58        1.275   2.684   0.004   3.964
   59        1.287   2.643   0.004   3.933
   60        1.265   2.751   0.008   4.024
[...]
   66        1.263   2.751   0.007   4.021
   67        1.275   2.717   0.007   3.999
   68        1.283   2.707   0.008   3.999
   69        1.270   2.696   0.004   3.970
   70        1.282   2.655   0.003   3.940
   71        1.285   2.670   0.005   3.960
   72        1.272   2.709   0.006   3.986
   73        1.274   2.726   0.007   4.007
   74        1.280   2.725   0.009   4.014
   75        1.266   2.754   0.008   4.028
   76        1.275   2.712   0.006   3.993
   77        1.286   2.683   0.006   3.975
   78        1.269   2.718   0.006   3.994
   79        1.280   2.666   0.004   3.950
   80        1.286   2.681   0.006   3.973
tot          69.28  138.46  250.59  458.33

magnetization (x)

# of ion       s       p       d       tot
    1        0.003   0.014   0.868   0.885
    2       -0.001  -0.014  -0.990  -1.005
    3        0.002   0.022   1.286   1.310
    4       -0.002  -0.016  -1.278  -1.297
    5        0.000   0.026   1.160   1.187
    6        0.001   0.014   0.591   0.606
    7        0.007   0.020   1.418   1.445
    8        0.004   0.017   0.971   0.992
    9        0.002   0.022   1.209   1.234
   10        0.000   0.022   1.105   1.128
   11       -0.001  -0.011  -0.898  -0.910
   12       -0.001   0.020   1.404   1.423
   13        0.002   0.015   1.045   1.062
   14        0.000   0.013   0.838   0.852
   15        0.007   0.016   1.197   1.220
   16        0.004   0.019   1.038   1.061
   17        0.002   0.021   1.421   1.443
   18        0.002   0.023   1.141   1.165
   19        0.003   0.013   1.046   1.062
   20        0.000   0.016   1.077   1.094
   21       -0.001  -0.012  -0.961  -0.973
   22       -0.002   0.023   1.431   1.452
   23        0.004   0.004   0.233   0.241
   24        0.004   0.019   1.224   1.248
   25        0.005   0.011   1.151   1.167
   26        0.001  -0.010  -0.864  -0.873
   27        0.005   0.022   1.174   1.201
   28        0.001   0.015   0.732   0.748
   29       -0.000   0.022   0.925   0.947
   30       -0.001  -0.018  -1.277  -1.296
   31        0.004   0.020   0.994   1.017
   32        0.000   0.024   1.294   1.319
   33        0.006   0.088   0.000   0.094
   34        0.006   0.178   0.000   0.184
   35        0.012   0.531   0.000   0.543
   36        0.003   0.007  -0.000   0.009
   37        0.004   0.099   0.000   0.103
   38        0.003   0.156   0.000   0.158
   39        0.004   0.052   0.000   0.057
   40        0.003   0.065   0.000   0.068
   41        0.012   0.485   0.000   0.497
   42        0.004   0.064   0.000   0.068
   43        0.014   0.526   0.000   0.540
   44        0.013   0.532   0.000   0.545
   45        0.010   0.231   0.000   0.242
   46        0.009   0.243   0.000   0.252
   47        0.000  -0.003   0.000  -0.003
   48        0.011   0.292   0.000   0.303
   49        0.010   0.315   0.000   0.324
   50        0.012   0.510   0.000   0.521
   51        0.005   0.039   0.000   0.044
   52        0.003   0.078   0.000   0.081
   53        0.010   0.430   0.000   0.440
   54        0.009   0.197   0.000   0.206
   55       -0.007  -0.290  -0.000  -0.296
   56        0.004   0.187   0.000   0.191
   57        0.014   0.367   0.000   0.381
   58        0.004   0.141   0.000   0.145
   59        0.005   0.192   0.000   0.197
   60        0.010   0.191   0.000   0.201
[...]
   66        0.004   0.039   0.000   0.043
   67        0.007   0.219   0.000   0.226
   68       -0.004  -0.172   0.000  -0.176
   69        0.012   0.337   0.000   0.349
   70        0.003   0.131  -0.000   0.134
   71        0.013   0.547   0.000   0.560
   72        0.002   0.005   0.000   0.008
   73        0.005   0.112   0.000   0.117
   74        0.001   0.079   0.000   0.080
   75        0.009   0.206   0.000   0.215
   76        0.004   0.135   0.000   0.140
   77        0.011   0.475   0.000   0.487
   78        0.002   0.047   0.000   0.049
   79        0.009   0.315   0.000   0.324
   80        0.008   0.351   0.000   0.359
tot           0.37   10.37   21.71   32.46