 vasp.5.4.4.18Apr17-6-g9f103f2a35 (build May 12 2020 04:58:55) complex

 MD_VERSION_INFO: Compiled 2020-05-12T11:58:55-UTC in devlin.sd.materialsdesign.
 com:/home/medea2/data/build/wwolf/vasp-gpu5.4.4/13047/x86_64/src/src/build/std
 from svn 13047

 executed on                        Lin64 date 2023.03.25  17:57:19

 INCAR:
 POTCAR:    PAW_PBE Ni 02Aug2007
 POTCAR:    PAW_PBE O 08Apr2002

 POTCAR:    PAW_PBE Ni 02Aug2007

 POTCAR:    PAW_PBE O 08Apr2002

 Optimization of the real space projectors (new method)

 maximal supplied QI-value         = 16.25
 optimisation between [QCUT,QGAM] = [ 11.38, 22.75] = [ 36.24,144.96] Ry
 Optimized for a Real-space Cutoff    1.47 Angstroem

   l    n(q)    QCUT    max X(q) W(low)/X(q) W(high)/X(q)  e(spline)
   2      9    11.376    60.317    0.17E-03    0.16E-04    0.16E-06
   2      9    11.376    55.921    0.17E-03    0.16E-04    0.17E-06
   0     10    11.376    51.690    0.45E-04    0.60E-04    0.21E-06
   0     10    11.376    30.015    0.37E-04    0.55E-04    0.19E-06
   1     10    11.376    18.849    0.83E-04    0.11E-03    0.92E-07
   1     10    11.376    14.624    0.69E-04    0.92E-04    0.82E-07
 Optimization of the real space projectors (new method)

 maximal supplied QI-value         = 24.76
 optimisation between [QCUT,QGAM] = [ 11.39, 22.77] = [ 36.31,145.25] Ry
 Optimized for a Real-space Cutoff    1.10 Angstroem

   l    n(q)    QCUT    max X(q) W(low)/X(q) W(high)/X(q)  e(spline)
   0      7    11.387    20.381    0.22E-03    0.48E-03    0.18E-06
   0      7    11.387    15.268    0.22E-03    0.52E-03    0.19E-06
   1      7    11.387     5.964    0.22E-03    0.73E-03    0.24E-06
   1      7    11.387     5.382    0.19E-03    0.60E-03    0.21E-06

  PAW_PBE Ni 02Aug2007                  :
  PAW_PBE O 08Apr2002                   :

 POSCAR: Ni2O3_Cc_scale_1_000_disp_0_15_round_2
  positions in direct lattice
 exchange correlation table for  LEXCH =       14
   RHO(1)=    0.500       N(1)  =     2000
   RHO(2)=  100.500       N(2)  =     4000

 ion  position               nearest neighbor table
   1  0.921  0.434  0.266-  38 1.46  60 1.64  33 2.04  67 2.08  31 3.01   2 3.02   8 3.07
   2  0.740  0.202  0.240-  40 1.67  38 1.84  37 1.90  36 1.98   3 2.85   8 2.86   1 3.02
   3  0.433  0.282  0.009-  35 1.57  40 1.77  54 1.84  39 1.85   8 2.84   2 2.85   5 2.92  13 2.98
                            20 3.06
   4  0.243  0.042  0.001-  59 1.82  55 1.86  58 1.93  39 2.16   7 2.92   5 3.02  22 3.04  30 3.06

   5  0.410  0.213  0.234-  39 1.80  37 1.84  42 1.86  44 2.20   3 2.92   4 3.02
   6  0.282  0.468  0.271-  68 1.81  67 1.84  34 2.04  42 2.07  28 2.76  11 3.01  20 3.08
   7  0.955  0.027  0.028-  58 1.35  57 1.79  41 1.93  48 2.02  22 2.83  17 2.89   4 2.92
   8  0.733  0.283  0.010-  40 1.83  49 1.84  41 1.91  33 2.12   3 2.84   2 2.86   1 3.07
   9  0.901  0.437  0.734-  50 1.45  45 1.63  72 2.15  79 2.25  16 2.65  10 3.08
  10  0.795  0.181  0.756-  48 1.70  50 1.84  52 2.07  49 2.39  25 2.90   9 3.08
  11  0.410  0.303  0.505-  47 1.30  51 1.75  42 1.88  52 1.92  28 2.99   6 3.01
  12  0.270  0.052  0.505-  71 1.67  51 1.78  43 2.05  70 2.35  17 3.06  13 3.06
  13  0.395  0.200  0.758-  54 1.72  56 1.89  49 2.07  51 2.08  30 2.87   3 2.98  12 3.06
  14  0.261  0.474  0.752-  80 1.65  54 2.04  46 2.05  79 2.25  29 2.77
  15  0.896  0.039  0.504-  69 1.58  70 1.70  53 1.78  36 1.97  25 2.85
  16  0.778  0.305  0.516-  45 1.67  52 1.99  37 2.05  53 2.12   9 2.65  31 2.95
  17  0.946  0.958  0.257-  62 1.56  43 1.61  57 1.71  36 1.98   7 2.89  24 3.02  12 3.06
  18  0.734  0.724  0.227-  64 1.54  61 1.76  62 2.07  60 2.18  24 2.70  19 2.91
  19  0.400  0.789  0.002-  63 1.61  78 1.75  59 2.09  64 2.24  18 2.91  21 3.00  30 3.02
  20  0.256  0.513  0.006-  79 1.58  34 1.75  35 2.15  63 2.35   3 3.06   6 3.08
  21  0.395  0.741  0.246-  66 1.71  63 1.96  61 2.08  68 2.21  22 2.64  19 3.00
  22  0.269  0.951  0.251-  44 1.71  66 1.92  58 1.95  43 1.96  21 2.64   7 2.83   4 3.04
  23  0.912  0.558  0.020-  65 1.50  33 1.64  72 2.06  34 2.15  26 3.08
  24  0.743  0.799  0.016-  64 1.52  57 1.85  73 1.89  65 2.12  18 2.70  17 3.02
  25  0.915  0.948  0.734-  74 1.52  55 1.69  69 1.97  48 2.08  15 2.85  10 2.90  32 3.05
  26  0.790  0.695  0.759-  72 1.65  74 1.97  76 2.04  73 2.22  32 3.02  23 3.08
  27  0.443  0.795  0.531-  76 1.67  71 1.73  75 1.88  66 1.99  28 3.05
  28  0.274  0.550  0.484-  67 1.64  75 1.74  47 2.04  46 2.11   6 2.76  11 2.99  27 3.05
  29  0.428  0.682  0.761-  80 1.41  73 1.88  75 2.03  78 2.34  14 2.77
  30  0.286  0.965  0.776-  56 1.71  78 1.82  70 2.05  55 2.14  13 2.87  19 3.02   4 3.06
  31  0.914  0.536  0.495-  46 1.76  77 1.90  60 2.02  45 2.07  32 2.89  16 2.95   1 3.01
  32  0.778  0.763  0.510-  77 1.57  76 1.85  61 1.98  69 2.48  31 2.89  26 3.02  25 3.05
  33  0.829  0.460  0.070-  23 1.64   1 2.04   8 2.12
  34  0.136  0.463  0.068-  20 1.75   6 2.04  23 2.15
  35  0.477  0.418  0.048-   3 1.57  20 2.15
  36  0.806  0.037  0.312-  15 1.97   2 1.98  17 1.98
  37  0.627  0.269  0.316-   5 1.84   2 1.90  16 2.05
  38  0.916  0.306  0.292-   1 1.46   2 1.84
  39  0.286  0.230  0.056-   5 1.80   3 1.85   4 2.16
  40  0.623  0.201  0.073-   2 1.67   3 1.77   8 1.83
  41  0.931  0.192  0.062-   8 1.91   7 1.93
  42  0.323  0.289  0.323-   5 1.86  11 1.88   6 2.07
  43  0.124  0.021  0.303-  17 1.61  22 1.96  12 2.05
  44  0.452  0.028  0.307-  22 1.71   5 2.20
  45  0.795  0.445  0.573-   9 1.63  16 1.67  31 2.07
  46  0.119  0.489  0.549-  31 1.76  14 2.05  28 2.11
  47  0.445  0.414  0.544-  11 1.30  28 2.04
  48  0.819  0.044  0.827-  10 1.70   7 2.02  25 2.08
  49  0.630  0.273  0.827-   8 1.84  13 2.07  10 2.39
  50  0.919  0.319  0.792-   9 1.45  10 1.84
  51  0.314  0.204  0.558-  11 1.75  12 1.78  13 2.08
  52  0.623  0.231  0.560-  11 1.92  16 1.99  10 2.07
  53  0.975  0.188  0.551-  15 1.78  16 2.12
  54  0.338  0.306  0.830-  13 1.72   3 1.84  14 2.04
  55  0.103  0.020  0.818-  25 1.69   4 1.86  30 2.14
  56  0.459  0.037  0.801-  30 1.71  13 1.89
  57  0.847  0.945  0.088-  17 1.71   7 1.79  24 1.85
  58  0.106  0.982  0.062-   7 1.35   4 1.93  22 1.95
  59  0.445  0.968  0.062-   4 1.82  19 2.09
  60  0.852  0.550  0.306-   1 1.64  31 2.02  18 2.18
  61  0.645  0.778  0.313-  18 1.76  32 1.98  21 2.08
  62  0.950  0.820  0.282-  17 1.56  18 2.07
  63  0.300  0.720  0.055-  19 1.61  21 1.96  20 2.35
  64  0.662  0.728  0.076-  24 1.52  18 1.54  19 2.24
  65  0.945  0.689  0.051-  23 1.50  24 2.12
  66  0.314  0.796  0.333-  21 1.71  22 1.92  27 1.99
  67  0.145  0.522  0.324-  28 1.64   6 1.84   1 2.08
  68  0.464  0.550  0.298-   6 1.81  21 2.21
  69  0.774  0.983  0.541-  15 1.58  25 1.97  32 2.48
  70  0.098  0.990  0.580-  15 1.70  30 2.05  12 2.35
  71  0.411  0.948  0.529-  12 1.67  27 1.73
  72  0.805  0.558  0.817-  26 1.65  23 2.06   9 2.15
  73  0.634  0.763  0.833-  29 1.88  24 1.89  26 2.22
  74  0.954  0.818  0.781-  25 1.52  26 1.97
  75  0.309  0.690  0.560-  28 1.74  27 1.88  29 2.03
  76  0.638  0.766  0.573-  27 1.67  32 1.85  26 2.04
  77  0.948  0.696  0.562-  32 1.57  31 1.90
  78  0.294  0.810  0.830-  19 1.75  30 1.82  29 2.34
  79  0.138  0.546  0.854-  20 1.58  14 2.25   9 2.25
  80  0.425  0.561  0.796-  29 1.41  14 1.65

  LATTYP: Found a simple monoclinic cell.
 ALAT       =    15.9476545966
 B/A-ratio  =     0.6987547876
 C/A-ratio  =     1.5833429409
 COS(beta)  =    -0.9717709890

  Lattice vectors:

 A1 = ( -12.3942402100,   0.0000000000, -10.0354619600)
 A2 = (   0.0000000000, -11.1435000000,   0.0000000000)
 A3 = (  15.3215904200,   0.0000000000,  20.0709239200)

Analysis of symmetry for initial positions (statically):
 Subroutine PRICEL returns:
 Original cell was already a primitive cell.

 Routine SETGRP: Setting up the symmetry group for a
 simple monoclinic supercell.

 Subroutine GETGRP returns: Found  1 space group operations
 (whereof  1 operations were pure point group operations)
 out of a pool of  4 trial point group operations.

The static configuration has the point symmetry C_1 .

Analysis of symmetry for dynamics (positions and initial velocities):
 Subroutine PRICEL returns:
 Original cell was already a primitive cell.

[...]

The dynamic configuration has the point symmetry C_1 .

Analysis of structural, dynamic, and magnetic symmetry:
 Subroutine PRICEL returns:
 Original cell was already a primitive cell.

 Routine SETGRP: Setting up the symmetry group for a
 simple monoclinic supercell.

 Subroutine GETGRP returns: Found  1 space group operations
 (whereof  1 operations were pure point group operations)
 out of a pool of  4 trial point group operations.

The magnetic configuration has the point symmetry C_1 .

 Subroutine INISYM returns: Found  1 space group operations
 (whereof  1 operations are pure point group operations),
 and found     1 'primitive' translations

 KPOINTS: Automatic mesh

Automatic generation of k-mesh.
Space group operators:
 irot       det(A)        alpha          n_x          n_y          n_z        tau_x        tau_y        tau_z
    1     1.000000     0.000000     1.000000     0.000000     0.000000     0.000000     0.000000     0.000000

 Subroutine IBZKPT returns following result:

 Found     19 irreducible k-points:

 Following reciprocal coordinates:
            Coordinates               Weight
  0.000000  0.000000  0.000000      1.000000
  0.250000  0.000000 -0.000000      2.000000
  0.500000  0.000000 -0.000000      1.000000
  0.000000  0.333333  0.000000      2.000000
  0.250000  0.333333 -0.000000      2.000000
  0.500000  0.333333 -0.000000      2.000000
 -0.250000  0.333333  0.000000      2.000000
  0.000000  0.000000  0.333333      2.000000
  0.250000  0.000000  0.333333      2.000000
  0.500000  0.000000  0.333333      2.000000
 -0.250000  0.000000  0.333333      2.000000
  0.000000  0.333333  0.333333      2.000000
  0.250000  0.333333  0.333333      2.000000
  0.500000  0.333333  0.333333      2.000000
 -0.250000  0.333333  0.333333      2.000000
  0.000000 -0.333333  0.333333      2.000000
  0.250000 -0.333333  0.333333      2.000000
  0.500000 -0.333333  0.333333      2.000000
 -0.250000 -0.333333  0.333333      2.000000

 Following cartesian coordinates:
            Coordinates               Weight
  0.000000  0.000000  0.000000      1.000000
  0.026408  0.000000  0.017208      2.000000
  0.052816  0.000000  0.034417      1.000000
  0.000000  0.029913  0.000000      2.000000
  0.026408  0.029913  0.017208      2.000000
  0.052816  0.029913  0.034417      2.000000
 -0.026408  0.029913 -0.017208      2.000000
  0.000000  0.000000  0.033216      2.000000
  0.026408  0.000000  0.050424      2.000000
  0.052816  0.000000  0.067633      2.000000
 -0.026408  0.000000  0.016007      2.000000
  0.000000  0.029913  0.033216      2.000000
  0.026408  0.029913  0.050424      2.000000
  0.052816  0.029913  0.067633      2.000000
 -0.026408  0.029913  0.016007      2.000000
  0.000000 -0.029913  0.033216      2.000000
  0.026408 -0.029913  0.050424      2.000000
  0.052816 -0.029913  0.067633      2.000000
 -0.026408 -0.029913  0.016007      2.000000

 SYSTEM =  unknown system
[...]
   0.135E+03 -.548E+02 0.760E+00   -.146E+03 0.608E+02 0.139E+01   0.112E+02 -.552E+01 -.149E+01   -.798E+00 -.142E+01 0.360E+00
   0.161E+02 0.130E+03 0.583E+01   -.161E+02 -.139E+03 -.102E+02   0.828E+00 0.966E+01 0.559E+01   0.383E+00 -.443E+00 0.236E+00
   -.140E+03 -.178E+03 -.101E+03   0.153E+03 0.191E+03 0.109E+03   -.154E+02 -.109E+02 -.858E+01   0.292E+00 -.528E+00 0.467E-01
   0.116E+03 -.512E+02 0.126E+03   -.125E+03 0.584E+02 -.130E+03   0.778E+01 -.540E+01 0.326E+01   0.209E+00 -.521E+00 0.255E-01
   -.826E+02 -.151E+03 0.299E+02   0.905E+02 0.163E+03 -.322E+02   -.591E+01 -.112E+02 0.436E+01   0.443E+00 -.178E+00 -.691E+00
   -.234E+03 0.797E+02 -.712E+02   0.256E+03 -.834E+02 0.793E+02   -.225E+02 0.511E+01 -.821E+01   -.716E+00 -.977E-01 -.447E+00
   0.124E+03 -.497E+02 0.167E+03   -.132E+03 0.528E+02 -.178E+03   0.878E+01 -.321E+01 0.832E+01   -.244E+00 -.142E+00 -.627E-01
   -.194E+03 0.173E+03 0.816E+01   0.233E+03 -.197E+03 -.141E+01   -.137E+02 0.142E+02 0.804E+00   -.283E+00 -.660E-01 -.296E+00
   -.174E+03 -.249E+02 -.110E+03   0.188E+03 0.273E+02 0.120E+03   -.157E+02 -.356E+01 -.110E+02   0.448E+00 0.221E+00 -.306E+00
   0.132E+03 -.120E+03 0.392E+02   -.142E+03 0.133E+03 -.402E+02   0.603E+01 -.105E+02 0.307E+01   0.298E+00 -.226E+00 -.559E+00
[...]
   0.559E+02 -.922E+02 0.131E+03   -.644E+02 0.992E+02 -.148E+03   0.891E+01 -.874E+01 0.138E+02   -.259E+00 0.422E-01 -.883E-01
   -.190E+03 0.736E+01 -.783E+02   0.206E+03 -.628E+01 0.843E+02   -.182E+02 -.188E+00 -.673E+01   0.376E-01 -.154E+00 -.819E-01
   0.254E+03 0.178E+02 0.841E+02   -.281E+03 -.235E+02 -.908E+02   0.239E+02 0.280E+01 0.881E+01   0.433E+00 0.413E+00 0.270E+00
   -.139E+03 0.129E+03 0.370E+01   0.149E+03 -.138E+03 -.307E+01   -.853E+01 0.760E+01 0.376E+00   0.423E+00 0.377E+00 0.408E+00
   -.107E+03 -.642E+02 -.140E+03   0.122E+03 0.686E+02 0.143E+03   -.134E+02 -.561E+01 -.275E+01   -.875E+00 0.690E+00 0.249E+00
   0.107E+03 0.174E+03 0.349E+02   -.116E+03 -.191E+03 -.333E+02   0.946E+01 0.147E+02 -.686E+00   -.184E-01 0.378E-02 0.112E+00
   -.514E+02 -.110E+03 0.891E+02   0.585E+02 0.117E+03 -.947E+02   -.741E+01 -.756E+01 0.560E+01   -.522E-01 0.246E+00 0.138E+00
   -.839E+02 0.227E+03 -.145E+03   0.953E+02 -.251E+03 0.158E+03   -.125E+02 0.161E+02 -.114E+02   -.101E-01 0.439E+00 0.372E-01
   0.146E+03 -.120E+03 0.161E+02   -.160E+03 0.129E+03 -.181E+02   0.150E+02 -.836E+01 0.333E+01   -.284E-01 0.266E+00 0.587E-01
   -.205E+02 0.504E+02 -.966E+01   0.272E+02 -.504E+02 0.110E+02   -.368E+01 -.151E+01 -.444E+00   -.524E+00 0.237E+00 0.440E+00
   -.236E+03 -.271E+02 -.138E+03   0.259E+03 0.271E+02 0.153E+03   -.204E+02 -.354E+01 -.146E+02   0.595E+00 0.276E+00 0.480E+00
   0.377E+02 0.128E+03 0.173E+03   -.444E+02 -.138E+03 -.185E+03   0.798E+01 0.100E+02 0.130E+02   0.268E+00 0.863E+00 -.563E+00
   0.977E+01 -.136E+03 0.176E+03   -.136E+02 0.151E+03 -.197E+03   0.425E+01 -.152E+02 0.157E+02   -.513E-01 -.135E+00 -.739E-01
   -.128E+03 0.202E+03 -.160E+03   0.138E+03 -.232E+03 0.177E+03   -.117E+02 0.154E+02 -.131E+02   0.643E-01 -.686E-01 0.145E+00
   0.520E+02 -.212E+01 -.442E+01   -.114E-12 0.625E-12 -.114E-12   -.525E+02 0.226E+01 0.469E+01   0.521E+00 -.149E+00 -.271E+00

 POSITION                                       TOTAL-FORCE (eV/Angst)
      6.98127      4.83162      2.67154         3.929610      9.953858     -3.222621
      5.44275      2.24585      2.40469         0.104001     -0.956689      3.597140
      4.03432      3.14095      0.09438        -1.428408     -3.757561     -1.853286
      2.29587      0.47068      0.01155         1.014877      0.067619      0.238677
      2.34978      2.37810      2.35049        -0.591877     -0.365028      1.375937
      0.90360      5.21756      2.71473         1.104581      0.272398     -0.984808
      8.85796      0.29733      0.27940       -23.654824     12.154981     -7.963980
      6.87375      3.15532      0.09676         2.850960     -0.795666     -1.146362
      3.72721      4.86637      7.36904         0.790109     11.791400     -0.064684
      2.58632      2.01367      7.58693        -1.058729      2.537396     -1.050191
      0.57951      3.38005      5.07138        -0.072709    -32.835105    -10.145570
     -0.74707      0.58041      5.06562        -0.941174      0.349495     -1.036580
     -1.21456      2.22452      7.60834         2.664833     -1.232335     -0.279762
     -2.44423      5.27939      7.54801        -1.583993     -1.695303     -0.969372
      5.18326      0.43883      5.05871         3.711397      3.376451     -2.371752
      3.99080      3.40326      5.18122         0.294856     -4.175956     -2.121014
      7.27706     10.68047      2.57425        -4.073976      3.233637      0.473262
      5.46913      8.06962      2.27436        -0.353056     -0.558882      7.187779
      3.77424      8.79336      0.01962         2.443219      3.250430     -0.754370
      2.38054      5.71845      0.06280         1.321902     -1.239382      4.873475
      2.13363      8.26109      2.46856         2.101441     -1.892098     -1.073604
      0.90403     10.59392      2.51829        -0.232587     -0.382502      0.607723
      8.50198      6.21962      0.19924         2.167199     -6.853284     -3.044412
      6.92373      8.90163      0.16340         7.423707      3.278182     -4.721228
      3.86112     10.56251      7.36590        -2.373841      6.440490     -2.781612
      2.51709      7.74735      7.62076         0.293414      3.827571     -1.264164
      0.71707      8.85473      5.32868        -2.420388      0.340296     -1.385276
     -0.57243      6.12703      4.85581        -0.359527     -0.276705      2.506858
     -0.92474      7.59631      7.63683         3.600308     16.314254     -4.098957
     -2.37145     10.74966      7.78913        -1.520845      0.096827     -1.088471
      5.41258      5.97511      4.97103        -0.131823      1.075615     -0.354142
      4.03193      8.50687      5.11524        -3.899190      2.169091     -2.245939
      7.39598      5.12176      0.70004        -2.236628     -2.841026      1.123723
      0.84267      5.15484      0.67784        -0.456899      0.776255      1.277595
      4.20173      4.65790      0.47999        -1.406823      5.701655      1.061038
      5.58945      0.41138      3.13394         0.852619      0.973298      0.532119
      3.87316      3.00186      3.17133         0.459006     -0.462511      0.661942
      6.76264      3.41546      2.92825        -2.330069    -11.519707      1.804370
      2.33935      2.55744      0.56047         0.693132     -1.561753     -0.001714
      5.42076      2.24376      0.73422         0.687216      0.128246     -1.939421
      8.40307      2.14144      0.62702        -1.421176     -0.589539     -0.882942
      0.95118      3.22033      3.23780         0.340440      0.886479     -0.340957
     -0.81074      0.23326      3.04198         3.566341      1.813165      2.433881
      2.26468      0.31043      3.08483        -0.049787      1.436791     -0.869212
      3.78191      4.96382      5.74620         1.274579      3.173474     -3.202259
     -2.46102      5.44759      5.50791         0.717096     -0.273769      1.881809
      0.65081      4.61597      5.45912         0.576707     33.812494     10.014568
      2.34469      0.49186      8.30258         0.862979     -0.833309     -0.020894
      0.55558      3.04207      8.30434        -1.119014     -0.868795      0.750049
      3.52317      3.55081      7.94484        -2.162623    -12.474009      4.710813
     -0.67357      2.27376      5.59977        -0.855622     -0.943306      1.015566
      2.23864      2.57898      5.62195         1.204968     -0.041321      1.404550
      5.62061      2.09347      5.53313        -2.193413      0.917595     -0.654527
     -2.22988      3.40643      8.33411        -0.929443      1.349256     -0.660776
     -4.37522      0.21851      8.20671         2.428692      0.619864      1.380930
     -0.88904      0.41715      8.03350        -0.817556      1.273204     -0.620547
      7.44723     10.52823      0.88380        -0.432623     -0.285845     -2.163999
      0.59632     10.94386      0.62489        24.089870     -9.515467      7.258043
      3.80671     10.79157      0.61973        -1.237652     -0.947532     -1.189576
      6.06540      6.12944      3.06720        -2.736261      2.844216      1.530507
[...]
      0.79099      8.86472      3.34337        -0.230000      0.699292      0.338806
     -0.74983      5.81608      3.25047         0.123765     -1.782101     -3.086582
      2.44660      6.13261      2.98827        -1.863179      0.741066     -0.899004
      3.78285     10.95628      5.43360        -3.208294     -2.480437      2.392937
     -2.86257     11.02833      5.81903         2.509144     -0.988627      1.414497
      0.43247     10.56156      5.30525         0.021304     -0.490567      0.663446
      2.28396      6.22306      8.19564         0.656670     -2.464930      1.022219
      0.55768      8.49900      8.35653        -0.369073     -0.420567      0.124151
      3.92314      9.11398      7.83627        -1.116954     -7.770639      1.751437
     -0.73399      7.68888      5.61600         1.032419      0.684630      1.378700
      2.29482      8.53120      5.75164         2.490979     -1.232659      1.327233
      5.30448      7.75138      5.63813         3.045863     -3.287278      0.612348
     -2.63895      9.02654      8.32442         1.512646      0.280656     -0.328412
     -4.27611      6.08976      8.57109         0.375392     -0.192002     -5.242331
     -1.18216      6.25193      7.98360        -2.331799    -14.310566      4.228294
    total drift:                                0.022349     -0.010453     -0.005513

  FREE ENERGIE OF THE ION-ELECTRON SYSTEM (eV)
  free  energy   TOTEN  =      -445.8369602951 eV

  energy  without entropy=     -445.7287035074  energy(sigma->0) =     -445.78283190

volume of typ            1:    19.3 %

volume of typ            2:     7.4 %

total charge

# of ion       s       p       d       tot
    1        0.375   0.492   7.945   8.812
    2        0.276   0.326   7.881   8.484
    3        0.332   0.424   7.902   8.657
    4        0.242   0.250   7.879   8.371
    5        0.259   0.275   7.835   8.369
    6        0.244   0.258   7.859   8.361
    7        0.399   0.542   8.033   8.975
    8        0.243   0.248   7.867   8.357
    9        0.372   0.463   7.999   8.835
   10        0.258   0.263   7.883   8.404
   11        0.442   0.635   8.055   9.132
   12        0.257   0.281   7.859   8.398
   13        0.244   0.263   7.869   8.376
   14        0.231   0.236   7.942   8.409
   15        0.351   0.448   7.844   8.643
   16        0.253   0.266   7.875   8.393
   17        0.372   0.508   7.916   8.796
   18        0.304   0.357   7.949   8.611
   19        0.302   0.328   7.915   8.544
   20        0.308   0.320   7.904   8.532
   21        0.245   0.247   7.878   8.370
   22        0.269   0.302   7.885   8.455
   23        0.358   0.456   7.905   8.720
   24        0.313   0.373   7.950   8.637
   25        0.338   0.419   7.916   8.673
   26        0.260   0.266   7.888   8.414
   27        0.293   0.357   7.873   8.523
   28        0.290   0.328   7.908   8.526
   29        0.341   0.418   8.012   8.770
   30        0.267   0.279   7.828   8.375
   31        0.234   0.241   7.923   8.398
   32        0.298   0.327   7.930   8.556
   33        1.275   2.744   0.009   4.028
   34        1.283   2.690   0.006   3.980
   35        1.289   2.725   0.011   4.025
   36        1.281   2.682   0.005   3.968
   37        1.272   2.719   0.006   3.997
   38        1.290   2.797   0.020   4.108
   39        1.275   2.719   0.007   4.001
   40        1.273   2.787   0.015   4.075
   41        1.286   2.665   0.004   3.955
   42        1.274   2.716   0.006   3.996
   43        1.276   2.766   0.011   4.053
   44        1.294   2.655   0.006   3.956
   45        1.269   2.806   0.016   4.091
   46        1.276   2.707   0.006   3.990
   47        1.315   2.861   0.033   4.210
   48        1.279   2.721   0.008   4.008
   49        1.288   2.646   0.004   3.938
   50        1.290   2.800   0.021   4.110
   51        1.267   2.761   0.009   4.036
   52        1.280   2.688   0.004   3.973
   53        1.290   2.658   0.005   3.953
   54        1.267   2.758   0.009   4.034
   55        1.275   2.744   0.009   4.028
   56        1.284   2.693   0.008   3.986
   57        1.269   2.793   0.012   4.074
   58        1.291   2.882   0.032   4.205
   59        1.288   2.660   0.004   3.953
   60        1.277   2.738   0.009   4.024
[...]
   66        1.274   2.741   0.009   4.024
   67        1.277   2.757   0.012   4.046
   68        1.289   2.636   0.004   3.929
   69        1.288   2.731   0.012   4.031
   70        1.284   2.695   0.007   3.986
   71        1.279   2.746   0.011   4.036
   72        1.278   2.729   0.009   4.016
   73        1.273   2.704   0.005   3.982
   74        1.289   2.750   0.014   4.053
   75        1.270   2.741   0.008   4.019
   76        1.265   2.781   0.010   4.056
   77        1.287   2.741   0.013   4.040
   78        1.280   2.710   0.008   3.998
   79        1.286   2.726   0.011   4.023
   80        1.294   2.849   0.029   4.172
tot          71.08  142.62  253.64  467.34

magnetization (x)

# of ion       s       p       d       tot
    1        0.001   0.006   0.256   0.263
    2       -0.001   0.005   0.155   0.159
    3        0.001  -0.001  -0.053  -0.054
    4        0.001   0.016   1.040   1.057
    5        0.000   0.019   1.150   1.169
    6       -0.001  -0.003  -0.111  -0.115
    7       -0.001  -0.003  -0.197  -0.201
    8        0.002   0.001  -0.051  -0.048
    9       -0.001   0.001   0.086   0.086
   10       -0.001  -0.000  -0.057  -0.058
   11       -0.009  -0.018  -0.386  -0.412
   12        0.004   0.007   0.911   0.922
   13        0.002   0.002   0.219   0.223
   14       -0.001   0.004   0.420   0.423
   15        0.000   0.000   0.104   0.104
   16        0.003   0.014   1.013   1.029
   17        0.001   0.003  -0.043  -0.039
   18        0.003   0.001  -0.067  -0.064
   19        0.003   0.013   0.453   0.470
   20        0.004   0.013   0.695   0.711
   21        0.007   0.007   0.835   0.850
   22        0.002   0.017   0.999   1.019
   23        0.014   0.020   0.872   0.905
   24       -0.001   0.001   0.130   0.130
   25        0.001  -0.004   0.047   0.045
   26        0.016   0.009   0.885   0.909
   27       -0.001  -0.010  -0.482  -0.492
   28        0.007   0.006   0.346   0.360
   29        0.005   0.004   0.118   0.128
   30        0.001   0.000  -0.030  -0.029
   31       -0.001   0.003   0.205   0.207
   32        0.011   0.016   0.731   0.758
   33        0.005   0.130   0.000   0.135
   34        0.005   0.124   0.000   0.130
   35        0.001   0.062  -0.000   0.064
   36        0.001   0.009   0.000   0.010
   37        0.008   0.268   0.000   0.276
   38        0.002   0.093   0.000   0.096
   39        0.005   0.169   0.000   0.174
   40        0.002  -0.010   0.000  -0.008
   41       -0.001  -0.039   0.000  -0.040
   42        0.001   0.054   0.000   0.055
   43        0.006   0.100   0.000   0.107
   44        0.011   0.566   0.000   0.577
   45        0.004   0.096   0.000   0.100
   46        0.004   0.110   0.000   0.113
   47       -0.003  -0.159  -0.001  -0.162
   48        0.001  -0.004   0.000  -0.003
   49       -0.001  -0.046   0.000  -0.047
   50        0.000  -0.004   0.000  -0.004
   51        0.000   0.057  -0.000   0.057
   52        0.002   0.093  -0.000   0.095
   53        0.005   0.239  -0.000   0.244
   54        0.001   0.021   0.000   0.022
   55        0.003   0.087  -0.000   0.090
   56        0.001   0.037  -0.000   0.038
   57       -0.001  -0.027   0.000  -0.027
   58        0.003   0.018  -0.001   0.020
   59        0.008   0.397   0.000   0.405
   60        0.002   0.046   0.000   0.048
[...]
   66        0.003   0.133   0.000   0.136
   67        0.001   0.041   0.000   0.042
   68        0.004   0.165  -0.000   0.170
   69        0.001  -0.015   0.000  -0.014
   70        0.001   0.061  -0.000   0.062
   71        0.004   0.172   0.000   0.176
   72        0.008   0.194   0.000   0.202
   73        0.005   0.081   0.000   0.086
   74        0.004   0.117  -0.000   0.121
   75        0.001  -0.017   0.000  -0.016
   76        0.003  -0.010  -0.000  -0.007
   77        0.005   0.266   0.000   0.272
   78        0.002  -0.002   0.000   0.000
   79        0.005   0.229   0.000   0.234
   80        0.002   0.088  -0.000   0.091
tot           0.22    4.77   10.20   15.18