 vasp.5.4.4.18Apr17-6-g9f103f2a35 (build May 12 2020 04:58:55) complex

 MD_VERSION_INFO: Compiled 2020-05-12T11:58:55-UTC in devlin.sd.materialsdesign.
 com:/home/medea2/data/build/wwolf/vasp-gpu5.4.4/13047/x86_64/src/src/build/std
 from svn 13047

 executed on                        Lin64 date 2023.03.25  18:49:54

 INCAR:
 POTCAR:    PAW_PBE Ni 02Aug2007
 POTCAR:    PAW_PBE O 08Apr2002

 POTCAR:    PAW_PBE Ni 02Aug2007

 POTCAR:    PAW_PBE O 08Apr2002

 Optimization of the real space projectors (new method)

 maximal supplied QI-value         = 16.25
 optimisation between [QCUT,QGAM] = [ 11.38, 22.75] = [ 36.24,144.96] Ry
 Optimized for a Real-space Cutoff    1.47 Angstroem

   l    n(q)    QCUT    max X(q) W(low)/X(q) W(high)/X(q)  e(spline)
   2      9    11.376    60.317    0.17E-03    0.16E-04    0.16E-06
   2      9    11.376    55.921    0.17E-03    0.16E-04    0.17E-06
   0     10    11.376    51.690    0.45E-04    0.60E-04    0.21E-06
   0     10    11.376    30.015    0.37E-04    0.55E-04    0.19E-06
   1     10    11.376    18.849    0.83E-04    0.11E-03    0.92E-07
   1     10    11.376    14.624    0.69E-04    0.92E-04    0.82E-07
 Optimization of the real space projectors (new method)

 maximal supplied QI-value         = 24.76
 optimisation between [QCUT,QGAM] = [ 11.39, 22.77] = [ 36.31,145.25] Ry
 Optimized for a Real-space Cutoff    1.10 Angstroem

   l    n(q)    QCUT    max X(q) W(low)/X(q) W(high)/X(q)  e(spline)
   0      7    11.387    20.381    0.22E-03    0.48E-03    0.18E-06
   0      7    11.387    15.268    0.22E-03    0.52E-03    0.19E-06
   1      7    11.387     5.964    0.22E-03    0.73E-03    0.24E-06
   1      7    11.387     5.382    0.19E-03    0.60E-03    0.21E-06

  PAW_PBE Ni 02Aug2007                  :
  PAW_PBE O 08Apr2002                   :

 POSCAR: Ni2O3_Cc_scale_1_000_disp_0_10_round_2
  positions in direct lattice
 exchange correlation table for  LEXCH =       14
   RHO(1)=    0.500       N(1)  =     2000
   RHO(2)=  100.500       N(2)  =     4000

 ion  position               nearest neighbor table
   1  0.918  0.452  0.260-  60 1.64  67 1.70  38 1.74  33 1.91
   2  0.730  0.215  0.238-  40 1.82  37 1.86  38 1.98  36 2.02   3 2.85   5 2.94
   3  0.417  0.295  0.011-  39 1.77  40 1.80  35 1.89  54 2.09   2 2.85  20 3.04   5 3.06
   4  0.264  0.036  0.018-  59 1.67  58 1.86  55 2.08  39 2.10   5 2.99  19 3.00  22 3.01
   5  0.433  0.197  0.257-  44 1.79  37 1.82  39 1.86  42 2.00   2 2.94  16 2.95   4 2.99  22 3.03
                             3 3.06
   6  0.252  0.460  0.257-  68 1.79  34 1.85  42 1.86  67 1.96
   7  0.891  0.047  0.989-  41 1.69  48 1.81  57 1.83  58 1.96  10 2.87  17 3.06   8 3.07
   8  0.730  0.288  0.985-  40 1.87  49 1.88  33 2.04  41 2.04  10 2.93  13 3.03   7 3.07
   9  0.913  0.460  0.746-  45 1.70  50 1.78  79 1.94  72 1.95  26 2.96  31 2.96
  10  0.757  0.205  0.765-  50 1.83  48 1.83  52 1.92  49 1.97   7 2.87   8 2.93  16 3.08
  11  0.415  0.296  0.512-  47 1.66  51 1.84  42 1.96  52 2.01
  12  0.262  0.040  0.507-  71 1.91  43 1.93  51 1.96  70 1.96  13 3.01  22 3.04
  13  0.400  0.190  0.754-  56 1.67  54 1.77  51 1.87  49 2.09  30 2.88  12 3.01   8 3.03
  14  0.301  0.476  0.780-  80 1.36  79 1.91  54 2.03  46 2.25  29 2.69  20 2.89  28 3.09
  15  0.925  0.042  0.511-  70 1.64  53 1.73  69 1.78  36 1.85  16 3.02  30 3.08
  16  0.745  0.266  0.509-  52 1.66  53 1.69  37 1.91  45 2.27   5 2.95  15 3.02  10 3.08
  17  0.884  0.963  0.229-  57 1.61  43 1.97  36 2.01  62 2.07  24 3.00   7 3.06
  18  0.753  0.701  0.248-  62 1.67  64 1.81  61 1.84  60 1.88  24 3.01
  19  0.389  0.796  0.995-  63 1.69  59 1.94  64 2.08  78 2.08   4 3.00  30 3.01
  20  0.258  0.537  0.994-  79 1.66  35 1.77  34 1.96  63 2.02  14 2.89   3 3.04
  21  0.403  0.712  0.256-  66 1.63  68 1.85  63 2.05  61 2.12  27 2.95  32 2.99
  22  0.253  0.973  0.257-  44 1.91  43 1.91  58 1.92  66 1.99   4 3.01   5 3.03  12 3.04  27 3.07

  23  0.901  0.551  0.989-  72 1.73  65 1.88  33 2.04  34 2.10  26 2.87  24 2.97
  24  0.760  0.782  0.010-  65 1.76  64 1.86  73 1.98  57 1.99  23 2.97  17 3.00  18 3.01
  25  0.903  0.945  0.750-  74 1.71  48 1.76  69 1.92  55 1.95
  26  0.768  0.693  0.752-  72 1.59  74 1.81  73 1.92  76 1.95  23 2.87   9 2.96
  27  0.418  0.799  0.494-  71 1.68  76 1.87  75 1.92  66 1.97  21 2.95  32 3.06  22 3.07
  28  0.262  0.546  0.515-  46 1.76  47 1.87  75 1.92  67 2.14  29 2.93  14 3.09
  29  0.397  0.696  0.753-  78 1.62  80 1.82  75 1.98  73 2.09  14 2.69  28 2.93
  30  0.262  0.960  0.759-  56 1.69  55 1.84  78 1.91  70 1.92  13 2.88  19 3.01  15 3.08
  31  0.939  0.551  0.526-  77 1.46  46 1.80  45 1.81  60 2.12   9 2.96
  32  0.737  0.789  0.490-  61 1.63  76 1.76  69 1.99  77 2.03  21 2.99  27 3.06
  33  0.798  0.453  0.071-   1 1.91  23 2.04   8 2.04
  34  0.140  0.473  0.074-   6 1.85  20 1.96  23 2.10
  35  0.447  0.462  0.038-  20 1.77   3 1.89
  36  0.799  0.052  0.327-  15 1.85  17 2.01   2 2.02
  37  0.628  0.281  0.320-   5 1.82   2 1.86  16 1.91
  38  0.944  0.301  0.304-   1 1.74   2 1.98
  39  0.311  0.218  0.073-   3 1.77   5 1.86   4 2.10
  40  0.614  0.225  0.057-   3 1.80   2 1.82   8 1.87
  41  0.942  0.189  0.048-   7 1.69   8 2.04
  42  0.321  0.304  0.320-   6 1.86  11 1.96   5 2.00
  43  0.113  0.030  0.316-  22 1.91  12 1.93  17 1.97
  44  0.465  0.046  0.318-   5 1.79  22 1.91
  45  0.831  0.457  0.580-   9 1.70  31 1.81  16 2.27
  46  0.127  0.480  0.557-  28 1.76  31 1.80  14 2.25
  47  0.436  0.441  0.548-  11 1.66  28 1.87
  48  0.832  0.051  0.818-  25 1.76   7 1.81  10 1.83
  49  0.606  0.296  0.797-   8 1.88  10 1.97  13 2.09
  50  0.925  0.307  0.794-   9 1.78  10 1.83
  51  0.306  0.206  0.572-  11 1.84  13 1.87  12 1.96
  52  0.639  0.220  0.575-  16 1.66  10 1.92  11 2.01
  53  0.920  0.193  0.541-  16 1.69  15 1.73
  54  0.306  0.296  0.805-  13 1.77  14 2.03   3 2.09
  55  0.123  0.014  0.812-  30 1.84  25 1.95   4 2.08
  56  0.429  0.043  0.791-  13 1.67  30 1.69
  57  0.823  0.950  0.075-  17 1.61   7 1.83  24 1.99
  58  0.118  0.982  0.066-   4 1.86  22 1.92   7 1.96
  59  0.439  0.958  0.068-   4 1.67  19 1.94
  60  0.845  0.550  0.319-   1 1.64  18 1.88  31 2.12
  61  0.655  0.763  0.332-  32 1.63  18 1.84  21 2.12
  62  0.921  0.788  0.299-  18 1.67  17 2.07
  63  0.298  0.710  0.054-  19 1.69  20 2.02  21 2.05
  64  0.626  0.724  0.069-  18 1.81  24 1.86  19 2.08
  65  0.948  0.710  0.055-  24 1.76  23 1.88
  66  0.302  0.799  0.299-  21 1.63  27 1.97  22 1.99
  67  0.098  0.526  0.303-   1 1.70   6 1.96  28 2.14
  68  0.429  0.550  0.298-   6 1.79  21 1.85
  69  0.814  0.953  0.563-  15 1.78  25 1.92  32 1.99
  70  0.117  0.995  0.571-  15 1.64  30 1.92  12 1.96
  71  0.451  0.939  0.555-  27 1.68  12 1.91
  72  0.818  0.564  0.820-  26 1.59  23 1.73   9 1.95
  73  0.636  0.759  0.815-  26 1.92  24 1.98  29 2.09
  74  0.939  0.798  0.798-  25 1.71  26 1.81
  75  0.303  0.713  0.560-  27 1.92  28 1.92  29 1.98
  76  0.632  0.733  0.564-  32 1.76  27 1.87  26 1.95
  77  0.937  0.680  0.545-  31 1.46  32 2.03
  78  0.307  0.793  0.794-  29 1.62  30 1.91  19 2.08
  79  0.146  0.511  0.831-  20 1.66  14 1.91   9 1.94
  80  0.435  0.537  0.794-  14 1.36  29 1.82

  LATTYP: Found a simple monoclinic cell.
 ALAT       =    15.9476545966
 B/A-ratio  =     0.6987547876
 C/A-ratio  =     1.5833429409
 COS(beta)  =    -0.9717709890

  Lattice vectors:

 A1 = ( -12.3942402100,   0.0000000000, -10.0354619600)
 A2 = (   0.0000000000, -11.1435000000,   0.0000000000)
 A3 = (  15.3215904200,   0.0000000000,  20.0709239200)

Analysis of symmetry for initial positions (statically):
 Subroutine PRICEL returns:
 Original cell was already a primitive cell.

 Routine SETGRP: Setting up the symmetry group for a
 simple monoclinic supercell.

 Subroutine GETGRP returns: Found  1 space group operations
 (whereof  1 operations were pure point group operations)
 out of a pool of  4 trial point group operations.

The static configuration has the point symmetry C_1 .

Analysis of symmetry for dynamics (positions and initial velocities):
 Subroutine PRICEL returns:
 Original cell was already a primitive cell.

[...]

The dynamic configuration has the point symmetry C_1 .

Analysis of structural, dynamic, and magnetic symmetry:
 Subroutine PRICEL returns:
 Original cell was already a primitive cell.

 Routine SETGRP: Setting up the symmetry group for a
 simple monoclinic supercell.

 Subroutine GETGRP returns: Found  1 space group operations
 (whereof  1 operations were pure point group operations)
 out of a pool of  4 trial point group operations.

The magnetic configuration has the point symmetry C_1 .

 Subroutine INISYM returns: Found  1 space group operations
 (whereof  1 operations are pure point group operations),
 and found     1 'primitive' translations

 KPOINTS: Automatic mesh

Automatic generation of k-mesh.
Space group operators:
 irot       det(A)        alpha          n_x          n_y          n_z        tau_x        tau_y        tau_z
    1     1.000000     0.000000     1.000000     0.000000     0.000000     0.000000     0.000000     0.000000

 Subroutine IBZKPT returns following result:

 Found     19 irreducible k-points:

 Following reciprocal coordinates:
            Coordinates               Weight
  0.000000  0.000000  0.000000      1.000000
  0.250000  0.000000 -0.000000      2.000000
  0.500000  0.000000 -0.000000      1.000000
  0.000000  0.333333  0.000000      2.000000
  0.250000  0.333333 -0.000000      2.000000
  0.500000  0.333333 -0.000000      2.000000
 -0.250000  0.333333  0.000000      2.000000
  0.000000  0.000000  0.333333      2.000000
  0.250000  0.000000  0.333333      2.000000
  0.500000  0.000000  0.333333      2.000000
 -0.250000  0.000000  0.333333      2.000000
  0.000000  0.333333  0.333333      2.000000
  0.250000  0.333333  0.333333      2.000000
  0.500000  0.333333  0.333333      2.000000
 -0.250000  0.333333  0.333333      2.000000
  0.000000 -0.333333  0.333333      2.000000
  0.250000 -0.333333  0.333333      2.000000
  0.500000 -0.333333  0.333333      2.000000
 -0.250000 -0.333333  0.333333      2.000000

 Following cartesian coordinates:
            Coordinates               Weight
  0.000000  0.000000  0.000000      1.000000
  0.026408  0.000000  0.017208      2.000000
  0.052816  0.000000  0.034417      1.000000
  0.000000  0.029913  0.000000      2.000000
  0.026408  0.029913  0.017208      2.000000
  0.052816  0.029913  0.034417      2.000000
 -0.026408  0.029913 -0.017208      2.000000
  0.000000  0.000000  0.033216      2.000000
  0.026408  0.000000  0.050424      2.000000
  0.052816  0.000000  0.067633      2.000000
 -0.026408  0.000000  0.016007      2.000000
  0.000000  0.029913  0.033216      2.000000
  0.026408  0.029913  0.050424      2.000000
  0.052816  0.029913  0.067633      2.000000
 -0.026408  0.029913  0.016007      2.000000
  0.000000 -0.029913  0.033216      2.000000
  0.026408 -0.029913  0.050424      2.000000
  0.052816 -0.029913  0.067633      2.000000
 -0.026408 -0.029913  0.016007      2.000000

 SYSTEM =  unknown system
 POSCAR =  Ni2O3_Cc_scale_1_000_disp_0_10_round_2

 Startparameter for this run:
[...]
   0.122E+03 -.594E+02 0.118E+03   -.134E+03 0.655E+02 -.125E+03   0.125E+02 -.699E+01 0.674E+01   0.184E-01 0.535E-01 0.119E+00
   0.838E+02 0.127E+03 0.180E+02   -.939E+02 -.139E+03 -.191E+02   0.712E+01 0.121E+02 0.221E+01   0.937E-01 0.480E-01 -.910E-01
   -.187E+03 -.140E+03 -.127E+03   0.204E+03 0.150E+03 0.137E+03   -.167E+02 -.106E+02 -.888E+01   -.106E+00 0.264E-01 -.417E-04
   0.177E+03 0.360E+02 0.769E+02   -.191E+03 -.351E+02 -.806E+02   0.137E+02 0.309E+00 0.484E+01   0.372E-01 -.981E-01 -.147E-01
   0.253E+02 -.131E+03 -.166E+02   -.282E+02 0.141E+03 0.149E+02   0.258E+01 -.112E+02 0.258E+01   0.494E-01 -.305E-01 0.147E-01
   -.211E+03 0.124E+03 -.155E+03   0.230E+03 -.134E+03 0.166E+03   -.178E+02 0.961E+01 -.102E+02   -.991E-01 0.783E-01 0.303E-01
   0.767E+02 -.141E+02 0.138E+03   -.797E+02 0.132E+02 -.152E+03   0.401E+01 -.364E-01 0.949E+01   -.849E-01 -.399E-01 0.281E-01
   0.260E+02 0.109E+03 0.295E+02   -.297E+02 -.120E+03 -.346E+02   0.352E+01 0.114E+02 0.552E+01   0.122E+00 -.495E-01 -.824E-02
   -.206E+03 -.153E+02 -.130E+03   0.224E+03 0.161E+02 0.144E+03   -.173E+02 -.290E+01 -.141E+02   -.223E-01 -.695E-01 -.601E-01
   0.164E+03 0.172E+02 -.103E+01   -.176E+03 -.138E+02 0.718E+01   0.916E+01 -.100E+01 -.505E+01   -.160E+00 -.269E-01 0.776E-01
[...]
   -.932E+02 -.155E+03 0.111E+02   0.100E+03 0.171E+03 -.113E+02   -.429E+01 -.164E+02 0.146E+01   -.643E-01 0.612E-01 -.379E-01
   -.172E+03 0.807E+02 -.122E+03   0.187E+03 -.867E+02 0.132E+03   -.158E+02 0.702E+01 -.973E+01   0.238E+00 0.222E+00 0.219E-01
   0.119E+03 -.216E+02 0.618E+02   -.130E+03 0.236E+02 -.664E+02   0.109E+02 -.364E+01 0.544E+01   0.380E-01 0.420E-02 0.203E-01
   -.827E+02 0.121E+03 0.388E+02   0.925E+02 -.130E+03 -.387E+02   -.639E+01 0.753E+01 0.134E+01   -.113E+00 0.404E-01 0.880E-01
   -.965E+02 -.141E+03 -.149E+03   0.107E+03 0.154E+03 0.162E+03   -.120E+02 -.110E+02 -.133E+02   0.696E-01 0.164E+00 0.861E-01
   0.744E+02 0.164E+03 0.572E+02   -.806E+02 -.179E+03 -.595E+02   0.711E+01 0.111E+02 0.344E+01   0.429E-01 0.597E-01 -.153E+00
   0.401E+02 -.129E+03 0.432E+02   -.423E+02 0.137E+03 -.480E+02   0.157E+01 -.896E+01 0.552E+01   -.146E-01 0.368E-01 0.622E-01
   -.148E+03 0.848E+02 -.140E+03   0.161E+03 -.935E+02 0.151E+03   -.140E+02 0.802E+01 -.122E+02   0.554E-01 0.523E-01 -.878E-02
   0.925E+02 -.103E+03 0.924E+02   -.102E+03 0.112E+03 -.972E+02   0.103E+02 -.101E+02 0.496E+01   -.107E+00 0.997E-01 0.149E+00
   0.478E+02 0.134E+03 0.978E+00   -.517E+02 -.144E+03 -.171E+00   0.302E+01 0.100E+02 -.337E-02   0.242E+00 -.180E-01 0.260E-01
   -.757E+02 -.261E+03 -.114E+03   0.806E+02 0.294E+03 0.123E+03   -.730E+01 -.208E+02 -.741E+01   -.977E-01 0.387E-01 0.423E-01
   0.138E+03 -.268E+02 0.326E+02   -.153E+03 0.303E+02 -.340E+02   0.124E+02 -.150E+00 0.342E+01   -.532E-01 0.549E-01 0.114E+00
   0.474E+02 -.425E+02 0.108E+03   -.493E+02 0.451E+02 -.121E+03   0.167E+01 -.335E+01 0.106E+02   0.604E-01 -.159E-02 -.313E-01
   -.353E+03 -.137E+02 -.120E+03   0.400E+03 0.250E+02 0.131E+03   -.274E+02 0.130E+01 -.910E+01   -.762E-01 -.124E-02 0.726E-01
   0.638E+02 0.315E+02 0.118E+02   0.114E-12 -.274E-12 0.426E-12   -.642E+02 -.317E+02 -.121E+02   0.408E+00 0.255E+00 0.279E+00

 POSITION                                       TOTAL-FORCE (eV/Angst)
      6.98986      5.04001      2.61345         0.735699     -2.772721     -2.298338
      5.35298      2.39406      2.38392         1.285882     -0.290891      1.198107
      3.87591      3.28304      0.11322         0.268929      1.558222     -1.254132
      2.37883      0.40504      0.18353        -1.427107      0.944733     -0.941102
      2.42271      2.19633      2.57846        -0.954714      0.235043      0.300559
      0.70040      5.12163      2.58075         0.496158      0.322505     -0.355690
      1.96286      0.52702      9.92968         0.723422     -1.424736      0.552970
      0.47506      3.20646      9.88321         1.165523      0.399112      0.470470
      3.76681      5.12589      7.48774        -0.204546     -0.643579      2.023521
      2.16825      2.28093      7.67285         0.221423      1.373785     -0.279477
      0.58196      3.29489      5.13503         0.397887     -1.952873     -0.941322
     -0.83811      0.44057      5.09240         0.288060     -0.029897     -0.365771
     -1.14861      2.11434      7.57043         0.707997      2.015094     -0.655726
     -2.24906      5.30647      7.82475       -20.751958    -12.914218     -2.919457
      5.41722      0.46797      5.12495        -2.548825      1.315833     -2.102140
      3.72431      2.96626      5.10631         1.877066      1.076923     -1.715270
      6.87027     10.73273      2.30250        -1.154244      0.432518      5.243706
      5.50844      7.81076      2.48425        -0.229589     -0.986745     -0.074142
     -2.82134      8.87519      9.98038         2.113654      1.695763     -0.218422
     -4.05355      5.98152      9.97264        -0.566283      1.101425      3.540178
      2.14150      7.93268      2.56606         2.840627     -3.317748     -1.599270
      0.71029     10.84303      2.58166         0.327085      0.036019      0.187968
      2.06097      6.14417      9.92575        -0.315123     -0.256814      2.781997
      7.12358      8.71075      0.10374         0.454108     -0.140352     -0.753864
      3.64540     10.53254      7.53074         1.487930      0.478691     -0.531198
      2.35563      7.72149      7.54819        -0.371910      5.578293     -2.491595
      0.72289      8.90462      4.95831        -0.499420     -1.541619     -0.221074
     -0.88645      6.07900      5.16550         1.741276      0.264286     -1.064061
     -1.16799      7.75086      7.55463         3.941641     -2.349093     -1.493037
     -2.48122     10.70154      7.61390        -1.078253     -1.037337     -0.510146
      5.44845      6.13828      5.27511         1.385786    -11.098448     -1.774808
      3.77636      8.78826      4.91872         1.088004      1.155094      3.300244
      7.09133      5.05057      0.71000         1.204752     -0.647537     -0.341719
      0.84452      5.27172      0.74400        -0.513820      0.960479     -0.131428
      3.98364      5.14926      0.37682        -0.611436     -1.135926     -0.397744
      5.42935      0.58463      3.27890         1.419597      0.298620     -0.963343
      3.85548      3.13476      3.20764         0.408810     -0.463553      0.806237
      6.94782      3.35589      3.04616        -1.801155     -0.284799     -0.913372
      2.46320      2.42608      0.73759        -0.053195     -1.429372      0.066803
      5.43696      2.50373      0.57016         0.592598      0.166798      0.404540
      8.60833      2.10279      0.48189        -1.772197      1.944292     -0.513722
      0.94537      3.38626      3.21182         0.314007      0.012888      0.813514
     -0.99367      0.33009      3.16971         0.202081     -0.979786      0.454771
      2.32443      0.51271      3.19204        -1.511144      0.193263     -0.914961
      4.07256      5.09791      5.81834         0.689828     -0.234827     -1.683196
     -2.43392      5.35275      5.58663        -0.713511     -0.024570      1.417328
      0.54413      4.91326      5.49607        -1.409886      2.330455     -0.140762
      2.52459      0.56538      8.20985        -0.533460      0.295146     -0.204027
      0.51870      3.29978      8.00255         0.204336     -1.568519      0.855304
      3.56296      3.42081      7.96676        -0.846654      0.370633     -0.207280
     -0.84367      2.29235      5.73815         0.884371     -0.865184     -0.137230
      2.29124      2.44663      5.76734        -2.839028     -0.073996      1.001055
      5.16955      2.15377      5.43327         0.125113     -0.052784      0.487118
     -2.36636      3.29501      8.07700        -0.019886      1.151105      1.072033
     -4.14220      0.15128      8.15039        -0.267243     -0.667307      0.910238
     -1.10899      0.48356      7.94121         0.773364     -0.442742      0.525751
      7.30227     10.58821      0.75325         0.930283     -0.988999     -3.871011
      0.68901     10.94375      0.66183         0.003288      0.620066      0.435246
      3.71137     10.67194      0.68506         0.808160     -2.140070     -0.676476
      5.91354      6.12535      3.20253        -2.873619      2.361568      1.171954
[...]
      0.90897      8.90699      2.99824        -2.085003      2.765355      1.637639
     -1.05823      5.86130      3.04439         2.832137     -0.020305      1.232212
      2.11298      6.13397      2.98894        -0.798470      1.182107     -0.492674
      4.02878     10.62318      5.64760        -0.370362     -1.596727      0.847881
     -2.62510     11.08630      5.73388         3.360084     -0.982844      1.532140
      0.63970     10.46867      5.56638        -1.472972      2.019516     -0.268509
      2.38440      6.28861      8.23103         1.010658     -4.580465      1.022020
      0.69512      8.45578      8.18010        -0.617311     -0.698190      0.704229
      3.66443      8.88839      8.01327        -0.856323     -0.606239     -0.389265
     -0.79556      7.94353      5.62105         0.676313     -1.157395      0.308909
      2.29698      8.17341      5.65656        -0.589041     -0.020738      0.828948
      5.30466      7.57953      5.47225        -2.445206     11.448330      1.314276
     -2.28971      8.83893      7.96653        -2.766817      3.406130      2.137031
     -4.04813      5.69571      8.33589        -0.125611     -0.792139     -2.942602
     -1.08135      5.98214      7.97283        20.081353     12.628531      2.357388
    total drift:                               -0.021485     -0.010326      0.015862

  FREE ENERGIE OF THE ION-ELECTRON SYSTEM (eV)
  free  energy   TOTEN  =      -466.4994506946 eV

  energy  without entropy=     -466.4005539035  energy(sigma->0) =     -466.45000230

volume of typ            1:    19.3 %

volume of typ            2:     7.4 %

total charge

# of ion       s       p       d       tot
    1        0.341   0.444   7.841   8.627
    2        0.241   0.259   7.859   8.360
    3        0.267   0.297   7.846   8.410
    4        0.267   0.289   7.840   8.395
    5        0.270   0.309   7.824   8.403
    6        0.266   0.296   7.823   8.385
    7        0.288   0.342   7.880   8.510
    8        0.234   0.235   7.830   8.300
    9        0.278   0.323   7.883   8.484
   10        0.250   0.276   7.853   8.379
   11        0.276   0.311   7.858   8.444
   12        0.227   0.231   7.853   8.311
   13        0.293   0.347   7.851   8.492
   14        0.369   0.473   8.036   8.877
   15        0.329   0.428   7.853   8.609
   16        0.297   0.342   7.892   8.531
   17        0.266   0.296   7.882   8.444
   18        0.300   0.360   7.851   8.511
   19        0.252   0.262   7.867   8.380
   20        0.289   0.331   7.861   8.482
   21        0.277   0.308   7.858   8.443
   22        0.238   0.244   7.821   8.302
   23        0.244   0.255   7.872   8.371
   24        0.257   0.280   7.840   8.377
   25        0.281   0.333   7.848   8.461
   26        0.306   0.376   7.882   8.564
   27        0.275   0.315   7.858   8.448
   28        0.252   0.272   7.850   8.374
   29        0.280   0.336   7.899   8.515
   30        0.277   0.327   7.871   8.475
   31        0.362   0.461   7.928   8.751
   32        0.293   0.338   7.896   8.527
   33        1.274   2.692   0.004   3.971
   34        1.277   2.697   0.005   3.980
   35        1.285   2.691   0.007   3.982
   36        1.274   2.700   0.005   3.980
   37        1.273   2.734   0.008   4.015
   38        1.287   2.678   0.006   3.971
   39        1.269   2.739   0.008   4.016
   40        1.266   2.760   0.010   4.036
   41        1.289   2.683   0.008   3.980
   42        1.271   2.712   0.006   3.989
   43        1.271   2.710   0.006   3.986
   44        1.283   2.686   0.006   3.974
   45        1.275   2.741   0.009   4.026
   46        1.278   2.733   0.008   4.020
   47        1.281   2.722   0.009   4.012
   48        1.260   2.787   0.010   4.058
   49        1.279   2.693   0.005   3.977
   50        1.282   2.697   0.007   3.986
   51        1.271   2.726   0.007   4.004
   52        1.274   2.753   0.010   4.036
   53        1.284   2.730   0.011   4.025
   54        1.275   2.709   0.006   3.989
   55        1.276   2.705   0.006   3.987
   56        1.279   2.759   0.013   4.050
   57        1.267   2.789   0.013   4.068
   58        1.274   2.717   0.006   3.997
   59        1.282   2.707   0.008   3.997
   60        1.278   2.757   0.010   4.046
[...]
   66        1.271   2.762   0.011   4.044
   67        1.280   2.724   0.008   4.012
   68        1.282   2.692   0.007   3.980
   69        1.274   2.726   0.007   4.006
   70        1.274   2.766   0.011   4.052
   71        1.282   2.711   0.008   4.001
   72        1.267   2.817   0.017   4.101
   73        1.278   2.688   0.004   3.970
   74        1.281   2.717   0.009   4.007
   75        1.271   2.712   0.006   3.988
   76        1.270   2.751   0.008   4.029
   77        1.295   2.770   0.018   4.083
   78        1.269   2.768   0.011   4.048
   79        1.270   2.772   0.011   4.052
   80        1.301   2.844   0.030   4.176
tot          70.23  141.32  252.13  463.68

magnetization (x)

# of ion       s       p       d       tot
    1       -0.001  -0.010  -0.455  -0.466
    2        0.004   0.012   0.528   0.544
    3        0.005   0.019   1.014   1.038
    4        0.007   0.020   1.150   1.177
    5        0.003   0.028   1.260   1.291
    6        0.001   0.015   0.850   0.866
    7        0.001   0.005   0.240   0.246
    8        0.000   0.019   1.223   1.242
    9        0.002   0.006   0.410   0.417
   10        0.003   0.013   0.979   0.995
   11        0.003   0.004   0.442   0.449
   12        0.001   0.015   1.122   1.138
   13        0.003   0.009   0.661   0.673
   14       -0.012  -0.009  -0.267  -0.288
   15        0.001   0.002   0.106   0.109
   16        0.000   0.003   0.056   0.059
   17       -0.007  -0.006  -0.584  -0.597
   18       -0.001   0.012   0.755   0.766
   19       -0.008  -0.014  -0.845  -0.867
   20        0.000   0.017   0.815   0.832
   21       -0.006  -0.015  -1.039  -1.060
   22        0.000   0.021   1.309   1.330
   23       -0.000   0.012   0.888   0.899
   24        0.004   0.016   0.945   0.965
   25        0.003   0.010   0.575   0.588
   26       -0.002  -0.008  -0.487  -0.497
   27        0.004   0.016   0.937   0.957
   28        0.005   0.016   1.122   1.143
   29       -0.001   0.003   0.313   0.315
   30       -0.001  -0.004  -0.238  -0.243
   31        0.005   0.006   0.356   0.367
   32        0.000  -0.007  -0.205  -0.212
   33        0.003   0.100   0.000   0.103
   34        0.008   0.280   0.000   0.288
   35        0.008   0.337   0.000   0.345
   36        0.001  -0.007   0.000  -0.006
   37        0.006   0.170   0.000   0.176
   38       -0.001  -0.109   0.000  -0.110
   39        0.009   0.265   0.000   0.275
   40        0.007   0.181   0.000   0.188
   41        0.007   0.309  -0.000   0.315
   42        0.009   0.210   0.000   0.219
   43        0.006   0.224   0.000   0.229
   44        0.011   0.495   0.000   0.506
   45        0.003   0.061   0.000   0.064
   46        0.005   0.137   0.000   0.142
   47        0.007   0.279   0.000   0.285
   48        0.005   0.097   0.000   0.103
   49        0.009   0.326   0.000   0.336
   50        0.008   0.309   0.000   0.317
   51        0.007   0.133   0.000   0.140
   52        0.006   0.088   0.000   0.094
   53        0.002   0.050   0.000   0.051
   54        0.006   0.171   0.000   0.177
   55        0.007   0.166   0.000   0.173
   56        0.001   0.062   0.000   0.064
   57        0.001  -0.080  -0.000  -0.079
   58        0.008   0.252   0.000   0.261
   59        0.004   0.198   0.000   0.202
   60        0.000  -0.005  -0.000  -0.005
[...]
   66        0.002  -0.044  -0.000  -0.042
   67        0.005   0.176  -0.000   0.181
   68       -0.002  -0.149   0.000  -0.151
   69        0.002   0.024   0.000   0.026
   70        0.003   0.062  -0.000   0.064
   71        0.010   0.407   0.000   0.417
   72        0.002  -0.007  -0.000  -0.005
   73        0.002   0.100   0.000   0.102
   74        0.001   0.052   0.000   0.053
   75        0.008   0.220   0.000   0.228
   76        0.002   0.000  -0.000   0.002
   77        0.003   0.132   0.000   0.135
   78       -0.000  -0.000   0.000  -0.001
   79        0.005   0.094   0.000   0.099
   80       -0.001  -0.091  -0.001  -0.093
tot           0.22    6.45   13.94   20.61