 vasp.5.4.4.18Apr17-6-g9f103f2a35 (build May 12 2020 04:58:55) complex

 MD_VERSION_INFO: Compiled 2020-05-12T11:58:55-UTC in devlin.sd.materialsdesign.
 com:/home/medea2/data/build/wwolf/vasp-gpu5.4.4/13047/x86_64/src/src/build/std
 from svn 13047

 executed on                        Lin64 date 2023.03.25  19:11:15

 INCAR:
 POTCAR:    PAW_PBE Ni 02Aug2007
 POTCAR:    PAW_PBE O 08Apr2002

 POTCAR:    PAW_PBE Ni 02Aug2007

 POTCAR:    PAW_PBE O 08Apr2002

 Optimization of the real space projectors (new method)

 maximal supplied QI-value         = 16.25
 optimisation between [QCUT,QGAM] = [ 11.38, 22.75] = [ 36.24,144.96] Ry
 Optimized for a Real-space Cutoff    1.47 Angstroem

   l    n(q)    QCUT    max X(q) W(low)/X(q) W(high)/X(q)  e(spline)
   2      9    11.376    60.317    0.17E-03    0.16E-04    0.16E-06
   2      9    11.376    55.921    0.17E-03    0.16E-04    0.17E-06
   0     10    11.376    51.690    0.45E-04    0.60E-04    0.21E-06
   0     10    11.376    30.015    0.37E-04    0.55E-04    0.19E-06
   1     10    11.376    18.849    0.83E-04    0.11E-03    0.92E-07
   1     10    11.376    14.624    0.69E-04    0.92E-04    0.82E-07
 Optimization of the real space projectors (new method)

 maximal supplied QI-value         = 24.76
 optimisation between [QCUT,QGAM] = [ 11.39, 22.77] = [ 36.31,145.25] Ry
 Optimized for a Real-space Cutoff    1.10 Angstroem

   l    n(q)    QCUT    max X(q) W(low)/X(q) W(high)/X(q)  e(spline)
   0      7    11.387    20.381    0.22E-03    0.48E-03    0.18E-06
   0      7    11.387    15.268    0.22E-03    0.52E-03    0.19E-06
   1      7    11.387     5.964    0.22E-03    0.73E-03    0.24E-06
   1      7    11.387     5.382    0.19E-03    0.60E-03    0.21E-06

  PAW_PBE Ni 02Aug2007                  :
  PAW_PBE O 08Apr2002                   :

 POSCAR: Ni2O3_Cc_scale_1_000_disp_0_05_round_2
  positions in direct lattice
 exchange correlation table for  LEXCH =       14
   RHO(1)=    0.500       N(1)  =     2000
   RHO(2)=  100.500       N(2)  =     4000

 ion  position               nearest neighbor table
   1  0.918  0.454  0.252-  38 1.83  67 1.87  33 1.90  60 1.92   8 2.98
   2  0.744  0.203  0.257-  37 1.75  36 1.87  40 1.87  38 1.89  15 2.98  16 3.08
   3  0.418  0.292  0.003-  35 1.81  54 1.83  39 1.86  40 1.87   8 3.01  14 3.07
   4  0.255  0.043  0.002-  59 1.83  55 1.85  39 1.95  58 1.95   5 2.99
   5  0.403  0.200  0.244-  39 1.79  44 1.84  37 1.97  42 1.97   4 2.99  22 3.03
   6  0.261  0.458  0.262-  67 1.85  42 1.87  68 1.90  34 2.08  11 3.00  28 3.05  21 3.06
   7  0.917  0.049  0.999-  58 1.81  41 1.86  57 1.94  48 1.95  25 3.09
   8  0.742  0.297  0.011-  40 1.74  33 1.81  41 1.99  49 2.01   1 2.98   3 3.01
   9  0.909  0.454  0.753-  72 1.81  50 1.84  79 1.90  45 1.93  16 3.05  10 3.05
  10  0.752  0.214  0.750-  52 1.80  50 1.83  49 1.92  48 2.00  11 3.03   9 3.05  16 3.07
  11  0.425  0.298  0.503-  47 1.74  52 1.75  42 1.90  51 1.94   6 3.00  10 3.03
  12  0.246  0.042  0.503-  70 1.72  71 1.81  51 1.86  43 1.89  13 3.00  17 3.05
  13  0.404  0.201  0.745-  56 1.82  54 1.84  51 1.85  49 1.91  12 3.00
  14  0.254  0.457  0.757-  80 1.83  54 1.92  79 1.93  46 2.01  20 3.01   3 3.07
  15  0.915  0.049  0.500-  53 1.72  69 1.85  70 1.92  36 1.97   2 2.98
  16  0.762  0.292  0.508-  53 1.77  45 1.92  37 1.92  52 1.99   9 3.05  10 3.07   2 3.08
  17  0.919  0.951  0.258-  62 1.72  36 1.74  57 1.87  43 1.93  12 3.05
  18  0.753  0.700  0.254-  60 1.71  61 1.90  62 1.93  64 2.02  31 2.95
  19  0.419  0.792  1.000-  64 1.77  59 1.83  63 1.87  78 1.89  30 3.06
  20  0.261  0.542  0.999-  35 1.77  79 1.83  34 1.88  63 1.95  14 3.01
  21  0.407  0.701  0.254-  68 1.66  66 1.92  63 1.92  61 1.99   6 3.06
  22  0.262  0.962  0.264-  44 1.78  66 1.82  43 1.84  58 1.95   5 3.03  27 3.07
  23  0.915  0.547  0.002-  65 1.79  72 1.87  33 1.89  34 1.91  26 3.03  24 3.07
  24  0.754  0.787  0.000-  64 1.85  73 1.86  65 1.88  57 2.00  26 3.00  23 3.07
  25  0.917  0.955  0.757-  74 1.79  48 1.82  55 1.88  69 1.97   7 3.09
  26  0.751  0.708  0.759-  73 1.86  74 1.90  72 1.93  76 1.94  24 3.00  23 3.03
  27  0.411  0.794  0.505-  76 1.81  71 1.81  75 1.84  66 1.92  29 3.07  22 3.07
  28  0.253  0.535  0.503-  46 1.79  47 1.83  67 1.89  75 1.94   6 3.05
  29  0.415  0.703  0.749-  75 1.82  80 1.84  73 1.86  78 1.87  27 3.07
  30  0.247  0.951  0.750-  78 1.82  55 1.84  70 1.89  56 1.94  19 3.06
  31  0.906  0.546  0.493-  60 1.83  77 1.85  45 1.85  46 1.95  18 2.95
  32  0.764  0.792  0.508-  77 1.71  61 1.87  69 1.92  76 1.99
  33  0.807  0.451  0.064-   8 1.81  23 1.89   1 1.90
  34  0.128  0.478  0.057-  20 1.88  23 1.91   6 2.08
  35  0.438  0.447  0.056-  20 1.77   3 1.81
  36  0.814  0.045  0.306-  17 1.74   2 1.87  15 1.97
  37  0.631  0.266  0.319-   2 1.75  16 1.92   5 1.97
  38  0.935  0.297  0.303-   1 1.83   2 1.89
  39  0.308  0.208  0.068-   5 1.79   3 1.86   4 1.95
  40  0.634  0.229  0.074-   8 1.74   2 1.87   3 1.87
  41  0.948  0.208  0.054-   7 1.86   8 1.99
  42  0.295  0.296  0.314-   6 1.87  11 1.90   5 1.97
  43  0.130  0.029  0.316-  22 1.84  12 1.89  17 1.93
  44  0.445  0.042  0.297-  22 1.78   5 1.84
  45  0.806  0.458  0.562-  31 1.85  16 1.92   9 1.93
  46  0.126  0.473  0.558-  28 1.79  31 1.95  14 2.01
  47  0.441  0.450  0.544-  11 1.74  28 1.83
  48  0.795  0.042  0.805-  25 1.82   7 1.95  10 2.00
  49  0.618  0.275  0.812-  13 1.91  10 1.92   8 2.01
  50  0.948  0.296  0.807-  10 1.83   9 1.84
  51  0.309  0.199  0.563-  13 1.85  12 1.86  11 1.94
  52  0.621  0.228  0.571-  11 1.75  10 1.80  16 1.99
  53  0.933  0.193  0.557-  15 1.72  16 1.77
  54  0.319  0.296  0.822-   3 1.83  13 1.84  14 1.92
  55  0.133  0.017  0.821-  30 1.84   4 1.85  25 1.88
  56  0.446  0.047  0.804-  13 1.82  30 1.94
  57  0.816  0.954  0.073-  17 1.87   7 1.94  24 2.00
  58  0.123  0.982  0.071-   7 1.81  22 1.95   4 1.95
  59  0.436  0.951  0.042-   4 1.83  19 1.83
  60  0.810  0.557  0.313-  18 1.71  31 1.83   1 1.92
[...]
  66  0.302  0.805  0.316-  22 1.82  21 1.92  27 1.92
  67  0.127  0.525  0.315-   6 1.85   1 1.87  28 1.89
  68  0.446  0.557  0.299-  21 1.66   6 1.90
  69  0.811  0.956  0.563-  15 1.85  32 1.92  25 1.97
  70  0.135  0.982  0.566-  12 1.72  30 1.89  15 1.92
  71  0.428  0.950  0.554-  12 1.81  27 1.81
  72  0.810  0.544  0.817-   9 1.81  23 1.87  26 1.93
  73  0.621  0.779  0.815-  26 1.86  24 1.86  29 1.86
  74  0.941  0.798  0.794-  25 1.79  26 1.90
  75  0.309  0.699  0.568-  29 1.82  27 1.84  28 1.94
  76  0.618  0.731  0.567-  27 1.81  26 1.94  32 1.99
  77  0.933  0.703  0.549-  32 1.71  31 1.85
  78  0.311  0.798  0.813-  30 1.82  29 1.87  19 1.89
  79  0.122  0.527  0.818-  20 1.83   9 1.90  14 1.93
  80  0.441  0.546  0.804-  14 1.83  29 1.84

  LATTYP: Found a simple monoclinic cell.
 ALAT       =    15.9476545966
 B/A-ratio  =     0.6987547876
 C/A-ratio  =     1.5833429409
 COS(beta)  =    -0.9717709890

  Lattice vectors:

 A1 = ( -12.3942402100,   0.0000000000, -10.0354619600)
 A2 = (   0.0000000000, -11.1435000000,   0.0000000000)
 A3 = (  15.3215904200,   0.0000000000,  20.0709239200)

Analysis of symmetry for initial positions (statically):
 Subroutine PRICEL returns:
 Original cell was already a primitive cell.

 Routine SETGRP: Setting up the symmetry group for a
 simple monoclinic supercell.

 Subroutine GETGRP returns: Found  1 space group operations
 (whereof  1 operations were pure point group operations)
 out of a pool of  4 trial point group operations.

The static configuration has the point symmetry C_1 .

Analysis of symmetry for dynamics (positions and initial velocities):
 Subroutine PRICEL returns:
 Original cell was already a primitive cell.

[...]

The dynamic configuration has the point symmetry C_1 .

Analysis of structural, dynamic, and magnetic symmetry:
 Subroutine PRICEL returns:
 Original cell was already a primitive cell.

 Routine SETGRP: Setting up the symmetry group for a
 simple monoclinic supercell.

 Subroutine GETGRP returns: Found  1 space group operations
 (whereof  1 operations were pure point group operations)
 out of a pool of  4 trial point group operations.

The magnetic configuration has the point symmetry C_1 .

 Subroutine INISYM returns: Found  1 space group operations
 (whereof  1 operations are pure point group operations),
 and found     1 'primitive' translations

 KPOINTS: Automatic mesh

Automatic generation of k-mesh.
Space group operators:
 irot       det(A)        alpha          n_x          n_y          n_z        tau_x        tau_y        tau_z
    1     1.000000     0.000000     1.000000     0.000000     0.000000     0.000000     0.000000     0.000000

 Subroutine IBZKPT returns following result:

 Found     19 irreducible k-points:

 Following reciprocal coordinates:
            Coordinates               Weight
  0.000000  0.000000  0.000000      1.000000
  0.250000  0.000000 -0.000000      2.000000
  0.500000  0.000000 -0.000000      1.000000
  0.000000  0.333333  0.000000      2.000000
  0.250000  0.333333 -0.000000      2.000000
  0.500000  0.333333 -0.000000      2.000000
 -0.250000  0.333333  0.000000      2.000000
  0.000000  0.000000  0.333333      2.000000
  0.250000  0.000000  0.333333      2.000000
  0.500000  0.000000  0.333333      2.000000
 -0.250000  0.000000  0.333333      2.000000
  0.000000  0.333333  0.333333      2.000000
  0.250000  0.333333  0.333333      2.000000
  0.500000  0.333333  0.333333      2.000000
 -0.250000  0.333333  0.333333      2.000000
  0.000000 -0.333333  0.333333      2.000000
  0.250000 -0.333333  0.333333      2.000000
  0.500000 -0.333333  0.333333      2.000000
 -0.250000 -0.333333  0.333333      2.000000

 Following cartesian coordinates:
            Coordinates               Weight
  0.000000  0.000000  0.000000      1.000000
  0.026408  0.000000  0.017208      2.000000
  0.052816  0.000000  0.034417      1.000000
  0.000000  0.029913  0.000000      2.000000
  0.026408  0.029913  0.017208      2.000000
  0.052816  0.029913  0.034417      2.000000
 -0.026408  0.029913 -0.017208      2.000000
  0.000000  0.000000  0.033216      2.000000
  0.026408  0.000000  0.050424      2.000000
  0.052816  0.000000  0.067633      2.000000
 -0.026408  0.000000  0.016007      2.000000
  0.000000  0.029913  0.033216      2.000000
  0.026408  0.029913  0.050424      2.000000
  0.052816  0.029913  0.067633      2.000000
 -0.026408  0.029913  0.016007      2.000000
  0.000000 -0.029913  0.033216      2.000000
  0.026408 -0.029913  0.050424      2.000000
  0.052816 -0.029913  0.067633      2.000000
 -0.026408 -0.029913  0.016007      2.000000

 SYSTEM =  unknown system
 POSCAR =  Ni2O3_Cc_scale_1_000_disp_0_05_round_2

 Startparameter for this run:
   NWRITE =      1    write-flag & timer
   PREC   = accura    normal or accurate (medium, high low for compatibility)
   ISTART =      0    job   : 0-new  1-cont  2-samecut
   ICHARG =      2    charge: 1-file 2-atom 10-const
   ISPIN  =      2    spin polarized calculation?
   LNONCOLLINEAR =      F non collinear calculations
   LSORBIT =      F    spin-orbit coupling
   INIWAV =      1    electr: 0-lowe 1-rand  2-diag
   LASPH  =      F    aspherical Exc in radial PAW
[...]
   0.912E+02 -.936E+02 0.899E+02   -.980E+02 0.101E+03 -.972E+02   0.718E+01 -.748E+01 0.749E+01   0.124E+00 0.333E+00 -.322E-03
   -.421E+02 0.148E+03 0.590E+02   0.467E+02 -.160E+03 -.653E+02   -.340E+01 0.129E+02 0.632E+01   0.917E-02 0.152E+00 -.671E-02
   -.133E+03 -.105E+03 -.160E+03   0.144E+03 0.113E+03 0.172E+03   -.121E+02 -.766E+01 -.129E+02   -.133E+00 0.165E+00 -.238E-01
   0.115E+03 0.500E+02 0.917E+02   -.124E+03 -.535E+02 -.970E+02   0.899E+01 0.408E+01 0.503E+01   -.200E-01 0.881E-01 0.132E+00
   0.132E+02 -.128E+03 0.353E+02   -.128E+02 0.138E+03 -.405E+02   -.629E+00 -.106E+02 0.492E+01   -.108E+00 0.324E+00 0.317E+00
   -.141E+03 0.942E+02 -.147E+03   0.153E+03 -.103E+03 0.157E+03   -.135E+02 0.940E+01 -.111E+02   0.176E+00 0.164E+00 0.191E+00
   0.100E+03 -.606E+02 0.996E+02   -.109E+03 0.648E+02 -.106E+03   0.955E+01 -.493E+01 0.671E+01   0.317E-01 0.456E-01 -.179E+00
   -.191E+02 0.136E+03 0.268E+02   0.213E+02 -.148E+03 -.287E+02   -.155E+01 0.122E+02 0.221E+01   0.577E-01 0.201E+00 -.307E-01
   -.143E+03 -.833E+02 -.139E+03   0.156E+03 0.903E+02 0.148E+03   -.141E+02 -.779E+01 -.881E+01   -.997E-01 0.364E+00 0.572E-01
   0.883E+02 0.115E+03 0.826E+02   -.951E+02 -.126E+03 -.871E+02   0.743E+01 0.946E+01 0.558E+01   0.164E+00 -.720E-02 -.547E+00
[...]
   0.136E+01 -.149E+03 0.506E+02   -.224E+01 0.162E+03 -.562E+02   0.587E+00 -.132E+02 0.542E+01   0.641E-01 -.117E+00 0.411E+00
   -.138E+03 0.151E+03 -.126E+03   0.151E+03 -.165E+03 0.136E+03   -.144E+02 0.125E+02 -.102E+02   -.104E+00 -.286E+00 0.404E-01
   0.136E+03 -.570E+02 0.712E+02   -.148E+03 0.621E+02 -.745E+02   0.122E+02 -.592E+01 0.374E+01   -.943E-01 0.178E+00 -.486E-01
   0.506E+02 0.134E+03 0.157E+02   -.549E+02 -.145E+03 -.175E+02   0.250E+01 0.115E+02 0.278E+01   -.658E-01 0.477E-01 -.811E-01
   -.167E+03 -.823E+02 -.136E+03   0.179E+03 0.893E+02 0.147E+03   -.133E+02 -.757E+01 -.121E+02   0.140E+00 -.167E-01 0.121E+00
   0.123E+03 0.537E+02 0.838E+02   -.134E+03 -.583E+02 -.888E+02   0.112E+02 0.537E+01 0.534E+01   -.808E-01 0.804E-03 -.306E+00
   -.886E+01 -.161E+03 0.332E+02   0.780E+01 0.175E+03 -.391E+02   0.110E+01 -.151E+02 0.636E+01   -.475E-02 -.132E+00 -.220E-01
   -.138E+03 0.116E+03 -.121E+03   0.150E+03 -.126E+03 0.129E+03   -.138E+02 0.104E+02 -.833E+01   -.210E+00 -.100E+00 0.660E-01
   0.125E+03 -.414E+02 0.999E+02   -.136E+03 0.456E+02 -.107E+03   0.116E+02 -.434E+01 0.696E+01   0.645E-01 -.475E+00 0.297E-01
   -.423E+02 0.117E+03 0.328E+02   0.463E+02 -.127E+03 -.369E+02   -.349E+01 0.105E+02 0.444E+01   -.175E+00 -.113E+00 0.190E+00
   -.171E+03 -.503E+02 -.151E+03   0.187E+03 0.534E+02 0.162E+03   -.160E+02 -.460E+01 -.111E+02   0.967E-01 0.295E+00 0.106E+00
   0.120E+03 0.833E+02 0.717E+02   -.129E+03 -.901E+02 -.756E+02   0.942E+01 0.720E+01 0.441E+01   0.226E+00 -.250E+00 -.979E-03
   0.204E+01 -.134E+03 0.737E+02   -.332E+01 0.146E+03 -.814E+02   0.136E+01 -.123E+02 0.729E+01   0.103E+00 -.191E+00 0.175E+00
   -.143E+03 0.899E+02 -.125E+03   0.155E+03 -.969E+02 0.136E+03   -.140E+02 0.763E+01 -.113E+02   0.275E-01 -.580E-01 -.127E+00
   0.559E+02 -.143E+02 0.167E+02   0.853E-13 0.121E-11 -.256E-12   -.564E+02 0.145E+02 -.166E+02   0.402E+00 -.258E+00 -.942E-01

 POSITION                                       TOTAL-FORCE (eV/Angst)
      7.03925      5.06092      2.52714        -0.181163     -0.726244      0.087392
      5.36149      2.26528      2.58301         2.131182      0.053688     -0.278769
      3.94347      3.25758      0.02556        -0.402028      0.359428      0.269499
      2.40041      0.48253      0.02149         0.679703     -0.347900      0.577433
      2.22201      2.22313      2.44529        -0.162174     -0.127340      1.178158
      0.75749      5.10318      2.63341         1.102507      0.515849     -0.612705
      2.14296      0.54094     10.02743        -0.833371      0.716781      0.105359
      6.95405      3.30824      0.11280         2.521900     -0.608091     -1.041715
      3.68386      5.05683      7.55338         0.435698     -0.561577     -0.169496
      2.21668      2.38459      7.52302         0.167526     -0.262729      1.175506
      0.73146      3.32447      5.05268        -1.098550     -0.210532     -0.684325
     -0.96396      0.47129      5.05248         2.165777      0.400293     -0.623865
     -1.05089      2.23959      7.47889         0.618119     -0.608081      0.535383
     -2.54868      5.09342      7.59575         0.829396      0.360624     -0.350338
      5.39250      0.54499      5.02004         0.184094     -0.667144     -0.243552
      3.89324      3.25941      5.10141         0.029509      0.223178     -0.086770
      7.00954     10.59937      2.58957         1.153914     -0.303333     -1.066187
      5.47097      7.80196      2.54945         0.716975      2.508460     -1.040770
     -2.56616      8.82667     10.03057        -0.919832      0.835284     -0.027198
     -4.05895      6.03867     10.02715        -0.050157      0.109021      0.684322
      2.18589      7.80901      2.55135         0.277108      2.070798     -0.573941
      0.75779     10.71840      2.64614         0.501532      0.353823     -0.672498
      8.64685      6.09783      0.01783         0.408558     -0.046049      0.233988
      7.13599      8.76824      0.00000         0.842590      0.344060      0.501304
      3.73133     10.64358      7.59532         0.195296     -0.395944     -0.549848
      2.14072      7.89205      7.61799         1.171094      0.302376     -0.351578
      0.58638      8.84293      5.07078        -0.116073      0.655428     -0.341515
     -0.89435      5.96616      5.04833         1.055479      0.284746      0.206294
     -0.96787      7.83637      7.51396        -0.337374     -0.530369      0.406713
     -2.56904     10.59635      7.53016         1.335196      0.752301      0.064088
      5.35812      6.07886      4.94293         0.057366      0.120543      0.797424
      3.90947      8.82247      5.09564        -0.518539      0.418527     -0.121586
      7.22681      5.02089      0.64013         0.621670      0.248023      0.306919
      0.83712      5.32456      0.57094        -0.328276      0.706754      0.911180
      3.78258      4.97617      0.56186        -0.706466     -0.337235     -0.652114
      5.70708      0.49761      3.07380        -0.634384      1.118293      1.117773
      3.88422      2.96195      3.19963        -1.410398     -0.208117      0.911109
      6.86859      3.30930      3.04013        -1.153573      0.690628     -0.681233
      2.47541      2.31875      0.67793         0.732248     -0.837804     -0.552130
      5.52241      2.55415      0.74217        -1.293519     -0.081433      0.366062
      8.62052      2.31312      0.53989        -1.509766     -0.612514     -0.990791
      0.73542      3.30248      3.15452         1.192687      0.157096      0.234849
     -0.83272      0.32768      3.17217        -0.438765     -0.789670      0.482827
      2.26714      0.46623      2.98128        -1.008811      0.903443     -0.582745
      3.94872      5.09976      5.64309         0.661527     -0.871654      0.426877
     -2.45302      5.27118      5.59694        -1.180572      0.523655      0.868282
      0.61185      5.01472      5.46086        -1.061134      0.315520     -0.448910
      2.26348      0.46288      8.08141         0.552707      1.000069      0.792077
      0.53529      3.06721      8.15338        -0.037883     -0.657025      0.672061
      3.69854      3.29962      8.09810        -1.173578      0.628500     -0.972822
     -0.75331      2.22187      5.65188         0.580713     -0.222885      0.204081
      2.14417      2.54054      5.73145         1.244812      0.448905      0.015639
      5.19243      2.15292      5.58755        -0.791966      0.452496     -0.424809
     -2.35240      3.29465      8.24433         0.266682      0.631254     -0.147012
     -4.10773      0.18688      8.23471        -0.310290     -0.491714      0.016202
     -1.03625      0.52210      8.06666        -1.750708      0.537304     -1.037046
      7.24004     10.62886      0.73694         0.903751     -0.655878     -0.033117
      0.70498     10.94280      0.71164         0.660338      0.559038      0.295235
      3.85735     10.59929      0.41816        -1.347760     -0.470122     -0.584687
      5.62116      6.20925      3.13969         0.818108     -1.284164      0.546420
[...]
      0.79338      8.97406      3.16789         0.970821     -0.205391      0.555542
     -0.85413      5.84720      3.16124        -0.225192     -0.549293      0.244366
      2.26299      6.20987      3.00451        -1.409398     -1.854167     -0.077228
      3.99432     10.65724      5.64802         0.425484     -0.725927      0.379737
     -2.42485     10.94835      5.67822        -1.834544     -0.104949      0.927161
      0.43149     10.58229      5.56003        -0.940718     -0.625630     -0.783914
      2.32706      6.06503      8.19579         0.137244      0.752177      0.081171
      0.55269      8.68196      8.17635         0.036120     -0.795596      0.375169
      3.71470      8.89563      7.96881        -1.362912      0.073128     -0.444884
     -0.78965      7.78850      5.70140         0.657545     -0.626660     -0.255518
      2.14064      8.14670      5.69162         0.359631      0.589719      0.564407
      5.24605      7.83495      5.50598        -0.174269     -1.213823     -0.345625
     -2.36957      8.89607      8.15415         0.470158      0.173521      0.430063
     -4.19878      5.86991      8.21264         0.191964     -0.794918     -0.220802
     -1.08243      6.08655      8.07151        -1.233025      0.615977     -0.889574
    total drift:                               -0.016918     -0.020935      0.001935

  FREE ENERGIE OF THE ION-ELECTRON SYSTEM (eV)
  free  energy   TOTEN  =      -476.2409259103 eV

  energy  without entropy=     -476.1309149801  energy(sigma->0) =     -476.18592045

volume of typ            1:    19.3 %

volume of typ            2:     7.4 %

total charge

# of ion       s       p       d       tot
    1        0.252   0.281   7.840   8.374
    2        0.272   0.316   7.846   8.434
    3        0.270   0.316   7.827   8.413
    4        0.249   0.269   7.832   8.350
    5        0.254   0.278   7.853   8.385
    6        0.243   0.254   7.828   8.324
    7        0.258   0.280   7.809   8.346
    8        0.263   0.293   7.831   8.387
    9        0.261   0.292   7.836   8.388
   10        0.257   0.282   7.823   8.362
   11        0.282   0.332   7.850   8.464
   12        0.285   0.342   7.852   8.479
   13        0.270   0.308   7.815   8.393
   14        0.239   0.251   7.833   8.324
   15        0.268   0.307   7.858   8.433
   16        0.244   0.264   7.866   8.374
   17        0.294   0.355   7.847   8.496
   18        0.259   0.288   7.861   8.408
   19        0.274   0.318   7.848   8.440
   20        0.268   0.305   7.819   8.391
   21        0.272   0.306   7.863   8.442
   22        0.273   0.314   7.831   8.418
   23        0.263   0.294   7.843   8.400
   24        0.249   0.270   7.828   8.347
   25        0.269   0.304   7.828   8.400
   26        0.243   0.260   7.829   8.333
   27        0.269   0.310   7.845   8.425
   28        0.264   0.300   7.819   8.383
   29        0.267   0.308   7.845   8.419
   30        0.256   0.285   7.842   8.382
   31        0.257   0.288   7.868   8.413
   32        0.268   0.302   7.835   8.405
   33        1.265   2.749   0.008   4.021
   34        1.277   2.699   0.006   3.982
   35        1.281   2.709   0.007   3.997
   36        1.269   2.748   0.009   4.026
   37        1.272   2.736   0.008   4.016
   38        1.284   2.668   0.006   3.958
   39        1.268   2.741   0.008   4.017
   40        1.269   2.763   0.010   4.041
   41        1.288   2.649   0.004   3.941
   42        1.271   2.716   0.006   3.993
   43        1.275   2.724   0.007   4.006
   44        1.284   2.696   0.007   3.986
   45        1.268   2.725   0.007   4.000
   46        1.271   2.723   0.007   4.001
   47        1.282   2.701   0.008   3.991
   48        1.270   2.721   0.006   3.997
   49        1.274   2.706   0.005   3.985
   50        1.283   2.682   0.006   3.972
   51        1.270   2.730   0.007   4.007
   52        1.271   2.750   0.010   4.031
   53        1.281   2.721   0.009   4.012
   54        1.264   2.749   0.008   4.021
   55        1.269   2.744   0.008   4.021
   56        1.288   2.665   0.005   3.957
   57        1.274   2.710   0.006   3.990
   58        1.272   2.724   0.007   4.003
   59        1.284   2.689   0.006   3.979
   60        1.267   2.767   0.011   4.044
[...]
   66        1.270   2.728   0.007   4.005
   67        1.268   2.741   0.008   4.016
   68        1.283   2.709   0.009   4.001
   69        1.269   2.724   0.006   3.999
   70        1.270   2.755   0.009   4.035
   71        1.285   2.689   0.007   3.981
   72        1.266   2.745   0.008   4.019
   73        1.270   2.739   0.008   4.017
   74        1.283   2.686   0.006   3.975
   75        1.269   2.737   0.008   4.013
   76        1.272   2.717   0.007   3.996
   77        1.283   2.708   0.008   3.998
   78        1.269   2.740   0.008   4.017
   79        1.271   2.732   0.007   4.010
   80        1.284   2.681   0.006   3.971
tot          69.60  139.94  251.20  460.74

magnetization (x)

# of ion       s       p       d       tot
    1        0.002   0.017   0.997   1.016
    2        0.001   0.014   0.651   0.666
    3        0.001  -0.013  -0.973  -0.985
    4        0.000   0.013   0.917   0.930
    5        0.001   0.013   0.797   0.812
    6        0.002   0.017   1.148   1.167
    7       -0.000   0.023   1.249   1.272
    8        0.001   0.018   1.031   1.050
    9        0.002   0.015   0.813   0.831
   10        0.002   0.021   1.085   1.107
   11        0.002   0.010   0.470   0.481
   12        0.000   0.010   0.550   0.560
   13        0.001   0.019   0.995   1.015
   14        0.002   0.016   1.105   1.123
   15        0.003   0.012   0.711   0.726
   16        0.001   0.004   0.185   0.190
   17        0.000  -0.001   0.053   0.052
   18        0.001   0.001   0.029   0.031
   19        0.001  -0.004  -0.109  -0.112
   20        0.000   0.019   0.886   0.905
   21        0.003   0.005   0.422   0.430
   22        0.002   0.015   0.764   0.780
   23        0.002   0.020   0.941   0.964
   24        0.001   0.019   1.051   1.071
   25        0.003   0.021   1.056   1.080
   26        0.003   0.020   1.088   1.111
   27        0.001   0.005   0.315   0.321
   28        0.001   0.020   1.025   1.047
   29        0.001   0.013   0.603   0.616
   30        0.000  -0.013  -0.848  -0.861
   31       -0.000  -0.006  -0.465  -0.471
   32        0.002   0.010   0.774   0.786
   33        0.010   0.201   0.000   0.212
   34        0.011   0.316   0.000   0.327
   35       -0.000  -0.036   0.000  -0.036
   36        0.005   0.077   0.000   0.081
   37        0.005   0.117   0.000   0.122
   38        0.009   0.401   0.000   0.411
   39        0.002   0.024   0.000   0.027
   40        0.003   0.048   0.000   0.051
   41        0.013   0.558   0.000   0.570
   42        0.008   0.178   0.000   0.186
   43        0.004   0.121   0.000   0.125
   44        0.007   0.322   0.000   0.329
   45        0.002  -0.016   0.000  -0.014
   46        0.006   0.171   0.000   0.177
   47        0.008   0.317   0.000   0.325
   48        0.009   0.244   0.000   0.254
   49        0.010   0.302   0.000   0.312
   50        0.009   0.389   0.000   0.398
   51        0.006   0.122   0.000   0.128
   52        0.006   0.125   0.000   0.131
   53        0.005   0.228   0.000   0.233
   54        0.002   0.020   0.000   0.023
   55        0.004   0.056   0.000   0.060
   56        0.004   0.186   0.000   0.190
   57        0.006   0.156   0.000   0.162
   58        0.009   0.273   0.000   0.282
   59        0.006   0.233  -0.000   0.239
   60        0.002  -0.012   0.000  -0.010
[...]
   66        0.005   0.064   0.000   0.068
   67        0.011   0.285   0.000   0.296
   68        0.006   0.262   0.000   0.268
   69        0.009   0.187   0.000   0.196
   70        0.002   0.027   0.000   0.029
   71        0.006   0.234   0.000   0.241
   72        0.009   0.176   0.000   0.185
   73        0.008   0.216   0.000   0.225
   74        0.010   0.433   0.000   0.444
   75        0.006   0.096   0.000   0.102
   76        0.008   0.195   0.000   0.204
   77        0.003   0.124   0.000   0.127
   78        0.001  -0.072   0.000  -0.071
   79        0.009   0.241   0.000   0.250
   80        0.009   0.387   0.000   0.396
tot           0.34    9.03   19.32   28.69