 vasp.5.4.4.18Apr17-6-g9f103f2a35 (build May 12 2020 04:58:55) complex

 MD_VERSION_INFO: Compiled 2020-05-12T11:58:55-UTC in devlin.sd.materialsdesign.
 com:/home/medea2/data/build/wwolf/vasp-gpu5.4.4/13047/x86_64/src/src/build/std
 from svn 13047

 executed on                        Lin64 date 2023.03.25  19:39:57

 INCAR:
 POTCAR:    PAW_PBE Ni 02Aug2007
 POTCAR:    PAW_PBE O 08Apr2002

 POTCAR:    PAW_PBE Ni 02Aug2007

 POTCAR:    PAW_PBE O 08Apr2002

 Optimization of the real space projectors (new method)

 maximal supplied QI-value         = 16.25
 optimisation between [QCUT,QGAM] = [ 11.38, 22.75] = [ 36.24,144.96] Ry
 Optimized for a Real-space Cutoff    1.47 Angstroem

   l    n(q)    QCUT    max X(q) W(low)/X(q) W(high)/X(q)  e(spline)
   2      9    11.376    60.317    0.17E-03    0.16E-04    0.16E-06
   2      9    11.376    55.921    0.17E-03    0.16E-04    0.17E-06
   0     10    11.376    51.690    0.45E-04    0.60E-04    0.21E-06
   0     10    11.376    30.015    0.37E-04    0.55E-04    0.19E-06
   1     10    11.376    18.849    0.83E-04    0.11E-03    0.92E-07
   1     10    11.376    14.624    0.69E-04    0.92E-04    0.82E-07
 Optimization of the real space projectors (new method)

 maximal supplied QI-value         = 24.76
 optimisation between [QCUT,QGAM] = [ 11.39, 22.77] = [ 36.31,145.25] Ry
 Optimized for a Real-space Cutoff    1.10 Angstroem

   l    n(q)    QCUT    max X(q) W(low)/X(q) W(high)/X(q)  e(spline)
   0      7    11.387    20.381    0.22E-03    0.48E-03    0.18E-06
   0      7    11.387    15.268    0.22E-03    0.52E-03    0.19E-06
   1      7    11.387     5.964    0.22E-03    0.73E-03    0.24E-06
   1      7    11.387     5.382    0.19E-03    0.60E-03    0.21E-06

  PAW_PBE Ni 02Aug2007                  :
  PAW_PBE O 08Apr2002                   :

 POSCAR: Ni2O3_Cc_scale_0_975_disp_0_20_round_2
  positions in direct lattice
 exchange correlation table for  LEXCH =       14
   RHO(1)=    0.500       N(1)  =     2000
   RHO(2)=  100.500       N(2)  =     4000

 ion  position               nearest neighbor table
   1  0.926  0.471  0.253-  67 1.60  38 1.75  60 1.99  33 2.15
   2  0.738  0.218  0.225-  40 1.63  37 1.82  36 1.97  38 2.32   3 2.92  17 2.97   8 2.98   5 2.99

   3  0.394  0.284  0.994-  39 1.50  54 1.66  35 1.68  40 2.32  14 2.84   5 2.87   2 2.92   4 3.01
                            13 3.05
   4  0.256  0.039  0.012-  55 1.75  39 1.81  58 1.84  59 1.92  22 2.75   7 2.75  19 2.94  30 2.96
                            25 2.97   5 2.98   3 3.01
   5  0.429  0.216  0.245-  37 1.70  39 1.85  44 1.93  42 2.07   3 2.87  22 2.88   4 2.98   2 2.99

   6  0.297  0.467  0.294-  42 1.36  68 1.93  67 1.95  34 2.03  11 2.72  28 2.86  21 3.07
   7  0.949  0.048  0.998-  48 1.59  58 1.69  57 1.94  41 2.28  25 2.33   4 2.75  22 2.97
   8  0.737  0.302  0.981-  49 1.34  33 1.55  40 1.66  41 2.04  13 2.72  10 2.94   2 2.98
   9  0.935  0.438  0.761-  79 1.49  50 1.76  45 1.92  72 2.19  14 2.69  20 2.77  16 2.89  10 2.89
                            23 3.00
  10  0.734  0.224  0.738-  52 1.34  50 1.78  49 2.08  48 2.26  25 2.82  16 2.85  13 2.88  11 2.89
                             9 2.89   8 2.94
  11  0.409  0.326  0.520-  47 1.46  51 1.69  42 2.26   6 2.72  10 2.89  13 2.96  28 2.98
  12  0.276  0.042  0.462-  71 1.41  43 1.48  51 2.25  70 2.32  22 2.56  27 2.82  17 2.90
  13  0.439  0.212  0.762-  49 1.62  56 1.80  54 1.95  51 2.01   8 2.72  10 2.88  11 2.96   3 3.05

  14  0.241  0.466  0.786-  54 1.77  79 1.82  46 1.92  80 2.02  20 2.21  35 2.34   9 2.69   3 2.84

[...]

  33  0.821  0.429  0.042-   8 1.55  23 2.09   1 2.15
  34  0.179  0.517  0.095-  63 1.93   6 2.03  20 2.11  23 2.27
  35  0.391  0.436  0.023-   3 1.68  20 1.88  14 2.34
  36  0.786  0.054  0.312-  17 1.90   2 1.97  15 2.09
  37  0.631  0.271  0.309-   5 1.70   2 1.82  16 2.10
  38  0.994  0.317  0.289-   1 1.75   2 2.32
  39  0.340  0.194  0.060-   3 1.50   4 1.81   5 1.85
  40  0.670  0.219  0.064-   2 1.63   8 1.66   3 2.32
  41  0.985  0.239  0.093-   8 2.04   7 2.28
  42  0.302  0.341  0.294-   6 1.36   5 2.07  11 2.26
  43  0.122  0.047  0.320-  12 1.48  17 1.72  22 2.14
  44  0.468  0.054  0.323-  22 1.62   5 1.93
  45  0.841  0.498  0.580-  31 1.65   9 1.92  16 2.44
  46  0.117  0.511  0.597-  31 1.67  14 1.92  28 2.29
  47  0.461  0.441  0.597-  11 1.46  28 2.12
  48  0.797  0.038  0.841-  25 1.45   7 1.59  10 2.26
  49  0.627  0.276  0.848-   8 1.34  13 1.62  10 2.08
  50  0.946  0.283  0.809-   9 1.76  10 1.78
  51  0.300  0.227  0.558-  11 1.69  13 2.01  12 2.25
  52  0.695  0.217  0.610-  10 1.34  16 1.74
  53  0.008  0.231  0.562-  16 1.96  15 2.02
  54  0.360  0.328  0.845-   3 1.66  14 1.77  13 1.95
  55  0.124  0.016  0.835-   4 1.75  25 1.90  30 2.00
  56  0.508  0.059  0.831-  13 1.80  30 2.06
  57  0.806  0.954  0.042-  24 1.73   7 1.94  17 2.09
  58  0.149  0.987  0.098-  22 1.54   7 1.69   4 1.84
  59  0.465  0.955  0.063-  19 1.70   4 1.92
  60  0.847  0.567  0.354-  31 1.62   1 1.99  18 2.03
  61  0.670  0.776  0.336-  32 1.60  18 1.62  21 2.10
  62  0.954  0.838  0.308-  17 1.68  18 2.00
  63  0.273  0.655  0.052-  20 1.44  34 1.93  21 2.06
  64  0.655  0.731  0.113-  18 1.35  19 2.09  24 2.20
  65  0.953  0.735  0.033-  24 1.73  23 1.89
  66  0.309  0.809  0.290-  21 1.61  22 1.94  27 2.19
  67  0.107  0.535  0.303-   1 1.60   6 1.95  28 2.00
  68  0.460  0.563  0.277-  21 1.72   6 1.93
  69  0.843  0.973  0.575-  15 1.63  32 2.01  25 2.25
  70  0.135  0.013  0.574-  15 1.52  30 2.12  12 2.32
  71  0.433  0.997  0.575-  12 1.41  27 2.17
  72  0.830  0.579  0.830-  23 1.36  26 1.59   9 2.19
  73  0.675  0.790  0.834-  24 1.61  26 1.84  29 2.20
  74  0.966  0.813  0.820-  26 1.87  25 2.02
  75  0.328  0.707  0.589-  28 1.65  29 1.69  27 1.99
  76  0.641  0.782  0.576-  27 1.65  32 1.71  26 1.93
  77  0.955  0.704  0.575-  31 1.43  32 1.99
  78  0.337  0.803  0.853-  19 1.31  29 1.81  30 1.88
  79  0.090  0.520  0.829-  20 1.38   9 1.49  14 1.82
  80  0.470  0.547  0.851-  14 2.02  29 2.15

  LATTYP: Found a simple monoclinic cell.
 ALAT       =    15.5489632352
 B/A-ratio  =     0.6987547874
 C/A-ratio  =     1.5833429408
 COS(beta)  =    -0.9717709890

  Lattice vectors:

 A1 = ( -12.0843842100,   0.0000000000,  -9.7845754100)
 A2 = (   0.0000000000, -10.8649125000,   0.0000000000)
 A3 = (  14.9385506700,   0.0000000000,  19.5691508200)

Analysis of symmetry for initial positions (statically):
 Subroutine PRICEL returns:
 Original cell was already a primitive cell.

 Routine SETGRP: Setting up the symmetry group for a
 simple monoclinic supercell.

 Subroutine GETGRP returns: Found  1 space group operations
 (whereof  1 operations were pure point group operations)
 out of a pool of  4 trial point group operations.

The static configuration has the point symmetry C_1 .

Analysis of symmetry for dynamics (positions and initial velocities):
 Subroutine PRICEL returns:
 Original cell was already a primitive cell.

[...]

The dynamic configuration has the point symmetry C_1 .

Analysis of structural, dynamic, and magnetic symmetry:
 Subroutine PRICEL returns:
 Original cell was already a primitive cell.

 Routine SETGRP: Setting up the symmetry group for a
 simple monoclinic supercell.

 Subroutine GETGRP returns: Found  1 space group operations
 (whereof  1 operations were pure point group operations)
 out of a pool of  4 trial point group operations.

The magnetic configuration has the point symmetry C_1 .

 Subroutine INISYM returns: Found  1 space group operations
 (whereof  1 operations are pure point group operations),
 and found     1 'primitive' translations

 KPOINTS: Automatic mesh

Automatic generation of k-mesh.
Space group operators:
 irot       det(A)        alpha          n_x          n_y          n_z        tau_x        tau_y        tau_z
    1     1.000000     0.000000     1.000000     0.000000     0.000000     0.000000     0.000000     0.000000

 Subroutine IBZKPT returns following result:

 Found     19 irreducible k-points:

 Following reciprocal coordinates:
            Coordinates               Weight
  0.000000  0.000000  0.000000      1.000000
  0.250000  0.000000  0.000000      2.000000
  0.500000  0.000000  0.000000      1.000000
  0.000000  0.333333  0.000000      2.000000
  0.250000  0.333333  0.000000      2.000000
  0.500000  0.333333  0.000000      2.000000
 -0.250000  0.333333 -0.000000      2.000000
  0.000000  0.000000  0.333333      2.000000
  0.250000  0.000000  0.333333      2.000000
  0.500000  0.000000  0.333333      2.000000
 -0.250000  0.000000  0.333333      2.000000
  0.000000  0.333333  0.333333      2.000000
  0.250000  0.333333  0.333333      2.000000
  0.500000  0.333333  0.333333      2.000000
 -0.250000  0.333333  0.333333      2.000000
  0.000000 -0.333333  0.333333      2.000000
  0.250000 -0.333333  0.333333      2.000000
  0.500000 -0.333333  0.333333      2.000000
 -0.250000 -0.333333  0.333333      2.000000

 Following cartesian coordinates:
            Coordinates               Weight
  0.000000  0.000000  0.000000      1.000000
  0.027085  0.000000  0.017650      2.000000
  0.054170  0.000000  0.035299      1.000000
  0.000000  0.030680  0.000000      2.000000
  0.027085  0.030680  0.017650      2.000000
  0.054170  0.030680  0.035299      2.000000
 -0.027085  0.030680 -0.017650      2.000000
  0.000000  0.000000  0.034067      2.000000
  0.027085  0.000000  0.051717      2.000000
  0.054170  0.000000  0.069367      2.000000
 -0.027085  0.000000  0.016418      2.000000
  0.000000  0.030680  0.034067      2.000000
  0.027085  0.030680  0.051717      2.000000
  0.054170  0.030680  0.069367      2.000000
 -0.027085  0.030680  0.016418      2.000000
  0.000000 -0.030680  0.034067      2.000000
  0.027085 -0.030680  0.051717      2.000000
  0.054170 -0.030680  0.069367      2.000000
 -0.027085 -0.030680  0.016418      2.000000

 SYSTEM =  unknown system
 POSCAR =  Ni2O3_Cc_scale_0_975_disp_0_20_round_2

 Startparameter for this run:
   NWRITE =      1    write-flag & timer
   PREC   = accura    normal or accurate (medium, high low for compatibility)
   ISTART =      0    job   : 0-new  1-cont  2-samecut
   ICHARG =      2    charge: 1-file 2-atom 10-const
   ISPIN  =      2    spin polarized calculation?
   LNONCOLLINEAR =      F non collinear calculations
   LSORBIT =      F    spin-orbit coupling
   INIWAV =      1    electr: 0-lowe 1-rand  2-diag
   LASPH  =      F    aspherical Exc in radial PAW
   METAGGA=      F    non-selfconsistent MetaGGA calc.

 Electronic Relaxation 1
   ENCUT  =  500.0 eV  36.75 Ry    6.06 a.u.  16.83 19.81 21.29*2*pi/ulx,y,z
   ENINI  =  500.0     initial cutoff
   ENAUG  =  605.4 eV  augmentation charge cutoff
   NELM   =     80;   NELMIN=  2; NELMDL= -5     # of ELM steps
   EDIFF  = 0.1E-04   stopping-criterion for ELM
   LREAL  =      T    real-space projection
   NLSPLINE    = F    spline interpolate recip. space projectors
   LCOMPAT=      F    compatible to vasp.4.4
   GGA_COMPAT  = T    GGA compatible to vasp.4.4-vasp.4.6
   LMAXPAW     = -100 max onsite density
   LMAXMIX     =    2 max onsite mixed and CHGCAR
   VOSKOWN=      1    Vosko Wilk Nusair interpolation
[...]
   0.194E+03 0.903E+01 0.948E+02   -.214E+03 -.158E+02 -.993E+02   0.206E+02 0.562E+01 0.546E+01   -.394E-01 -.550E-01 -.975E-02
   -.837E+01 0.103E+03 0.334E+03   0.167E+02 -.116E+03 -.379E+03   0.255E+00 0.119E+02 0.194E+02   0.405E-01 -.207E-01 0.433E-02
   -.132E+03 -.116E+03 -.151E+02   0.147E+03 0.124E+03 0.200E+02   -.173E+02 -.891E+01 -.580E+01   -.257E-01 -.268E-01 -.924E-02
   -.318E+02 0.418E+02 0.172E+03   0.412E+02 -.412E+02 -.181E+03   -.759E+01 -.215E+01 0.562E+01   -.209E-01 0.168E-01 0.141E-01
   -.591E+02 -.681E+02 0.165E+03   0.616E+02 0.707E+02 -.177E+03   -.167E+01 -.319E+01 0.113E+02   -.233E-01 0.410E-02 -.518E-02
   -.333E+02 0.146E+03 -.402E+02   0.447E+02 -.157E+03 0.507E+02   -.136E+02 0.113E+02 -.118E+02   0.121E-01 -.184E-01 0.105E-01
   0.132E+03 -.918E+02 -.394E+02   -.142E+03 0.104E+03 0.376E+02   0.929E+01 -.114E+02 0.401E+01   0.169E-01 0.292E-01 0.388E-02
   0.162E+02 0.138E+03 0.333E+02   -.190E+02 -.154E+03 -.469E+02   0.259E+01 0.150E+02 0.716E+01   -.108E-01 0.153E-01 0.131E-01
   -.131E+03 -.108E+03 -.192E+03   0.143E+03 0.122E+03 0.206E+03   -.140E+02 -.140E+02 -.147E+02   -.281E-02 -.901E-02 0.865E-02
   0.418E+02 0.137E+03 0.181E+03   -.460E+02 -.144E+03 -.197E+03   0.563E+01 0.686E+01 0.102E+02   -.104E-01 0.120E-01 -.536E-02
[...]
   -.549E+02 -.183E+03 0.903E+01   0.660E+02 0.198E+03 -.118E+02   -.678E+01 -.129E+02 0.576E+01   -.310E-01 0.158E-01 -.240E-01
   -.182E+03 0.172E+03 -.139E+03   0.197E+03 -.185E+03 0.140E+03   -.163E+02 0.123E+02 -.504E-01   0.362E-01 0.692E-02 -.137E-01
   0.127E+03 0.201E+01 0.114E+02   -.143E+03 -.526E+01 -.505E+01   0.133E+02 0.784E+00 -.547E+01   0.208E-01 0.173E-01 -.122E-01
   -.164E+03 0.974E+02 -.279E+02   0.190E+03 -.105E+03 0.319E+02   -.194E+02 0.515E+01 -.476E+00   -.341E-01 0.293E-04 -.294E-01
   -.165E+03 0.660E+02 -.246E+03   0.188E+03 -.739E+02 0.284E+03   -.133E+02 0.981E+00 -.257E+02   -.384E-02 -.981E-02 -.236E-01
   0.751E+02 0.191E+03 0.261E+03   -.690E+02 -.206E+03 -.298E+03   -.225E+01 0.125E+02 0.161E+02   0.122E-01 -.156E-01 0.264E-01
   0.999E+02 -.654E+02 0.176E+03   -.102E+03 0.748E+02 -.194E+03   0.156E+00 -.104E+02 0.139E+02   -.936E-02 -.103E-02 -.203E-01
   -.186E+03 0.381E+02 -.365E+02   0.201E+03 -.394E+02 0.446E+02   -.156E+02 0.170E+01 -.920E+01   0.386E-02 0.888E-02 -.232E-02
   0.593E+02 -.949E+02 0.105E+03   -.647E+02 0.105E+03 -.110E+03   0.672E+01 -.801E+01 0.416E+01   -.894E-02 0.351E-01 0.342E-01
   0.115E+02 0.560E+02 -.396E+01   -.810E+01 -.577E+02 0.110E+02   -.220E+01 0.293E+00 -.479E+01   0.512E-02 0.190E-01 -.103E-02
   -.105E+03 -.283E+03 -.171E+03   0.109E+03 0.318E+03 0.195E+03   -.662E+01 -.205E+02 -.184E+02   -.121E-02 0.956E-02 0.296E-02
   0.820E+02 0.108E+03 0.299E+03   -.896E+02 -.121E+03 -.351E+03   0.105E+02 0.893E+01 0.178E+02   0.679E-02 -.224E-01 0.851E-02
   0.735E+02 -.818E+02 0.136E+03   -.836E+02 0.893E+02 -.159E+03   0.826E+01 -.891E+01 0.925E+01   -.119E-01 -.761E-02 0.613E-02
   -.171E+03 0.373E+01 -.732E+02   0.181E+03 -.802E+01 0.811E+02   -.121E+02 0.570E+01 -.952E+01   -.968E-02 0.197E-01 0.106E-01
   0.115E+03 -.183E+02 0.406E+02   -.171E-12 0.693E-13 -.171E-12   -.115E+03 0.183E+02 -.407E+02   0.681E-04 -.214E-01 0.860E-01

 POSITION                                       TOTAL-FORCE (eV/Angst)
      6.93259      5.11898      2.47809        -3.325298     -2.485925     -0.751286
      5.37830      2.36663      2.20231        -0.207996     -1.238974      3.990077
     -2.69872      3.08895      9.72394         5.251775      4.522521     -2.929654
      2.28534      0.42624      0.11720         1.314897     -0.342853      0.593152
      2.39952      2.34737      2.39627        -2.226852     -1.087453      0.635210
      0.86509      5.07281      2.87507        -0.219649     23.952493     -2.561768
      2.39022      0.52360      9.76742        -1.599452      1.675720      4.617758
      0.54106      3.27657      9.60325         5.950835      1.483721     23.987515
      3.77558      4.75476      7.44963        -6.690703     -6.530002     -5.384315
      2.06215      2.43672      7.22560        -9.139017      1.624862     25.183919
      0.46139      3.54327      5.08914         0.105968     -8.809662     -6.652954
     -0.40111      0.45897      4.52155        -5.141805      5.457094     -1.926950
     -0.80986      2.30370      7.45644        -3.980834     -2.431943     -2.744160
     -2.79247      5.06766      7.69208         3.855613      1.153542     -2.252559
      5.42827      0.53731      5.13933        -4.323812      5.014235     -3.491410
      3.87756      3.04445      5.12094         2.854366     -0.067877     -1.046864
      6.89991     10.68855      2.45271        -2.268217      0.627351     -1.426135
      5.33461      7.90896      2.46053         4.369987     -1.964486     23.432661
     -2.45356      8.85688      9.64412        -2.670805      2.930934     33.563671
     -3.89252      6.15427      9.26638        10.494220     -1.116901     11.163918
      2.21169      7.80158      2.45800         2.895851     -2.978753     -1.356602
      0.99951     10.69334      2.47144        -0.811706     -2.169176      7.080670
      2.10050      6.21869      9.45969        -4.055423     -1.934408     25.408519
      0.67468      8.70089      9.75094        -0.173659      0.178043      3.088773
      3.23434     10.77515      7.68523        13.358134     -6.650139     -6.053290
      2.33663      7.70673      7.39237         1.734748      5.301866     -2.656048
      0.74420      8.79597      5.01915        -3.578844      1.042278     -1.233528
     -0.75366      6.26269      4.91041        -0.150292     -3.113322     -1.514400
     -1.03842      7.89076      7.40587         0.447351     -1.262777      2.321301
     -2.32825     10.46969      7.66751         0.774805      1.939461     -0.867126
      5.27633      6.35048      5.04717         0.601935    -12.459613     -2.710312
      3.71916      8.77013      4.81487         1.022092      2.483774      4.568924
      7.30877      4.65569      0.41214         1.648855      7.754164      2.859804
      1.04429      5.61744      0.93227        -2.153861     -0.394076      0.557826
      3.46450      4.73174      0.22519        -0.246206      1.794483      0.951929
      5.26531      0.58981      3.05650         1.640123      1.103512      0.031139
      3.85776      2.94145      3.02451         1.780248      0.922167      1.959938
      7.33519      3.44686      2.82445        -1.628628     -0.037769     -0.562042
      2.74854      2.10801      0.59108        -6.074074     -5.786806      4.773938
      5.77611      2.37573      0.62422        -2.199820     -1.494697     -0.752638
      8.49863      2.59146      0.91088        -0.632072     -1.346424     -1.248657
      0.91458      3.70920      2.88083         1.956201    -24.284194      0.894504
     -0.91384      0.51108      3.13377        -2.735725      1.075696     -9.735943
      2.26048      0.58489      3.16040         1.939160      2.697268      0.669638
      4.06968      5.41417      5.67298        -2.819760     -2.464927      0.669655
     -2.72082      5.55144      5.83911         3.185738     -1.365518      1.730125
      0.44446      4.78880      5.84258        -0.543943     10.993458      5.188230
      1.99474      0.41800      8.22945       -12.342135      5.117799     -0.014826
      0.37850      3.00221      8.30039         0.540341     -4.277162    -25.212782
      3.57474      3.06940      7.91897        -0.551427      0.303419      0.590185
     -0.78582      2.46824      5.45606         0.014396     -1.234970      0.867122
      2.52525      2.35859      5.97046         8.617171     -1.797266    -25.812811
     -3.50467      2.50533      5.49534        -2.784012     -0.888460     -0.866954
     -2.06532      3.56115      8.26854         1.789177     -1.580679     -3.519335
     -4.18096      0.17639      8.17486         0.801335     -0.544192     -1.504083
     -0.60588      0.64375      8.13009        -2.185676     -0.290360     -1.359628
      7.17526     10.36297      0.41101         0.067795      1.196288      2.204350
      0.74884     10.72064      0.95718        -0.245102     -0.472493     -6.433877
      3.89402     10.38058      0.61784        -1.208384      0.610368      0.164325
      5.55842      6.16287      3.46277         1.440780      0.157932     -5.112379
[...]
      1.00181      8.79118      2.84012        -2.653897      3.265366      2.087720
     -0.94057      5.81451      2.96603         4.259878      2.298116      2.945072
      2.47796      6.12223      2.71478        -0.811764     -0.587228      1.414325
      4.11468     10.57144      5.62188        -2.670316     -2.439649      0.900183
     -2.41628      0.13637      5.61706         6.635960     -2.545055      3.550058
      0.33151     10.83738      5.62340         8.901362     -6.906410     12.526535
      2.36914      6.29230      8.12389         3.874527     -2.063010    -21.197334
      0.90898      8.57897      8.15992        -1.464411     -0.941041     -4.202534
      3.69245      8.83729      8.01953        -1.416251      0.415702     -1.090493
     -0.72884      7.68298      5.75909         1.289276      2.322085     -0.684392
      2.24212      8.50023      5.63804         1.211078     -1.348082      2.297005
      5.14742      7.64790      5.62331        -2.116319     15.140792      5.286454
     -2.33343      8.72266      8.34883         2.977033     -3.646444    -33.699940
     -4.46094      5.64649      8.11480        -1.816775     -1.491905    -14.003824
     -1.08349      5.94261      8.32328        -1.625801      1.438464     -1.556289
    total drift:                                0.001581     -0.016917     -0.005832

  FREE ENERGIE OF THE ION-ELECTRON SYSTEM (eV)
  free  energy   TOTEN  =      -416.7815630205 eV

  energy  without entropy=     -416.6903711578  energy(sigma->0) =     -416.73596709

volume of typ            1:    20.8 %

volume of typ            2:     8.0 %

total charge

# of ion       s       p       d       tot
    1        0.294   0.328   7.923   8.544
    2        0.279   0.314   7.895   8.489
    3        0.391   0.521   7.979   8.891
    4        0.274   0.336   7.905   8.515
    5        0.256   0.285   7.929   8.471
    6        0.383   0.491   8.012   8.887
    7        0.300   0.389   7.978   8.666
    8        0.488   0.740   8.066   9.295
    9        0.337   0.418   8.009   8.765
   10        0.398   0.491   8.125   9.014
   11        0.383   0.417   8.009   8.809
   12        0.437   0.659   8.035   9.131
   13        0.287   0.336   7.925   8.549
   14        0.263   0.312   7.926   8.501
   15        0.359   0.449   7.897   8.706
   16        0.230   0.216   7.907   8.352
   17        0.291   0.344   7.868   8.504
   18        0.425   0.595   8.049   9.070
   19        0.444   0.555   8.135   9.134
   20        0.467   0.734   8.131   9.333
   21        0.301   0.357   7.910   8.568
   22        0.353   0.456   7.977   8.786
   23        0.369   0.440   8.066   8.874
   24        0.331   0.394   7.924   8.649
   25        0.335   0.409   8.003   8.747
   26        0.298   0.372   7.930   8.600
   27        0.236   0.245   7.963   8.444
   28        0.241   0.243   7.947   8.431
   29        0.248   0.271   7.945   8.464
   30        0.200   0.190   7.931   8.321
   31        0.470   0.716   7.968   9.154
   32        0.296   0.370   7.944   8.610
   33        1.280   2.774   0.012   4.066
   34        1.315   2.611   0.004   3.930
   35        1.288   2.727   0.009   4.024
   36        1.284   2.674   0.005   3.963
   37        1.267   2.761   0.010   4.038
   38        1.302   2.626   0.005   3.933
   39        1.269   2.860   0.020   4.149
   40        1.282   2.793   0.015   4.090
   41        1.306   2.585   0.002   3.893
   42        1.300   2.820   0.027   4.148
   43        1.280   2.849   0.021   4.150
   44        1.284   2.729   0.010   4.023
   45        1.279   2.747   0.009   4.036
   46        1.283   2.731   0.009   4.023
   47        1.294   2.767   0.018   4.079
   48        1.295   2.855   0.030   4.179
   49        1.295   2.939   0.040   4.273
   50        1.281   2.726   0.009   4.015
   51        1.288   2.699   0.008   3.995
   52        1.297   2.883   0.034   4.214
   53        1.295   2.623   0.003   3.922
   54        1.271   2.800   0.013   4.084
   55        1.269   2.750   0.008   4.027
   56        1.289   2.655   0.005   3.950
   57        1.279   2.720   0.008   4.008
   58        1.270   2.865   0.022   4.157
   59        1.284   2.711   0.008   4.003
   60        1.274   2.775   0.010   4.059
[...]
   66        1.274   2.760   0.011   4.045
   67        1.274   2.766   0.012   4.052
   68        1.288   2.695   0.007   3.990
   69        1.277   2.740   0.009   4.025
   70        1.292   2.748   0.014   4.053
   71        1.300   2.794   0.020   4.115
   72        1.295   2.911   0.038   4.245
   73        1.283   2.759   0.012   4.055
   74        1.291   2.649   0.004   3.945
   75        1.261   2.807   0.015   4.083
   76        1.261   2.820   0.015   4.096
   77        1.299   2.800   0.021   4.120
   78        1.291   2.925   0.040   4.256
   79        1.294   2.975   0.047   4.316
   80        1.295   2.611   0.002   3.909
tot          72.40  146.06  255.94  474.39

magnetization (x)

# of ion       s       p       d       tot
    1        0.002   0.010   0.542   0.554
    2        0.007   0.007   0.700   0.714
    3        0.001   0.001   0.075   0.077
    4        0.000   0.018   0.808   0.826
    5        0.003   0.005   0.222   0.230
    6        0.001   0.005   0.208   0.214
    7       -0.004   0.000   0.121   0.117
    8       -0.001   0.003   0.196   0.198
    9        0.002   0.001   0.040   0.043
   10        0.006   0.006   0.060   0.072
   11        0.013   0.008   0.493   0.514
   12       -0.003  -0.002  -0.290  -0.295
   13        0.001  -0.004  -0.308  -0.311
   14       -0.002   0.004   0.444   0.446
   15       -0.000   0.006   0.545   0.551
   16        0.006   0.013   0.987   1.006
   17       -0.001   0.020   0.878   0.897
   18        0.003   0.006   0.308   0.318
   19        0.001  -0.001   0.013   0.013
   20       -0.002  -0.002  -0.057  -0.062
   21        0.016   0.017   0.883   0.917
   22        0.000  -0.002  -0.245  -0.247
   23       -0.004  -0.001  -0.088  -0.093
   24        0.000   0.003   0.107   0.111
   25       -0.001  -0.002  -0.073  -0.076
   26       -0.002   0.006   0.297   0.301
   27        0.003   0.007   0.626   0.636
   28        0.005   0.009   0.563   0.578
   29       -0.001   0.005   0.249   0.254
   30        0.002   0.005   0.689   0.695
   31       -0.001  -0.003   0.009   0.005
   32        0.002   0.003   0.283   0.288
   33        0.004   0.130   0.000   0.134
   34        0.002   0.060   0.000   0.062
   35        0.000   0.045  -0.000   0.045
   36        0.007   0.220   0.000   0.227
   37        0.006   0.173   0.000   0.179
   38        0.011   0.513  -0.000   0.524
   39        0.003   0.051   0.000   0.054
   40        0.003   0.121   0.000   0.125
   41        0.012   0.505   0.000   0.518
   42        0.003   0.080   0.000   0.083
   43        0.002  -0.023  -0.000  -0.022
   44       -0.001  -0.105   0.000  -0.106
   45        0.001   0.028  -0.000   0.028
   46        0.001   0.035  -0.000   0.036
   47        0.005   0.249   0.000   0.255
   48       -0.000  -0.054   0.000  -0.055
   49       -0.001  -0.014   0.001  -0.014
   50       -0.000  -0.003   0.000  -0.003
   51        0.002   0.005   0.000   0.007
   52        0.003   0.102  -0.000   0.105
   53        0.009   0.447  -0.000   0.456
   54        0.002   0.035   0.000   0.037
   55        0.005   0.186   0.000   0.191
   56       -0.000  -0.020  -0.000  -0.020
   57        0.002   0.083   0.000   0.085
   58        0.003   0.051  -0.000   0.054
   59        0.003   0.122   0.000   0.125
   60        0.003   0.031   0.000   0.033
[...]
   66        0.004   0.152   0.000   0.156
   67        0.003   0.053   0.000   0.056
   68        0.008   0.354   0.000   0.362
   69        0.003   0.053   0.000   0.056
   70        0.005   0.186   0.000   0.191
   71       -0.001  -0.087  -0.000  -0.088
   72       -0.000  -0.022  -0.000  -0.022
   73        0.003   0.064  -0.000   0.067
   74        0.005   0.226  -0.000   0.230
   75        0.003   0.097   0.000   0.100
   76        0.005   0.120   0.000   0.124
   77        0.001   0.044  -0.000   0.045
   78        0.001   0.014  -0.000   0.015
   79        0.001   0.005   0.000   0.006
   80        0.006   0.300  -0.000   0.306
tot           0.21    5.29    9.29   14.78