 vasp.5.4.4.18Apr17-6-g9f103f2a35 (build May 12 2020 04:58:55) complex

 MD_VERSION_INFO: Compiled 2020-05-12T11:58:55-UTC in devlin.sd.materialsdesign.
 com:/home/medea2/data/build/wwolf/vasp-gpu5.4.4/13047/x86_64/src/src/build/std
 from svn 13047

 executed on                        Lin64 date 2023.03.25  21:18:34

 INCAR:
 POTCAR:    PAW_PBE Ni 02Aug2007
 POTCAR:    PAW_PBE O 08Apr2002

 POTCAR:    PAW_PBE Ni 02Aug2007

 POTCAR:    PAW_PBE O 08Apr2002

 Optimization of the real space projectors (new method)

 maximal supplied QI-value         = 16.25
 optimisation between [QCUT,QGAM] = [ 11.38, 22.75] = [ 36.24,144.96] Ry
 Optimized for a Real-space Cutoff    1.47 Angstroem

   l    n(q)    QCUT    max X(q) W(low)/X(q) W(high)/X(q)  e(spline)
   2      9    11.376    60.317    0.17E-03    0.16E-04    0.16E-06
   2      9    11.376    55.921    0.17E-03    0.16E-04    0.17E-06
   0     10    11.376    51.690    0.45E-04    0.60E-04    0.21E-06
   0     10    11.376    30.015    0.37E-04    0.55E-04    0.19E-06
   1     10    11.376    18.849    0.83E-04    0.11E-03    0.92E-07
   1     10    11.376    14.624    0.69E-04    0.92E-04    0.82E-07
 Optimization of the real space projectors (new method)

 maximal supplied QI-value         = 24.76
 optimisation between [QCUT,QGAM] = [ 11.39, 22.77] = [ 36.31,145.25] Ry
 Optimized for a Real-space Cutoff    1.10 Angstroem

   l    n(q)    QCUT    max X(q) W(low)/X(q) W(high)/X(q)  e(spline)
   0      7    11.387    20.381    0.22E-03    0.48E-03    0.18E-06
   0      7    11.387    15.268    0.22E-03    0.52E-03    0.19E-06
   1      7    11.387     5.964    0.22E-03    0.73E-03    0.24E-06
   1      7    11.387     5.382    0.19E-03    0.60E-03    0.21E-06

  PAW_PBE Ni 02Aug2007                  :
  PAW_PBE O 08Apr2002                   :

 POSCAR: Ni2O3_Cc_scale_0_975_disp_0_10_round_1
  positions in direct lattice
 exchange correlation table for  LEXCH =       14
   RHO(1)=    0.500       N(1)  =     2000
   RHO(2)=  100.500       N(2)  =     4000

 ion  position               nearest neighbor table
   1  0.927  0.462  0.245-  67 1.59  33 1.76  38 1.87  60 2.05   8 2.86  23 2.91   6 3.03
   2  0.770  0.210  0.256-  36 1.89  40 1.90  37 1.91  38 1.93  17 2.76  15 2.99
   3  0.404  0.300  0.998-  54 1.53  39 1.73  40 1.87  35 2.04  14 2.81  13 3.00  20 3.01
   4  0.266  0.049  0.023-  59 1.67  58 1.73  55 1.75  39 1.80  19 2.72   7 2.94  22 2.96  25 2.99
                             5 3.06
   5  0.438  0.215  0.275-  44 1.74  42 1.76  37 1.96  39 2.09  22 2.84  11 3.02  16 3.03   4 3.06

   6  0.259  0.484  0.252-  68 1.67  67 1.90  34 2.00  42 2.06  23 2.86   1 3.03  21 3.05
   7  0.938  0.060  0.007-  58 1.69  41 1.71  57 1.82  48 1.85  10 2.72  25 2.82  17 2.94   4 2.94
                            22 3.02  24 3.03   8 3.08
   8  0.777  0.308  0.009-  49 1.73  41 1.74  33 1.76  40 1.91  10 2.76   1 2.86  23 3.06   7 3.08

   9  0.934  0.449  0.741-  45 1.56  50 1.71  79 1.92  72 2.24  16 2.66  14 2.84  31 3.03  10 3.09

[...]

  15  0.939  0.055  0.508-  70 1.65  36 1.79  53 1.81  69 1.89  30 2.97   2 2.99  17 3.07
  16  0.777  0.300  0.526-  37 1.85  53 1.88  52 1.94  45 1.98   9 2.66   5 3.03
  17  0.922  0.996  0.244-  43 1.38  36 1.74  57 1.82  62 1.97   2 2.76   7 2.94  24 3.00  22 3.04
                            15 3.07
  18  0.786  0.724  0.264-  60 1.79  62 1.84  61 1.89  64 2.06  31 2.97
  19  0.408  0.839  0.997-  78 1.55  59 1.64  63 1.96  64 2.08   4 2.72  30 2.77  29 2.95
  20  0.275  0.555  0.992-  79 1.47  35 1.48  63 1.92  34 2.02  14 2.69   3 3.01
  21  0.409  0.733  0.251-  63 1.78  68 2.00  61 2.03  66 2.06   6 3.05  27 3.06  32 3.07
  22  0.270  0.996  0.272-  44 1.55  66 1.84  58 1.92  43 1.97  12 2.83   5 2.84  27 2.91   4 2.96
                             7 3.02  17 3.04
  23  0.935  0.558  0.016-  65 1.66  33 1.71  34 1.72  72 1.85   6 2.86   1 2.91  26 3.06   8 3.06

[...]

  26  0.774  0.729  0.768-  76 1.70  74 1.74  72 1.78  73 1.84  24 2.98  25 3.02  32 3.05  23 3.06

  27  0.411  0.824  0.499-  66 1.55  71 1.64  76 1.86  75 2.07  12 2.54  22 2.91  21 3.06
  28  0.278  0.552  0.527-  47 1.77  75 1.85  46 2.01  67 2.09  31 3.00  29 3.01  11 3.05
  29  0.399  0.725  0.763-  75 1.79  78 1.92  80 1.94  73 2.24  19 2.95  28 3.01  30 3.04
  30  0.265  0.982  0.763-  56 1.49  78 1.77  70 1.77  55 1.87  13 2.76  19 2.77  15 2.97  12 3.00
                            29 3.04
  31  0.936  0.553  0.501-  46 1.46  60 1.64  45 1.88  77 2.03  18 2.97  28 3.00   9 3.03
  32  0.757  0.804  0.509-  77 1.88  61 1.88  76 2.03  69 2.11  26 3.05  21 3.07
  33  0.837  0.459  0.068-  23 1.71   8 1.76   1 1.76
  34  0.119  0.485  0.048-  23 1.72   6 2.00  20 2.02
  35  0.431  0.486  0.025-  20 1.48   3 2.04  14 2.47
  36  0.822  0.048  0.325-  17 1.74  15 1.79   2 1.89
  37  0.664  0.289  0.339-  16 1.85   2 1.91   5 1.96
  38  0.978  0.300  0.308-   1 1.87   2 1.93
  39  0.309  0.210  0.062-   3 1.73   4 1.80   5 2.09
  40  0.632  0.251  0.067-   3 1.87   2 1.90   8 1.91
  41  0.948  0.214  0.040-   7 1.71   8 1.74  10 2.44
  42  0.298  0.300  0.302-   5 1.76  11 2.06   6 2.06
  43  0.096  0.023  0.319-  17 1.38  22 1.97  12 2.04
  44  0.437  0.057  0.300-  22 1.55   5 1.74
  45  0.835  0.474  0.584-   9 1.56  31 1.88  16 1.98
  46  0.108  0.499  0.575-  31 1.46  14 1.99  28 2.01
  47  0.463  0.463  0.575-  28 1.77  11 1.87
  48  0.819  0.051  0.818-  25 1.58  10 1.83   7 1.85
  49  0.655  0.280  0.834-  10 1.67   8 1.73  13 2.06
  50  0.979  0.311  0.824-   9 1.71  10 1.93
  51  0.315  0.207  0.568-  11 1.74  13 1.96  12 2.02
  52  0.636  0.242  0.593-  11 1.83  16 1.94  10 1.96
  53  0.977  0.210  0.575-  15 1.81  16 1.88
  54  0.337  0.310  0.845-   3 1.53  14 1.80  13 1.92
  55  0.145  0.018  0.846-   4 1.75  25 1.77  30 1.87
  56  0.445  0.029  0.829-  30 1.49  13 1.96
  57  0.812  0.978  0.060-  24 1.79  17 1.82   7 1.82
  58  0.136  0.995  0.075-   7 1.69   4 1.73  22 1.92
  59  0.443  0.984  0.042-  19 1.64   4 1.67
  60  0.837  0.573  0.335-  31 1.64  18 1.79   1 2.05
  61  0.649  0.800  0.318-  32 1.88  18 1.89  21 2.03
  62  0.970  0.825  0.312-  18 1.84  17 1.97
  63  0.330  0.715  0.074-  21 1.78  20 1.92  19 1.96
  64  0.629  0.738  0.054-  24 1.89  18 2.06  19 2.08
  65  0.969  0.708  0.042-  23 1.66  24 2.05
  66  0.313  0.838  0.342-  27 1.55  22 1.84  21 2.06
  67  0.116  0.519  0.317-   1 1.59   6 1.90  28 2.09
  68  0.447  0.558  0.313-   6 1.67  21 2.00
  69  0.829  0.983  0.588-  25 1.83  15 1.89  32 2.11
  70  0.147  0.020  0.587-  15 1.65  30 1.77  12 1.86
  71  0.446  0.964  0.561-  12 1.42  27 1.64
  72  0.825  0.575  0.829-  26 1.78  23 1.85   9 2.24
  73  0.658  0.807  0.836-  24 1.68  26 1.84  29 2.24
  74  0.954  0.819  0.814-  26 1.74  25 1.76
  75  0.308  0.714  0.584-  29 1.79  28 1.85  27 2.07
  76  0.629  0.752  0.598-  26 1.70  27 1.86  32 2.03
  77  0.967  0.735  0.550-  32 1.88  31 2.03
  78  0.308  0.834  0.839-  19 1.55  30 1.77  29 1.92
  79  0.148  0.538  0.844-  20 1.47  14 1.85   9 1.92
  80  0.447  0.558  0.831-  14 1.78  29 1.94

  LATTYP: Found a simple monoclinic cell.
 ALAT       =    15.5489632352
 B/A-ratio  =     0.6987547874
 C/A-ratio  =     1.5833429408
 COS(beta)  =    -0.9717709890

  Lattice vectors:

 A1 = ( -12.0843842100,   0.0000000000,  -9.7845754100)
 A2 = (   0.0000000000, -10.8649125000,   0.0000000000)
 A3 = (  14.9385506700,   0.0000000000,  19.5691508200)

Analysis of symmetry for initial positions (statically):
 Subroutine PRICEL returns:
 Original cell was already a primitive cell.

 Routine SETGRP: Setting up the symmetry group for a
 simple monoclinic supercell.

 Subroutine GETGRP returns: Found  1 space group operations
 (whereof  1 operations were pure point group operations)
 out of a pool of  4 trial point group operations.

The static configuration has the point symmetry C_1 .

Analysis of symmetry for dynamics (positions and initial velocities):
 Subroutine PRICEL returns:
 Original cell was already a primitive cell.

[...]

The dynamic configuration has the point symmetry C_1 .

Analysis of structural, dynamic, and magnetic symmetry:
 Subroutine PRICEL returns:
 Original cell was already a primitive cell.

 Routine SETGRP: Setting up the symmetry group for a
 simple monoclinic supercell.

 Subroutine GETGRP returns: Found  1 space group operations
 (whereof  1 operations were pure point group operations)
 out of a pool of  4 trial point group operations.

The magnetic configuration has the point symmetry C_1 .

 Subroutine INISYM returns: Found  1 space group operations
 (whereof  1 operations are pure point group operations),
 and found     1 'primitive' translations

 KPOINTS: Automatic mesh

Automatic generation of k-mesh.
Space group operators:
 irot       det(A)        alpha          n_x          n_y          n_z        tau_x        tau_y        tau_z
    1     1.000000     0.000000     1.000000     0.000000     0.000000     0.000000     0.000000     0.000000

 Subroutine IBZKPT returns following result:

 Found     19 irreducible k-points:

 Following reciprocal coordinates:
            Coordinates               Weight
  0.000000  0.000000  0.000000      1.000000
  0.250000  0.000000  0.000000      2.000000
  0.500000  0.000000  0.000000      1.000000
  0.000000  0.333333  0.000000      2.000000
  0.250000  0.333333  0.000000      2.000000
  0.500000  0.333333  0.000000      2.000000
 -0.250000  0.333333 -0.000000      2.000000
  0.000000  0.000000  0.333333      2.000000
  0.250000  0.000000  0.333333      2.000000
  0.500000  0.000000  0.333333      2.000000
 -0.250000  0.000000  0.333333      2.000000
  0.000000  0.333333  0.333333      2.000000
  0.250000  0.333333  0.333333      2.000000
  0.500000  0.333333  0.333333      2.000000
 -0.250000  0.333333  0.333333      2.000000
  0.000000 -0.333333  0.333333      2.000000
  0.250000 -0.333333  0.333333      2.000000
  0.500000 -0.333333  0.333333      2.000000
 -0.250000 -0.333333  0.333333      2.000000

 Following cartesian coordinates:
            Coordinates               Weight
  0.000000  0.000000  0.000000      1.000000
  0.027085  0.000000  0.017650      2.000000
  0.054170  0.000000  0.035299      1.000000
  0.000000  0.030680  0.000000      2.000000
  0.027085  0.030680  0.017650      2.000000
  0.054170  0.030680  0.035299      2.000000
 -0.027085  0.030680 -0.017650      2.000000
  0.000000  0.000000  0.034067      2.000000
  0.027085  0.000000  0.051717      2.000000
  0.054170  0.000000  0.069367      2.000000
 -0.027085  0.000000  0.016418      2.000000
  0.000000  0.030680  0.034067      2.000000
  0.027085  0.030680  0.051717      2.000000
  0.054170  0.030680  0.069367      2.000000
 -0.027085  0.030680  0.016418      2.000000
  0.000000 -0.030680  0.034067      2.000000
  0.027085 -0.030680  0.051717      2.000000
  0.054170 -0.030680  0.069367      2.000000
 -0.027085 -0.030680  0.016418      2.000000

 SYSTEM =  unknown system
 POSCAR =  Ni2O3_Cc_scale_0_975_disp_0_10_round_1

 Startparameter for this run:
   NWRITE =      1    write-flag & timer
   PREC   = accura    normal or accurate (medium, high low for compatibility)
[...]
   0.118E+03 -.984E+02 0.720E+02   -.134E+03 0.991E+02 -.765E+02   0.154E+02 -.194E+01 0.571E+01   -.894E-03 -.262E-01 0.540E-01
   -.151E+02 0.616E+02 0.619E+02   0.166E+02 -.710E+02 -.631E+02   -.744E+00 0.972E+01 0.110E+01   0.514E-01 -.409E-03 0.129E-01
   -.105E+03 -.142E+03 -.805E+02   0.117E+03 0.151E+03 0.913E+02   -.134E+02 -.885E+01 -.115E+02   -.488E-01 -.328E-01 0.209E-01
   -.191E+01 0.485E+02 0.196E+03   0.250E+01 -.528E+02 -.215E+03   0.166E+01 0.463E+01 0.111E+02   0.792E-03 -.393E-01 -.954E-02
   0.299E+01 -.898E+02 0.967E+02   0.326E+00 0.949E+02 -.102E+03   -.337E+01 -.454E+01 0.363E+01   -.214E-01 -.115E-02 -.212E-01
   -.306E+03 -.334E+02 -.156E+03   0.337E+03 0.346E+02 0.177E+03   -.220E+02 0.445E+01 -.176E+02   -.177E-01 -.221E-02 -.289E-01
   0.162E+03 -.410E+02 0.661E+02   -.174E+03 0.485E+02 -.739E+02   0.127E+02 -.770E+01 0.818E+01   0.406E-01 0.361E-01 -.779E-01
   0.225E+01 0.205E+03 -.560E+02   -.177E+01 -.222E+03 0.572E+02   -.481E+00 0.161E+02 0.840E+00   -.157E-01 0.255E-01 -.895E-01
   -.234E+03 -.109E+03 -.236E+03   0.257E+03 0.123E+03 0.246E+03   -.208E+02 -.128E+02 -.875E+01   -.244E-01 0.248E-01 -.331E-01
   0.124E+03 0.901E+02 0.160E+03   -.129E+03 -.972E+02 -.174E+03   0.587E+01 0.670E+01 0.980E+01   -.504E-01 0.583E-01 0.925E-02
[...]
   -.891E+02 -.153E+03 -.974E+02   0.980E+02 0.166E+03 0.105E+03   -.426E+01 -.111E+02 -.463E+01   0.129E+00 0.623E-01 0.669E-01
   -.207E+03 0.261E+02 -.174E+03   0.226E+03 -.272E+02 0.186E+03   -.178E+02 0.318E+01 -.127E+02   -.234E-01 -.188E-02 -.219E-02
   0.126E+03 -.248E+02 0.150E+03   -.136E+03 0.280E+02 -.158E+03   0.997E+01 -.448E+01 0.695E+01   0.224E-01 0.506E-01 0.533E-01
   -.170E+02 0.583E+02 0.526E+02   0.230E+02 -.604E+02 -.539E+02   -.339E+01 0.979E+00 0.151E+01   -.387E-01 0.426E-02 0.375E-01
   -.294E+03 -.636E+02 -.205E+03   0.331E+03 0.663E+02 0.227E+03   -.239E+02 -.726E+01 -.169E+02   0.168E-02 -.180E-01 0.402E-01
   0.909E+02 0.127E+03 0.154E+03   -.934E+02 -.139E+03 -.161E+03   0.300E+01 0.110E+02 0.730E+01   0.703E-02 0.298E-01 -.529E-01
   0.737E+02 -.425E+02 0.133E+03   -.798E+02 0.513E+02 -.147E+03   0.523E+01 -.973E+01 0.125E+02   0.185E-01 0.226E-02 -.583E-01
   -.167E+03 0.163E+03 -.772E+02   0.183E+03 -.172E+03 0.884E+02   -.169E+02 0.822E+01 -.114E+02   -.232E-01 0.314E-01 -.115E-01
   0.450E+02 -.339E+02 0.116E+03   -.516E+02 0.419E+02 -.125E+03   0.754E+01 -.814E+01 0.875E+01   0.163E-01 0.394E-02 0.327E-01
   -.173E+02 0.162E+03 0.123E+03   0.165E+02 -.170E+03 -.132E+03   0.162E+01 0.825E+01 0.631E+01   -.366E-01 -.446E-03 0.586E-01
   -.101E+03 -.448E+02 -.895E+02   0.115E+03 0.509E+02 0.952E+02   -.165E+02 -.689E+01 -.663E+01   0.340E-01 0.260E-01 0.413E-01
   0.906E+02 0.205E+03 0.184E+03   -.100E+03 -.216E+03 -.203E+03   0.110E+02 0.869E+01 0.120E+02   0.580E-02 0.225E-01 -.495E-01
   0.961E+02 -.167E+03 0.190E+03   -.105E+03 0.176E+03 -.217E+03   0.685E+01 -.107E+02 0.150E+02   -.208E-01 0.668E-02 -.269E-02
   -.233E+03 0.207E+02 -.902E+02   0.248E+03 -.231E+02 0.102E+03   -.158E+02 0.369E+01 -.127E+02   0.139E-01 0.311E-01 -.270E-01
   0.146E+03 0.578E+00 -.140E+02   0.540E-12 -.853E-13 0.796E-12   -.146E+03 -.584E+00 0.140E+02   0.116E+00 0.151E-01 -.831E-01

 POSITION                                       TOTAL-FORCE (eV/Angst)
      6.99517      5.02217      2.39766        -4.531204     -2.908734     -0.229201
      5.47737      2.28168      2.50692         0.847482      1.207580      0.127902
     -2.63128      3.25741      9.76091        -0.881309     -0.345433      7.605359
      2.31530      0.52994      0.22017         0.507481      1.206111      0.100961
      2.29128      2.33600      2.69155         0.930340      0.589022     -0.735752
      0.78829      5.25967      2.46496        -1.009482     -1.683330     -0.604750
      8.61623      0.65038      0.06793        -1.734499      0.226259     -0.686550
      7.11673      3.34405      0.08421        -0.894933     -0.520962      1.007291
      3.89465      4.88139      7.24766        -1.107396     -0.507700      6.575528
      2.18627      2.35926      7.73873         3.420083      0.270898     -1.567100
      0.57736      3.26889      5.00116         0.648201      1.572833     -0.661059
     -0.64797      0.28547      5.09787       -13.276632      8.634712     -4.247451
     -1.01043      2.16925      7.48869         0.406957     -0.109124     -0.107620
     -2.51361      5.01988      7.57278         1.595871      0.423870     -1.653471
      5.42656      0.59557      4.97155        -3.696902      1.524429      0.009571
      3.81602      3.25578      5.14872         0.525394     -0.546329      0.493668
      6.95488     10.81691      2.38483       -17.213224     -6.144333    -11.318231
      5.57258      7.86719      2.58211         0.585792      1.713534     -0.862059
     -2.58911      9.11838      9.75699        -0.376109     -3.801959      7.773554
     -3.79288      6.02991      9.70888        -7.049995      7.315773     10.295954
      2.18093      7.96880      2.45140         0.490701     -0.514777      1.053452
      0.75341     10.81674      2.66322        -5.410688     -2.762880     -1.463959
      8.52829      6.06317      0.15634         0.214386      0.481383     -1.866747
      7.05891      8.92004      0.06728         0.259348     -1.385514      1.732457
      3.62169     10.60948      7.56549         3.539962     -3.261685     -2.868698
      2.24432      7.92553      7.51303         0.071156     -0.387778      1.433742
      0.60788      8.94828      4.88557        -0.911327     -4.695546      6.783040
     -0.79597      5.99304      5.15701         0.287770     -0.333320     -0.163742
     -1.18870      7.88004      7.47027         0.393635     -0.963909      0.756987
     -2.41757     10.66504      7.46948        -8.102107     -3.140058     -4.115964
      5.44370      6.00718      4.89964       -10.718961      6.513633     -3.069106
      3.74069      8.73249      4.98147         1.329021      0.140899     -0.024139
      7.29061      4.99187      0.66646        -0.933842     -0.111654     -0.100986
      0.79215      5.26830      0.46510         1.249096     -0.099535      1.757512
      3.81859      5.27692      0.24801         8.012786     -5.730112      2.809881
      5.51276      0.52163      3.18138        -0.689277      1.112414      0.103734
      3.97091      3.14374      3.31353        -0.739270     -1.077750     -0.469268
      7.06435      3.26058      3.01846        -1.943431      0.359827     -1.123462
      2.45554      2.28516      0.60800        -0.105537     -0.027525      1.745357
      5.40044      2.72397      0.65925        -0.035475      0.187182      0.847313
      8.49642      2.32800      0.39414         0.114812      0.615254      0.231397
      0.82030      3.26004      2.95702         0.034140      1.404513      1.637933
     -1.14115      0.24786      3.11753        19.010442      5.238459     11.870412
      2.12580      0.61728      2.93419         5.141430      2.704932      1.326736
      3.98550      5.14825      5.71356         0.618474      0.744848     -6.277782
     -2.66885      5.42043      5.62671        11.238588     -5.401117      7.340715
      0.61079      5.03060      5.62543        -1.130266     -0.832669     -1.074906
      2.33898      0.55856      8.00681        -4.113442      2.706297      1.248079
      0.72490      3.04201      8.16133        -3.716952      0.165961     -0.853593
      3.78408      3.38235      8.06579        -1.070356     -0.752735     -0.321904
     -0.71625      2.24769      5.55626        -0.090667     -1.245316      1.202057
      2.09566      2.62426      5.79751         0.776390      0.375122      0.002501
      5.34456      2.27643      5.63004        -1.477668      0.279337     -0.702746
     -2.28366      3.37250      8.27210         2.252698      0.289295     -8.371376
     -4.05700      0.20061      8.28229        -0.082072      0.518820     -1.402073
     -1.17979      0.31452      8.10981         8.996687      5.615362      3.421985
      7.11443     10.62959      0.58574        -0.048447     -0.240822      0.265375
      0.77161     10.81079      0.73867        -0.016709     -1.004832      1.939477
      3.82089     10.69448      0.40616         1.819591      1.524988      1.477756
      5.58660      6.22264      3.27817         0.728711     -0.359805     -3.620785
[...]
      0.71353      9.10628      3.34345         1.730755     -0.100054     -7.369184
     -0.95545      5.64290      3.10554         4.805188      2.242893      3.284131
      2.12721      6.06336      3.06161         0.592687      2.126589     -0.315792
      3.89547     10.68490      5.75803         0.609790     -1.275376     -0.538496
     -2.39077      0.21477      5.74449         2.581488     -1.174472      0.244937
      0.54302     10.47400      5.48550        12.592716     -4.622975      5.207276
      2.33371      6.24693      8.10702         0.499239     -0.326703     -0.160015
      0.74836      8.76770      8.17507        -0.809093     -0.915948     -1.853903
      3.61972      8.89895      7.96282        -0.106721     -0.076399     -0.153965
     -0.87462      7.75689      5.71145         0.953812     -0.110122     -0.327332
      1.99458      8.17333      5.85446         0.807562      0.650315     -2.452921
      5.41355      7.98219      5.38436        -2.251444     -0.772653     -0.952703
     -2.50682      9.06044      8.21098         1.206283     -1.843100     -6.923911
     -4.01780      5.84647      8.26286        -2.306327     -1.679452    -11.816040
     -1.17803      6.05884      8.13542        -0.365514      1.377127     -1.283287
    total drift:                               -0.009002      0.009204     -0.002753

  FREE ENERGIE OF THE ION-ELECTRON SYSTEM (eV)
  free  energy   TOTEN  =      -457.7090447696 eV

  energy  without entropy=     -457.6127092523  energy(sigma->0) =     -457.66087701

volume of typ            1:    20.8 %

volume of typ            2:     8.0 %

total charge

# of ion       s       p       d       tot
    1        0.307   0.375   7.929   8.612
    2        0.245   0.265   7.840   8.351
    3        0.331   0.422   7.936   8.690
    4        0.327   0.437   7.904   8.668
    5        0.269   0.302   7.878   8.448
    6        0.270   0.300   7.846   8.416
    7        0.312   0.409   7.911   8.633
    8        0.300   0.372   7.895   8.567
    9        0.329   0.402   7.927   8.659
   10        0.281   0.339   7.869   8.488
   11        0.271   0.305   7.828   8.404
   12        0.357   0.450   8.015   8.821
   13        0.209   0.211   7.909   8.329
   14        0.263   0.299   7.918   8.480
   15        0.304   0.381   7.873   8.558
   16        0.243   0.262   7.847   8.352
   17        0.398   0.554   8.018   8.970
   18        0.260   0.286   7.815   8.361
   19        0.343   0.427   7.948   8.717
   20        0.429   0.572   8.005   9.007
   21        0.225   0.225   7.879   8.330
   22        0.309   0.383   7.961   8.653
   23        0.338   0.447   7.867   8.653
   24        0.286   0.329   7.861   8.476
   25        0.343   0.462   7.892   8.697
   26        0.316   0.399   7.844   8.559
   27        0.345   0.443   7.954   8.742
   28        0.250   0.261   7.857   8.368
   29        0.234   0.235   7.876   8.345
   30        0.367   0.490   7.970   8.827
   31        0.378   0.513   7.967   8.858
   32        0.228   0.217   7.872   8.317
   33        1.264   2.815   0.014   4.094
   34        1.282   2.727   0.008   4.017
   35        1.299   2.765   0.017   4.080
   36        1.268   2.777   0.011   4.055
   37        1.268   2.731   0.007   4.006
   38        1.288   2.663   0.005   3.956
   39        1.272   2.751   0.009   4.032
   40        1.271   2.736   0.007   4.014
   41        1.282   2.740   0.011   4.033
   42        1.277   2.705   0.007   3.989
   43        1.289   2.861   0.027   4.178
   44        1.281   2.789   0.017   4.087
   45        1.274   2.795   0.015   4.084
   46        1.282   2.822   0.020   4.124
   47        1.284   2.689   0.007   3.980
   48        1.272   2.814   0.017   4.103
   49        1.271   2.783   0.013   4.068
   50        1.282   2.707   0.007   3.997
   51        1.272   2.730   0.008   4.010
   52        1.270   2.730   0.006   4.006
   53        1.285   2.683   0.006   3.974
   54        1.270   2.827   0.018   4.115
   55        1.275   2.786   0.011   4.072
   56        1.292   2.770   0.017   4.079
   57        1.267   2.776   0.011   4.054
   58        1.269   2.802   0.013   4.084
   59        1.285   2.772   0.015   4.072
   60        1.269   2.790   0.012   4.070
[...]
   66        1.271   2.804   0.015   4.091
   67        1.274   2.778   0.013   4.065
   68        1.283   2.704   0.008   3.995
   69        1.274   2.715   0.006   3.996
   70        1.268   2.812   0.014   4.094
   71        1.295   2.852   0.029   4.176
   72        1.281   2.712   0.007   4.000
   73        1.280   2.736   0.010   4.026
   74        1.285   2.719   0.009   4.013
   75        1.267   2.737   0.007   4.011
   76        1.272   2.759   0.010   4.040
   77        1.291   2.644   0.004   3.939
   78        1.274   2.823   0.018   4.115
   79        1.284   2.834   0.021   4.139
   80        1.287   2.674   0.006   3.967
tot          71.02  143.92  253.45  468.39

magnetization (x)

# of ion       s       p       d       tot
    1        0.000  -0.007  -0.092  -0.098
    2        0.000   0.018   1.102   1.120
    3        0.000  -0.006  -0.341  -0.347
    4        0.002   0.003   0.175   0.180
    5        0.004   0.010   0.663   0.678
    6        0.009   0.025   1.186   1.220
    7        0.001   0.013   0.557   0.571
    8        0.001   0.009   0.352   0.363
    9        0.006   0.010   0.366   0.382
   10        0.004   0.019   1.024   1.046
   11       -0.002  -0.017  -0.882  -0.901
   12       -0.004  -0.008  -0.107  -0.119
   13        0.002   0.009   0.751   0.762
   14        0.000   0.007   0.540   0.547
   15       -0.001   0.013   0.644   0.656
   16       -0.000   0.018   1.108   1.125
   17       -0.002  -0.002  -0.077  -0.081
   18        0.001   0.018   1.186   1.204
   19        0.000  -0.001   0.059   0.058
   20       -0.003  -0.002  -0.235  -0.240
   21        0.001   0.015   1.017   1.033
   22        0.003   0.003   0.288   0.294
   23        0.002   0.008   0.445   0.455
   24        0.001   0.019   0.822   0.841
   25        0.001  -0.010  -0.362  -0.371
   26        0.000  -0.008  -0.481  -0.489
   27       -0.000  -0.002  -0.132  -0.134
   28        0.005   0.011   0.919   0.935
   29        0.002   0.015   1.019   1.037
   30        0.002  -0.000   0.156   0.157
   31        0.002  -0.005  -0.226  -0.229
   32        0.001   0.002   0.210   0.213
   33        0.003   0.013   0.000   0.016
   34        0.004   0.131   0.000   0.134
   35       -0.002  -0.122  -0.000  -0.124
   36        0.004   0.099   0.000   0.104
   37        0.009   0.245   0.000   0.254
   38        0.006   0.289  -0.000   0.295
   39        0.002   0.015  -0.000   0.017
   40        0.003   0.104   0.000   0.107
   41        0.007   0.241   0.000   0.249
   42        0.003   0.048   0.000   0.051
   43       -0.001  -0.032  -0.000  -0.032
   44        0.004   0.175   0.000   0.179
   45        0.004   0.081   0.000   0.085
   46        0.002   0.033  -0.000   0.035
   47        0.001   0.083   0.000   0.084
   48        0.004   0.059  -0.000   0.063
   49        0.008   0.186   0.000   0.195
   50        0.006   0.264   0.000   0.271
   51       -0.001  -0.071  -0.000  -0.073
   52        0.004   0.100   0.000   0.104
   53        0.009   0.394   0.000   0.403
   54        0.001   0.004  -0.000   0.005
   55        0.002   0.002   0.000   0.004
   56        0.004   0.159  -0.000   0.163
   57        0.005   0.077   0.000   0.082
   58        0.004   0.076   0.000   0.080
   59        0.000   0.002   0.000   0.003
   60        0.002   0.018   0.000   0.020
[...]
   66        0.002   0.013  -0.000   0.015
   67        0.005   0.103  -0.000   0.108
   68        0.010   0.454   0.000   0.464
   69        0.002   0.039   0.000   0.040
   70        0.002   0.034   0.000   0.036
   71       -0.001  -0.050  -0.000  -0.051
   72        0.002  -0.016   0.000  -0.015
   73        0.004   0.127   0.000   0.132
   74       -0.004  -0.159  -0.000  -0.163
   75        0.006   0.169   0.000   0.175
   76       -0.002  -0.064  -0.000  -0.066
   77       -0.001  -0.007  -0.000  -0.008
   78        0.003   0.043   0.000   0.046
   79        0.002   0.016  -0.000   0.018
   80        0.007   0.344  -0.000   0.351
tot           0.20    5.10   11.66   16.95