 vasp.5.4.4.18Apr17-6-g9f103f2a35 (build May 12 2020 04:58:55) complex

 MD_VERSION_INFO: Compiled 2020-05-12T11:58:55-UTC in devlin.sd.materialsdesign.
 com:/home/medea2/data/build/wwolf/vasp-gpu5.4.4/13047/x86_64/src/src/build/std
 from svn 13047

 executed on                        Lin64 date 2023.03.25  21:28:55

 INCAR:
 POTCAR:    PAW_PBE Ni 02Aug2007
 POTCAR:    PAW_PBE O 08Apr2002

 POTCAR:    PAW_PBE Ni 02Aug2007

 POTCAR:    PAW_PBE O 08Apr2002

 Optimization of the real space projectors (new method)

 maximal supplied QI-value         = 16.25
 optimisation between [QCUT,QGAM] = [ 11.38, 22.75] = [ 36.24,144.96] Ry
 Optimized for a Real-space Cutoff    1.47 Angstroem

   l    n(q)    QCUT    max X(q) W(low)/X(q) W(high)/X(q)  e(spline)
   2      9    11.376    60.317    0.17E-03    0.16E-04    0.16E-06
   2      9    11.376    55.921    0.17E-03    0.16E-04    0.17E-06
   0     10    11.376    51.690    0.45E-04    0.60E-04    0.21E-06
   0     10    11.376    30.015    0.37E-04    0.55E-04    0.19E-06
   1     10    11.376    18.849    0.83E-04    0.11E-03    0.92E-07
   1     10    11.376    14.624    0.69E-04    0.92E-04    0.82E-07
 Optimization of the real space projectors (new method)

 maximal supplied QI-value         = 24.76
 optimisation between [QCUT,QGAM] = [ 11.39, 22.77] = [ 36.31,145.25] Ry
 Optimized for a Real-space Cutoff    1.10 Angstroem

   l    n(q)    QCUT    max X(q) W(low)/X(q) W(high)/X(q)  e(spline)
   0      7    11.387    20.381    0.22E-03    0.48E-03    0.18E-06
   0      7    11.387    15.268    0.22E-03    0.52E-03    0.19E-06
   1      7    11.387     5.964    0.22E-03    0.73E-03    0.24E-06
   1      7    11.387     5.382    0.19E-03    0.60E-03    0.21E-06

  PAW_PBE Ni 02Aug2007                  :
  PAW_PBE O 08Apr2002                   :

 POSCAR: Ni2O3_Cc_scale_0_975_disp_0_05_round_2
  positions in direct lattice
 exchange correlation table for  LEXCH =       14
   RHO(1)=    0.500       N(1)  =     2000
   RHO(2)=  100.500       N(2)  =     4000

 ion  position               nearest neighbor table
   1  0.938  0.462  0.258-  67 1.67  38 1.79  60 1.89  33 1.97  28 2.95   6 2.95   8 3.00
   2  0.759  0.217  0.253-  40 1.70  38 1.85  37 1.85  36 1.96  17 3.03   3 3.08   5 3.08
   3  0.419  0.304  0.996-  54 1.51  39 1.81  35 1.82  40 1.93  14 2.82  13 2.87  20 3.05   2 3.08

   4  0.278  0.040  0.007-  59 1.46  55 1.76  58 1.83  39 1.91  30 2.69  19 2.84  25 2.93  22 3.06
                             5 3.07
   5  0.433  0.203  0.263-  44 1.73  37 1.80  42 1.89  39 1.97  22 2.78  16 3.07   4 3.07   2 3.08

   6  0.257  0.475  0.256-  68 1.75  67 1.86  34 1.87  42 2.03   1 2.95  23 2.98  11 3.05  28 3.06

[...]

  21  0.423  0.729  0.257-  66 1.81  61 1.88  68 1.94  63 1.96
  22  0.258  0.992  0.256-  44 1.63  43 1.75  58 1.88  66 2.01   5 2.78  17 2.91   7 2.92   4 3.06
                            27 3.08
  23  0.935  0.565  0.006-  34 1.71  65 1.74  72 1.75  33 1.93  26 2.85  24 2.94   6 2.98   9 2.99
                            20 3.04
  24  0.779  0.800  0.008-  65 1.66  73 1.69  64 1.78  57 2.00  26 2.86  23 2.94
  25  0.932  0.978  0.773-  55 1.61  48 1.62  74 1.77  69 2.00   7 2.81   4 2.93  10 2.96  30 3.01

  26  0.772  0.721  0.772-  74 1.82  76 1.90  72 1.91  73 1.95  23 2.85  24 2.86
  27  0.422  0.822  0.508-  66 1.80  71 1.85  76 1.93  75 1.97  12 2.88  22 3.08
  28  0.255  0.554  0.507-  67 1.78  47 1.84  75 1.91  46 1.93   1 2.95  11 3.02  31 3.04   6 3.06

  29  0.413  0.719  0.767-  80 1.78  75 1.80  78 1.89  73 1.95  19 2.84  14 3.05
  30  0.260  0.980  0.776-  56 1.71  55 1.73  78 1.80  70 1.97   4 2.69  19 2.84  13 2.89  25 3.01
                            12 3.05  15 3.05
  31  0.932  0.553  0.515-  45 1.70  46 1.72  77 1.87  60 1.89  28 3.04  14 3.06   9 3.07
  32  0.768  0.816  0.513-  69 1.79  77 1.80  76 1.89  61 1.91  15 2.92
  33  0.818  0.453  0.057-   8 1.71  23 1.93   1 1.97
  34  0.118  0.479  0.066-  23 1.71   6 1.87  20 1.99
  35  0.449  0.463  0.054-  20 1.77   3 1.82
  36  0.828  0.049  0.323-  17 1.77  15 1.81   2 1.96
  37  0.637  0.276  0.326-   5 1.80   2 1.85  16 1.91
  38  0.960  0.304  0.309-   1 1.79   2 1.85
  39  0.323  0.208  0.064-   3 1.81   4 1.91   5 1.97
  40  0.647  0.233  0.080-   2 1.70   3 1.93   8 1.96
  41  0.948  0.209  0.054-   8 1.70   7 1.77
  42  0.329  0.301  0.333-  11 1.74   5 1.89   6 2.03
  43  0.136  0.023  0.326-  17 1.55  22 1.75  12 1.91
  44  0.447  0.050  0.308-  22 1.63   5 1.73
  45  0.832  0.458  0.568-  31 1.70  16 1.83   9 1.99
  46  0.132  0.487  0.584-  31 1.72  14 1.87  28 1.93
  47  0.446  0.457  0.562-  11 1.70  28 1.84
  48  0.831  0.051  0.830-  25 1.62   7 1.70  10 1.87
  49  0.646  0.273  0.835-   8 1.72  10 1.82  13 1.85
  50  0.961  0.300  0.816-  10 1.74   9 1.87
  51  0.316  0.206  0.578-  11 1.86  12 1.87  13 1.96
  52  0.637  0.228  0.578-  16 1.83  10 1.94  11 1.99
  53  0.986  0.204  0.573-  15 1.85  16 2.04
  54  0.318  0.313  0.842-   3 1.51  14 1.81  13 2.03
  55  0.127  0.020  0.831-  25 1.61  30 1.73   4 1.76
  56  0.452  0.044  0.815-  30 1.71  13 1.75
  57  0.836  0.976  0.069-   7 1.69  17 1.85  24 2.00
  58  0.134  0.003  0.064-   7 1.69   4 1.83  22 1.88
  59  0.438  0.976  0.049-   4 1.46  19 1.88
  60  0.828  0.558  0.324-   1 1.89  31 1.89  18 1.90
  61  0.643  0.795  0.320-  18 1.84  21 1.88  32 1.91
  62  0.960  0.820  0.296-  17 1.83  18 1.87
  63  0.316  0.710  0.060-  19 1.84  20 1.86  21 1.96
  64  0.646  0.749  0.066-  24 1.78  19 1.93  18 1.95
  65  0.953  0.721  0.043-  24 1.66  23 1.74
  66  0.322  0.818  0.326-  27 1.80  21 1.81  22 2.01
  67  0.130  0.531  0.326-   1 1.67  28 1.78   6 1.86
  68  0.445  0.556  0.303-   6 1.75  21 1.94
  69  0.833  0.970  0.573-  15 1.67  32 1.79  25 2.00
  70  0.131  0.010  0.578-  15 1.63  12 1.67  30 1.97
  71  0.462  0.983  0.570-  12 1.77  27 1.85
  72  0.823  0.553  0.827-  23 1.75   9 1.82  26 1.91
  73  0.638  0.795  0.837-  24 1.69  29 1.95  26 1.95
  74  0.954  0.819  0.813-  25 1.77  26 1.82
  75  0.324  0.715  0.585-  29 1.80  28 1.91  27 1.97
  76  0.642  0.742  0.579-  32 1.89  26 1.90  27 1.93
  77  0.951  0.720  0.560-  32 1.80  31 1.87
  78  0.318  0.825  0.837-  19 1.57  30 1.80  29 1.89
  79  0.135  0.548  0.842-  20 1.55   9 1.76  14 2.01
  80  0.453  0.561  0.816-  29 1.78  14 1.80

  LATTYP: Found a simple monoclinic cell.
 ALAT       =    15.5489632352
 B/A-ratio  =     0.6987547874
 C/A-ratio  =     1.5833429408
 COS(beta)  =    -0.9717709890

  Lattice vectors:

 A1 = ( -12.0843842100,   0.0000000000,  -9.7845754100)
 A2 = (   0.0000000000, -10.8649125000,   0.0000000000)
 A3 = (  14.9385506700,   0.0000000000,  19.5691508200)

Analysis of symmetry for initial positions (statically):
 Subroutine PRICEL returns:
 Original cell was already a primitive cell.

 Routine SETGRP: Setting up the symmetry group for a
 simple monoclinic supercell.

 Subroutine GETGRP returns: Found  1 space group operations
 (whereof  1 operations were pure point group operations)
 out of a pool of  4 trial point group operations.

The static configuration has the point symmetry C_1 .

Analysis of symmetry for dynamics (positions and initial velocities):
 Subroutine PRICEL returns:
 Original cell was already a primitive cell.

[...]

The dynamic configuration has the point symmetry C_1 .

Analysis of structural, dynamic, and magnetic symmetry:
 Subroutine PRICEL returns:
 Original cell was already a primitive cell.

 Routine SETGRP: Setting up the symmetry group for a
 simple monoclinic supercell.

 Subroutine GETGRP returns: Found  1 space group operations
 (whereof  1 operations were pure point group operations)
 out of a pool of  4 trial point group operations.

The magnetic configuration has the point symmetry C_1 .

 Subroutine INISYM returns: Found  1 space group operations
 (whereof  1 operations are pure point group operations),
 and found     1 'primitive' translations

 KPOINTS: Automatic mesh

Automatic generation of k-mesh.
Space group operators:
 irot       det(A)        alpha          n_x          n_y          n_z        tau_x        tau_y        tau_z
    1     1.000000     0.000000     1.000000     0.000000     0.000000     0.000000     0.000000     0.000000

 Subroutine IBZKPT returns following result:

 Found     19 irreducible k-points:

 Following reciprocal coordinates:
            Coordinates               Weight
  0.000000  0.000000  0.000000      1.000000
  0.250000  0.000000  0.000000      2.000000
  0.500000  0.000000  0.000000      1.000000
  0.000000  0.333333  0.000000      2.000000
  0.250000  0.333333  0.000000      2.000000
  0.500000  0.333333  0.000000      2.000000
 -0.250000  0.333333 -0.000000      2.000000
  0.000000  0.000000  0.333333      2.000000
  0.250000  0.000000  0.333333      2.000000
  0.500000  0.000000  0.333333      2.000000
 -0.250000  0.000000  0.333333      2.000000
  0.000000  0.333333  0.333333      2.000000
  0.250000  0.333333  0.333333      2.000000
  0.500000  0.333333  0.333333      2.000000
 -0.250000  0.333333  0.333333      2.000000
  0.000000 -0.333333  0.333333      2.000000
  0.250000 -0.333333  0.333333      2.000000
  0.500000 -0.333333  0.333333      2.000000
 -0.250000 -0.333333  0.333333      2.000000

 Following cartesian coordinates:
            Coordinates               Weight
  0.000000  0.000000  0.000000      1.000000
  0.027085  0.000000  0.017650      2.000000
  0.054170  0.000000  0.035299      1.000000
  0.000000  0.030680  0.000000      2.000000
  0.027085  0.030680  0.017650      2.000000
  0.054170  0.030680  0.035299      2.000000
 -0.027085  0.030680 -0.017650      2.000000
  0.000000  0.000000  0.034067      2.000000
  0.027085  0.000000  0.051717      2.000000
  0.054170  0.000000  0.069367      2.000000
 -0.027085  0.000000  0.016418      2.000000
  0.000000  0.030680  0.034067      2.000000
  0.027085  0.030680  0.051717      2.000000
  0.054170  0.030680  0.069367      2.000000
 -0.027085  0.030680  0.016418      2.000000
  0.000000 -0.030680  0.034067      2.000000
  0.027085 -0.030680  0.051717      2.000000
  0.054170 -0.030680  0.069367      2.000000
 -0.027085 -0.030680  0.016418      2.000000

 SYSTEM =  unknown system
 POSCAR =  Ni2O3_Cc_scale_0_975_disp_0_05_round_2

 Startparameter for this run:
   NWRITE =      1    write-flag & timer
   PREC   = accura    normal or accurate (medium, high low for compatibility)
   ISTART =      0    job   : 0-new  1-cont  2-samecut
   ICHARG =      2    charge: 1-file 2-atom 10-const
   ISPIN  =      2    spin polarized calculation?
   LNONCOLLINEAR =      F non collinear calculations
   LSORBIT =      F    spin-orbit coupling
   INIWAV =      1    electr: 0-lowe 1-rand  2-diag
   LASPH  =      F    aspherical Exc in radial PAW
   METAGGA=      F    non-selfconsistent MetaGGA calc.

 Electronic Relaxation 1
   ENCUT  =  500.0 eV  36.75 Ry    6.06 a.u.  16.83 19.81 21.29*2*pi/ulx,y,z
   ENINI  =  500.0     initial cutoff
   ENAUG  =  605.4 eV  augmentation charge cutoff
   NELM   =     80;   NELMIN=  2; NELMDL= -5     # of ELM steps
   EDIFF  = 0.1E-04   stopping-criterion for ELM
   LREAL  =      T    real-space projection
[...]
   0.829E+02 -.127E+03 0.620E+02   -.935E+02 0.133E+03 -.650E+02   0.111E+02 -.628E+01 0.380E+01   0.214E-01 -.275E-01 -.147E-01
   0.322E+02 0.943E+02 0.529E+02   -.363E+02 -.106E+03 -.573E+02   0.393E+01 0.131E+02 0.481E+01   -.191E-01 -.164E-01 0.438E-01
   -.842E+02 -.181E+03 -.793E+02   0.955E+02 0.192E+03 0.889E+02   -.136E+02 -.105E+02 -.106E+02   0.225E-02 0.796E-02 -.230E-01
   0.690E+02 0.582E+02 0.228E+03   -.766E+02 -.649E+02 -.253E+03   0.883E+01 0.707E+01 0.159E+02   0.152E-01 0.338E-02 -.104E-01
   -.115E+02 -.131E+03 0.665E+02   0.144E+02 0.143E+03 -.698E+02   -.643E+00 -.948E+01 0.410E+01   0.276E-01 -.759E-02 -.136E-01
   -.221E+03 0.913E+02 -.106E+03   0.239E+03 -.102E+03 0.116E+03   -.181E+02 0.110E+02 -.968E+01   0.391E-01 -.502E-01 -.242E-02
   0.196E+03 0.126E+02 0.521E+02   -.212E+03 -.138E+02 -.561E+02   0.144E+02 -.648E+00 0.464E+01   -.451E-01 -.399E-01 0.119E-01
   -.376E+02 0.135E+03 -.443E+02   0.426E+02 -.146E+03 0.427E+02   -.345E+01 0.104E+02 0.306E+01   -.175E-01 -.254E-01 0.158E-02
   -.291E+03 0.188E+02 -.245E+03   0.325E+03 -.236E+02 0.262E+03   -.237E+02 -.195E+01 -.131E+02   0.677E-01 -.496E-01 0.208E-01
   0.141E+03 0.603E+02 0.878E+02   -.150E+03 -.661E+02 -.933E+02   0.103E+02 0.641E+01 0.554E+01   -.127E-01 0.548E-01 -.231E-01
[...]
   -.491E+02 -.169E+03 0.116E+02   0.544E+02 0.183E+03 -.144E+02   -.320E+01 -.131E+02 0.321E+01   0.943E-02 0.574E-01 0.396E-01
   -.187E+03 0.478E+02 -.154E+03   0.203E+03 -.517E+02 0.163E+03   -.168E+02 0.517E+01 -.995E+01   0.147E-01 0.322E-01 0.890E-02
   0.177E+03 -.416E+02 0.521E+02   -.192E+03 0.464E+02 -.486E+02   0.125E+02 -.595E+01 -.201E+01   -.374E-01 -.196E-01 -.272E-01
   -.229E+02 0.131E+03 -.212E+02   0.254E+02 -.140E+03 0.282E+02   -.132E+01 0.696E+01 -.443E+01   0.693E-01 -.385E-01 -.150E-01
   -.193E+03 -.538E+02 -.122E+03   0.210E+03 0.624E+02 0.133E+03   -.177E+02 -.989E+01 -.119E+02   -.153E-01 -.840E-01 -.890E-02
   0.170E+03 0.770E+02 0.183E+03   -.183E+03 -.841E+02 -.194E+03   0.128E+02 0.795E+01 0.960E+01   -.468E-01 0.352E-01 0.342E-01
   0.258E+02 -.914E+02 0.152E+03   -.284E+02 0.103E+03 -.166E+03   0.233E+01 -.122E+02 0.119E+02   -.414E-01 -.259E-01 -.202E-01
   -.124E+03 0.158E+03 -.695E+02   0.136E+03 -.168E+03 0.787E+02   -.140E+02 0.923E+01 -.959E+01   -.332E-01 -.498E-01 0.476E-03
   0.551E+02 -.412E+02 0.114E+03   -.609E+02 0.461E+02 -.121E+03   0.650E+01 -.510E+01 0.659E+01   0.475E-01 0.407E-01 0.240E-01
   0.230E+02 0.180E+03 0.638E+02   -.241E+02 -.192E+03 -.688E+02   0.837E+00 0.130E+02 0.519E+01   -.936E-01 0.261E-01 -.128E-01
   -.138E+03 -.307E+02 -.896E+02   0.151E+03 0.359E+02 0.989E+02   -.137E+02 -.620E+01 -.100E+02   0.231E-01 0.135E-01 -.110E-01
   0.667E+02 0.133E+03 0.197E+03   -.747E+02 -.139E+03 -.216E+03   0.896E+01 0.514E+01 0.125E+02   0.709E-01 -.522E-01 0.370E-03
   -.278E+02 -.172E+03 0.169E+03   0.303E+02 0.187E+03 -.189E+03   -.216E+01 -.160E+02 0.131E+02   0.938E-02 0.416E-01 0.355E-01
   -.189E+03 0.976E+02 -.103E+03   0.205E+03 -.106E+03 0.113E+03   -.163E+02 0.810E+01 -.102E+02   0.353E-01 0.925E-01 -.107E-01
   0.118E+03 -.690E+01 0.647E+01   -.426E-12 0.169E-11 0.171E-12   -.118E+03 0.695E+01 -.654E+01   0.115E-01 -.619E-01 0.457E-01

 POSITION                                       TOTAL-FORCE (eV/Angst)
      7.01871      5.01705      2.52139        -2.758113     -1.436123     -1.054696
      5.39362      2.35718      2.47829         1.015552      0.030430      2.127555
     -2.47930      3.30049      9.74463        -0.461178     -0.416791      9.515014
      2.52368      0.43646      0.06979        -9.520779      6.772239     -1.778191
      2.31641      2.20449      2.57638        -0.496312      0.878493     -0.512519
      0.73910      5.15602      2.50934         0.669611     -0.515031     -0.118740
      8.57847      0.58111      0.02550        -1.230096      1.763766      0.951104
      7.12048      3.28427      0.07253        -0.583303     -0.196783      0.926318
      3.77247      5.06901      7.52283        -0.819522     -1.578442     -1.073526
      2.24277      2.34732      7.58390         0.468604      0.180786     -1.534117
      0.55028      3.35796      4.95982         0.251793     -1.725234      1.084280
     -0.94015      0.46109      5.08950         3.443426      1.084015     -0.263303
     -0.93777      2.18087      7.60056        -0.233965      0.376279     -1.020787
     -2.44274      5.08232      7.56269         0.797795      0.882214     -0.826786
      5.33158      0.49046      4.95116        -1.739972      3.671167     -1.830662
      3.75929      3.24226      5.07678         1.364971     -0.917278     -0.088742
      7.07120     10.69597      2.51115        -5.710031     -3.468467     -3.167276
      5.46634      7.85805      2.57260         1.230062      0.261114     -0.306546
     -2.50375      8.80260      9.74680        -0.289423     -0.896594      6.910154
     -3.98350      5.95862      9.78176         0.790591      0.355830      7.312252
      2.26775      7.92147      2.51815         0.170520     -1.192579     -0.396598
      0.74681     10.77381      2.50192        -0.620856     -2.113268     -0.817649
      8.59331      6.13451      0.05424        -1.848639      0.085980      0.628776
      7.13642      8.69301      0.08312        -0.829783      1.589385      1.846944
      3.67496     10.62538      7.56527        -1.231719     -3.970106     -3.865750
      2.20746      7.83099      7.55368         0.742893      0.476649     -0.718029
      0.65507      8.93212      4.97111        -0.181296     -0.083903      1.211472
     -0.87550      6.01859      4.95619         0.557021      0.425571      1.429940
     -1.07289      7.80869      7.50111         0.443007     -0.013363      0.111896
     -2.54436     10.64696      7.59113         1.640870     -0.033546     -1.894794
      5.31222      6.01261      5.04351        -0.146711      2.427554     -1.289350
      3.81285      8.86352      5.02217         0.534554     -1.325796     -0.153141
      7.18125      4.91672      0.56149         0.401261      1.430782      1.383597
      0.66990      5.20720      0.64191         1.832208     -0.437670      1.314620
      3.80043      5.02944      0.52597        -0.506588     -0.509220     -0.240364
      5.58487      0.53166      3.15811        -0.400914      1.325823     -0.161587
      3.80801      3.00381      3.18492         0.250909     -0.301420      0.764424
      6.89151      3.29763      3.01879        -1.297354      0.093116     -0.735618
      2.57232      2.25745      0.62870         0.257743     -0.684524      1.172490
      5.46349      2.52650      0.78637        -0.219895      0.714833     -1.608785
      8.40293      2.27228      0.52685         0.352808     -0.547425      0.209610
      0.91402      3.27282      3.26016         0.677160      0.643558     -1.309764
     -0.82553      0.25106      3.19114         4.751884      2.247933      3.494342
      2.15615      0.54287      3.01692         2.019633      0.969912      0.666046
      4.06064      4.97734      5.55873        -1.139182     -1.385494      1.364786
     -2.50314      5.29481      5.70982         1.636210     -0.087946      0.795308
      0.53719      4.96844      5.49851        -1.071998      1.020440     -0.100948
      2.37445      0.55798      8.12372        -2.592623      2.340278     -1.115568
      0.63169      2.96718      8.17406        -0.786299     -0.566859     -1.424370
      3.66554      3.25794      7.98209        -0.099914      1.235325     -0.514163
     -0.76345      2.23751      5.65077         0.432464      0.023070      0.775381
      2.19472      2.47712      5.65290        -0.228352      1.043762      0.426945
      5.44261      2.21422      5.60825        -2.220095      0.038875     -1.094922
     -2.42849      3.39853      8.23378         1.256308      0.374657     -9.298694
     -4.12280      0.22156      8.13200         2.280414      1.735408      0.728448
     -1.02952      0.47615      7.97809         0.476580      0.580625      0.169060
      7.27235     10.60146      0.67889        -1.385055     -1.835796      0.678374
      0.82970      0.02752      0.62748         1.475567     -0.686610      1.445575
      3.73490     10.60634      0.47952        10.290902     -6.816453      3.592074
      5.57599      6.05949      3.16816         0.651712      0.699697      0.049564
[...]
      0.89118      8.88739      3.19115         0.514921      0.717723     -0.122927
     -0.88185      5.77095      3.19326         2.111709      0.753378      0.467301
      2.17447      6.04103      2.96591        -0.522940      1.275893     -0.549330
      4.03468     10.53720      5.60318        -1.956100     -1.073566      1.451612
     -2.47566      0.11391      5.65220         1.287883     -2.051891      2.573570
      0.63557     10.67923      5.57245        -0.615309     -1.380439     -0.842111
      2.32346      6.00691      8.09381         0.185167      0.852825     -1.276015
      0.54761      8.63628      8.19120        -0.348725     -0.852052     -2.201657
      3.62243      8.90215      7.95890        -1.161137     -0.494693     -0.429634
     -0.74524      7.76543      5.72681         0.774402     -0.236530     -0.656262
      2.23051      8.06574      5.66516        -0.379460      0.769521      0.228441
      5.20996      7.82553      5.48241        -0.802605     -0.955166     -0.647853
     -2.40490      8.95899      8.18908         1.041403      0.050576     -6.216397
     -4.12157      5.95733      8.23543         0.321096     -0.470194     -6.635441
     -1.02224      6.09921      7.98202        -0.941198      0.108984     -0.336999
    total drift:                               -0.001911     -0.003606     -0.019236

  FREE ENERGIE OF THE ION-ELECTRON SYSTEM (eV)
  free  energy   TOTEN  =      -471.1531118818 eV

  energy  without entropy=     -471.0527850907  energy(sigma->0) =     -471.10294849

volume of typ            1:    20.8 %

volume of typ            2:     8.0 %

total charge

# of ion       s       p       d       tot
    1        0.287   0.346   7.878   8.510
    2        0.279   0.330   7.850   8.459
    3        0.343   0.446   7.919   8.709
    4        0.372   0.511   7.969   8.852
    5        0.275   0.326   7.862   8.463
    6        0.261   0.297   7.861   8.419
    7        0.347   0.477   7.907   8.730
    8        0.324   0.414   7.878   8.615
    9        0.263   0.307   7.892   8.461
   10        0.272   0.325   7.862   8.459
   11        0.298   0.359   7.834   8.491
   12        0.292   0.366   7.892   8.550
   13        0.251   0.281   7.885   8.417
   14        0.257   0.292   7.893   8.442
   15        0.339   0.450   7.886   8.675
   16        0.248   0.270   7.854   8.373
   17        0.338   0.448   7.912   8.698
   18        0.252   0.274   7.826   8.351
   19        0.311   0.391   7.918   8.620
   20        0.327   0.417   7.905   8.649
   21        0.249   0.269   7.855   8.373
   22        0.296   0.372   7.923   8.591
   23        0.309   0.394   7.879   8.582
   24        0.319   0.402   7.886   8.607
   25        0.344   0.457   7.940   8.741
   26        0.247   0.271   7.846   8.365
   27        0.256   0.284   7.843   8.383
   28        0.257   0.293   7.863   8.412
   29        0.266   0.307   7.859   8.432
   30        0.294   0.370   7.932   8.596
   31        0.301   0.373   7.857   8.531
   32        0.272   0.317   7.836   8.425
   33        1.272   2.750   0.009   4.030
   34        1.273   2.758   0.010   4.041
   35        1.284   2.705   0.008   3.997
   36        1.268   2.762   0.009   4.040
   37        1.271   2.744   0.009   4.024
   38        1.283   2.695   0.007   3.984
   39        1.273   2.731   0.007   4.011
   40        1.275   2.753   0.009   4.037
   41        1.284   2.733   0.010   4.028
   42        1.270   2.743   0.008   4.020
   43        1.271   2.834   0.018   4.124
   44        1.283   2.756   0.013   4.052
   45        1.270   2.757   0.010   4.038
   46        1.271   2.757   0.010   4.037
   47        1.282   2.717   0.009   4.008
   48        1.269   2.826   0.017   4.113
   49        1.267   2.784   0.011   4.063
   50        1.280   2.710   0.008   3.998
   51        1.271   2.725   0.007   4.003
   52        1.275   2.713   0.007   3.995
   53        1.291   2.650   0.004   3.945
   54        1.274   2.818   0.019   4.111
   55        1.268   2.850   0.019   4.137
   56        1.280   2.737   0.010   4.027
   57        1.273   2.765   0.010   4.048
   58        1.271   2.790   0.012   4.073
   59        1.294   2.795   0.020   4.109
   60        1.270   2.728   0.007   4.004
[...]
   66        1.270   2.739   0.008   4.017
   67        1.266   2.799   0.014   4.079
   68        1.283   2.690   0.007   3.979
   69        1.269   2.785   0.012   4.066
   70        1.271   2.822   0.016   4.110
   71        1.284   2.694   0.007   3.985
   72        1.267   2.764   0.010   4.042
   73        1.274   2.749   0.010   4.033
   74        1.282   2.711   0.007   4.001
   75        1.266   2.736   0.007   4.009
   76        1.272   2.723   0.007   4.002
   77        1.282   2.695   0.006   3.983
   78        1.269   2.819   0.017   4.105
   79        1.277   2.808   0.018   4.104
   80        1.281   2.707   0.008   3.996
tot          70.55  143.42  252.70  466.67

magnetization (x)

# of ion       s       p       d       tot
    1       -0.001  -0.011  -0.410  -0.423
    2       -0.000   0.015   0.794   0.808
    3       -0.000  -0.009  -0.376  -0.385
    4       -0.001  -0.003   0.027   0.024
    5        0.002   0.011   0.624   0.636
    6        0.001   0.014   0.926   0.942
    7        0.000  -0.004  -0.218  -0.222
    8       -0.002  -0.006  -0.282  -0.289
    9        0.001   0.004   0.436   0.442
   10        0.002   0.018   0.956   0.975
   11       -0.003  -0.016  -0.862  -0.881
   12       -0.001   0.007   0.392   0.398
   13        0.004   0.016   0.875   0.895
   14        0.001   0.010   0.667   0.678
   15        0.001  -0.015  -0.516  -0.530
   16        0.000   0.004   0.185   0.189
   17       -0.001  -0.002   0.080   0.077
   18        0.000   0.016   1.087   1.103
   19       -0.001  -0.004  -0.234  -0.238
   20       -0.001  -0.012  -0.470  -0.482
   21        0.001   0.013   0.711   0.724
   22        0.001   0.003   0.000   0.003
   23       -0.001  -0.014  -0.604  -0.619
   24       -0.000   0.007   0.212   0.218
   25        0.001  -0.003  -0.056  -0.058
   26        0.000   0.017   1.100   1.117
   27        0.001   0.014   0.687   0.702
   28        0.000  -0.014  -0.818  -0.832
   29        0.002   0.015   0.836   0.853
   30        0.003   0.005   0.351   0.358
   31       -0.000  -0.009  -0.445  -0.454
   32       -0.000   0.020   0.999   1.018
   33       -0.003  -0.083  -0.000  -0.087
   34       -0.002  -0.057  -0.000  -0.059
   35       -0.004  -0.167  -0.000  -0.171
   36        0.000   0.020  -0.000   0.020
   37        0.005   0.142   0.000   0.147
   38        0.002   0.072  -0.000   0.074
   39        0.000   0.007  -0.000   0.007
   40        0.000   0.050   0.000   0.050
   41       -0.003  -0.112  -0.000  -0.116
   42        0.000   0.009  -0.000   0.009
   43        0.001   0.002   0.000   0.003
   44        0.003   0.125   0.000   0.129
   45        0.001   0.010   0.000   0.011
   46       -0.002  -0.077  -0.000  -0.079
   47       -0.007  -0.318  -0.000  -0.325
   48        0.000   0.005  -0.000   0.005
   49        0.004   0.102   0.000   0.106
   50        0.008   0.330   0.000   0.338
   51        0.001   0.025  -0.000   0.026
   52        0.001   0.032   0.000   0.033
   53       -0.003  -0.143   0.000  -0.146
   54        0.001   0.004  -0.000   0.005
   55        0.001   0.004   0.000   0.006
   56        0.006   0.288  -0.000   0.295
   57        0.001   0.008  -0.000   0.009
   58       -0.000  -0.008  -0.000  -0.008
   59       -0.001  -0.018   0.000  -0.019
   60       -0.001  -0.026   0.000  -0.027
[...]
   66        0.004   0.067   0.000   0.071
   67       -0.001  -0.048  -0.000  -0.049
   68        0.008   0.378   0.000   0.387
   69        0.001   0.002  -0.000   0.002
   70        0.001   0.021   0.000   0.021
   71        0.006   0.255  -0.000   0.260
   72        0.001   0.029   0.000   0.031
   73        0.007   0.189   0.000   0.196
   74        0.005   0.196   0.000   0.200
   75        0.004   0.075   0.000   0.079
   76        0.009   0.268   0.000   0.277
   77        0.004   0.175   0.000   0.179
   78        0.002  -0.001  -0.000   0.001
   79        0.001   0.012  -0.000   0.012
   80        0.007   0.318   0.000   0.325
tot           0.09    2.78    6.66    9.52