 vasp.5.4.4.18Apr17-6-g9f103f2a35 (build May 12 2020 04:58:55) complex

 MD_VERSION_INFO: Compiled 2020-05-12T11:58:55-UTC in devlin.sd.materialsdesign.
 com:/home/medea2/data/build/wwolf/vasp-gpu5.4.4/13047/x86_64/src/src/build/std
 from svn 13047

 executed on                        Lin64 date 2023.03.25  22:59:58

 INCAR:
 POTCAR:    PAW_PBE Ni 02Aug2007
 POTCAR:    PAW_PBE O 08Apr2002

 POTCAR:    PAW_PBE Ni 02Aug2007

 POTCAR:    PAW_PBE O 08Apr2002

 Optimization of the real space projectors (new method)

 maximal supplied QI-value         = 16.25
 optimisation between [QCUT,QGAM] = [ 11.38, 22.75] = [ 36.24,144.96] Ry
 Optimized for a Real-space Cutoff    1.47 Angstroem

   l    n(q)    QCUT    max X(q) W(low)/X(q) W(high)/X(q)  e(spline)
   2      9    11.376    60.317    0.17E-03    0.16E-04    0.16E-06
   2      9    11.376    55.921    0.17E-03    0.16E-04    0.17E-06
   0     10    11.376    51.690    0.45E-04    0.60E-04    0.21E-06
   0     10    11.376    30.015    0.37E-04    0.55E-04    0.19E-06
   1     10    11.376    18.849    0.83E-04    0.11E-03    0.92E-07
   1     10    11.376    14.624    0.69E-04    0.92E-04    0.82E-07
 Optimization of the real space projectors (new method)

 maximal supplied QI-value         = 24.76
 optimisation between [QCUT,QGAM] = [ 11.39, 22.77] = [ 36.31,145.25] Ry
 Optimized for a Real-space Cutoff    1.10 Angstroem

   l    n(q)    QCUT    max X(q) W(low)/X(q) W(high)/X(q)  e(spline)
   0      7    11.387    20.381    0.22E-03    0.48E-03    0.18E-06
   0      7    11.387    15.268    0.22E-03    0.52E-03    0.19E-06
   1      7    11.387     5.964    0.22E-03    0.73E-03    0.24E-06
   1      7    11.387     5.382    0.19E-03    0.60E-03    0.21E-06

  PAW_PBE Ni 02Aug2007                  :
  PAW_PBE O 08Apr2002                   :

 POSCAR: Ni2O3_Cc_scale_0_950_disp_0_20_round_1
  positions in direct lattice
 exchange correlation table for  LEXCH =       14
   RHO(1)=    0.500       N(1)  =     2000
   RHO(2)=  100.500       N(2)  =     4000

 ion  position               nearest neighbor table
   1  0.001  0.485  0.265-  67 0.92  33 1.80  60 2.12  38 2.27   6 2.33  28 2.44   8 2.92  23 3.02

   2  0.748  0.214  0.261-  37 1.80  40 1.83  36 1.93  38 2.05   5 2.69  15 2.69  17 2.77  16 2.92
                             3 2.93
   3  0.431  0.300  0.999-  54 1.21  40 1.84  39 2.01  35 2.26  13 2.37  14 2.80   2 2.93   5 2.97

[...]

   6  0.237  0.472  0.236-  34 1.63  67 1.78  42 1.87  68 2.20   1 2.33  20 2.60  23 2.78   5 2.99

[...]

   9  0.980  0.502  0.785-  72 1.59  79 1.76  45 1.83  50 1.85  23 2.51  14 2.67  20 2.79  26 2.79
                            31 2.97
  10  0.836  0.206  0.797-  48 1.84  50 2.02  49 2.04  52 2.09  25 2.52   7 2.53   8 2.98
  11  0.443  0.292  0.536-  52 1.78  51 1.81  42 1.83  47 1.86  12 3.06  13 3.07
  12  0.324  0.025  0.550-  71 0.97  43 1.91  70 2.07  27 2.13  51 2.21  22 2.78  11 3.06
  13  0.437  0.247  0.800-  54 1.68  51 1.75  49 1.85  56 2.35   3 2.37  30 2.70   8 2.91  14 2.94
                            11 3.07
  14  0.287  0.494  0.800-  79 1.50  80 1.53  54 2.11  35 2.19  46 2.20   9 2.67   3 2.80  20 2.93
                            13 2.94  29 2.98  31 3.05
  15  0.909  0.075  0.498-  69 1.58  70 1.68  53 1.69  36 2.15   2 2.69  16 2.84  32 2.87  25 2.93
                            17 3.05
  16  0.787  0.319  0.514-  37 1.60  53 1.94  52 2.00  45 2.04  15 2.84   5 2.89   2 2.92  31 2.99

  17  0.934  0.012  0.247-  36 1.44  57 1.65  43 1.85  62 2.10   2 2.77  24 2.79  22 2.81  15 3.05

  18  0.760  0.750  0.274-  61 1.66  64 1.70  60 1.99  62 2.19  21 2.71  32 2.98  31 3.05
  19  0.422  0.844  0.986-  78 1.15  59 1.94  64 2.24  63 2.38  29 2.45   4 2.47  30 2.69
  20  0.279  0.567  0.045-  34 1.74  63 1.74  79 1.75  35 1.84   6 2.60  23 2.78   9 2.79  21 2.80
                            14 2.93
  21  0.460  0.730  0.275-  63 1.45  68 1.53  61 1.64  66 2.05  18 2.71  20 2.80
  22  0.270  1.000  0.286-  44 1.25  43 1.38  66 1.80  58 2.01  12 2.78  17 2.81  27 2.94   4 3.00

  23  0.935  0.544  0.981-  72 1.24  34 1.56  33 1.97  65 2.31   9 2.51  26 2.63   8 2.66  20 2.78
                             6 2.78   1 3.02
  24  0.814  0.836  0.031-  73 1.57  65 1.60  57 1.95  64 2.06   7 2.70  17 2.79  26 3.07
  25  0.991  0.017  0.779-  55 1.16  69 1.54  48 1.83  74 2.10  30 2.30   7 2.38  10 2.52   4 2.54
                            15 2.93  32 2.99
  26  0.778  0.707  0.774-  76 1.73  72 1.76  73 2.00  74 2.04  23 2.63   9 2.79  24 3.07
  27  0.420  0.844  0.540-  75 1.61  71 2.07  66 2.13  12 2.13  22 2.94  29 3.05
  28  0.233  0.559  0.499-  47 1.84  67 1.87  46 2.19  75 2.39   1 2.44  31 2.66
  29  0.437  0.745  0.799-  78 1.69  80 1.76  75 2.01  73 2.09  19 2.45  14 2.98  27 3.05
  30  0.268  0.046  0.819-  55 1.70  56 1.78  59 2.01  70 2.20  25 2.30  78 2.31   4 2.33  19 2.69
                            13 2.70
  31  0.953  0.566  0.520-  46 1.67  45 1.68  60 1.74  77 1.94  28 2.66   9 2.97  16 2.99  14 3.05
                            18 3.05
  32  0.805  0.833  0.541-  76 1.89  77 1.95  61 2.02  69 2.19  15 2.87  18 2.98  25 2.99
  33  0.838  0.461  0.081-   8 1.50   1 1.80  23 1.97
  34  0.126  0.488  0.066-  23 1.56   6 1.63  20 1.74
  35  0.461  0.513  0.028-  20 1.84  14 2.19   3 2.26
  36  0.803  0.036  0.280-  17 1.44   2 1.93  15 2.15
  37  0.655  0.268  0.357-   5 1.54  16 1.60   2 1.80
  38  0.996  0.284  0.331-   2 2.05   1 2.27
  39  0.309  0.179  0.055-   4 1.72   3 2.01   5 2.12
  40  0.647  0.223  0.071-   2 1.83   3 1.84   8 2.16
  41  0.954  0.207  0.075-   8 1.82   7 2.24
  42  0.361  0.336  0.354-  11 1.83   6 1.87   5 1.89
  43  0.179  0.003  0.352-  22 1.38  17 1.85  12 1.91
  44  0.394  0.040  0.277-  22 1.25   5 2.28   4 2.47
  45  0.855  0.497  0.594-  31 1.68   9 1.83  16 2.04
  46  0.099  0.447  0.577-  31 1.67  28 2.19  14 2.20
  47  0.436  0.466  0.560-  28 1.84  11 1.86
  48  0.858  0.041  0.855-   7 1.17  25 1.83  10 1.84
  49  0.670  0.271  0.854-   8 1.64  13 1.85  10 2.04
  50  0.018  0.331  0.816-   9 1.85  10 2.02
  51  0.341  0.222  0.620-  13 1.75  11 1.81  12 2.21
  52  0.652  0.229  0.582-  11 1.78  16 2.00  10 2.09
  53  0.996  0.218  0.570-  15 1.69  16 1.94
  54  0.332  0.307  0.872-   3 1.21  13 1.68  14 2.11
  55  0.130  0.033  0.878-  25 1.16   4 1.44  30 1.70   7 2.29
  56  0.493  0.035  0.872-  30 1.78  13 2.35
  57  0.842  0.015  0.077-  17 1.65  24 1.95   7 1.99
  58  0.137  0.044  0.081-   7 1.36   4 1.67  22 2.01
  59  0.426  0.022  0.028-   4 1.37  19 1.94  30 2.01
  60  0.859  0.578  0.340-  31 1.74  18 1.99   1 2.12
  61  0.641  0.813  0.331-  21 1.64  18 1.66  32 2.02
  62  0.012  0.825  0.319-  17 2.10  18 2.19
  63  0.358  0.714  0.124-  21 1.45  20 1.74  19 2.38
  64  0.678  0.737  0.100-  18 1.70  24 2.06  19 2.24
  65  0.978  0.745  0.072-  24 1.60  23 2.31
  66  0.303  0.833  0.320-  22 1.80  21 2.05  27 2.13
  67  0.113  0.520  0.308-   1 0.92   6 1.78  28 1.87
  68  0.469  0.597  0.330-  21 1.53   6 2.20
  69  0.885  0.027  0.618-  25 1.54  15 1.58  32 2.19
  70  0.125  0.036  0.589-  15 1.68  12 2.07  30 2.20
  71  0.443  0.038  0.571-  12 0.97  27 2.07
  72  0.900  0.571  0.862-  23 1.24   9 1.59  26 1.76
  73  0.690  0.814  0.868-  24 1.57  26 2.00  29 2.09
  74  0.981  0.832  0.840-  26 2.04  25 2.10
  75  0.308  0.769  0.591-  27 1.61  29 2.01  28 2.39
  76  0.698  0.715  0.597-  26 1.73  32 1.89
  77  0.018  0.733  0.603-  31 1.94  32 1.95
  78  0.346  0.836  0.866-  19 1.15  29 1.69  30 2.31
  79  0.200  0.555  0.866-  14 1.50  20 1.75   9 1.76
  80  0.434  0.580  0.816-  14 1.53  29 1.76

  LATTYP: Found a simple monoclinic cell.
 ALAT       =    15.1502718722
 B/A-ratio  =     0.6987547873
 C/A-ratio  =     1.5833429412
 COS(beta)  =    -0.9717709890

  Lattice vectors:

 A1 = ( -11.7745282000,   0.0000000000,  -9.5336888700)
 A2 = (   0.0000000000, -10.5863250000,   0.0000000000)
 A3 = (  14.5555109000,   0.0000000000,  19.0673777400)

Analysis of symmetry for initial positions (statically):
 Subroutine PRICEL returns:
 Original cell was already a primitive cell.

 Routine SETGRP: Setting up the symmetry group for a
 simple monoclinic supercell.

 Subroutine GETGRP returns: Found  1 space group operations
 (whereof  1 operations were pure point group operations)
 out of a pool of  4 trial point group operations.

The static configuration has the point symmetry C_1 .

Analysis of symmetry for dynamics (positions and initial velocities):
 Subroutine PRICEL returns:
 Original cell was already a primitive cell.

[...]

The dynamic configuration has the point symmetry C_1 .

Analysis of structural, dynamic, and magnetic symmetry:
 Subroutine PRICEL returns:
 Original cell was already a primitive cell.

 Routine SETGRP: Setting up the symmetry group for a
 simple monoclinic supercell.

 Subroutine GETGRP returns: Found  1 space group operations
 (whereof  1 operations were pure point group operations)
 out of a pool of  4 trial point group operations.

The magnetic configuration has the point symmetry C_1 .

 Subroutine INISYM returns: Found  1 space group operations
 (whereof  1 operations are pure point group operations),
 and found     1 'primitive' translations

 KPOINTS: Automatic mesh

Automatic generation of k-mesh.
Space group operators:
 irot       det(A)        alpha          n_x          n_y          n_z        tau_x        tau_y        tau_z
    1     1.000000     0.000000     1.000000     0.000000     0.000000     0.000000     0.000000     0.000000

 Subroutine IBZKPT returns following result:

 Found     19 irreducible k-points:

 Following reciprocal coordinates:
            Coordinates               Weight
  0.000000  0.000000  0.000000      1.000000
  0.250000  0.000000  0.000000      2.000000
  0.500000  0.000000  0.000000      1.000000
  0.000000  0.333333  0.000000      2.000000
  0.250000  0.333333  0.000000      2.000000
  0.500000  0.333333  0.000000      2.000000
 -0.250000  0.333333 -0.000000      2.000000
  0.000000  0.000000  0.333333      2.000000
  0.250000  0.000000  0.333333      2.000000
  0.500000  0.000000  0.333333      2.000000
 -0.250000  0.000000  0.333333      2.000000
  0.000000  0.333333  0.333333      2.000000
  0.250000  0.333333  0.333333      2.000000
  0.500000  0.333333  0.333333      2.000000
 -0.250000  0.333333  0.333333      2.000000
  0.000000 -0.333333  0.333333      2.000000
  0.250000 -0.333333  0.333333      2.000000
  0.500000 -0.333333  0.333333      2.000000
 -0.250000 -0.333333  0.333333      2.000000

 Following cartesian coordinates:
            Coordinates               Weight
  0.000000  0.000000  0.000000      1.000000
  0.027798  0.000000  0.018114      2.000000
  0.055595  0.000000  0.036228      1.000000
  0.000000  0.031487  0.000000      2.000000
  0.027798  0.031487  0.018114      2.000000
  0.055595  0.031487  0.036228      2.000000
 -0.027798  0.031487 -0.018114      2.000000
  0.000000  0.000000  0.034964      2.000000
  0.027798  0.000000  0.053078      2.000000
  0.055595  0.000000  0.071192      2.000000
 -0.027798  0.000000  0.016850      2.000000
  0.000000  0.031487  0.034964      2.000000
  0.027798  0.031487  0.053078      2.000000
[...]
   0.775E+02 -.786E+02 0.133E+03   -.915E+02 0.758E+02 -.143E+03   0.150E+02 0.245E+01 0.908E+01   -.244E-01 0.632E-01 0.611E-01
   0.200E+01 0.475E+02 0.158E+02   0.371E+01 -.592E+02 -.176E+02   -.502E+01 0.120E+02 0.325E+01   0.247E-01 0.154E-01 0.176E-02
   -.144E+03 -.208E+03 -.498E+02   0.162E+03 0.223E+03 0.633E+02   -.186E+02 -.122E+02 -.137E+02   -.110E-01 0.285E-01 -.152E-01
   0.144E+03 -.957E+02 0.354E+03   -.170E+03 0.102E+03 -.435E+03   0.197E+02 -.169E+01 0.244E+02   0.478E-01 -.359E-02 0.435E-01
   -.879E+02 -.620E+02 -.206E+02   0.125E+03 0.824E+02 0.792E+02   0.240E+01 -.741E+01 -.920E+01   -.493E-01 -.109E-01 0.314E-01
   -.305E+03 0.492E+02 0.367E+02   0.324E+03 -.533E+02 -.296E+02   -.187E+02 0.508E+01 -.956E+01   0.460E-01 0.352E-02 0.504E-01
   0.149E+03 -.624E+02 0.109E+03   -.156E+03 0.752E+02 -.127E+03   0.727E+01 -.144E+02 0.152E+02   -.860E-02 0.131E-01 -.321E-01
   0.167E+02 -.745E+02 -.334E+03   -.267E+01 0.890E+02 0.373E+03   -.223E+01 -.123E+02 -.192E+02   0.123E-02 0.158E-01 -.248E-01
   -.426E+03 -.338E+01 -.296E+03   0.483E+03 0.173E+02 0.310E+03   -.312E+02 -.164E+02 -.121E+02   0.805E-02 -.124E-01 0.417E-01
   0.101E+03 0.667E+02 0.150E+03   -.104E+03 -.723E+02 -.164E+03   0.366E+01 0.659E+01 0.129E+02   0.376E-02 0.313E-01 -.183E-01
[...]
   -.375E+03 -.317E+03 -.287E+03   0.635E+03 0.453E+03 0.432E+03   -.495E+02 -.311E+02 -.273E+02   -.260E-01 0.134E-02 0.232E-02
   -.322E+02 0.249E+03 -.261E+03   0.323E+02 -.276E+03 0.278E+03   -.231E+01 0.194E+02 -.151E+02   0.989E-02 0.581E-03 0.132E-01
   0.228E+03 0.781E+02 0.224E+03   -.245E+03 -.789E+02 -.233E+03   0.115E+02 -.234E+01 0.236E+01   -.132E-01 -.339E-01 -.907E-02
   -.133E+03 0.127E+03 0.304E+02   0.145E+03 -.133E+03 -.222E+02   -.719E+01 0.447E+01 -.599E+01   -.431E-01 -.160E-01 -.216E-01
   -.648E+03 -.109E+03 -.199E+03   0.906E+03 0.153E+03 0.256E+03   -.602E+02 -.154E+02 -.146E+02   0.873E-01 0.283E-02 0.350E-01
   0.128E+03 -.666E+02 0.316E+03   -.114E+03 0.839E+02 -.372E+03   -.579E+00 -.359E+01 0.120E+02   -.512E-02 -.451E-01 0.291E-01
   0.476E+02 0.112E+02 0.248E+03   -.488E+02 -.438E+01 -.270E+03   0.221E+00 -.856E+01 0.165E+02   -.447E-01 -.974E-02 0.376E-01
   -.401E+02 0.197E+03 0.273E+02   0.463E+02 -.200E+03 -.209E+02   -.705E+01 0.299E+01 -.707E+01   0.228E-01 0.968E-02 0.351E-02
   0.133E+03 0.137E+03 0.474E+02   -.157E+03 -.143E+03 -.505E+02   0.214E+02 0.381E+01 0.540E+01   -.279E-01 -.638E-01 0.242E-01
   0.118E+03 0.129E+03 0.171E+03   -.120E+03 -.141E+03 -.186E+03   0.235E+01 0.139E+02 0.142E+02   0.382E-01 -.159E-02 -.532E-01
   -.107E+03 -.688E+02 -.339E+02   0.118E+03 0.743E+02 0.438E+02   -.121E+02 -.570E+01 -.114E+02   -.804E-02 -.543E-02 -.206E-01
   0.617E+02 0.129E+03 0.456E+03   -.691E+02 -.131E+03 -.569E+03   0.110E+02 -.366E+01 0.316E+02   0.283E-01 -.495E-01 0.460E-01
   0.268E+02 -.216E+03 0.337E+02   -.368E+02 0.239E+03 -.298E+02   0.755E+00 -.178E+02 -.168E+01   0.508E-02 0.309E-02 -.528E-01
   -.338E+03 0.229E+02 0.110E+02   0.363E+03 -.218E+02 -.308E+01   -.187E+02 0.325E+01 -.820E+01   0.181E-01 0.331E-01 0.694E-02
   0.155E+03 -.404E+02 -.437E+02   0.341E-12 0.102E-11 0.103E-11   -.155E+03 0.404E+02 0.436E+02   -.283E-01 0.221E-01 0.168E+00

 POSITION                                       TOTAL-FORCE (eV/Angst)
     -1.64076      5.13843      2.52857      -213.132455   -105.142154   -114.475409
      5.10596      2.26404      2.48408         2.269784      0.123206     -0.450909
     -2.33261      3.18110      9.52533         4.286635     -3.476229     58.173163
      2.28465      0.20358      0.22309       -16.185680     -2.945697     17.570945
      2.43788      2.60717      2.51927        -6.597692     -1.498586     -5.252474
      0.66427      4.99632      2.24573         2.901041     -1.832716      4.843952
      2.61386      0.30041      9.29708        -8.425330    -10.918547     53.968786
      7.07241      3.54946      0.09351         0.809369     -9.886567     -1.724217
      3.93492      5.31787      7.48751         3.128642     -4.662827     -4.246833
      2.56381      2.18457      7.60288        -0.038019      2.533615     -1.212253
      0.65732      3.09366      5.10572        -0.386831      1.977084     -0.311135
     -0.50188      0.26137      5.24376      -200.353753    -26.182255    -40.121987
     -1.03906      2.61918      7.62376         2.000975     -2.022960     -0.450112
     -2.38932      5.23403      7.62258         3.608857     -8.324919     -5.468603
      5.08102      0.79896      4.74400         1.909538      1.046181     -5.104045
      3.89148      3.37505      4.89631         0.730273      1.460690      5.946776
      6.85942      0.12184      2.35860        12.707972     -4.096027     -0.256674
      5.12983      7.93642      2.61244         4.807504     -1.687823      0.556904
     -2.33155      8.93346      9.40441        -3.641009      5.062816     82.155901
      2.23260      6.00449      0.42802         3.413285     -0.946561      0.623447
      2.42458      7.73300      2.62101        -2.981782      6.088793     10.815681
      0.64954     10.58569      2.72689       -22.924765    -18.004014     -5.512119
      2.31233      5.75725      9.35279       -24.880400     -8.127380     42.065156
      7.13122      8.84958      0.29449        -2.004823      1.915945      5.517271
      4.07117      0.17536      7.42477       -42.732921    -13.889703    -61.371769
      2.18432      7.48519      7.38060         0.640500      3.078728      0.093738
      0.42266      8.93237      5.14770         3.972077     -1.829156     -2.289614
     -1.00175      5.92041      4.75458         0.522120     -0.759556      2.174056
     -1.03371      7.88663      7.61615         1.700697     -0.514651     -2.193801
     -2.68110      0.48852      7.81177         5.873863      0.833846     -2.792829
      5.34113      5.98694      4.95382        -0.427818      3.150516     -0.240975
      3.87399      8.82025      5.16060         0.885095     -1.440002      0.859802
      7.03422      4.88479      0.77063        -0.166466      8.953573      3.292706
      0.72720      5.16436      0.62828         5.156258     -2.833673      1.739728
      3.97586      5.42662      0.26640        -0.239629     -1.551496      1.390275
      5.47880      0.38361      2.67063       -14.525019      3.813737      4.595873
      3.67311      2.83473      3.40794         5.060259     -0.010750     -0.163205
      6.89903      3.00157      3.15342        -1.571037      0.482691     -1.193342
      2.43427      1.89289      0.52625         0.413970      6.159293      2.610935
      5.37503      2.35747      0.68023        -0.121117      1.111082      1.075578
      8.11064      2.19197      0.71786        -0.361775      2.084417     -0.399440
      1.04120      3.55187      3.37832         0.708645     -0.660043     -1.123751
     -0.57807      0.02997      3.35231       -21.776979      2.789535      8.835522
      1.81979      0.41977      2.64119        45.714742     17.162074     -2.501352
      3.99821      5.26097      5.65849        -1.818897     -1.855815      0.285907
     -2.68820      4.73498      5.49765         3.045953     -0.242285      1.217929
      0.43887      4.92812      5.34095        -1.341934      0.108096     -0.072309
      2.40978      0.42942      8.15029       -16.224127      9.108945    -71.922926
      0.72391      2.86841      8.14084         0.413662     -1.122190     -3.432158
     -4.90627      3.50108      7.78311        -1.866525     -0.422952     -0.385128
     -0.78019      2.35441      5.91001         1.005190     -0.227444     -0.740678
      2.25278      2.42613      5.54591         0.716308      0.407407      1.382763
      5.41954      2.30814      5.42962        -1.164328      3.047307     -0.227061
     -2.43694      3.24700      8.31711        -6.346101      4.358818    -57.106281
     -4.28334      0.35091      8.37118        39.816600     12.944925     49.416805
     -0.98055      0.37350      8.31082        -0.150715      1.070484     -2.329422
      7.09577      0.15911      0.73077         0.691363     -1.606713     -2.522895
      0.72950      0.47072      0.77271        11.774720      2.228923     19.284180
      3.65439      0.23116      0.27104        25.801927     -2.422910      1.747378
      5.61601      6.11660      3.23937         0.549099      0.971143     -0.869954
[...]
      0.74096      8.81581      3.04639         1.787414     -1.022224      1.535972
     -0.90145      5.50088      2.93602       210.623773    104.839423    116.826472
      2.16381      6.31989      3.15043        -2.218076     -7.067821      2.031767
      4.12300      0.28606      5.89277        -4.939521     -3.146091     -6.552451
     -2.53251      0.38120      5.61459         3.877864     -1.754116      2.169677
      0.43964      0.39899      5.44098       198.032277     28.245425     42.588183
      2.73246      6.04630      8.22274        12.820975     13.723751    -43.849372
      0.80598      8.61604      8.27950        -1.023754     -1.805377     -6.118108
      3.60736      8.80287      8.00866        -0.845926     -0.369911     -0.676154
     -0.89419      8.13954      5.62977        -2.186338     -2.333458      2.339498
      2.56751      7.56698      5.69570        -0.371947      1.570133     -0.986968
     -3.59063      7.75851      5.75188        -1.475399     -0.148400     -1.488743
     -2.27119      8.84706      8.25918         3.687737     -6.320545    -81.119592
     -3.58297      5.87578      8.26078        -9.159424      5.136930      2.165185
     -1.16580      6.13880      7.78396         6.437587      4.336042     -0.230852
    total drift:                               -0.011712     -0.005347     -0.000898

  FREE ENERGIE OF THE ION-ELECTRON SYSTEM (eV)
  free  energy   TOTEN  =      -277.0683285819 eV

  energy  without entropy=     -276.9789061461  energy(sigma->0) =     -277.02361736

volume of typ            1:    22.5 %

volume of typ            2:     8.6 %

total charge

# of ion       s       p       d       tot
    1        0.638   0.919   8.683  10.240
    2        0.252   0.290   7.907   8.449
    3        0.458   0.631   8.220   9.309
    4        0.514   0.849   8.254   9.616
    5        0.292   0.316   8.002   8.610
    6        0.288   0.347   8.011   8.645
    7        0.614   1.044   8.371  10.028
    8        0.375   0.505   7.957   8.837
    9        0.322   0.435   7.973   8.730
   10        0.206   0.211   7.939   8.356
   11        0.288   0.337   7.833   8.458
   12        0.603   0.894   8.572  10.069
   13        0.277   0.331   7.962   8.571
   14        0.374   0.490   8.039   8.903
   15        0.339   0.437   7.981   8.757
   16        0.267   0.303   7.928   8.499
   17        0.397   0.524   7.999   8.919
   18        0.304   0.348   7.875   8.527
   19        0.506   0.651   8.334   9.490
   20        0.311   0.395   7.954   8.660
   21        0.453   0.644   8.013   9.109
   22        0.564   0.976   8.247   9.787
   23        0.501   0.718   8.273   9.492
   24        0.356   0.434   7.926   8.716
   25        0.562   0.934   8.366   9.862
   26        0.261   0.301   7.926   8.488
   27        0.288   0.265   8.014   8.568
   28        0.203   0.191   7.969   8.362
   29        0.256   0.302   7.943   8.501
   30        0.263   0.296   8.047   8.606
   31        0.343   0.439   7.871   8.653
   32        0.210   0.202   7.885   8.298
   33        1.275   2.859   0.019   4.153
   34        1.268   2.904   0.026   4.198
   35        1.302   2.653   0.005   3.960
   36        1.286   2.819   0.022   4.127
   37        1.270   2.882   0.027   4.179
   38        1.301   2.596   0.002   3.899
   39        1.288   2.739   0.008   4.035
   40        1.289   2.707   0.008   4.004
   41        1.305   2.635   0.004   3.945
   42        1.266   2.751   0.008   4.025
   43        1.300   2.899   0.029   4.227
   44        1.325   2.916   0.037   4.278
   45        1.274   2.764   0.011   4.049
   46        1.295   2.685   0.009   3.989
   47        1.282   2.683   0.006   3.971
   48        1.327   3.022   0.057   4.406
   49        1.271   2.780   0.011   4.062
   50        1.281   2.681   0.004   3.967
   51        1.283   2.725   0.009   4.016
   52        1.274   2.718   0.006   3.998
   53        1.301   2.678   0.009   3.988
   54        1.323   2.957   0.055   4.335
   55        1.334   3.167   0.091   4.592
   56        1.300   2.649   0.005   3.954
   57        1.297   2.731   0.012   4.040
   58        1.301   2.971   0.032   4.304
   59        1.317   2.845   0.031   4.193
   60        1.284   2.715   0.007   4.006
[...]
   66        1.295   2.682   0.006   3.983
   67        1.256   3.199   0.105   4.561
   68        1.293   2.742   0.013   4.048
   69        1.271   2.883   0.022   4.176
   70        1.279   2.733   0.008   4.020
   71        1.320   3.082   0.081   4.482
   72        1.303   3.032   0.062   4.397
   73        1.280   2.769   0.013   4.062
   74        1.294   2.645   0.003   3.941
   75        1.286   2.715   0.011   4.012
   76        1.280   2.711   0.008   3.998
   77        1.289   2.648   0.004   3.941
   78        1.334   2.984   0.064   4.382
   79        1.287   2.857   0.026   4.169
   80        1.284   2.791   0.017   4.091
tot          73.89  150.24  259.32  483.46

magnetization (x)

# of ion       s       p       d       tot
    1       -0.005  -0.002   0.002  -0.004
    2       -0.002   0.008   0.572   0.577
    3       -0.002  -0.001   0.015   0.013
    4        0.001   0.000  -0.007  -0.006
    5       -0.001  -0.003  -0.169  -0.174
    6        0.002  -0.002  -0.084  -0.083
    7        0.005  -0.000  -0.043  -0.038
    8       -0.003   0.003   0.205   0.206
    9       -0.000   0.004   0.125   0.128
   10        0.001   0.004   0.691   0.695
   11        0.000   0.014   0.832   0.847
   12        0.006   0.024   0.211   0.242
   13        0.003   0.003   0.121   0.127
   14       -0.003  -0.001  -0.113  -0.117
   15        0.001  -0.004  -0.059  -0.062
   16       -0.000  -0.014  -0.683  -0.697
   17        0.005   0.010   0.473   0.488
   18        0.005   0.023   0.997   1.025
   19       -0.005  -0.005  -0.014  -0.023
   20        0.000   0.003   0.246   0.250
   21        0.001   0.003  -0.110  -0.106
   22       -0.002  -0.002  -0.083  -0.087
   23       -0.000  -0.002  -0.043  -0.045
   24       -0.002  -0.000  -0.060  -0.063
   25       -0.003  -0.002  -0.046  -0.051
   26        0.006   0.013   0.622   0.641
   27        0.000   0.001   0.151   0.152
   28        0.004   0.009   0.759   0.771
   29       -0.001  -0.001  -0.104  -0.106
   30        0.002   0.000   0.154   0.156
   31       -0.003   0.007   0.450   0.454
   32        0.002   0.017   1.221   1.239
   33        0.000  -0.005   0.000  -0.004
   34       -0.000   0.012  -0.000   0.012
   35        0.001   0.061  -0.000   0.063
   36        0.002   0.102   0.000   0.105
   37       -0.002  -0.063  -0.000  -0.065
   38        0.010   0.484  -0.000   0.493
   39       -0.000  -0.002  -0.000  -0.003
   40        0.002   0.107  -0.000   0.110
   41        0.007   0.362   0.000   0.369
   42        0.004   0.023   0.000   0.027
   43        0.003  -0.007  -0.000  -0.004
   44       -0.001  -0.033  -0.000  -0.034
   45        0.001   0.002   0.000   0.003
   46        0.003   0.125   0.000   0.128
   47        0.009   0.375   0.000   0.384
   48        0.000  -0.004  -0.001  -0.004
   49        0.003   0.068  -0.000   0.071
   50        0.004   0.182  -0.000   0.186
   51        0.003   0.092   0.000   0.095
   52        0.006   0.157   0.000   0.163
   53       -0.002  -0.153   0.000  -0.156
   54        0.000  -0.009   0.000  -0.009
   55       -0.000  -0.011  -0.000  -0.011
   56        0.005   0.215  -0.000   0.220
   57        0.003   0.067   0.000   0.070
   58       -0.000  -0.020  -0.000  -0.021
   59        0.001   0.030   0.000   0.031
   60        0.004   0.110   0.000   0.114
[...]
   66       -0.000  -0.033   0.000  -0.033
   67        0.001   0.004  -0.000   0.005
   68       -0.001  -0.069  -0.000  -0.070
   69        0.000   0.018  -0.000   0.018
   70        0.000   0.001   0.000   0.001
   71        0.003   0.119   0.003   0.125
   72        0.002   0.005  -0.000   0.007
   73        0.000   0.006   0.000   0.006
   74        0.005   0.187   0.000   0.192
   75        0.002   0.045   0.000   0.046
   76        0.008   0.314   0.000   0.322
   77        0.010   0.475  -0.000   0.485
   78       -0.000  -0.018  -0.000  -0.018
   79        0.001  -0.010  -0.000  -0.009
   80       -0.000  -0.029  -0.000  -0.029
tot           0.13    4.26    6.23   10.62