 vasp.5.4.4.18Apr17-6-g9f103f2a35 (build May 12 2020 04:58:55) complex

 MD_VERSION_INFO: Compiled 2020-05-12T11:58:55-UTC in devlin.sd.materialsdesign.
 com:/home/medea2/data/build/wwolf/vasp-gpu5.4.4/13047/x86_64/src/src/build/std
 from svn 13047

 executed on                        Lin64 date 2022.11.16  02:41:34

 INCAR:
 POTCAR:    PAW_PBE Li_sv 10Sep2004
 POTCAR:    PAW_PBE Mn_pv 02Aug2007
 POTCAR:    PAW_PBE O 08Apr2002
 POTCAR:    PAW_PBE Co 02Aug2007
 POTCAR:    PAW_PBE Ni 02Aug2007

 POTCAR:    PAW_PBE Li_sv 10Sep2004

 POTCAR:    PAW_PBE Mn_pv 02Aug2007

 POTCAR:    PAW_PBE O 08Apr2002

 POTCAR:    PAW_PBE Co 02Aug2007

 POTCAR:    PAW_PBE Ni 02Aug2007

 Optimization of the real space projectors (new method)

 maximal supplied QI-value         = 22.11
 optimisation between [QCUT,QGAM] = [ 11.28, 22.77] = [ 35.61,145.23] Ry
 Optimized for a Real-space Cutoff    1.10 Angstroem

   l    n(q)    QCUT    max X(q) W(low)/X(q) W(high)/X(q)  e(spline)
   0      7    11.276    10.506    0.54E-04    0.58E-04    0.16E-07
   0      7    11.276     8.367    0.11E-03    0.14E-03    0.35E-07
   1      7    11.276     8.983    0.23E-03    0.43E-03    0.86E-07
 Optimization of the real space projectors (new method)

[...]

   l    n(q)    QCUT    max X(q) W(low)/X(q) W(high)/X(q)  e(spline)
   2      9    11.376    65.824    0.18E-03    0.28E-04    0.14E-06
   2      9    11.376    61.429    0.18E-03    0.29E-04    0.14E-06
   0     10    11.376    56.174    0.51E-04    0.12E-03    0.20E-06
   0     10    11.376    31.263    0.46E-04    0.11E-03    0.18E-06
   1      9    11.376    19.828    0.23E-03    0.17E-03    0.10E-06
   1      9    11.376    15.139    0.20E-03    0.14E-03    0.89E-07
 Optimization of the real space projectors (new method)

 maximal supplied QI-value         = 16.25
 optimisation between [QCUT,QGAM] = [ 11.38, 22.75] = [ 36.24,144.96] Ry
 Optimized for a Real-space Cutoff    1.47 Angstroem

   l    n(q)    QCUT    max X(q) W(low)/X(q) W(high)/X(q)  e(spline)
   2      9    11.376    60.317    0.17E-03    0.16E-04    0.16E-06
   2      9    11.376    55.921    0.17E-03    0.16E-04    0.17E-06
   0     10    11.376    51.690    0.45E-04    0.60E-04    0.21E-06
   0     10    11.376    30.015    0.37E-04    0.55E-04    0.19E-06
   1     10    11.376    18.849    0.83E-04    0.11E-03    0.92E-07
   1     10    11.376    14.624    0.69E-04    0.92E-04    0.82E-07

  PAW_PBE Li_sv 10Sep2004               :
  PAW_PBE Mn_pv 02Aug2007               :
  PAW_PBE O 08Apr2002                   :
  PAW_PBE Co 02Aug2007                  :
  PAW_PBE Ni 02Aug2007                  :

 POSCAR: ce132336_1
  positions in direct lattice

 METAGGA = SCAN     LMAXTAU =  6    LMIXTAU =  T

 ion  position               nearest neighbor table
   1  0.609  0.251  0.941-  16 2.05  12 2.06   8 2.07  23 2.11  20 2.12  19 2.14  31 2.84  25 2.84

   2  0.391  0.749  0.059-  17 2.05  13 2.06   9 2.07  22 2.11  21 2.12  18 2.14  32 2.84  26 2.84

   3  0.000  0.000  0.000-  10 1.88  11 1.88   4 1.89   5 1.89   8 1.90   9 1.90  29 2.77  30 2.77
                            25 2.78  26 2.78  26 2.79  25 2.79
   4  0.996  0.102  0.374-  25 1.86  26 1.87   3 1.89
   5  0.004  0.898  0.626-  26 1.86  25 1.87   3 1.89
   6  0.996  0.400  0.130-  27 1.84  28 1.85  24 1.88
   7  0.004  0.600  0.870-  28 1.84  27 1.85  24 1.88
   8  0.800  0.104  0.960-  25 1.87  29 1.88   3 1.90   1 2.07
   9  0.200  0.896  0.040-  26 1.87  30 1.88   3 1.90   2 2.07
  10  0.797  0.897  0.231-  25 1.86  29 1.86   3 1.88
  11  0.203  0.103  0.769-  26 1.86  30 1.86   3 1.88
  12  0.796  0.399  0.739-  31 1.85  27 1.87  24 1.89   1 2.06
  13  0.204  0.601  0.261-  32 1.85  28 1.87  24 1.89   2 2.06
  14  0.797  0.602  0.471-  31 1.85  27 1.85  24 1.88
  15  0.203  0.398  0.529-  32 1.85  28 1.85  24 1.88
  16  0.602  0.102  0.581-  25 1.85  30 1.86  29 1.93   1 2.05
  17  0.398  0.898  0.419-  26 1.85  29 1.86  30 1.93   2 2.05
  18  0.596  0.894  0.828-  30 1.85  25 1.88  29 1.91   2 2.14
  19  0.404  0.106  0.172-  29 1.85  26 1.88  30 1.91   1 2.14
  20  0.601  0.399  0.327-  32 1.86  27 1.88  31 1.88   1 2.12
  21  0.399  0.601  0.673-  31 1.86  28 1.88  32 1.88   2 2.12
  22  0.596  0.605  0.064-  31 1.86  32 1.88  27 1.90   2 2.11
  23  0.404  0.395  0.936-  32 1.86  31 1.88  28 1.90   1 2.11
  24  0.000  0.500  0.500-  14 1.88  15 1.88   6 1.88   7 1.88  12 1.89  13 1.89  31 2.77  32 2.77
                            27 2.77  28 2.77  27 2.79  28 2.79
  25  0.800  0.996  0.598-  16 1.85  10 1.86   4 1.86   8 1.87   5 1.87  18 1.88  30 2.78  29 2.78
                            26 2.78   3 2.78  29 2.78   3 2.79   1 2.84
  26  0.200  0.004  0.402-  17 1.85  11 1.86   5 1.86   9 1.87   4 1.87  19 1.88  29 2.78  30 2.78
                            25 2.78   3 2.78  30 2.78   3 2.79   2 2.84
  27  0.801  0.505  0.102-   6 1.84   7 1.85  14 1.85  12 1.87  20 1.88  22 1.90  28 2.76  24 2.77
                            31 2.78  24 2.79  32 2.79  31 2.79
  28  0.199  0.495  0.898-   7 1.84   6 1.85  15 1.85  13 1.87  21 1.88  23 1.90  27 2.76  24 2.77
                            32 2.78  24 2.79  31 2.79  32 2.79
  29  0.601  0.001  0.199-  19 1.85  10 1.86  17 1.86   8 1.88  18 1.91  16 1.93   3 2.77  30 2.78
                            26 2.78  25 2.78  25 2.78  30 2.80
  30  0.399  0.999  0.801-  18 1.85  11 1.86  16 1.86   9 1.88  19 1.91  17 1.93   3 2.77  29 2.78
                            25 2.78  26 2.78  26 2.78  29 2.80
  31  0.601  0.500  0.698-  12 1.85  14 1.85  22 1.86  21 1.86  20 1.88  23 1.88  24 2.77  32 2.78
                            27 2.78  28 2.79  27 2.79  32 2.80   1 2.84
  32  0.399  0.500  0.302-  13 1.85  15 1.85  23 1.86  20 1.86  21 1.88  22 1.88  24 2.77  31 2.78
                            28 2.78  27 2.79  28 2.79  31 2.80   2 2.84

  LATTYP: Found a triclinic cell.
 ALAT       =    14.6866623399
 B/A-ratio  =     0.7767357661
 C/A-ratio  =     0.9448026341
 COS(alpha) =     0.0006376308
 COS(beta)  =     0.4732869096
 COS(gamma) =     0.8707893802

  Lattice vectors:

 A1 = (   3.6298648400,  11.0211856600,  -9.0030882800)
 A2 = (  -2.1328243700,  10.2626397300,  -4.5015441400)
 A3 = (  13.1035876200,   0.7585459300,  -4.5015441400)

Analysis of symmetry for initial positions (statically):
 Subroutine PRICEL returns:
 Original cell was already a primitive cell.

 Routine SETGRP: Setting up the symmetry group for a
 triclinic supercell.

 Subroutine GETGRP returns: Found  2 space group operations
 (whereof  2 operations were pure point group operations)
 out of a pool of  2 trial point group operations.

The static configuration has the point symmetry S_2 .

Analysis of symmetry for dynamics (positions and initial velocities):
 Subroutine PRICEL returns:
 Original cell was already a primitive cell.

[...]

The dynamic configuration has the point symmetry S_2 .

Analysis of structural, dynamic, and magnetic symmetry:
 Subroutine PRICEL returns:
 Original cell was already a primitive cell.

 Routine SETGRP: Setting up the symmetry group for a
 triclinic supercell.

 Subroutine GETGRP returns: Found  2 space group operations
 (whereof  2 operations were pure point group operations)
 out of a pool of  2 trial point group operations.

The magnetic configuration has the point symmetry S_2 .

 Subroutine INISYM returns: Found  2 space group operations
 (whereof  2 operations are pure point group operations),
 and found     1 'primitive' translations

 KPOINTS: Automatic mesh

Automatic generation of k-mesh.
Space group operators:
 irot       det(A)        alpha          n_x          n_y          n_z        tau_x        tau_y        tau_z
    1     1.000000     0.000000     1.000000     0.000000     0.000000     0.000000     0.000000     0.000000
    2    -1.000000     0.000000     1.000000     0.000000     0.000000     0.000000     0.000000     0.000000

 Subroutine IBZKPT returns following result:

 Found     14 irreducible k-points:

 Following reciprocal coordinates:
            Coordinates               Weight
  0.000000  0.000000  0.000000      1.000000
  0.333333 -0.000000  0.000000      2.000000
  0.000000  0.333333  0.000000      2.000000
  0.333333  0.333333 -0.000000      2.000000
 -0.333333  0.333333  0.000000      2.000000
  0.000000  0.000000  0.333333      2.000000
  0.333333 -0.000000  0.333333      2.000000
 -0.333333  0.000000  0.333333      2.000000
  0.000000  0.333333  0.333333      2.000000
  0.333333  0.333333  0.333333      2.000000
 -0.333333  0.333333  0.333333      2.000000
  0.000000 -0.333333  0.333333      2.000000
  0.333333 -0.333333  0.333333      2.000000
 -0.333333 -0.333333  0.333333      2.000000

 Following cartesian coordinates:
            Coordinates               Weight
  0.000000  0.000000  0.000000      1.000000
  0.045408  0.002650 -0.015473      2.000000
  0.000000  0.035073  0.005910      2.000000
  0.045408  0.037722 -0.009563      2.000000
 -0.045408  0.032423  0.021383      2.000000
  0.000000  0.000000  0.074049      2.000000
  0.045408  0.002650  0.058576      2.000000
 -0.045408 -0.002650  0.089522      2.000000
  0.000000  0.035073  0.079959      2.000000
  0.045408  0.037722  0.064486      2.000000
 -0.045408  0.032423  0.095432      2.000000
  0.000000 -0.035073  0.068139      2.000000
  0.045408 -0.032423  0.052666      2.000000
 -0.045408 -0.037722  0.083612      2.000000

 SYSTEM =  unknown system
 POSCAR =  ce132336_1

 Startparameter for this run:
   NWRITE =      1    write-flag & timer
   PREC   = accura    normal or accurate (medium, high low for compatibility)
   ISTART =      0    job   : 0-new  1-cont  2-samecut
   ICHARG =      2    charge: 1-file 2-atom 10-const
   ISPIN  =      2    spin polarized calculation?
   LNONCOLLINEAR =      F non collinear calculations
   LSORBIT =      F    spin-orbit coupling
   INIWAV =      1    electr: 0-lowe 1-rand  2-diag
   LASPH  =      T    aspherical Exc in radial PAW
   METAGGA=      F    non-selfconsistent MetaGGA calc.

 Electronic Relaxation 1
   ENCUT  =  500.0 eV  36.75 Ry    6.06 a.u.  13.38 17.36  8.81*2*pi/ulx,y,z
   ENINI  =  500.0     initial cutoff
   ENAUG  =  628.9 eV  augmentation charge cutoff
   NELM   =   1000;   NELMIN=  2; NELMDL= -5     # of ELM steps
   EDIFF  = 0.1E-04   stopping-criterion for ELM
   LREAL  =      T    real-space projection
   NLSPLINE    = F    spline interpolate recip. space projectors
   LCOMPAT=      F    compatible to vasp.4.4
   GGA_COMPAT  = T    GGA compatible to vasp.4.4-vasp.4.6
   LMAXPAW     = -100 max onsite density
   LMAXMIX     =    2 max onsite mixed and CHGCAR
   VOSKOWN=      1    Vosko Wilk Nusair interpolation
   ROPT   =   -0.00025  -0.00025  -0.00025  -0.00025
   ROPT   =   -0.00025
 Ionic relaxation
   EDIFFG = 0.1E-03   stopping-criterion for IOM
   NSW    =      0    number of steps for IOM
   NBLOCK =      1;   KBLOCK =      1    inner block; outer block
   IBRION =     -1    ionic relax: 0-MD 1-quasi-New 2-CG
   NFREE  =      0    steps in history (QN), initial steepest desc. (CG)
   ISIF   =      2    stress and relaxation
   IWAVPR =     10    prediction:  0-non 1-charg 2-wave 3-comb
   ISYM   =      2    0-nonsym 1-usesym 2-fastsym
[...]
  band No.  band energies     occupation
      1     -49.3630      1.00000
      2     -49.3242      1.00000
      3     -49.2711      1.00000
      4     -41.6120      1.00000
      5     -41.6119      1.00000
      6     -17.7402      1.00000
      7     -17.6358      1.00000
      8     -16.4892      1.00000
      9     -16.4773      1.00000
     10     -16.3812      1.00000
     11     -16.3778      1.00000
     12     -15.9129      1.00000
     13     -15.8757      1.00000
     14     -15.8398      1.00000
     15     -15.8006      1.00000
     16     -15.7774      1.00000
     17     -15.7477      1.00000
     18     -15.7059      1.00000
     19     -15.6520      1.00000
     20     -15.6103      1.00000
     21     -15.5955      1.00000
     22     -15.5843      1.00000
     23     -15.5303      1.00000
     24     -15.4307      1.00000
     25     -15.2997      1.00000
     26      -3.6630      1.00000
     27      -3.6493      1.00000
     28      -3.4950      1.00000
     29      -3.4514      1.00000
     30      -3.2389      1.00000
     31      -3.2007      1.00000
     32      -3.1225      1.00000
     33      -3.0086      1.00000
     34      -2.9180      1.00000
     35      -2.8792      1.00000
     36      -2.7525      1.00000
     37      -2.7419      1.00000
     38      -2.7029      1.00000
     39      -2.6884      1.00000
     40      -2.6558      1.00000
     41      -2.6257      1.00000
     42      -2.6139      1.00000
     43      -2.5695      1.00000
     44      -2.5437      1.00000
     45      -2.5185      1.00000
     46      -2.3943      1.00000
     47      -2.3448      1.00000
     48      -1.9379      1.00000
     49      -1.8145      1.00000
     50      -1.8133      1.00000
     51      -1.7778      1.00000
     52      -1.6783      1.00000
     53      -1.5591      1.00000
     54      -1.5556      1.00000
     55      -1.4947      1.00000
     56      -1.4832      1.00000
     57      -1.2907      1.00000
     58      -1.2877      1.00000
     59      -1.2546      1.00000
     60      -1.1098      1.00000
[...]
    226      29.6600      0.00000
    227      29.7594      0.00000
    228      30.3076      0.00000
    229      30.4189      0.00000
    230      30.7692      0.00000
    231      31.5247      0.00000
    232      31.5584      0.00000
    233      31.5805      0.00000
    234      31.9104      0.00000
    235      32.0077      0.00000
    236      32.4414      0.00000
    237      32.6547      0.00000
    238      32.7512      0.00000
    239      32.8690      0.00000
    240      33.1108      0.00000

[...]

 spin component 2

[...]

 k-point    14 :      -0.3333   -0.3333    0.3333
  band No.  band energies     occupation
      1     -45.6874      1.00000
      2     -45.6704      1.00000
      3     -45.4628      1.00000
      4     -41.6071      1.00000
      5     -41.6071      1.00000
      6     -17.1056      1.00000
      7     -16.9987      1.00000
      8     -16.9915      1.00000
      9     -16.8422      1.00000
     10     -16.5139      1.00000
     11     -16.4973      1.00000
     12     -15.9430      1.00000
     13     -15.8758      1.00000
     14     -15.8622      1.00000
     15     -15.8343      1.00000
     16     -15.7542      1.00000
     17     -15.7380      1.00000
     18     -15.7176      1.00000
     19     -15.6581      1.00000
     20     -15.6314      1.00000
     21     -15.5649      1.00000
     22     -15.5563      1.00000
     23     -15.5036      1.00000
     24     -15.4086      1.00000
     25     -15.3205      1.00000
     26      -3.7598      1.00000
     27      -3.7059      1.00000
     28      -3.6437      1.00000
     29      -3.5682      1.00000
     30      -3.3178      1.00000
     31      -3.2594      1.00000
     32      -2.9894      1.00000
     33      -2.9316      1.00000
     34      -2.8729      1.00000
     35      -2.7793      1.00000
     36      -2.4986      1.00000
     37      -2.4617      1.00000
     38      -2.4236      1.00000
     39      -2.3933      1.00000
     40      -2.3553      1.00000
     41      -2.2826      1.00000
     42      -2.2118      1.00000
     43      -2.1711      1.00000
     44      -2.1072      1.00000
     45      -2.0905      1.00000
     46      -2.0268      1.00000
     47      -1.9940      1.00000
     48      -1.9313      1.00000
     49      -1.8972      1.00000
     50      -1.6941      1.00000
     51      -1.6396      1.00000
     52      -1.5348      1.00000
     53      -1.5187      1.00000
     54      -1.4424      1.00000
     55      -1.2776      1.00000
     56      -1.2114      1.00000
     57      -1.1885      1.00000
     58      -1.1447      1.00000
     59      -1.0779      1.00000
     60      -1.0426      1.00000
[...]
    226      29.6033      0.00000
    227      29.8285      0.00000
    228      30.1298      0.00000
    229      30.7130      0.00000
    230      31.1388      0.00000
    231      31.4174      0.00000
    232      31.4573      0.00000
    233      31.5289      0.00000
    234      31.8925      0.00000
    235      31.9674      0.00000
    236      32.2396      0.00000
    237      32.6980      0.00000
    238      32.7799      0.00000
    239      33.0293      0.00000
    240      33.1358      0.00000

 soft charge-density along one line, spin component           1
         0         1         2         3         4         5         6         7         8         9
 total charge-density along one line

 soft charge-density along one line, spin component           2
         0         1         2         3         4         5         6         7         8         9
 total charge-density along one line

------------------------ aborting loop because EDIFF is reached ----------------------------------------

  FORCE on cell =-STRESS in cart. coord.  units (eV):
  Direction    XX          YY          ZZ          XY          YZ          ZX
  Alpha Z   745.08788   745.08788   745.08788
  Ewald   -1305.42087-10427.13421 -1632.29887   -49.26005 -1554.80595   -11.60521
  Hartree  4693.21545 -1881.97739  4483.34677   -23.98652 -1113.67724    -3.43492
  E(xc)    -664.60770  -660.18151  -664.15951     0.29049     0.91567     0.07648
  Local   -7688.58642  7861.93065 -7166.47937    65.49640  2638.54670    12.54500
  n-local  -709.35456  -733.99876  -711.61628    -1.93024    -5.67381    -0.60799
  augment  1445.05235  1484.42597  1452.17725     3.75979     8.86512     1.08272
  Kinetic  3484.55313  3611.78990  3493.92234     5.65013    25.79882     1.90840
  Fock        0.00000     0.00000     0.00000     0.00000     0.00000     0.00000
  Total       -0.0607448     -0.0574658     -0.0197983      0.0199916     -0.0306871     -0.0355330
  in kB       -0.3098831     -0.2931558     -0.1009992      0.1019849     -0.1565470     -0.1812679

 VOLUME and BASIS-vectors are now :
  energy-cutoff  :      500.00
  volume of cell :      314.07
      direct lattice vectors                 reciprocal lattice vectors
     7.340898410  0.000000000  0.000000000     0.136223108  0.007949354 -0.046419319
    -0.554615170  9.504093800  0.000000000     0.000000000  0.105217817  0.017730038
     1.578209200 -0.758545930  4.501544140     0.000000000  0.000000000  0.222145995

  length of vectors
     7.340898410  9.520262441  4.830117582     0.144134245  0.106701186  0.222145995

 FORCES acting on ions:
    Electron-Ion                     Ewald-Force                    Non-Local-Force
   0.723E-01 -.857E+01 -.330E+01   0.127E+00 0.860E+01 0.278E+01   -.194E+00 -.219E-01 0.525E+00
   -.723E-01 0.857E+01 0.330E+01   -.127E+00 -.860E+01 -.278E+01   0.194E+00 0.219E-01 -.525E+00
   -.136E-12 0.949E-13 -.104E-12   -.117E-12 -.189E-13 0.777E-13   0.542E-19 -.949E-19 0.000E+00
   -.140E+02 -.407E+03 -.953E+02   0.138E+02 0.434E+03 0.101E+03   0.159E+00 -.275E+02 -.580E+01
   0.140E+02 0.407E+03 0.953E+02   -.138E+02 -.434E+03 -.101E+03   -.159E+00 0.275E+02 0.580E+01
   -.139E+02 0.349E+03 0.338E+02   0.139E+02 -.377E+03 -.369E+02   0.189E-01 0.278E+02 0.310E+01
   0.139E+02 -.349E+03 -.338E+02   -.139E+02 0.377E+03 0.369E+02   -.189E-01 -.278E+02 -.310E+01
   0.428E+01 -.377E+03 -.642E+02   -.268E+01 0.401E+03 0.680E+02   -.160E+01 -.234E+02 -.384E+01
   -.428E+01 0.377E+03 0.642E+02   0.268E+01 -.401E+03 -.680E+02   0.160E+01 0.234E+02 0.384E+01
   0.233E+02 0.412E+03 0.430E+02   -.243E+02 -.440E+03 -.471E+02   0.916E+00 0.279E+02 0.411E+01
   -.233E+02 -.412E+03 -.430E+02   0.243E+02 0.440E+03 0.471E+02   -.916E+00 -.279E+02 -.411E+01
   -.498E+02 0.311E+03 0.954E+02   0.534E+02 -.334E+03 -.101E+03   -.359E+01 0.227E+02 0.591E+01
   0.498E+02 -.311E+03 -.954E+02   -.534E+02 0.334E+03 0.101E+03   0.359E+01 -.227E+02 -.591E+01
   -.356E+02 -.350E+03 -.583E+02   0.367E+02 0.378E+03 0.634E+02   -.115E+01 -.276E+02 -.510E+01
   0.356E+02 0.350E+03 0.583E+02   -.367E+02 -.378E+03 -.634E+02   0.115E+01 0.276E+02 0.510E+01
   0.186E+02 -.357E+03 -.263E+02   -.216E+02 0.379E+03 0.258E+02   0.294E+01 -.215E+02 0.465E+00
   -.186E+02 0.357E+03 0.263E+02   0.216E+02 -.379E+03 -.258E+02   -.294E+01 0.215E+02 -.465E+00
   -.229E+02 0.363E+03 0.812E+02   0.253E+02 -.387E+03 -.858E+02   -.234E+01 0.236E+02 0.460E+01
   0.229E+02 -.363E+03 -.812E+02   -.253E+02 0.387E+03 0.858E+02   0.234E+01 -.236E+02 -.460E+01
   -.182E+02 0.335E+03 0.321E+02   0.194E+02 -.359E+03 -.343E+02   -.121E+01 0.237E+02 0.219E+01
   0.182E+02 -.335E+03 -.321E+02   -.194E+02 0.359E+03 0.343E+02   0.121E+01 -.237E+02 -.219E+01
   -.420E+02 -.341E+03 -.628E+02   0.450E+02 0.364E+03 0.677E+02   -.299E+01 -.232E+02 -.488E+01
   0.420E+02 0.341E+03 0.628E+02   -.450E+02 -.364E+03 -.677E+02   0.299E+01 0.232E+02 0.488E+01
   0.126E-13 0.928E-12 0.468E-12   -.426E-13 0.613E-13 0.497E-13   0.108E-18 0.542E-19 0.000E+00
   0.525E+01 0.593E+02 0.103E+02   -.575E+01 -.601E+02 -.106E+02   0.521E+00 0.731E+00 0.316E+00
   -.525E+01 -.593E+02 -.103E+02   0.575E+01 0.601E+02 0.106E+02   -.521E+00 -.731E+00 -.316E+00
   -.234E+02 -.566E+02 -.190E+01   0.241E+02 0.575E+02 0.205E+01   -.886E+00 -.803E+00 -.164E+00
   0.234E+02 0.566E+02 0.190E+01   -.241E+02 -.575E+02 -.205E+01   0.886E+00 0.803E+00 0.164E+00
   -.888E+01 -.448E+01 -.271E+02   0.857E+01 0.415E+01 0.281E+02   0.378E+00 0.370E+00 -.906E+00
   0.888E+01 0.448E+01 0.271E+02   -.857E+01 -.415E+01 -.281E+02   -.378E+00 -.370E+00 0.906E+00
   -.155E+02 -.359E+00 0.344E+02   0.158E+02 0.711E+00 -.350E+02   -.449E+00 -.396E+00 0.557E+00
   0.155E+02 0.359E+00 -.344E+02   -.158E+02 -.711E+00 0.350E+02   0.449E+00 0.396E+00 -.557E+00
   -.940E-12 0.377E-10 -.349E-10   0.266E-13 0.455E-13 0.156E-12   -.555E-16 0.000E+00 0.000E+00

 POSITION                                       TOTAL-FORCE (eV/Angst)
      5.81571      1.66686      4.23805         0.005532      0.003249      0.007459
      2.54878      7.07869      0.26349        -0.005532     -0.003249     -0.007459
      0.00000      0.00000      0.00000         0.000000      0.000000      0.000000
      7.84335      0.68986      1.68482        -0.003103     -0.004672      0.001083
      0.52114      8.05568      2.81672         0.003103      0.004672     -0.001083
      7.29131      3.69920      0.58344        -0.002667      0.005240      0.001808
      1.07318      5.04635      3.91810         0.002667     -0.005240     -0.001808
      7.32749      0.25865      4.32323         0.002349      0.007134     -0.011808
      1.03701      8.48689      0.17831        -0.002349     -0.007134      0.011808
      5.71946      8.35104      1.04022        -0.003042      0.002919     -0.000913
      2.64503      0.39451      3.46132         0.003042     -0.002919      0.000913
      6.78544      3.23405      3.32534         0.001966      0.009154      0.003842
      1.57905      5.51150      1.17621        -0.001966     -0.009154     -0.003842
      6.26346      5.36768      2.12002        -0.000064     -0.001905      0.001029
      2.10104      3.37787      2.38152         0.000064      0.001905     -0.001029
      5.27841      0.52978      2.61319         0.002137      0.001972     -0.000389
      3.08608      8.21577      1.88835        -0.002137     -0.001972      0.000389
      5.18389      7.86986      3.72811         0.000890     -0.004777     -0.011938
      3.18060      0.87569      0.77344        -0.000890      0.004777      0.011938
      4.70786      3.54306      1.47169         0.004272      0.005327      0.004106
      3.65663      5.20248      3.02986        -0.004272     -0.005327     -0.004106
      4.13836      5.69885      0.28872        -0.002210      0.004218     -0.001166
      4.22613      3.04669      4.21282         0.002210     -0.004218      0.001166
      0.51180      4.37277      2.25077         0.000000     -0.000000      0.000000
      6.26065      9.01232      2.68970         0.000777      0.000767      0.001840
      2.10384     -0.26677      1.81184        -0.000777     -0.000767     -0.001840
      5.76263      4.71840      0.45974         0.009733      0.007175     -0.002283
      2.60186      4.02715      4.04181        -0.009733     -0.007175      0.002283
      4.72248     -0.14056      0.89472         0.003408      0.005402     -0.012554
      3.64202      8.88611      3.60683        -0.003408     -0.005402      0.012554
      5.23622      4.21949      3.14345         0.006235      0.000766      0.001283
      3.12827      4.52606      1.35810        -0.006235     -0.000766     -0.001283
    total drift:                               -0.000000      0.000000     -0.000000

  FREE ENERGIE OF THE ION-ELECTRON SYSTEM (eV)
  free  energy   TOTEN  =      -821.8712399237 eV

  energy  without entropy=     -821.8621879667  energy(sigma->0) =     -821.86671395

volume of typ            1:     5.0 %

[...]

volume of typ            5:    16.2 %

total charge

# of ion       s       p       d       tot
    1        2.072   0.235   0.099   2.406
    2        2.072   0.235   0.099   2.406
    3        0.238   6.265   4.557  11.061
    4        1.287   2.780   0.008   4.074
    5        1.287   2.780   0.008   4.074
    6        1.287   2.769   0.008   4.064
    7        1.287   2.769   0.008   4.064
    8        1.277   2.812   0.007   4.095
    9        1.277   2.812   0.007   4.095
   10        1.286   2.785   0.008   4.078
   11        1.286   2.785   0.008   4.078
   12        1.277   2.801   0.007   4.085
   13        1.277   2.801   0.007   4.085
   14        1.288   2.768   0.008   4.064
   15        1.288   2.769   0.008   4.064
   16        1.282   2.794   0.007   4.082
   17        1.282   2.793   0.007   4.082
   18        1.281   2.786   0.007   4.074
   19        1.281   2.786   0.007   4.073
   20        1.280   2.793   0.007   4.079
   21        1.280   2.793   0.007   4.079
   22        1.281   2.786   0.007   4.073
   23        1.281   2.786   0.007   4.073
   24        0.261   0.372   6.826   7.459
   25        0.296   0.419   7.770   8.485
   26        0.296   0.419   7.770   8.485
   27        0.298   0.417   7.771   8.486
   28        0.298   0.417   7.771   8.486
   29        0.287   0.399   7.792   8.477
   30        0.287   0.399   7.792   8.478
   31        0.300   0.424   7.772   8.495
   32        0.300   0.424   7.772   8.495
tot          32.65   66.17   73.93  172.76

magnetization (x)

# of ion       s       p       d       tot
    1        0.001   0.002   0.000   0.002
    2        0.001   0.002   0.000   0.002
    3        0.014   0.014   2.689   2.718
    4        0.002   0.002   0.000   0.004
    5        0.002   0.002   0.000   0.004
    6        0.000  -0.001   0.000  -0.001
    7        0.000  -0.001   0.000  -0.001
    8        0.002   0.010   0.001   0.013
    9        0.002   0.010   0.001   0.013
   10        0.002  -0.017   0.000  -0.014
   11        0.002  -0.016   0.000  -0.014
   12        0.000  -0.001   0.000  -0.001
   13        0.000  -0.001   0.000  -0.001
   14        0.000  -0.000   0.000  -0.000
   15        0.000  -0.000   0.000  -0.000
   16        0.007   0.015   0.000   0.023
   17        0.007   0.015   0.000   0.023
   18        0.003  -0.007   0.000  -0.004
   19        0.003  -0.007   0.000  -0.004
   20        0.000  -0.001   0.000  -0.000
   21        0.000  -0.001   0.000  -0.000
   22        0.000  -0.001   0.000  -0.000
   23        0.000  -0.001   0.000  -0.000
   24        0.000   0.000  -0.001  -0.001
   25        0.004   0.004   0.063   0.071
   26        0.004   0.004   0.063   0.071
   27        0.000   0.000   0.008   0.008
   28        0.000   0.000   0.008   0.008
   29        0.003   0.003   0.479   0.485
   30        0.003   0.003   0.479   0.485
   31        0.000   0.000   0.008   0.008
   32        0.000   0.000   0.008   0.008
tot           0.07    0.03    3.81    3.90