 vasp.5.4.4.18Apr17-6-g9f103f2a35 (build May 12 2020 05:39:39) gamma-only

 MD_VERSION_INFO: Compiled 2020-05-12T12:39:39-UTC in devlin.sd.materialsdesign.
 com:/home/medea2/data/build/wwolf/vasp-gpu5.4.4/13047/x86_64/src/src/build/gam
 from svn 13047

 executed on                        Lin64 date 2023.01.19  13:20:40

 INCAR:
 POTCAR:    PAW_PBE Li_sv 10Sep2004
 POTCAR:    PAW_PBE Ni 02Aug2007
 POTCAR:    PAW_PBE O 08Apr2002

 POTCAR:    PAW_PBE Li_sv 10Sep2004

 POTCAR:    PAW_PBE Ni 02Aug2007

 POTCAR:    PAW_PBE O 08Apr2002

 Optimization of the real space projectors (new method)

 maximal supplied QI-value         = 22.11
 optimisation between [QCUT,QGAM] = [ 11.28, 22.77] = [ 35.61,145.23] Ry
 Optimized for a Real-space Cutoff    1.10 Angstroem

   l    n(q)    QCUT    max X(q) W(low)/X(q) W(high)/X(q)  e(spline)
   0      7    11.276    10.506    0.54E-04    0.58E-04    0.16E-07
   0      7    11.276     8.367    0.11E-03    0.14E-03    0.35E-07
   1      7    11.276     8.983    0.23E-03    0.43E-03    0.86E-07
 Optimization of the real space projectors (new method)

[...]

   l    n(q)    QCUT    max X(q) W(low)/X(q) W(high)/X(q)  e(spline)
   2      9    11.376    60.317    0.17E-03    0.16E-04    0.16E-06
   2      9    11.376    55.921    0.17E-03    0.16E-04    0.17E-06
   0     10    11.376    51.690    0.45E-04    0.60E-04    0.21E-06
   0     10    11.376    30.015    0.37E-04    0.55E-04    0.19E-06
   1     10    11.376    18.849    0.83E-04    0.11E-03    0.92E-07
   1     10    11.376    14.624    0.69E-04    0.92E-04    0.82E-07
 Optimization of the real space projectors (new method)

 maximal supplied QI-value         = 24.76
 optimisation between [QCUT,QGAM] = [ 11.39, 22.77] = [ 36.31,145.25] Ry
 Optimized for a Real-space Cutoff    1.10 Angstroem

   l    n(q)    QCUT    max X(q) W(low)/X(q) W(high)/X(q)  e(spline)
   0      7    11.387    20.381    0.22E-03    0.48E-03    0.18E-06
   0      7    11.387    15.268    0.22E-03    0.52E-03    0.19E-06
   1      7    11.387     5.964    0.22E-03    0.73E-03    0.24E-06
   1      7    11.387     5.382    0.19E-03    0.60E-03    0.21E-06

  PAW_PBE Li_sv 10Sep2004               :
  PAW_PBE Ni 02Aug2007                  :
  PAW_PBE O 08Apr2002                   :

 POSCAR: ce261830_1
  positions in direct lattice
 exchange correlation table for  LEXCH =       14
   RHO(1)=    0.500       N(1)  =     2000
   RHO(2)=  100.500       N(2)  =     4000

 ion  position               nearest neighbor table
   1  0.997  0.500  0.997-  45 2.09  44 2.09  92 2.09  93 2.09  80 2.10  57 2.10  16 2.84  15 2.84

   2  0.096  0.834  0.222-  59 2.02  58 2.03  41 2.08  64 2.08  46 2.18  65 2.20  22 2.78  23 2.79
                            14 2.84
   3  0.222  0.166  0.096-  48 2.02  79 2.03  42 2.08  49 2.08  43 2.18  66 2.20  33 2.78  17 2.79
                            14 2.84
   4  0.333  0.500  0.999-  51 2.07  81 2.07  86 2.07  50 2.07  45 2.07  80 2.09  16 2.83  33 2.84
                            19 2.84
   5  0.462  0.834  0.222-  71 2.00  52 2.01  47 2.10  70 2.11  46 2.18  65 2.21  19 2.78  29 2.80
                            17 2.82  28 2.84
   6  0.666  0.499  0.999-  51 2.07  87 2.08  57 2.09  92 2.09  86 2.11  56 2.12
   7  0.999  0.500  0.333-  62 2.07  56 2.07  75 2.07  63 2.07  44 2.07  57 2.09  15 2.83  22 2.84
                            24 2.84
   8  0.222  0.166  0.462-  84 2.00  61 2.01  60 2.10  67 2.11  43 2.18  66 2.21  24 2.78  35 2.80
                            23 2.82  27 2.84
   9  0.334  0.500  0.334-  44 2.07  45 2.07  63 2.08  50 2.08  69 2.09  68 2.09  15 2.84  16 2.84
                            18 2.84  25 2.84
  10  0.668  0.500  0.334-  51 2.06  74 2.06  56 2.07  75 2.07  50 2.08  69 2.09  18 2.84
  11  0.999  0.501  0.666-  62 2.07  74 2.08  80 2.09  93 2.09  75 2.11  81 2.12
  12  0.334  0.500  0.668-  62 2.06  87 2.06  81 2.07  86 2.07  63 2.08  68 2.09  25 2.84
  13  0.669  0.500  0.669-  93 2.09  92 2.09  68 2.09  69 2.09  87 2.10  74 2.10
  14  0.999  0.000  0.999-  91 1.87  94 1.87  79 1.87  58 1.87  46 1.93  43 1.93  20 2.82  32 2.82
                            38 2.82  17 2.83  23 2.83  26 2.83   3 2.84   2 2.84
  15  0.111  0.334  0.222-  42 1.87  66 1.87  60 1.87  57 1.92  63 1.93  45 1.94  39 2.82  24 2.82
                            27 2.82  18 2.83  21 2.83   7 2.83  33 2.83   9 2.84   1 2.84
  16  0.222  0.666  0.111-  41 1.87  65 1.87  47 1.87  80 1.92  50 1.93  44 1.94  40 2.82  19 2.82
                            28 2.82  25 2.83  34 2.83   4 2.83  22 2.83   9 2.84   1 2.84
  17  0.333  0.999  0.998-  85 1.87  82 1.87  52 1.87  79 1.88  49 1.89  46 1.91   3 2.79  35 2.81
                            32 2.81  20 2.82   5 2.82  14 2.83  29 2.83  26 2.84
  18  0.446  0.333  0.224-  72 1.87  48 1.87  66 1.92  69 1.92  51 1.93  45 1.95  30 2.80  21 2.81
                            27 2.81  36 2.82  15 2.83  33 2.83  10 2.84   9 2.84
  19  0.556  0.667  0.111-  53 1.86  71 1.87  47 1.87  86 1.93  50 1.93  56 1.93   5 2.78  22 2.81
                            37 2.82  16 2.82  28 2.83  31 2.83  34 2.83   4 2.84
  20  0.666  0.998  1.000-  85 1.87  91 1.87  88 1.88  55 1.89  58 1.89  52 1.90  23 2.81  35 2.81
                            14 2.82  17 2.82  38 2.82  29 2.82
  21  0.776  0.330  0.221-  54 1.86  72 1.86  60 1.92  75 1.93  57 1.94  51 1.96  36 2.80  18 2.81
                            39 2.81  30 2.81  24 2.83  15 2.83
  22  0.888  0.667  0.113-  59 1.87  41 1.87  53 1.88  92 1.92  56 1.93  44 1.95   2 2.78  31 2.81
                            19 2.81  37 2.83  25 2.83  16 2.83   7 2.84  40 2.85
  23  0.998  0.001  0.333-  76 1.87  55 1.87  61 1.87  58 1.88  64 1.89  43 1.91   2 2.79  29 2.81
                            20 2.81  32 2.82   8 2.82  14 2.83  35 2.83  26 2.84
  24  0.111  0.333  0.556-  78 1.86  84 1.87  60 1.87  75 1.93  63 1.93  81 1.93   8 2.78  33 2.81
                            30 2.82  15 2.82  27 2.83  36 2.83  21 2.83   7 2.84
  25  0.224  0.667  0.446-  83 1.87  59 1.87  65 1.92  68 1.92  62 1.93  44 1.95  37 2.80  34 2.81
                            28 2.81  31 2.82  16 2.83  22 2.83  12 2.84   9 2.84
  26  0.334  0.000  0.334-  70 1.87  67 1.87  43 1.88  46 1.88  64 1.88  49 1.88  38 2.81  29 2.82
                            35 2.82  14 2.83  23 2.84  17 2.84
  27  0.445  0.332  0.556-  90 1.86  84 1.87  66 1.90  87 1.92  69 1.93  63 1.95  18 2.81  39 2.81
                            30 2.82  15 2.82  24 2.83  36 2.83   8 2.84
  28  0.556  0.668  0.445-  89 1.86  71 1.87  65 1.90  74 1.92  68 1.93  50 1.95  25 2.81  40 2.81
                            37 2.82  16 2.82  19 2.83  31 2.83   5 2.84
  29  0.667  0.004  0.333-  55 1.87  76 1.87  73 1.87  70 1.89  52 1.89  49 1.91   5 2.80  23 2.81
                            32 2.81  38 2.82  20 2.82  26 2.82  17 2.83
  30  0.778  0.330  0.555-  72 1.86  78 1.87  90 1.88  93 1.93  69 1.94  75 1.95  18 2.80  21 2.81
                            24 2.82  27 2.82  33 2.83  39 2.84
  31  0.890  0.670  0.445-  77 1.84  59 1.89  71 1.92  56 1.93  74 1.94  62 1.97  34 2.80  22 2.81
                            40 2.81  25 2.82  19 2.83  28 2.83
  32  1.000  0.002  0.666-  76 1.87  94 1.87  73 1.88  82 1.89  79 1.89  61 1.90  17 2.81  29 2.81
                            14 2.82  23 2.82  38 2.82  35 2.82
  33  0.113  0.333  0.888-  48 1.87  42 1.87  78 1.88  93 1.92  81 1.93  45 1.95   3 2.78  36 2.81
                            24 2.81  30 2.83  18 2.83  15 2.83   4 2.84  39 2.85
  34  0.221  0.670  0.776-  77 1.86  83 1.86  47 1.92  86 1.93  80 1.94  62 1.96  31 2.80  25 2.81
                            40 2.81  37 2.81  19 2.83  16 2.83
  35  0.333  0.996  0.667-  82 1.87  85 1.87  88 1.87  67 1.89  61 1.89  64 1.91   8 2.80  17 2.81
                            20 2.81  38 2.82  32 2.82  26 2.82  23 2.83
  36  0.445  0.330  0.890-  54 1.84  48 1.89  84 1.92  81 1.93  87 1.94  51 1.97  21 2.80  33 2.81
                            39 2.81  18 2.82  24 2.83  27 2.83
  37  0.555  0.670  0.778-  83 1.86  53 1.87  89 1.88  92 1.93  68 1.94  86 1.95  25 2.80  34 2.81
                            19 2.82  28 2.82  22 2.83  40 2.84
  38  0.666  0.000  0.666-  94 1.87  91 1.87  73 1.88  88 1.88  67 1.90  70 1.90  26 2.81  14 2.82
                            35 2.82  29 2.82  32 2.82  20 2.82
  39  0.777  0.327  0.889-  90 1.86  54 1.88  42 1.92  57 1.96  87 1.98  93 1.98  36 2.81  21 2.81
                            27 2.81  15 2.82  30 2.84  33 2.85
  40  0.889  0.673  0.777-  89 1.86  77 1.88  41 1.92  80 1.96  74 1.98  92 1.98  31 2.81  34 2.81
                            28 2.81  16 2.82  37 2.84  22 2.85
  41  0.004  0.735  0.009-  16 1.87  22 1.87  40 1.92   2 2.08
  42  0.009  0.265  0.004-  15 1.87  33 1.87  39 1.92   3 2.08
  43  0.116  0.071  0.225-  26 1.88  23 1.91  14 1.93   8 2.18   3 2.18
  44  0.112  0.591  0.223-  16 1.94  25 1.95  22 1.95   9 2.07   7 2.07   1 2.09
  45  0.223  0.409  0.112-  15 1.94  18 1.95  33 1.95   9 2.07   4 2.07   1 2.09
  46  0.225  0.929  0.116-  26 1.88  17 1.91  14 1.93   5 2.18   2 2.18
  47  0.336  0.736  0.007-  19 1.87  16 1.87  34 1.92   5 2.10
  48  0.332  0.265  0.004-  18 1.87  33 1.87  36 1.89   3 2.02
  49  0.439  0.069  0.219-  26 1.88  17 1.89  29 1.91   3 2.08
  50  0.445  0.592  0.222-  19 1.93  16 1.93  28 1.95   4 2.07  10 2.08   9 2.08
  51  0.555  0.409  0.113-  18 1.93  21 1.96  36 1.97  10 2.06   4 2.07   6 2.07
  52  0.555  0.932  0.114-  17 1.87  29 1.89  20 1.90   5 2.01
  53  0.666  0.734  0.002-  19 1.86  37 1.87  22 1.88
  54  0.663  0.264  0.001-  36 1.84  21 1.86  39 1.88
  55  0.777  0.068  0.220-  29 1.87  23 1.87  20 1.89
  56  0.779  0.593  0.226-  22 1.93  31 1.93  19 1.93   7 2.07  10 2.07   6 2.12
  57  0.888  0.406  0.111-  15 1.92  21 1.94  39 1.96   7 2.09   6 2.09   1 2.10
  58  0.892  0.932  0.113-  14 1.87  23 1.88  20 1.89   2 2.03
  59  0.004  0.735  0.332-  25 1.87  22 1.87  31 1.89   2 2.02
  60  0.007  0.264  0.336-  24 1.87  15 1.87  21 1.92   8 2.10
  61  0.114  0.068  0.555-  23 1.87  35 1.89  32 1.90   8 2.01
  62  0.113  0.591  0.555-  25 1.93  34 1.96  31 1.97  12 2.06   7 2.07  11 2.07
  63  0.222  0.408  0.445-  24 1.93  15 1.93  27 1.95   7 2.07  12 2.08   9 2.08
  64  0.219  0.931  0.439-  26 1.88  23 1.89  35 1.91   2 2.08
  65  0.332  0.736  0.328-  16 1.87  28 1.90  25 1.92   2 2.20   5 2.21
  66  0.328  0.264  0.332-  15 1.87  27 1.90  18 1.92   3 2.20   8 2.21
  67  0.439  0.067  0.554-  26 1.87  35 1.89  38 1.90   8 2.11
  68  0.446  0.593  0.557-  25 1.92  28 1.93  37 1.94   9 2.09  13 2.09  12 2.09
  69  0.557  0.407  0.446-  18 1.92  27 1.93  30 1.94   9 2.09  13 2.09  10 2.09
  70  0.554  0.933  0.439-  26 1.87  29 1.89  38 1.90   5 2.11
  71  0.660  0.736  0.330-  19 1.87  28 1.87  31 1.92   5 2.00
  72  0.666  0.265  0.333-  30 1.86  21 1.86  18 1.87
  73  0.778  0.069  0.557-  29 1.87  32 1.88  38 1.88
  74  0.776  0.593  0.552-  28 1.92  31 1.94  40 1.98  10 2.06  11 2.08  13 2.10
  75  0.888  0.406  0.441-  24 1.93  21 1.93  30 1.95  10 2.07   7 2.07  11 2.11
  76  0.887  0.936  0.444-  23 1.87  29 1.87  32 1.87
  77  0.001  0.736  0.663-  31 1.84  34 1.86  40 1.88
[...]
   0.829E+01 0.143E+02 -.343E+03   -.935E+01 -.149E+02 0.370E+03   0.105E+01 0.615E+00 -.268E+02   0.887E-02 0.115E-01 0.213E-01
   -.773E+01 -.374E+01 0.196E+03   0.881E+01 0.426E+01 -.209E+03   -.109E+01 -.528E+00 0.129E+02   0.565E-02 0.153E-01 -.324E-02
   0.771E+00 0.209E+02 -.192E+03   -.710E+00 -.220E+02 0.205E+03   -.800E-01 0.107E+01 -.129E+02   0.253E-01 0.608E-02 -.146E-02
   -.653E-01 0.495E+02 0.310E+03   0.141E+00 -.529E+02 -.332E+03   -.892E-01 0.330E+01 0.220E+02   0.107E-01 0.277E-01 -.158E-01
   -.452E+02 0.246E+02 -.428E+03   0.487E+02 -.261E+02 0.448E+03   -.355E+01 0.154E+01 -.194E+02   0.707E-02 0.353E-02 -.216E-01
   -.641E+01 0.509E+02 0.430E+03   0.598E+01 -.539E+02 -.451E+03   0.441E+00 0.304E+01 0.202E+02   -.105E-01 -.147E-01 0.207E-01
[...]
   0.624E+00 -.857E+01 -.196E+03   -.718E+00 0.976E+01 0.209E+03   0.861E-01 -.120E+01 -.129E+02   0.104E-01 0.126E-01 0.324E-02
   0.825E+01 0.143E+02 0.343E+03   -.827E+01 -.156E+02 -.370E+03   0.710E-02 0.122E+01 0.268E+02   0.554E-02 0.134E-01 -.213E-01
   -.106E+02 -.328E+01 -.460E+03   0.104E+02 0.286E+01 0.485E+03   0.261E+00 0.436E+00 -.252E+02   0.126E-01 -.218E-01 -.214E-01
   -.432E+02 -.279E+02 0.428E+03   0.463E+02 0.302E+02 -.448E+03   -.320E+01 -.235E+01 0.193E+02   0.151E-01 0.103E-02 0.851E-02
   0.223E+01 -.123E+02 -.339E+03   -.222E+01 0.125E+02 0.365E+03   -.145E-01 -.221E+00 -.261E+02   0.135E-01 -.194E-01 0.200E-01
   0.946E+01 0.350E+01 0.192E+03   -.101E+02 -.407E+01 -.205E+03   0.634E+00 0.590E+00 0.126E+02   0.218E-02 -.200E-01 -.219E-02
   -.128E+02 -.892E+01 -.190E+03   0.139E+02 0.911E+01 0.201E+03   -.109E+01 -.170E+00 -.111E+02   0.187E-01 -.700E-02 0.949E-02
   -.761E+00 -.801E+01 0.343E+03   0.436E+00 0.878E+01 -.370E+03   0.321E+00 -.749E+00 0.265E+02   0.209E-02 -.231E-01 -.315E-01
   -.879E+01 -.722E+01 -.461E+03   0.850E+01 0.686E+01 0.486E+03   0.296E+00 0.364E+00 -.251E+02   0.417E-02 -.760E-02 0.989E-05
   -.186E+01 -.112E+02 0.461E+03   0.169E+01 0.108E+02 -.486E+03   0.167E+00 0.438E+00 0.251E+02   -.866E-02 -.192E-03 -.989E-05
   -.262E+01 0.114E+02 -.343E+03   0.286E+01 -.112E+02 0.368E+03   -.252E+00 -.194E+00 -.254E+02   0.103E-01 0.175E-01 0.348E-01
   0.107E+02 0.404E+01 0.192E+03   -.117E+02 -.393E+01 -.205E+03   0.103E+01 -.108E+00 0.125E+02   0.158E-01 0.484E-02 -.106E-01
   -.184E+01 0.113E+02 -.192E+03   0.245E+01 -.121E+02 0.205E+03   -.606E+00 0.834E+00 -.125E+02   -.373E-02 0.161E-01 0.106E-01
   0.112E+02 0.342E+01 0.343E+03   -.111E+02 -.312E+01 -.368E+03   -.422E-01 -.316E+00 0.254E+02   0.101E-01 0.177E-01 -.348E-01
   0.116E+00 0.201E+00 -.212E-05   -.338E-12 -.804E-13 -.455E-12   -.100E+00 -.174E+00 0.814E-12   -.231E-02 -.400E-02 0.353E-10

 POSITION                                       TOTAL-FORCE (eV/Angst)
      4.21302      7.30592      7.01497         0.002711      0.004695     -0.000000
      1.46366      0.69611     11.69449        -0.004820     -0.010145     -0.003929
     -0.13656      1.62000      2.33544        -0.006376     -0.009247      0.003929
      7.03359      2.44269      7.01121        -0.001340      0.004268     -0.006566
     -0.07509      3.38451     11.70032         0.000738      0.002915     -0.007522
      5.62643      4.87108      6.99763         0.001616      0.002628     -0.002520
     -1.40895      7.31699      7.01872         0.004366      0.000973      0.006566
      2.96103      1.63160      2.32962         0.002156      0.002096      0.007522
      1.40720      2.44610      7.01497        -0.000660     -0.001143      0.000000
     -0.00422      4.89317      7.01296        -0.000731      0.000944     -0.001014
      1.39768      7.31255      7.03230         0.001468      0.002713      0.002520
      4.23213      2.44731      7.01697         0.001183     -0.000161      0.001014
      2.81916      4.89168      7.01497        -0.001310     -0.002269      0.000000
      4.21997      7.30920     -0.00000         0.000494      0.000855     -0.000000
      1.40542      0.81228      4.69301         0.005545      0.000727      0.011627
     -0.00684      1.62764      9.33693        -0.002143      0.005165     -0.011627
      7.02844      2.43114     14.00723         0.004059     -0.003199     -0.000998
      0.00598      3.26454      4.66852         0.002151     -0.001689      0.005996
     -1.41650      4.07427      9.35338         0.001493      0.003386     -0.013071
      5.62172      4.87923     14.00584        -0.001542     -0.003231     -0.002555
     -1.41516      5.69374      4.62811        -0.000301      0.004396      0.011401
     -2.82016      6.50907      9.35533        -0.004163      0.002411     -0.010848
     -1.41637      7.30676      0.02270        -0.004800      0.001916      0.000998
      4.22908      0.81479      4.67655         0.002186      0.002986      0.013071
      2.81660      1.64182      9.36141        -0.002538      0.001019     -0.005996
      1.41330      2.44790     -0.00000        -0.000054     -0.000094      0.000000
      2.81035      3.25974      4.66711        -0.001290      0.002551      0.010464
      1.41026      4.06808      9.36282         0.002854      0.000158     -0.010464
     -0.00440      4.87986      0.05038         0.000617     -0.007190     -0.002766
      1.40620      5.69512      4.63867         0.000025      0.002719      0.012546
     -0.00802      6.51428      9.41779         0.005661     -0.002176     -0.004671
      1.40709      7.31255      0.02410        -0.002027     -0.002951      0.002555
      7.03952      0.81659      4.67460         0.004170     -0.002400      0.010848
      5.63092      1.62569      9.40182         0.003958      0.001937     -0.011401
      4.22070      2.44050     13.97955        -0.006535     -0.003061      0.002766
      5.63796      3.25458      4.61215        -0.004715      0.003815      0.004671
      4.22143      4.06974      9.39126         0.002342      0.001381     -0.012546
      2.80959      4.86635     -0.00000        -0.005539     -0.009593      0.000000
      4.22617      5.69146      4.61697        -0.002095      0.002951      0.017906
      2.80828      6.51008      9.41296         0.003603     -0.000339     -0.017906
      0.04882      0.03114     10.30538        -0.006208     -0.000321     -0.010006
     -0.00503      0.06223      3.72455         0.002826     -0.005537      0.010006
      1.41125      0.85841      0.99068        -0.000364     -0.001212      0.004816
      1.40530      0.81831      8.28604        -0.003024      0.002722     -0.007265
     -0.00156      1.63056      5.74389         0.003869     -0.001258      0.007265
      0.03020      1.65576     13.03925        -0.000867     -0.000921     -0.004816
     -1.37196      2.46799     10.30207        -0.001350      0.002696     -0.009111
     -1.35940      2.42242      3.72524         0.004374     -0.004095      0.003386
     -0.00742      3.20923      0.96189        -0.000199     -0.004570     -0.000055
     -0.00373      3.25353      8.29056        -0.000796      0.003535     -0.013643
     -1.40570      4.07610      5.72337        -0.006558      0.000315     -0.000439
     -1.38646      4.06230     13.08388        -0.001032     -0.003423     -0.005417
     -2.81305      4.89008     10.28553         0.002093      0.003087     -0.009471
     -2.81706      4.87390      3.72248        -0.004321      0.006253      0.007528
     -1.42609      5.68785      0.94742        -0.002427     -0.003522      0.001968
     -1.40779      5.70350      8.32008         0.002607      0.003590     -0.009656
     -2.82901      6.50258      5.70655         0.005964      0.001642      0.013776
     -2.83984      6.53935     13.09474        -0.002794     -0.000081     -0.001709
      2.77000      0.03832     10.30470        -0.005733      0.001740     -0.003386
      2.81574      0.05022      3.72786         0.003010      0.000179      0.009111
[...]
      7.03832      0.80568      8.32338        -0.001560      0.005985     -0.013776
      5.63569      1.63695      5.70985         0.001806      0.004053      0.009656
      5.63128      1.61327     13.08251        -0.001837     -0.003863     -0.001968
      4.21762      2.44431     10.29329         0.004448     -0.001855     -0.007249
      4.17725      2.41606      3.72373        -0.000478      0.005665      0.009075
      5.62036      3.24605      0.89349         0.002665     -0.004779      0.003601
      5.63359      3.25180      8.31933        -0.000596      0.002018     -0.012357
      4.21641      4.06039      5.71552        -0.009033      0.011025      0.009520
      4.21047      4.07617     13.07438        -0.001753     -0.003051     -0.001271
      2.80481      4.87867     10.29723         0.004900     -0.002505     -0.009225
      2.81506      4.87275      3.73270        -0.004619      0.002991      0.009225
      4.21610      5.66691      0.91684        -0.000136     -0.002010      0.003467
      4.22312      5.69258      8.32295         0.000677      0.003809     -0.010122
      2.81078      6.50800      5.70698         0.002960      0.002491      0.010122
      2.79206      6.48908     13.11309        -0.001673     -0.001123     -0.003467
    total drift:                                0.013389      0.023191     -0.000002

  FREE ENERGIE OF THE ION-ELECTRON SYSTEM (eV)
  free  energy   TOTEN  =      -574.1484194665 eV

  energy  without entropy=     -574.0659807233  energy(sigma->0) =     -574.10720009

 d Force =-0.1885755E-03[-0.173E-03,-0.204E-03]  d Energy =-0.1481060E-03-0.405E-04
 d Force = 0.2377278E+01[ 0.238E+01, 0.238E+01]  d Ewald  = 0.2259049E+01 0.118E+00

 Quasi-Newton relaxation of ions (Broydens 2nd method)
  g(Force)  = 0.407E-03   g(Stress)= 0.130E-02

 retain information from N=  1 steps
 eigenvalues of (default step * inverse Hessian matrix)
  average eigenvalue of G=   0.1847
 eigenvalue spectrum of G is  0.1847

 reached required accuracy - stopping structural energy minimisation

volume of typ            1:    11.7 %

[...]

volume of typ            3:    10.1 %

total charge

# of ion       s       p       d       tot
    1        2.092   0.284   0.110   2.487
    2        2.075   0.245   0.096   2.417
    3        2.075   0.245   0.096   2.417
    4        2.093   0.285   0.111   2.489
    5        2.075   0.245   0.096   2.416
    6        2.090   0.280   0.108   2.478
    7        2.093   0.285   0.111   2.489
    8        2.075   0.245   0.096   2.416
    9        2.096   0.293   0.116   2.504
   10        2.092   0.287   0.111   2.491
   11        2.090   0.280   0.108   2.478
   12        2.092   0.287   0.111   2.491
   13        2.091   0.284   0.110   2.485
   14        0.287   0.390   7.835   8.512
   15        0.283   0.382   7.854   8.518
   16        0.283   0.382   7.854   8.518
   17        0.293   0.402   7.830   8.525
   18        0.276   0.367   7.852   8.496
   19        0.282   0.379   7.851   8.513
   20        0.289   0.395   7.818   8.503
   21        0.274   0.360   7.845   8.479
   22        0.282   0.380   7.851   8.513
   23        0.293   0.402   7.830   8.525
   24        0.282   0.379   7.851   8.513
   25        0.276   0.367   7.852   8.496
   26        0.300   0.420   7.833   8.553
   27        0.278   0.371   7.852   8.501
   28        0.278   0.371   7.852   8.501
   29        0.294   0.405   7.822   8.520
   30        0.280   0.370   7.844   8.494
   31        0.266   0.347   7.848   8.461
   32        0.289   0.395   7.818   8.503
   33        0.282   0.380   7.851   8.513
   34        0.274   0.360   7.845   8.479
   35        0.294   0.405   7.822   8.520
   36        0.266   0.347   7.848   8.461
   37        0.280   0.370   7.844   8.494
   38        0.291   0.400   7.817   8.509
   39        0.272   0.356   7.847   8.475
   40        0.272   0.356   7.847   8.475
   41        1.276   2.750   0.007   4.033
   42        1.276   2.750   0.007   4.033
   43        1.271   2.761   0.006   4.038
   44        1.259   2.794   0.005   4.058
   45        1.259   2.794   0.005   4.058
   46        1.271   2.761   0.006   4.038
   47        1.277   2.748   0.007   4.032
   48        1.274   2.759   0.007   4.040
   49        1.275   2.748   0.007   4.030
   50        1.260   2.794   0.005   4.059
   51        1.260   2.790   0.005   4.055
   52        1.274   2.754   0.007   4.036
   53        1.286   2.721   0.008   4.015
   54        1.285   2.723   0.008   4.016
   55        1.285   2.719   0.008   4.012
   56        1.258   2.796   0.005   4.060
   57        1.258   2.795   0.005   4.059
   58        1.272   2.760   0.007   4.039
   59        1.274   2.759   0.007   4.040
   60        1.277   2.748   0.007   4.032
[...]
   80        1.258   2.795   0.005   4.059
   81        1.258   2.796   0.005   4.060
   82        1.285   2.719   0.008   4.012
   83        1.285   2.722   0.008   4.016
   84        1.274   2.758   0.007   4.040
   85        1.288   2.715   0.008   4.010
   86        1.259   2.794   0.005   4.058
   87        1.260   2.791   0.005   4.056
   88        1.286   2.716   0.008   4.011
   89        1.286   2.721   0.008   4.015
   90        1.286   2.721   0.008   4.015
   91        1.289   2.713   0.008   4.010
   92        1.258   2.795   0.005   4.058
   93        1.258   2.795   0.005   4.058
   94        1.289   2.713   0.008   4.010
tot         103.46  162.69  213.46  479.61

magnetization (x)

# of ion       s       p       d       tot
    1        0.007   0.008  -0.000   0.015
    2        0.002   0.006   0.001   0.009
    3        0.002   0.006   0.001   0.009
    4        0.007   0.009  -0.000   0.016
    5        0.001   0.005   0.001   0.007
    6        0.007   0.010   0.000   0.017
    7        0.007   0.009  -0.000   0.016
    8        0.001   0.005   0.001   0.007
    9        0.007   0.008  -0.000   0.015
   10        0.007   0.011   0.000   0.018
   11        0.007   0.010   0.000   0.017
   12        0.007   0.011   0.000   0.018
   13        0.007   0.011   0.000   0.018
   14        0.000   0.000  -0.190  -0.189
   15       -0.000  -0.000   0.360   0.360
   16       -0.000  -0.000   0.360   0.360
   17        0.000   0.000  -0.054  -0.053
   18       -0.000  -0.000   0.455   0.455
   19       -0.000   0.000   0.310   0.310
   20        0.000   0.000  -0.070  -0.069
   21       -0.000   0.000   0.395   0.395
   22       -0.000  -0.000   0.323   0.323
   23        0.000   0.000  -0.054  -0.053
   24       -0.000   0.000   0.310   0.310
   25       -0.000  -0.000   0.455   0.455
   26        0.000   0.000   0.009   0.009
   27       -0.001  -0.000   0.373   0.373
   28       -0.001  -0.000   0.373   0.373
   29        0.000   0.000   0.001   0.001
   30       -0.001   0.000   0.318   0.318
   31       -0.000   0.000   0.641   0.641
   32        0.000   0.000  -0.070  -0.069
   33       -0.000  -0.000   0.323   0.323
   34       -0.000   0.000   0.395   0.395
   35        0.000   0.000   0.001   0.001
   36       -0.000   0.000   0.641   0.641
   37       -0.001   0.000   0.318   0.318
   38        0.000   0.000  -0.026  -0.025
   39       -0.000   0.000   0.480   0.480
   40       -0.000   0.000   0.480   0.480
   41        0.009   0.061   0.000   0.070
   42        0.009   0.061   0.000   0.070
   43       -0.003  -0.025  -0.000  -0.028
   44        0.006   0.021   0.000   0.027
   45        0.006   0.021   0.000   0.027
   46       -0.003  -0.025  -0.000  -0.028
   47        0.008   0.056   0.000   0.065
   48        0.010   0.061   0.000   0.070
   49        0.001  -0.000   0.000   0.000
   50        0.005   0.017   0.000   0.022
   51        0.011   0.075   0.000   0.086
   52       -0.002  -0.021  -0.000  -0.023
   53        0.006   0.067   0.000   0.074
   54        0.006   0.055   0.000   0.061
   55        0.001   0.007   0.000   0.008
   56        0.006   0.021   0.000   0.027
   57        0.006   0.021   0.000   0.028
   58       -0.000  -0.002  -0.000  -0.002
   59        0.010   0.061   0.000   0.070
   60        0.008   0.056   0.000   0.065
[...]
   80        0.006   0.021   0.000   0.028
   81        0.006   0.021   0.000   0.027
   82        0.001   0.007   0.000   0.008
   83        0.006   0.066   0.000   0.073
   84        0.009   0.060   0.000   0.069
   85       -0.002  -0.029  -0.000  -0.031
   86        0.004   0.017   0.000   0.022
   87        0.011   0.082   0.000   0.094
   88        0.000  -0.001   0.000  -0.001
   89        0.006   0.061   0.000   0.067
   90        0.006   0.061   0.000   0.067
   91       -0.004  -0.057  -0.000  -0.061
   92        0.005   0.025   0.000   0.030
   93        0.005   0.025   0.000   0.030
   94       -0.004  -0.057  -0.000  -0.061
tot           0.31    1.54    6.87    8.72