 vasp.5.4.4.18Apr17-6-g9f103f2a35 (build May 12 2020 05:39:39) gamma-only

 MD_VERSION_INFO: Compiled 2020-05-12T12:39:39-UTC in devlin.sd.materialsdesign.
 com:/home/medea2/data/build/wwolf/vasp-gpu5.4.4/13047/x86_64/src/src/build/gam
 from svn 13047

 executed on                        Lin64 date 2023.01.19  15:06:01

 INCAR:
 POTCAR:    PAW_PBE Li_sv 10Sep2004
 POTCAR:    PAW_PBE Ni 02Aug2007
 POTCAR:    PAW_PBE O 08Apr2002

 POTCAR:    PAW_PBE Li_sv 10Sep2004

 POTCAR:    PAW_PBE Ni 02Aug2007

 POTCAR:    PAW_PBE O 08Apr2002

 Optimization of the real space projectors (new method)

 maximal supplied QI-value         = 22.11
 optimisation between [QCUT,QGAM] = [ 11.28, 22.77] = [ 35.61,145.23] Ry
 Optimized for a Real-space Cutoff    1.10 Angstroem

   l    n(q)    QCUT    max X(q) W(low)/X(q) W(high)/X(q)  e(spline)
   0      7    11.276    10.506    0.54E-04    0.58E-04    0.16E-07
   0      7    11.276     8.367    0.11E-03    0.14E-03    0.35E-07
   1      7    11.276     8.983    0.23E-03    0.43E-03    0.86E-07
 Optimization of the real space projectors (new method)

[...]

   l    n(q)    QCUT    max X(q) W(low)/X(q) W(high)/X(q)  e(spline)
   2      9    11.376    60.317    0.17E-03    0.16E-04    0.16E-06
   2      9    11.376    55.921    0.17E-03    0.16E-04    0.17E-06
   0     10    11.376    51.690    0.45E-04    0.60E-04    0.21E-06
   0     10    11.376    30.015    0.37E-04    0.55E-04    0.19E-06
   1     10    11.376    18.849    0.83E-04    0.11E-03    0.92E-07
   1     10    11.376    14.624    0.69E-04    0.92E-04    0.82E-07
 Optimization of the real space projectors (new method)

 maximal supplied QI-value         = 24.76
 optimisation between [QCUT,QGAM] = [ 11.39, 22.77] = [ 36.31,145.25] Ry
 Optimized for a Real-space Cutoff    1.10 Angstroem

   l    n(q)    QCUT    max X(q) W(low)/X(q) W(high)/X(q)  e(spline)
   0      7    11.387    20.381    0.22E-03    0.48E-03    0.18E-06
   0      7    11.387    15.268    0.22E-03    0.52E-03    0.19E-06
   1      7    11.387     5.964    0.22E-03    0.73E-03    0.24E-06
   1      7    11.387     5.382    0.19E-03    0.60E-03    0.21E-06

  PAW_PBE Li_sv 10Sep2004               :
  PAW_PBE Ni 02Aug2007                  :
  PAW_PBE O 08Apr2002                   :

 POSCAR: ce406703_1
  positions in direct lattice
 exchange correlation table for  LEXCH =       14
   RHO(1)=    0.500       N(1)  =     2000
   RHO(2)=  100.500       N(2)  =     4000

 ion  position               nearest neighbor table
   1  0.980  0.500  0.997-  83 2.02  48 2.03  84 2.10  35 2.12  36 2.20  71 2.21  13 2.80  30 2.82

   2  0.111  0.834  0.226-  55 2.08  50 2.09  37 2.11  32 2.11  56 2.11  49 2.11
   3  0.225  0.166  0.112-  39 2.09  34 2.09  40 2.09  57 2.10  33 2.11  70 2.11  17 2.84
   4  0.352  0.500  0.999-  77 2.01  42 2.02  72 2.11  41 2.12  36 2.21  71 2.22  10 2.81  27 2.82

   5  0.999  1.000  0.999-  82 1.86  85 1.86  49 1.86  70 1.86  37 1.88  34 1.88  29 2.78  23 2.78
                            11 2.79  14 2.80   8 2.80  17 2.81
   6  0.112  0.333  0.224-  54 1.86  57 1.87  48 1.87  51 1.87  33 1.87  36 1.92  18 2.78  15 2.78
                            12 2.79   9 2.80  30 2.80  24 2.81
   7  0.223  0.668  0.111-  56 1.86  41 1.87  71 1.87  38 1.87  32 1.87  35 1.88  19 2.78  10 2.79
                            25 2.79  31 2.80  16 2.80  13 2.81
   8  0.334  0.997  1.000-  43 1.86  73 1.86  76 1.87  70 1.87  40 1.88  37 1.90  26 2.79  20 2.79
                            23 2.79  11 2.79  17 2.80   5 2.80
   9  0.445  0.334  0.224-  60 1.86  57 1.86  42 1.86  63 1.87  39 1.88  36 1.91  18 2.78  21 2.78
                            12 2.79   6 2.80  27 2.80  24 2.81
  10  0.556  0.670  0.111-  44 1.86  62 1.86  47 1.87  38 1.87  41 1.87  77 1.88  13 2.78  22 2.79
                            19 2.79   7 2.79  28 2.80  25 2.80   4 2.81
  11  0.667  0.999  0.000-  76 1.86  43 1.86  79 1.87  82 1.87  46 1.87  49 1.89   5 2.79  20 2.79
                            14 2.79   8 2.79  29 2.79  26 2.79
  12  0.778  0.334  0.222-  51 1.86  63 1.87  66 1.87  45 1.88  42 1.88  48 1.89  27 2.79   9 2.79
                            30 2.79   6 2.79  15 2.79  21 2.79
  13  0.887  0.668  0.111-  47 1.86  44 1.86  50 1.87  83 1.87  32 1.87  35 1.88  10 2.78  28 2.79
                            22 2.79  31 2.80  16 2.80   1 2.80   7 2.81
  14  1.000  0.003  0.334-  52 1.86  46 1.86  67 1.86  49 1.88  55 1.88  34 1.90  23 2.79  20 2.79
                            11 2.79  26 2.79   5 2.80  17 2.80
  15  0.111  0.333  0.556-  51 1.86  54 1.86  69 1.87  66 1.87  75 1.87  72 1.89  24 2.78   6 2.78
                            18 2.79  27 2.79  12 2.79  21 2.79
  16  0.223  0.665  0.445-  53 1.86  59 1.86  74 1.86  56 1.87  50 1.88  35 1.90  28 2.78  25 2.78
                            19 2.79  22 2.79   7 2.80  13 2.80
  17  0.335  1.000  0.335-  58 1.86  61 1.86  55 1.87  40 1.87  37 1.88  34 1.88  29 2.78  26 2.79
                            20 2.79   8 2.80  14 2.80   5 2.81   3 2.84
  18  0.444  0.331  0.555-  78 1.86  81 1.86  75 1.87  54 1.87  60 1.87  57 1.89   6 2.78   9 2.78
                            30 2.79  21 2.79  15 2.79  27 2.79
  19  0.555  0.668  0.444-  80 1.86  65 1.86  62 1.87  59 1.87  56 1.89  41 1.90   7 2.78  28 2.79
                            16 2.79  10 2.79  31 2.79  22 2.80
  20  0.666  0.001  0.333-  67 1.86  46 1.87  64 1.87  43 1.87  61 1.87  40 1.89  17 2.79  11 2.79
                            14 2.79   8 2.79  29 2.79  23 2.80
  21  0.778  0.334  0.556-  63 1.86  60 1.86  69 1.87  66 1.87  81 1.87  84 1.89  24 2.78   9 2.78
                            30 2.79  18 2.79  15 2.79  12 2.79
  22  0.889  0.669  0.445-  68 1.86  65 1.86  62 1.87  47 1.87  53 1.87  50 1.89  25 2.78  31 2.78
                            10 2.79  13 2.79  16 2.79  19 2.80
  23  0.000  0.001  0.667-  67 1.86  52 1.86  64 1.87  85 1.87  73 1.87  70 1.89   5 2.78  14 2.79
                             8 2.79  26 2.79  29 2.79  20 2.80
  24  0.111  0.332  0.887-  69 1.86  72 1.87  84 1.87  33 1.87  39 1.87  36 1.88  21 2.78  15 2.78
                            27 2.80  30 2.80   9 2.81   6 2.81
  25  0.221  0.669  0.777-  53 1.86  68 1.86  74 1.86  38 1.87  77 1.88  71 1.90  22 2.78  31 2.78
                            16 2.78   7 2.79  28 2.80  10 2.80
  26  0.333  0.999  0.666-  76 1.86  73 1.86  79 1.87  58 1.87  52 1.87  55 1.89  17 2.79   8 2.79
                            14 2.79  23 2.79  29 2.79  11 2.79
  27  0.445  0.329  0.889-  45 1.86  75 1.86  78 1.86  72 1.88  42 1.88  39 1.89  30 2.78  12 2.79
                            18 2.79  15 2.79  24 2.80   9 2.80   4 2.82
  28  0.555  0.666  0.777-  59 1.86  74 1.86  80 1.87  44 1.87  83 1.89  77 1.89  16 2.78  13 2.79
                            19 2.79  31 2.80  10 2.80  25 2.80
  29  0.667  1.000  0.667-  58 1.86  61 1.86  82 1.86  85 1.86  64 1.87  79 1.87   5 2.78  17 2.78
                            11 2.79  23 2.79  20 2.79  26 2.79
  30  0.777  0.329  0.889-  45 1.86  81 1.86  78 1.86  48 1.88  84 1.88  33 1.89  27 2.78  12 2.79
                            21 2.79  18 2.79  24 2.80   6 2.80   1 2.82
  31  0.889  0.670  0.777-  68 1.86  65 1.86  80 1.87  83 1.88  32 1.90  71 1.91  25 2.78  22 2.78
                            19 2.79  28 2.80   7 2.80  13 2.80
  32  0.003  0.737  0.005-   7 1.87  13 1.87  31 1.90   2 2.11
  33  0.005  0.264  0.003-  24 1.87   6 1.87  30 1.89   3 2.11
  34  0.114  0.069  0.220-   5 1.88  17 1.88  14 1.90   3 2.09
  35  0.108  0.598  0.217-  13 1.88   7 1.88  16 1.90   1 2.12
  36  0.220  0.404  0.106-  24 1.88   9 1.91   6 1.92   1 2.20   4 2.21
  37  0.220  0.931  0.113-   5 1.88  17 1.88   8 1.90   2 2.11
  38  0.333  0.736  1.000-   7 1.87  10 1.87  25 1.87
  39  0.331  0.264  0.003-  24 1.87   9 1.88  27 1.89   3 2.09
  40  0.441  0.067  0.220-  17 1.87   8 1.88  20 1.89   3 2.09
  41  0.443  0.600  0.217-   7 1.87  10 1.87  19 1.90   4 2.12
  42  0.552  0.400  0.108-   9 1.86  27 1.88  12 1.88   4 2.02
  43  0.557  0.932  0.112-   8 1.86  11 1.86  20 1.87
  44  0.666  0.735  0.999-  10 1.86  13 1.86  28 1.87
  45  0.668  0.264  0.002-  27 1.86  30 1.86  12 1.88
  46  0.776  0.068  0.221-  14 1.86  20 1.87  11 1.87
  47  0.777  0.602  0.222-  13 1.86  10 1.87  22 1.87
  48  0.890  0.400  0.108-   6 1.87  30 1.88  12 1.89   1 2.03
  49  0.893  0.933  0.114-   5 1.86  14 1.88  11 1.89   2 2.11
  50  0.003  0.735  0.333-  13 1.87  16 1.88  22 1.89   2 2.09
  51  0.999  0.267  0.334-  15 1.86  12 1.86   6 1.87
  52  0.112  0.068  0.557-  14 1.86  23 1.86  26 1.87
  53  0.110  0.601  0.556-  16 1.86  25 1.86  22 1.87
  54  0.223  0.399  0.445-   6 1.86  15 1.86  18 1.87
  55  0.219  0.933  0.440-  17 1.87  14 1.88  26 1.89   2 2.08
  56  0.329  0.735  0.333-   7 1.86  16 1.87  19 1.89   2 2.11
  57  0.332  0.265  0.329-   9 1.86   6 1.87  18 1.89   3 2.10
  58  0.445  0.066  0.556-  17 1.86  29 1.86  26 1.87
  59  0.446  0.599  0.556-  28 1.86  16 1.86  19 1.87
  60  0.556  0.400  0.446-   9 1.86  21 1.86  18 1.87
  61  0.556  0.933  0.445-  17 1.86  29 1.86  20 1.87
  62  0.667  0.735  0.335-  10 1.86  22 1.87  19 1.87
  63  0.668  0.267  0.334-  21 1.86  12 1.87   9 1.87
  64  0.778  0.067  0.556-  20 1.87  23 1.87  29 1.87
  65  0.778  0.602  0.555-  19 1.86  22 1.86  31 1.86
  66  0.889  0.401  0.445-  12 1.87  21 1.87  15 1.87
  67  0.889  0.935  0.444-  20 1.86  23 1.86  14 1.86
  68  1.000  0.736  0.666-  31 1.86  22 1.86  25 1.86
  69  0.999  0.266  0.665-  24 1.86  15 1.87  21 1.87
  70  0.114  0.067  0.893-   5 1.86   8 1.87  23 1.89   3 2.11
  71  0.113  0.598  0.893-   7 1.87  25 1.90  31 1.91   1 2.21   4 2.22
  72  0.226  0.400  0.782-  24 1.87  27 1.88  15 1.89   4 2.11
  73  0.221  0.932  0.776-   8 1.86  26 1.86  23 1.87
  74  0.334  0.733  0.665-  16 1.86  25 1.86  28 1.86
  75  0.332  0.264  0.665-  27 1.86  18 1.87  15 1.87
  76  0.444  0.065  0.889-  26 1.86  11 1.86   8 1.87
  77  0.442  0.600  0.891-  25 1.88  10 1.88  28 1.89   4 2.01
  78  0.556  0.396  0.779-  18 1.86  27 1.86  30 1.86
  79  0.556  0.932  0.777-  26 1.87  11 1.87  29 1.87
  80  0.664  0.734  0.666-  19 1.86  28 1.87  31 1.87
  81  0.666  0.265  0.665-  30 1.86  18 1.86  21 1.87
  82  0.777  0.066  0.889-   5 1.86  29 1.86  11 1.87
  83  0.781  0.600  0.890-  13 1.87  31 1.88  28 1.89   1 2.02
  84  0.890  0.400  0.782-  24 1.87  30 1.88  21 1.89   1 2.10
  85  0.889  0.933  0.777-   5 1.86  29 1.86  23 1.87

  LATTYP: Found a triclinic cell.
 ALAT       =    16.4026437428
 B/A-ratio  =     0.8589671337
 C/A-ratio  =     0.5107582951
 COS(alpha) =     0.0004044129
 COS(beta)  =     0.2557855081
 COS(gamma) =     0.8598647434

  Lattice vectors:

 A1 = (  -8.3862616421,  -0.0010664133,  14.0967136697)
 A2 = (  -0.0123433707,  -0.0038571031,  14.0893259454)
 A3 = (  -4.1893767034,   7.2550964228,   0.0017040187)

Analysis of symmetry for initial positions (statically):
 Subroutine PRICEL returns:
 Original cell was already a primitive cell.

 Routine SETGRP: Setting up the symmetry group for a
 triclinic supercell.

 Subroutine GETGRP returns: Found  1 space group operations
 (whereof  1 operations were pure point group operations)
[...]
   -.416E+02 -.156E+02 0.345E+03   0.443E+02 0.163E+02 -.368E+03   -.274E+01 -.767E+00 0.229E+02   0.604E-02 -.139E-02 -.435E-02
   -.126E+02 -.472E+02 -.349E+03   0.134E+02 0.505E+02 0.372E+03   -.822E+00 -.324E+01 -.233E+02   0.453E-02 0.213E-02 -.459E-02
   -.397E+02 -.235E+02 0.349E+03   0.421E+02 0.249E+02 -.373E+03   -.242E+01 -.139E+01 0.233E+02   0.380E-02 -.160E-01 0.415E-02
   -.162E+02 -.837E+01 -.374E+03   0.168E+02 0.838E+01 0.402E+03   -.669E+00 -.872E-02 -.277E+02   0.363E-02 -.242E-02 0.379E-02
   0.199E+00 -.786E+01 0.383E+03   -.644E+00 0.843E+01 -.411E+03   0.435E+00 -.579E+00 0.274E+02   0.502E-02 -.233E-02 0.110E-01
   -.164E+02 -.877E+01 -.380E+03   0.172E+02 0.868E+01 0.408E+03   -.791E+00 0.952E-01 -.273E+02   0.318E-02 0.203E-02 0.725E-04
[...]
   0.489E+02 0.117E+02 -.348E+03   -.515E+02 -.126E+02 0.371E+03   0.264E+01 0.947E+00 -.229E+02   -.190E-02 -.784E-02 0.923E-03
   0.854E+01 0.446E+01 0.375E+03   -.899E+01 -.517E+01 -.403E+03   0.452E+00 0.712E+00 0.275E+02   -.373E-02 0.200E-02 -.308E-02
   -.437E+01 -.782E+01 -.376E+03   0.412E+01 0.813E+01 0.403E+03   0.247E+00 -.318E+00 -.272E+02   0.110E-02 0.367E-02 -.959E-02
   0.559E+01 0.396E+01 0.379E+03   -.609E+01 -.465E+01 -.406E+03   0.509E+00 0.695E+00 0.273E+02   -.593E-02 -.811E-02 -.240E-02
   0.872E+01 -.528E+01 -.371E+03   -.849E+01 0.520E+01 0.398E+03   -.230E+00 0.827E-01 -.275E+02   -.160E-02 -.101E-02 -.103E-02
   0.397E+02 -.201E+02 0.343E+03   -.425E+02 0.215E+02 -.365E+03   0.284E+01 -.142E+01 0.215E+02   -.459E-02 0.119E-03 0.119E-01
   0.956E+01 0.556E+01 -.373E+03   -.949E+01 -.552E+01 0.400E+03   -.695E-01 -.397E-01 -.269E+02   -.418E-02 0.277E-02 0.277E-02
   0.899E+00 0.742E+00 0.374E+03   -.985E+00 -.678E+00 -.401E+03   0.790E-01 -.586E-01 0.273E+02   0.316E-02 -.497E-02 -.496E-02
   -.200E+00 0.414E+01 -.378E+03   0.505E+00 -.433E+01 0.405E+03   -.308E+00 0.209E+00 -.270E+02   0.387E-02 -.147E-01 -.248E-02
   0.671E+01 0.243E+01 0.378E+03   -.757E+01 -.243E+01 -.406E+03   0.860E+00 -.950E-03 0.275E+02   -.191E-02 0.377E-02 0.104E-02
   -.510E+00 0.184E+02 -.373E+03   0.844E+00 -.189E+02 0.401E+03   -.336E+00 0.543E+00 -.278E+02   0.221E-02 -.758E-02 0.832E-02
   0.969E+01 0.466E+02 0.347E+03   -.105E+02 -.497E+02 -.368E+03   0.855E+00 0.311E+01 0.218E+02   0.644E-02 -.112E-01 0.411E-03
   0.352E+02 0.372E+02 -.348E+03   -.373E+02 -.390E+02 0.371E+03   0.209E+01 0.183E+01 -.226E+02   0.227E-03 0.201E-02 -.495E-02
   0.174E+02 0.101E+02 0.373E+03   -.181E+02 -.101E+02 -.401E+03   0.712E+00 0.903E-02 0.277E+02   -.824E-02 -.230E-02 -.742E-02
   0.788E-01 0.138E+00 -.681E-01   -.252E-12 0.336E-12 -.142E-11   -.774E-01 -.146E+00 0.694E-01   0.651E-02 0.229E-02 0.109E-02

 POSITION                                       TOTAL-FORCE (eV/Angst)
      4.23310      7.10804      7.03813         0.003136     -0.009985      0.002521
      1.41750      0.80274     11.75142        -0.004646      0.002881      0.001824
     -0.00584      1.62815      2.33690        -0.003129     -0.000725     -0.000710
      6.88423      2.54917      7.04169        -0.002344      0.006967     -0.002303
      4.16701      7.23967     14.08716         0.000142     -0.001485     -0.000688
      1.40013      0.80807      4.69871         0.001121      0.000402     -0.004245
     -0.01129      1.61359      9.41763         0.000785     -0.000639      0.007036
      6.96101      2.41394     14.04459        -0.003765      0.002862     -0.000337
      0.00141      3.23032      4.70050         0.000631      0.003379     -0.004727
     -1.40631      4.03197      9.44245        -0.001247     -0.000415      0.007204
     -2.80451      4.83390     14.08251         0.000279     -0.001285      0.000306
     -1.40103      5.64094      4.70708         0.002840      0.002580     -0.005888
     -2.79874      6.43464      9.41461        -0.000488     -0.002455      0.005177
     -1.39305      7.25121      0.04272         0.004998     -0.001460     -0.000431
      4.18407      0.80452      4.69511         0.000513      0.000463     -0.007062
      2.78575      1.61030      9.36407         0.003363     -0.001099      0.006164
      1.38796      2.42288     14.09229         0.002041      0.002334      0.000829
      2.78324      3.22039      4.66511         0.001923      0.002511     -0.003745
      1.38440      4.02203      9.40673        -0.001319     -0.000113      0.005887
     -0.00311      4.83420      0.01284         0.000568      0.001771     -0.001071
      1.39200      5.64138      4.69723        -0.000499      0.001195     -0.006711
     -0.00974      6.44569      9.42469         0.000167     -0.002488      0.004254
      5.58418      0.00011      0.00736        -0.000979     -0.000782     -0.002164
      6.96472      0.79826      4.67026        -0.001150      0.001044     -0.007665
      5.57028      1.59883      9.41780        -0.001652     -0.003212      0.005500
      4.17322      2.41078     14.07586         0.001849      0.000900      0.000718
      5.57560      3.22539      4.63336        -0.000472      0.002936     -0.006186
      4.17311      4.02464      9.38401        -0.003148     -0.002704      0.005834
      2.77756      4.83131     14.08958         0.000596     -0.000379     -0.000131
      4.18277      5.63547      4.63366         0.000752     -0.001046     -0.005396
      2.77421      6.44434      9.43356        -0.005372     -0.002062      0.004374
      0.02118      0.01506     10.38253         0.000869      0.000472      0.003812
      0.00061      0.03735      3.71646        -0.003706      0.001306     -0.002910
      1.36614      0.82285      0.97419         0.003850      0.000712     -0.001892
      1.35370      0.77958      8.43081        -0.001808     -0.000129      0.004015
     -0.03893      1.59297      5.69029         0.000353      0.003482     -0.003748
      0.01763      1.58992     13.11793        -0.001075      0.001732      0.001691
      6.96935      2.40677     10.36296         0.003856     -0.001319      0.004400
     -1.36770      2.40372      3.71439         0.000137      0.000918     -0.003430
     -0.00747      3.19616      0.94878         0.001645      0.001249     -0.000607
     -0.04372      3.21084      8.45493        -0.003361     -0.005345      0.004842
     -1.41019      4.00470      5.64195         0.002084     -0.000275     -0.006280
     -1.40805      4.03533     13.14259        -0.000473      0.001448      0.002257
      5.56199      4.82943     10.35147         0.000723      0.000656      0.001684
     -2.78426      4.84251      3.72140         0.002073      0.001361      0.000619
     -1.39999      5.63190      0.95759         0.001107     -0.000199     -0.002419
     -1.40442      5.63070      8.48159        -0.005717     -0.003654      0.004483
     -2.82618      6.45217      5.64311         0.000480      0.002858     -0.005163
     -2.79923      6.47350     13.14729         0.000676     -0.001021      0.000151
      2.76160      0.01962     10.36166         0.001373     -0.002943      0.003104
     -1.39376      7.24672      3.76340        -0.002781      0.002987      0.000376
      4.19626      0.81328      0.95004         0.001960      0.001014     -0.002894
      4.19010      0.79568      8.46082        -0.001023     -0.003267      0.005054
      2.78992      1.61541      5.62686         0.000628      0.001291     -0.005173
      2.75759      1.58519     13.14265         0.000647      0.001198     -0.000038
      1.39798      2.38407     10.35536        -0.000634     -0.002241      0.003922
      1.36279      2.40339      3.73130        -0.001167     -0.000314     -0.000136
      2.79507      3.22570      0.93368         0.000826      0.000501      0.000114
      2.77889      3.22777      8.44361        -0.004291     -0.004628      0.009215
      1.39726      4.03030      5.63147        -0.000050      0.000978     -0.005284
[...]
      6.99254      0.81596      8.42305        -0.001253     -0.000272      0.004424
      5.60086      1.63501      5.63188         0.005385      0.000404     -0.005874
      5.56051      1.59818     13.13250        -0.001075     -0.000810      0.001439
      4.16286      2.41566     10.32691         0.000854     -0.003735      0.000681
      4.17577      2.40593      3.72198        -0.000524     -0.000787     -0.000114
      5.58568      3.21912      0.90498         0.001481      0.000848     -0.002239
      5.60009      3.20507      8.44885         0.000935     -0.001328      0.006674
      4.18797      4.03031      5.58112         0.003755      0.002419     -0.007440
      4.16871      4.02533     13.13711        -0.003234      0.000513      0.000547
      2.78087      4.81494     10.34224         0.001319     -0.002127     -0.000856
      2.77203      4.83083      3.72569        -0.002443      0.002011     -0.001020
      4.18733      5.63828      0.93140         0.000390      0.001258     -0.001659
      4.16842      5.66345      8.44843        -0.002364     -0.000471      0.007149
      2.81741      6.45366      5.63507         0.000275      0.005321     -0.004015
      2.77306      6.44086     13.14873         0.001117     -0.000970     -0.000922
    total drift:                                0.007964     -0.005823      0.002387

  FREE ENERGIE OF THE ION-ELECTRON SYSTEM (eV)
  free  energy   TOTEN  =      -528.9179297481 eV

  energy  without entropy=     -528.8657740028  energy(sigma->0) =     -528.89185188

 d Force = 0.2523072E-03[ 0.463E-04, 0.458E-03]  d Energy = 0.3419375E-03-0.896E-04
 d Force =-0.6409866E+01[-0.641E+01,-0.641E+01]  d Ewald  =-0.4448917E+01-0.196E+01

 Quasi-Newton relaxation of ions (Broydens 2nd method)
  g(Force)  = 0.118E-03   g(Stress)= 0.115E-03

 retain information from N=  1 steps
 eigenvalues of (default step * inverse Hessian matrix)
  average eigenvalue of G=   0.3089
 eigenvalue spectrum of G is  0.3089

 reached required accuracy - stopping structural energy minimisation

volume of typ            1:     3.6 %

[...]

volume of typ            3:    10.3 %

total charge

# of ion       s       p       d       tot
    1        2.072   0.236   0.093   2.401
    2        2.071   0.234   0.093   2.398
    3        2.072   0.235   0.094   2.401
    4        2.072   0.235   0.092   2.399
    5        0.303   0.425   7.829   8.557
    6        0.297   0.413   7.832   8.542
    7        0.302   0.425   7.834   8.561
    8        0.298   0.415   7.825   8.537
    9        0.297   0.413   7.834   8.544
   10        0.302   0.423   7.825   8.549
   11        0.298   0.415   7.819   8.532
   12        0.294   0.408   7.821   8.523
   13        0.302   0.424   7.832   8.558
   14        0.298   0.414   7.825   8.537
   15        0.298   0.415   7.820   8.532
   16        0.298   0.414   7.825   8.538
   17        0.302   0.424   7.831   8.557
   18        0.297   0.414   7.820   8.532
   19        0.294   0.406   7.821   8.521
   20        0.298   0.415   7.819   8.532
   21        0.298   0.416   7.819   8.534
   22        0.298   0.415   7.820   8.532
   23        0.298   0.415   7.819   8.532
   24        0.302   0.424   7.835   8.560
   25        0.297   0.413   7.826   8.537
   26        0.298   0.416   7.819   8.533
   27        0.298   0.415   7.827   8.539
   28        0.294   0.408   7.821   8.523
   29        0.302   0.424   7.818   8.544
   30        0.297   0.413   7.827   8.537
   31        0.292   0.402   7.830   8.524
   32        1.276   2.751   0.007   4.034
   33        1.275   2.753   0.007   4.035
   34        1.275   2.751   0.007   4.034
   35        1.275   2.750   0.007   4.033
   36        1.271   2.763   0.006   4.040
   37        1.275   2.750   0.007   4.033
   38        1.286   2.721   0.008   4.015
   39        1.275   2.753   0.007   4.036
   40        1.275   2.754   0.007   4.036
   41        1.275   2.753   0.007   4.035
   42        1.273   2.761   0.007   4.042
   43        1.286   2.722   0.008   4.016
   44        1.285   2.723   0.008   4.016
   45        1.286   2.721   0.008   4.015
   46        1.287   2.720   0.008   4.015
   47        1.285   2.726   0.008   4.019
   48        1.273   2.760   0.007   4.041
   49        1.275   2.753   0.007   4.036
   50        1.275   2.754   0.007   4.036
   51        1.288   2.716   0.008   4.012
   52        1.286   2.721   0.008   4.015
   53        1.285   2.724   0.008   4.018
   54        1.285   2.725   0.008   4.018
   55        1.275   2.755   0.007   4.037
   56        1.275   2.754   0.007   4.036
   57        1.274   2.756   0.008   4.038
   58        1.286   2.723   0.008   4.017
   59        1.286   2.722   0.008   4.016
   60        1.286   2.723   0.008   4.017
[...]
   71        1.271   2.765   0.007   4.042
   72        1.275   2.753   0.007   4.036
   73        1.286   2.721   0.008   4.015
   74        1.288   2.715   0.008   4.012
   75        1.287   2.720   0.008   4.014
   76        1.288   2.716   0.008   4.013
   77        1.273   2.760   0.007   4.041
   78        1.287   2.720   0.008   4.015
   79        1.287   2.719   0.008   4.014
   80        1.289   2.714   0.008   4.012
   81        1.286   2.721   0.008   4.015
   82        1.286   2.723   0.008   4.017
   83        1.273   2.761   0.007   4.042
   84        1.275   2.754   0.007   4.036
   85        1.286   2.722   0.008   4.016
tot          85.54  159.84  212.07  457.44

magnetization (x)

# of ion       s       p       d       tot
    1        0.004   0.004  -0.000   0.009
    2        0.004   0.003  -0.000   0.007
    3        0.004   0.003  -0.000   0.006
    4        0.004   0.004  -0.000   0.009
    5       -0.000  -0.000   0.069   0.069
    6       -0.000  -0.000   0.148   0.148
    7       -0.000  -0.000   0.108   0.107
    8       -0.000  -0.000   0.093   0.093
    9       -0.000  -0.000   0.158   0.158
   10       -0.000  -0.000   0.074   0.074
   11       -0.000  -0.000   0.077   0.077
   12       -0.000  -0.000   0.130   0.130
   13       -0.000  -0.000   0.099   0.098
   14       -0.000  -0.000   0.109   0.109
   15       -0.000  -0.000   0.083   0.082
   16       -0.000  -0.000   0.108   0.107
   17       -0.000  -0.000   0.097   0.097
   18       -0.000  -0.000   0.088   0.088
   19       -0.000  -0.000   0.126   0.125
   20       -0.000  -0.000   0.075   0.075
   21       -0.000  -0.000   0.080   0.079
   22       -0.000  -0.000   0.087   0.086
   23       -0.000  -0.000   0.078   0.078
   24       -0.000  -0.000   0.122   0.122
   25       -0.000  -0.000   0.122   0.122
   26       -0.000  -0.000   0.077   0.077
   27       -0.000  -0.000   0.114   0.114
   28       -0.000  -0.000   0.132   0.131
   29       -0.000  -0.000   0.044   0.044
   30       -0.000  -0.000   0.124   0.124
   31       -0.000  -0.000   0.197   0.197
   32        0.003   0.012   0.000   0.015
   33        0.003   0.009   0.000   0.012
   34        0.003   0.009   0.000   0.012
   35        0.003   0.008   0.000   0.011
   36        0.005   0.016   0.000   0.022
   37        0.002   0.008   0.000   0.011
   38        0.001   0.005   0.000   0.007
   39        0.003   0.011   0.000   0.015
   40        0.003   0.009   0.000   0.012
   41        0.002   0.007   0.000   0.010
   42        0.003   0.008   0.000   0.011
   43        0.001   0.001   0.000   0.002
   44        0.001   0.002   0.000   0.004
   45        0.002   0.008   0.000   0.010
   46        0.002   0.008   0.000   0.010
   47        0.001   0.004   0.000   0.006
   48        0.004   0.014   0.000   0.018
   49        0.002   0.007   0.000   0.010
   50        0.003   0.015   0.000   0.018
   51        0.004   0.034   0.000   0.038
   52        0.002   0.005   0.000   0.007
   53        0.001   0.001   0.000   0.003
   54        0.001   0.002   0.000   0.003
   55        0.003   0.008   0.000   0.011
   56        0.003   0.010   0.000   0.012
   57        0.003   0.013   0.000   0.016
   58        0.001   0.003   0.000   0.004
   59        0.002   0.003   0.000   0.004
   60        0.002   0.007   0.000   0.009
[...]
   71        0.005   0.015   0.000   0.020
   72        0.003   0.008   0.000   0.011
   73        0.002   0.009   0.000   0.011
   74        0.004   0.032   0.000   0.036
   75        0.002   0.016   0.000   0.018
   76        0.003   0.023   0.000   0.026
   77        0.004   0.015   0.000   0.019
   78        0.004   0.028   0.000   0.031
   79        0.002   0.008   0.000   0.009
   80        0.004   0.040   0.000   0.045
   81        0.002   0.010   0.000   0.012
   82        0.001   0.003   0.000   0.004
   83        0.004   0.012   0.000   0.015
   84        0.003   0.010   0.000   0.013
   85        0.001   0.005   0.000   0.006
tot           0.14    0.63    2.82    3.60