 vasp.5.4.4.18Apr17-6-g9f103f2a35 (build May 12 2020 05:39:39) gamma-only

 MD_VERSION_INFO: Compiled 2020-05-12T12:39:39-UTC in devlin.sd.materialsdesign.
 com:/home/medea2/data/build/wwolf/vasp-gpu5.4.4/13047/x86_64/src/src/build/gam
 from svn 13047

 executed on                        Lin64 date 2023.01.19  15:42:37

 INCAR:
 POTCAR:    PAW_PBE Li_sv 10Sep2004
 POTCAR:    PAW_PBE Ni 02Aug2007
 POTCAR:    PAW_PBE O 08Apr2002

 POTCAR:    PAW_PBE Li_sv 10Sep2004

 POTCAR:    PAW_PBE Ni 02Aug2007

 POTCAR:    PAW_PBE O 08Apr2002

 Optimization of the real space projectors (new method)

 maximal supplied QI-value         = 22.11
 optimisation between [QCUT,QGAM] = [ 11.28, 22.77] = [ 35.61,145.23] Ry
 Optimized for a Real-space Cutoff    1.10 Angstroem

   l    n(q)    QCUT    max X(q) W(low)/X(q) W(high)/X(q)  e(spline)
   0      7    11.276    10.506    0.54E-04    0.58E-04    0.16E-07
   0      7    11.276     8.367    0.11E-03    0.14E-03    0.35E-07
   1      7    11.276     8.983    0.23E-03    0.43E-03    0.86E-07
 Optimization of the real space projectors (new method)

[...]

   l    n(q)    QCUT    max X(q) W(low)/X(q) W(high)/X(q)  e(spline)
   2      9    11.376    60.317    0.17E-03    0.16E-04    0.16E-06
   2      9    11.376    55.921    0.17E-03    0.16E-04    0.17E-06
   0     10    11.376    51.690    0.45E-04    0.60E-04    0.21E-06
   0     10    11.376    30.015    0.37E-04    0.55E-04    0.19E-06
   1     10    11.376    18.849    0.83E-04    0.11E-03    0.92E-07
   1     10    11.376    14.624    0.69E-04    0.92E-04    0.82E-07
 Optimization of the real space projectors (new method)

 maximal supplied QI-value         = 24.76
 optimisation between [QCUT,QGAM] = [ 11.39, 22.77] = [ 36.31,145.25] Ry
 Optimized for a Real-space Cutoff    1.10 Angstroem

   l    n(q)    QCUT    max X(q) W(low)/X(q) W(high)/X(q)  e(spline)
   0      7    11.387    20.381    0.22E-03    0.48E-03    0.18E-06
   0      7    11.387    15.268    0.22E-03    0.52E-03    0.19E-06
   1      7    11.387     5.964    0.22E-03    0.73E-03    0.24E-06
   1      7    11.387     5.382    0.19E-03    0.60E-03    0.21E-06

  PAW_PBE Li_sv 10Sep2004               :
  PAW_PBE Ni 02Aug2007                  :
  PAW_PBE O 08Apr2002                   :

 POSCAR: ce213056_1
  positions in direct lattice
 exchange correlation table for  LEXCH =       14
   RHO(1)=    0.500       N(1)  =     2000
   RHO(2)=  100.500       N(2)  =     4000

 ion  position               nearest neighbor table
   1  0.997  0.500  0.997-  96 2.08  95 2.08  47 2.12  48 2.12  83 2.12  60 2.12
   2  0.088  0.834  0.201-  61 2.00  44 2.01  62 2.10  49 2.11  68 2.26  67 2.26  17 2.78  25 2.78

   3  0.201  0.166  0.088-  82 2.00  45 2.01  51 2.10  46 2.11  69 2.26  52 2.26  17 2.78  36 2.78

[...]

  15  0.577  0.165  0.777-  93 1.98  94 2.01  70 2.10  57 2.15  88 2.22  87 2.28  41 2.77  42 2.78

  16  0.668  0.500  0.668-  90 2.09  77 2.09  95 2.11  96 2.11  72 2.13  71 2.13
  17  0.001  0.000  0.001-  61 1.88  82 1.88  97 1.91  94 1.91  46 1.93  49 1.93   3 2.78   2 2.78
                            26 2.82  20 2.82  35 2.82  23 2.82  41 2.83  29 2.84
  18  0.112  0.334  0.223-  69 1.87  45 1.87  60 1.88  66 1.92  48 1.95  63 1.95  30 2.78  21 2.82
                            24 2.83  42 2.83  27 2.84  36 2.85
  19  0.223  0.666  0.112-  68 1.87  44 1.87  83 1.88  53 1.92  47 1.95  50 1.95  31 2.78  28 2.82
                            37 2.83  43 2.83  22 2.84  25 2.85
  20  0.332  0.998  0.997-  82 1.87  52 1.88  55 1.88  85 1.90  88 1.96  49 1.96  35 2.79  38 2.81
                            17 2.82  32 2.82  23 2.84  29 2.86
  21  0.446  0.333  0.226-  51 1.87  54 1.87  69 1.90  72 1.90  75 1.95  48 1.95  30 2.79  33 2.81
                            18 2.82  36 2.85  24 2.85  39 2.85
  22  0.556  0.665  0.111-  56 1.88  50 1.88  53 1.89  74 1.90  89 1.90  59 1.91  25 2.81  34 2.81
                            40 2.82  37 2.82  31 2.83  19 2.84
  23  0.669  0.999  0.001-  91 1.88  94 1.88  88 1.88  61 1.90  58 1.91  55 1.93  14 2.77  26 2.79
                            32 2.82  17 2.82  41 2.84  38 2.84  20 2.84
  24  0.778  0.333  0.220-  75 1.87  78 1.87  57 1.91  60 1.91  63 1.92  54 1.93  42 2.78  39 2.81
                            27 2.82  18 2.83  21 2.85  33 2.87
  25  0.887  0.667  0.112-  47 1.88  44 1.88  56 1.89  59 1.92  62 1.93  95 1.93   2 2.78  40 2.79
                            22 2.81  34 2.81  28 2.85  19 2.85  43 2.87
  26  0.997  0.002  0.332-  61 1.87  67 1.88  64 1.88  58 1.90  79 1.96  46 1.96  23 2.79  32 2.81
                            17 2.82  38 2.82  35 2.84  29 2.86
  27  0.111  0.335  0.556-  81 1.88  63 1.88  66 1.89  87 1.90  78 1.90  84 1.91  36 2.81  39 2.81
                            33 2.82  24 2.82  30 2.83  18 2.84
  28  0.226  0.667  0.446-  62 1.87  65 1.87  68 1.90  71 1.90  86 1.95  47 1.95  31 2.79  40 2.81
                            19 2.82  25 2.85  37 2.85  34 2.85
  29  0.337  0.000  0.337-  49 1.88  46 1.88  70 1.91  73 1.91  52 1.95  67 1.95  41 2.78  38 2.82
                            32 2.82  17 2.84  20 2.86  26 2.86
  30  0.442  0.335  0.552-  90 1.87  93 1.87  87 1.87  69 1.90  72 1.91  66 1.92  18 2.78  21 2.79
                            27 2.83  42 2.84  33 2.84  39 2.85
  31  0.552  0.665  0.442-  77 1.87  92 1.87  74 1.87  68 1.90  71 1.91  53 1.92  19 2.78  28 2.79
                            22 2.83  43 2.84  40 2.84  34 2.85
  32  0.666  0.999  0.331-  73 1.88  58 1.88  76 1.89  52 1.90  79 1.90  55 1.93  26 2.81  23 2.82
                            29 2.82  20 2.82  35 2.84  41 2.84
  33  0.779  0.332  0.558-  81 1.85  72 1.87  75 1.93  96 1.93  93 1.97  78 2.01  12 2.77  36 2.79
                            21 2.81  27 2.82  30 2.84  42 2.85  24 2.87
  34  0.889  0.667  0.444-  80 1.85  59 1.85  62 1.96  77 1.97  74 1.97  65 1.98  43 2.81  37 2.81
                            25 2.81  22 2.81  31 2.85  28 2.85
  35  0.001  0.001  0.669-  76 1.88  97 1.88  79 1.88  82 1.90  85 1.91  64 1.93  12 2.77  20 2.79
                            38 2.82  17 2.82  41 2.84  32 2.84  26 2.84
  36  0.112  0.333  0.887-  48 1.88  45 1.88  81 1.89  84 1.92  51 1.93  96 1.93   3 2.78  33 2.79
                            27 2.81  39 2.81  21 2.85  18 2.85  42 2.87
  37  0.220  0.667  0.778-  86 1.87  89 1.87  80 1.91  83 1.91  50 1.92  65 1.93  43 2.78  34 2.81
                            22 2.82  19 2.83  28 2.85  40 2.87
  38  0.331  0.001  0.666-  70 1.88  85 1.88  91 1.89  67 1.90  88 1.90  64 1.93  20 2.81  35 2.82
                            29 2.82  26 2.82  23 2.84  41 2.84
  39  0.444  0.333  0.889-  57 1.85  84 1.85  51 1.96  90 1.97  87 1.97  54 1.98  42 2.81  24 2.81
                            36 2.81  27 2.81  30 2.85  21 2.85
  40  0.558  0.668  0.779-  56 1.85  71 1.87  86 1.93  95 1.93  92 1.97  89 2.01  14 2.77  25 2.79
                            28 2.81  22 2.82  31 2.84  43 2.85  37 2.87
  41  0.666  0.000  0.666-  94 1.87  97 1.87  73 1.92  70 1.92  76 1.95  91 1.95  15 2.77  11 2.77
                            29 2.78  17 2.83  23 2.84  35 2.84  32 2.84  38 2.84
  42  0.775  0.333  0.891-  93 1.86  96 1.88  57 1.90  60 1.91  45 1.94  90 1.96  24 2.78  15 2.78
                            39 2.81  18 2.83  30 2.84  33 2.85  36 2.87
  43  0.891  0.667  0.775-  92 1.86  95 1.88  80 1.90  83 1.91  44 1.94  77 1.96  37 2.78  11 2.78
                            34 2.81  19 2.83  31 2.84  40 2.85  25 2.87
  44  0.003  0.733  0.007-  19 1.87  25 1.88  43 1.94   2 2.01
  45  0.007  0.267  0.003-  18 1.87  36 1.88  42 1.94   3 2.01
  46  0.121  0.071  0.226-  29 1.88  17 1.93  26 1.96   9 2.10   3 2.11
  47  0.102  0.595  0.219-  25 1.88  19 1.95  28 1.95   7 2.09   1 2.12
  48  0.219  0.405  0.102-  36 1.88  18 1.95  21 1.95   4 2.09   1 2.12
  49  0.226  0.929  0.121-  29 1.88  17 1.93  20 1.96   5 2.10   2 2.11
  50  0.339  0.736  0.002-  22 1.88  37 1.92  19 1.95   5 2.12  14 2.25
  51  0.337  0.263  0.011-  21 1.87  36 1.93  39 1.96   3 2.10   6 2.10
  52  0.445  0.068  0.215-  20 1.88  32 1.90  29 1.95   6 2.10   3 2.26
  53  0.446  0.595  0.219-  22 1.89  31 1.92  19 1.92   4 2.10  10 2.12
  54  0.555  0.404  0.121-  21 1.87  24 1.93  39 1.98  10 2.06   4 2.11
  55  0.550  0.928  0.106-  20 1.88  32 1.93  23 1.93  14 2.10   5 2.11
  56  0.663  0.733  0.999-  40 1.85  22 1.88  25 1.89  14 2.02
  57  0.659  0.265  0.996-  39 1.85  42 1.90  24 1.91   6 2.13  15 2.15
  58  0.774  0.069  0.223-  32 1.88  26 1.90  23 1.91   6 2.11  12 2.26
  59  0.781  0.598  0.229-  34 1.85  22 1.91  25 1.92   7 2.11  10 2.13
  60  0.894  0.403  0.113-  18 1.88  42 1.91  24 1.91   1 2.12   7 2.13
  61  0.894  0.933  0.114-  26 1.87  17 1.88  23 1.90   2 2.00
  62  0.011  0.737  0.337-  28 1.87  25 1.93  34 1.96   2 2.10   8 2.10
  63  0.002  0.264  0.339-  27 1.88  24 1.92  18 1.95   9 2.12  12 2.25
  64  0.106  0.072  0.550-  26 1.88  38 1.93  35 1.93  12 2.10   9 2.11
  65  0.121  0.596  0.555-  28 1.87  37 1.93  34 1.98  13 2.06   7 2.11
  66  0.219  0.405  0.446-  27 1.89  30 1.92  18 1.92   7 2.10  13 2.12
  67  0.215  0.932  0.445-  26 1.88  38 1.90  29 1.95   8 2.10   2 2.26
  68  0.331  0.735  0.329-  19 1.87  28 1.90  31 1.90   5 2.15   2 2.26
  69  0.329  0.265  0.331-  18 1.87  21 1.90  30 1.90   9 2.15   3 2.26
  70  0.442  0.070  0.559-  38 1.88  29 1.91  41 1.92  15 2.10   9 2.11
  71  0.449  0.598  0.562-  40 1.87  28 1.90  31 1.91  16 2.13  13 2.13
  72  0.562  0.402  0.449-  33 1.87  21 1.90  30 1.91  16 2.13  10 2.13
  73  0.559  0.930  0.442-  32 1.88  29 1.91  41 1.92  11 2.10   5 2.11
  74  0.655  0.736  0.331-  31 1.87  22 1.90  34 1.97   5 2.07  11 2.28
  75  0.675  0.263  0.331-  24 1.87  33 1.93  21 1.95  12 2.09   6 2.12
  76  0.780  0.068  0.551-  35 1.88  32 1.89  41 1.95  12 2.00
  77  0.766  0.594  0.548-  31 1.87  43 1.96  34 1.97  10 2.07  16 2.09
  78  0.890  0.405  0.434-  24 1.87  27 1.90  33 2.01   7 2.06  10 2.10
  79  0.890  0.930  0.451-  35 1.88  32 1.90  26 1.96   8 2.12  11 2.22
  80  0.996  0.735  0.659-  34 1.85  43 1.90  37 1.91   8 2.13  11 2.15
  81  0.999  0.267  0.663-  33 1.85  27 1.88  36 1.89  12 2.02
  82  0.114  0.067  0.894-  20 1.87  17 1.88  35 1.90   3 2.00
  83  0.113  0.597  0.894-  19 1.88  43 1.91  37 1.91   1 2.12   4 2.13
  84  0.229  0.402  0.781-  39 1.85  27 1.91  36 1.92   4 2.11  13 2.13
  85  0.223  0.931  0.774-  38 1.88  20 1.90  35 1.91   8 2.11  14 2.26
  86  0.331  0.737  0.675-  37 1.87  40 1.93  28 1.95  14 2.09   8 2.12
  87  0.331  0.264  0.655-  30 1.87  27 1.90  39 1.97   9 2.07  15 2.28
  88  0.451  0.070  0.890-  23 1.88  38 1.90  20 1.96   6 2.12  15 2.22
  89  0.434  0.595  0.890-  37 1.87  22 1.90  40 2.01   4 2.06  13 2.10
  90  0.548  0.406  0.766-  30 1.87  42 1.96  39 1.97  13 2.07  16 2.09
  91  0.551  0.932  0.780-  23 1.88  38 1.89  41 1.95  14 2.00
  92  0.673  0.735  0.659-  43 1.86  31 1.87  40 1.97  11 1.98
  93  0.659  0.265  0.673-  42 1.86  30 1.87  33 1.97  15 1.98
  94  0.774  0.066  0.887-  41 1.87  23 1.88  17 1.91  15 2.01
  95  0.784  0.598  0.885-  43 1.88  25 1.93  40 1.93   1 2.08  16 2.11
  96  0.885  0.402  0.784-  42 1.88  36 1.93  33 1.93   1 2.08  16 2.11
[...]
   0.857E+01 -.377E+02 0.319E+03   -.870E+01 0.401E+02 -.336E+03   0.146E+00 -.242E+01 0.176E+02   -.454E-02 0.457E-02 -.501E-02
   0.977E+01 -.436E+02 -.351E+03   -.917E+01 0.468E+02 0.372E+03   -.599E+00 -.315E+01 -.208E+02   -.597E-02 -.220E-01 -.851E-02
   0.882E+01 -.334E+02 0.334E+03   -.892E+01 0.356E+02 -.352E+03   0.838E-01 -.217E+01 0.185E+02   0.720E-02 0.448E-02 0.987E-03
   0.308E+02 -.190E+02 -.314E+03   -.325E+02 0.205E+02 0.333E+03   0.166E+01 -.155E+01 -.192E+02   -.967E-03 -.123E-02 0.203E-02
   0.365E+02 0.136E+02 0.289E+03   -.392E+02 -.147E+02 -.307E+03   0.266E+01 0.118E+01 0.176E+02   0.544E-02 -.195E-01 -.137E-02
   0.722E+01 0.412E+02 -.294E+03   -.733E+01 -.439E+02 0.312E+03   0.989E-01 0.270E+01 -.182E+02   0.929E-02 -.626E-02 -.202E-02
[...]
   -.651E+01 0.384E+02 -.289E+03   0.684E+01 -.413E+02 0.307E+03   -.309E+00 0.289E+01 -.176E+02   -.196E-01 -.507E-02 0.137E-02
   -.319E+02 0.172E+02 0.314E+03   0.340E+02 -.179E+02 -.333E+03   -.217E+01 0.667E+00 0.192E+02   -.580E-03 -.145E-02 -.203E-02
   0.357E+02 -.253E+02 -.334E+03   -.388E+02 0.262E+02 0.348E+03   0.301E+01 -.875E+00 -.146E+02   0.710E-02 0.145E-01 -.117E-01
   -.428E+02 0.661E+01 0.343E+03   0.465E+02 -.676E+01 -.359E+03   -.375E+01 0.177E+00 0.165E+02   -.377E-02 -.143E-01 0.380E-02
   -.376E+00 0.306E+02 -.321E+03   0.751E+00 -.336E+02 0.337E+03   -.366E+00 0.299E+01 -.159E+02   -.370E-02 0.755E-02 0.376E-02
   0.199E+02 -.465E+02 0.294E+03   -.218E+02 0.502E+02 -.309E+03   0.187E+01 -.371E+01 0.144E+02   -.403E-02 0.755E-02 0.166E-01
   -.410E+02 -.293E+02 -.298E+03   0.449E+02 0.314E+02 0.312E+03   -.396E+01 -.204E+01 -.143E+02   -.655E-03 -.565E-02 0.327E-03
   0.493E+02 -.367E+02 0.339E+03   -.544E+02 0.388E+02 -.356E+03   0.510E+01 -.210E+01 0.176E+02   0.188E-01 -.119E-02 -.967E-02
   -.549E+02 0.190E+02 -.361E+03   0.595E+02 -.220E+02 0.379E+03   -.462E+01 0.295E+01 -.179E+02   0.940E-02 -.679E-02 -.830E-02
   0.439E+02 -.380E+02 0.361E+03   -.488E+02 0.405E+02 -.379E+03   0.487E+01 -.253E+01 0.179E+02   -.106E-01 0.475E-02 0.830E-02
   0.104E+02 -.529E+02 -.322E+03   -.104E+02 0.574E+02 0.340E+03   -.416E-02 -.453E+01 -.179E+02   0.215E-01 0.398E-01 0.175E-02
   -.290E+02 0.229E+02 0.283E+03   0.311E+02 -.245E+02 -.298E+03   -.206E+01 0.160E+01 0.150E+02   -.552E-02 -.202E-01 0.261E-02
   0.343E+02 -.137E+02 -.283E+03   -.367E+02 0.147E+02 0.298E+03   0.242E+01 -.985E+00 -.150E+02   -.147E-01 -.149E-01 -.261E-02
   -.510E+02 -.174E+02 0.322E+03   0.549E+02 0.196E+02 -.340E+03   -.392E+01 -.227E+01 0.179E+02   0.237E-01 0.385E-01 -.175E-02
   0.237E+00 0.410E+00 -.425E-06   0.533E-12 0.135E-12 -.682E-12   -.222E+00 -.384E+00 0.432E-11   -.260E-02 -.450E-02 -.236E-10

 POSITION                                       TOTAL-FORCE (eV/Angst)
      4.21845      7.31261      7.12657         0.001195      0.002070     -0.000000
      1.30489      0.62875     11.88223        -0.013899     -0.013926     -0.002768
     -0.11317      1.44747      2.37090        -0.005111     -0.018999      0.002768
      7.06296      2.43983      7.10901         0.004106      0.001156     -0.001229
     -0.00451      3.24831     11.87151         0.007157     -0.003576     -0.004359
     -1.40141      4.06811      2.38373         0.011805     -0.004580      0.004471
     -1.42376      7.33964      7.14413        -0.001052      0.004134      0.001229
      4.21855      0.82342     11.86941        -0.009869      0.007933     -0.004471
      2.81014      1.62327      2.38163        -0.006676      0.004410      0.004359
     -0.01349      4.90572      7.10718        -0.001774      0.003735     -0.002599
      1.59470      5.70808     11.88704         0.005833      0.004154     -0.005453
      0.19289      6.51861      2.39939         0.005574      0.002634      0.006767
      4.24998      2.44420      7.14596         0.004122      0.000332      0.002599
      5.54360      3.42937     11.85375        -0.000506      0.006144     -0.006767
      4.14075      4.23811      2.36610         0.000680      0.007129      0.005453
      2.82077      4.89177      7.12657        -0.000733     -0.001269      0.000000
      0.00158      0.00274     -0.00000        -0.001857     -0.003216      0.000000
      1.41165      0.81924      4.77466         0.003930      0.002435      0.004264
     -0.00158      1.63517      9.47848         0.000144      0.004621     -0.004264
      7.05186      2.41772     14.22217         0.002240     -0.001940     -0.002218
      0.03052      3.26445      4.75048         0.001831     -0.002077      0.001043
     -1.42010      4.08592      9.47388         0.001704      0.001679     -0.005499
     -2.83021      4.90148     14.23451         0.001090     -0.004369     -0.000644
     -1.45856      5.71141      4.75590        -0.001694     -0.000440      0.002066
     -2.83695      6.50450      9.50141        -0.001701      0.000601     -0.004416
     -1.43736      7.31898      0.03097        -0.002800      0.000969      0.002218
      4.24332      0.81614      4.77925         0.000602      0.002315      0.005499
      2.80659      1.66168      9.50266        -0.002714      0.000547     -0.001043
      1.43077      2.47817     -0.00000         0.001652      0.002861     -0.000000
      2.80192      3.24174      4.77494         0.000508      0.001939      0.005718
      1.40123      4.05043      9.47819         0.001425      0.001409     -0.005718
     -0.03380      4.89063     14.23195        -0.003673      0.002939      0.000419
      1.40338      5.71224      4.74333        -0.003602      0.000923      0.003988
     -0.02300      6.52274      9.49848         0.000535      0.001673     -0.003223
      5.65467      0.00272      0.01863        -0.004328     -0.001240      0.000644
      7.04630      0.79840      4.75173         0.001371     -0.001172      0.004416
      5.67027      1.59558      9.49724         0.000466     -0.001687     -0.002066
      4.24708      2.41907      0.02118         0.004382     -0.001711     -0.000419
      5.65512      3.24448      4.75466         0.001181      0.001300      0.003223
      4.24001      4.07451      9.50981         0.002600     -0.002658     -0.003988
      2.81101      4.86881     -0.00000        -0.000925     -0.001602      0.000000
      4.25399      5.68272      4.74551        -0.001907     -0.001979      0.004802
      2.78915      6.52845      9.50762        -0.000760     -0.002641     -0.004802
      0.04873      0.02539     10.44700        -0.006178     -0.003904     -0.006329
     -0.00761      0.05792      3.80614        -0.000292     -0.007303      0.006329
      1.41552      0.91269      1.01446         0.000115     -0.001052     -0.001538
      1.39723      0.74145      8.48376        -0.004846      0.002959     -0.004152
     -0.06174      1.58379      5.76937         0.004986     -0.002717      0.004152
      0.07742      1.68524     13.23868        -0.000968     -0.000426      0.001538
     -1.40211      2.50201     10.48345         0.003960      0.004639     -0.007397
     -1.33496      2.46012      3.76135         0.007555     -0.006641     -0.000344
     -0.06479      3.24590      0.97571         0.000732      0.005256     -0.000634
     -0.04587      3.28212      8.48058        -0.000202      0.006725     -0.008411
     -1.33630      4.04743      5.75081        -0.003507     -0.005873      0.000020
     -1.43523      4.02758     13.24205         0.004684      0.000626     -0.001025
      5.65300      4.83934     10.42948         0.001718     -0.000818     -0.007147
      5.64908      4.81828      3.77803        -0.002827      0.000069      0.004690
     -1.39846      5.66956      0.97808        -0.007120     -0.000698      0.000394
     -1.38168      5.73800      8.51224        -0.001410      0.003812     -0.005695
     -2.84824      6.56238      5.74257         0.000737     -0.001835      0.005635
[...]
      7.10207      0.81757      8.51057        -0.001957     -0.000279     -0.005635
      5.65486      1.67546      5.74089         0.004007      0.000685      0.005695
      5.60397      1.62671     13.27506         0.002956     -0.006515     -0.000394
      4.32740      2.41817     10.50103         0.003756     -0.001160     -0.005039
      4.16391      2.44792      3.77368         0.004835      0.006465      0.010725
      5.65363      3.29913      0.99448         0.005681     -0.009702     -0.003068
      5.69473      3.15708      8.48005         0.000781     -0.001345     -0.005005
      4.16718      4.01386      5.78132        -0.003292      0.010141      0.008622
      4.29938      4.01775     13.28998         0.010817     -0.010509     -0.004713
      2.73219      4.93266     10.45475         0.004668     -0.002026     -0.006023
      2.90048      4.83550      3.79839        -0.004088      0.003029      0.006023
      4.22969      5.62481      0.93781         0.002053     -0.004798     -0.002512
      4.16832      5.73284      8.51841         0.001738     -0.003443     -0.005013
      2.87539      6.47931      5.73473        -0.003851     -0.000216      0.005013
      2.75114      6.47845     13.31532        -0.005182     -0.000621      0.002512
    total drift:                                0.012218      0.021164     -0.000000

  FREE ENERGIE OF THE ION-ELECTRON SYSTEM (eV)
  free  energy   TOTEN  =      -591.9030070128 eV

  energy  without entropy=     -591.8686764382  energy(sigma->0) =     -591.88584173

 d Force = 0.2677324E-03[ 0.264E-03, 0.271E-03]  d Energy = 0.2545145E-03 0.132E-04
 d Force =-0.7128754E+00[-0.715E+00,-0.711E+00]  d Ewald  =-0.1373029E+01 0.660E+00

 Quasi-Newton relaxation of ions (Broydens 2nd method)
  g(Force)  = 0.292E-03   g(Stress)= 0.758E-05

 retain information from N=  1 steps
 eigenvalues of (default step * inverse Hessian matrix)
  average eigenvalue of G=   0.2031
 eigenvalue spectrum of G is  0.2031

 reached required accuracy - stopping structural energy minimisation

volume of typ            1:    14.1 %

[...]

volume of typ            3:     9.9 %

total charge

# of ion       s       p       d       tot
    1        2.077   0.251   0.095   2.424
    2        2.075   0.247   0.093   2.415
    3        2.075   0.247   0.093   2.415
    4        2.079   0.255   0.097   2.431
    5        2.075   0.244   0.092   2.411
    6        2.072   0.237   0.089   2.397
    7        2.079   0.255   0.097   2.431
    8        2.072   0.237   0.089   2.397
    9        2.075   0.244   0.092   2.411
   10        2.078   0.251   0.096   2.426
   11        2.077   0.249   0.094   2.421
   12        2.078   0.251   0.096   2.424
   13        2.078   0.251   0.096   2.426
   14        2.078   0.251   0.096   2.424
   15        2.077   0.249   0.094   2.421
   16        2.076   0.248   0.094   2.418
   17        0.269   0.355   7.843   8.468
   18        0.282   0.381   7.845   8.508
   19        0.282   0.381   7.845   8.508
   20        0.280   0.378   7.845   8.503
   21        0.275   0.368   7.849   8.492
   22        0.283   0.385   7.842   8.510
   23        0.285   0.389   7.837   8.511
   24        0.278   0.376   7.844   8.498
   25        0.278   0.374   7.841   8.493
   26        0.280   0.378   7.845   8.503
   27        0.283   0.385   7.842   8.510
   28        0.275   0.368   7.849   8.492
   29        0.277   0.374   7.844   8.495
   30        0.288   0.395   7.840   8.523
   31        0.288   0.395   7.840   8.523
   32        0.284   0.386   7.841   8.510
   33        0.268   0.351   7.851   8.470
   34        0.269   0.355   7.853   8.477
   35        0.285   0.389   7.837   8.511
   36        0.278   0.374   7.841   8.493
   37        0.278   0.376   7.844   8.498
   38        0.284   0.386   7.841   8.510
   39        0.269   0.355   7.853   8.477
   40        0.268   0.351   7.851   8.470
   41        0.273   0.360   7.845   8.478
   42        0.276   0.368   7.845   8.489
   43        0.276   0.368   7.845   8.489
   44        1.274   2.755   0.007   4.036
   45        1.274   2.755   0.007   4.036
   46        1.267   2.769   0.006   4.042
   47        1.269   2.767   0.006   4.042
   48        1.269   2.767   0.006   4.042
   49        1.267   2.769   0.006   4.042
   50        1.271   2.760   0.006   4.037
   51        1.267   2.769   0.006   4.042
   52        1.270   2.761   0.006   4.037
   53        1.265   2.775   0.006   4.046
   54        1.266   2.773   0.006   4.045
   55        1.264   2.775   0.006   4.046
   56        1.268   2.772   0.008   4.047
   57        1.262   2.783   0.007   4.052
   58        1.266   2.773   0.007   4.045
   59        1.263   2.782   0.007   4.051
   60        1.263   2.781   0.007   4.051
[...]
   83        1.263   2.781   0.007   4.051
   84        1.263   2.782   0.007   4.051
   85        1.266   2.773   0.007   4.045
   86        1.267   2.771   0.006   4.043
   87        1.270   2.761   0.006   4.038
   88        1.272   2.757   0.006   4.035
   89        1.267   2.771   0.006   4.044
   90        1.268   2.769   0.006   4.042
   91        1.275   2.755   0.007   4.036
   92        1.273   2.757   0.007   4.037
   93        1.273   2.757   0.007   4.037
   94        1.273   2.759   0.007   4.039
   95        1.266   2.773   0.006   4.046
   96        1.266   2.773   0.006   4.046
   97        1.273   2.759   0.007   4.039
tot         109.18  163.62  213.65  486.46

magnetization (x)

# of ion       s       p       d       tot
    1        0.006   0.013   0.001   0.020
    2        0.006   0.014   0.001   0.021
    3        0.006   0.014   0.001   0.021
    4        0.007   0.012   0.001   0.020
    5        0.006   0.011   0.001   0.018
    6        0.006   0.012   0.001   0.019
    7        0.007   0.012   0.001   0.020
    8        0.006   0.012   0.001   0.019
    9        0.006   0.011   0.001   0.018
   10        0.007   0.011   0.001   0.019
   11        0.007   0.014   0.001   0.021
   12        0.007   0.012   0.001   0.020
   13        0.007   0.011   0.001   0.019
   14        0.007   0.012   0.001   0.020
   15        0.007   0.014   0.001   0.021
   16        0.006   0.013   0.001   0.020
   17       -0.001  -0.001   0.595   0.593
   18       -0.000  -0.001   0.381   0.380
   19       -0.000  -0.001   0.381   0.380
   20       -0.000  -0.001   0.416   0.415
   21        0.000  -0.001   0.502   0.501
   22       -0.000  -0.001   0.324   0.323
   23       -0.001  -0.000   0.253   0.252
   24       -0.000  -0.001   0.402   0.401
   25       -0.001  -0.001   0.384   0.383
   26       -0.000  -0.001   0.416   0.415
   27       -0.000  -0.001   0.324   0.323
   28        0.000  -0.001   0.502   0.501
   29       -0.000  -0.001   0.445   0.443
   30       -0.001  -0.001   0.228   0.227
   31       -0.001  -0.001   0.228   0.227
   32       -0.000  -0.001   0.326   0.325
   33        0.000  -0.001   0.655   0.655
   34       -0.000  -0.001   0.643   0.642
   35       -0.001  -0.000   0.253   0.252
   36       -0.001  -0.001   0.384   0.383
   37       -0.000  -0.001   0.402   0.401
   38       -0.000  -0.001   0.326   0.325
   39       -0.000  -0.001   0.643   0.642
   40        0.000  -0.001   0.655   0.655
   41        0.000  -0.001   0.550   0.549
   42       -0.000  -0.001   0.460   0.459
   43       -0.000  -0.001   0.460   0.459
   44        0.011   0.084   0.000   0.096
   45        0.011   0.084   0.000   0.096
   46        0.012   0.091   0.000   0.103
   47        0.013   0.080   0.000   0.093
   48        0.013   0.080   0.000   0.093
   49        0.012   0.091   0.000   0.103
   50        0.011   0.069   0.000   0.080
   51        0.011   0.076   0.000   0.088
   52        0.011   0.071   0.000   0.082
   53        0.004   0.010   0.000   0.014
   54        0.012   0.082   0.000   0.094
   55        0.004   0.010   0.000   0.014
   56        0.004   0.002   0.000   0.006
   57        0.004  -0.003   0.000   0.001
   58        0.004   0.002   0.000   0.006
   59        0.005   0.006   0.000   0.011
   60        0.004   0.002   0.000   0.006
[...]
   83        0.004   0.002   0.000   0.006
   84        0.005   0.006   0.000   0.011
   85        0.004   0.002   0.000   0.006
   86        0.012   0.084   0.000   0.096
   87        0.010   0.064   0.000   0.074
   88        0.011   0.066   0.000   0.077
   89        0.012   0.087   0.000   0.099
   90        0.012   0.094   0.000   0.107
   91        0.011   0.086   0.000   0.097
   92        0.011   0.083   0.000   0.094
   93        0.011   0.083   0.000   0.094
   94        0.010   0.073   0.000   0.083
   95        0.010   0.068   0.000   0.079
   96        0.010   0.068   0.000   0.079
   97        0.010   0.073   0.000   0.083
tot           0.54    2.79   11.56   14.89