 vasp.5.4.4.18Apr17-6-g9f103f2a35 (build May 12 2020 05:39:39) gamma-only

 MD_VERSION_INFO: Compiled 2020-05-12T12:39:39-UTC in devlin.sd.materialsdesign.
 com:/home/medea2/data/build/wwolf/vasp-gpu5.4.4/13047/x86_64/src/src/build/gam
 from svn 13047

 executed on                        Lin64 date 2023.01.19  12:25:09

 INCAR:
 POTCAR:    PAW_PBE Ni 02Aug2007
 POTCAR:    PAW_PBE O 08Apr2002

 POTCAR:    PAW_PBE Ni 02Aug2007

 POTCAR:    PAW_PBE O 08Apr2002

 Optimization of the real space projectors (new method)

 maximal supplied QI-value         = 16.25
 optimisation between [QCUT,QGAM] = [ 11.38, 22.75] = [ 36.24,144.96] Ry
 Optimized for a Real-space Cutoff    1.47 Angstroem

   l    n(q)    QCUT    max X(q) W(low)/X(q) W(high)/X(q)  e(spline)
   2      9    11.376    60.317    0.17E-03    0.16E-04    0.16E-06
   2      9    11.376    55.921    0.17E-03    0.16E-04    0.17E-06
   0     10    11.376    51.690    0.45E-04    0.60E-04    0.21E-06
   0     10    11.376    30.015    0.37E-04    0.55E-04    0.19E-06
   1     10    11.376    18.849    0.83E-04    0.11E-03    0.92E-07
   1     10    11.376    14.624    0.69E-04    0.92E-04    0.82E-07
 Optimization of the real space projectors (new method)

 maximal supplied QI-value         = 24.76
 optimisation between [QCUT,QGAM] = [ 11.39, 22.77] = [ 36.31,145.25] Ry
 Optimized for a Real-space Cutoff    1.10 Angstroem

   l    n(q)    QCUT    max X(q) W(low)/X(q) W(high)/X(q)  e(spline)
   0      7    11.387    20.381    0.22E-03    0.48E-03    0.18E-06
   0      7    11.387    15.268    0.22E-03    0.52E-03    0.19E-06
   1      7    11.387     5.964    0.22E-03    0.73E-03    0.24E-06
   1      7    11.387     5.382    0.19E-03    0.60E-03    0.21E-06

  PAW_PBE Ni 02Aug2007                  :
  PAW_PBE O 08Apr2002                   :

 POSCAR: ce425834_1
  positions in direct lattice
 exchange correlation table for  LEXCH =       14
   RHO(1)=    0.500       N(1)  =     2000
   RHO(2)=  100.500       N(2)  =     4000

 ion  position               nearest neighbor table
   1  0.000  0.000  0.000-  30 1.86  81 1.86  66 1.86  45 1.86  78 1.86  33 1.86  10 2.78  19 2.78
                             7 2.78  25 2.78   4 2.78  13 2.78
   2  0.111  0.333  0.222-  29 1.86  47 1.86  53 1.86  32 1.86  50 1.86  44 1.86  20 2.78   5 2.78
                             8 2.78  26 2.78  14 2.78  11 2.78
   3  0.222  0.667  0.111-  52 1.86  34 1.86  28 1.86  31 1.86  67 1.86  37 1.86  12 2.78  21 2.78
                             9 2.78  27 2.78  15 2.78   6 2.78
   4  0.333  0.000  0.000-  36 1.86  69 1.86  72 1.86  33 1.86  66 1.86  39 1.86  13 2.78  22 2.78
                            19 2.78   1 2.78  16 2.78   7 2.78
   5  0.444  0.333  0.222-  35 1.86  53 1.86  59 1.86  56 1.86  32 1.86  38 1.86  23 2.78   2 2.78
                            20 2.78  14 2.78   8 2.78  17 2.78
   6  0.556  0.667  0.111-  40 1.86  58 1.86  34 1.86  73 1.86  43 1.86  37 1.86  15 2.78  24 2.78
                            18 2.78   9 2.78  21 2.78   3 2.78
   7  0.667  0.000  0.000-  39 1.86  42 1.86  75 1.86  78 1.86  45 1.86  72 1.86  16 2.78  25 2.78
                             1 2.78  10 2.78  22 2.78   4 2.78
   8  0.778  0.333  0.222-  41 1.86  59 1.86  47 1.86  44 1.86  62 1.86  38 1.86  26 2.78   2 2.78
                            11 2.78  23 2.78  17 2.78   5 2.78
   9  0.889  0.667  0.111-  46 1.86  28 1.86  40 1.86  43 1.86  79 1.86  31 1.86  18 2.78  27 2.78
                             6 2.78  24 2.78  12 2.78   3 2.78
  10  0.000  0.000  0.333-  63 1.86  45 1.86  30 1.86  51 1.86  42 1.86  48 1.86   1 2.78   7 2.78
                            13 2.78  16 2.78  22 2.78  19 2.78
  11  0.111  0.333  0.556-  65 1.86  71 1.86  47 1.86  68 1.86  62 1.86  50 1.86  20 2.78  14 2.78
                            23 2.78  17 2.78   8 2.78   2 2.78
  12  0.222  0.667  0.444-  52 1.86  46 1.86  70 1.86  31 1.86  55 1.86  49 1.86   3 2.78   9 2.78
                            18 2.78  21 2.78  15 2.78  24 2.78
  13  0.333  0.000  0.333-  51 1.86  36 1.86  33 1.86  30 1.86  54 1.86  57 1.86   4 2.78   1 2.78
                            10 2.78  22 2.78  16 2.78  25 2.78
  14  0.444  0.333  0.556-  71 1.86  53 1.86  77 1.86  74 1.86  50 1.86  56 1.86  23 2.78  11 2.78
                             2 2.78  26 2.78   5 2.78  17 2.78
  15  0.556  0.667  0.444-  58 1.86  76 1.86  52 1.86  37 1.86  61 1.86  55 1.86   6 2.78  18 2.78
                            27 2.78   3 2.78  24 2.78  12 2.78
  16  0.667  0.000  0.333-  57 1.86  39 1.86  42 1.86  63 1.86  60 1.86  36 1.86   7 2.78  10 2.78
                            19 2.78   4 2.78  25 2.78  13 2.78
  17  0.778  0.333  0.556-  77 1.86  65 1.86  59 1.86  80 1.86  56 1.86  62 1.86  26 2.78  20 2.78
                            11 2.78   8 2.78   5 2.78  14 2.78
  18  0.889  0.667  0.444-  46 1.86  58 1.86  64 1.86  43 1.86  49 1.86  61 1.86   9 2.78   6 2.78
                            15 2.78  12 2.78  21 2.78  27 2.78
  19  0.000  0.000  0.667-  48 1.86  66 1.86  81 1.86  69 1.86  60 1.86  63 1.86   1 2.78   4 2.78
                            22 2.78  25 2.78  16 2.78  10 2.78
  20  0.111  0.333  0.889-  65 1.86  29 1.86  35 1.86  68 1.86  32 1.86  80 1.86  11 2.78   2 2.78
                            23 2.78  17 2.78   5 2.78  26 2.78
  21  0.222  0.667  0.778-  34 1.86  70 1.86  64 1.86  67 1.86  49 1.86  73 1.86   3 2.78  27 2.78
                            18 2.78   6 2.78  12 2.78  24 2.78
  22  0.333  0.000  0.667-  54 1.86  72 1.86  69 1.86  48 1.86  51 1.86  75 1.86   4 2.78  19 2.78
                            10 2.78   7 2.78  13 2.78  25 2.78
  23  0.444  0.333  0.889-  35 1.86  71 1.86  41 1.86  38 1.86  68 1.86  74 1.86  14 2.78   5 2.78
                            11 2.78  20 2.78   8 2.78  26 2.78
  24  0.556  0.667  0.778-  40 1.86  76 1.86  70 1.86  55 1.86  79 1.86  73 1.86   6 2.78  27 2.78
                             9 2.78  15 2.78  21 2.78  12 2.78
  25  0.667  0.000  0.667-  60 1.86  75 1.86  78 1.86  81 1.86  57 1.86  54 1.86   7 2.78   1 2.78
                            19 2.78  16 2.78  13 2.78  22 2.78
  26  0.778  0.333  0.889-  77 1.86  41 1.86  29 1.86  80 1.86  44 1.86  74 1.86  17 2.78   8 2.78
                             2 2.78  20 2.78  14 2.78  23 2.78
  27  0.889  0.667  0.778-  28 1.86  64 1.86  76 1.86  79 1.86  61 1.86  67 1.86   9 2.78  24 2.78
                            21 2.78   3 2.78  15 2.78  18 2.78
  28  0.000  0.735  0.000-  27 1.86   9 1.86   3 1.86
  29  0.000  0.265  0.000-   2 1.86  20 1.86  26 1.86
  30  0.111  0.069  0.222-   1 1.86  10 1.86  13 1.86
  31  0.111  0.598  0.222-   3 1.86  12 1.86   9 1.86
  32  0.222  0.402  0.111-   2 1.86  20 1.86   5 1.86
  33  0.222  0.931  0.111-  13 1.86   4 1.86   1 1.86
  34  0.333  0.735  0.000-  21 1.86   3 1.86   6 1.86
  35  0.333  0.265  0.000-   5 1.86  23 1.86  20 1.86
  36  0.444  0.069  0.222-   4 1.86  13 1.86  16 1.86
  37  0.444  0.598  0.222-  15 1.86   3 1.86   6 1.86
  38  0.556  0.402  0.111-  23 1.86   8 1.86   5 1.86
  39  0.556  0.931  0.111-   7 1.86  16 1.86   4 1.86
  40  0.667  0.735  0.000-   6 1.86  24 1.86   9 1.86
  41  0.667  0.265  0.000-   8 1.86  26 1.86  23 1.86
  42  0.778  0.069  0.222-   7 1.86  16 1.86  10 1.86
  43  0.778  0.598  0.222-   9 1.86  18 1.86   6 1.86
  44  0.889  0.402  0.111-   8 1.86  26 1.86   2 1.86
  45  0.889  0.931  0.111-  10 1.86   1 1.86   7 1.86
  46  0.000  0.735  0.333-  18 1.86   9 1.86  12 1.86
  47  0.000  0.265  0.333-   2 1.86   8 1.86  11 1.86
  48  0.111  0.069  0.556-  19 1.86  22 1.86  10 1.86
  49  0.111  0.598  0.556-  21 1.86  18 1.86  12 1.86
  50  0.222  0.402  0.444-   2 1.86  14 1.86  11 1.86
  51  0.222  0.931  0.444-  13 1.86  10 1.86  22 1.86
  52  0.333  0.735  0.333-  12 1.86   3 1.86  15 1.86
  53  0.333  0.265  0.333-   5 1.86   2 1.86  14 1.86
  54  0.444  0.069  0.556-  22 1.86  13 1.86  25 1.86
  55  0.444  0.598  0.556-  24 1.86  12 1.86  15 1.86
  56  0.556  0.402  0.444-   5 1.86  17 1.86  14 1.86
  57  0.556  0.931  0.444-  16 1.86  25 1.86  13 1.86
  58  0.667  0.735  0.333-  15 1.86   6 1.86  18 1.86
  59  0.667  0.265  0.333-   8 1.86  17 1.86   5 1.86
  60  0.778  0.069  0.556-  25 1.86  19 1.86  16 1.86
  61  0.778  0.598  0.556-  27 1.86  15 1.86  18 1.86
  62  0.889  0.402  0.444-   8 1.86  11 1.86  17 1.86
  63  0.889  0.931  0.444-  10 1.86  16 1.86  19 1.86
  64  0.000  0.735  0.667-  27 1.86  21 1.86  18 1.86
  65  0.000  0.265  0.667-  11 1.86  20 1.86  17 1.86
  66  0.111  0.069  0.889-  19 1.86   1 1.86   4 1.86
  67  0.111  0.598  0.889-  21 1.86   3 1.86  27 1.86
  68  0.222  0.402  0.778-  20 1.86  11 1.86  23 1.86
  69  0.222  0.931  0.778-   4 1.86  22 1.86  19 1.86
  70  0.333  0.735  0.667-  21 1.86  12 1.86  24 1.86
  71  0.333  0.265  0.667-  14 1.86  23 1.86  11 1.86
  72  0.444  0.069  0.889-   4 1.86  22 1.86   7 1.86
  73  0.444  0.598  0.889-   6 1.86  21 1.86  24 1.86
  74  0.556  0.402  0.778-  14 1.86  26 1.86  23 1.86
  75  0.556  0.931  0.778-   7 1.86  25 1.86  22 1.86
  76  0.667  0.735  0.667-  24 1.86  27 1.86  15 1.86
  77  0.667  0.265  0.667-  17 1.86  26 1.86  14 1.86
  78  0.778  0.069  0.889-  25 1.86   7 1.86   1 1.86
  79  0.778  0.598  0.889-  27 1.86   9 1.86  24 1.86
  80  0.889  0.402  0.778-  26 1.86  17 1.86  20 1.86
  81  0.889  0.931  0.778-   1 1.86  19 1.86  25 1.86

  LATTYP: Found a hexagonal cell.
 ALAT       =     8.3527645245
 C/A-ratio  =     1.6375025418

  Lattice vectors:

 A1 = (   4.1763822509,  -7.2337062766,   0.0000000000)
 A2 = (  -8.3527645019,   0.0000000000,   0.0000000000)
 A3 = (   0.0000000000,   0.0000000000, -13.6776731395)

Analysis of symmetry for initial positions (statically):
 Subroutine PRICEL returns following result:

  LATTYP: Found a trigonal (rhomboedric) cell.
 ALAT       =     4.8343098242
 COS(alpha) =     0.8341486579

[...]

  27 primitive cells build up your supercell.

 Routine SETGRP: Setting up the symmetry group for a
 hexagonal supercell.

 Subroutine GETGRP returns: Found 12 space group operations
 (whereof 12 operations were pure point group operations)
 out of a pool of 24 trial point group operations.

The static configuration has the point symmetry D_3d.

Analysis of symmetry for dynamics (positions and initial velocities):
 Subroutine PRICEL returns following result:

[...]

The dynamic configuration has the point symmetry D_3d.

Analysis of structural, dynamic, and magnetic symmetry:
 Subroutine PRICEL returns following result:

  LATTYP: Found a trigonal (rhomboedric) cell.
 ALAT       =     4.8343098242
 COS(alpha) =     0.8341486579

  Lattice vectors:

 A1 = (  -1.3921274031,   0.8037451338,   4.5592243343)
 A2 = (   0.0000000000,  -1.6074902676,   4.5592244710)
 A3 = (   1.3921274031,   0.8037451338,   4.5592243343)

  27 primitive cells build up your supercell.

 Routine SETGRP: Setting up the symmetry group for a
 hexagonal supercell.

 Subroutine GETGRP returns: Found 12 space group operations
 (whereof 12 operations were pure point group operations)
 out of a pool of 24 trial point group operations.

The magnetic configuration has the point symmetry D_3d.

 Subroutine INISYM returns: Found 12 space group operations
[...]
   0.253E-04 0.531E-04 -.360E+03   0.155E-04 0.338E-04 0.389E+03   0.847E-20 0.237E-19 -.284E+02   -.113E-06 -.229E-06 -.508E-03
   0.340E-04 0.496E-04 0.360E+03   0.207E-04 0.289E-04 -.389E+03   -.593E-20 -.169E-20 0.284E+02   -.142E-06 -.213E-06 0.508E-03
   -.780E-04 0.446E-04 -.360E+03   -.169E-04 0.107E-04 0.389E+03   0.102E-19 0.858E-20 -.284E+02   0.203E-07 -.117E-07 -.503E-03
   -.619E-04 0.366E-04 0.360E+03   -.200E-04 0.106E-04 -.389E+03   -.136E-19 -.921E-20 0.284E+02   0.343E-07 -.198E-07 0.503E-03
   0.619E-04 -.366E-04 -.360E+03   0.200E-04 -.106E-04 0.389E+03   0.466E-20 0.169E-19 -.284E+02   -.343E-07 0.198E-07 -.503E-03
   0.780E-04 -.446E-04 0.360E+03   0.169E-04 -.107E-04 -.389E+03   -.106E-19 -.127E-19 0.284E+02   -.203E-07 0.117E-07 0.503E-03
   0.447E-04 -.266E-04 -.360E+03   0.133E-04 -.676E-05 0.389E+03   0.794E-20 0.130E-19 -.284E+02   -.927E-07 0.535E-07 -.508E-03
   0.420E-04 -.235E-04 0.360E+03   0.186E-04 -.116E-04 -.389E+03   -.203E-19 -.466E-20 0.284E+02   -.843E-07 0.486E-07 0.508E-03
   -.295E-04 -.120E-04 -.360E+03   -.179E-04 -.255E-04 0.389E+03   0.186E-19 0.231E-19 -.284E+02   0.700E-07 0.160E-06 -.503E-03
[...]
   -.513E-04 0.288E-04 -.360E+03   -.110E-04 0.730E-05 0.389E+03   0.762E-20 -.424E-20 -.284E+02   0.176E-06 -.102E-06 -.503E-03
   -.344E-04 0.203E-04 0.360E+03   -.129E-04 0.654E-05 -.389E+03   -.413E-20 0.360E-20 0.284E+02   0.138E-06 -.798E-07 0.503E-03
   -.420E-04 0.235E-04 -.360E+03   -.186E-04 0.116E-04 0.389E+03   0.381E-20 0.286E-20 -.284E+02   0.843E-07 -.486E-07 -.508E-03
   -.447E-04 0.266E-04 0.360E+03   -.133E-04 0.676E-05 -.389E+03   -.220E-19 0.169E-20 0.284E+02   0.927E-07 -.535E-07 0.508E-03
   -.128E-04 0.386E-04 -.360E+03   -.326E-05 0.200E-04 0.389E+03   0.214E-19 0.219E-20 -.284E+02   0.777E-07 0.386E-08 -.503E-03
   -.183E-04 0.428E-04 0.360E+03   -.164E-04 0.107E-05 -.389E+03   -.157E-19 0.554E-20 0.284E+02   0.695E-07 -.379E-09 0.503E-03
   -.403E-05 -.613E-04 -.360E+03   -.730E-06 -.106E-04 0.389E+03   0.102E-19 -.593E-20 -.284E+02   0.971E-07 0.187E-06 -.503E-03
   0.477E-05 -.309E-04 0.360E+03   -.139E-04 -.296E-04 -.389E+03   -.720E-20 0.424E-20 0.284E+02   0.103E-06 0.141E-06 0.503E-03
   -.340E-04 -.496E-04 -.360E+03   -.207E-04 -.289E-04 0.389E+03   0.163E-19 0.135E-20 -.284E+02   0.142E-06 0.213E-06 -.508E-03
   -.253E-04 -.531E-04 0.360E+03   -.155E-04 -.338E-04 -.389E+03   -.174E-19 -.381E-20 0.284E+02   0.113E-06 0.229E-06 0.508E-03
   0.142E-05 0.142E-04 -.360E+03   -.426E-05 -.161E-04 0.389E+03   0.190E-19 0.271E-19 -.284E+02   0.622E-07 0.214E-06 -.503E-03
   0.310E-05 -.132E-04 0.360E+03   -.613E-05 -.169E-04 -.389E+03   -.731E-20 -.373E-19 0.284E+02   0.684E-07 0.244E-06 0.503E-03
   -.137E-04 -.521E-05 -.360E+03   -.108E-04 -.124E-04 0.389E+03   0.237E-19 0.108E-19 -.284E+02   0.177E-06 0.181E-06 -.503E-03
   0.120E-04 0.906E-05 0.360E+03   -.126E-04 -.131E-04 -.389E+03   -.280E-19 -.224E-19 0.284E+02   0.154E-06 0.161E-06 0.503E-03
   -.330E-11 0.382E-10 0.365E-10   0.487E-12 -.919E-13 -.853E-12   -.117E-18 0.927E-19 0.817E-13   -.217E-11 -.106E-11 0.136E-12

 POSITION                                       TOTAL-FORCE (eV/Angst)
      0.00000      0.00000      0.00000         0.000000      0.000000      0.000000
      1.39213      0.80375      4.55922         0.000000      0.000000      0.000000
      0.00000      1.60749      9.11845        -0.000000     -0.000000      0.000000
     -1.39213      2.41124      0.00000         0.000000     -0.000000      0.000000
      0.00000      3.21498      4.55922        -0.000000      0.000000      0.000000
     -1.39213      4.01873      9.11845        -0.000000      0.000000      0.000000
     -2.78425      4.82247      0.00000         0.000000     -0.000000      0.000000
     -1.39213      5.62622      4.55922        -0.000000     -0.000000      0.000000
     -2.78425      6.42996      9.11845        -0.000000      0.000000      0.000000
      2.78425      0.00000      0.00000        -0.000000     -0.000000      0.000000
      4.17638      0.80375      4.55922        -0.000000      0.000000      0.000000
      2.78425      1.60749      9.11845        -0.000000     -0.000000      0.000000
      1.39213      2.41124      0.00000         0.000000      0.000000      0.000000
      2.78425      3.21498      4.55922        -0.000000      0.000000      0.000000
      1.39213      4.01873      9.11845        -0.000000     -0.000000      0.000000
     -0.00000      4.82247      0.00000        -0.000000      0.000000      0.000000
      1.39213      5.62622      4.55922        -0.000000     -0.000000      0.000000
     -0.00000      6.42996      9.11845        -0.000000      0.000000      0.000000
      5.56851      0.00000      0.00000        -0.000000     -0.000000      0.000000
      6.96064      0.80375      4.55922        -0.000000      0.000000      0.000000
      5.56851      1.60749      9.11845        -0.000000     -0.000000      0.000000
      4.17638      2.41124      0.00000        -0.000000     -0.000000      0.000000
      5.56851      3.21498      4.55922        -0.000000     -0.000000      0.000000
      4.17638      4.01873      9.11845        -0.000000     -0.000000      0.000000
      2.78425      4.82247      0.00000        -0.000000      0.000000      0.000000
      4.17638      5.62622      4.55922        -0.000000     -0.000000      0.000000
      2.78425      6.42996      9.11845         0.000000     -0.000000      0.000000
      0.00000      0.00000     10.05871        -0.000000     -0.000000     -0.010100
      0.00000      0.00000      3.61896         0.000000     -0.000000      0.010100
      1.39213      0.80375      0.94026        -0.000000     -0.000000     -0.010100
      1.39213      0.80375      8.17818         0.000000      0.000000      0.010100
      0.00000      1.60749      5.49949        -0.000000     -0.000000     -0.010100
      0.00000      1.60749     12.73741         0.000000      0.000000      0.010100
     -1.39213      2.41124     10.05871        -0.000000     -0.000000     -0.010100
     -1.39213      2.41124      3.61896         0.000000      0.000000      0.010100
      0.00000      3.21498      0.94026        -0.000000     -0.000000     -0.010100
      0.00000      3.21498      8.17818         0.000000     -0.000000      0.010100
     -1.39213      4.01873      5.49949        -0.000000      0.000000     -0.010100
     -1.39213      4.01873     12.73741         0.000000      0.000000      0.010100
     -2.78425      4.82247     10.05871        -0.000000     -0.000000     -0.010100
     -2.78425      4.82247      3.61896         0.000000     -0.000000      0.010100
     -1.39213      5.62622      0.94026        -0.000000     -0.000000     -0.010100
     -1.39213      5.62622      8.17818         0.000000      0.000000      0.010100
     -2.78425      6.42996      5.49949        -0.000000     -0.000000     -0.010100
     -2.78425      6.42996     12.73741        -0.000000      0.000000      0.010100
      2.78425      0.00000     10.05871        -0.000000      0.000000     -0.010100
      2.78425      0.00000      3.61896         0.000000     -0.000000      0.010100
      4.17638      0.80375      0.94026        -0.000000      0.000000     -0.010100
      4.17638      0.80375      8.17818         0.000000     -0.000000      0.010100
      2.78425      1.60749      5.49949        -0.000000      0.000000     -0.010100
      2.78425      1.60749     12.73741         0.000000      0.000000      0.010100
      1.39213      2.41124     10.05871        -0.000000     -0.000000     -0.010100
      1.39213      2.41124      3.61896         0.000000      0.000000      0.010100
      2.78425      3.21498      0.94026        -0.000000      0.000000     -0.010100
      2.78425      3.21498      8.17818         0.000000     -0.000000      0.010100
      1.39213      4.01873      5.49949        -0.000000     -0.000000     -0.010100
      1.39213      4.01873     12.73741         0.000000      0.000000      0.010100
     -0.00000      4.82247     10.05871        -0.000000     -0.000000     -0.010100
     -0.00000      4.82247      3.61896        -0.000000     -0.000000      0.010100
      1.39213      5.62622      0.94026        -0.000000      0.000000     -0.010100
[...]
      6.96064      0.80375      8.17818         0.000000      0.000000      0.010100
      5.56851      1.60749      5.49949        -0.000000      0.000000     -0.010100
      5.56851      1.60749     12.73741         0.000000     -0.000000      0.010100
      4.17638      2.41124     10.05871        -0.000000     -0.000000     -0.010100
      4.17638      2.41124      3.61896         0.000000      0.000000      0.010100
      5.56851      3.21498      0.94026        -0.000000     -0.000000     -0.010100
      5.56851      3.21498      8.17818         0.000000     -0.000000      0.010100
      4.17638      4.01873      5.49949        -0.000000     -0.000000     -0.010100
      4.17638      4.01873     12.73741         0.000000      0.000000      0.010100
      2.78425      4.82247     10.05871        -0.000000      0.000000     -0.010100
      2.78425      4.82247      3.61896         0.000000      0.000000      0.010100
      4.17638      5.62622      0.94026        -0.000000     -0.000000     -0.010100
      4.17638      5.62622      8.17818         0.000000     -0.000000      0.010100
      2.78425      6.42996      5.49949        -0.000000     -0.000000     -0.010100
      2.78425      6.42996     12.73741         0.000000     -0.000000      0.010100
    total drift:                               -0.000000      0.000000      0.000000

  FREE ENERGIE OF THE ION-ELECTRON SYSTEM (eV)
  free  energy   TOTEN  =      -507.0774033050 eV

  energy  without entropy=     -507.0774033050  energy(sigma->0) =     -507.07740330

 Quasi-Newton relaxation of ions (Broydens 2nd method)
  g(Force)  = 0.266E-03   g(Stress)= 0.189E-02

 Reset! Starting new Quasi-Newton update for ions

 reached required accuracy - stopping structural energy minimisation

volume of typ            1:    20.8 %

volume of typ            2:    10.6 %

total charge

# of ion       s       p       d       tot
    1        0.304   0.428   7.817   8.550
    2        0.304   0.428   7.817   8.550
    3        0.304   0.428   7.817   8.550
    4        0.304   0.428   7.817   8.550
    5        0.304   0.428   7.817   8.550
    6        0.304   0.428   7.817   8.550
    7        0.304   0.428   7.817   8.550
    8        0.304   0.428   7.817   8.550
    9        0.304   0.428   7.817   8.550
   10        0.304   0.428   7.817   8.550
   11        0.304   0.428   7.817   8.550
   12        0.304   0.428   7.817   8.550
   13        0.304   0.428   7.817   8.550
   14        0.304   0.428   7.817   8.550
   15        0.304   0.428   7.817   8.550
   16        0.304   0.428   7.817   8.550
   17        0.304   0.428   7.817   8.550
   18        0.304   0.428   7.817   8.550
   19        0.304   0.428   7.817   8.550
   20        0.304   0.428   7.817   8.550
   21        0.304   0.428   7.817   8.550
   22        0.304   0.428   7.817   8.550
   23        0.304   0.428   7.817   8.550
   24        0.304   0.428   7.817   8.550
   25        0.304   0.428   7.817   8.550
   26        0.304   0.428   7.817   8.550
   27        0.304   0.428   7.817   8.550
   28        1.286   2.723   0.008   4.017
   29        1.286   2.723   0.008   4.017
   30        1.286   2.723   0.008   4.017
   31        1.286   2.723   0.008   4.017
   32        1.286   2.723   0.008   4.017
   33        1.286   2.723   0.008   4.017
   34        1.286   2.723   0.008   4.017
   35        1.286   2.723   0.008   4.017
   36        1.286   2.723   0.008   4.017
   37        1.286   2.723   0.008   4.017
   38        1.286   2.723   0.008   4.017
   39        1.286   2.723   0.008   4.017
   40        1.286   2.723   0.008   4.017
   41        1.286   2.723   0.008   4.017
   42        1.286   2.723   0.008   4.017
   43        1.286   2.723   0.008   4.017
   44        1.286   2.723   0.008   4.017
   45        1.286   2.723   0.008   4.017
   46        1.286   2.723   0.008   4.017
   47        1.286   2.723   0.008   4.017
   48        1.286   2.723   0.008   4.017
   49        1.286   2.723   0.008   4.017
   50        1.286   2.723   0.008   4.017
   51        1.286   2.723   0.008   4.017
   52        1.286   2.723   0.008   4.017
   53        1.286   2.723   0.008   4.017
   54        1.286   2.723   0.008   4.017
   55        1.286   2.723   0.008   4.017
   56        1.286   2.723   0.008   4.017
   57        1.286   2.723   0.008   4.017
   58        1.286   2.723   0.008   4.017
   59        1.286   2.723   0.008   4.017
   60        1.286   2.723   0.008   4.017
[...]
   67        1.286   2.723   0.008   4.017
   68        1.286   2.723   0.008   4.017
   69        1.286   2.723   0.008   4.017
   70        1.286   2.723   0.008   4.017
   71        1.286   2.723   0.008   4.017
   72        1.286   2.723   0.008   4.017
   73        1.286   2.723   0.008   4.017
   74        1.286   2.723   0.008   4.017
   75        1.286   2.723   0.008   4.017
   76        1.286   2.723   0.008   4.017
   77        1.286   2.723   0.008   4.017
   78        1.286   2.723   0.008   4.017
   79        1.286   2.723   0.008   4.017
   80        1.286   2.723   0.008   4.017
   81        1.286   2.723   0.008   4.017
tot          77.67  158.58  211.51  447.76

magnetization (x)

# of ion       s       p       d       tot
    1       -0.000  -0.000  -0.000  -0.000
    2        0.000  -0.000  -0.000  -0.000
    3       -0.000  -0.000  -0.000  -0.000
    4       -0.000  -0.000  -0.000  -0.000
    5       -0.000  -0.000  -0.000  -0.000
    6       -0.000  -0.000  -0.000  -0.000
    7       -0.000  -0.000  -0.000  -0.000
    8        0.000  -0.000  -0.000  -0.000
    9        0.000  -0.000  -0.000  -0.000
   10       -0.000  -0.000  -0.000  -0.000
   11       -0.000  -0.000  -0.000  -0.000
   12       -0.000  -0.000  -0.000  -0.000
   13       -0.000  -0.000  -0.000  -0.000
   14        0.000  -0.000  -0.000  -0.000
   15        0.000  -0.000  -0.000  -0.000
   16       -0.000  -0.000  -0.000  -0.000
   17        0.000  -0.000  -0.000  -0.000
   18       -0.000  -0.000  -0.000  -0.000
   19       -0.000  -0.000  -0.000  -0.000
   20        0.000  -0.000  -0.000  -0.000
   21        0.000  -0.000  -0.000  -0.000
   22       -0.000  -0.000  -0.000  -0.000
   23        0.000  -0.000  -0.000  -0.000
   24       -0.000  -0.000  -0.000  -0.000
   25       -0.000  -0.000  -0.000  -0.000
   26       -0.000  -0.000  -0.000  -0.000
   27        0.000  -0.000  -0.000  -0.000
   28        0.000   0.000   0.000   0.000
   29        0.000   0.000   0.000   0.000
   30        0.000   0.000   0.000   0.000
   31        0.000   0.000   0.000   0.000
   32        0.000   0.000   0.000   0.000
   33        0.000   0.000   0.000   0.000
   34        0.000   0.000   0.000   0.000
   35        0.000   0.000   0.000   0.000
   36        0.000   0.000   0.000   0.000
   37        0.000   0.000   0.000   0.000
   38        0.000   0.000   0.000   0.000
   39        0.000   0.000   0.000   0.000
   40        0.000   0.000   0.000   0.000
   41        0.000   0.000   0.000   0.000
   42        0.000   0.000   0.000   0.000
   43        0.000   0.000   0.000   0.000
   44        0.000   0.000   0.000   0.000
   45        0.000   0.000   0.000   0.000
   46        0.000   0.000   0.000   0.000
   47        0.000   0.000   0.000   0.000
   48        0.000   0.000   0.000   0.000
   49        0.000   0.000   0.000   0.000
   50        0.000   0.000   0.000   0.000
   51        0.000   0.000   0.000   0.000
   52        0.000   0.000   0.000   0.000
   53        0.000   0.000   0.000   0.000
   54        0.000   0.000   0.000   0.000
   55        0.000   0.000   0.000   0.000
   56        0.000   0.000   0.000   0.000
   57        0.000   0.000   0.000   0.000
   58        0.000   0.000   0.000   0.000
   59        0.000   0.000   0.000   0.000
   60        0.000   0.000   0.000   0.000
[...]
   67        0.000   0.000   0.000   0.000
   68        0.000   0.000   0.000   0.000
   69        0.000   0.000   0.000   0.000
   70        0.000   0.000   0.000   0.000
   71        0.000   0.000   0.000   0.000
   72        0.000   0.000   0.000   0.000
   73        0.000   0.000   0.000   0.000
   74        0.000   0.000   0.000   0.000
   75        0.000   0.000   0.000   0.000
   76        0.000   0.000   0.000   0.000
   77        0.000   0.000   0.000   0.000
   78        0.000   0.000   0.000   0.000
   79        0.000   0.000   0.000   0.000
   80        0.000   0.000   0.000   0.000
   81        0.000   0.000   0.000   0.000
tot           0.00    0.00   -0.00    0.00