 vasp.5.4.4.18Apr17-6-g9f103f2a35 (build May 12 2020 05:39:39) gamma-only

 MD_VERSION_INFO: Compiled 2020-05-12T12:39:39-UTC in devlin.sd.materialsdesign.
 com:/home/medea2/data/build/wwolf/vasp-gpu5.4.4/13047/x86_64/src/src/build/gam
 from svn 13047

 executed on                        Lin64 date 2023.01.19  13:23:00

 INCAR:
 POTCAR:    PAW_PBE Li_sv 10Sep2004
 POTCAR:    PAW_PBE Ni 02Aug2007
 POTCAR:    PAW_PBE O 08Apr2002

 POTCAR:    PAW_PBE Li_sv 10Sep2004

 POTCAR:    PAW_PBE Ni 02Aug2007

 POTCAR:    PAW_PBE O 08Apr2002

 Optimization of the real space projectors (new method)

 maximal supplied QI-value         = 22.11
 optimisation between [QCUT,QGAM] = [ 11.28, 22.77] = [ 35.61,145.23] Ry
 Optimized for a Real-space Cutoff    1.10 Angstroem

   l    n(q)    QCUT    max X(q) W(low)/X(q) W(high)/X(q)  e(spline)
   0      7    11.276    10.506    0.54E-04    0.58E-04    0.16E-07
   0      7    11.276     8.367    0.11E-03    0.14E-03    0.35E-07
   1      7    11.276     8.983    0.23E-03    0.43E-03    0.86E-07
 Optimization of the real space projectors (new method)

[...]

   l    n(q)    QCUT    max X(q) W(low)/X(q) W(high)/X(q)  e(spline)
   2      9    11.376    60.317    0.17E-03    0.16E-04    0.16E-06
   2      9    11.376    55.921    0.17E-03    0.16E-04    0.17E-06
   0     10    11.376    51.690    0.45E-04    0.60E-04    0.21E-06
   0     10    11.376    30.015    0.37E-04    0.55E-04    0.19E-06
   1     10    11.376    18.849    0.83E-04    0.11E-03    0.92E-07
   1     10    11.376    14.624    0.69E-04    0.92E-04    0.82E-07
 Optimization of the real space projectors (new method)

 maximal supplied QI-value         = 24.76
 optimisation between [QCUT,QGAM] = [ 11.39, 22.77] = [ 36.31,145.25] Ry
 Optimized for a Real-space Cutoff    1.10 Angstroem

   l    n(q)    QCUT    max X(q) W(low)/X(q) W(high)/X(q)  e(spline)
   0      7    11.387    20.381    0.22E-03    0.48E-03    0.18E-06
   0      7    11.387    15.268    0.22E-03    0.52E-03    0.19E-06
   1      7    11.387     5.964    0.22E-03    0.73E-03    0.24E-06
   1      7    11.387     5.382    0.19E-03    0.60E-03    0.21E-06

  PAW_PBE Li_sv 10Sep2004               :
  PAW_PBE Ni 02Aug2007                  :
  PAW_PBE O 08Apr2002                   :

 POSCAR: ce246844_1
  positions in direct lattice
 exchange correlation table for  LEXCH =       14
   RHO(1)=    0.500       N(1)  =     2000
   RHO(2)=  100.500       N(2)  =     4000

 ion  position               nearest neighbor table
   1  0.996  0.499  0.984-  94 2.02  81 2.05  93 2.08  46 2.12  58 2.19  45 2.21  41 2.79  34 2.83

   2  0.112  0.833  0.223-  66 2.09  59 2.09  65 2.10  42 2.11  60 2.11  47 2.11  24 2.84
   3  0.206  0.166  0.079-  80 1.97  43 2.03  49 2.04  44 2.20  50 2.21  34 2.73  18 2.82  15 2.82

   4  0.333  0.500  0.999-  46 2.09  51 2.11  87 2.11  81 2.12  82 2.13  52 2.14
   5  0.431  0.833  0.193-  48 1.97  47 2.03  53 2.05  72 2.18  66 2.21  71 2.28  18 2.75  20 2.81
                            17 2.82
   6  0.656  0.499  0.984-  88 2.03  87 2.05  93 2.09  52 2.13  58 2.17  57 2.21  38 2.79
   7  0.778  0.834  0.223-  59 2.08  72 2.10  53 2.10  77 2.11  60 2.11  54 2.11
   8  0.016  0.500  0.366-  63 1.97  64 2.02  76 2.04  57 2.20  45 2.21  25 2.73  32 2.80  26 2.80

   9  0.227  0.167  0.460-  85 2.02  62 2.02  68 2.09  61 2.13  67 2.19  44 2.23  36 2.79  25 2.83

  10  0.431  0.833  0.571-  84 1.97  65 2.02  89 2.04  90 2.19  66 2.20  71 2.28  36 2.76  26 2.82
                            38 2.83
  11  0.567  0.169  0.460-  91 2.02  74 2.06  68 2.10  73 2.13  67 2.17  50 2.22  39 2.80
  12  0.806  0.834  0.572-  78 1.97  77 2.02  95 2.05  90 2.20  72 2.21  71 2.27  33 2.77  32 2.83
                            41 2.83
  13  0.888  0.167  0.442-  61 2.07  56 2.09  73 2.12  62 2.13  74 2.13  79 2.14  22 2.83
  14  0.777  0.834  0.889-  95 2.08  90 2.10  54 2.11  59 2.11  42 2.11  89 2.12
  15  0.999  0.999  0.001-  92 1.87  80 1.88  95 1.90  44 1.90  47 1.93  59 1.94  24 2.81  39 2.81
                             3 2.82  27 2.82  33 2.83  21 2.83  18 2.84
  16  0.111  0.334  0.222-  64 1.87  43 1.87  58 1.90  67 1.90  46 1.96  61 1.97  40 2.80  28 2.80
                            22 2.83  19 2.83  25 2.83  34 2.84
  17  0.221  0.667  0.112-  81 1.87  51 1.88  48 1.89  66 1.91  42 1.92  45 1.93  26 2.80  29 2.81
                            23 2.81  41 2.81   5 2.82  35 2.83  20 2.86
  18  0.333  0.999  0.998-  86 1.86  83 1.87  80 1.88  53 1.92  47 1.93  50 1.93   5 2.75  33 2.81
                            21 2.81  36 2.81   3 2.82  30 2.82  27 2.82  15 2.84
  19  0.445  0.335  0.223-  70 1.86  49 1.88  46 1.92  73 1.92  52 1.92  67 1.93  31 2.81  28 2.81
                            16 2.83  34 2.83  22 2.83  37 2.83
  20  0.558  0.667  0.112-  87 1.87  51 1.88  48 1.89  72 1.91  57 1.92  54 1.92  32 2.80   5 2.81
                            23 2.81  29 2.82  38 2.82  35 2.83  17 2.86
  21  0.666  0.002  0.001-  92 1.86  86 1.88  56 1.91  53 1.92  89 1.94  59 1.96  18 2.81  30 2.82
                            24 2.82  36 2.82  39 2.83  15 2.83
  22  0.778  0.332  0.222-  55 1.87  76 1.88  52 1.91  61 1.91  73 1.92  58 1.93  37 2.81  40 2.82
                            25 2.82  31 2.82  16 2.83  19 2.83  13 2.83
  23  0.889  0.666  0.112-  45 1.87  57 1.87  42 1.87  54 1.87  60 1.87  93 1.88  26 2.81  20 2.81
                            32 2.81  17 2.81  38 2.82  41 2.82
  24  0.002  0.998  0.333-  62 1.85  56 1.88  59 1.90  65 1.93  44 1.95  77 1.96  36 2.80  15 2.81
                            21 2.82  33 2.83  27 2.84   2 2.84  30 2.85
  25  0.112  0.335  0.557-  61 1.87  79 1.88  85 1.88  64 1.88  76 1.88  82 1.89   8 2.73  34 2.79
                            37 2.81  22 2.82  28 2.83  31 2.83  16 2.83   9 2.83
  26  0.222  0.666  0.444-  69 1.87  84 1.87  63 1.87  45 1.91  66 1.92  60 1.93  17 2.80   8 2.80
                            23 2.81  10 2.82  38 2.82  29 2.82  35 2.83  32 2.83
  27  0.336  1.000  0.333-  44 1.87  50 1.87  65 1.87  47 1.88  68 1.88  71 1.90  30 2.79  39 2.81
                            18 2.82  15 2.82  36 2.83  24 2.84
  28  0.443  0.338  0.554-  70 1.87  91 1.88  85 1.89  88 1.90  64 1.90  67 1.92  16 2.80  19 2.81
                            31 2.83  25 2.83  37 2.83  40 2.84
  29  0.555  0.665  0.443-  75 1.87  69 1.87  51 1.91  66 1.94  72 1.94  90 1.94  17 2.81  20 2.82
                            41 2.82  32 2.82  26 2.82  38 2.83
  30  0.665  0.001  0.334-  56 1.87  77 1.88  53 1.88  74 1.88  50 1.90  71 1.92  27 2.79  33 2.82
                            21 2.82  39 2.82  18 2.82  24 2.85
  31  0.777  0.338  0.556-  73 1.87  70 1.88  91 1.88  94 1.89  79 1.90  76 1.90  34 2.81  19 2.81
                            22 2.82  28 2.83  40 2.83  25 2.83
  32  0.888  0.667  0.444-  75 1.87  78 1.87  63 1.87  57 1.92  72 1.92  60 1.93  20 2.80   8 2.80
                            23 2.81  35 2.82  29 2.82  12 2.83  41 2.83  26 2.83
  33  1.000  0.002  0.667-  83 1.86  80 1.88  74 1.92  77 1.92  62 1.96  95 1.98  12 2.77  18 2.81
                            30 2.82  15 2.83  24 2.83  36 2.83  39 2.83
  34  0.111  0.332  0.887-  46 1.87  94 1.88  82 1.88  49 1.88  43 1.88  79 1.89   3 2.73  25 2.79
                            31 2.81  19 2.83  40 2.83  37 2.83   1 2.83  16 2.84
  35  0.222  0.668  0.777-  48 1.90  63 1.90  78 1.91  84 1.92  87 1.95  81 1.95  32 2.82  26 2.83
                            20 2.83  17 2.83  38 2.83  41 2.84
  36  0.333  0.001  0.666-  86 1.86  83 1.87  62 1.91  89 1.92  65 1.93  68 1.94  10 2.76   9 2.79
                            24 2.80  18 2.81  39 2.82  21 2.82  27 2.83  33 2.83
  37  0.445  0.328  0.889-  55 1.88  88 1.88  52 1.88  85 1.89  82 1.90  49 1.90  25 2.81  22 2.81
                            40 2.82  28 2.83  19 2.83  34 2.83
  38  0.556  0.665  0.778-  84 1.87  69 1.88  87 1.91  93 1.91  90 1.93  54 1.94   6 2.79  41 2.81
                            23 2.82  20 2.82  26 2.82  10 2.83  29 2.83  35 2.83
  39  0.666  0.003  0.667-  95 1.86  89 1.88  92 1.88  68 1.90  74 1.91  71 1.94  11 2.80  27 2.81
                            15 2.81  30 2.82  36 2.82  21 2.83  33 2.83
  40  0.779  0.329  0.890-  55 1.87  88 1.88  94 1.89  43 1.90  91 1.90  58 1.93  16 2.80  22 2.82
                            37 2.82  31 2.83  34 2.83  28 2.84
  41  0.888  0.665  0.778-  78 1.87  75 1.88  81 1.91  93 1.92  90 1.92  42 1.94   1 2.79  38 2.81
                            17 2.81  29 2.82  23 2.82  12 2.83  32 2.83  35 2.84
  42  0.996  0.737  0.004-  23 1.87  17 1.92  41 1.94   2 2.11  14 2.11
  43  0.007  0.265  0.004-  16 1.87  34 1.88  40 1.90   3 2.03
  44  0.119  0.069  0.223-  27 1.87  15 1.90  24 1.95   3 2.20   9 2.23
  45  0.106  0.596  0.220-  23 1.87  26 1.91  17 1.93   1 2.21   8 2.21
  46  0.220  0.404  0.101-  34 1.87  19 1.92  16 1.96   4 2.09   1 2.12
  47  0.226  0.929  0.115-  27 1.88  18 1.93  15 1.93   5 2.03   2 2.11
  48  0.335  0.734  0.004-  20 1.89  17 1.89  35 1.90   5 1.97
  49  0.332  0.265  0.004-  34 1.88  19 1.88  37 1.90   3 2.04
  50  0.442  0.070  0.224-  27 1.87  30 1.90  18 1.93   3 2.21  11 2.22
  51  0.441  0.599  0.215-  17 1.88  20 1.88  29 1.91   4 2.11
  52  0.554  0.401  0.104-  37 1.88  22 1.91  19 1.92   6 2.13   4 2.14
  53  0.559  0.931  0.116-  30 1.88  21 1.92  18 1.92   5 2.05   7 2.10
  54  0.674  0.737  0.004-  23 1.87  20 1.92  38 1.94  14 2.11   7 2.11
  55  0.670  0.264  0.004-  22 1.87  40 1.87  37 1.88
  56  0.781  0.067  0.230-  30 1.87  24 1.88  21 1.91  13 2.09
  57  0.782  0.596  0.220-  23 1.87  32 1.92  20 1.92   8 2.20   6 2.21
  58  0.889  0.403  0.110-  16 1.90  22 1.93  40 1.93   6 2.17   1 2.19
  59  0.890  0.926  0.115-  24 1.90  15 1.94  21 1.96   7 2.08   2 2.09  14 2.11
  60  0.997  0.737  0.328-  23 1.87  26 1.93  32 1.93   7 2.11   2 2.11
  61  0.002  0.263  0.343-  25 1.87  22 1.91  16 1.97  13 2.07   9 2.13
  62  0.110  0.070  0.545-  24 1.85  36 1.91  33 1.96   9 2.02  13 2.13
  63  0.110  0.601  0.552-  32 1.87  26 1.87  35 1.90   8 1.97
  64  0.215  0.402  0.441-  16 1.87  25 1.88  28 1.90   8 2.02
  65  0.229  0.929  0.442-  27 1.87  36 1.93  24 1.93  10 2.02   2 2.10
  66  0.332  0.739  0.332-  17 1.91  26 1.92  29 1.94   2 2.09  10 2.20   5 2.21
  67  0.333  0.264  0.335-  16 1.90  28 1.92  19 1.93  11 2.17   9 2.19
  68  0.443  0.071  0.550-  27 1.88  39 1.90  36 1.94   9 2.09  11 2.10
  69  0.444  0.600  0.554-  26 1.87  29 1.87  38 1.88
  70  0.553  0.403  0.442-  19 1.86  28 1.87  31 1.88
  71  0.556  0.928  0.444-  27 1.90  30 1.92  39 1.94  12 2.27   5 2.28  10 2.28
  72  0.666  0.739  0.332-  20 1.91  32 1.92  29 1.94   7 2.10   5 2.18  12 2.21
  73  0.670  0.266  0.342-  31 1.87  22 1.92  19 1.92  13 2.12  11 2.13
  74  0.775  0.071  0.552-  30 1.88  39 1.91  33 1.92  11 2.06  13 2.13
  75  0.777  0.601  0.554-  29 1.87  32 1.87  41 1.88
  76  0.890  0.402  0.441-  25 1.88  22 1.88  31 1.90   8 2.04
  77  0.882  0.929  0.444-  30 1.88  33 1.92  24 1.96  12 2.02   7 2.11
  78  0.993  0.733  0.665-  41 1.87  32 1.87  35 1.91  12 1.97
  79  0.996  0.267  0.661-  25 1.88  34 1.89  31 1.90  13 2.14
  80  0.111  0.066  0.892-  18 1.88  15 1.88  33 1.88   3 1.97
[...]
   0.288E+01 0.568E+02 -.300E+03   -.351E+01 -.600E+02 0.317E+03   0.634E+00 0.321E+01 -.167E+02   0.557E-03 -.140E-01 0.173E-01
   0.932E+01 0.750E+01 0.380E+03   -.898E+01 -.726E+01 -.406E+03   -.335E+00 -.231E+00 0.261E+02   -.519E-04 -.786E-02 0.270E-01
   0.558E+02 0.249E+02 -.369E+03   -.595E+02 -.261E+02 0.388E+03   0.371E+01 0.125E+01 -.189E+02   0.227E-01 -.913E-02 0.226E-01
   -.503E+02 0.181E+02 0.354E+03   0.525E+02 -.200E+02 -.373E+03   -.221E+01 0.185E+01 0.185E+02   0.402E-02 -.205E-01 -.507E-01
   0.322E+00 0.911E+01 -.282E+03   0.243E+00 -.945E+01 0.297E+03   -.563E+00 0.356E+00 -.148E+02   -.200E-02 -.106E-01 -.323E-01
   0.401E+01 0.141E+02 0.250E+03   -.462E+01 -.151E+02 -.262E+03   0.589E+00 0.983E+00 0.127E+02   0.151E-01 0.394E-02 0.102E-02
   -.569E+02 -.310E+02 -.293E+03   0.606E+02 0.330E+02 0.310E+03   -.371E+01 -.204E+01 -.163E+02   -.375E-02 0.364E-02 0.317E-01
[...]
   0.317E+02 0.743E+01 -.331E+03   -.333E+02 -.737E+01 0.352E+03   0.153E+01 -.736E-01 -.209E+02   0.136E-03 0.121E-01 -.269E-01
   0.114E+01 -.557E+00 0.346E+03   -.176E+01 0.345E+00 -.371E+03   0.615E+00 0.194E+00 0.243E+02   0.296E-02 0.250E-01 0.301E-01
   -.631E+02 0.388E+02 -.306E+03   0.686E+02 -.418E+02 0.324E+03   -.547E+01 0.297E+01 -.180E+02   0.591E-02 0.850E-02 0.205E-01
   -.377E+02 -.314E+02 0.324E+03   0.390E+02 0.332E+02 -.344E+03   -.127E+01 -.186E+01 0.202E+02   0.545E-03 0.123E-01 0.175E-01
   -.547E+00 -.629E+01 -.388E+03   0.323E+00 0.647E+01 0.413E+03   0.214E+00 -.157E+00 -.248E+02   0.899E-02 -.282E-01 0.105E-01
   0.378E+02 0.508E+02 0.332E+03   -.402E+02 -.551E+02 -.347E+03   0.245E+01 0.435E+01 0.153E+02   0.116E-01 -.395E-02 -.380E-01
   0.391E+02 0.245E+02 -.321E+03   -.418E+02 -.256E+02 0.340E+03   0.269E+01 0.115E+01 -.192E+02   -.166E-02 -.110E-02 -.376E-01
   -.572E+02 0.247E+02 0.278E+03   0.613E+02 -.248E+02 -.293E+03   -.410E+01 0.968E-01 0.147E+02   0.385E-03 -.313E-01 0.108E-01
   0.235E+02 0.126E+02 -.259E+03   -.265E+02 -.145E+02 0.271E+03   0.303E+01 0.191E+01 -.126E+02   -.229E-01 0.310E-02 -.757E-02
   -.440E+02 -.224E+02 0.319E+03   0.472E+02 0.236E+02 -.338E+03   -.321E+01 -.120E+01 0.189E+02   -.167E-03 -.600E-02 0.276E-01
   -.178E+02 0.289E+01 -.405E+03   0.184E+02 -.259E+01 0.429E+03   -.620E+00 -.295E+00 -.238E+02   -.435E-03 -.101E-01 0.464E-01
   0.518E+02 0.302E+02 0.350E+03   -.545E+02 -.316E+02 -.367E+03   0.281E+01 0.138E+01 0.170E+02   -.270E-01 0.481E-02 -.382E-01
   0.363E+02 0.312E+02 -.324E+03   -.377E+02 -.332E+02 0.345E+03   0.136E+01 0.196E+01 -.206E+02   -.807E-03 -.128E-01 -.240E-01
   0.211E+02 -.602E+02 0.279E+03   -.232E+02 0.647E+02 -.294E+03   0.211E+01 -.455E+01 0.143E+02   -.139E-01 0.166E-02 -.707E-02
   0.260E+00 0.181E+00 -.406E+00   -.384E-12 -.355E-12 0.284E-12   -.247E+00 -.183E+00 0.434E+00   -.120E-01 -.737E-03 -.891E-02

 POSITION                                       TOTAL-FORCE (eV/Angst)
      4.09434      7.29791      7.09181        -0.000779      0.000449     -0.000566
      1.41072      0.84573     11.82801        -0.004059      0.004285     -0.001718
     -0.20455      1.50495      2.35854        -0.003814     -0.007663     -0.001844
      7.05010      2.43178      7.10182        -0.005721     -0.005541     -0.001138
     -0.21163      3.17244     11.82554        -0.012623     -0.002045     -0.003547
      5.55041      4.79384      7.07763        -0.004969     -0.001367      0.001579
     -1.39816      5.72331     11.85058         0.009414      0.005353     -0.001861
      3.04036      0.12486      7.09754         0.010860      0.004672      0.003847
      2.92676      1.65490      2.38230        -0.002077     -0.000609      0.001036
      2.99821      3.17451     11.83406        -0.007754      0.007599      0.004890
      1.48666      4.15079      2.39981         0.004155      0.001447     -0.003004
      1.42359      5.92806     11.85134         0.013808      0.003669      0.005975
     -0.04550      6.50314      2.38113        -0.004110     -0.001640     -0.004524
      4.22399      5.68780     11.85171         0.012197     -0.004581      0.004764
     -4.25314      7.34799     14.18685        -0.001357     -0.001771     -0.001109
      1.41156      0.81758      4.73440         0.000873     -0.000149      0.000648
     -0.00070      1.63401      9.46560        -0.003502      0.000113     -0.002692
      7.03938      2.44499     14.18654        -0.000792      0.001129     -0.001427
     -0.00701      3.26200      4.75757        -0.002757     -0.000938     -0.001901
     -1.43194      4.09154      9.47378         0.000327     -0.006850     -0.001868
     -2.82108      4.87957      0.03492         0.000613      0.000522     -0.000978
     -1.42786      5.70840      4.72192         0.000991      0.002455      0.000794
     -2.82778      6.53938      9.46370         0.009832      0.004442      0.000605
      2.81764      0.02900     14.16845        -0.000309     -0.000580     -0.002117
      4.24900      0.81368      4.75203         0.000296     -0.002460     -0.002174
      2.81246      1.65133      9.45771        -0.001175      0.005918      0.001939
      1.38995      2.47709     14.18673        -0.004078     -0.007603     -0.002127
      2.80249      3.24477      4.79911        -0.001344     -0.002290     -0.001334
      1.39254      4.07739      9.44023        -0.001611     -0.000683      0.003478
      0.00231      4.87947      0.01480         0.000015      0.003129     -0.001491
      1.40102      5.68900      4.80923        -0.003568     -0.001414     -0.000145
     -0.01111      6.50839      9.47004         0.007048     -0.000542     -0.000204
      1.39591      7.32293      0.03783        -0.000073      0.002165     -0.001541
      7.04525      0.79755      4.71079        -0.001834      0.002708     -0.001340
      5.63553      1.61989      9.49358        -0.006163     -0.003852      0.004423
      4.22031      2.42434      0.01636        -0.001834     -0.001787     -0.002291
      5.63352      3.26019      4.66317        -0.000330      0.002479     -0.002615
      4.22640      4.08308      9.45405         0.000533      0.001668      0.009822
      2.81636      4.86540      0.04229        -0.000325      0.000884     -0.002642
      4.22930      5.70479      4.67353         0.000467      0.002285     -0.001050
      2.82215      6.50678      9.45809         0.007059     -0.000214      0.006910
     -4.20774      7.33363     10.46405         0.004502      0.004089      0.003255
      0.00983      0.06336      3.75824        -0.000508      0.001376     -0.000688
      1.36917      0.86537      0.97764        -0.004383     -0.004781      0.000016
      1.42181      0.80614      8.46842         0.003210      0.008008     -0.002774
     -0.08557      1.61786      5.73877        -0.005770      0.002331      0.003085
      0.01659      1.68216     13.18113        -0.002103      0.001448     -0.003699
     -1.39299      2.46674     10.42184        -0.009261     -0.008852      0.003848
     -1.37515      2.44604      3.76065        -0.002378      0.003823     -0.002352
      0.01210      3.24035      0.98961        -0.003424     -0.000479      0.000293
     -0.10225      3.22360      8.50199        -0.013448     -0.007025     -0.010175
     -1.48632      4.07046      5.69432        -0.004314      0.001705      0.000062
     -1.37901      4.11953     13.20823         0.003494      0.002917     -0.004081
     -2.82743      4.94276     10.46354         0.009455     -0.003352      0.004465
     -2.82411      4.93059      3.76034        -0.000300      0.004631     -0.002422
     -1.35819      5.73259      0.95999         0.005073      0.000121      0.001040
     -1.44832      5.73585      8.47783         0.010673     -0.001066     -0.002062
     -2.83797      6.53492      5.74412        -0.001037     -0.000009      0.001481
     -2.82202      6.54097     13.15805         0.001910     -0.001741     -0.003641
     -1.45549      7.32784     10.46693         0.005463      0.000306      0.000352
[...]
      7.12325      0.79164      8.47028         0.000747     -0.005893     -0.003006
      5.66739      1.65214      5.66848        -0.003889      0.000461      0.001599
      5.62233      1.61925     13.28519         0.000741      0.007414     -0.003686
      4.16188      2.49453     10.41872        -0.008232     -0.000510      0.011344
      4.17588      2.43227      3.78922         0.001415      0.002823     -0.004668
      5.63781      3.22066      0.93006        -0.000938      0.000882      0.001133
      5.65660      3.30359      8.47757        -0.007745     -0.003464      0.001971
      4.27291      4.10496      5.65365        -0.003530     -0.001647      0.000944
      4.17035      4.07598     13.22117        -0.003342     -0.003382     -0.004932
      2.88195      4.92312     10.50930         0.013419      0.007736      0.018693
      2.74935      4.84505      3.81573        -0.000011      0.001238     -0.003919
      4.23517      5.67862      0.94229        -0.003383     -0.004901      0.000433
      4.27021      5.72135      8.46496         0.008228      0.002339      0.001240
      2.85778      6.51398      5.68477        -0.002427     -0.003106      0.002572
      2.85704      6.44031     13.20499         0.002050      0.001433     -0.003754
    total drift:                                0.000742     -0.003236      0.019400

  FREE ENERGIE OF THE ION-ELECTRON SYSTEM (eV)
  free  energy   TOTEN  =      -580.7924537946 eV

  energy  without entropy=     -580.7517650688  energy(sigma->0) =     -580.77210943

 d Force = 0.2725372E-04[ 0.245E-04, 0.300E-04]  d Energy =-0.2984678E-05 0.302E-04
 d Force =-0.6672021E+00[-0.667E+00,-0.667E+00]  d Ewald  = 0.8622775E+00-0.153E+01

 Quasi-Newton relaxation of ions (Broydens 2nd method)
  g(Force)  = 0.266E-03   g(Stress)= 0.130E-03

 retain information from N=  1 steps
 eigenvalues of (default step * inverse Hessian matrix)
  average eigenvalue of G=   0.1424
 eigenvalue spectrum of G is  0.1424

volume of typ            1:    12.4 %

[...]

volume of typ            3:    10.0 %

total charge

# of ion       s       p       d       tot
    1        2.077   0.251   0.095   2.424
    2        2.080   0.252   0.096   2.428
    3        2.076   0.247   0.095   2.418
    4        2.073   0.238   0.089   2.400
    5        2.083   0.266   0.101   2.450
    6        2.076   0.247   0.093   2.415
    7        2.079   0.253   0.096   2.428
    8        2.078   0.249   0.096   2.423
    9        2.077   0.250   0.095   2.422
   10        2.084   0.269   0.102   2.456
   11        2.076   0.243   0.092   2.411
   12        2.082   0.264   0.100   2.446
   13        2.074   0.241   0.091   2.406
   14        2.083   0.265   0.101   2.448
   15        0.277   0.370   7.846   8.493
   16        0.273   0.365   7.851   8.489
   17        0.285   0.389   7.845   8.520
   18        0.282   0.378   7.840   8.500
   19        0.275   0.370   7.842   8.487
   20        0.286   0.389   7.847   8.522
   21        0.270   0.353   7.844   8.466
   22        0.278   0.375   7.840   8.493
   23        0.296   0.413   7.852   8.561
   24        0.273   0.363   7.854   8.491
   25        0.293   0.404   7.837   8.534
   26        0.283   0.382   7.845   8.510
   27        0.294   0.410   7.850   8.554
   28        0.282   0.382   7.833   8.496
   29        0.267   0.347   7.847   8.461
   30        0.290   0.399   7.848   8.536
   31        0.288   0.395   7.828   8.511
   32        0.282   0.380   7.845   8.507
   33        0.267   0.349   7.849   8.465
   34        0.293   0.405   7.837   8.535
   35        0.255   0.326   7.842   8.423
   36        0.279   0.374   7.839   8.492
   37        0.286   0.390   7.830   8.506
   38        0.282   0.382   7.842   8.506
   39        0.286   0.390   7.846   8.521
   40        0.281   0.380   7.834   8.495
   41        0.281   0.379   7.842   8.503
   42        1.267   2.774   0.006   4.047
   43        1.271   2.761   0.007   4.040
   44        1.273   2.758   0.006   4.037
   45        1.271   2.761   0.007   4.038
   46        1.269   2.769   0.006   4.044
   47        1.266   2.776   0.006   4.048
   48        1.273   2.759   0.007   4.040
   49        1.273   2.753   0.007   4.033
   50        1.270   2.762   0.006   4.039
   51        1.277   2.748   0.007   4.031
   52        1.269   2.768   0.006   4.044
   53        1.265   2.780   0.006   4.051
   54        1.268   2.771   0.006   4.045
   55        1.284   2.722   0.008   4.014
   56        1.276   2.750   0.007   4.033
   57        1.270   2.762   0.006   4.039
   58        1.266   2.771   0.006   4.043
   59        1.258   2.795   0.005   4.058
   60        1.268   2.770   0.006   4.044
[...]
   81        1.267   2.774   0.006   4.048
   82        1.275   2.750   0.007   4.032
   83        1.285   2.723   0.008   4.016
   84        1.273   2.763   0.007   4.043
   85        1.273   2.757   0.007   4.037
   86        1.286   2.721   0.008   4.014
   87        1.267   2.772   0.006   4.046
   88        1.276   2.751   0.007   4.034
   89        1.268   2.774   0.006   4.048
   90        1.264   2.782   0.005   4.051
   91        1.276   2.751   0.007   4.034
   92        1.286   2.720   0.008   4.014
   93        1.267   2.775   0.006   4.048
   94        1.272   2.759   0.007   4.038
   95        1.267   2.778   0.006   4.051
tot         105.33  162.89  213.45  481.67

magnetization (x)

# of ion       s       p       d       tot
    1        0.005   0.007   0.001   0.012
    2        0.004   0.003  -0.000   0.007
    3        0.001   0.003   0.000   0.004
    4        0.004   0.010   0.001   0.016
    5        0.005   0.007   0.000   0.012
    6        0.004   0.004   0.000   0.008
    7        0.004   0.005  -0.000   0.009
    8        0.001   0.001   0.000   0.002
    9        0.005   0.008   0.001   0.014
   10        0.006   0.010   0.001   0.017
   11        0.002   0.001  -0.000   0.003
   12        0.005   0.010   0.001   0.016
   13        0.005   0.010   0.001   0.016
   14        0.006   0.010   0.001   0.017
   15       -0.000  -0.001   0.368   0.367
   16        0.000  -0.000   0.528   0.528
   17       -0.001  -0.000   0.157   0.156
   18       -0.000  -0.000   0.069   0.069
   19       -0.000  -0.000   0.435   0.434
   20       -0.001  -0.000   0.129   0.128
   21       -0.000  -0.000   0.546   0.546
   22       -0.000  -0.000   0.338   0.338
   23       -0.000   0.000  -0.105  -0.105
   24        0.000  -0.001   0.555   0.554
   25       -0.000   0.000  -0.038  -0.038
   26       -0.001  -0.000   0.114   0.113
   27       -0.000  -0.000   0.011   0.010
   28       -0.000   0.000  -0.187  -0.187
   29        0.001   0.000   0.673   0.674
   30       -0.001  -0.000   0.034   0.034
   31        0.000   0.000   0.001   0.001
   32       -0.000  -0.000   0.121   0.121
   33        0.001  -0.001   0.646   0.646
   34       -0.000  -0.000   0.004   0.003
   35        0.001  -0.000   0.972   0.972
   36       -0.001  -0.000   0.202   0.201
   37        0.000   0.000  -0.056  -0.055
   38       -0.001  -0.000   0.084   0.083
   39       -0.001  -0.000   0.106   0.105
   40       -0.000   0.000  -0.215  -0.215
   41       -0.001  -0.000   0.110   0.109
   42        0.000  -0.013   0.000  -0.013
   43        0.000  -0.002  -0.000  -0.002
   44        0.010   0.061   0.000   0.071
   45       -0.000  -0.009   0.000  -0.009
   46        0.011   0.091   0.000   0.102
   47        0.002   0.008   0.000   0.011
   48        0.008   0.061   0.000   0.069
   49       -0.001  -0.016  -0.000  -0.017
   50       -0.001  -0.015   0.000  -0.016
   51        0.010   0.082   0.000   0.092
   52        0.009   0.060   0.000   0.069
   53        0.003   0.012   0.000   0.016
   54       -0.001  -0.018   0.000  -0.019
   55        0.000  -0.007  -0.000  -0.006
   56        0.010   0.078   0.000   0.088
   57       -0.000  -0.007   0.000  -0.008
   58        0.002   0.018   0.000   0.021
   59        0.007   0.021   0.000   0.027
   60        0.001  -0.006   0.000  -0.006
[...]
   81        0.009   0.069   0.000   0.078
   82       -0.001  -0.017   0.000  -0.019
   83        0.004   0.026   0.000   0.030
   84        0.009   0.069   0.000   0.078
   85       -0.001  -0.011   0.000  -0.012
   86        0.005   0.041   0.000   0.046
   87        0.008   0.054   0.000   0.062
   88       -0.006  -0.052  -0.000  -0.058
   89        0.008   0.054   0.000   0.063
   90        0.008   0.061   0.000   0.070
   91       -0.006  -0.056  -0.000  -0.062
   92        0.007   0.077   0.000   0.084
   93       -0.001  -0.011   0.000  -0.012
   94        0.000   0.002   0.000   0.003
   95        0.011   0.083   0.000   0.094
tot           0.26    1.42    5.62    7.30