 vasp.5.4.4.18Apr17-6-g9f103f2a35 (build May 12 2020 05:39:39) gamma-only

 MD_VERSION_INFO: Compiled 2020-05-12T12:39:39-UTC in devlin.sd.materialsdesign.
 com:/home/medea2/data/build/wwolf/vasp-gpu5.4.4/13047/x86_64/src/src/build/gam
 from svn 13047

 executed on                        Lin64 date 2023.01.19  19:20:21

 INCAR:
 POTCAR:    PAW_PBE Li_sv 10Sep2004
 POTCAR:    PAW_PBE Ni 02Aug2007
 POTCAR:    PAW_PBE O 08Apr2002

 POTCAR:    PAW_PBE Li_sv 10Sep2004

 POTCAR:    PAW_PBE Ni 02Aug2007

 POTCAR:    PAW_PBE O 08Apr2002

 Optimization of the real space projectors (new method)

 maximal supplied QI-value         = 22.11
 optimisation between [QCUT,QGAM] = [ 11.28, 22.77] = [ 35.61,145.23] Ry
 Optimized for a Real-space Cutoff    1.10 Angstroem

   l    n(q)    QCUT    max X(q) W(low)/X(q) W(high)/X(q)  e(spline)
   0      7    11.276    10.506    0.54E-04    0.58E-04    0.16E-07
   0      7    11.276     8.367    0.11E-03    0.14E-03    0.35E-07
   1      7    11.276     8.983    0.23E-03    0.43E-03    0.86E-07
 Optimization of the real space projectors (new method)

[...]

   l    n(q)    QCUT    max X(q) W(low)/X(q) W(high)/X(q)  e(spline)
   2      9    11.376    60.317    0.17E-03    0.16E-04    0.16E-06
   2      9    11.376    55.921    0.17E-03    0.16E-04    0.17E-06
   0     10    11.376    51.690    0.45E-04    0.60E-04    0.21E-06
   0     10    11.376    30.015    0.37E-04    0.55E-04    0.19E-06
   1     10    11.376    18.849    0.83E-04    0.11E-03    0.92E-07
   1     10    11.376    14.624    0.69E-04    0.92E-04    0.82E-07
 Optimization of the real space projectors (new method)

 maximal supplied QI-value         = 24.76
 optimisation between [QCUT,QGAM] = [ 11.39, 22.77] = [ 36.31,145.25] Ry
 Optimized for a Real-space Cutoff    1.10 Angstroem

   l    n(q)    QCUT    max X(q) W(low)/X(q) W(high)/X(q)  e(spline)
   0      7    11.387    20.381    0.22E-03    0.48E-03    0.18E-06
   0      7    11.387    15.268    0.22E-03    0.52E-03    0.19E-06
   1      7    11.387     5.964    0.22E-03    0.73E-03    0.24E-06
   1      7    11.387     5.382    0.19E-03    0.60E-03    0.21E-06

  PAW_PBE Li_sv 10Sep2004               :
  PAW_PBE Ni 02Aug2007                  :
  PAW_PBE O 08Apr2002                   :

 POSCAR: ce409356_1
  positions in direct lattice
 exchange correlation table for  LEXCH =       14
   RHO(1)=    0.500       N(1)  =     2000
   RHO(2)=  100.500       N(2)  =     4000

 ion  position               nearest neighbor table
   1  0.998  0.500  0.999-  38 2.11  87 2.11  51 2.11  86 2.12  39 2.13  74 2.14
   2  0.112  0.834  0.223-  40 2.10  58 2.11  59 2.11  53 2.11  35 2.12  52 2.12
   3  0.225  0.166  0.111-  42 2.09  43 2.10  60 2.11  73 2.11  36 2.12  37 2.12
   4  0.666  0.500  0.331-  69 2.11  44 2.11  50 2.11  45 2.12  68 2.13  63 2.14
   5  0.777  0.834  0.558-  83 2.09  88 2.10  71 2.11  64 2.11  65 2.12  70 2.12
   6  0.890  0.166  0.445-  67 2.10  55 2.11  72 2.11  54 2.11  66 2.12  49 2.12
   7  0.333  0.500  0.666-  56 2.11  57 2.11  62 2.11  75 2.11  80 2.14  81 2.14
   8  0.999  0.999  0.999-  52 1.86  85 1.87  73 1.87  37 1.87  40 1.88  88 1.88  26 2.78  32 2.79
                            14 2.79  17 2.80  11 2.81  20 2.82
   9  0.111  0.333  0.224-  60 1.87  51 1.87  36 1.88  39 1.88  54 1.90  57 1.90  15 2.78  18 2.79
                            21 2.79  12 2.80  33 2.81  27 2.82
  10  0.224  0.666  0.111-  74 1.87  41 1.87  59 1.87  35 1.88  38 1.88  44 1.89  22 2.79  13 2.79
                            28 2.79  19 2.80  34 2.81  16 2.82
  11  0.334  0.997  1.000-  76 1.86  46 1.86  79 1.87  43 1.88  73 1.88  40 1.90  23 2.79  26 2.79
                            29 2.80  14 2.80  20 2.81   8 2.81
  12  0.444  0.333  0.222-  42 1.87  63 1.87  60 1.87  45 1.87  39 1.91  66 1.91  30 2.79  21 2.79
                            27 2.80   9 2.80  24 2.81  15 2.81
  13  0.555  0.669  0.110-  41 1.87  47 1.87  50 1.88  44 1.88  80 1.90  65 1.90  16 2.79  10 2.79
                            31 2.79  28 2.79  25 2.81  22 2.81
  14  0.667  0.000  0.001-  82 1.86  79 1.86  85 1.87  46 1.87  49 1.90  52 1.90  23 2.79   8 2.79
                            17 2.79  32 2.80  11 2.80  29 2.80
  15  0.778  0.334  0.221-  45 1.87  48 1.87  54 1.87  66 1.87  69 1.88  51 1.89   9 2.78  33 2.79
                            30 2.79  18 2.80  12 2.81  24 2.82
  16  0.887  0.666  0.111-  86 1.87  47 1.87  53 1.87  35 1.87  38 1.88  50 1.89  25 2.78  13 2.79
                            31 2.79  19 2.80  34 2.81  10 2.82
  17  1.000  0.000  0.333-  52 1.87  49 1.87  58 1.87  55 1.87  37 1.91  70 1.91  14 2.79  29 2.80
                             8 2.80  23 2.80  20 2.81  26 2.81
  18  0.111  0.334  0.556-  57 1.87  75 1.87  54 1.87  72 1.87  78 1.87  69 1.91  27 2.79   9 2.79
                            30 2.80  15 2.80  21 2.80  24 2.80
  19  0.222  0.666  0.445-  56 1.87  62 1.87  53 1.87  59 1.87  77 1.87  38 1.91  22 2.79  25 2.79
                            31 2.80  16 2.80  28 2.80  10 2.80
  20  0.335  0.999  0.335-  58 1.86  61 1.87  43 1.87  37 1.88  40 1.88  64 1.89  23 2.78  32 2.79
                            29 2.79  17 2.81  11 2.81   8 2.82
  21  0.445  0.331  0.555-  84 1.86  81 1.87  78 1.87  57 1.88  60 1.89  63 1.90  24 2.79   9 2.79
                            12 2.79  33 2.79  18 2.80  30 2.81
  22  0.554  0.667  0.445-  83 1.87  44 1.87  68 1.88  65 1.88  59 1.89  62 1.90  19 2.79  10 2.79
                            31 2.79  34 2.80  13 2.81  25 2.82
  23  0.665  0.001  0.332-  49 1.86  46 1.87  64 1.87  70 1.87  67 1.88  43 1.88  20 2.78  11 2.79
                            14 2.79  17 2.80  32 2.81  26 2.82
  24  0.778  0.334  0.557-  63 1.87  84 1.87  72 1.87  66 1.88  69 1.88  87 1.89  27 2.79  33 2.79
                            21 2.79  18 2.80  12 2.81  15 2.82
  25  0.890  0.667  0.444-  71 1.87  50 1.87  65 1.88  68 1.88  53 1.90  56 1.90  16 2.78  19 2.79
                            28 2.79  34 2.80  13 2.81  22 2.82
  26  0.001  0.001  0.668-  55 1.86  76 1.87  88 1.87  70 1.88  67 1.88  73 1.89   8 2.78  11 2.79
                            29 2.79  17 2.81  32 2.81  23 2.82
  27  0.111  0.333  0.887-  42 1.87  87 1.87  39 1.88  36 1.88  72 1.89  75 1.90  18 2.79  24 2.79
                            30 2.79  12 2.80  33 2.81   9 2.82
  28  0.221  0.669  0.778-  41 1.86  80 1.87  77 1.87  56 1.88  71 1.89  74 1.90  10 2.79  25 2.79
                            34 2.79  13 2.79  19 2.80  31 2.81
  29  0.333  0.000  0.666-  79 1.87  82 1.87  76 1.87  61 1.87  55 1.90  58 1.90  26 2.79  20 2.79
                            11 2.80  32 2.80  17 2.80  14 2.80
  30  0.445  0.331  0.890-  48 1.86  81 1.87  78 1.87  75 1.88  42 1.89  45 1.90  15 2.79  27 2.79
                            12 2.79  33 2.79  18 2.80  21 2.81
  31  0.557  0.669  0.778-  47 1.86  80 1.87  77 1.87  62 1.88  83 1.89  86 1.90  16 2.79  22 2.79
                            34 2.79  13 2.79  19 2.80  28 2.81
  32  0.666  0.003  0.667-  61 1.86  85 1.86  82 1.87  88 1.88  64 1.88  67 1.90   8 2.79  20 2.79
                            29 2.80  14 2.80  26 2.81  23 2.81
  33  0.777  0.331  0.888-  84 1.87  48 1.87  51 1.88  87 1.88  81 1.90  36 1.90  15 2.79  24 2.79
                            30 2.79  21 2.79   9 2.81  27 2.81
  34  0.889  0.667  0.778-  83 1.87  74 1.87  71 1.87  86 1.87  68 1.91  35 1.91  31 2.79  28 2.79
                            22 2.80  25 2.80  10 2.81  16 2.81
  35  0.002  0.734  0.005-  16 1.87  10 1.88  34 1.91   2 2.12
  36  0.005  0.264  0.002-   9 1.88  27 1.88  33 1.90   3 2.12
  37  0.114  0.067  0.219-   8 1.87  20 1.88  17 1.91   3 2.12
  38  0.109  0.598  0.219-  16 1.88  10 1.88  19 1.91   1 2.11
  39  0.218  0.401  0.109-  27 1.88   9 1.88  12 1.91   1 2.13
  40  0.220  0.930  0.113-  20 1.88   8 1.88  11 1.90   2 2.10
  41  0.332  0.735  0.001-  28 1.86  13 1.87  10 1.87
  42  0.331  0.265  0.002-  27 1.87  12 1.87  30 1.89   3 2.09
  43  0.440  0.067  0.219-  20 1.87  11 1.88  23 1.88   3 2.10
  44  0.449  0.600  0.223-  22 1.87  13 1.88  10 1.89   4 2.11
  45  0.557  0.401  0.113-  15 1.87  12 1.87  30 1.90   4 2.12
  46  0.557  0.932  0.112-  11 1.86  23 1.87  14 1.87
  47  0.668  0.735  0.000-  31 1.86  13 1.87  16 1.87
  48  0.667  0.265  0.001-  30 1.86  33 1.87  15 1.87
  49  0.779  0.068  0.225-  23 1.86  17 1.87  14 1.90   6 2.12
  50  0.775  0.600  0.223-  25 1.87  13 1.88  16 1.89   4 2.11
  51  0.890  0.400  0.108-   9 1.87  33 1.88  15 1.89   1 2.11
  52  0.892  0.932  0.112-   8 1.86  17 1.87  14 1.90   2 2.12
  53  0.002  0.735  0.331-  19 1.87  16 1.87  25 1.90   2 2.11
  54  0.998  0.265  0.336-  18 1.87  15 1.87   9 1.90   6 2.11
  55  0.108  0.068  0.554-  26 1.86  17 1.87  29 1.90   6 2.11
  56  0.116  0.599  0.559-  19 1.87  28 1.88  25 1.90   7 2.11
  57  0.225  0.401  0.449-  18 1.87  21 1.88   9 1.90   7 2.11
  58  0.221  0.932  0.441-  20 1.86  17 1.87  29 1.90   2 2.11
  59  0.329  0.735  0.332-  19 1.87  10 1.87  22 1.89   2 2.11
  60  0.331  0.264  0.329-   9 1.87  12 1.87  21 1.89   3 2.11
  61  0.443  0.068  0.555-  32 1.86  20 1.87  29 1.87
  62  0.443  0.599  0.559-  19 1.87  31 1.88  22 1.90   7 2.11
  63  0.556  0.401  0.443-  24 1.87  12 1.87  21 1.90   4 2.14
  64  0.560  0.933  0.448-  23 1.87  32 1.88  20 1.89   5 2.11
  65  0.669  0.736  0.338-  25 1.88  22 1.88  13 1.90   5 2.12
  66  0.672  0.266  0.336-  15 1.87  24 1.88  12 1.91   6 2.12
  67  0.780  0.070  0.554-  26 1.88  23 1.88  32 1.90   6 2.10
  68  0.775  0.599  0.551-  22 1.88  25 1.88  34 1.91   4 2.13
  69  0.885  0.402  0.443-  15 1.88  24 1.88  18 1.91   4 2.11
  70  0.886  0.933  0.447-  23 1.87  26 1.88  17 1.91   5 2.12
  71  0.995  0.736  0.664-  25 1.87  34 1.87  28 1.89   5 2.11
  72  0.998  0.265  0.663-  18 1.87  24 1.87  27 1.89   6 2.11
  73  0.114  0.067  0.893-   8 1.87  11 1.88  26 1.89   3 2.11
  74  0.110  0.599  0.890-  10 1.87  34 1.87  28 1.90   1 2.14
  75  0.226  0.401  0.777-  18 1.87  30 1.88  27 1.90   7 2.11
  76  0.221  0.932  0.776-  11 1.86  26 1.87  29 1.87
  77  0.333  0.735  0.665-  28 1.87  31 1.87  19 1.87
  78  0.332  0.265  0.666-  21 1.87  30 1.87  18 1.87
  79  0.444  0.065  0.890-  14 1.86  11 1.87  29 1.87
  80  0.443  0.602  0.885-  31 1.87  28 1.87  13 1.90   7 2.14
  81  0.552  0.398  0.776-  30 1.87  21 1.87  33 1.90   7 2.14
  82  0.557  0.935  0.777-  14 1.86  32 1.87  29 1.87
  83  0.669  0.735  0.664-  22 1.87  34 1.87  31 1.89   5 2.09
  84  0.667  0.265  0.666-  21 1.86  33 1.87  24 1.87
  85  0.779  0.068  0.891-  32 1.86   8 1.87  14 1.87
  86  0.780  0.599  0.890-  16 1.87  34 1.87  31 1.90   1 2.12
  87  0.890  0.400  0.782-  27 1.87  33 1.88  24 1.89   1 2.11
  88  0.886  0.933  0.773-  26 1.87  32 1.88   8 1.88   5 2.10

  LATTYP: Found a base centered monoclinic cell.
 ALAT       =    14.5416529443
 B/A-ratio  =     0.5771621352
 C/A-ratio  =     1.3945531890
 COS(beta)  =    -0.6207995633

  Lattice vectors:

 A1 = (   8.3949431530,  -0.0011845597,  -0.0015487924)
 A2 = (   4.1984974105,  -7.2696417709,  -0.0015487924)
 A3 = ( -12.5908445311,   7.2693275328, -14.1375299208)

Analysis of symmetry for initial positions (statically):
 Subroutine PRICEL returns:
[...]
   -.274E+02 0.163E+02 -.352E+03   0.300E+02 -.178E+02 0.375E+03   -.262E+01 0.157E+01 -.224E+02   0.191E-02 0.384E-02 -.596E-01
   0.278E+02 -.156E+02 0.352E+03   -.304E+02 0.170E+02 -.375E+03   0.267E+01 -.149E+01 0.224E+02   0.237E-02 0.358E-02 0.596E-01
   0.135E+01 -.475E+02 -.345E+03   -.160E+01 0.510E+02 0.367E+03   0.294E+00 -.345E+01 -.225E+02   -.496E-01 -.341E-01 0.152E-01
   -.772E+01 0.255E+02 0.345E+03   0.844E+01 -.286E+02 -.367E+03   -.713E+00 0.303E+01 0.220E+02   -.201E-02 0.176E-01 -.988E-02
   0.260E+02 0.607E+01 -.345E+03   -.289E+02 -.697E+01 0.367E+03   0.298E+01 0.895E+00 -.220E+02   0.163E-01 0.708E-02 0.988E-02
   -.418E+02 -.226E+02 0.345E+03   0.449E+02 0.241E+02 -.367E+03   -.314E+01 -.147E+01 0.225E+02   -.474E-02 -.600E-01 -.152E-01
   -.698E+00 -.319E+02 -.351E+03   0.606E+00 0.349E+02 0.373E+03   0.910E-01 -.297E+01 -.224E+02   0.289E-02 -.168E-01 -.616E-01
   -.332E+02 -.202E+02 0.354E+03   0.355E+02 0.216E+02 -.376E+03   -.229E+01 -.137E+01 0.223E+02   0.514E-01 -.130E-01 0.485E-01
[...]
   -.271E+02 0.549E+01 -.347E+03   0.300E+02 -.640E+01 0.369E+03   -.295E+01 0.894E+00 -.222E+02   -.280E-01 0.107E-01 0.204E-01
   0.851E+01 -.141E+02 0.374E+03   -.930E+01 0.139E+02 -.400E+03   0.804E+00 0.192E+00 0.269E+02   -.141E-01 -.166E-01 -.428E-01
   -.982E+01 -.727E+01 -.389E+03   0.969E+01 0.718E+01 0.415E+03   0.136E+00 0.997E-01 -.264E+02   0.940E-02 -.471E-02 -.878E-01
   -.139E+01 -.121E+02 0.389E+03   0.138E+01 0.120E+02 -.415E+03   0.184E-01 0.167E+00 0.264E+02   -.878E-02 0.578E-02 0.878E-01
   0.992E+01 -.467E+01 -.368E+03   -.972E+01 0.449E+01 0.395E+03   -.206E+00 0.175E+00 -.268E+02   -.273E-02 0.616E-02 0.435E-01
   -.242E+02 -.151E+02 0.342E+03   0.267E+02 0.165E+02 -.364E+03   -.252E+01 -.141E+01 0.218E+02   0.645E-02 0.702E-03 0.569E-02
   -.100E+01 -.285E+02 -.342E+03   0.967E+00 0.314E+02 0.364E+03   0.402E-01 -.289E+01 -.218E+02   -.262E-02 0.594E-02 -.569E-02
   -.901E+01 0.626E+01 0.368E+03   0.875E+01 -.617E+01 -.395E+03   0.255E+00 -.906E-01 0.268E+02   0.670E-02 0.716E-03 -.435E-01
   -.362E+02 0.201E+02 -.355E+03   0.387E+02 -.215E+02 0.377E+03   -.250E+01 0.140E+01 -.223E+02   0.189E-01 -.386E-01 -.413E-01
   -.102E+02 0.587E+01 0.380E+03   0.996E+01 -.570E+01 -.407E+03   0.211E+00 -.170E+00 0.268E+02   0.231E-01 -.137E-02 0.895E-01
   -.792E+01 0.144E+02 -.374E+03   0.868E+01 -.143E+02 0.401E+03   -.784E+00 -.155E+00 -.269E+02   0.178E-01 0.251E-01 0.354E-01
   0.933E+00 0.383E+02 0.346E+03   -.129E+01 -.418E+02 -.369E+03   0.321E+00 0.353E+01 0.222E+02   0.406E-01 -.291E-01 -.394E-01
   0.181E+02 0.193E+02 -.345E+03   -.199E+02 -.209E+02 0.367E+03   0.180E+01 0.160E+01 -.221E+02   0.143E-01 -.260E-01 0.712E-02
   -.263E+02 -.683E+01 0.344E+03   0.285E+02 0.753E+01 -.367E+03   -.223E+01 -.710E+00 0.225E+02   0.284E-02 0.135E-01 -.292E-01
   -.297E-01 -.537E-01 0.361E-03   -.391E-12 0.398E-12 0.227E-12   0.345E-01 0.598E-01 0.355E-14   -.148E-02 -.257E-02 -.356E-07

 POSITION                                       TOTAL-FORCE (eV/Angst)
      4.19701      7.25193      7.06880         0.000242     -0.014387     -0.003071
      1.40436      0.81431     11.78609         0.006014      0.002009     -0.005382
     -0.01555      1.63443      2.34845        -0.012760      0.013334     -0.006348
     -0.01787      4.83976      7.07234        -0.012581     -0.006984      0.003071
      1.41995      5.65128     11.79269         0.017927     -0.004384      0.006348
     -0.00024      6.47090      2.35505        -0.001267      0.006213      0.005382
      4.19268      2.41771      7.06980         0.001560      0.002702     -0.000000
      4.18697      7.26055     14.12928        -0.000007     -0.007132      0.003177
      1.41100      0.80727      4.70653         0.004764      0.003765     -0.008344
     -0.00727      1.62690      9.42096        -0.008436      0.004851      0.011770
      6.98787      2.42706     14.09340        -0.003925      0.002551      0.013728
     -0.00206      3.22979      4.71025        -0.000021      0.000280     -0.008703
     -1.40664      4.03673      9.46701        -0.001485      0.000249      0.000338
     -2.79683      4.85018      0.00103         0.000367      0.000636      0.000000
     -1.41326      5.65516      4.71975        -0.012045     -0.006965     -0.013932
     -2.79408      6.45238      9.42295        -0.000009     -0.013914      0.013932
     -1.40105      7.26774      0.00103        -0.000496     -0.000859      0.000000
      4.19676      0.80844      4.71765        -0.000357      0.002046     -0.007191
      2.79697      1.61662      9.42195         0.001950      0.000713      0.007191
      1.40047      2.43544     14.12903         0.006062      0.005028      0.003663
      2.78856      3.23295      4.67520        -0.003488      0.001215      0.003356
      1.40406      4.02858      9.43261         0.005497     -0.005418      0.007393
     -0.00539      4.83537      0.01187        -0.006173     -0.003572     -0.003177
      1.40929      5.65468      4.72018         0.008419     -0.004881     -0.011770
     -0.00966      6.47313      9.43461         0.000879      0.006008      0.008344
      5.60413      0.00845      0.01056         0.001323      0.007764     -0.003663
      6.98204      0.80813      4.70699        -0.007440      0.002052     -0.007393
      5.60076      1.60932      9.46440         0.002796     -0.002413     -0.003356
      4.19561      2.41980     -0.00052         0.000363      0.000629      0.000000
      5.60245      3.23317      4.67563         0.002067      0.003606      0.004716
      4.19400      4.04634      9.46396         0.002089      0.003593     -0.004716
      2.80317      4.84309      0.04619         0.004172     -0.002123     -0.013728
      4.19595      5.64771      4.67414         0.000958     -0.001161     -0.000338
      2.79483      6.46064      9.43089         0.000253      0.000121      0.008703
      0.03038      0.01744     10.38539         0.005165      0.000805      0.012766
     -0.00151      0.03494      3.73974        -0.001421      0.000983     -0.010935
      1.36396      0.82644      0.95293         0.000799      0.000873      0.005516
      1.37574      0.79551      8.45151        -0.002227     -0.002901     -0.002146
     -0.00218      1.58384      5.67070         0.000606     -0.006837     -0.000879
      0.02349      1.60182     13.15480         0.000515      0.000256     -0.006575
     -1.39276      2.41741     10.39228        -0.004149      0.001030     -0.006477
     -1.37273      2.40734      3.74179        -0.001880     -0.001102     -0.004209
     -0.00956      3.19910      0.94675         0.003825      0.000630      0.000029
     -0.00919      3.26238      8.47813         0.005719      0.001290      0.002426
     -1.38824      4.04772      5.66930         0.004997      0.005594     -0.000983
     -1.40163      4.05171     13.18483         0.000497     -0.001885      0.008759
     -2.80240      4.85694     10.39357        -0.000085     -0.005294     -0.005406
     -2.79079      4.85023      3.74912        -0.004542     -0.002720      0.005406
     -1.37928      5.66372      0.96227         0.003055      0.002816      0.001159
     -1.38104      5.63371      8.47880         0.003883      0.002273      0.003492
     -2.82877      6.46955      5.66390         0.000028      0.004499     -0.003492
     -2.80366      6.48609     13.18042         0.000911      0.004053     -0.001159
      2.76944      0.01815     10.38934        -0.001100      0.000127      0.005502
     -1.37228      7.25501      3.75180         0.000660     -0.000889     -0.005502
      4.19820      0.78203      0.96003        -0.000146     -0.004694      0.003024
      4.20356      0.84100      8.47404        -0.001703     -0.000719      0.003208
      2.82176      1.63878      5.66556         0.000228     -0.001834     -0.003208
      2.77338      1.60465     13.17956        -0.003992     -0.002473     -0.003024
      1.39917      2.39367     10.38842         0.001732     -0.001837      0.004713
      1.36977      2.40544      3.74002        -0.000220      0.000063     -0.004729
[...]
      7.00734      0.79819      8.47327         0.006000     -0.005145     -0.000208
      5.57128      1.63982      5.66739        -0.002481     -0.003356     -0.001307
      5.58510      1.61059     13.18476         0.003019      0.002080      0.008274
      4.18724      2.41791     10.38901         0.007209      0.003084      0.002848
      4.19557      2.41310      3.75059        -0.000934      0.007786     -0.002848
      5.60769      3.22608      0.91781        -0.002076      0.002546     -0.000666
      5.57139      3.21728      8.50528        -0.005555     -0.002183     -0.010941
      4.19577      4.01150      5.63432         0.000887     -0.005902      0.010941
      4.18524      4.04733     13.22178         0.003243     -0.000525      0.000666
      2.76790      4.86238     10.39935        -0.000014     -0.002179      0.004209
      2.78664      4.85007      3.74886         0.002967     -0.003078      0.006477
      4.20642      5.65953      0.95631        -0.001881     -0.000512     -0.008759
      4.19627      5.66914      8.47184         0.002346      0.007124      0.000983
      2.82662      6.47077      5.66302        -0.001743      0.005598     -0.002426
      2.77200      6.43880     13.19440        -0.001367      0.003627     -0.000029
    total drift:                                0.003369      0.003570      0.000361

  FREE ENERGIE OF THE ION-ELECTRON SYSTEM (eV)
  free  energy   TOTEN  =      -545.4279439874 eV

  energy  without entropy=     -545.3971889702  energy(sigma->0) =     -545.41256648

 Quasi-Newton relaxation of ions (Broydens 2nd method)
  g(Force)  = 0.332E-03   g(Stress)= 0.164E-03

 Reset! Starting new Quasi-Newton update for ions

 reached required accuracy - stopping structural energy minimisation

volume of typ            1:     6.3 %

[...]

volume of typ            3:    10.2 %

total charge

# of ion       s       p       d       tot
    1        2.067   0.221   0.086   2.375
    2        2.070   0.228   0.089   2.388
    3        2.071   0.228   0.089   2.388
    4        2.067   0.221   0.086   2.375
    5        2.071   0.228   0.089   2.388
    6        2.070   0.228   0.089   2.388
    7        2.068   0.217   0.084   2.369
    8        0.297   0.413   7.831   8.541
    9        0.291   0.402   7.835   8.527
   10        0.296   0.411   7.832   8.539
   11        0.296   0.411   7.826   8.533
   12        0.290   0.401   7.838   8.529
   13        0.291   0.401   7.828   8.519
   14        0.292   0.403   7.821   8.516
   15        0.296   0.413   7.832   8.541
   16        0.296   0.413   7.832   8.541
   17        0.290   0.400   7.836   8.525
   18        0.297   0.413   7.833   8.542
   19        0.297   0.413   7.833   8.542
   20        0.296   0.413   7.833   8.542
   21        0.292   0.402   7.827   8.521
   22        0.292   0.403   7.835   8.530
   23        0.297   0.413   7.831   8.541
   24        0.296   0.411   7.832   8.539
   25        0.291   0.402   7.835   8.527
   26        0.296   0.413   7.833   8.542
   27        0.292   0.403   7.835   8.530
   28        0.292   0.402   7.827   8.521
   29        0.291   0.401   7.822   8.514
   30        0.292   0.402   7.827   8.521
   31        0.292   0.402   7.827   8.521
   32        0.296   0.411   7.826   8.533
   33        0.291   0.401   7.828   8.520
   34        0.290   0.401   7.838   8.529
   35        1.278   2.743   0.007   4.029
   36        1.279   2.741   0.007   4.027
   37        1.279   2.742   0.007   4.028
   38        1.276   2.749   0.007   4.032
   39        1.278   2.743   0.007   4.029
   40        1.276   2.749   0.007   4.032
   41        1.286   2.723   0.008   4.016
   42        1.275   2.755   0.007   4.037
   43        1.275   2.755   0.007   4.037
   44        1.275   2.754   0.007   4.036
   45        1.275   2.753   0.007   4.035
   46        1.286   2.721   0.008   4.015
   47        1.286   2.722   0.008   4.016
   48        1.286   2.722   0.008   4.016
   49        1.275   2.752   0.007   4.035
   50        1.275   2.754   0.007   4.036
   51        1.275   2.754   0.007   4.036
   52        1.275   2.752   0.007   4.035
   53        1.275   2.754   0.007   4.036
   54        1.275   2.754   0.007   4.036
   55        1.275   2.753   0.007   4.035
   56        1.275   2.753   0.007   4.036
   57        1.275   2.753   0.007   4.036
   58        1.275   2.753   0.007   4.035
   59        1.275   2.754   0.007   4.036
   60        1.275   2.753   0.007   4.036
[...]
   74        1.275   2.751   0.007   4.034
   75        1.275   2.752   0.007   4.035
   76        1.286   2.722   0.008   4.016
   77        1.289   2.712   0.008   4.008
   78        1.289   2.712   0.008   4.008
   79        1.288   2.715   0.008   4.012
   80        1.278   2.744   0.007   4.030
   81        1.278   2.744   0.007   4.030
   82        1.288   2.715   0.008   4.012
   83        1.275   2.755   0.007   4.037
   84        1.286   2.723   0.008   4.016
   85        1.286   2.721   0.008   4.016
   86        1.275   2.753   0.007   4.035
   87        1.275   2.754   0.007   4.036
   88        1.275   2.755   0.007   4.037
tot          91.44  160.69  212.45  464.57

magnetization (x)

# of ion       s       p       d       tot
    1        0.003   0.005  -0.000   0.008
    2        0.004   0.004  -0.000   0.008
    3        0.001   0.004  -0.000   0.005
    4        0.003   0.005  -0.000   0.008
    5        0.001   0.004  -0.000   0.005
    6        0.004   0.004  -0.000   0.008
    7        0.003   0.005  -0.000   0.008
    8        0.000  -0.000   0.122   0.122
    9       -0.000  -0.000   0.212   0.212
   10       -0.000  -0.000   0.154   0.154
   11       -0.000  -0.000   0.103   0.103
   12       -0.000  -0.000   0.209   0.208
   13       -0.000  -0.000   0.111   0.111
   14       -0.000  -0.000   0.095   0.095
   15       -0.000  -0.000   0.137   0.137
   16       -0.000  -0.000   0.137   0.137
   17       -0.000   0.000  -0.000  -0.000
   18       -0.000  -0.000   0.122   0.122
   19       -0.000  -0.000   0.122   0.122
   20       -0.000  -0.000   0.079   0.079
   21       -0.000  -0.000   0.107   0.107
   22       -0.000  -0.000   0.161   0.161
   23        0.000  -0.000   0.122   0.122
   24       -0.000  -0.000   0.154   0.154
   25       -0.000  -0.000   0.212   0.212
   26       -0.000  -0.000   0.079   0.079
   27       -0.000  -0.000   0.161   0.161
   28       -0.000  -0.000   0.107   0.107
   29       -0.000  -0.000   0.142   0.142
   30       -0.000  -0.000   0.152   0.152
   31       -0.000  -0.000   0.152   0.152
   32       -0.000  -0.000   0.103   0.103
   33       -0.000  -0.000   0.111   0.111
   34       -0.000  -0.000   0.209   0.208
   35        0.005   0.027   0.000   0.032
   36        0.003   0.017   0.000   0.020
   37       -0.000  -0.011   0.000  -0.011
   38        0.003   0.005   0.000   0.008
   39        0.006   0.033   0.000   0.039
   40        0.002   0.006   0.000   0.008
   41        0.003   0.018   0.000   0.021
   42        0.004   0.018   0.000   0.022
   43        0.003   0.011   0.000   0.014
   44        0.004   0.009   0.000   0.013
   45        0.004   0.014   0.000   0.018
   46        0.003   0.015   0.000   0.017
   47        0.003   0.014   0.000   0.017
   48        0.003   0.014   0.000   0.017
   49        0.002   0.005   0.000   0.008
   50        0.004   0.012   0.000   0.016
   51        0.004   0.012   0.000   0.016
   52        0.002   0.005   0.000   0.008
   53        0.004   0.014   0.000   0.018
   54        0.004   0.014   0.000   0.018
   55        0.003   0.009   0.000   0.012
   56        0.004   0.016   0.000   0.020
   57        0.004   0.016   0.000   0.020
   58        0.003   0.009   0.000   0.012
   59        0.004   0.015   0.000   0.019
   60        0.004   0.015   0.000   0.019
[...]
   74        0.003   0.007   0.000   0.011
   75        0.003   0.007   0.000   0.010
   76        0.002   0.010   0.000   0.013
   77        0.002   0.013   0.000   0.015
   78        0.002   0.013   0.000   0.015
   79        0.002   0.015   0.000   0.018
   80        0.003   0.010   0.000   0.013
   81        0.003   0.010   0.000   0.013
   82        0.002   0.015   0.000   0.018
   83        0.004   0.018   0.000   0.022
   84        0.003   0.018   0.000   0.021
   85        0.003   0.015   0.000   0.017
   86        0.004   0.014   0.000   0.018
   87        0.004   0.009   0.000   0.013
   88        0.003   0.011   0.000   0.014
tot           0.19    0.69    3.58    4.46