 vasp.5.4.4.18Apr17-6-g9f103f2a35 (build May 12 2020 05:39:39) gamma-only

 MD_VERSION_INFO: Compiled 2020-05-12T12:39:39-UTC in devlin.sd.materialsdesign.
 com:/home/medea2/data/build/wwolf/vasp-gpu5.4.4/13047/x86_64/src/src/build/gam
 from svn 13047

 executed on                        Lin64 date 2023.01.19  20:37:11

 INCAR:
 POTCAR:    PAW_PBE Li_sv 10Sep2004
 POTCAR:    PAW_PBE Ni 02Aug2007
 POTCAR:    PAW_PBE O 08Apr2002

 POTCAR:    PAW_PBE Li_sv 10Sep2004

 POTCAR:    PAW_PBE Ni 02Aug2007

 POTCAR:    PAW_PBE O 08Apr2002

 Optimization of the real space projectors (new method)

 maximal supplied QI-value         = 22.11
 optimisation between [QCUT,QGAM] = [ 11.28, 22.77] = [ 35.61,145.23] Ry
 Optimized for a Real-space Cutoff    1.10 Angstroem

   l    n(q)    QCUT    max X(q) W(low)/X(q) W(high)/X(q)  e(spline)
   0      7    11.276    10.506    0.54E-04    0.58E-04    0.16E-07
   0      7    11.276     8.367    0.11E-03    0.14E-03    0.35E-07
   1      7    11.276     8.983    0.23E-03    0.43E-03    0.86E-07
 Optimization of the real space projectors (new method)

[...]

   l    n(q)    QCUT    max X(q) W(low)/X(q) W(high)/X(q)  e(spline)
   2      9    11.376    60.317    0.17E-03    0.16E-04    0.16E-06
   2      9    11.376    55.921    0.17E-03    0.16E-04    0.17E-06
   0     10    11.376    51.690    0.45E-04    0.60E-04    0.21E-06
   0     10    11.376    30.015    0.37E-04    0.55E-04    0.19E-06
   1     10    11.376    18.849    0.83E-04    0.11E-03    0.92E-07
   1     10    11.376    14.624    0.69E-04    0.92E-04    0.82E-07
 Optimization of the real space projectors (new method)

 maximal supplied QI-value         = 24.76
 optimisation between [QCUT,QGAM] = [ 11.39, 22.77] = [ 36.31,145.25] Ry
 Optimized for a Real-space Cutoff    1.10 Angstroem

   l    n(q)    QCUT    max X(q) W(low)/X(q) W(high)/X(q)  e(spline)
   0      7    11.387    20.381    0.22E-03    0.48E-03    0.18E-06
   0      7    11.387    15.268    0.22E-03    0.52E-03    0.19E-06
   1      7    11.387     5.964    0.22E-03    0.73E-03    0.24E-06
   1      7    11.387     5.382    0.19E-03    0.60E-03    0.21E-06

  PAW_PBE Li_sv 10Sep2004               :
  PAW_PBE Ni 02Aug2007                  :
  PAW_PBE O 08Apr2002                   :

 POSCAR: ce346166_1
  positions in direct lattice
 exchange correlation table for  LEXCH =       14
   RHO(1)=    0.500       N(1)  =     2000
   RHO(2)=  100.500       N(2)  =     4000

 ion  position               nearest neighbor table
   1  0.999  0.499  0.998-  45 2.10  44 2.10  93 2.10  92 2.12  57 2.12  80 2.12
   2  0.131  0.833  0.224-  46 1.99  65 2.01  41 2.14  64 2.15  59 2.22  58 2.25  16 2.79  26 2.81

   3  0.224  0.166  0.134-  66 2.01  43 2.01  49 2.10  42 2.13  79 2.23  48 2.26  15 2.77  26 2.78

[...]

  12  0.645  0.500  0.645-  68 2.01  69 2.01  74 2.15  87 2.16  93 2.22  92 2.24  28 2.81  27 2.81

  13  0.890  0.166  0.778-  73 2.09  42 2.09  91 2.11  79 2.11  90 2.13  78 2.13
  14  0.999  0.998  0.002-  46 1.86  79 1.87  43 1.89  91 1.90  58 1.90  94 1.91  20 2.77  38 2.81
                            23 2.82  26 2.82  32 2.83  17 2.83
  15  0.113  0.332  0.221-  66 1.86  57 1.87  63 1.89  60 1.93  42 1.93  45 1.94   3 2.77  27 2.80
                            39 2.80  18 2.81  21 2.82  33 2.83  24 2.84
  16  0.222  0.667  0.112-  65 1.87  50 1.87  41 1.88  80 1.88  47 1.91  44 1.92   2 2.79  28 2.80
                            40 2.80  25 2.81  19 2.82  34 2.82  22 2.83
  17  0.333  0.999  0.998-  82 1.85  49 1.87  79 1.91  52 1.91  46 1.98  85 2.01  32 2.78  29 2.80
                            35 2.82  14 2.83  26 2.84  20 2.84
  18  0.446  0.335  0.225-  51 1.87  66 1.87  48 1.88  69 1.89  72 1.93  45 1.93  30 2.78  15 2.81
                            27 2.81  36 2.82  21 2.83  33 2.85
  19  0.556  0.666  0.114-  50 1.87  86 1.88  47 1.88  53 1.88  56 1.90  71 1.91  28 2.79   4 2.80
                            31 2.80  22 2.81  16 2.82  37 2.83  34 2.83
  20  0.670  0.002  0.999-  85 1.87  52 1.87  88 1.88  91 1.89  58 1.90  55 1.92  14 2.77  23 2.80
                            38 2.81  35 2.83  29 2.84  17 2.84
  21  0.779  0.335  0.221-  75 1.86  72 1.87  60 1.89  54 1.90  57 1.90  51 1.91  39 2.77  36 2.81
                            15 2.82  24 2.82  18 2.83  30 2.83
  22  0.886  0.667  0.108-  59 1.87  44 1.87  41 1.88  56 1.88  53 1.90  92 1.90  37 2.77  40 2.81
                            19 2.81  31 2.83  16 2.83  25 2.83
  23  0.999  0.001  0.335-  61 1.86  58 1.87  64 1.89  43 1.93  55 1.93  76 1.94   9 2.77  35 2.80
                            20 2.80  32 2.81  14 2.82  29 2.83  26 2.84
  24  0.113  0.333  0.557-  75 1.86  60 1.88  63 1.88  84 1.89  81 1.90  78 1.92   9 2.78  33 2.79
                            36 2.80  27 2.80   7 2.81  21 2.82  30 2.84  15 2.84
  25  0.222  0.667  0.444-  65 1.86  62 1.86  83 1.93  68 1.93  59 1.95  44 1.95  16 2.81  31 2.81
                            34 2.82  28 2.82  37 2.83  22 2.83
  26  0.335  0.000  0.335-  46 1.86  43 1.88  64 1.88  67 1.89  70 1.90  49 1.92   3 2.78  29 2.79
                            38 2.80  35 2.80   2 2.81  14 2.82  17 2.84  23 2.84
  27  0.443  0.332  0.555-  69 1.88  84 1.88  87 1.89  63 1.89  90 1.91  66 1.91  11 2.76  24 2.80
                            15 2.80  18 2.81  12 2.81  30 2.82  36 2.83  39 2.83
  28  0.555  0.668  0.443-  68 1.87  89 1.87  74 1.89  50 1.90  65 1.91  71 1.91  19 2.79  16 2.80
                            12 2.81  31 2.82  25 2.82  40 2.83  37 2.83
  29  0.663  0.001  0.332-  70 1.86  55 1.88  76 1.88  49 1.90  73 1.94  52 1.94  26 2.79  17 2.80
                            38 2.81  23 2.83  20 2.84  32 2.85
  30  0.776  0.334  0.555-  69 1.85  78 1.87  72 1.91  93 1.91  75 1.98  90 2.01  18 2.78  33 2.80
                            27 2.82  21 2.83  24 2.84  39 2.84
  31  0.890  0.667  0.445-  62 1.87  77 1.87  56 1.88  71 1.88  74 1.91  59 1.92   7 2.79  34 2.80
                            19 2.80  25 2.81  40 2.82  28 2.82  22 2.83
  32  0.002  0.998  0.669-  94 1.87  61 1.87  73 1.88  82 1.89  79 1.93  76 1.93  17 2.78  23 2.81
                            35 2.81  38 2.82  14 2.83  29 2.85
  33  0.110  0.332  0.885-  81 1.86  42 1.88  45 1.88  78 1.90  48 1.94  93 1.94  24 2.79  30 2.80
                            36 2.81  15 2.83  39 2.84  18 2.85
  34  0.221  0.665  0.777-  83 1.87  86 1.87  47 1.89  77 1.90  62 1.91  80 1.91  40 2.79  31 2.80
                            10 2.81  16 2.82  25 2.82  19 2.83  37 2.83
  35  0.333  0.001  0.665-  82 1.88  67 1.88  88 1.89  64 1.89  85 1.91  61 1.91  11 2.76  26 2.80
                            23 2.80  32 2.81  10 2.81  17 2.82  38 2.83  20 2.83
  36  0.444  0.334  0.890-  81 1.87  54 1.88  51 1.88  84 1.88  87 1.91  48 1.92   4 2.79  24 2.80
                            33 2.81  39 2.81  21 2.81  18 2.82  27 2.83
  37  0.557  0.667  0.779-  68 1.87  83 1.87  53 1.91  92 1.91  89 1.94  86 1.94  22 2.77  19 2.83
                            40 2.83  25 2.83  28 2.83  34 2.83
  38  0.668  0.999  0.666-  70 1.87  91 1.88  94 1.88  67 1.88  88 1.91  73 1.92   8 2.79  26 2.80
                            29 2.81  20 2.81  14 2.81  32 2.82  35 2.83
  39  0.777  0.332  0.892-  90 1.87  93 1.87  87 1.88  54 1.89  57 1.90  42 1.92  21 2.77  15 2.80
                            36 2.81  27 2.83  33 2.84  30 2.84
  40  0.891  0.667  0.779-  77 1.87  89 1.88  74 1.88  92 1.88  41 1.90  80 1.91  34 2.79   8 2.80
                            16 2.80  22 2.81  31 2.82  37 2.83  28 2.83
  41  0.001  0.734  0.004-  16 1.88  22 1.88  40 1.90   2 2.14
  42  0.003  0.262  0.995-  33 1.88  39 1.92  15 1.93  13 2.09   3 2.13
  43  0.114  0.068  0.221-  26 1.88  14 1.89  23 1.93   3 2.01
  44  0.102  0.596  0.215-  22 1.87  16 1.92  25 1.95   1 2.10   7 2.22
  45  0.218  0.403  0.102-  33 1.88  18 1.93  15 1.94   1 2.10   4 2.21
  46  0.218  0.931  0.119-  14 1.86  26 1.86  17 1.98   2 1.99
  47  0.336  0.734  0.999-  19 1.88  34 1.89  16 1.91  10 2.15
  48  0.340  0.263  0.008-  18 1.88  36 1.92  33 1.94   5 2.09   3 2.26
  49  0.439  0.070  0.215-  17 1.87  29 1.90  26 1.92   3 2.10   5 2.13
  50  0.443  0.600  0.220-  19 1.87  16 1.87  28 1.90   4 2.14
  51  0.552  0.402  0.111-  18 1.87  36 1.88  21 1.91   4 2.02
  52  0.558  0.931  0.103-  20 1.87  17 1.91  29 1.94   6 2.10  10 2.22
  53  0.663  0.736  0.003-  19 1.88  22 1.90  37 1.91   6 2.12  10 2.24
  54  0.662  0.265  0.000-  36 1.88  39 1.89  21 1.90   5 2.11  11 2.28
  55  0.772  0.071  0.225-  29 1.88  20 1.92  23 1.93   5 2.09   9 2.13
  56  0.781  0.599  0.224-  31 1.88  22 1.88  19 1.90   7 2.14
  57  0.896  0.402  0.113-  15 1.87  39 1.90  21 1.90   1 2.12   7 2.25
  58  0.890  0.931  0.118-  23 1.87  20 1.90  14 1.90   6 2.12   2 2.25
  59  0.993  0.737  0.324-  22 1.87  31 1.92  25 1.95   6 2.10   2 2.22
  60  0.999  0.266  0.336-  24 1.88  21 1.89  15 1.93   9 2.01
  61  0.106  0.067  0.555-  23 1.86  32 1.87  35 1.91   9 2.01
  62  0.110  0.600  0.550-  25 1.86  31 1.87  34 1.91   7 2.01
  63  0.220  0.400  0.443-  24 1.88  15 1.89  27 1.89   7 2.15
  64  0.221  0.934  0.443-  26 1.88  23 1.89  35 1.89   2 2.15
  65  0.328  0.734  0.332-  25 1.86  16 1.87  28 1.91   2 2.01
  66  0.333  0.266  0.328-  15 1.86  18 1.87  27 1.91   3 2.01
  67  0.447  0.068  0.558-  35 1.88  38 1.88  26 1.89  11 2.00
  68  0.452  0.601  0.558-  37 1.87  28 1.87  25 1.93  12 2.01
  69  0.558  0.400  0.451-  30 1.85  27 1.88  18 1.89  12 2.01
  70  0.560  0.933  0.445-  29 1.86  38 1.87  26 1.90   8 2.14
  71  0.672  0.737  0.336-  31 1.88  19 1.91  28 1.91   6 2.12   8 2.22
  72  0.672  0.265  0.330-  21 1.87  30 1.91  18 1.93   5 2.11   9 2.23
  73  0.786  0.070  0.562-  32 1.88  38 1.92  29 1.94  13 2.09   9 2.26
  74  0.777  0.600  0.558-  40 1.88  28 1.89  31 1.91  12 2.15
  75  0.897  0.402  0.440-  21 1.86  24 1.86  30 1.98   7 1.99
  76  0.879  0.930  0.440-  29 1.88  32 1.93  23 1.94   6 2.10   8 2.21
  77  0.998  0.734  0.665-  40 1.87  31 1.87  34 1.90   8 2.14
  78  0.993  0.264  0.661-  30 1.87  33 1.90  24 1.92   9 2.10  13 2.13
  79  0.108  0.068  0.895-  14 1.87  17 1.91  32 1.93  13 2.11   3 2.23
  80  0.114  0.597  0.894-  16 1.88  40 1.91  34 1.91   1 2.12   4 2.22
  81  0.223  0.400  0.782-  33 1.86  36 1.87  24 1.90   4 2.14
  82  0.229  0.933  0.780-  17 1.85  35 1.88  32 1.89  10 2.01
  83  0.336  0.733  0.674-  37 1.87  34 1.87  25 1.93  10 2.01
  84  0.336  0.266  0.669-  27 1.88  36 1.88  24 1.89  11 2.00
  85  0.455  0.073  0.886-  20 1.87  35 1.91  17 2.01  11 2.05   5 2.13
  86  0.442  0.598  0.893-  34 1.87  19 1.88  37 1.94   4 2.02
  87  0.557  0.400  0.777-  39 1.88  27 1.89  36 1.91  12 2.16
  88  0.554  0.933  0.779-  20 1.88  35 1.89  38 1.91  10 2.16
  89  0.671  0.735  0.664-  28 1.87  40 1.88  37 1.94   8 2.02
  90  0.664  0.261  0.677-  39 1.87  27 1.91  30 2.01  11 2.05  13 2.13
  91  0.778  0.069  0.885-  38 1.88  20 1.89  14 1.90  13 2.11  11 2.28
  92  0.781  0.597  0.886-  40 1.88  22 1.90  37 1.91   1 2.12  12 2.24
  93  0.881  0.402  0.781-  39 1.87  30 1.91  33 1.94   1 2.10  12 2.22
  94  0.889  0.931  0.774-  32 1.87  38 1.88  14 1.91   8 2.02

  LATTYP: Found a base centered monoclinic cell.
[...]
   0.251E+02 -.234E+02 -.311E+03   -.272E+02 0.246E+02 0.328E+03   0.214E+01 -.116E+01 -.164E+02   0.234E-01 -.108E-01 0.330E-02
   -.967E+01 0.322E+02 0.355E+03   0.935E+01 -.347E+02 -.377E+03   0.320E+00 0.250E+01 0.221E+02   0.195E-02 0.117E-01 0.109E-01
   -.966E+01 0.246E+02 -.338E+03   0.103E+02 -.266E+02 0.357E+03   -.691E+00 0.193E+01 -.189E+02   0.964E-02 0.249E-02 0.182E-01
   0.262E+02 0.396E+01 0.338E+03   -.282E+02 -.433E+01 -.357E+03   0.202E+01 0.369E+00 0.189E+02   -.266E-02 0.959E-02 -.182E-01
   -.410E+02 -.401E+02 -.324E+03   0.441E+02 0.426E+02 0.340E+03   -.312E+01 -.249E+01 -.161E+02   -.825E-03 -.121E-01 -.138E-01
   0.379E+02 -.307E+02 0.335E+03   -.426E+02 0.332E+02 -.353E+03   0.469E+01 -.250E+01 0.181E+02   0.555E-02 -.970E-02 -.212E-02
[...]
   0.381E+02 0.190E+02 -.364E+03   -.403E+02 -.209E+02 0.387E+03   0.222E+01 0.189E+01 -.224E+02   0.165E-01 -.525E-02 -.175E-02
   0.520E+01 0.280E+02 0.358E+03   -.583E+01 -.306E+02 -.379E+03   0.596E+00 0.262E+01 0.210E+02   0.256E-01 0.161E-01 0.467E-02
   0.396E+02 0.212E+02 -.333E+03   -.435E+02 -.232E+02 0.351E+03   0.390E+01 0.197E+01 -.186E+02   0.534E-03 0.435E-02 0.196E-02
   0.651E+01 0.389E+02 0.325E+03   -.617E+01 -.414E+02 -.346E+03   -.351E+00 0.256E+01 0.206E+02   0.964E-02 0.430E-02 -.193E-02
   -.142E+02 0.526E+02 -.307E+03   0.169E+02 -.568E+02 0.322E+03   -.272E+01 0.422E+01 -.154E+02   0.209E-01 -.253E-01 -.140E-02
   0.567E+02 -.211E+02 0.345E+03   -.626E+02 0.242E+02 -.364E+03   0.596E+01 -.310E+01 0.187E+02   -.640E-03 0.579E-02 -.138E-02
   -.209E+02 0.249E+02 -.375E+03   0.235E+02 -.260E+02 0.395E+03   -.260E+01 0.107E+01 -.197E+02   -.140E-03 -.123E-01 0.122E-01
   0.321E+02 -.565E+01 0.375E+03   -.343E+02 0.737E+01 -.395E+03   0.223E+01 -.172E+01 0.197E+02   -.105E-01 -.625E-02 -.122E-01
   -.466E+02 0.385E+02 -.345E+03   0.523E+02 -.421E+02 0.364E+03   -.566E+01 0.361E+01 -.187E+02   0.533E-02 0.234E-02 0.138E-02
   0.527E+02 0.139E+02 0.307E+03   -.576E+02 -.137E+02 -.322E+03   0.501E+01 -.247E+00 0.154E+02   -.323E-01 0.545E-02 0.140E-02
   -.259E+02 -.125E+02 -.310E+03   0.281E+02 0.130E+02 0.329E+03   -.217E+01 -.579E+00 -.190E+02   -.184E-01 0.708E-02 0.415E-02
   -.135E+02 0.338E+02 0.322E+03   0.144E+02 -.356E+02 -.341E+03   -.823E+00 0.173E+01 0.193E+02   0.921E-02 0.389E-02 0.700E-02
   0.376E+02 -.928E+01 -.341E+03   -.398E+02 0.108E+02 0.357E+03   0.217E+01 -.148E+01 -.160E+02   -.363E-01 0.752E-02 -.354E-02
   -.279E+02 -.211E+02 0.369E+03   0.304E+02 0.230E+02 -.390E+03   -.249E+01 -.186E+01 0.207E+02   0.254E-02 -.899E-03 -.589E-02
   0.950E-01 0.167E+00 -.198E-02   0.338E-12 0.295E-12 0.114E-12   -.881E-01 -.153E+00 -.306E-11   -.885E-02 -.153E-01 -.115E-06

 POSITION                                       TOTAL-FORCE (eV/Angst)
      4.16966      7.28555      7.13871        -0.000617     -0.000409     -0.004251
      1.33150      0.97217     11.92323         0.013860      0.006043      0.004687
      0.18986      1.62946      2.38114         0.005544      0.002680      0.005940
     -1.48910      2.58070      7.15314         0.011475      0.000327     -0.002817
     -1.43514      4.06577      2.39941        -0.007131      0.003289     -0.003646
     -1.45798      5.67922     11.96150        -0.000046     -0.000739      0.004251
      2.95550      0.03455      7.15581        -0.001697      0.015025     -0.004687
      1.50183      5.70934     11.94708        -0.005455      0.010101      0.002817
     -0.12612      6.66734      2.40274        -0.000451      0.006141     -0.005940
      5.50382      3.08243     11.92724        -0.003961     -0.000459      0.000110
      4.09575      3.84396      2.38135        -0.006135     -0.010626     -0.000000
      2.69688      4.70302      7.15180         0.001583     -0.003660     -0.000110
      2.79628      6.47820      2.38447         0.006414     -0.004531      0.003646
     -4.28101      7.32396     14.30655        -0.000457      0.001201      0.001998
      1.37777      0.82284      4.74618         0.001941     -0.000098     -0.003185
     -0.01463      1.63143      9.55121         0.001220     -0.001117      0.000461
      6.99737      2.42206     14.29005        -0.002189      0.001090     -0.001592
     -0.01213      3.26746      4.80367        -0.004889      0.000002     -0.000117
     -1.43081      4.07805      9.54367        -0.000459     -0.000758     -0.001008
      5.60890      4.86893      0.02010         0.001041      0.001452      0.001282
     -1.45637      5.69316      4.81485         0.001269      0.000205     -0.001998
     -2.88542      6.47959      9.56070         0.000459      0.000794      0.000000
     -1.41863      7.29279      0.03770        -0.001056      0.001632      0.003185
      4.22373      0.81181      4.75499        -0.000852     -0.002827     -0.002609
      2.79175      1.62617      9.53952         0.000278      0.000481      0.000000
      1.40583      2.43872      0.00771        -0.002022     -0.002151      0.002609
      2.80019      3.22636      4.74955        -0.001860     -0.002293     -0.001033
      1.35942      4.06320      9.57155         0.000406      0.001225      0.002178
     -0.00304      4.83960      0.02685         0.003718     -0.000808     -0.000820
      1.37821      5.66629      4.78899         0.002038     -0.001351      0.001592
     -0.05749      6.51163      9.54900        -0.001578      0.000498     -0.000461
      5.61510      0.01858     14.27537         0.002446     -0.004233      0.000117
      7.00739      0.79212      4.73585        -0.002559      0.002816      0.000820
      5.61845      1.60425      9.50749         0.000857      0.000964     -0.002178
      4.20867      2.41318      0.01315        -0.001056     -0.002758      0.001033
      5.62481      3.22668      4.77704        -0.005020      0.001234     -0.001792
      4.20389      4.07206      9.53952        -0.000424     -0.000735     -0.000000
      2.76131      4.87992     14.30200         0.003579     -0.003731      0.001792
      4.22682      5.66687      4.74259         0.000737      0.001628     -0.001282
      2.76943      6.50849      9.55655        -0.000427     -0.000777      0.001008
      0.01249      0.02087     10.50807         0.002396     -0.001895     -0.002637
      8.38385      0.01510      3.73466         0.000445      0.003528      0.003273
      1.35395      0.83357      0.96697        -0.015768      0.006043      0.005305
      1.38530      0.72273      8.51945        -0.003373     -0.000308      0.003068
     -0.10689      1.62570      5.77886        -0.013900      0.011957      0.003327
      0.04827      1.60387     13.33363        -0.002884      0.000826     -0.000240
      6.98041      2.43772     10.48423         0.003782     -0.002634     -0.003157
     -1.38161      2.49714      3.77568        -0.005633      0.005173      0.000628
     -0.04905      3.20211      0.98993        -0.001969      0.002893     -0.000922
     -0.04981      3.24668      8.60168         0.001406     -0.000158      0.002507
     -1.42663      4.04236      5.76106        -0.005873      0.004143     -0.003683
     -1.53766      4.09991     13.35260        -0.003503      0.002749      0.001514
     -2.81902      4.85798     10.53817         0.000426      0.000149     -0.004093
     -2.82588      4.85001      3.80669        -0.001413      0.001293     -0.000842
     -1.36419      5.64314      1.02804         0.002833      0.002149     -0.003273
     -1.46584      5.72983      8.59215        -0.002839      0.001128      0.002637
     -2.87089      6.55269      5.75791         0.004731     -0.001484     -0.007016
     -2.82937      6.52872     13.36349        -0.003651      0.003355      0.007016
     -1.54442      7.26965     10.58077         0.001419     -0.003075     -0.003068
     -1.39742      7.27753      3.81691         0.013118     -0.010634     -0.005305
[...]
      7.06060      0.81008      8.53672         0.001784     -0.001352      0.001602
      5.65653      1.61648      5.71516        -0.007883      0.003252     -0.001928
      5.58538      1.67218     13.35900        -0.001580     -0.001853      0.000726
      4.26768      2.46830     10.46727         0.002877      0.000837     -0.003010
      4.21841      2.44060      3.80368        -0.004059     -0.001510     -0.001715
      5.55738      3.30567      1.03005         0.000437     -0.000532     -0.000224
      5.69979      3.19576      8.54140         0.003024     -0.001127     -0.001315
      4.17742      4.05563      5.72188        -0.003274     -0.000286     -0.003545
      4.20290      4.04092     13.35716         0.001389     -0.002979      0.003545
      2.69704      4.92940     10.53764        -0.002488      0.002056      0.001315
      2.89876      4.84062      3.73265        -0.000679      0.000112      0.000224
      4.17083      5.66590      0.97719         0.001826     -0.000577      0.000842
      4.13898      5.69623      8.56205        -0.000084      0.000443      0.004093
      2.84179      6.42688      5.74762         0.004132     -0.001659     -0.001514
      2.73643      6.49427     13.33916         0.006524     -0.003014      0.003683
    total drift:                               -0.001886     -0.000994     -0.001980

  FREE ENERGIE OF THE ION-ELECTRON SYSTEM (eV)
  free  energy   TOTEN  =      -576.7076037888 eV

  energy  without entropy=     -576.6663075849  energy(sigma->0) =     -576.68695569

 d Force = 0.1316326E-04[ 0.869E-05, 0.176E-04]  d Energy = 0.3747492E-04-0.243E-04
 d Force = 0.5522139E+00[ 0.552E+00, 0.552E+00]  d Ewald  =-0.1421508E+01 0.197E+01

 Quasi-Newton relaxation of ions (Broydens 2nd method)
  g(Force)  = 0.203E-03   g(Stress)= 0.395E-04

 retain information from N=  4 steps
 eigenvalues of (default step * inverse Hessian matrix)
  average eigenvalue of G=   3.1651
 eigenvalue spectrum of G is  5.7272  5.7272  0.5976  0.6086

 reached required accuracy - stopping structural energy minimisation

volume of typ            1:    11.5 %

[...]

volume of typ            3:    10.0 %

total charge

# of ion       s       p       d       tot
    1        2.071   0.232   0.088   2.391
    2        2.072   0.235   0.089   2.396
    3        2.077   0.248   0.094   2.419
    4        2.075   0.239   0.092   2.405
    5        2.073   0.237   0.090   2.400
    6        2.071   0.232   0.088   2.391
    7        2.072   0.235   0.089   2.396
    8        2.075   0.239   0.092   2.405
    9        2.077   0.248   0.094   2.419
   10        2.071   0.231   0.087   2.389
   11        2.080   0.258   0.099   2.437
   12        2.071   0.231   0.087   2.389
   13        2.073   0.237   0.090   2.400
   14        0.288   0.396   7.835   8.519
   15        0.276   0.369   7.849   8.494
   16        0.283   0.384   7.842   8.509
   17        0.269   0.354   7.850   8.473
   18        0.285   0.389   7.838   8.511
   19        0.292   0.404   7.834   8.530
   20        0.285   0.390   7.843   8.518
   21        0.288   0.396   7.835   8.519
   22        0.295   0.411   7.834   8.539
   23        0.276   0.369   7.849   8.494
   24        0.289   0.396   7.833   8.518
   25        0.271   0.361   7.843   8.476
   26        0.289   0.396   7.833   8.518
   27        0.285   0.390   7.833   8.509
   28        0.288   0.394   7.831   8.513
   29        0.281   0.382   7.845   8.508
   30        0.269   0.354   7.850   8.473
   31        0.283   0.384   7.842   8.509
   32        0.285   0.389   7.838   8.511
   33        0.281   0.382   7.845   8.508
   34        0.288   0.394   7.831   8.513
   35        0.285   0.390   7.833   8.509
   36        0.286   0.391   7.841   8.518
   37        0.273   0.361   7.846   8.480
   38        0.286   0.391   7.841   8.518
   39        0.285   0.390   7.843   8.518
   40        0.292   0.404   7.834   8.530
   41        1.274   2.751   0.007   4.032
   42        1.264   2.778   0.006   4.048
   43        1.276   2.753   0.007   4.036
   44        1.271   2.759   0.006   4.036
   45        1.269   2.764   0.006   4.039
   46        1.275   2.753   0.007   4.034
   47        1.279   2.740   0.007   4.026
   48        1.271   2.760   0.006   4.037
   49        1.264   2.780   0.007   4.050
   50        1.273   2.755   0.007   4.035
   51        1.272   2.759   0.007   4.038
   52        1.269   2.766   0.006   4.041
   53        1.266   2.774   0.007   4.047
   54        1.267   2.771   0.007   4.045
   55        1.264   2.778   0.006   4.048
   56        1.274   2.751   0.007   4.032
   57        1.266   2.774   0.007   4.047
   58        1.266   2.774   0.007   4.047
   59        1.271   2.759   0.006   4.036
   60        1.276   2.753   0.007   4.036
[...]
   80        1.267   2.771   0.007   4.044
   81        1.273   2.756   0.007   4.036
   82        1.269   2.769   0.008   4.046
   83        1.274   2.759   0.007   4.039
   84        1.270   2.765   0.007   4.042
   85        1.268   2.768   0.006   4.042
   86        1.277   2.748   0.007   4.032
   87        1.279   2.741   0.007   4.026
   88        1.279   2.741   0.007   4.026
   89        1.277   2.748   0.007   4.032
   90        1.268   2.768   0.006   4.042
   91        1.267   2.771   0.007   4.045
   92        1.266   2.774   0.007   4.047
   93        1.269   2.766   0.006   4.041
   94        1.272   2.759   0.007   4.038
tot         103.24  162.63  213.22  479.09

magnetization (x)

# of ion       s       p       d       tot
    1       -0.000   0.004   0.000   0.004
    2        0.006   0.010   0.001   0.016
    3        0.006   0.011   0.001   0.019
    4        0.000   0.002  -0.000   0.002
    5        0.006   0.010   0.001   0.016
    6       -0.000   0.004   0.000   0.004
    7        0.006   0.010   0.001   0.016
    8        0.000   0.002  -0.000   0.002
    9        0.006   0.011   0.001   0.019
   10        0.002   0.006   0.000   0.008
   11        0.006   0.011   0.001   0.017
   12        0.002   0.006   0.000   0.008
   13        0.006   0.010   0.001   0.016
   14       -0.001  -0.001   0.207   0.206
   15        0.000  -0.001   0.554   0.554
   16        0.000  -0.000   0.385   0.386
   17        0.001  -0.000   0.692   0.693
   18       -0.000  -0.001   0.267   0.266
   19       -0.000  -0.000   0.128   0.128
   20       -0.001  -0.001   0.289   0.287
   21       -0.001  -0.001   0.207   0.206
   22        0.000   0.000   0.067   0.067
   23        0.000  -0.001   0.554   0.554
   24       -0.001  -0.001   0.182   0.181
   25        0.000   0.000  -0.491  -0.490
   26       -0.001  -0.001   0.182   0.181
   27       -0.001  -0.001   0.240   0.238
   28        0.000   0.000   0.069   0.069
   29       -0.000  -0.001   0.392   0.391
   30        0.001  -0.000   0.692   0.693
   31        0.000  -0.000   0.385   0.386
   32       -0.000  -0.001   0.267   0.266
   33       -0.000  -0.001   0.392   0.391
   34        0.000   0.000   0.069   0.069
   35       -0.001  -0.001   0.240   0.238
   36       -0.000  -0.000   0.323   0.322
   37       -0.001   0.001  -0.579  -0.579
   38       -0.000  -0.000   0.323   0.322
   39       -0.001  -0.001   0.289   0.287
   40       -0.000  -0.000   0.128   0.128
   41        0.004   0.018   0.000   0.022
   42        0.007   0.029   0.000   0.036
   43        0.010   0.078   0.000   0.088
   44        0.000  -0.010   0.000  -0.009
   45        0.011   0.084   0.000   0.095
   46        0.009   0.080   0.000   0.090
   47        0.009   0.079   0.000   0.089
   48        0.010   0.066   0.000   0.077
   49        0.005   0.008   0.000   0.013
   50        0.003   0.026   0.000   0.029
   51        0.004   0.018   0.000   0.022
   52        0.011   0.069   0.000   0.080
   53        0.001  -0.009  -0.000  -0.008
   54        0.004   0.007   0.000   0.011
   55        0.007   0.029   0.000   0.036
   56        0.004   0.018   0.000   0.022
   57        0.004   0.007   0.000   0.011
   58        0.004   0.007   0.000   0.011
   59        0.000  -0.010   0.000  -0.009
   60        0.010   0.078   0.000   0.088
[...]
   80        0.003   0.020  -0.000   0.024
   81        0.003   0.004   0.000   0.008
   82        0.004   0.008   0.000   0.011
   83       -0.008  -0.080  -0.000  -0.087
   84        0.003   0.008   0.000   0.012
   85        0.010   0.083   0.000   0.094
   86       -0.007  -0.081  -0.000  -0.088
   87        0.009   0.066   0.000   0.075
   88        0.009   0.066   0.000   0.075
   89       -0.007  -0.081  -0.000  -0.088
   90        0.010   0.083   0.000   0.094
   91        0.004   0.007   0.000   0.011
   92        0.001  -0.009  -0.000  -0.008
   93        0.011   0.069   0.000   0.080
   94        0.004   0.018   0.000   0.022
tot           0.31    1.49    6.47    8.26