 vasp.5.4.4.18Apr17-6-g9f103f2a35 (build May 12 2020 05:39:39) gamma-only

 MD_VERSION_INFO: Compiled 2020-05-12T12:39:39-UTC in devlin.sd.materialsdesign.
 com:/home/medea2/data/build/wwolf/vasp-gpu5.4.4/13047/x86_64/src/src/build/gam
 from svn 13047

 executed on                        Lin64 date 2023.01.19  21:45:11

 INCAR:
 POTCAR:    PAW_PBE Li_sv 10Sep2004
 POTCAR:    PAW_PBE Ni 02Aug2007
 POTCAR:    PAW_PBE O 08Apr2002

 POTCAR:    PAW_PBE Li_sv 10Sep2004

 POTCAR:    PAW_PBE Ni 02Aug2007

 POTCAR:    PAW_PBE O 08Apr2002

 Optimization of the real space projectors (new method)

 maximal supplied QI-value         = 22.11
 optimisation between [QCUT,QGAM] = [ 11.28, 22.77] = [ 35.61,145.23] Ry
 Optimized for a Real-space Cutoff    1.10 Angstroem

   l    n(q)    QCUT    max X(q) W(low)/X(q) W(high)/X(q)  e(spline)
   0      7    11.276    10.506    0.54E-04    0.58E-04    0.16E-07
   0      7    11.276     8.367    0.11E-03    0.14E-03    0.35E-07
   1      7    11.276     8.983    0.23E-03    0.43E-03    0.86E-07
 Optimization of the real space projectors (new method)

[...]

   l    n(q)    QCUT    max X(q) W(low)/X(q) W(high)/X(q)  e(spline)
   2      9    11.376    60.317    0.17E-03    0.16E-04    0.16E-06
   2      9    11.376    55.921    0.17E-03    0.16E-04    0.17E-06
   0     10    11.376    51.690    0.45E-04    0.60E-04    0.21E-06
   0     10    11.376    30.015    0.37E-04    0.55E-04    0.19E-06
   1     10    11.376    18.849    0.83E-04    0.11E-03    0.92E-07
   1     10    11.376    14.624    0.69E-04    0.92E-04    0.82E-07
 Optimization of the real space projectors (new method)

 maximal supplied QI-value         = 24.76
 optimisation between [QCUT,QGAM] = [ 11.39, 22.77] = [ 36.31,145.25] Ry
 Optimized for a Real-space Cutoff    1.10 Angstroem

   l    n(q)    QCUT    max X(q) W(low)/X(q) W(high)/X(q)  e(spline)
   0      7    11.387    20.381    0.22E-03    0.48E-03    0.18E-06
   0      7    11.387    15.268    0.22E-03    0.52E-03    0.19E-06
   1      7    11.387     5.964    0.22E-03    0.73E-03    0.24E-06
   1      7    11.387     5.382    0.19E-03    0.60E-03    0.21E-06

  PAW_PBE Li_sv 10Sep2004               :
  PAW_PBE Ni 02Aug2007                  :
  PAW_PBE O 08Apr2002                   :

 POSCAR: ce425587_1
  positions in direct lattice
 exchange correlation table for  LEXCH =       14
   RHO(1)=    0.500       N(1)  =     2000
   RHO(2)=  100.500       N(2)  =     4000

 ion  position               nearest neighbor table
   1  0.000  0.500  0.000-  37 2.10  50 2.10  38 2.10  73 2.12  85 2.12  86 2.13   8 2.84
   2  0.110  0.833  0.219-  34 2.09  51 2.10  39 2.10  57 2.12  52 2.13  58 2.13
   3  0.556  0.166  0.112-  48 2.11  42 2.11  47 2.11  41 2.11  65 2.12  78 2.13  22 2.84
   4  0.224  0.167  0.447-  77 2.09  60 2.10  54 2.10  36 2.12  59 2.13  53 2.13
   5  0.777  0.834  0.555-  63 2.11  69 2.11  70 2.11  82 2.11  64 2.12  87 2.13  22 2.84
   6  0.333  0.500  0.666-  56 2.10  61 2.10  55 2.10  74 2.12  80 2.12  79 2.13  18 2.84
   7  1.000  0.002  0.999-  72 1.87  84 1.87  51 1.88  39 1.88  87 1.90  36 1.90  10 2.79  13 2.79
                            25 2.79  31 2.79  16 2.81  19 2.81
   8  0.111  0.334  0.222-  38 1.87  50 1.87  53 1.87  59 1.87  35 1.87  56 1.90  14 2.79  11 2.79
                            26 2.80  32 2.80  17 2.80  20 2.80   1 2.84
   9  0.224  0.667  0.111-  40 1.86  43 1.86  58 1.87  73 1.87  37 1.88  34 1.88  12 2.78  27 2.78
                            21 2.79  33 2.80  18 2.80  15 2.82
  10  0.332  0.997  1.000-  75 1.86  78 1.87  72 1.87  45 1.88  42 1.88  39 1.88  25 2.79  19 2.79
                             7 2.79  28 2.79  22 2.80  13 2.81
  11  0.444  0.335  0.223-  62 1.86  44 1.87  65 1.87  41 1.88  38 1.89  59 1.90  20 2.79   8 2.79
                            26 2.79  23 2.80  29 2.80  14 2.81
  12  0.556  0.667  0.111-  49 1.87  43 1.87  46 1.87  40 1.87  79 1.89  64 1.89  15 2.78   9 2.78
                            24 2.80  21 2.80  30 2.80  27 2.80
  13  0.667  0.997  1.000-  81 1.86  78 1.87  84 1.87  45 1.88  48 1.88  51 1.88  31 2.79  16 2.79
                             7 2.79  28 2.79  22 2.80  10 2.81
  14  0.779  0.335  0.223-  68 1.86  44 1.87  65 1.87  47 1.88  50 1.89  53 1.90  17 2.79   8 2.79
                            32 2.79  23 2.80  29 2.80  11 2.81
  15  0.887  0.667  0.111-  46 1.86  49 1.86  52 1.87  85 1.87  37 1.88  34 1.88  12 2.78  30 2.78
                            24 2.79  33 2.80  18 2.80   9 2.82
  16  0.999  0.000  0.333-  51 1.87  54 1.87  36 1.87  57 1.87  69 1.89  48 1.89  22 2.78  13 2.79
                            25 2.79   7 2.81  28 2.81  19 2.82
  17  0.110  0.333  0.556-  71 1.86  68 1.86  53 1.87  74 1.87  56 1.88  77 1.88  23 2.78  26 2.78
                            14 2.79  29 2.80   8 2.80  20 2.82
  18  0.222  0.666  0.445-  61 1.87  55 1.87  58 1.87  52 1.87  76 1.87  37 1.90  24 2.79  21 2.79
                            27 2.80  30 2.80   9 2.80  15 2.80   6 2.84
  19  0.335  0.000  0.333-  39 1.87  60 1.87  57 1.87  36 1.87  42 1.89  63 1.89  22 2.78  10 2.79
                            31 2.79   7 2.81  28 2.81  16 2.82
  20  0.446  0.333  0.556-  83 1.86  62 1.86  59 1.87  80 1.87  56 1.88  77 1.88  23 2.78  32 2.78
                            11 2.79  29 2.80   8 2.80  17 2.82
  21  0.555  0.665  0.444-  43 1.86  67 1.87  64 1.87  82 1.88  61 1.89  58 1.90   9 2.79  18 2.79
                            30 2.79  12 2.80  33 2.80  24 2.81
  22  0.667  0.000  0.333-  63 1.86  48 1.86  69 1.86  42 1.86  45 1.88  66 1.88  16 2.78  19 2.78
                            13 2.80  25 2.80  10 2.80  31 2.80   3 2.84   5 2.84
  23  0.778  0.333  0.556-  62 1.87  68 1.87  83 1.87  71 1.87  86 1.89  65 1.89  20 2.78  17 2.78
                            11 2.80  14 2.80  32 2.80  26 2.80
  24  0.889  0.665  0.444-  49 1.86  67 1.87  64 1.87  70 1.88  55 1.89  52 1.90  15 2.79  18 2.79
                            27 2.79  12 2.80  33 2.80  21 2.81
  25  0.001  0.003  0.667-  72 1.86  87 1.87  75 1.87  66 1.88  69 1.88  54 1.88  10 2.79  16 2.79
                            28 2.79   7 2.79  22 2.80  31 2.81
  26  0.112  0.331  0.889-  71 1.86  35 1.87  86 1.87  38 1.88  41 1.89  74 1.90  17 2.78  29 2.79
                            11 2.79  23 2.80   8 2.80  32 2.81
  27  0.222  0.669  0.778-  40 1.86  76 1.87  79 1.87  55 1.88  70 1.89  73 1.90   9 2.78  33 2.79
                            24 2.79  12 2.80  18 2.80  30 2.81
  28  0.334  0.998  0.667-  75 1.87  81 1.87  60 1.88  54 1.88  78 1.90  57 1.90  25 2.79  31 2.79
                            10 2.79  13 2.79  16 2.81  19 2.81
  29  0.445  0.333  0.889-  41 1.86  47 1.86  44 1.87  74 1.87  80 1.87  77 1.90  26 2.79  32 2.79
                            11 2.80  14 2.80  17 2.80  20 2.80
  30  0.556  0.669  0.778-  46 1.86  76 1.87  79 1.87  61 1.88  82 1.89  85 1.90  15 2.78  33 2.79
                            21 2.79  12 2.80  18 2.80  27 2.81
  31  0.666  0.003  0.667-  84 1.86  87 1.87  81 1.87  66 1.88  63 1.88  60 1.88  13 2.79  19 2.79
                            28 2.79   7 2.79  22 2.80  25 2.81
  32  0.777  0.331  0.889-  83 1.86  35 1.87  86 1.87  50 1.88  47 1.89  80 1.90  20 2.78  29 2.79
                            14 2.79  23 2.80   8 2.80  26 2.81
  33  0.889  0.667  0.777-  70 1.86  82 1.86  67 1.87  85 1.87  73 1.87  34 1.90  30 2.79  27 2.79
                            21 2.80  24 2.80   9 2.80  15 2.80
  34  0.002  0.735  0.004-   9 1.88  15 1.88  33 1.90   2 2.09
  35  0.001  0.266  0.001-  26 1.87  32 1.87   8 1.87
  36  0.114  0.068  0.227-  16 1.87  19 1.87   7 1.90   4 2.12
  37  0.109  0.598  0.218-   9 1.88  15 1.88  18 1.90   1 2.10
  38  0.217  0.402  0.107-   8 1.87  26 1.88  11 1.89   1 2.10
  39  0.219  0.932  0.113-  19 1.87   7 1.88  10 1.88   2 2.10
  40  0.334  0.734  0.001-   9 1.86  27 1.86  12 1.87
  41  0.338  0.265  0.004-  29 1.86  11 1.88  26 1.89   3 2.11
  42  0.446  0.067  0.219-  22 1.86  10 1.88  19 1.89   3 2.11
  43  0.444  0.599  0.221-   9 1.86  21 1.86  12 1.87
  44  0.555  0.401  0.110-  14 1.87  11 1.87  29 1.87
  45  0.556  0.931  0.113-  13 1.88  10 1.88  22 1.88
  46  0.667  0.734  0.001-  15 1.86  30 1.86  12 1.87
  47  0.665  0.265  0.004-  29 1.86  14 1.88  32 1.89   3 2.11
  48  0.773  0.067  0.219-  22 1.86  13 1.88  16 1.89   3 2.11
  49  0.777  0.599  0.221-  15 1.86  24 1.86  12 1.87
  50  0.890  0.402  0.107-   8 1.87  32 1.88  14 1.89   1 2.10
  51  0.894  0.932  0.113-  16 1.87   7 1.88  13 1.88   2 2.10
  52  0.001  0.734  0.332-  15 1.87  18 1.87  24 1.90   2 2.13
  53  0.003  0.266  0.335-  17 1.87   8 1.87  14 1.90   4 2.13
  54  0.114  0.068  0.554-  16 1.87  28 1.88  25 1.88   4 2.10
  55  0.116  0.598  0.559-  18 1.87  27 1.88  24 1.89   6 2.10
  56  0.224  0.402  0.449-  17 1.88  20 1.88   8 1.90   6 2.10
  57  0.220  0.932  0.440-  19 1.87  16 1.87  28 1.90   2 2.12
  58  0.331  0.734  0.332-   9 1.87  18 1.87  21 1.90   2 2.13
  59  0.332  0.266  0.335-  20 1.87   8 1.87  11 1.90   4 2.13
  60  0.440  0.068  0.554-  19 1.87  28 1.88  31 1.88   4 2.10
  61  0.443  0.598  0.559-  18 1.87  30 1.88  21 1.89   6 2.10
  62  0.556  0.401  0.445-  20 1.86  11 1.86  23 1.87
  63  0.560  0.933  0.448-  22 1.86  31 1.88  19 1.89   5 2.11
  64  0.669  0.733  0.338-  21 1.87  24 1.87  12 1.89   5 2.12
  65  0.664  0.267  0.329-  14 1.87  11 1.87  23 1.89   3 2.12
  66  0.777  0.069  0.554-  31 1.88  25 1.88  22 1.88
  67  0.778  0.599  0.557-  21 1.87  24 1.87  33 1.87
  68  0.889  0.401  0.445-  17 1.86  14 1.86  23 1.87
  69  0.887  0.933  0.448-  22 1.86  25 1.88  16 1.89   5 2.11
  70  0.995  0.735  0.663-  33 1.86  24 1.88  27 1.89   5 2.11
  71  1.000  0.266  0.666-  17 1.86  26 1.86  23 1.87
  72  0.114  0.068  0.890-  25 1.86   7 1.87  10 1.87
  73  0.110  0.599  0.890-   9 1.87  33 1.87  27 1.90   1 2.12
  74  0.224  0.401  0.777-  17 1.87  29 1.87  26 1.90   6 2.12
  75  0.220  0.932  0.777-  10 1.86  28 1.87  25 1.87
  76  0.333  0.734  0.666-  27 1.87  30 1.87  18 1.87
  77  0.331  0.265  0.663-  17 1.88  20 1.88  29 1.90   4 2.09
  78  0.447  0.065  0.894-  10 1.87  13 1.87  28 1.90   3 2.13
  79  0.442  0.600  0.885-  27 1.87  30 1.87  12 1.89   6 2.13
  80  0.553  0.401  0.777-  20 1.87  29 1.87  32 1.90   6 2.12
  81  0.557  0.932  0.777-  13 1.86  28 1.87  31 1.87
  82  0.668  0.735  0.663-  33 1.86  21 1.88  30 1.89   5 2.11
  83  0.666  0.266  0.666-  20 1.86  32 1.86  23 1.87
  84  0.776  0.068  0.890-  31 1.86   7 1.87  13 1.87
  85  0.780  0.599  0.890-  15 1.87  33 1.87  30 1.90   1 2.12
  86  0.891  0.400  0.782-  26 1.87  32 1.87  23 1.89   1 2.13
  87  0.887  0.935  0.773-  25 1.87  31 1.87   7 1.90   5 2.13

  LATTYP: Found a base centered monoclinic cell.
 ALAT       =    14.5295991328
 B/A-ratio  =     0.5772991924
 C/A-ratio  =     1.3941158482
 COS(beta)  =    -0.6212804094

  Lattice vectors:

 A1 = (   4.1945194850,   7.2644782491,   0.0004120172)
 A2 = (   8.3884824070,   0.0003213809,   0.0004120172)
 A3 = ( -12.5836499411,  -7.2651737877, -14.1128412561)

Analysis of symmetry for initial positions (statically):
 Subroutine PRICEL returns:
 Original cell was already a primitive cell.

[...]
   -.757E+01 0.371E+02 0.347E+03   0.821E+01 -.400E+02 -.370E+03   -.636E+00 0.288E+01 0.224E+02   -.388E-02 -.923E-02 0.433E-03
   0.259E+02 0.150E+02 -.352E+03   -.286E+02 -.165E+02 0.374E+03   0.266E+01 0.154E+01 -.221E+02   0.246E-03 0.142E-03 -.147E-02
   -.347E+02 -.200E+02 0.357E+03   0.372E+02 0.215E+02 -.379E+03   -.257E+01 -.149E+01 0.218E+02   0.147E-02 0.846E-03 0.691E-02
   -.844E+00 -.367E+02 -.347E+03   0.122E+01 0.401E+02 0.370E+03   -.368E+00 -.347E+01 -.227E+02   -.280E-02 0.409E-02 -.757E-03
   0.322E+02 -.176E+02 0.347E+03   -.354E+02 0.190E+02 -.370E+03   0.319E+01 -.142E+01 0.227E+02   -.215E-02 0.447E-02 0.757E-03
   -.662E+01 -.352E+02 -.347E+03   0.708E+01 0.374E+02 0.369E+03   -.469E+00 -.219E+01 -.224E+02   0.368E-02 -.265E-02 -.445E-02
[...]
   -.322E+02 0.169E+02 -.348E+03   0.354E+02 -.183E+02 0.371E+03   -.318E+01 0.147E+01 -.227E+02   -.399E-02 0.850E-03 -.560E-03
   0.102E+01 -.314E+01 0.376E+03   -.136E+01 0.228E+01 -.403E+03   0.336E+00 0.862E+00 0.269E+02   -.182E-02 0.909E-03 0.707E-02
   -.901E+01 -.520E+01 -.385E+03   0.886E+01 0.512E+01 0.412E+03   0.151E+00 0.869E-01 -.266E+02   -.362E-02 -.209E-02 0.596E-02
   -.281E+02 -.162E+02 0.354E+03   0.307E+02 0.177E+02 -.376E+03   -.263E+01 -.152E+01 0.220E+02   -.368E-02 -.212E-02 -.272E-02
   0.265E+02 0.153E+02 -.341E+03   -.291E+02 -.168E+02 0.363E+03   0.268E+01 0.155E+01 -.223E+02   -.347E-02 -.200E-02 -.565E-02
   -.337E+02 -.195E+02 0.344E+03   0.361E+02 0.209E+02 -.366E+03   -.242E+01 -.140E+01 0.222E+02   0.554E-02 0.320E-02 -.188E-02
   -.150E+01 -.364E+02 -.348E+03   0.182E+01 0.399E+02 0.371E+03   -.318E+00 -.349E+01 -.227E+02   -.126E-02 -.388E-02 -.560E-03
   -.221E+01 0.246E+01 0.376E+03   0.130E+01 -.232E+01 -.403E+03   0.914E+00 -.140E+00 0.269E+02   -.121E-03 -.203E-02 0.707E-02
   -.283E+02 0.228E+02 -.350E+03   0.304E+02 -.249E+02 0.372E+03   -.215E+01 0.204E+01 -.225E+02   -.852E-02 -.163E-02 0.131E-02
   0.516E+01 -.145E+02 0.376E+03   -.562E+01 0.150E+02 -.403E+03   0.477E+00 -.427E+00 0.270E+02   -.705E-02 -.335E-02 -.345E-02
   0.221E+01 -.246E+01 -.376E+03   -.130E+01 0.232E+01 0.403E+03   -.914E+00 0.140E+00 -.269E+02   0.121E-03 0.203E-02 -.707E-02
   0.150E+01 0.364E+02 0.348E+03   -.182E+01 -.399E+02 -.371E+03   0.318E+00 0.349E+01 0.227E+02   0.126E-02 0.388E-02 0.559E-03
   0.337E+02 0.195E+02 -.344E+03   -.361E+02 -.209E+02 0.366E+03   0.242E+01 0.140E+01 -.222E+02   -.554E-02 -.320E-02 0.188E-02
   -.265E+02 -.153E+02 0.341E+03   0.291E+02 0.168E+02 -.363E+03   -.268E+01 -.155E+01 0.223E+02   0.347E-02 0.200E-02 0.565E-02
   -.351E-03 0.135E-02 0.279E-03   0.277E-12 0.316E-12 -.909E-12   -.444E-15 0.155E-14 -.142E-13   0.199E-07 0.566E-09 -.101E-05

 POSITION                                       TOTAL-FORCE (eV/Angst)
      0.00267      0.00154      7.05977        -0.001777     -0.001026      0.003014
      1.37954      0.79648     11.76134        -0.004162     -0.002403      0.000001
     -1.39379      4.03754      2.34637         0.001290      0.000745      0.001449
      2.81539      1.62546      2.35701         0.004162      0.002403     -0.000001
      1.39521      5.64776     11.77198        -0.001290     -0.000745     -0.001449
      4.19226      2.42040      7.05858         0.001777      0.001026     -0.003014
      4.19014      7.26142      0.03170         0.002117      0.001222     -0.002438
      1.39713      0.80663      4.71645         0.000635      0.000367     -0.002813
     -0.00631      1.62533      9.41170         0.006122     -0.012090      0.001532
      6.99320      2.41506     14.07624         0.000838      0.010127     -0.002456
      0.00522      3.22426      4.73531        -0.001048      0.006130     -0.001899
     -1.39734      4.03548      9.41258         0.002107      0.001216      0.000699
      5.58810      4.84876     14.07624         0.009189     -0.004337     -0.002456
     -1.39860      5.65575      4.73531         0.004785     -0.003973     -0.001899
     -2.78908      6.44524      9.41170        -0.007410      0.011347      0.001532
     -1.39179      7.25351      0.00019        -0.005265      0.009119      0.000000
      4.20123      0.79661      4.70666        -0.006122      0.012090     -0.001532
      2.79779      1.61531      9.40190        -0.000635     -0.000367      0.002813
      1.39232      2.43128      0.00019         0.005265     -0.009119     -0.000000
      2.79050      3.24006      4.70666         0.007410     -0.011347     -0.001532
      1.40002      4.02955      9.38304        -0.004785      0.003973      0.001899
      0.00026      4.84239      0.00019        -0.000000     -0.000000      0.000000
      1.39877      5.64982      4.70578        -0.002107     -0.001216     -0.000699
     -0.00380      6.46104      9.38304         0.001048     -0.006130      0.001899
      5.58953      0.00734      0.04267        -0.000838     -0.010127      0.002456
      6.98477      0.81234      4.67719         0.003861     -0.004297     -0.000688
      5.59796      1.61005      9.44172        -0.003861      0.004297      0.000688
      4.19908      2.42434     14.08722        -0.002117     -0.001222      0.002438
      5.59459      3.23004      4.69554        -0.003086     -0.001781      0.000815
      4.19333      4.04295      9.44172         0.001790     -0.005492      0.000688
      2.80112      4.83700      0.04267        -0.009189      0.004337      0.002456
      4.19589      5.64281      4.67719        -0.001790      0.005492     -0.000688
      2.79463      6.45572      9.42337         0.003086      0.001781     -0.000815
      0.02363      0.01364     10.38255        -0.002072     -0.001196     -0.003164
      0.00753      0.00435      3.75204         0.001852      0.001069      0.007104
      1.42907      0.82507      0.96670         0.007479      0.004318      0.001728
      1.37296      0.79268      8.44130         0.000003      0.000001      0.000012
     -0.00919      1.57806      5.66992         0.000864      0.001047     -0.003222
      0.02815      1.59238     13.15573         0.000075      0.004734      0.008536
     -1.38983      2.42427     10.36483        -0.001366     -0.004918     -0.013090
     -1.38869      2.45808      3.74073         0.000386     -0.001363      0.000688
     -0.03294      3.23921      0.95097         0.001297      0.004525     -0.000338
     -0.00598      3.22441      8.46029         0.003207     -0.000606      0.012608
     -1.40597      4.03050      5.66207        -0.001259     -0.000727     -0.009123
     -1.38577      4.04216     13.14091         0.003824      0.002208      0.011116
     -2.78894      4.84760     10.36483        -0.004943      0.001276     -0.013090
     -2.75909      4.83168      3.74073        -0.000987      0.001016      0.000688
     -1.40474      5.61523      0.95097         0.004567     -0.001139     -0.000338
     -1.40407      5.64598      8.46029         0.001078      0.003080      0.012608
     -2.83146      6.46638      5.66992         0.001339      0.000225     -0.003222
     -2.80039      6.49155     13.15573         0.004137     -0.002302      0.008536
      2.78000      0.00950     10.36271        -0.004262      0.004486     -0.002305
      2.79670      0.01914      3.75564        -0.001754      0.005934      0.002305
      4.16678      0.82956      0.96263        -0.000075     -0.004734     -0.008536
      4.20411      0.84389      8.44843        -0.000864     -0.001047      0.003222
      2.82196      1.62926      5.67706        -0.000003     -0.000001     -0.000012
      2.76586      1.59687     13.15165        -0.007479     -0.004318     -0.001728
      1.39823      2.40280     10.36271         0.001754     -0.005934     -0.002305
      1.41492      2.41244      3.75564         0.004262     -0.004486      0.002305
      2.80181      3.19376      0.96263        -0.004137      0.002302     -0.008536
[...]
      7.00618      0.79704      8.46040         0.003181     -0.004004      0.000429
      5.57654      1.62536      5.65851        -0.003181      0.004004     -0.000429
      5.59473      1.59581     13.16586        -0.000124      0.002864      0.013545
      4.18740      2.41759     10.36631        -0.001852     -0.001069     -0.007104
      4.17130      2.40830      3.73581         0.002072      0.001196      0.003164
      5.62240      3.24609      0.91893         0.005788      0.003342     -0.002529
      5.56567      3.21334      8.47797        -0.001912     -0.001104      0.002160
      4.19587      4.01675      5.65851         0.001878     -0.004757     -0.000429
      4.17937      4.04727     13.16586         0.002419     -0.001540      0.013545
      2.76051      4.85362     10.37763         0.000987     -0.001016     -0.000688
      2.79036      4.83770      3.75352         0.004943     -0.001276      0.013090
      4.20985      5.63849      0.95305        -0.002419      0.001540     -0.013545
      4.19335      5.66901      8.46040        -0.001878      0.004757      0.000429
      2.82355      6.47242      5.64094         0.001912      0.001104     -0.002160
      2.76682      6.43967     13.19998        -0.005788     -0.003342      0.002529
    total drift:                               -0.000351      0.001348      0.000278

  FREE ENERGIE OF THE ION-ELECTRON SYSTEM (eV)
  free  energy   TOTEN  =      -539.9896363071 eV

  energy  without entropy=     -539.9641420791  energy(sigma->0) =     -539.97688919

 d Force = 0.3702019E-03[ 0.115E-03, 0.625E-03]  d Energy = 0.6890265E-03-0.319E-03
 d Force = 0.9534876E+00[ 0.950E+00, 0.957E+00]  d Ewald  =-0.1035815E+02 0.113E+02

 Quasi-Newton relaxation of ions (Broydens 2nd method)
  g(Force)  = 0.281E-03   g(Stress)= 0.182E-03

 retain information from N=  1 steps
 eigenvalues of (default step * inverse Hessian matrix)
  average eigenvalue of G=   2.5951
 eigenvalue spectrum of G is  2.5951

 reached required accuracy - stopping structural energy minimisation

volume of typ            1:     5.4 %

[...]

volume of typ            3:    10.2 %

total charge

# of ion       s       p       d       tot
    1        2.069   0.225   0.088   2.383
    2        2.069   0.228   0.089   2.386
    3        2.069   0.224   0.087   2.380
    4        2.069   0.228   0.089   2.386
    5        2.069   0.224   0.087   2.380
    6        2.069   0.225   0.088   2.383
    7        0.290   0.400   7.828   8.519
    8        0.296   0.412   7.833   8.541
    9        0.301   0.422   7.831   8.554
   10        0.297   0.413   7.825   8.535
   11        0.292   0.403   7.827   8.522
   12        0.291   0.403   7.822   8.516
   13        0.297   0.413   7.825   8.535
   14        0.292   0.403   7.827   8.522
   15        0.301   0.422   7.831   8.554
   16        0.292   0.405   7.833   8.530
   17        0.301   0.422   7.831   8.554
   18        0.296   0.412   7.833   8.541
   19        0.292   0.405   7.833   8.530
   20        0.301   0.422   7.831   8.554
   21        0.292   0.403   7.827   8.522
   22        0.302   0.424   7.831   8.557
   23        0.291   0.403   7.822   8.516
   24        0.292   0.403   7.827   8.522
   25        0.297   0.413   7.825   8.535
   26        0.292   0.403   7.827   8.523
   27        0.292   0.403   7.827   8.523
   28        0.290   0.400   7.828   8.519
   29        0.297   0.413   7.833   8.543
   30        0.292   0.403   7.827   8.523
   31        0.297   0.413   7.825   8.535
   32        0.292   0.403   7.827   8.523
   33        0.297   0.413   7.833   8.543
   34        1.275   2.751   0.007   4.033
   35        1.288   2.714   0.008   4.010
   36        1.278   2.743   0.007   4.028
   37        1.275   2.750   0.007   4.033
   38        1.275   2.753   0.007   4.036
   39        1.275   2.754   0.007   4.036
   40        1.286   2.723   0.008   4.017
   41        1.275   2.752   0.007   4.035
   42        1.275   2.754   0.007   4.036
   43        1.286   2.723   0.008   4.017
   44        1.288   2.713   0.008   4.009
   45        1.286   2.718   0.008   4.012
   46        1.286   2.723   0.008   4.017
   47        1.275   2.752   0.007   4.035
   48        1.275   2.754   0.007   4.036
   49        1.286   2.723   0.008   4.017
   50        1.275   2.753   0.007   4.036
   51        1.275   2.754   0.007   4.036
   52        1.275   2.752   0.007   4.035
   53        1.275   2.752   0.007   4.035
   54        1.275   2.754   0.007   4.036
   55        1.275   2.753   0.007   4.036
   56        1.275   2.750   0.007   4.033
   57        1.278   2.743   0.007   4.028
   58        1.275   2.752   0.007   4.035
   59        1.275   2.752   0.007   4.035
   60        1.275   2.754   0.007   4.036
[...]
   73        1.275   2.752   0.007   4.035
   74        1.275   2.752   0.007   4.035
   75        1.286   2.723   0.008   4.016
   76        1.288   2.714   0.008   4.010
   77        1.275   2.751   0.007   4.033
   78        1.278   2.746   0.007   4.031
   79        1.278   2.745   0.007   4.030
   80        1.275   2.752   0.007   4.035
   81        1.286   2.723   0.008   4.016
   82        1.275   2.752   0.007   4.035
   83        1.286   2.723   0.008   4.017
   84        1.286   2.722   0.008   4.016
   85        1.275   2.752   0.007   4.035
   86        1.278   2.745   0.007   4.030
   87        1.278   2.746   0.007   4.031
tot          89.46  160.40  212.31  462.17

magnetization (x)

# of ion       s       p       d       tot
    1        0.005   0.005  -0.000   0.009
    2        0.004   0.005  -0.000   0.009
    3        0.005   0.006  -0.000   0.011
    4        0.004   0.005  -0.000   0.009
    5        0.005   0.006  -0.000   0.011
    6        0.005   0.005  -0.000   0.009
    7       -0.000  -0.000   0.208   0.208
    8       -0.000  -0.000   0.164   0.164
    9       -0.000  -0.000   0.105   0.105
   10       -0.000  -0.000   0.119   0.119
   11       -0.000  -0.000   0.167   0.166
   12       -0.000  -0.000   0.168   0.167
   13       -0.000  -0.000   0.119   0.119
   14       -0.000  -0.000   0.167   0.166
   15       -0.000  -0.000   0.105   0.105
   16       -0.000  -0.000   0.185   0.184
   17       -0.000  -0.000   0.105   0.105
   18       -0.000  -0.000   0.164   0.164
   19       -0.000  -0.000   0.185   0.184
   20       -0.000  -0.000   0.105   0.105
   21       -0.000  -0.000   0.167   0.166
   22       -0.000  -0.000   0.103   0.103
   23       -0.000  -0.000   0.168   0.167
   24       -0.000  -0.000   0.167   0.166
   25       -0.000  -0.000   0.119   0.119
   26       -0.000  -0.000   0.163   0.163
   27       -0.000  -0.000   0.163   0.163
   28       -0.000  -0.000   0.208   0.208
   29       -0.000  -0.000   0.148   0.148
   30       -0.000  -0.000   0.163   0.163
   31       -0.000  -0.000   0.119   0.119
   32       -0.000  -0.000   0.163   0.163
   33       -0.000  -0.000   0.148   0.148
   34        0.003   0.009   0.000   0.012
   35        0.004   0.027   0.000   0.031
   36        0.006   0.032   0.000   0.037
   37        0.003   0.011   0.000   0.015
   38        0.004   0.015   0.000   0.019
   39        0.004   0.013   0.000   0.017
   40        0.003   0.013   0.000   0.015
   41        0.004   0.011   0.000   0.015
   42        0.003   0.008   0.000   0.011
   43        0.002   0.010   0.000   0.013
   44        0.003   0.023   0.000   0.026
   45        0.002   0.007   0.000   0.009
   46        0.003   0.013   0.000   0.015
   47        0.004   0.011   0.000   0.015
   48        0.003   0.008   0.000   0.011
   49        0.002   0.010   0.000   0.013
   50        0.004   0.015   0.000   0.019
   51        0.004   0.013   0.000   0.017
   52        0.004   0.010   0.000   0.014
   53        0.004   0.010   0.000   0.014
   54        0.004   0.013   0.000   0.017
   55        0.004   0.015   0.000   0.019
   56        0.003   0.011   0.000   0.015
   57        0.006   0.032   0.000   0.037
   58        0.004   0.010   0.000   0.014
   59        0.004   0.010   0.000   0.014
   60        0.004   0.013   0.000   0.017
[...]
   73        0.003   0.009   0.000   0.013
   74        0.003   0.009   0.000   0.013
   75        0.003   0.012   0.000   0.015
   76        0.004   0.027   0.000   0.031
   77        0.003   0.009   0.000   0.012
   78        0.005   0.028   0.000   0.033
   79        0.005   0.029   0.000   0.034
   80        0.003   0.009   0.000   0.013
   81        0.003   0.012   0.000   0.015
   82        0.004   0.011   0.000   0.015
   83        0.003   0.013   0.000   0.015
   84        0.003   0.012   0.000   0.015
   85        0.003   0.009   0.000   0.013
   86        0.005   0.029   0.000   0.034
   87        0.005   0.028   0.000   0.033
tot           0.22    0.83    4.07    5.11