 vasp.5.4.4.18Apr17-6-g9f103f2a35 (build May 12 2020 05:39:39) gamma-only

 MD_VERSION_INFO: Compiled 2020-05-12T12:39:39-UTC in devlin.sd.materialsdesign.
 com:/home/medea2/data/build/wwolf/vasp-gpu5.4.4/13047/x86_64/src/src/build/gam
 from svn 13047

 executed on                        Lin64 date 2023.01.19  23:08:31

 INCAR:
 POTCAR:    PAW_PBE Li_sv 10Sep2004
 POTCAR:    PAW_PBE Ni 02Aug2007
 POTCAR:    PAW_PBE O 08Apr2002

 POTCAR:    PAW_PBE Li_sv 10Sep2004

 POTCAR:    PAW_PBE Ni 02Aug2007

 POTCAR:    PAW_PBE O 08Apr2002

 Optimization of the real space projectors (new method)

 maximal supplied QI-value         = 22.11
 optimisation between [QCUT,QGAM] = [ 11.28, 22.77] = [ 35.61,145.23] Ry
 Optimized for a Real-space Cutoff    1.10 Angstroem

   l    n(q)    QCUT    max X(q) W(low)/X(q) W(high)/X(q)  e(spline)
   0      7    11.276    10.506    0.54E-04    0.58E-04    0.16E-07
   0      7    11.276     8.367    0.11E-03    0.14E-03    0.35E-07
   1      7    11.276     8.983    0.23E-03    0.43E-03    0.86E-07
 Optimization of the real space projectors (new method)

[...]

   l    n(q)    QCUT    max X(q) W(low)/X(q) W(high)/X(q)  e(spline)
   2      9    11.376    60.317    0.17E-03    0.16E-04    0.16E-06
   2      9    11.376    55.921    0.17E-03    0.16E-04    0.17E-06
   0     10    11.376    51.690    0.45E-04    0.60E-04    0.21E-06
   0     10    11.376    30.015    0.37E-04    0.55E-04    0.19E-06
   1     10    11.376    18.849    0.83E-04    0.11E-03    0.92E-07
   1     10    11.376    14.624    0.69E-04    0.92E-04    0.82E-07
 Optimization of the real space projectors (new method)

 maximal supplied QI-value         = 24.76
 optimisation between [QCUT,QGAM] = [ 11.39, 22.77] = [ 36.31,145.25] Ry
 Optimized for a Real-space Cutoff    1.10 Angstroem

   l    n(q)    QCUT    max X(q) W(low)/X(q) W(high)/X(q)  e(spline)
   0      7    11.387    20.381    0.22E-03    0.48E-03    0.18E-06
   0      7    11.387    15.268    0.22E-03    0.52E-03    0.19E-06
   1      7    11.387     5.964    0.22E-03    0.73E-03    0.24E-06
   1      7    11.387     5.382    0.19E-03    0.60E-03    0.21E-06

  PAW_PBE Li_sv 10Sep2004               :
  PAW_PBE Ni 02Aug2007                  :
  PAW_PBE O 08Apr2002                   :

 POSCAR: ce425832_1
  positions in direct lattice
 exchange correlation table for  LEXCH =       14
   RHO(1)=    0.500       N(1)  =     2000
   RHO(2)=  100.500       N(2)  =     4000

 ion  position               nearest neighbor table
   1  0.000  0.500  0.000-  46 2.11  34 2.11  82 2.11  81 2.11  33 2.11  69 2.11
   2  0.667  0.500  0.333-  45 2.11  39 2.11  63 2.11  64 2.11  40 2.11  58 2.11
   3  0.000  1.000  0.000-  68 1.86  80 1.86  32 1.86  35 1.86  83 1.86  47 1.86   6 2.79  15 2.79
                             9 2.79  27 2.79  12 2.79  21 2.79
   4  0.112  0.329  0.223-  55 1.85  49 1.85  52 1.87  31 1.87  46 1.87  34 1.87  10 2.78   7 2.78
                            16 2.78  13 2.78  28 2.80  22 2.80
   5  0.223  0.670  0.112-  36 1.86  54 1.86  30 1.87  33 1.87  69 1.87  39 1.90  17 2.78   8 2.78
                            14 2.79  23 2.79  11 2.80  29 2.80
   6  0.333  0.000  0.000-  68 1.86  41 1.86  74 1.86  71 1.86  38 1.86  35 1.86  15 2.79   3 2.79
                            18 2.79  21 2.79  24 2.79   9 2.79
   7  0.443  0.330  0.222-  55 1.86  37 1.86  61 1.87  40 1.87  58 1.87  34 1.90  22 2.78   4 2.78
                            25 2.79  16 2.79  10 2.80  19 2.80
   8  0.555  0.671  0.110-  42 1.85  36 1.85  75 1.87  60 1.87  45 1.87  39 1.87  11 2.78   5 2.78
                            26 2.78  23 2.78  20 2.80  17 2.80
   9  0.667  0.000  0.000-  80 1.86  41 1.86  77 1.86  74 1.86  47 1.86  44 1.86  12 2.79   3 2.79
                            18 2.79  27 2.79  24 2.79   6 2.79
  10  0.778  0.330  0.222-  49 1.86  43 1.86  61 1.87  40 1.87  64 1.87  46 1.90   4 2.78  28 2.78
                            25 2.79  13 2.79   7 2.80  19 2.80
  11  0.888  0.670  0.112-  42 1.86  48 1.86  30 1.87  33 1.87  81 1.87  45 1.90   8 2.78  20 2.78
                            14 2.79  26 2.79   5 2.80  29 2.80
  12  1.000  0.000  0.333-  65 1.86  32 1.86  53 1.86  50 1.86  44 1.86  47 1.86   9 2.79  18 2.79
                             3 2.79  15 2.79  24 2.79  21 2.79
  13  0.111  0.332  0.555-  70 1.86  52 1.86  73 1.86  67 1.87  49 1.87  64 1.89  22 2.78   4 2.78
                            19 2.79  10 2.79  16 2.79  25 2.79
  14  0.222  0.668  0.444-  57 1.86  51 1.86  72 1.86  48 1.87  54 1.87  33 1.89  20 2.78  17 2.78
                            11 2.79   5 2.79  26 2.79  23 2.79
  15  0.333  0.000  0.333-  32 1.86  59 1.86  53 1.86  56 1.86  35 1.86  38 1.86   6 2.79   3 2.79
                            18 2.79  12 2.79  27 2.79  24 2.79
  16  0.445  0.332  0.555-  52 1.86  76 1.86  73 1.86  79 1.87  55 1.87  58 1.89   4 2.78  28 2.78
                            19 2.79   7 2.79  13 2.79  25 2.79
  17  0.555  0.671  0.445-  54 1.85  78 1.85  57 1.87  60 1.87  63 1.87  39 1.87  29 2.78   5 2.78
                            14 2.78  26 2.78  20 2.80   8 2.80
  18  0.667  0.000  0.333-  59 1.86  65 1.86  41 1.86  38 1.86  62 1.86  44 1.86  12 2.79   9 2.79
                             6 2.79  21 2.79  15 2.79  27 2.79
  19  0.778  0.330  0.557-  67 1.86  79 1.86  61 1.87  58 1.87  64 1.87  82 1.90  22 2.78  28 2.78
                            13 2.79  16 2.79   7 2.80  10 2.80
  20  0.890  0.671  0.445-  48 1.85  66 1.85  51 1.87  60 1.87  45 1.87  63 1.87  11 2.78  29 2.78
                            14 2.78  23 2.78   8 2.80  17 2.80
  21  1.000  0.000  0.667-  68 1.86  65 1.86  50 1.86  71 1.86  62 1.86  83 1.86  27 2.79   3 2.79
                            18 2.79  24 2.79   6 2.79  12 2.79
  22  0.112  0.329  0.888-  37 1.85  67 1.85  70 1.87  31 1.87  82 1.87  34 1.87  19 2.78   7 2.78
                            25 2.78  13 2.78  28 2.80   4 2.80
  23  0.222  0.668  0.778-  75 1.86  51 1.86  72 1.86  66 1.87  36 1.87  69 1.89   8 2.78  20 2.78
                            29 2.79   5 2.79  26 2.79  14 2.79
  24  0.333  0.000  0.667-  56 1.86  71 1.86  50 1.86  74 1.86  77 1.86  53 1.86  21 2.79   6 2.79
                            12 2.79   9 2.79  27 2.79  15 2.79
  25  0.445  0.332  0.889-  70 1.86  76 1.86  73 1.86  37 1.87  43 1.87  40 1.89  22 2.78  28 2.78
                             7 2.79  10 2.79  13 2.79  16 2.79
  26  0.556  0.668  0.778-  57 1.86  75 1.86  72 1.86  78 1.87  42 1.87  81 1.89   8 2.78  17 2.78
                            29 2.79  11 2.79  23 2.79  14 2.79
  27  0.667  0.000  0.667-  80 1.86  59 1.86  77 1.86  56 1.86  83 1.86  62 1.86  21 2.79   3 2.79
                            18 2.79   9 2.79  15 2.79  24 2.79
  28  0.777  0.329  0.888-  43 1.85  79 1.85  76 1.87  31 1.87  46 1.87  82 1.87  10 2.78  19 2.78
                            16 2.78  25 2.78  22 2.80   4 2.80
  29  0.888  0.670  0.777-  78 1.86  66 1.86  30 1.87  81 1.87  69 1.87  63 1.90  17 2.78  20 2.78
                            23 2.79  26 2.79   5 2.80  11 2.80
  30  0.000  0.737  0.000-   5 1.87  11 1.87  29 1.87
  31  0.000  0.262  0.000-  28 1.87  22 1.87   4 1.87
  32  0.111  0.067  0.222-   3 1.86  12 1.86  15 1.86
  33  0.109  0.600  0.218-   5 1.87  11 1.87  14 1.89   1 2.11
  34  0.218  0.399  0.109-  22 1.87   4 1.87   7 1.90   1 2.11
  35  0.222  0.933  0.111-   3 1.86  15 1.86   6 1.86
  36  0.333  0.737  0.999-   8 1.85   5 1.86  23 1.87
  37  0.334  0.263  0.999-  22 1.85   7 1.86  25 1.87
  38  0.444  0.067  0.222-  18 1.86   6 1.86  15 1.86
  39  0.449  0.601  0.225-  17 1.87   8 1.87   5 1.90   2 2.11
  40  0.558  0.400  0.116-  10 1.87   7 1.87  25 1.89   2 2.11
  41  0.556  0.933  0.111-  18 1.86   9 1.86   6 1.86
  42  0.666  0.737  0.999-   8 1.85  11 1.86  26 1.87
  43  0.666  0.263  0.999-  28 1.85  10 1.86  25 1.87
  44  0.778  0.067  0.222-  18 1.86  12 1.86   9 1.86
  45  0.775  0.601  0.225-   8 1.87  20 1.87  11 1.90   2 2.11
  46  0.891  0.399  0.109-   4 1.87  28 1.87  10 1.90   1 2.11
  47  0.889  0.933  0.111-   3 1.86   9 1.86  12 1.86
  48  0.001  0.737  0.334-  20 1.85  11 1.86  14 1.87
  49  0.001  0.263  0.334-   4 1.85  10 1.86  13 1.87
  50  0.111  0.067  0.556-  24 1.86  21 1.86  12 1.86
  51  0.110  0.601  0.555-  23 1.86  14 1.86  20 1.87
  52  0.222  0.399  0.444-  16 1.86  13 1.86   4 1.87
  53  0.222  0.933  0.444-  24 1.86  15 1.86  12 1.86
  54  0.333  0.737  0.334-  17 1.85   5 1.86  14 1.87
  55  0.334  0.263  0.334-   4 1.85   7 1.86  16 1.87
  56  0.444  0.067  0.556-  24 1.86  27 1.86  15 1.86
  57  0.445  0.601  0.555-  14 1.86  26 1.86  17 1.87
  58  0.558  0.400  0.442-  19 1.87   7 1.87  16 1.89   2 2.11
  59  0.556  0.933  0.444-  18 1.86  15 1.86  27 1.86
  60  0.667  0.738  0.333-  20 1.87  17 1.87   8 1.87
  61  0.667  0.263  0.333-  10 1.87   7 1.87  19 1.87
  62  0.778  0.067  0.556-  18 1.86  21 1.86  27 1.86
  63  0.775  0.601  0.551-  17 1.87  20 1.87  29 1.90   2 2.11
  64  0.884  0.400  0.442-  19 1.87  10 1.87  13 1.89   2 2.11
  65  0.889  0.933  0.444-  18 1.86  12 1.86  21 1.86
  66  0.001  0.737  0.667-  20 1.85  29 1.86  23 1.87
  67  0.001  0.263  0.666-  22 1.85  19 1.86  13 1.87
  68  0.111  0.067  0.889-   3 1.86   6 1.86  21 1.86
  69  0.109  0.600  0.891-  29 1.87   5 1.87  23 1.89   1 2.11
  70  0.222  0.399  0.778-  25 1.86  13 1.86  22 1.87
  71  0.222  0.933  0.778-  24 1.86  21 1.86   6 1.86
  72  0.333  0.735  0.667-  23 1.86  26 1.86  14 1.86
  73  0.333  0.265  0.667-  13 1.86  16 1.86  25 1.86
  74  0.444  0.067  0.889-  24 1.86   6 1.86   9 1.86
  75  0.445  0.601  0.890-  23 1.86  26 1.86   8 1.87
  76  0.556  0.399  0.778-  16 1.86  25 1.86  28 1.87
  77  0.556  0.933  0.778-  24 1.86  27 1.86   9 1.86
  78  0.666  0.737  0.667-  17 1.85  29 1.86  26 1.87
  79  0.666  0.263  0.666-  28 1.85  19 1.86  16 1.87
  80  0.778  0.067  0.889-   3 1.86   9 1.86  27 1.86
  81  0.782  0.600  0.891-  29 1.87  11 1.87  26 1.89   1 2.11
  82  0.891  0.399  0.782-  22 1.87  28 1.87  19 1.90   1 2.11
  83  0.889  0.933  0.778-   3 1.86  27 1.86  21 1.86

  LATTYP: Found a hexagonal cell.
 ALAT       =     8.3647568467
 C/A-ratio  =     1.6686301744

  Lattice vectors:

 A1 = (   4.1823784310,  -7.2440919213,   0.0000000000)
 A2 = (  -8.3647568620,   0.0000000000,   0.0000000000)
 A3 = (   0.0000000000,   0.0000000000, -13.9576856755)

Analysis of symmetry for initial positions (statically):
 Subroutine PRICEL returns:
 Original cell was already a primitive cell.

 Routine SETGRP: Setting up the symmetry group for a
 hexagonal supercell.

 Subroutine GETGRP returns: Found 12 space group operations
 (whereof  6 operations were pure point group operations)
 out of a pool of 24 trial point group operations.

The static configuration has the point symmetry C_3v.
 The point group associated with its full space group is D_3d.

Analysis of symmetry for dynamics (positions and initial velocities):
 Subroutine PRICEL returns:
 Original cell was already a primitive cell.

[...]

The dynamic configuration has the point symmetry C_3v.
 The point group associated with its full space group is D_3d.

Analysis of structural, dynamic, and magnetic symmetry:
[...]
   -.641E+01 -.422E+01 0.370E+03   0.684E+01 0.475E+01 -.399E+03   -.437E+00 -.559E+00 0.286E+02   0.560E-04 0.276E-01 -.590E-02
   -.131E+01 0.759E+00 -.368E+03   0.129E+01 -.748E+00 0.396E+03   0.297E-01 -.171E-01 -.280E+02   -.101E-01 0.583E-02 0.471E-02
   -.974E+01 0.562E+01 0.382E+03   0.962E+01 -.556E+01 -.410E+03   0.971E-01 -.561E-01 0.276E+02   0.156E-01 -.899E-02 -.962E-03
   -.345E+02 0.199E+02 -.354E+03   0.369E+02 -.213E+02 0.377E+03   -.239E+01 0.138E+01 -.229E+02   -.818E-02 0.472E-02 -.207E-01
   -.126E+01 0.726E+00 0.366E+03   0.127E+01 -.731E+00 -.394E+03   -.794E-02 0.459E-02 0.281E+02   -.545E-03 0.315E-03 0.436E-02
   0.221E-04 -.136E-04 -.378E+03   0.126E-04 -.786E-05 0.405E+03   0.225E-21 0.315E-22 -.278E+02   0.514E-08 -.303E-08 0.268E-01
[...]
   0.974E+01 -.562E+01 -.382E+03   -.962E+01 0.556E+01 0.410E+03   -.971E-01 0.561E-01 -.276E+02   -.156E-01 0.899E-02 0.963E-03
   0.131E+01 -.759E+00 0.368E+03   -.129E+01 0.748E+00 -.396E+03   -.297E-01 0.171E-01 0.280E+02   0.101E-01 -.583E-02 -.471E-02
   -.644E-04 0.369E-04 -.365E+03   -.190E-04 0.103E-04 0.393E+03   -.529E-21 0.323E-21 -.276E+02   0.531E-09 -.286E-09 -.331E-02
   -.688E-04 0.378E-04 0.365E+03   -.133E-04 0.831E-05 -.393E+03   0.318E-21 -.534E-21 0.276E+02   -.126E-08 0.639E-09 0.331E-02
   0.131E+01 0.759E+00 -.368E+03   -.129E+01 -.748E+00 0.396E+03   -.297E-01 -.171E-01 -.280E+02   0.101E-01 0.583E-02 0.471E-02
   0.974E+01 0.562E+01 0.382E+03   -.962E+01 -.556E+01 -.410E+03   -.971E-01 -.561E-01 0.276E+02   -.156E-01 -.899E-02 -.962E-03
   0.153E-04 0.112E+02 -.382E+03   0.178E-04 -.111E+02 0.410E+03   -.867E-18 -.112E+00 -.276E+02   -.660E-07 -.180E-01 0.963E-03
   0.252E-04 0.152E+01 0.368E+03   -.753E-05 -.150E+01 -.396E+03   0.434E-18 -.343E-01 0.280E+02   0.542E-08 0.117E-01 -.471E-02
   -.686E+01 0.344E+01 -.370E+03   0.753E+01 -.355E+01 0.399E+03   -.703E+00 0.990E-01 -.286E+02   0.239E-01 0.137E-01 0.590E-02
   0.450E+00 0.766E+01 0.370E+03   -.691E+00 -.830E+01 -.399E+03   0.266E+00 0.658E+00 0.286E+02   -.239E-01 -.138E-01 -.590E-02
   -.667E-04 0.145E+01 -.366E+03   -.222E-04 -.146E+01 0.394E+03   0.000E+00 0.917E-02 -.281E+02   0.141E-07 0.630E-03 -.436E-02
   0.232E-04 0.398E+02 0.354E+03   0.129E-04 -.426E+02 -.377E+03   -.278E-16 0.276E+01 0.229E+02   -.253E-07 0.945E-02 0.207E-01
   0.273E+02 0.157E+02 -.352E+03   -.298E+02 -.172E+02 0.375E+03   0.257E+01 0.148E+01 -.230E+02   -.209E-01 -.121E-01 0.748E-02
   0.299E+00 0.172E+00 0.367E+03   -.351E+00 -.203E+00 -.395E+03   0.499E-01 0.288E-01 0.280E+02   0.222E-02 0.128E-02 -.278E-02
   -.134E-02 0.953E-03 0.653E-03   0.487E-12 0.346E-13 -.398E-12   -.162E-14 -.815E-15 -.355E-13   0.574E-08 -.445E-08 -.207E-05

 POSITION                                       TOTAL-FORCE (eV/Angst)
     -0.00000     -0.00000      6.97758         0.000000      0.000000      0.005883
     -0.00000      4.82752      6.98610         0.000000      0.000000     -0.005883
     -0.00000     -0.00000     13.96269         0.000000      0.000000      0.000930
      1.40018      0.80839      4.59554        -0.010448     -0.006032     -0.007918
      0.00000      1.61742      9.35722         0.000000      0.002040      0.005734
     -1.39356      2.41376     -0.00000        -0.001238      0.000000     -0.000000
     -0.00000      3.21010      4.60646         0.000000     -0.002040     -0.005734
     -1.40018      4.01913      9.36813         0.010448      0.006032      0.007918
     -2.78716      4.82755     -0.00000        -0.000619     -0.001072     -0.000000
     -1.40073      5.63623      4.60646        -0.001766      0.001020     -0.005734
     -2.78003      6.43257      9.35722         0.001766     -0.001020      0.005734
     -1.39360      7.24126     -0.00000         0.000619      0.001072     -0.000000
      4.18076      0.80125      4.63398         0.000000     -0.003454     -0.005799
      2.78428      1.60750      9.32969        -0.002991     -0.001727      0.005799
      1.39356      2.41376     -0.00000         0.001238      0.000000     -0.000000
      2.78428      3.22002      4.63398        -0.002991      0.001727     -0.005799
      1.40018      4.01913      9.36813        -0.010448      0.006032      0.007918
     -0.00000      4.82752      0.00098         0.000000      0.000000     -0.000930
      1.40073      5.63623      4.60646         0.001766      0.001020     -0.005734
     -0.00000      6.44431      9.36813        -0.000000     -0.012064      0.007918
      1.39360      7.24126     -0.00000        -0.000619      0.001072     -0.000000
      6.96133      0.80839      4.59554         0.010448     -0.006032     -0.007918
      5.57723      1.60750      9.32969         0.002991     -0.001727      0.005799
      4.18076      2.41376     -0.00000         0.000000      0.000000     -0.000000
      5.57723      3.22002      4.63398         0.002991      0.001727     -0.005799
      4.18076      4.02627      9.32969         0.000000      0.003454      0.005799
      2.78716      4.82755     -0.00000         0.000619     -0.001072     -0.000000
      4.18076      5.62449      4.59554         0.000000      0.012064     -0.007918
      2.78003      6.43257      9.35722        -0.001766     -0.001020      0.005734
     -0.00000     -0.00000     10.29014         0.000000      0.000000      0.010267
     -0.00000     -0.00000      3.65502         0.000000      0.000000     -0.016941
      1.39320      0.80436      0.93956        -0.000125     -0.000072     -0.001639
      1.36426      0.78766      8.38575         0.002207      0.001274      0.016291
     -0.00000      1.57602      5.56945         0.000000     -0.001437     -0.010927
      0.00000      1.60890     13.02191         0.000000      0.000236      0.001957
      6.96104      2.40981     10.28990         0.002324      0.002254      0.012075
      6.96104      2.41771      3.67378         0.002324     -0.002254     -0.012075
     -0.00000      3.21862      0.94176         0.000000     -0.000236     -0.001957
      0.00000      3.25150      8.39423         0.000000      0.001437      0.010927
     -1.36426      4.03986      5.57793        -0.002207     -0.001274     -0.016291
     -1.39320      4.02316     13.02412         0.000125      0.000072      0.001639
      5.56748      4.82354     10.28990         0.003114      0.000886      0.012075
      5.57432      4.81959      3.67378        -0.000790      0.003140     -0.012075
     -1.39335      5.63197      0.94176        -0.000204      0.000118     -0.001957
     -1.36488      5.61553      8.39423         0.001244     -0.000718      0.010927
     -2.81588      6.45327      5.56945        -0.001244      0.000718     -0.010927
     -2.78741      6.43683     13.02191         0.000204     -0.000118      0.001957
      2.78719      0.00793     10.28990         0.000790     -0.003140      0.012075
      2.79403      0.00399      3.67378        -0.003114     -0.000886     -0.012075
      4.18076      0.80502      0.94116         0.000000     -0.000309     -0.001718
      4.18076      0.79822      8.39797         0.000000     -0.002466      0.018551
      2.78166      1.60599      5.56571        -0.002135     -0.001233     -0.018551
      2.78754      1.60939     13.02252        -0.000267     -0.000154      0.001718
      1.40047      2.40981     10.28990        -0.002324      0.002254      0.012075
      1.40047      2.41771      3.67378        -0.002324     -0.002254     -0.012075
      2.78754      3.21813      0.94116        -0.000267      0.000154     -0.001718
      2.78166      3.22153      8.39797        -0.002135      0.001233      0.018551
      1.36426      4.03986      5.57793         0.002207     -0.001274     -0.016291
      1.39320      4.02316     13.02412        -0.000125      0.000072      0.001639
     -0.00000      4.82752     10.30865         0.000000      0.000000      0.016941
[...]
      6.99725      0.78766      8.38575        -0.002207      0.001274      0.016291
      5.57985      1.60599      5.56571         0.002135     -0.001233     -0.018551
      5.57397      1.60939     13.02252         0.000267     -0.000154      0.001718
      4.18076      2.41376     10.26321         0.000000      0.000000      0.011505
      4.18076      2.41376      3.70047         0.000000      0.000000     -0.011505
      5.57397      3.21813      0.94116         0.000267      0.000154     -0.001718
      5.57985      3.22153      8.39797         0.002135      0.001233      0.018551
      4.18076      4.02930      5.56571         0.000000      0.002466     -0.018551
      4.18076      4.02251     13.02252         0.000000      0.000309      0.001718
      2.79403      4.82354     10.28990        -0.003114      0.000886      0.012075
      2.78719      4.81959      3.67378         0.000790      0.003140     -0.012075
      4.18076      5.63256      0.93956         0.000000      0.000144     -0.001639
      4.18076      5.66596      8.38575         0.000000     -0.002548      0.016291
      2.81588      6.45327      5.56945         0.001244      0.000718     -0.010927
      2.78741      6.43683     13.02191        -0.000204     -0.000118      0.001957
    total drift:                               -0.001338      0.000953      0.000651

  FREE ENERGIE OF THE ION-ELECTRON SYSTEM (eV)
  free  energy   TOTEN  =      -517.9819280127 eV

  energy  without entropy=     -517.9358738108  energy(sigma->0) =     -517.95890091

 d Force = 0.5889622E-03[ 0.874E-04, 0.109E-02]  d Energy = 0.7210568E-03-0.132E-03
 d Force = 0.4441536E+01[ 0.443E+01, 0.445E+01]  d Ewald  =-0.2150859E+01 0.659E+01

 Quasi-Newton relaxation of ions (Broydens 2nd method)
  g(Force)  = 0.447E-03   g(Stress)= 0.102E-03

 retain information from N=  2 steps
 eigenvalues of (default step * inverse Hessian matrix)
  average eigenvalue of G=   0.8913
 eigenvalue spectrum of G is  0.0920  1.6907

 reached required accuracy - stopping structural energy minimisation

volume of typ            1:     1.8 %

[...]

volume of typ            3:    10.4 %

total charge

# of ion       s       p       d       tot
    1        2.069   0.222   0.088   2.378
    2        2.069   0.222   0.088   2.378
    3        0.304   0.427   7.817   8.547
    4        0.303   0.427   7.824   8.554
    5        0.299   0.417   7.826   8.542
    6        0.303   0.426   7.817   8.546
    7        0.299   0.417   7.826   8.542
    8        0.303   0.427   7.824   8.554
    9        0.303   0.426   7.817   8.546
   10        0.299   0.417   7.826   8.542
   11        0.299   0.417   7.826   8.542
   12        0.303   0.426   7.817   8.546
   13        0.299   0.417   7.820   8.536
   14        0.299   0.417   7.820   8.536
   15        0.303   0.426   7.817   8.546
   16        0.299   0.417   7.820   8.536
   17        0.303   0.427   7.824   8.554
   18        0.304   0.427   7.817   8.547
   19        0.299   0.417   7.826   8.542
   20        0.303   0.427   7.824   8.554
   21        0.303   0.426   7.817   8.546
   22        0.303   0.427   7.824   8.554
   23        0.299   0.417   7.820   8.536
   24        0.303   0.426   7.818   8.547
   25        0.299   0.417   7.820   8.536
   26        0.299   0.417   7.820   8.536
   27        0.303   0.426   7.817   8.546
   28        0.303   0.427   7.824   8.554
   29        0.299   0.417   7.826   8.542
   30        1.290   2.711   0.008   4.010
   31        1.287   2.717   0.008   4.013
   32        1.286   2.723   0.008   4.017
   33        1.275   2.755   0.007   4.037
   34        1.275   2.755   0.007   4.037
   35        1.286   2.723   0.008   4.016
   36        1.286   2.722   0.008   4.016
   37        1.286   2.722   0.008   4.016
   38        1.286   2.723   0.008   4.016
   39        1.275   2.755   0.007   4.037
   40        1.275   2.755   0.007   4.037
   41        1.286   2.723   0.008   4.017
   42        1.286   2.722   0.008   4.016
   43        1.286   2.722   0.008   4.016
   44        1.286   2.723   0.008   4.016
   45        1.275   2.755   0.007   4.037
   46        1.275   2.755   0.007   4.037
   47        1.286   2.723   0.008   4.016
   48        1.286   2.722   0.008   4.016
   49        1.286   2.722   0.008   4.016
   50        1.286   2.722   0.008   4.016
   51        1.285   2.724   0.008   4.018
   52        1.285   2.724   0.008   4.018
   53        1.286   2.722   0.008   4.016
   54        1.286   2.722   0.008   4.016
   55        1.286   2.722   0.008   4.016
   56        1.286   2.722   0.008   4.016
   57        1.285   2.724   0.008   4.018
   58        1.275   2.755   0.007   4.037
   59        1.286   2.723   0.008   4.017
   60        1.287   2.717   0.008   4.013
[...]
   69        1.275   2.755   0.007   4.037
   70        1.285   2.724   0.008   4.018
   71        1.286   2.722   0.008   4.016
   72        1.290   2.713   0.008   4.011
   73        1.290   2.713   0.008   4.011
   74        1.286   2.722   0.008   4.016
   75        1.285   2.724   0.008   4.018
   76        1.285   2.724   0.008   4.018
   77        1.286   2.722   0.008   4.016
   78        1.286   2.722   0.008   4.016
   79        1.286   2.722   0.008   4.016
   80        1.286   2.723   0.008   4.017
   81        1.275   2.755   0.007   4.037
   82        1.275   2.755   0.007   4.037
   83        1.286   2.723   0.008   4.016
tot          81.59  159.20  211.78  452.57

magnetization (x)

# of ion       s       p       d       tot
    1        0.004   0.002  -0.000   0.006
    2        0.004   0.002  -0.000   0.006
    3       -0.000   0.000   0.005   0.005
    4       -0.000  -0.000   0.041   0.041
    5       -0.000  -0.000   0.100   0.099
    6        0.000  -0.000   0.017   0.017
    7       -0.000  -0.000   0.100   0.099
    8       -0.000  -0.000   0.041   0.041
    9        0.000  -0.000   0.017   0.017
   10       -0.000  -0.000   0.100   0.099
   11       -0.000  -0.000   0.100   0.099
   12        0.000  -0.000   0.017   0.017
   13       -0.000  -0.000   0.063   0.062
   14       -0.000  -0.000   0.063   0.062
   15        0.000  -0.000   0.017   0.017
   16       -0.000  -0.000   0.063   0.062
   17       -0.000  -0.000   0.041   0.041
   18       -0.000   0.000   0.005   0.005
   19       -0.000  -0.000   0.100   0.099
   20       -0.000  -0.000   0.041   0.041
   21        0.000  -0.000   0.017   0.017
   22       -0.000  -0.000   0.041   0.041
   23       -0.000  -0.000   0.063   0.062
   24       -0.000   0.000   0.014   0.014
   25       -0.000  -0.000   0.063   0.062
   26       -0.000  -0.000   0.063   0.062
   27        0.000  -0.000   0.017   0.017
   28       -0.000  -0.000   0.041   0.041
   29       -0.000  -0.000   0.100   0.099
   30        0.004   0.051   0.000   0.056
   31        0.001   0.010   0.000   0.011
   32        0.000  -0.000   0.000  -0.000
   33        0.002   0.009   0.000   0.011
   34        0.002   0.008   0.000   0.010
   35        0.000   0.001   0.000   0.001
   36        0.001   0.002   0.000   0.003
   37        0.001   0.002   0.000   0.003
   38        0.000   0.001   0.000   0.001
   39        0.002   0.008   0.000   0.010
   40        0.002   0.009   0.000   0.011
   41        0.000  -0.000   0.000  -0.000
   42        0.001   0.002   0.000   0.003
   43        0.001   0.002   0.000   0.003
   44        0.000   0.001   0.000   0.001
   45        0.002   0.008   0.000   0.010
   46        0.002   0.008   0.000   0.010
   47        0.000   0.001   0.000   0.001
   48        0.001   0.002   0.000   0.003
   49        0.001   0.002   0.000   0.003
   50        0.001   0.001   0.000   0.001
   51        0.001   0.002   0.000   0.002
   52        0.001   0.002   0.000   0.002
   53        0.001   0.001   0.000   0.001
   54        0.001   0.002   0.000   0.003
   55        0.001   0.002   0.000   0.003
   56        0.001   0.001   0.000   0.001
   57        0.001   0.002   0.000   0.002
   58        0.002   0.009   0.000   0.011
   59        0.000  -0.000   0.000  -0.000
   60        0.001   0.010   0.000   0.011
[...]
   69        0.002   0.009   0.000   0.011
   70        0.001   0.002   0.000   0.002
   71        0.001   0.001   0.000   0.001
   72        0.003   0.043   0.000   0.046
   73        0.003   0.043   0.000   0.046
   74        0.001   0.001   0.000   0.001
   75        0.001   0.002   0.000   0.002
   76        0.001   0.002   0.000   0.002
   77        0.001   0.001   0.000   0.001
   78        0.001   0.002   0.000   0.003
   79        0.001   0.002   0.000   0.003
   80        0.000  -0.000   0.000  -0.000
   81        0.002   0.009   0.000   0.011
   82        0.002   0.008   0.000   0.010
   83        0.000   0.001   0.000   0.001
tot           0.07    0.35    1.35    1.78