 vasp.5.4.4.18Apr17-6-g9f103f2a35 (build May 12 2020 05:39:39) gamma-only

 MD_VERSION_INFO: Compiled 2020-05-12T12:39:39-UTC in devlin.sd.materialsdesign.
 com:/home/medea2/data/build/wwolf/vasp-gpu5.4.4/13047/x86_64/src/src/build/gam
 from svn 13047

 executed on                        Lin64 date 2023.01.19  13:18:41

 INCAR:
 POTCAR:    PAW_PBE Li_sv 10Sep2004
 POTCAR:    PAW_PBE Ni 02Aug2007
 POTCAR:    PAW_PBE O 08Apr2002

 POTCAR:    PAW_PBE Li_sv 10Sep2004

 POTCAR:    PAW_PBE Ni 02Aug2007

 POTCAR:    PAW_PBE O 08Apr2002

 Optimization of the real space projectors (new method)

 maximal supplied QI-value         = 22.11
 optimisation between [QCUT,QGAM] = [ 11.28, 22.77] = [ 35.61,145.23] Ry
 Optimized for a Real-space Cutoff    1.10 Angstroem

   l    n(q)    QCUT    max X(q) W(low)/X(q) W(high)/X(q)  e(spline)
   0      7    11.276    10.506    0.54E-04    0.58E-04    0.16E-07
   0      7    11.276     8.367    0.11E-03    0.14E-03    0.35E-07
   1      7    11.276     8.983    0.23E-03    0.43E-03    0.86E-07
 Optimization of the real space projectors (new method)

[...]

   l    n(q)    QCUT    max X(q) W(low)/X(q) W(high)/X(q)  e(spline)
   2      9    11.376    60.317    0.17E-03    0.16E-04    0.16E-06
   2      9    11.376    55.921    0.17E-03    0.16E-04    0.17E-06
   0     10    11.376    51.690    0.45E-04    0.60E-04    0.21E-06
   0     10    11.376    30.015    0.37E-04    0.55E-04    0.19E-06
   1     10    11.376    18.849    0.83E-04    0.11E-03    0.92E-07
   1     10    11.376    14.624    0.69E-04    0.92E-04    0.82E-07
 Optimization of the real space projectors (new method)

 maximal supplied QI-value         = 24.76
 optimisation between [QCUT,QGAM] = [ 11.39, 22.77] = [ 36.31,145.25] Ry
 Optimized for a Real-space Cutoff    1.10 Angstroem

   l    n(q)    QCUT    max X(q) W(low)/X(q) W(high)/X(q)  e(spline)
   0      7    11.387    20.381    0.22E-03    0.48E-03    0.18E-06
   0      7    11.387    15.268    0.22E-03    0.52E-03    0.19E-06
   1      7    11.387     5.964    0.22E-03    0.73E-03    0.24E-06
   1      7    11.387     5.382    0.19E-03    0.60E-03    0.21E-06

  PAW_PBE Li_sv 10Sep2004               :
  PAW_PBE Ni 02Aug2007                  :
  PAW_PBE O 08Apr2002                   :

 POSCAR: ce417810_1
  positions in direct lattice
 exchange correlation table for  LEXCH =       14
   RHO(1)=    0.500       N(1)  =     2000
   RHO(2)=  100.500       N(2)  =     4000

 ion  position               nearest neighbor table
   1  0.998  0.497  0.024-  53 1.99  40 2.01  88 2.09  41 2.14  76 2.26  89 2.26  18 2.77  11 2.78

   2  0.076  0.836  0.189-  54 1.96  37 1.96  55 2.09  42 2.15  18 2.74  10 2.76
   3  0.360  0.497  0.024-  47 1.99  46 2.01  82 2.09  41 2.14  76 2.26  77 2.26  15 2.77  14 2.78

[...]

   9  0.668  0.496  0.641-  70 1.98  65 2.01  89 2.11  64 2.13  88 2.27  83 2.27  24 2.77  26 2.78

  10  1.000  0.007  0.999-  39 1.87  75 1.87  87 1.87  54 1.88  90 1.89  42 1.92   2 2.76  28 2.79
                            34 2.80  13 2.81  16 2.81  22 2.81  19 2.81
  11  0.112  0.327  0.223-  62 1.87  38 1.87  56 1.87  53 1.88  59 1.89  41 1.92   1 2.78  23 2.79
                            20 2.80  14 2.81  17 2.81  29 2.81  35 2.81
  12  0.223  0.667  0.112-  37 1.87  43 1.87  76 1.87  46 1.87  40 1.87  61 1.90  24 2.78  21 2.78
                            36 2.80  30 2.80  18 2.82  15 2.82
  13  0.333  0.007  0.999-  45 1.87  75 1.87  81 1.87  48 1.88  78 1.89  42 1.92   4 2.76  28 2.79
                            31 2.80  10 2.81  16 2.81  22 2.81  25 2.81
  14  0.445  0.327  0.223-  62 1.87  44 1.87  68 1.87  47 1.88  65 1.89  41 1.92   3 2.78  23 2.79
                            26 2.80  11 2.81  17 2.81  29 2.81  32 2.81
  15  0.557  0.666  0.111-  49 1.86  52 1.86  43 1.89  46 1.89  67 1.91  82 1.91   4 2.74   3 2.77
                            33 2.78  27 2.78  18 2.79  24 2.80  30 2.81  12 2.82
  16  0.667  0.005  0.000-  87 1.87  81 1.87  51 1.87  54 1.89  48 1.89  84 1.89  25 2.80  19 2.80
                            34 2.80  31 2.80  10 2.81  13 2.81
  17  0.778  0.329  0.222-  56 1.87  68 1.87  71 1.87  50 1.88  47 1.89  53 1.89  20 2.80  26 2.80
                            35 2.80  32 2.80  11 2.81  14 2.81
  18  0.888  0.666  0.111-  49 1.86  52 1.86  37 1.89  40 1.89  55 1.91  88 1.91   2 2.74   1 2.77
                            33 2.78  27 2.78  15 2.79  21 2.80  36 2.81  12 2.82
  19  1.000  0.006  0.334-  51 1.86  57 1.87  39 1.87  54 1.88  72 1.92  60 1.93  25 2.80  16 2.80
                            31 2.80  28 2.81  10 2.81  22 2.81
  20  0.110  0.326  0.556-  74 1.86  56 1.87  71 1.87  80 1.88  59 1.88  77 1.92   8 2.78  29 2.79
                            26 2.79  17 2.80  11 2.80  32 2.81  23 2.82
  21  0.223  0.666  0.443-  58 1.87  55 1.88  79 1.88  40 1.88  64 1.91  61 1.92   8 2.77  12 2.78
                            24 2.78  18 2.80  27 2.82  33 2.83  30 2.83
  22  0.334  0.006  0.334-  63 1.86  45 1.87  39 1.87  42 1.88  60 1.93  66 1.93  34 2.80  31 2.80
                            10 2.81  13 2.81  19 2.81  25 2.81
  23  0.444  0.325  0.555-  62 1.86  86 1.87  80 1.87  59 1.88  65 1.88  83 1.88  11 2.79  14 2.79
                            32 2.80  35 2.80  26 2.82  20 2.82
  24  0.553  0.666  0.443-  70 1.87  67 1.88  85 1.88  46 1.88  64 1.91  61 1.92   9 2.77  12 2.78
                            21 2.78  15 2.80  27 2.82  33 2.83  36 2.83
  25  0.667  0.006  0.334-  51 1.86  69 1.87  45 1.87  48 1.88  72 1.92  66 1.93  19 2.80  16 2.80
                            34 2.80  28 2.81  13 2.81  22 2.81
  26  0.779  0.326  0.556-  74 1.86  68 1.87  71 1.87  86 1.88  65 1.88  89 1.92   9 2.78  29 2.79
                            20 2.79  17 2.80  14 2.80  35 2.81  23 2.82
  27  0.887  0.666  0.441-  52 1.85  73 1.89  58 1.92  70 1.92  67 1.93  55 1.93  15 2.78  18 2.78
                            21 2.82  24 2.82  30 2.83  36 2.83
  28  0.001  0.009  0.668-  75 1.86  69 1.87  57 1.87  90 1.88  78 1.88  72 1.89  13 2.79  10 2.79
                            25 2.81  19 2.81  34 2.81  31 2.81
  29  0.111  0.328  0.888-  74 1.86  44 1.87  38 1.87  41 1.88  77 1.91  89 1.91  20 2.79  26 2.79
                            14 2.81  11 2.81  32 2.82  35 2.82
  30  0.222  0.668  0.778-  82 1.87  58 1.88  43 1.89  73 1.91  76 1.92  79 1.92   5 2.78  36 2.79
                            12 2.80  15 2.81  33 2.82  27 2.83  21 2.83
  31  0.333  0.008  0.667-  63 1.87  57 1.87  81 1.87  78 1.88  84 1.88  60 1.93  13 2.80  22 2.80
                            16 2.80  19 2.80  34 2.81  28 2.81
  32  0.445  0.326  0.889-  50 1.86  80 1.87  44 1.87  47 1.88  77 1.88  83 1.91  35 2.79  17 2.80
                            23 2.80  20 2.81  14 2.81  29 2.82
  33  0.557  0.665  0.781-  49 1.85  64 1.88  88 1.92  82 1.92  85 1.95  79 1.95  18 2.78  15 2.78
                             6 2.78  36 2.82  30 2.82  24 2.83  21 2.83
  34  0.667  0.008  0.667-  63 1.87  69 1.87  87 1.87  90 1.88  84 1.88  66 1.93  10 2.80  22 2.80
                            16 2.80  25 2.80  31 2.81  28 2.81
  35  0.777  0.326  0.889-  50 1.86  86 1.87  38 1.87  53 1.88  89 1.88  83 1.91  32 2.79  17 2.80
                            23 2.80  26 2.81  11 2.81  29 2.82
  36  0.890  0.668  0.778-  88 1.87  70 1.88  37 1.89  73 1.91  76 1.92  85 1.92   7 2.78  30 2.79
                            12 2.80  18 2.81  33 2.82  27 2.83  24 2.83
  37  0.002  0.735  0.003-  12 1.87  18 1.89  36 1.89   2 1.96
  38  0.001  0.261  0.001-  11 1.87  35 1.87  29 1.87
  39  0.111  0.072  0.223-  19 1.87  10 1.87  22 1.87
  40  0.111  0.597  0.220-  12 1.87  21 1.88  18 1.89   1 2.01
  41  0.220  0.399  0.107-  29 1.88  14 1.92  11 1.92   3 2.14   1 2.14
  42  0.224  0.935  0.115-  22 1.88  10 1.92  13 1.92   2 2.15   4 2.15
  43  0.334  0.735  0.003-  12 1.87  15 1.89  30 1.89   4 1.96
  44  0.333  0.261  0.001-  14 1.87  32 1.87  29 1.87
  45  0.445  0.072  0.223-  25 1.87  13 1.87  22 1.87
  46  0.442  0.597  0.220-  12 1.87  24 1.88  15 1.89   3 2.01
  47  0.553  0.396  0.109-  14 1.88  32 1.88  17 1.89   3 1.99
  48  0.555  0.938  0.113-  25 1.88  13 1.88  16 1.89   4 1.96
  49  0.666  0.732  0.999-  33 1.85  18 1.86  15 1.86
  50  0.667  0.260  0.001-  35 1.86  32 1.86  17 1.88
  51  0.778  0.073  0.222-  25 1.86  19 1.86  16 1.87
  52  0.778  0.599  0.222-  27 1.85  15 1.86  18 1.86
  53  0.890  0.396  0.109-  11 1.88  35 1.88  17 1.89   1 1.99
  54  0.892  0.938  0.113-  19 1.88  10 1.88  16 1.89   2 1.96
  55  0.005  0.738  0.333-  21 1.88  18 1.91  27 1.93   2 2.09   5 2.24
  56  0.999  0.260  0.333-  20 1.87  17 1.87  11 1.87
  57  0.111  0.074  0.554-  19 1.87  31 1.87  28 1.87
  58  0.117  0.598  0.558-  21 1.87  30 1.88  27 1.92   8 1.98
  59  0.224  0.395  0.447-  23 1.88  20 1.88  11 1.89   8 2.01
  60  0.223  0.932  0.447-  31 1.93  19 1.93  22 1.93   5 2.15   6 2.18
  61  0.333  0.741  0.332-  12 1.90  24 1.92  21 1.92   6 2.28
  62  0.333  0.259  0.332-  23 1.86  14 1.87  11 1.87
  63  0.443  0.074  0.553-  22 1.86  31 1.87  34 1.87
  64  0.447  0.595  0.561-  33 1.88  21 1.91  24 1.91   8 2.13   9 2.13
  65  0.557  0.395  0.447-  23 1.88  26 1.88  14 1.89   9 2.01
  66  0.558  0.932  0.447-  34 1.93  25 1.93  22 1.93   7 2.15   6 2.18
  67  0.661  0.738  0.333-  24 1.88  15 1.91  27 1.93   4 2.09   7 2.24
  68  0.668  0.260  0.333-  26 1.87  17 1.87  14 1.87
  69  0.777  0.074  0.554-  25 1.87  34 1.87  28 1.87
  70  0.774  0.598  0.558-  24 1.87  36 1.88  27 1.92   9 1.98
  71  0.890  0.394  0.446-  20 1.87  26 1.87  17 1.87
  72  0.892  0.935  0.451-  28 1.89  25 1.92  19 1.92   5 2.15   7 2.15
  73  0.997  0.738  0.660-  27 1.89  30 1.91  36 1.91   5 2.05   7 2.05
  74  0.001  0.260  0.668-  20 1.86  26 1.86  29 1.86
  75  0.112  0.075  0.891-  28 1.86  10 1.87  13 1.87
  76  0.114  0.596  0.895-  12 1.87  36 1.92  30 1.92   1 2.26   3 2.26
  77  0.227  0.398  0.779-  32 1.88  29 1.91  20 1.92   8 2.11   3 2.26
  78  0.221  0.939  0.775-  31 1.88  28 1.88  13 1.89   5 2.04
  79  0.330  0.738  0.660-  21 1.88  30 1.92  33 1.95   6 2.03   5 2.07
  80  0.334  0.259  0.668-  23 1.87  32 1.87  20 1.88
  81  0.446  0.074  0.890-  31 1.87  13 1.87  16 1.87
  82  0.438  0.595  0.888-  30 1.87  15 1.91  33 1.92   3 2.09   8 2.27
  83  0.553  0.397  0.772-  23 1.88  35 1.91  32 1.91   9 2.27   8 2.27
  84  0.554  0.939  0.774-  34 1.88  31 1.88  16 1.89   6 1.99
  85  0.663  0.738  0.660-  24 1.88  36 1.92  33 1.95   6 2.03   7 2.07
  86  0.667  0.259  0.668-  23 1.87  35 1.87  26 1.88
  87  0.778  0.074  0.890-  34 1.87  10 1.87  16 1.87
  88  0.784  0.595  0.888-  36 1.87  18 1.91  33 1.92   1 2.09   9 2.27
  89  0.885  0.398  0.779-  35 1.88  29 1.91  26 1.92   9 2.11   1 2.26
  90  0.888  0.939  0.775-  34 1.88  28 1.88  10 1.89   7 2.04

  LATTYP: Found a base centered monoclinic cell.
 ALAT       =    14.5586103729
 B/A-ratio  =     0.5787023210
 C/A-ratio  =     2.2212371400
 COS(beta)  =    -0.7806701891

  Lattice vectors:

 A1 = (   4.1977775895,   7.2878227013,   0.0131090948)
 A2 = (   8.4103283962,  -0.0085293255,   0.0131090948)
 A3 = ( -25.2383853389, -14.5713885524, -14.0161670476)

Analysis of symmetry for initial positions (statically):
[...]
   0.536E+01 0.470E+02 0.343E+03   -.511E+01 -.503E+02 -.363E+03   -.263E+00 0.332E+01 0.203E+02   0.118E-01 0.516E-02 -.122E-01
   -.677E+01 0.493E+02 -.304E+03   0.848E+01 -.516E+02 0.321E+03   -.171E+01 0.233E+01 -.167E+02   -.810E-03 -.915E-02 -.251E-01
   0.251E+01 0.610E+01 0.320E+03   -.286E+01 -.640E+01 -.347E+03   0.354E+00 0.296E+00 0.268E+02   0.369E-03 0.475E-02 0.210E-01
   0.384E+01 0.192E+01 -.349E+03   -.435E+01 -.201E+01 0.376E+03   0.516E+00 0.981E-01 -.270E+02   -.630E-02 -.917E-02 0.232E-01
   -.343E+01 0.532E+02 0.359E+03   0.400E+01 -.573E+02 -.378E+03   -.555E+00 0.402E+01 0.186E+02   -.141E-01 -.128E-01 -.774E-02
   0.260E+02 0.262E+02 -.348E+03   -.287E+02 -.276E+02 0.369E+03   0.270E+01 0.135E+01 -.209E+02   -.507E-02 0.519E-02 -.137E-01
   -.505E+00 0.686E+01 0.299E+03   -.423E+00 -.700E+01 -.314E+03   0.935E+00 0.148E+00 0.148E+02   -.690E-02 -.714E-02 -.957E-02
[...]
   0.330E+01 0.327E+02 -.333E+03   -.268E+01 -.351E+02 0.352E+03   -.612E+00 0.247E+01 -.183E+02   -.769E-02 -.380E-02 0.390E-05
   -.361E+02 -.217E+02 0.340E+03   0.386E+02 0.232E+02 -.361E+03   -.252E+01 -.149E+01 0.208E+02   -.136E-02 -.692E-02 -.131E-01
   -.435E+02 -.260E+02 -.305E+03   0.462E+02 0.281E+02 0.319E+03   -.275E+01 -.208E+01 -.143E+02   -.102E-01 -.783E-02 -.871E-02
   -.349E+01 0.451E+01 0.330E+03   0.384E+01 -.486E+01 -.357E+03   -.328E+00 0.355E+00 0.270E+02   -.191E-01 -.410E-02 0.201E-01
   -.505E+01 -.748E+01 -.336E+03   0.528E+01 0.807E+01 0.363E+03   -.232E+00 -.595E+00 -.266E+02   0.368E-02 0.259E-02 0.281E-01
   0.336E+01 -.337E+02 0.330E+03   -.486E+01 0.357E+02 -.347E+03   0.148E+01 -.208E+01 0.171E+02   0.129E-01 0.100E-01 -.116E-01
   -.245E+02 -.141E+02 -.337E+03   0.265E+02 0.153E+02 0.356E+03   -.205E+01 -.119E+01 -.192E+02   -.154E-01 -.889E-02 -.302E-02
   -.478E+02 -.276E+02 0.341E+03   0.506E+02 0.292E+02 -.361E+03   -.283E+01 -.163E+01 0.201E+02   -.434E-03 -.251E-03 -.168E-01
   -.442E+02 -.247E+02 -.305E+03   0.474E+02 0.260E+02 0.319E+03   -.318E+01 -.135E+01 -.143E+02   -.119E-01 -.495E-02 -.871E-02
   0.216E+01 -.528E+01 0.330E+03   -.229E+01 0.576E+01 -.357E+03   0.143E+00 -.462E+00 0.270E+02   -.131E-01 -.145E-01 0.201E-01
   -.900E+01 -.632E+00 -.336E+03   0.963E+01 0.534E+00 0.363E+03   -.631E+00 0.963E-01 -.266E+02   0.409E-02 0.189E-02 0.281E-01
   -.275E+02 0.197E+02 0.330E+03   0.285E+02 -.221E+02 -.347E+03   -.106E+01 0.232E+01 0.171E+02   0.152E-01 0.617E-02 -.116E-01
   0.300E+02 -.135E+02 -.333E+03   -.318E+02 0.153E+02 0.352E+03   0.183E+01 -.176E+01 -.183E+02   -.714E-02 -.476E-02 0.391E-05
   -.369E+02 -.204E+02 0.340E+03   0.394E+02 0.218E+02 -.361E+03   -.255E+01 -.144E+01 0.208E+02   -.667E-02 0.228E-02 -.131E-01
   -.213E+00 -.124E+00 -.686E-01   0.249E-12 0.462E-12 -.853E-12   0.209E+00 0.121E+00 0.776E-01   -.453E-02 -.262E-02 -.208E-01

 POSITION                                       TOTAL-FORCE (eV/Angst)
     -4.00407      7.29674      6.92884        -0.012020      0.001743     -0.008159
      1.30571      0.58984     11.68136         0.003279      0.014467      0.009354
     -1.30334      2.61893      6.92884        -0.004500     -0.011281     -0.008159
     -0.24144      3.26958     11.68136         0.014168     -0.004394      0.009354
      4.35946      0.87037     11.69540        -0.002901     -0.005924      0.009789
      3.00198      3.35568     11.69088        -0.006551     -0.003782      0.012548
      1.52838      5.77395     11.69540        -0.006580      0.000449      0.009789
      4.12214      2.25005      6.93161         0.002670      0.010287     -0.009471
      2.60455      4.87859      6.93161         0.010244     -0.002831     -0.009471
      4.19909      7.29201      0.12237         0.002476      0.000378      0.011989
      1.41593      0.81948      4.55689         0.000247     -0.000119     -0.013453
      0.02314      1.63585      9.31605        -0.002014     -0.001163      0.000960
      7.00950      2.42424      0.12237         0.001565      0.001956      0.011989
      0.01254      3.25023      4.55689         0.000021      0.000273     -0.013453
     -1.39268      4.07387      9.30191        -0.000674     -0.000931      0.002527
     -2.80773      4.86891      0.06961         0.002315      0.001336      0.007994
     -1.39630      5.68380      4.58194         0.000014      0.000008     -0.011738
     -2.78873      6.49190      9.30191        -0.001143     -0.000118      0.002527
     -1.40370      7.29632      0.10747        -0.000342     -0.000379      0.013857
      4.22248      0.80743      4.54816        -0.001629     -0.000133     -0.011899
      2.80611      1.63601      9.29818        -0.000348     -0.001000     -0.001500
      1.40598      2.43423      0.10530        -0.000789     -0.000456      0.019017
      2.80688      3.24304      4.52361         0.000413      0.000238     -0.014090
      1.41476      4.04589      9.29818        -0.001040      0.000199     -0.001500
     -0.00351      4.87113      0.10747        -0.000499     -0.000107      0.013857
      1.40538      5.68679      4.54816        -0.000929     -0.001344     -0.011899
     -0.00523      6.48693      9.28884        -0.000155     -0.000090     -0.002377
      5.61811     -0.00136      0.15618         0.001523      0.000879      0.010868
      7.01484      0.80505      4.57580         0.000765      0.000442     -0.017522
      5.63604      1.62140      9.34208        -0.001761      0.001066      0.002707
      4.20587      2.42894      0.14156         0.001608      0.000653      0.010878
      5.61422      3.25044      4.55316         0.000204     -0.000267     -0.015156
      4.24253      4.07191      9.30668        -0.001144     -0.000660      0.005686
      2.80134      4.86165      0.14156         0.001370      0.001066      0.010878
      4.21696      5.67057      4.55316        -0.000129      0.000310     -0.015156
      2.81707      6.50398      9.34208         0.000043     -0.002058      0.002707
      0.04083      0.02782     10.27263         0.000267      0.000051      0.001511
      0.01307      0.01248      3.62332         0.000131      0.001467     -0.015475
      1.40403      0.80538      1.03084         0.000501     -0.000685      0.012845
      1.39569      0.81591      8.34296        -0.002866     -0.001479      0.003543
     -0.01786      1.61218      5.55393        -0.002936     -0.001695     -0.021849
      0.05920      1.65667     13.06483         0.005570      0.003216      0.020068
     -1.36061      2.45518     10.27263         0.000178      0.000206      0.001511
     -1.38777      2.43881      3.62332         0.001336     -0.000620     -0.015475
     -0.00562      3.24697      1.03084        -0.000343      0.000776      0.012845
     -0.00067      3.23448      8.34296        -0.002713     -0.001742      0.003543
     -1.39809      4.03602      5.51454        -0.001344     -0.001423     -0.020762
     -1.35139      4.06643     13.09622         0.005430      0.001423      0.015758
      5.62184      4.86826     10.24875        -0.000266     -0.000154      0.001468
     -2.79090      4.87862      3.61656         0.002692      0.001554     -0.014135
     -1.41421      5.67346      1.02623        -0.000061     -0.000035      0.010032
     -1.39415      5.68504      8.36454        -0.000830     -0.000479      0.004527
     -2.82421      6.50614      5.51454        -0.001904     -0.000453     -0.020762
     -2.77453      6.53137     13.09622         0.003947      0.003991      0.015758
      2.80369      0.04627     10.30209        -0.000906     -0.000130     -0.003537
     -1.39715      7.29130      3.62990         0.000403     -0.000785     -0.011033
      4.19678      0.80318      1.06296         0.000345     -0.000566      0.013049
      4.22568      0.86178      8.36102         0.001036      0.003596      0.003255
      2.83379      1.64014      5.50521        -0.000821      0.001977     -0.020088
      2.85372      1.63953     13.03266         0.000733      0.000390      0.018818
[...]
      7.06610      0.83464      8.33991         0.001121      0.000647      0.007057
      5.61014      1.65486      5.55562        -0.000309     -0.000502     -0.020849
      5.62067      1.62095     13.13248         0.001457     -0.000513      0.015989
      4.18300      2.41576     10.31742        -0.004057     -0.002728      0.000486
      4.22184      2.43446      3.61201        -0.002043     -0.000271     -0.015608
      5.61421      3.25542      1.04928         0.000992      0.002146      0.009111
      5.64625      3.20060      8.32578         0.000575     -0.000345      0.007531
      4.17960      4.03558      5.54059        -0.002901     -0.001675     -0.022002
      4.20770      4.05181     13.11927         0.000935      0.000540      0.013721
      2.77850      4.84844     10.31742        -0.004391     -0.002149      0.000486
      2.81411      4.87272      3.61201        -0.001256     -0.001634     -0.015608
      4.22127      5.66807      1.04928         0.002355     -0.000214      0.009111
      4.18981      5.72323      8.32578        -0.000011      0.000670      0.007531
      2.83311      6.46483      5.55562        -0.000589     -0.000016     -0.020849
      2.80900      6.49090     13.13248         0.000284      0.001519      0.015989
    total drift:                               -0.009011     -0.006085     -0.011743

  FREE ENERGIE OF THE ION-ELECTRON SYSTEM (eV)
  free  energy   TOTEN  =      -554.9638232532 eV

  energy  without entropy=     -554.9030165596  energy(sigma->0) =     -554.93341991

 d Force = 0.1116008E-02[ 0.104E-02, 0.119E-02]  d Energy = 0.9876063E-03 0.128E-03
 d Force = 0.3682414E+01[ 0.365E+01, 0.372E+01]  d Ewald  = 0.4339887E+01-0.657E+00

 Quasi-Newton relaxation of ions (Broydens 2nd method)
  g(Force)  = 0.744E-03   g(Stress)= 0.122E-02

 retain information from N=  1 steps
 eigenvalues of (default step * inverse Hessian matrix)
  average eigenvalue of G=   0.0766
 eigenvalue spectrum of G is  0.0766

volume of typ            1:     8.2 %

[...]

volume of typ            3:    10.3 %

total charge

# of ion       s       p       d       tot
    1        2.075   0.239   0.092   2.406
    2        2.079   0.251   0.097   2.427
    3        2.075   0.239   0.092   2.406
    4        2.079   0.251   0.097   2.427
    5        2.076   0.243   0.092   2.411
    6        2.081   0.254   0.096   2.431
    7        2.076   0.243   0.092   2.411
    8        2.074   0.238   0.091   2.404
    9        2.074   0.238   0.091   2.404
   10        0.290   0.398   7.829   8.517
   11        0.290   0.398   7.827   8.516
   12        0.295   0.411   7.844   8.551
   13        0.290   0.398   7.829   8.517
   14        0.290   0.398   7.827   8.516
   15        0.290   0.398   7.839   8.527
   16        0.289   0.396   7.821   8.505
   17        0.291   0.401   7.819   8.512
   18        0.290   0.398   7.839   8.527
   19        0.289   0.395   7.834   8.518
   20        0.294   0.406   7.826   8.527
   21        0.285   0.390   7.848   8.523
   22        0.287   0.390   7.838   8.515
   23        0.298   0.415   7.827   8.540
   24        0.285   0.390   7.848   8.523
   25        0.289   0.395   7.834   8.518
   26        0.294   0.406   7.826   8.527
   27        0.274   0.367   7.841   8.482
   28        0.297   0.412   7.831   8.540
   29        0.289   0.395   7.831   8.515
   30        0.279   0.377   7.847   8.502
   31        0.293   0.404   7.833   8.530
   32        0.294   0.406   7.830   8.530
   33        0.274   0.367   7.850   8.491
   34        0.293   0.404   7.833   8.530
   35        0.294   0.406   7.830   8.530
   36        0.279   0.377   7.847   8.502
   37        1.271   2.767   0.007   4.045
   38        1.290   2.709   0.008   4.007
   39        1.290   2.710   0.008   4.008
   40        1.272   2.762   0.007   4.041
   41        1.268   2.770   0.006   4.044
   42        1.268   2.771   0.006   4.044
   43        1.271   2.767   0.007   4.045
   44        1.290   2.709   0.008   4.007
   45        1.290   2.710   0.008   4.008
   46        1.272   2.762   0.007   4.041
   47        1.272   2.761   0.007   4.040
   48        1.271   2.765   0.007   4.044
   49        1.282   2.734   0.008   4.025
   50        1.288   2.717   0.008   4.013
   51        1.291   2.709   0.008   4.008
   52        1.283   2.730   0.008   4.021
   53        1.272   2.761   0.007   4.040
   54        1.271   2.765   0.007   4.044
   55        1.271   2.762   0.006   4.040
   56        1.290   2.708   0.008   4.006
   57        1.287   2.719   0.008   4.013
   58        1.275   2.757   0.007   4.038
   59        1.272   2.762   0.007   4.041
   60        1.266   2.775   0.006   4.047
[...]
   76        1.275   2.753   0.007   4.035
   77        1.269   2.766   0.006   4.042
   78        1.273   2.760   0.007   4.040
   79        1.268   2.774   0.006   4.048
   80        1.287   2.718   0.008   4.012
   81        1.290   2.709   0.008   4.007
   82        1.271   2.763   0.006   4.040
   83        1.272   2.758   0.006   4.037
   84        1.273   2.763   0.007   4.042
   85        1.268   2.774   0.006   4.048
   86        1.287   2.718   0.008   4.012
   87        1.290   2.709   0.008   4.007
   88        1.271   2.763   0.006   4.040
   89        1.269   2.766   0.006   4.042
   90        1.273   2.760   0.007   4.040
tot          95.46  161.20  212.76  469.41

magnetization (x)

# of ion       s       p       d       tot
    1        0.003   0.004   0.000   0.007
    2        0.004   0.003  -0.000   0.007
    3        0.003   0.004   0.000   0.007
    4        0.004   0.003  -0.000   0.007
    5        0.002   0.004   0.000   0.006
    6        0.002   0.004   0.000   0.006
    7        0.002   0.004   0.000   0.006
    8        0.002   0.005   0.000   0.007
    9        0.002   0.005   0.000   0.007
   10        0.000   0.000   0.031   0.031
   11        0.000   0.000  -0.030  -0.029
   12       -0.000  -0.000   0.092   0.091
   13        0.000   0.000   0.031   0.031
   14        0.000   0.000  -0.030  -0.029
   15       -0.000  -0.000   0.123   0.122
   16        0.000   0.000  -0.082  -0.081
   17        0.000   0.000  -0.031  -0.031
   18       -0.000  -0.000   0.123   0.122
   19        0.000   0.000  -0.095  -0.095
   20        0.000   0.000   0.012   0.012
   21       -0.000  -0.000   0.265   0.264
   22        0.000   0.000  -0.159  -0.158
   23        0.000   0.000   0.018   0.018
   24       -0.000  -0.000   0.265   0.264
   25        0.000   0.000  -0.095  -0.095
   26        0.000   0.000   0.012   0.012
   27       -0.000  -0.000   0.482   0.481
   28       -0.000   0.000  -0.006  -0.006
   29        0.000   0.000  -0.104  -0.104
   30       -0.000  -0.001   0.394   0.393
   31        0.000   0.000   0.011   0.011
   32        0.000   0.000  -0.031  -0.031
   33       -0.000  -0.000   0.507   0.506
   34        0.000   0.000   0.011   0.011
   35        0.000   0.000  -0.031  -0.031
   36       -0.000  -0.001   0.394   0.393
   37        0.003   0.012   0.000   0.016
   38       -0.003  -0.016  -0.000  -0.019
   39       -0.003  -0.026  -0.000  -0.029
   40        0.002   0.006   0.000   0.008
   41       -0.001  -0.015  -0.000  -0.016
   42        0.002  -0.000   0.000   0.002
   43        0.003   0.012   0.000   0.016
   44       -0.003  -0.016  -0.000  -0.019
   45       -0.003  -0.026  -0.000  -0.029
   46        0.002   0.006   0.000   0.008
   47       -0.000  -0.005   0.000  -0.005
   48       -0.000  -0.004   0.000  -0.004
   49        0.003   0.011   0.000   0.014
   50        0.000   0.008  -0.000   0.009
   51       -0.003  -0.024  -0.000  -0.027
   52        0.003   0.010   0.000   0.012
   53       -0.000  -0.005   0.000  -0.005
   54       -0.000  -0.004   0.000  -0.004
   55        0.007   0.042   0.000   0.049
   56       -0.002  -0.012  -0.000  -0.013
   57       -0.000   0.004  -0.000   0.004
   58        0.009   0.062   0.000   0.071
   59        0.001  -0.006  -0.000  -0.005
   60       -0.003  -0.025  -0.000  -0.027
[...]
   76        0.009   0.042   0.000   0.051
   77       -0.001  -0.017  -0.000  -0.019
   78        0.001  -0.004  -0.000  -0.003
   79        0.010   0.060   0.000   0.071
   80       -0.000   0.003   0.000   0.003
   81       -0.000   0.001  -0.000   0.000
   82        0.008   0.043   0.000   0.051
   83       -0.000  -0.011  -0.000  -0.011
   84       -0.001  -0.011  -0.000  -0.012
   85        0.010   0.060   0.000   0.071
   86       -0.000   0.003   0.000   0.003
   87       -0.000   0.001  -0.000   0.000
   88        0.008   0.043   0.000   0.051
   89       -0.001  -0.017  -0.000  -0.019
   90        0.001  -0.004  -0.000  -0.003
tot           0.12    0.38    2.08    2.57