 vasp.5.4.4.18Apr17-6-g9f103f2a35 (build May 12 2020 05:39:39) gamma-only

 MD_VERSION_INFO: Compiled 2020-05-12T12:39:39-UTC in devlin.sd.materialsdesign.
 com:/home/medea2/data/build/wwolf/vasp-gpu5.4.4/13047/x86_64/src/src/build/gam
 from svn 13047

 executed on                        Lin64 date 2023.01.20  04:22:18

 INCAR:
 POTCAR:    PAW_PBE Li_sv 10Sep2004
 POTCAR:    PAW_PBE Ni 02Aug2007
 POTCAR:    PAW_PBE O 08Apr2002

 POTCAR:    PAW_PBE Li_sv 10Sep2004

 POTCAR:    PAW_PBE Ni 02Aug2007

 POTCAR:    PAW_PBE O 08Apr2002

 Optimization of the real space projectors (new method)

 maximal supplied QI-value         = 22.11
 optimisation between [QCUT,QGAM] = [ 11.28, 22.77] = [ 35.61,145.23] Ry
 Optimized for a Real-space Cutoff    1.10 Angstroem

   l    n(q)    QCUT    max X(q) W(low)/X(q) W(high)/X(q)  e(spline)
   0      7    11.276    10.506    0.54E-04    0.58E-04    0.16E-07
   0      7    11.276     8.367    0.11E-03    0.14E-03    0.35E-07
   1      7    11.276     8.983    0.23E-03    0.43E-03    0.86E-07
 Optimization of the real space projectors (new method)

[...]

   l    n(q)    QCUT    max X(q) W(low)/X(q) W(high)/X(q)  e(spline)
   2      9    11.376    60.317    0.17E-03    0.16E-04    0.16E-06
   2      9    11.376    55.921    0.17E-03    0.16E-04    0.17E-06
   0     10    11.376    51.690    0.45E-04    0.60E-04    0.21E-06
   0     10    11.376    30.015    0.37E-04    0.55E-04    0.19E-06
   1     10    11.376    18.849    0.83E-04    0.11E-03    0.92E-07
   1     10    11.376    14.624    0.69E-04    0.92E-04    0.82E-07
 Optimization of the real space projectors (new method)

 maximal supplied QI-value         = 24.76
 optimisation between [QCUT,QGAM] = [ 11.39, 22.77] = [ 36.31,145.25] Ry
 Optimized for a Real-space Cutoff    1.10 Angstroem

   l    n(q)    QCUT    max X(q) W(low)/X(q) W(high)/X(q)  e(spline)
   0      7    11.387    20.381    0.22E-03    0.48E-03    0.18E-06
   0      7    11.387    15.268    0.22E-03    0.52E-03    0.19E-06
   1      7    11.387     5.964    0.22E-03    0.73E-03    0.24E-06
   1      7    11.387     5.382    0.19E-03    0.60E-03    0.21E-06

  PAW_PBE Li_sv 10Sep2004               :
  PAW_PBE Ni 02Aug2007                  :
  PAW_PBE O 08Apr2002                   :

 POSCAR: ce409369_1
  positions in direct lattice
 exchange correlation table for  LEXCH =       14
   RHO(1)=    0.500       N(1)  =     2000
   RHO(2)=  100.500       N(2)  =     4000

 ion  position               nearest neighbor table
   1  0.997  0.500  0.997-  82 2.09  83 2.09  35 2.10  34 2.10  70 2.11  47 2.11
   2  0.111  0.833  0.225-  49 2.09  54 2.09  31 2.10  36 2.10  55 2.11  48 2.11
   3  0.225  0.167  0.111-  38 2.09  39 2.09  32 2.10  33 2.10  56 2.11  69 2.11
   4  0.999  0.000  0.999-  81 1.86  84 1.86  69 1.86  48 1.86  36 1.87  33 1.87  28 2.78  10 2.79
                            22 2.79   7 2.80  13 2.80  16 2.81
   5  0.111  0.333  0.223-  50 1.86  53 1.86  56 1.86  47 1.86  32 1.87  35 1.87  14 2.78  11 2.79
                            17 2.79   8 2.80  29 2.80  23 2.81
   6  0.223  0.667  0.111-  37 1.86  40 1.86  55 1.86  70 1.86  31 1.87  34 1.87   9 2.78  24 2.79
                            18 2.79  30 2.80  15 2.80  12 2.81
   7  0.334  0.997  1.000-  42 1.86  72 1.86  75 1.86  69 1.87  39 1.88  36 1.90  25 2.79  10 2.79
                            19 2.79  22 2.79   4 2.80  16 2.80
   8  0.445  0.337  0.223-  41 1.86  59 1.86  62 1.86  56 1.87  38 1.88  35 1.90  20 2.79  11 2.79
                            26 2.79  17 2.79   5 2.80  23 2.80
   9  0.555  0.667  0.111-  43 1.86  46 1.86  37 1.86  40 1.86  61 1.87  76 1.87  12 2.78   6 2.78
                            18 2.79  24 2.79  21 2.79  27 2.79
  10  0.667  0.999  0.000-  42 1.86  75 1.86  81 1.87  78 1.87  45 1.87  48 1.89   4 2.79   7 2.79
                            19 2.79  13 2.79  28 2.79  25 2.80
  11  0.778  0.334  0.222-  41 1.86  62 1.86  50 1.87  65 1.87  44 1.87  47 1.89   5 2.79   8 2.79
                            26 2.79  29 2.79  14 2.79  20 2.80
  12  0.888  0.667  0.111-  43 1.86  46 1.86  49 1.87  82 1.87  31 1.88  34 1.88   9 2.78  27 2.78
                            21 2.78  15 2.80  30 2.80   6 2.81
  13  1.000  0.003  0.334-  51 1.86  45 1.86  66 1.86  48 1.87  54 1.88  33 1.90  19 2.79  22 2.79
                            25 2.79  10 2.79   4 2.80  16 2.80
  14  0.111  0.333  0.555-  68 1.86  71 1.86  50 1.86  53 1.86  74 1.87  65 1.87  23 2.78   5 2.78
                            17 2.79  11 2.79  26 2.79  20 2.79
  15  0.223  0.663  0.445-  52 1.86  58 1.86  73 1.86  55 1.87  49 1.88  34 1.90  27 2.79  24 2.79
                            21 2.79  18 2.79   6 2.80  12 2.80
  16  0.335  0.000  0.335-  60 1.86  57 1.86  54 1.87  39 1.87  33 1.88  36 1.88  28 2.78  19 2.78
                            25 2.78  13 2.80   7 2.80   4 2.81
  17  0.445  0.332  0.555-  80 1.86  77 1.86  53 1.87  74 1.87  59 1.87  56 1.89   5 2.79  29 2.79
                            20 2.79   8 2.79  14 2.79  26 2.80
  18  0.555  0.668  0.445-  79 1.86  64 1.86  40 1.87  61 1.87  58 1.87  55 1.89   6 2.79  30 2.79
                            27 2.79  15 2.79   9 2.79  21 2.80
  19  0.666  0.001  0.333-  66 1.86  45 1.86  63 1.87  60 1.87  42 1.87  39 1.89  16 2.78  13 2.79
                            10 2.79   7 2.79  28 2.79  22 2.80
  20  0.778  0.334  0.556-  62 1.86  59 1.86  65 1.87  68 1.87  80 1.87  83 1.89  23 2.78   8 2.79
                            17 2.79  29 2.79  14 2.79  11 2.80
  21  0.889  0.668  0.445-  64 1.86  67 1.86  61 1.87  46 1.87  52 1.87  49 1.89  12 2.78  30 2.79
                            24 2.79  15 2.79   9 2.79  18 2.80
  22  0.000  0.001  0.667-  51 1.86  66 1.86  84 1.87  63 1.87  72 1.87  69 1.89   4 2.79  13 2.79
                            25 2.79   7 2.79  28 2.79  19 2.80
  23  0.111  0.333  0.888-  68 1.86  71 1.86  38 1.87  83 1.87  32 1.88  35 1.88  14 2.78  26 2.78
                            20 2.78   8 2.80  29 2.80   5 2.81
  24  0.222  0.666  0.778-  52 1.86  73 1.86  37 1.87  76 1.87  67 1.87  70 1.89   6 2.79  15 2.79
                            21 2.79  30 2.79   9 2.79  27 2.80
  25  0.333  0.999  0.666-  75 1.86  72 1.86  78 1.87  57 1.87  51 1.87  54 1.89  16 2.78   7 2.79
                            22 2.79  13 2.79  28 2.79  10 2.80
  26  0.445  0.332  0.889-  77 1.86  44 1.86  74 1.87  71 1.87  41 1.87  38 1.89  23 2.78  29 2.79
                            11 2.79   8 2.79  14 2.79  17 2.80
  27  0.556  0.666  0.778-  73 1.86  58 1.86  76 1.87  43 1.87  79 1.87  82 1.89  12 2.78  15 2.79
                            18 2.79  30 2.79   9 2.79  24 2.80
  28  0.667  0.000  0.667-  57 1.86  60 1.86  84 1.86  81 1.86  78 1.87  63 1.87  16 2.78   4 2.78
                            22 2.79  10 2.79  25 2.79  19 2.79
  29  0.777  0.330  0.888-  80 1.86  44 1.86  77 1.86  47 1.87  83 1.88  32 1.90  26 2.79  17 2.79
                            20 2.79  11 2.79   5 2.80  23 2.80
  30  0.888  0.670  0.777-  79 1.86  67 1.86  64 1.86  70 1.87  82 1.88  31 1.90  21 2.79  18 2.79
                            27 2.79  24 2.79   6 2.80  12 2.80
  31  0.002  0.736  0.005-   6 1.87  12 1.88  30 1.90   2 2.10
  32  0.005  0.264  0.002-   5 1.87  23 1.88  29 1.90   3 2.10
  33  0.114  0.069  0.220-   4 1.87  16 1.88  13 1.90   3 2.10
  34  0.109  0.597  0.217-   6 1.87  12 1.88  15 1.90   1 2.10
  35  0.217  0.403  0.109-   5 1.87  23 1.88   8 1.90   1 2.10
  36  0.220  0.931  0.114-   4 1.87  16 1.88   7 1.90   2 2.10
  37  0.333  0.734  1.000-   6 1.86   9 1.86  24 1.87
  38  0.333  0.266  0.003-  23 1.87   8 1.88  26 1.89   3 2.09
  39  0.441  0.068  0.219-  16 1.87   7 1.88  19 1.89   3 2.09
  40  0.445  0.600  0.223-   6 1.86   9 1.86  18 1.87
  41  0.556  0.401  0.110-   8 1.86  11 1.86  26 1.87
  42  0.557  0.932  0.112-   7 1.86  10 1.86  19 1.87
  43  0.666  0.734  0.999-  12 1.86   9 1.86  27 1.87
  44  0.666  0.265  0.001-  29 1.86  26 1.86  11 1.87
  45  0.776  0.068  0.221-  13 1.86  19 1.86  10 1.87
  46  0.778  0.600  0.223-  12 1.86   9 1.86  21 1.87
  47  0.890  0.401  0.108-   5 1.86  29 1.87  11 1.89   1 2.11
  48  0.893  0.933  0.114-   4 1.86  13 1.87  10 1.89   2 2.11
  49  0.003  0.734  0.333-  12 1.87  15 1.88  21 1.89   2 2.09
  50  1.000  0.266  0.333-   5 1.86  14 1.86  11 1.87
  51  0.112  0.068  0.557-  13 1.86  22 1.86  25 1.87
  52  0.110  0.599  0.556-  15 1.86  24 1.86  21 1.87
  53  0.223  0.400  0.445-   5 1.86  14 1.86  17 1.87
  54  0.219  0.932  0.441-  16 1.87  13 1.88  25 1.89   2 2.09
  55  0.329  0.734  0.333-   6 1.86  15 1.87  18 1.89   2 2.11
  56  0.333  0.266  0.329-   5 1.86   8 1.87  17 1.89   3 2.11
  57  0.445  0.067  0.556-  16 1.86  28 1.86  25 1.87
  58  0.446  0.598  0.556-  15 1.86  27 1.86  18 1.87
  59  0.556  0.402  0.446-   8 1.86  20 1.86  17 1.87
  60  0.556  0.933  0.445-  16 1.86  28 1.86  19 1.87
  61  0.667  0.735  0.333-  21 1.87  18 1.87   9 1.87
  62  0.666  0.268  0.333-  20 1.86  11 1.86   8 1.86
  63  0.777  0.068  0.556-  19 1.87  22 1.87  28 1.87
  64  0.778  0.602  0.556-  21 1.86  18 1.86  30 1.86
  65  0.889  0.401  0.445-  20 1.87  11 1.87  14 1.87
  66  0.889  0.935  0.444-  19 1.86  22 1.86  13 1.86
  67  0.001  0.735  0.666-  30 1.86  21 1.86  24 1.87
  68  0.999  0.266  0.666-  23 1.86  14 1.86  20 1.87
  69  0.114  0.067  0.893-   4 1.86   7 1.87  22 1.89   3 2.11
  70  0.108  0.599  0.890-   6 1.86  30 1.87  24 1.89   1 2.11
  71  0.223  0.400  0.778-  23 1.86  14 1.86  26 1.87
  72  0.221  0.932  0.776-   7 1.86  25 1.86  22 1.87
  73  0.333  0.732  0.666-  27 1.86  24 1.86  15 1.86
  74  0.333  0.265  0.667-  26 1.87  17 1.87  14 1.87
  75  0.444  0.065  0.889-  25 1.86  10 1.86   7 1.86
  76  0.445  0.599  0.889-  27 1.87  24 1.87   9 1.87
  77  0.556  0.398  0.778-  26 1.86  17 1.86  29 1.86
  78  0.556  0.932  0.777-  25 1.87  10 1.87  28 1.87
  79  0.665  0.735  0.666-  30 1.86  18 1.86  27 1.87
  80  0.666  0.265  0.665-  29 1.86  17 1.86  20 1.87
  81  0.777  0.067  0.889-   4 1.86  28 1.86  10 1.87
  82  0.782  0.599  0.890-  12 1.87  30 1.88  27 1.89   1 2.09
  83  0.890  0.401  0.782-  23 1.87  29 1.88  20 1.89   1 2.09
  84  0.889  0.933  0.777-   4 1.86  28 1.86  22 1.87

  LATTYP: Found a hexagonal cell.
 ALAT       =     8.3727803073
 C/A-ratio  =     1.6754673159

  Lattice vectors:

 A1 = (   4.1863901655,  -7.2510404396,   0.0000000000)
 A2 = (  -8.3727803309,   0.0000000000,   0.0000000000)
 A3 = (   0.0000000000,   0.0000000000, -14.0283197485)

Analysis of symmetry for initial positions (statically):
 Subroutine PRICEL returns:
 Original cell was already a primitive cell.

 Routine SETGRP: Setting up the symmetry group for a
 hexagonal supercell.

 Subroutine GETGRP returns: Found  6 space group operations
 (whereof  2 operations were pure point group operations)
 out of a pool of 24 trial point group operations.

The static configuration has the point symmetry C_2 .
 The point group associated with its full space group is D_3 .

Analysis of symmetry for dynamics (positions and initial velocities):
 Subroutine PRICEL returns:
 Original cell was already a primitive cell.

[...]

The dynamic configuration has the point symmetry C_2 .
[...]
   -.796E+01 -.439E+02 -.346E+03   0.868E+01 0.467E+02 0.369E+03   -.731E+00 -.284E+01 -.234E+02   0.107E-02 -.100E-01 0.425E-02
   -.340E+02 -.288E+02 0.346E+03   0.361E+02 0.309E+02 -.369E+03   -.209E+01 -.205E+01 0.234E+02   -.921E-02 -.409E-02 -.425E-02
   -.157E+02 -.822E+01 -.375E+03   0.163E+02 0.822E+01 0.403E+03   -.657E+00 0.722E-02 -.279E+02   -.115E-01 -.607E-02 -.431E-02
   -.402E+00 -.745E+01 0.378E+03   -.472E-01 0.809E+01 -.406E+03   0.451E+00 -.651E+00 0.276E+02   0.140E-02 -.492E-02 -.221E-02
   -.625E+01 -.407E+01 -.378E+03   0.703E+01 0.401E+01 0.406E+03   -.789E+00 0.646E-01 -.276E+02   -.496E-02 -.125E-02 0.221E-02
   0.711E+00 -.177E+02 0.375E+03   -.105E+01 0.183E+02 -.403E+03   0.335E+00 -.565E+00 0.279E+02   0.502E-03 -.130E-01 0.431E-02
[...]
   0.150E+02 -.946E+01 -.375E+03   -.153E+02 0.100E+02 0.403E+03   0.322E+00 -.573E+00 -.279E+02   0.110E-01 -.694E-02 -.431E-02
   0.665E+01 0.337E+01 0.378E+03   -.699E+01 -.409E+01 -.406E+03   0.339E+00 0.716E+00 0.276E+02   0.356E-02 0.367E-02 -.221E-02
   -.838E+01 -.520E+01 -.373E+03   0.822E+01 0.512E+01 0.400E+03   0.169E+00 0.913E-01 -.274E+02   -.643E-02 -.122E-02 0.310E-02
   -.457E+00 -.709E+00 0.375E+03   0.372E+00 0.631E+00 -.402E+03   0.809E-01 0.820E-01 0.274E+02   0.382E-02 -.396E-02 -.378E-02
   0.870E+01 -.466E+01 -.373E+03   -.854E+01 0.457E+01 0.400E+03   -.163E+00 0.100E+00 -.274E+02   0.427E-02 -.496E-02 0.310E-02
   0.842E+00 -.412E-01 0.375E+03   -.733E+00 0.657E-02 -.402E+03   -.111E+00 0.291E-01 0.274E+02   0.152E-02 0.528E-02 -.378E-02
   -.314E+00 0.986E+01 -.373E+03   0.317E+00 -.968E+01 0.400E+03   -.530E-02 -.192E+00 -.274E+02   0.216E-02 0.618E-02 0.310E-02
   -.386E+00 0.750E+00 0.375E+03   0.361E+00 -.638E+00 -.402E+03   0.306E-01 -.111E+00 0.274E+02   -.533E-02 -.133E-02 -.378E-02
   -.677E+00 0.761E+01 -.378E+03   0.110E+01 -.838E+01 0.405E+03   -.425E+00 0.772E+00 -.279E+02   0.481E-02 0.609E-02 0.209E-02
   0.693E+01 0.322E+01 0.378E+03   -.781E+01 -.324E+01 -.405E+03   0.881E+00 0.176E-01 0.279E+02   0.287E-02 0.721E-02 -.209E-02
   -.155E+00 0.188E+02 -.373E+03   0.448E+00 -.194E+02 0.401E+03   -.291E+00 0.572E+00 -.279E+02   -.288E-02 0.434E-02 0.424E-02
   0.690E+01 0.441E+02 0.347E+03   -.762E+01 -.469E+02 -.370E+03   0.715E+00 0.275E+01 0.229E+02   0.748E-02 0.101E-01 0.466E-02
   0.348E+02 0.280E+02 -.347E+03   -.368E+02 -.300E+02 0.370E+03   0.202E+01 0.199E+01 -.229E+02   0.505E-02 0.116E-01 -.466E-02
   0.163E+02 0.926E+01 0.373E+03   -.170E+02 -.929E+01 -.401E+03   0.641E+00 0.338E-01 0.279E+02   0.520E-02 -.325E-03 -.424E-02
   -.933E-03 -.273E-03 0.520E-03   0.107E-11 -.185E-12 -.625E-12   0.133E-14 0.298E-15 -.142E-13   -.128E-06 -.232E-06 0.252E-09

 POSITION                                       TOTAL-FORCE (eV/Angst)
      4.17064      7.22376      7.01918        -0.004330     -0.007500      0.000000
      1.42268      0.80532     11.69864         0.008660     -0.000000      0.000000
     -0.01391      1.63473      2.33973        -0.004330      0.007500      0.000000
      4.17954      7.23917     -0.00000         0.002891      0.005008      0.000000
      1.40489      0.80532      4.67946        -0.005783     -0.000000      0.000000
     -0.00502      1.61933      9.35891         0.002891     -0.005008      0.000000
      6.96914      2.41885     13.99362         0.001574     -0.000350      0.011374
      0.00005      3.22715      4.72420        -0.000484     -0.001538     -0.011374
     -1.39465      4.02624      9.35891        -0.000120      0.000208      0.000000
     -2.78796      4.83338     14.02567        -0.001156      0.004531      0.000513
     -1.39700      5.63645      4.69215        -0.003346      0.003267     -0.000513
     -2.78380      6.43232      9.35891        -0.001246      0.002158      0.000000
     -1.38979      7.24488      0.04475        -0.001090      0.001188     -0.011374
      4.18415      0.80532      4.67946         0.000240     -0.000000      0.000000
      2.79477      1.61362      9.31416        -0.001090     -0.001188      0.011374
      1.40075      2.42618     -0.00000        -0.001246     -0.002158      0.000000
      2.78756      3.22204      4.66676        -0.003346     -0.003267      0.000513
      1.39659      4.02512      9.37160        -0.001156     -0.004531     -0.000513
     -0.00203      4.83027      0.01469         0.001712     -0.003326     -0.001506
      1.39728      5.63629      4.69415         0.002024      0.003145     -0.001506
     -0.00041      6.44512      9.37360        -0.003736      0.000181     -0.001506
      5.57981      0.00224      0.01269         0.004502      0.001264     -0.000513
      6.96245      0.80532      4.67946         0.002492     -0.000000      0.000000
      5.57981      1.60839      9.34622         0.004502     -0.001264      0.000513
      4.18414      2.41338     14.02368        -0.003736     -0.000181      0.001506
      5.58184      3.22220      4.66476         0.002024     -0.003145      0.001506
      4.18253      4.02823      9.34422         0.001712      0.003326      0.001506
      2.78990      4.83226     -0.00000        -0.000120     -0.000208      0.000000
      4.18460      5.63135      4.63471        -0.000484      0.001538      0.011374
      2.78459      6.43965      9.40366         0.001574      0.000350     -0.011374
      0.03189      0.01758     10.33435         0.009477      0.002249      0.001668
     -0.00072      0.03641      3.70402        -0.002791      0.009332     -0.001668
      1.36368      0.82415      0.97544        -0.006686      0.007083      0.001668
      1.36368      0.78649      8.38347        -0.006686     -0.007083     -0.001668
     -0.00072      1.57423      5.65489        -0.002791     -0.009332      0.001668
      0.03189      1.59306     13.06293         0.009477     -0.002249     -0.001668
      6.97058      2.41665     10.29845         0.004318     -0.001011     -0.006870
     -1.36574      2.41007      3.72776         0.001477     -0.008180      0.002668
     -0.00946      3.19312      0.95169         0.006346     -0.005370     -0.002668
      0.00124      3.22480      8.41937        -0.001283     -0.004246      0.006870
     -1.40573      4.03048      5.63272         0.007480     -0.003274     -0.011964
     -1.39278      4.03795     13.08510        -0.000905     -0.008115      0.011964
      5.57832      4.82698     10.29723         0.000329      0.004477     -0.005470
     -2.77765      4.82714      3.72068        -0.008103      0.000828      0.013435
     -1.39675      5.62440      0.95877         0.003334      0.007432     -0.013435
     -1.39004      5.63570      8.42059        -0.004042      0.001954      0.005470
     -2.82069      6.44910      5.62701        -0.003823      0.009619     -0.001893
     -2.77989      6.47266     13.09082        -0.006419      0.008120      0.001893
      2.77005      0.02227     10.31060        -0.007823     -0.002811     -0.002668
     -1.39241      7.24502      3.73991        -0.003035      0.003234      0.006870
      4.19336      0.81279      0.95327        -0.006575     -0.004841     -0.011964
      4.19336      0.79784      8.40564        -0.006575      0.004841      0.011964
      2.79214      1.61347      5.61900        -0.003035     -0.003234     -0.006870
      2.77005      1.58837     13.08668        -0.007823      0.002811      0.002668
      1.40467      2.38584     10.30646        -0.006419     -0.008120     -0.001893
      1.36386      2.40940      3.73190        -0.003823     -0.009619      0.001893
      2.79451      3.22279      0.93832        -0.004042     -0.001954     -0.005470
      2.78780      3.23409      8.40014         0.003334     -0.007432      0.013435
      1.40691      4.03136      5.63823        -0.008103     -0.000828     -0.013435
      1.39376      4.03151     13.10004         0.000329     -0.004477      0.005470
[...]
      6.99543      0.78176      8.41136         0.010242      0.001499      0.001893
      5.57568      1.61404      5.61778         0.003713     -0.002523     -0.005470
      5.56925      1.60258     13.07959         0.004769      0.006604      0.013435
      4.17992      2.41488     10.27104         0.002839      0.001885     -0.004291
      4.18560      2.41331      3.72689        -0.000166      0.000481      0.008187
      5.58265      3.21779      0.91213        -0.003052      0.001517     -0.004291
      5.58118      3.22350      8.40635        -0.000334     -0.000384      0.008187
      4.18594      4.03114      5.59158         0.000213     -0.003402     -0.004291
      4.18174      4.02701     13.08580         0.000499     -0.000097      0.008187
      2.79177      4.82054     10.31218        -0.000905      0.008115     -0.011964
      2.77882      4.82802      3.72619         0.007480      0.003274      0.011964
      4.18579      5.63369      0.93954        -0.001283      0.004246     -0.006870
      4.17509      5.66537      8.40722         0.006346      0.005370      0.002668
      2.81881      6.44843      5.63115         0.001477      0.008180     -0.002668
      2.78603      6.44185     13.09882         0.004318      0.001011      0.006870
    total drift:                               -0.000933     -0.000273      0.000520

  FREE ENERGIE OF THE ION-ELECTRON SYSTEM (eV)
  free  energy   TOTEN  =      -523.5276151377 eV

  energy  without entropy=     -523.4710535367  energy(sigma->0) =     -523.49933434

 d Force = 0.3798319E-03[ 0.507E-04, 0.709E-03]  d Energy = 0.8665272E-03-0.487E-03
 d Force = 0.3929899E+01[ 0.392E+01, 0.394E+01]  d Ewald  =-0.8031561E+01 0.120E+02

 Quasi-Newton relaxation of ions (Broydens 2nd method)
  g(Force)  = 0.342E-03   g(Stress)= 0.276E-03

 retain information from N=  1 steps
 eigenvalues of (default step * inverse Hessian matrix)
  average eigenvalue of G=   0.5536
 eigenvalue spectrum of G is  0.5536

 reached required accuracy - stopping structural energy minimisation

volume of typ            1:     2.7 %

[...]

volume of typ            3:    10.3 %

total charge

# of ion       s       p       d       tot
    1        2.072   0.235   0.094   2.401
    2        2.072   0.235   0.094   2.401
    3        2.072   0.235   0.094   2.401
    4        0.303   0.426   7.829   8.558
    5        0.303   0.426   7.829   8.558
    6        0.303   0.426   7.829   8.558
    7        0.298   0.415   7.826   8.539
    8        0.298   0.415   7.826   8.539
    9        0.302   0.424   7.818   8.544
   10        0.298   0.416   7.820   8.534
   11        0.298   0.416   7.820   8.534
   12        0.302   0.425   7.830   8.558
   13        0.298   0.415   7.826   8.539
   14        0.302   0.424   7.818   8.544
   15        0.298   0.415   7.826   8.539
   16        0.302   0.425   7.830   8.558
   17        0.298   0.416   7.820   8.534
   18        0.298   0.416   7.820   8.534
   19        0.299   0.417   7.819   8.535
   20        0.299   0.417   7.819   8.535
   21        0.299   0.417   7.819   8.535
   22        0.298   0.416   7.820   8.534
   23        0.302   0.425   7.830   8.558
   24        0.298   0.416   7.820   8.534
   25        0.299   0.417   7.819   8.535
   26        0.299   0.417   7.819   8.535
   27        0.299   0.417   7.819   8.535
   28        0.302   0.424   7.818   8.544
   29        0.298   0.415   7.826   8.539
   30        0.298   0.415   7.826   8.539
   31        1.275   2.751   0.007   4.034
   32        1.275   2.751   0.007   4.034
   33        1.275   2.751   0.007   4.034
   34        1.275   2.751   0.007   4.034
   35        1.275   2.751   0.007   4.034
   36        1.275   2.751   0.007   4.034
   37        1.285   2.723   0.008   4.017
   38        1.275   2.755   0.007   4.037
   39        1.275   2.755   0.007   4.037
   40        1.285   2.723   0.008   4.017
   41        1.286   2.722   0.008   4.016
   42        1.286   2.722   0.008   4.016
   43        1.286   2.723   0.008   4.017
   44        1.286   2.721   0.008   4.015
   45        1.286   2.721   0.008   4.015
   46        1.286   2.723   0.008   4.017
   47        1.275   2.754   0.007   4.037
   48        1.275   2.754   0.007   4.037
   49        1.275   2.755   0.007   4.037
   50        1.285   2.723   0.008   4.017
   51        1.286   2.722   0.008   4.016
   52        1.286   2.722   0.008   4.016
   53        1.285   2.723   0.008   4.017
   54        1.275   2.755   0.007   4.037
   55        1.275   2.754   0.007   4.037
   56        1.275   2.754   0.007   4.037
   57        1.286   2.723   0.008   4.017
   58        1.286   2.721   0.008   4.015
   59        1.286   2.721   0.008   4.015
   60        1.286   2.723   0.008   4.017
[...]
   70        1.275   2.754   0.007   4.037
   71        1.286   2.723   0.008   4.017
   72        1.286   2.721   0.008   4.015
   73        1.288   2.716   0.008   4.013
   74        1.287   2.720   0.008   4.014
   75        1.288   2.716   0.008   4.013
   76        1.287   2.720   0.008   4.014
   77        1.288   2.716   0.008   4.013
   78        1.287   2.720   0.008   4.014
   79        1.286   2.722   0.008   4.016
   80        1.286   2.722   0.008   4.016
   81        1.285   2.723   0.008   4.017
   82        1.275   2.755   0.007   4.037
   83        1.275   2.755   0.007   4.037
   84        1.285   2.723   0.008   4.017
tot          83.57  159.53  211.93  455.03

magnetization (x)

# of ion       s       p       d       tot
    1        0.004   0.003  -0.000   0.006
    2        0.004   0.003  -0.000   0.006
    3        0.004   0.003  -0.000   0.006
    4       -0.000  -0.000   0.062   0.062
    5       -0.000  -0.000   0.062   0.062
    6       -0.000  -0.000   0.062   0.062
    7       -0.000  -0.000   0.107   0.107
    8       -0.000  -0.000   0.107   0.107
    9       -0.000  -0.000   0.037   0.037
   10       -0.000  -0.000   0.075   0.075
   11       -0.000  -0.000   0.075   0.075
   12       -0.000  -0.000   0.092   0.092
   13       -0.000  -0.000   0.107   0.107
   14       -0.000  -0.000   0.037   0.037
   15       -0.000  -0.000   0.107   0.107
   16       -0.000  -0.000   0.092   0.092
   17       -0.000  -0.000   0.075   0.075
   18       -0.000  -0.000   0.075   0.075
   19       -0.000  -0.000   0.071   0.071
   20       -0.000  -0.000   0.071   0.071
   21       -0.000  -0.000   0.071   0.071
   22       -0.000  -0.000   0.075   0.075
   23       -0.000  -0.000   0.092   0.092
   24       -0.000  -0.000   0.075   0.075
   25       -0.000  -0.000   0.071   0.071
   26       -0.000  -0.000   0.071   0.071
   27       -0.000  -0.000   0.071   0.071
   28       -0.000  -0.000   0.037   0.037
   29       -0.000  -0.000   0.107   0.107
   30       -0.000  -0.000   0.107   0.107
   31        0.003   0.008   0.000   0.011
   32        0.003   0.008   0.000   0.011
   33        0.003   0.008   0.000   0.011
   34        0.003   0.008   0.000   0.011
   35        0.003   0.008   0.000   0.011
   36        0.003   0.008   0.000   0.011
   37        0.001   0.003   0.000   0.004
   38        0.003   0.012   0.000   0.015
   39        0.003   0.012   0.000   0.015
   40        0.001   0.003   0.000   0.004
   41        0.001  -0.000   0.000   0.001
   42        0.001  -0.000   0.000   0.001
   43        0.001   0.003   0.000   0.004
   44        0.002   0.007   0.000   0.009
   45        0.002   0.007   0.000   0.009
   46        0.001   0.003   0.000   0.004
   47        0.002   0.008   0.000   0.010
   48        0.002   0.008   0.000   0.010
   49        0.003   0.012   0.000   0.015
   50        0.001   0.003   0.000   0.004
   51        0.001  -0.000   0.000   0.001
   52        0.001  -0.000   0.000   0.001
   53        0.001   0.003   0.000   0.004
   54        0.003   0.012   0.000   0.015
   55        0.002   0.008   0.000   0.010
   56        0.002   0.008   0.000   0.010
   57        0.001   0.003   0.000   0.004
   58        0.002   0.007   0.000   0.009
   59        0.002   0.007   0.000   0.009
   60        0.001   0.003   0.000   0.004
[...]
   70        0.002   0.008   0.000   0.010
   71        0.001   0.003   0.000   0.004
   72        0.002   0.007   0.000   0.009
   73        0.003   0.027   0.000   0.031
   74        0.001   0.010   0.000   0.012
   75        0.003   0.027   0.000   0.031
   76        0.001   0.010   0.000   0.012
   77        0.003   0.027   0.000   0.031
   78        0.001   0.010   0.000   0.012
   79        0.001  -0.000   0.000   0.001
   80        0.001  -0.000   0.000   0.001
   81        0.001   0.003   0.000   0.004
   82        0.003   0.012   0.000   0.015
   83        0.003   0.012   0.000   0.015
   84        0.001   0.003   0.000   0.004
tot           0.11    0.47    2.10    2.68