 vasp.5.4.4.18Apr17-6-g9f103f2a35 (build May 12 2020 05:39:39) gamma-only

 MD_VERSION_INFO: Compiled 2020-05-12T12:39:39-UTC in devlin.sd.materialsdesign.
 com:/home/medea2/data/build/wwolf/vasp-gpu5.4.4/13047/x86_64/src/src/build/gam
 from svn 13047

 executed on                        Lin64 date 2023.01.20  04:27:25

 INCAR:
 POTCAR:    PAW_PBE Li_sv 10Sep2004
 POTCAR:    PAW_PBE Ni 02Aug2007
 POTCAR:    PAW_PBE O 08Apr2002

 POTCAR:    PAW_PBE Li_sv 10Sep2004

 POTCAR:    PAW_PBE Ni 02Aug2007

 POTCAR:    PAW_PBE O 08Apr2002

 Optimization of the real space projectors (new method)

 maximal supplied QI-value         = 22.11
 optimisation between [QCUT,QGAM] = [ 11.28, 22.77] = [ 35.61,145.23] Ry
 Optimized for a Real-space Cutoff    1.10 Angstroem

   l    n(q)    QCUT    max X(q) W(low)/X(q) W(high)/X(q)  e(spline)
   0      7    11.276    10.506    0.54E-04    0.58E-04    0.16E-07
   0      7    11.276     8.367    0.11E-03    0.14E-03    0.35E-07
   1      7    11.276     8.983    0.23E-03    0.43E-03    0.86E-07
 Optimization of the real space projectors (new method)

[...]

   l    n(q)    QCUT    max X(q) W(low)/X(q) W(high)/X(q)  e(spline)
   2      9    11.376    60.317    0.17E-03    0.16E-04    0.16E-06
   2      9    11.376    55.921    0.17E-03    0.16E-04    0.17E-06
   0     10    11.376    51.690    0.45E-04    0.60E-04    0.21E-06
   0     10    11.376    30.015    0.37E-04    0.55E-04    0.19E-06
   1     10    11.376    18.849    0.83E-04    0.11E-03    0.92E-07
   1     10    11.376    14.624    0.69E-04    0.92E-04    0.82E-07
 Optimization of the real space projectors (new method)

 maximal supplied QI-value         = 24.76
 optimisation between [QCUT,QGAM] = [ 11.39, 22.77] = [ 36.31,145.25] Ry
 Optimized for a Real-space Cutoff    1.10 Angstroem

   l    n(q)    QCUT    max X(q) W(low)/X(q) W(high)/X(q)  e(spline)
   0      7    11.387    20.381    0.22E-03    0.48E-03    0.18E-06
   0      7    11.387    15.268    0.22E-03    0.52E-03    0.19E-06
   1      7    11.387     5.964    0.22E-03    0.73E-03    0.24E-06
   1      7    11.387     5.382    0.19E-03    0.60E-03    0.21E-06

  PAW_PBE Li_sv 10Sep2004               :
  PAW_PBE Ni 02Aug2007                  :
  PAW_PBE O 08Apr2002                   :

 POSCAR: ce425731_1
  positions in direct lattice
 exchange correlation table for  LEXCH =       14
   RHO(1)=    0.500       N(1)  =     2000
   RHO(2)=  100.500       N(2)  =     4000

 ion  position               nearest neighbor table
   1  0.998  0.500  0.997-  84 2.10  83 2.11  71 2.11  35 2.11  36 2.12  48 2.12
   2  0.111  0.834  0.221-  32 2.08  55 2.09  49 2.10  37 2.10  50 2.11  56 2.11
   3  0.223  0.166  0.446-  75 2.08  34 2.09  58 2.10  52 2.10  57 2.11  51 2.11
   4  0.335  0.500  0.670-  77 2.10  72 2.11  78 2.11  54 2.11  53 2.12  59 2.12
   5  1.000  0.003  0.999-  82 1.86  70 1.86  85 1.86  49 1.87  37 1.87  34 1.90  29 2.79  23 2.79
                            11 2.79   8 2.79  14 2.80  17 2.80
   6  0.111  0.334  0.222-  36 1.86  48 1.86  57 1.87  51 1.87  33 1.88  54 1.91   9 2.79  12 2.79
                            18 2.80  15 2.80  24 2.80  30 2.80
   7  0.224  0.667  0.111-  38 1.86  41 1.86  56 1.86  71 1.86  35 1.88  32 1.88  25 2.78  10 2.78
                            19 2.78  16 2.80  31 2.81  13 2.82
   8  0.333  0.999  1.000-  76 1.86  73 1.87  43 1.87  70 1.87  40 1.87  37 1.89  17 2.79  26 2.79
                            23 2.79   5 2.79  20 2.79  11 2.80
   9  0.444  0.333  0.222-  42 1.86  63 1.86  39 1.87  60 1.87  57 1.89  36 1.90  18 2.78  27 2.79
                             6 2.79  24 2.79  21 2.79  12 2.80
  10  0.556  0.666  0.111-  62 1.86  47 1.86  41 1.86  38 1.87  44 1.87  77 1.89  13 2.78   7 2.78
                            28 2.79  25 2.79  22 2.79  19 2.79
  11  0.667  0.999  1.000-  76 1.86  79 1.87  43 1.87  82 1.87  46 1.87  49 1.89  14 2.79  26 2.79
                            29 2.79   5 2.79  20 2.79   8 2.80
  12  0.778  0.333  0.222-  42 1.86  63 1.86  45 1.87  66 1.87  51 1.89  48 1.90  15 2.78  27 2.79
                             6 2.79  30 2.79  21 2.79   9 2.80
  13  0.887  0.667  0.111-  44 1.86  47 1.86  50 1.86  83 1.86  35 1.88  32 1.88  28 2.78  10 2.78
                            22 2.78  16 2.80  31 2.81   7 2.82
  14  0.999  0.000  0.333-  46 1.86  67 1.86  49 1.86  52 1.86  55 1.88  34 1.88  20 2.78  11 2.79
                            23 2.79   5 2.80  26 2.80  17 2.81
  15  0.110  0.333  0.556-  69 1.86  66 1.86  51 1.86  72 1.86  54 1.88  75 1.88  24 2.78  21 2.78
                            12 2.78   6 2.80  27 2.81  18 2.82
  16  0.222  0.666  0.444-  53 1.86  59 1.86  50 1.87  56 1.87  74 1.88  35 1.91  22 2.79  19 2.79
                            13 2.80   7 2.80  25 2.80  28 2.80
  17  0.335  0.000  0.333-  61 1.86  40 1.86  37 1.86  58 1.86  34 1.88  55 1.88  20 2.78   8 2.79
                            29 2.79   5 2.80  26 2.80  14 2.81
  18  0.446  0.333  0.556-  81 1.86  60 1.86  57 1.86  78 1.86  54 1.88  75 1.88  30 2.78  21 2.78
                             9 2.78   6 2.80  27 2.81  15 2.82
  19  0.555  0.667  0.445-  65 1.86  62 1.86  80 1.87  41 1.87  56 1.89  59 1.90   7 2.78  31 2.79
                            16 2.79  28 2.79  10 2.79  22 2.80
  20  0.667  0.000  0.333-  67 1.86  40 1.86  61 1.86  46 1.86  43 1.87  64 1.87  14 2.78  17 2.78
                            11 2.79  23 2.79   8 2.79  29 2.79
  21  0.778  0.334  0.556-  63 1.86  60 1.86  66 1.86  69 1.87  81 1.87  84 1.89  15 2.78  18 2.78
                            24 2.79  30 2.79   9 2.79  12 2.79
  22  0.889  0.667  0.445-  65 1.86  62 1.86  68 1.87  47 1.87  50 1.89  53 1.90  13 2.78  31 2.79
                            16 2.79  25 2.79  10 2.79  19 2.80
  23  0.000  0.001  0.667-  85 1.86  70 1.87  64 1.87  73 1.87  67 1.87  52 1.89  14 2.79   5 2.79
                             8 2.79  26 2.79  20 2.79  29 2.80
  24  0.112  0.331  0.888-  69 1.86  39 1.86  33 1.87  36 1.87  84 1.87  72 1.89  15 2.78  27 2.78
                             9 2.79  21 2.79   6 2.80  30 2.81
  25  0.222  0.669  0.778-  38 1.86  68 1.86  74 1.87  53 1.87  77 1.87  71 1.89   7 2.78  31 2.78
                            22 2.79  10 2.79  16 2.80  28 2.81
  26  0.334  0.997  0.667-  79 1.86  73 1.86  76 1.86  58 1.87  52 1.87  55 1.90  11 2.79   8 2.79
                            23 2.79  29 2.79  14 2.80  17 2.80
  27  0.445  0.329  0.890-  39 1.86  45 1.86  42 1.86  72 1.88  78 1.88  75 1.90  24 2.78  30 2.78
                            12 2.79   9 2.79  18 2.81  15 2.81
  28  0.557  0.669  0.778-  44 1.86  80 1.86  74 1.87  59 1.87  77 1.87  83 1.89  13 2.78  31 2.78
                            19 2.79  10 2.79  16 2.80  25 2.81
  29  0.667  0.001  0.667-  85 1.86  82 1.87  64 1.87  79 1.87  61 1.87  58 1.89  17 2.79   5 2.79
                            11 2.79  26 2.79  20 2.79  23 2.80
  30  0.777  0.331  0.888-  81 1.86  45 1.86  33 1.87  48 1.87  84 1.87  78 1.89  18 2.78  27 2.78
                            12 2.79  21 2.79   6 2.80  24 2.81
  31  0.888  0.671  0.777-  80 1.86  68 1.86  65 1.86  71 1.88  83 1.88  32 1.90  28 2.78  25 2.78
                            19 2.79  22 2.79  13 2.81   7 2.81
  32  0.002  0.737  0.005-   7 1.88  13 1.88  31 1.90   2 2.08
  33  0.000  0.265  0.000-  30 1.87  24 1.87   6 1.88
  34  0.114  0.069  0.227-  17 1.88  14 1.88   5 1.90   3 2.09
  35  0.109  0.598  0.217-  13 1.88   7 1.88  16 1.91   1 2.11
  36  0.218  0.401  0.108-   6 1.86  24 1.87   9 1.90   1 2.12
  37  0.219  0.933  0.112-  17 1.86   5 1.87   8 1.89   2 2.10
  38  0.334  0.735  0.001-   7 1.86  25 1.86  10 1.87
  39  0.334  0.264  0.001-  27 1.86  24 1.86   9 1.87
  40  0.445  0.067  0.222-  17 1.86  20 1.86   8 1.87
  41  0.445  0.600  0.222-   7 1.86  10 1.86  19 1.87
  42  0.555  0.398  0.110-  12 1.86   9 1.86  27 1.86
  43  0.556  0.932  0.112-  11 1.87   8 1.87  20 1.87
  44  0.667  0.735  0.001-  13 1.86  28 1.86  10 1.87
  45  0.668  0.264  0.001-  27 1.86  30 1.86  12 1.87
  46  0.777  0.067  0.222-  14 1.86  20 1.86  11 1.87
  47  0.778  0.600  0.222-  13 1.86  10 1.86  22 1.87
  48  0.890  0.401  0.108-   6 1.86  30 1.87  12 1.90   1 2.12
  49  0.893  0.933  0.112-  14 1.86   5 1.87  11 1.89   2 2.10
  50  0.002  0.735  0.331-  13 1.86  16 1.87  22 1.89   2 2.11
  51  0.004  0.265  0.335-  15 1.86   6 1.87  12 1.89   3 2.11
  52  0.114  0.067  0.555-  14 1.86  26 1.87  23 1.89   3 2.10
  53  0.116  0.599  0.559-  16 1.86  25 1.87  22 1.90   4 2.12
  54  0.225  0.402  0.449-  18 1.88  15 1.88   6 1.91   4 2.11
  55  0.220  0.931  0.440-  14 1.88  17 1.88  26 1.90   2 2.09
  56  0.329  0.735  0.331-   7 1.86  16 1.87  19 1.89   2 2.11
  57  0.331  0.265  0.335-  18 1.86   6 1.87   9 1.89   3 2.11
  58  0.440  0.067  0.555-  17 1.86  26 1.87  29 1.89   3 2.10
  59  0.443  0.599  0.559-  16 1.86  28 1.87  19 1.90   4 2.12
  60  0.556  0.400  0.444-  18 1.86  21 1.86   9 1.87
  61  0.556  0.933  0.445-  17 1.86  20 1.86  29 1.87
  62  0.666  0.733  0.333-  10 1.86  22 1.86  19 1.86
  63  0.667  0.267  0.334-  21 1.86   9 1.86  12 1.86
  64  0.777  0.068  0.555-  29 1.87  23 1.87  20 1.87
  65  0.778  0.602  0.557-  19 1.86  22 1.86  31 1.86
  66  0.889  0.400  0.444-  15 1.86  21 1.86  12 1.87
  67  0.889  0.933  0.445-  14 1.86  20 1.86  23 1.87
  68  1.000  0.736  0.665-  31 1.86  25 1.86  22 1.87
  69  0.999  0.265  0.665-  15 1.86  24 1.86  21 1.87
  70  0.112  0.068  0.889-   5 1.86  23 1.87   8 1.87
  71  0.108  0.600  0.889-   7 1.86  31 1.88  25 1.89   1 2.11
  72  0.225  0.400  0.777-  15 1.86  27 1.88  24 1.89   4 2.11
  73  0.221  0.932  0.778-  26 1.86   8 1.87  23 1.87
  74  0.333  0.735  0.666-  28 1.87  25 1.87  16 1.88
  75  0.331  0.263  0.662-  15 1.88  18 1.88  27 1.90   3 2.08
  76  0.444  0.065  0.888-   8 1.86  11 1.86  26 1.86
  77  0.442  0.600  0.885-  25 1.87  28 1.87  10 1.89   4 2.10
  78  0.552  0.400  0.777-  18 1.86  27 1.88  30 1.89   4 2.11
  79  0.557  0.932  0.778-  26 1.86  11 1.87  29 1.87
  80  0.666  0.736  0.665-  31 1.86  28 1.86  19 1.87
  81  0.667  0.265  0.665-  18 1.86  30 1.86  21 1.87
  82  0.776  0.068  0.889-   5 1.86  29 1.87  11 1.87
  83  0.781  0.600  0.889-  13 1.86  31 1.88  28 1.89   1 2.11
  84  0.891  0.400  0.782-  24 1.87  30 1.87  21 1.89   1 2.10
  85  0.889  0.935  0.779-  29 1.86  23 1.86   5 1.86

  LATTYP: Found a base centered monoclinic cell.
 ALAT       =    14.5075558600
 B/A-ratio  =     0.5772628963
 C/A-ratio  =     1.3936617650
 COS(beta)  =    -0.6220570167

  Lattice vectors:

 A1 = (   4.1882866402,   7.2532285507,   0.0038383528)
 A2 = (   8.3756235150,   0.0005483765,   0.0038383528)
 A3 = ( -12.5702139409,  -7.2574164700, -14.0752428455)

Analysis of symmetry for initial positions (statically):
 Subroutine PRICEL returns:
 Original cell was already a primitive cell.

 Routine SETGRP: Setting up the symmetry group for a
 base centered monoclinic supercell.

 Subroutine GETGRP returns: Found  4 space group operations
 (whereof  2 operations were pure point group operations)
 out of a pool of  4 trial point group operations.

The static configuration has the point symmetry C_1h.
[...]
   -.349E+02 -.201E+02 0.354E+03   0.373E+02 0.216E+02 -.377E+03   -.247E+01 -.143E+01 0.226E+02   0.118E-02 0.681E-03 -.119E-01
   0.116E+01 -.485E+02 -.349E+03   -.914E+00 0.519E+02 0.372E+03   -.254E+00 -.339E+01 -.233E+02   0.423E-02 -.346E-02 -.115E-01
   0.414E+02 -.253E+02 0.349E+03   -.445E+02 0.267E+02 -.372E+03   0.306E+01 -.147E+01 0.233E+02   0.883E-03 -.540E-02 0.115E-01
   -.597E+01 -.437E+02 -.344E+03   0.668E+01 0.465E+02 0.367E+03   -.717E+00 -.278E+01 -.233E+02   -.132E-03 0.572E-02 0.880E-02
   0.348E+02 -.294E+02 0.349E+03   -.375E+02 0.315E+02 -.372E+03   0.269E+01 -.210E+01 0.229E+02   0.507E-02 -.143E-02 0.311E-02
   0.168E+02 -.960E+01 -.379E+03   -.174E+02 0.953E+01 0.407E+03   0.611E+00 0.680E-01 -.274E+02   0.500E-02 -.116E-02 0.228E-02
[...]
   -.327E+02 0.103E+02 -.348E+03   0.356E+02 -.111E+02 0.371E+03   -.288E+01 0.822E+00 -.229E+02   0.234E-02 0.781E-02 -.681E-02
   -.734E+01 0.420E+01 0.375E+03   0.790E+01 -.490E+01 -.402E+03   -.570E+00 0.706E+00 0.276E+02   0.302E-02 -.181E-02 -.783E-02
   -.838E+01 -.484E+01 -.385E+03   0.805E+01 0.465E+01 0.411E+03   0.325E+00 0.188E+00 -.267E+02   0.317E-03 0.183E-03 -.152E-01
   -.373E+02 -.215E+02 0.357E+03   0.398E+02 0.230E+02 -.379E+03   -.255E+01 -.147E+01 0.222E+02   0.888E-02 0.513E-02 0.163E-01
   -.929E+01 -.536E+01 -.370E+03   0.907E+01 0.524E+01 0.397E+03   0.214E+00 0.124E+00 -.276E+02   0.447E-02 0.258E-02 0.856E-02
   -.359E+02 -.207E+02 0.348E+03   0.383E+02 0.221E+02 -.370E+03   -.243E+01 -.140E+01 0.224E+02   -.432E-02 -.249E-02 0.101E-02
   -.743E+01 -.335E+02 -.348E+03   0.814E+01 0.364E+02 0.371E+03   -.726E+00 -.290E+01 -.229E+02   0.794E-02 -.188E-02 -.681E-02
   -.309E-01 -.845E+01 0.375E+03   -.293E+00 0.929E+01 -.402E+03   0.326E+00 -.847E+00 0.276E+02   -.557E-04 0.352E-02 -.783E-02
   0.736E+01 0.256E+01 -.381E+03   -.778E+01 -.325E+01 0.408E+03   0.416E+00 0.675E+00 -.276E+02   0.610E-02 0.886E-02 -.156E-01
   0.648E+01 -.140E+02 0.378E+03   -.693E+01 0.144E+02 -.406E+03   0.450E+00 -.453E+00 0.278E+02   0.652E-02 0.765E-03 0.107E-01
   0.310E-01 0.845E+01 -.375E+03   0.293E+00 -.929E+01 0.402E+03   -.326E+00 0.847E+00 -.276E+02   0.557E-04 -.352E-02 0.783E-02
   0.743E+01 0.335E+02 0.348E+03   -.814E+01 -.364E+02 -.371E+03   0.726E+00 0.290E+01 0.229E+02   -.793E-02 0.188E-02 0.681E-02
   0.359E+02 0.207E+02 -.348E+03   -.383E+02 -.221E+02 0.370E+03   0.243E+01 0.140E+01 -.224E+02   0.432E-02 0.249E-02 -.101E-02
   0.929E+01 0.536E+01 0.370E+03   -.907E+01 -.524E+01 -.397E+03   -.214E+00 -.124E+00 0.276E+02   -.447E-02 -.258E-02 -.856E-02
   0.139E-02 -.707E-03 -.482E-03   -.439E-12 0.230E-12 0.000E+00   0.860E-15 -.874E-15 -.178E-13   0.109E-06 0.535E-07 0.334E-07

 POSITION                                       TOTAL-FORCE (eV/Angst)
      4.17057      7.24197      7.04340        -0.009333     -0.005389      0.002937
      1.39384      0.80473     11.74147        -0.002206     -0.001274      0.002542
      2.80024      1.61672      2.33784         0.002206      0.001274     -0.002542
      4.21205      2.43183      7.03970         0.009333      0.005389     -0.002937
      4.18412      7.24979      0.04976         0.008572      0.004949     -0.016106
      1.39885      0.80763      4.69497         0.002367      0.001366     -0.005620
     -0.00146      1.62433      9.39480        -0.000533     -0.004235      0.007540
      6.98608      2.41980     14.06735         0.006974     -0.002100      0.000471
      0.00430      3.22022      4.68143         0.003766     -0.008939     -0.008601
     -1.39119      4.03089      9.38295        -0.006523     -0.003766      0.010573
      5.58865      4.84022     14.06735         0.001668      0.007089      0.000471
     -1.39551      5.64475      4.68143        -0.005859      0.007731     -0.008601
     -2.78047      6.43771      9.39480        -0.003934      0.001656      0.007540
     -1.38945      7.24231      0.00127        -0.002165      0.003750      0.000000
      4.19554      0.79712      4.68451         0.000533      0.004235     -0.007540
      2.79523      1.61383      9.38434        -0.002367     -0.001366      0.005620
      1.39085      2.42669      0.00127         0.002165     -0.003750     -0.000000
      2.78810      3.23488      4.68451         0.003934     -0.001656     -0.007540
      1.40314      4.02784      9.39788         0.005859     -0.007731      0.008601
      0.00070      4.83450      0.00127         0.000000     -0.000000     -0.000000
      1.39882      5.64170      4.69635         0.006523      0.003766     -0.010573
      0.00333      6.45237      9.39788        -0.003766      0.008939      0.008601
      5.58299      0.00286      0.01575        -0.006974      0.002100     -0.000471
      6.97473      0.81228      4.66570        -0.001575      0.002375      0.006469
      5.59434      1.61038      9.41740         0.001575     -0.002375     -0.006469
      4.19851      2.42401     14.03335        -0.008572     -0.004949      0.016106
      5.59256      3.22887      4.64010        -0.007835     -0.004523      0.006735
      4.19180      4.03965      9.41740        -0.001270      0.002551     -0.006469
      2.79398      4.83358      0.01575        -0.001668     -0.007089     -0.000471
      4.19082      5.63415      4.66570         0.001270     -0.002551      0.006469
      2.79006      6.44493      9.44300         0.007835      0.004523     -0.006735
      0.03536      0.02042     10.37319        -0.001260     -0.000727      0.002494
      0.00337      0.00195      3.73436        -0.001734     -0.001001     -0.002468
      1.42658      0.82364      0.97892        -0.002097     -0.001211     -0.001687
      1.36908      0.79044      8.42144         0.001912      0.001104      0.005430
     -0.00604      1.58105      5.64132         0.003061     -0.000513     -0.007569
      0.02762      1.59267     13.13172         0.002903      0.004505     -0.003920
     -1.38593      2.42671     10.34011        -0.003517     -0.004026      0.003218
     -1.38351      2.42036      3.71998        -0.002373     -0.000545      0.003126
     -0.00294      3.22493      0.94103         0.000687     -0.000999     -0.001042
      0.00547      3.22685      8.44652        -0.000122     -0.002154      0.012967
     -1.40037      4.02559      5.60118         0.000288      0.000166     -0.006676
     -1.38535      4.03426     13.12704         0.001907      0.001101      0.004818
     -2.77782      4.83754     10.34011        -0.005245     -0.001033      0.003218
     -2.78211      4.84280      3.71998        -0.001659     -0.001782      0.003126
     -1.39505      5.63613      0.94103        -0.000522      0.001094     -0.001042
     -1.38917      5.64245      8.44652        -0.001926      0.000972      0.012967
     -2.82024      6.45539      5.64132         0.001086      0.002907     -0.007569
     -2.79334      6.47872     13.13172         0.005353      0.000262     -0.003920
      2.77118      0.01767     10.35111        -0.004784      0.002556      0.006430
      2.79319      0.03038      3.72820         0.000179      0.005421     -0.006430
      4.16645      0.82878      0.94758        -0.002903     -0.004505      0.003920
      4.20011      0.84040      8.43799        -0.003061      0.000513      0.007569
      2.82499      1.63101      5.65787        -0.001912     -0.001104     -0.005430
      2.76750      1.59782     13.10039         0.002097      0.001211      0.001687
      1.40089      2.39108     10.35111        -0.000179     -0.005421      0.006430
      1.42290      2.40378      3.72820         0.004784     -0.002556     -0.006430
      2.80097      3.19387      0.94758        -0.005353     -0.000262      0.003920
      2.82787      3.21720      8.43799        -0.001086     -0.002907      0.007569
      1.39680      4.03014      5.63279         0.001926     -0.000972     -0.012967
[...]
      7.00057      0.78872      8.45417         0.003058      0.003811      0.002155
      5.56850      1.63394      5.62894        -0.003058     -0.003811     -0.002155
      5.59750      1.60768     13.12280        -0.000934      0.003059      0.007074
      4.19070      2.41950     10.34495         0.001734      0.001001      0.002468
      4.15871      2.40103      3.70612         0.001260      0.000727     -0.002494
      5.57833      3.22065      0.91257         0.002115      0.001221      0.005512
      5.56144      3.21090      8.44269         0.003354      0.001937      0.003387
      4.19928      4.00549      5.62894        -0.004829     -0.000743     -0.002155
      4.19104      4.04374     13.12280         0.002182     -0.002338      0.007074
      2.78973      4.82978     10.35933         0.001659      0.001782     -0.003126
      2.78545      4.83505      3.73920         0.005245      0.001033     -0.003218
      4.19158      5.63006      0.96030        -0.002182      0.002338     -0.007074
      4.18334      5.66831      8.45417         0.004829      0.000743      0.002155
      2.82118      6.46290      5.64041        -0.003354     -0.001937     -0.003387
      2.80429      6.45315     13.17053        -0.002115     -0.001221     -0.005512
    total drift:                                0.001385     -0.000707     -0.000482

  FREE ENERGIE OF THE ION-ELECTRON SYSTEM (eV)
  free  energy   TOTEN  =      -529.0044284301 eV

  energy  without entropy=     -528.9467465096  energy(sigma->0) =     -528.97558747

 d Force = 0.3338071E-03[ 0.147E-03, 0.521E-03]  d Energy = 0.4016390E-03-0.678E-04
 d Force =-0.7436071E+01[-0.744E+01,-0.743E+01]  d Ewald  =-0.1012019E+02 0.268E+01

 Quasi-Newton relaxation of ions (Broydens 2nd method)
  g(Force)  = 0.275E-03   g(Stress)= 0.340E-03

 retain information from N=  2 steps
 eigenvalues of (default step * inverse Hessian matrix)
  average eigenvalue of G=   4.4386
 eigenvalue spectrum of G is  0.8778  7.9994

 reached required accuracy - stopping structural energy minimisation

volume of typ            1:     3.6 %

[...]

volume of typ            3:    10.3 %

total charge

# of ion       s       p       d       tot
    1        2.069   0.224   0.088   2.381
    2        2.072   0.235   0.094   2.401
    3        2.072   0.235   0.094   2.401
    4        2.069   0.224   0.088   2.381
    5        0.298   0.415   7.825   8.538
    6        0.298   0.415   7.832   8.545
    7        0.302   0.425   7.831   8.558
    8        0.298   0.415   7.819   8.532
    9        0.293   0.405   7.822   8.520
   10        0.298   0.416   7.820   8.533
   11        0.298   0.415   7.819   8.532
   12        0.293   0.405   7.822   8.520
   13        0.302   0.425   7.831   8.558
   14        0.302   0.425   7.831   8.557
   15        0.302   0.425   7.831   8.558
   16        0.298   0.415   7.832   8.545
   17        0.302   0.425   7.831   8.557
   18        0.302   0.425   7.831   8.558
   19        0.293   0.405   7.822   8.520
   20        0.302   0.424   7.818   8.544
   21        0.298   0.416   7.820   8.533
   22        0.293   0.405   7.822   8.520
   23        0.298   0.415   7.819   8.532
   24        0.298   0.415   7.826   8.538
   25        0.298   0.415   7.826   8.538
   26        0.298   0.415   7.825   8.538
   27        0.298   0.414   7.826   8.538
   28        0.298   0.415   7.826   8.538
   29        0.298   0.415   7.819   8.532
   30        0.298   0.415   7.826   8.538
   31        0.298   0.414   7.826   8.538
   32        1.276   2.751   0.007   4.034
   33        1.289   2.713   0.008   4.010
   34        1.275   2.751   0.007   4.034
   35        1.275   2.751   0.007   4.033
   36        1.275   2.753   0.007   4.036
   37        1.275   2.754   0.007   4.037
   38        1.286   2.723   0.008   4.017
   39        1.286   2.722   0.008   4.016
   40        1.286   2.722   0.008   4.016
   41        1.286   2.723   0.008   4.017
   42        1.288   2.717   0.008   4.014
   43        1.287   2.720   0.008   4.014
   44        1.286   2.723   0.008   4.017
   45        1.286   2.722   0.008   4.016
   46        1.286   2.722   0.008   4.016
   47        1.286   2.723   0.008   4.017
   48        1.275   2.753   0.007   4.036
   49        1.275   2.754   0.007   4.037
   50        1.275   2.754   0.008   4.037
   51        1.275   2.754   0.008   4.037
   52        1.275   2.754   0.007   4.037
   53        1.275   2.753   0.007   4.036
   54        1.275   2.751   0.007   4.033
   55        1.275   2.751   0.007   4.034
   56        1.275   2.754   0.008   4.037
   57        1.275   2.754   0.008   4.037
   58        1.275   2.754   0.007   4.037
   59        1.275   2.753   0.007   4.036
   60        1.286   2.723   0.008   4.017
[...]
   71        1.275   2.755   0.007   4.037
   72        1.275   2.755   0.007   4.037
   73        1.286   2.721   0.008   4.015
   74        1.289   2.713   0.008   4.010
   75        1.276   2.751   0.007   4.034
   76        1.288   2.717   0.008   4.013
   77        1.275   2.753   0.007   4.036
   78        1.275   2.755   0.007   4.037
   79        1.286   2.721   0.008   4.015
   80        1.286   2.722   0.008   4.016
   81        1.286   2.723   0.008   4.017
   82        1.286   2.721   0.008   4.015
   83        1.275   2.755   0.007   4.037
   84        1.275   2.753   0.007   4.036
   85        1.288   2.717   0.008   4.013
tot          85.53  159.83  212.06  457.43

magnetization (x)

# of ion       s       p       d       tot
    1        0.005   0.003  -0.000   0.007
    2        0.004   0.003  -0.000   0.007
    3        0.004   0.003  -0.000   0.007
    4        0.005   0.003  -0.000   0.007
    5       -0.000  -0.000   0.089   0.089
    6       -0.000  -0.000   0.143   0.143
    7       -0.000  -0.000   0.092   0.092
    8       -0.000  -0.000   0.080   0.080
    9       -0.000  -0.000   0.142   0.141
   10       -0.000  -0.000   0.082   0.082
   11       -0.000  -0.000   0.080   0.080
   12       -0.000  -0.000   0.142   0.141
   13       -0.000  -0.000   0.092   0.092
   14       -0.000  -0.000   0.089   0.089
   15       -0.000  -0.000   0.092   0.092
   16       -0.000  -0.000   0.143   0.143
   17       -0.000  -0.000   0.089   0.089
   18       -0.000  -0.000   0.092   0.092
   19       -0.000  -0.000   0.142   0.141
   20       -0.000  -0.000   0.046   0.046
   21       -0.000  -0.000   0.082   0.082
   22       -0.000  -0.000   0.142   0.141
   23       -0.000  -0.000   0.080   0.080
   24       -0.000  -0.000   0.113   0.113
   25       -0.000  -0.000   0.113   0.113
   26       -0.000  -0.000   0.089   0.089
   27       -0.000  -0.000   0.119   0.119
   28       -0.000  -0.000   0.113   0.113
   29       -0.000  -0.000   0.080   0.080
   30       -0.000  -0.000   0.113   0.113
   31       -0.000  -0.000   0.119   0.119
   32        0.003   0.015   0.000   0.019
   33        0.004   0.038   0.000   0.042
   34        0.003   0.009   0.000   0.012
   35        0.003   0.012   0.000   0.015
   36        0.003   0.011   0.000   0.014
   37        0.002   0.006   0.000   0.008
   38        0.001   0.003   0.000   0.004
   39        0.002   0.008   0.000   0.010
   40        0.002   0.005   0.000   0.007
   41        0.002   0.005   0.000   0.007
   42        0.004   0.036   0.000   0.040
   43        0.001   0.007   0.000   0.008
   44        0.001   0.003   0.000   0.004
   45        0.002   0.008   0.000   0.010
   46        0.002   0.005   0.000   0.007
   47        0.002   0.005   0.000   0.007
   48        0.003   0.011   0.000   0.014
   49        0.002   0.006   0.000   0.008
   50        0.003   0.011   0.000   0.014
   51        0.003   0.011   0.000   0.014
   52        0.002   0.006   0.000   0.008
   53        0.003   0.011   0.000   0.014
   54        0.003   0.012   0.000   0.015
   55        0.003   0.009   0.000   0.012
   56        0.003   0.011   0.000   0.014
   57        0.003   0.011   0.000   0.014
   58        0.002   0.006   0.000   0.008
   59        0.003   0.011   0.000   0.014
   60        0.002   0.005   0.000   0.007
[...]
   71        0.003   0.008   0.000   0.010
   72        0.003   0.008   0.000   0.010
   73        0.001   0.006   0.000   0.008
   74        0.004   0.038   0.000   0.042
   75        0.003   0.015   0.000   0.019
   76        0.003   0.023   0.000   0.026
   77        0.003   0.013   0.000   0.016
   78        0.003   0.008   0.000   0.010
   79        0.001   0.006   0.000   0.008
   80        0.002   0.008   0.000   0.010
   81        0.001   0.003   0.000   0.004
   82        0.001   0.006   0.000   0.008
   83        0.003   0.008   0.000   0.010
   84        0.003   0.013   0.000   0.016
   85        0.003   0.023   0.000   0.026
tot           0.14    0.65    2.80    3.60