 vasp.5.4.4.18Apr17-6-g9f103f2a35 (build May 12 2020 05:39:39) gamma-only

 MD_VERSION_INFO: Compiled 2020-05-12T12:39:39-UTC in devlin.sd.materialsdesign.
 com:/home/medea2/data/build/wwolf/vasp-gpu5.4.4/13047/x86_64/src/src/build/gam
 from svn 13047

 executed on                        Lin64 date 2023.01.20  09:20:28

 INCAR:
 POTCAR:    PAW_PBE Li_sv 10Sep2004
 POTCAR:    PAW_PBE Ni 02Aug2007
 POTCAR:    PAW_PBE O 08Apr2002

 POTCAR:    PAW_PBE Li_sv 10Sep2004

 POTCAR:    PAW_PBE Ni 02Aug2007

 POTCAR:    PAW_PBE O 08Apr2002

 Optimization of the real space projectors (new method)

 maximal supplied QI-value         = 22.11
 optimisation between [QCUT,QGAM] = [ 11.28, 22.77] = [ 35.61,145.23] Ry
 Optimized for a Real-space Cutoff    1.10 Angstroem

   l    n(q)    QCUT    max X(q) W(low)/X(q) W(high)/X(q)  e(spline)
   0      7    11.276    10.506    0.54E-04    0.58E-04    0.16E-07
   0      7    11.276     8.367    0.11E-03    0.14E-03    0.35E-07
   1      7    11.276     8.983    0.23E-03    0.43E-03    0.86E-07
 Optimization of the real space projectors (new method)

[...]

   l    n(q)    QCUT    max X(q) W(low)/X(q) W(high)/X(q)  e(spline)
   2      9    11.376    60.317    0.17E-03    0.16E-04    0.16E-06
   2      9    11.376    55.921    0.17E-03    0.16E-04    0.17E-06
   0     10    11.376    51.690    0.45E-04    0.60E-04    0.21E-06
   0     10    11.376    30.015    0.37E-04    0.55E-04    0.19E-06
   1     10    11.376    18.849    0.83E-04    0.11E-03    0.92E-07
   1     10    11.376    14.624    0.69E-04    0.92E-04    0.82E-07
 Optimization of the real space projectors (new method)

 maximal supplied QI-value         = 24.76
 optimisation between [QCUT,QGAM] = [ 11.39, 22.77] = [ 36.31,145.25] Ry
 Optimized for a Real-space Cutoff    1.10 Angstroem

   l    n(q)    QCUT    max X(q) W(low)/X(q) W(high)/X(q)  e(spline)
   0      7    11.387    20.381    0.22E-03    0.48E-03    0.18E-06
   0      7    11.387    15.268    0.22E-03    0.52E-03    0.19E-06
   1      7    11.387     5.964    0.22E-03    0.73E-03    0.24E-06
   1      7    11.387     5.382    0.19E-03    0.60E-03    0.21E-06

  PAW_PBE Li_sv 10Sep2004               :
  PAW_PBE Ni 02Aug2007                  :
  PAW_PBE O 08Apr2002                   :

 POSCAR: ce230621_1
  positions in direct lattice
 exchange correlation table for  LEXCH =       14
   RHO(1)=    0.500       N(1)  =     2000
   RHO(2)=  100.500       N(2)  =     4000

 ion  position               nearest neighbor table
   1  0.998  0.499  0.997-  93 2.07  45 2.11  92 2.11  44 2.12  80 2.13  57 2.13
   2  0.091  0.835  0.224-  59 1.99  58 2.01  64 2.13  41 2.16  46 2.25  65 2.25  23 2.79  22 2.81

   3  0.200  0.167  0.111-  42 2.01  43 2.02  66 2.14  79 2.14  49 2.24  48 2.28  15 2.79  14 2.81

[...]

  12  0.558  0.165  0.758-  90 1.99  67 2.01  91 2.13  84 2.16  85 2.25  54 2.25  38 2.79  27 2.81

  13  0.668  0.499  0.642-  74 1.99  69 2.00  93 2.09  68 2.13  92 2.27  30 2.76  28 2.78
  14  0.000  0.999  0.999-  58 1.87  79 1.87  43 1.88  94 1.90  91 1.91  46 1.93  32 2.80  17 2.81
                            38 2.81   3 2.81  20 2.82  23 2.83  26 2.83
  15  0.114  0.334  0.224-  66 1.86  42 1.87  57 1.87  63 1.91  60 1.96  45 1.99  27 2.77   3 2.79
                            24 2.82  39 2.82  18 2.82  21 2.82  33 2.85
  16  0.222  0.667  0.111-  80 1.87  65 1.87  41 1.88  50 1.88  47 1.90  44 1.91  25 2.79  40 2.80
                            28 2.81  34 2.81  22 2.82  19 2.83
  17  0.332  0.000  0.998-  82 1.86  79 1.86  49 1.87  52 1.87  85 1.93  46 1.93  32 2.78  29 2.80
                            35 2.81  14 2.81  26 2.83  20 2.83
  18  0.447  0.335  0.224-  66 1.87  51 1.88  48 1.88  69 1.89  72 1.91  45 1.92   4 2.78  30 2.79
                            27 2.81  21 2.81  15 2.82  36 2.83  33 2.84
  19  0.557  0.665  0.114-  53 1.87  50 1.88  47 1.88  56 1.89  71 1.91  86 1.92   4 2.78  31 2.79
                            22 2.81  28 2.81  37 2.82  16 2.83  34 2.84
  20  0.668  0.999  0.003-  88 1.87  85 1.88  91 1.88  58 1.89  55 1.90  52 1.93  23 2.78  29 2.80
                            14 2.82  17 2.83  35 2.83  38 2.84
  21  0.778  0.334  0.221-  75 1.87  60 1.87  72 1.87  51 1.90  57 1.91  54 1.91  39 2.78   7 2.78
                            36 2.81  18 2.81  24 2.82  15 2.82  30 2.84
  22  0.887  0.668  0.108-  59 1.87  44 1.88  41 1.88  56 1.88  53 1.89  92 1.91  37 2.77  40 2.81
                            19 2.81   2 2.81  16 2.82  31 2.82  25 2.84
  23  0.999  0.001  0.333-  61 1.87  58 1.87  64 1.87  55 1.91  43 1.93  76 1.93  20 2.78   2 2.79
                            35 2.81  29 2.82  32 2.83  14 2.83  26 2.84
  24  0.111  0.333  0.557-  60 1.86  75 1.87  78 1.87  63 1.88  81 1.90  84 1.90  33 2.78   9 2.79
                            36 2.80  27 2.81  21 2.82  15 2.82  30 2.82
  25  0.225  0.667  0.443-  62 1.87  59 1.87  65 1.90  68 1.92  83 1.92  44 1.95  28 2.78  16 2.79
                            37 2.82  22 2.84  31 2.84  34 2.86
  26  0.336  0.001  0.335-  43 1.87  46 1.88  64 1.88  67 1.89  70 1.90  49 1.93  38 2.78  29 2.80
                            35 2.82  17 2.83  14 2.83  23 2.84
  27  0.442  0.332  0.553-  90 1.87  87 1.88  84 1.88  69 1.88  66 1.89  63 1.91  15 2.77  24 2.81
                            18 2.81  12 2.81  36 2.82  30 2.82  39 2.84
  28  0.554  0.666  0.444-  74 1.87  89 1.87  71 1.87  50 1.90  68 1.91  65 1.91  25 2.78  13 2.78
                            16 2.81  19 2.81  40 2.82  37 2.82  31 2.84
  29  0.665  0.000  0.331-  55 1.87  70 1.87  76 1.88  73 1.88  52 1.91  49 1.91  20 2.80  26 2.80
                            17 2.80  23 2.82  38 2.82  32 2.84
  30  0.777  0.333  0.557-  78 1.85  69 1.86  72 1.93  93 1.94  90 1.96  75 1.96  13 2.76  33 2.79
                            18 2.79  27 2.82  24 2.82  39 2.84  21 2.84
  31  0.890  0.667  0.444-  77 1.85  56 1.86  71 1.93  62 1.94  59 1.96  74 1.96   7 2.76  34 2.79
                            19 2.79  22 2.82  40 2.82  25 2.84  28 2.84
  32  0.002  0.000  0.668-  73 1.88  76 1.88  94 1.88  61 1.88  79 1.90  82 1.90  17 2.78  14 2.80
                            35 2.80   8 2.81   9 2.81  38 2.83  23 2.83  29 2.84
  33  0.111  0.334  0.886-  45 1.87  42 1.88  78 1.88  81 1.91  48 1.95  93 1.95  24 2.78  30 2.79
                            36 2.81  18 2.84  15 2.85  39 2.86
  34  0.219  0.666  0.778-  86 1.87  83 1.88  77 1.88  80 1.91  47 1.95  62 1.95  40 2.78  31 2.79
                            16 2.81  19 2.84  37 2.85  25 2.86
  35  0.332  0.001  0.667-  67 1.87  82 1.87  88 1.88  61 1.90  64 1.91  85 1.93  32 2.80  17 2.81
                            23 2.81  11 2.81  26 2.82  38 2.83  20 2.83
  36  0.444  0.333  0.888-  81 1.87  54 1.87  84 1.88  51 1.88  48 1.90  87 1.91  39 2.79  24 2.80
                            21 2.81  33 2.81  27 2.82  18 2.83
  37  0.558  0.666  0.780-  53 1.86  83 1.87  68 1.87  92 1.91  89 1.96  86 1.99  22 2.77  11 2.79
                            40 2.82  25 2.82  19 2.82  28 2.82  34 2.85
  38  0.666  0.999  0.666-  94 1.87  67 1.87  91 1.87  70 1.91  88 1.93  73 1.93  26 2.78  12 2.79
                            14 2.81  29 2.82  32 2.83  35 2.83  20 2.84
  39  0.776  0.333  0.892-  93 1.87  90 1.87  54 1.90  57 1.92  42 1.92  87 1.95  21 2.78  36 2.79
                            15 2.82  27 2.84  30 2.84  33 2.86
  40  0.890  0.667  0.778-  89 1.86  74 1.87  77 1.87  92 1.88  80 1.90  41 1.90  34 2.78   8 2.79
                            16 2.80  22 2.81  28 2.82  37 2.82  31 2.82
  41  0.001  0.735  0.002-  16 1.88  22 1.88  40 1.90   2 2.16
  42  0.008  0.268  0.003-  15 1.87  33 1.88  39 1.92   3 2.01
  43  0.115  0.067  0.219-  26 1.87  14 1.88  23 1.93   3 2.02
  44  0.104  0.597  0.214-  22 1.88  16 1.91  25 1.95   1 2.12
  45  0.223  0.405  0.101-  33 1.87  18 1.92  15 1.99   4 2.08   1 2.11
  46  0.227  0.930  0.118-  26 1.88  17 1.93  14 1.93   5 2.11   2 2.25
  47  0.340  0.736  0.007-  19 1.88  16 1.90  34 1.95   5 2.10  11 2.28
  48  0.341  0.264  0.006-  18 1.88  36 1.90  33 1.95   6 2.10   3 2.28
  49  0.441  0.070  0.215-  17 1.87  29 1.91  26 1.93   6 2.13   3 2.24
  50  0.443  0.599  0.220-  19 1.88  16 1.88  28 1.90   4 2.01
  51  0.553  0.401  0.110-  18 1.88  36 1.88  21 1.90   4 2.01
  52  0.549  0.930  0.108-  17 1.87  29 1.91  20 1.93   5 2.13  11 2.24
  53  0.661  0.733  0.999-  37 1.86  19 1.87  22 1.89  11 2.14
  54  0.662  0.264  0.998-  36 1.87  39 1.90  21 1.91   6 2.12  12 2.25
  55  0.773  0.069  0.224-  29 1.87  20 1.90  23 1.91   6 2.10   9 2.26
  56  0.783  0.601  0.225-  31 1.86  22 1.88  19 1.89   7 2.00
  57  0.895  0.403  0.116-  15 1.87  21 1.91  39 1.92   1 2.13   7 2.13
  58  0.895  0.934  0.114-  23 1.87  14 1.87  20 1.89   2 2.01
  59  0.006  0.735  0.328-  25 1.87  22 1.87  31 1.96   2 1.99
  60  0.996  0.265  0.338-  24 1.86  21 1.87  15 1.96   9 2.12
  61  0.106  0.067  0.553-  23 1.87  32 1.88  35 1.90   9 2.02
  62  0.117  0.597  0.548-  25 1.87  31 1.94  34 1.95  10 2.07   7 2.09
  63  0.219  0.403  0.448-  24 1.88  15 1.91  27 1.91  10 2.11   7 2.27
  64  0.220  0.934  0.439-  23 1.87  26 1.88  35 1.91   2 2.13
  65  0.332  0.736  0.329-  16 1.87  25 1.90  28 1.91   5 2.12   2 2.25
  66  0.332  0.267  0.328-  15 1.86  18 1.87  27 1.89   3 2.14
  67  0.447  0.066  0.561-  38 1.87  35 1.87  26 1.89  12 2.01
  68  0.449  0.597  0.561-  37 1.87  28 1.91  25 1.92  10 2.13  13 2.13
  69  0.559  0.399  0.450-  30 1.86  27 1.88  18 1.89  13 2.00
  70  0.557  0.931  0.440-  29 1.87  26 1.90  38 1.91   5 2.10   8 2.26
  71  0.661  0.736  0.337-  28 1.87  19 1.91  31 1.93   5 2.09   8 2.23
  72  0.670  0.264  0.328-  21 1.87  18 1.91  30 1.93   6 2.09   9 2.23
  73  0.780  0.067  0.553-  29 1.88  32 1.88  38 1.93   9 2.15
  74  0.774  0.599  0.559-  28 1.87  40 1.87  31 1.96  13 1.99
  75  0.892  0.401  0.441-  21 1.87  24 1.87  30 1.96   7 1.99
  76  0.886  0.933  0.447-  29 1.88  32 1.88  23 1.93   8 2.15
  77  0.996  0.733  0.663-  31 1.85  40 1.87  34 1.88   8 2.02
  78  0.997  0.267  0.663-  30 1.85  24 1.87  33 1.88   9 2.02
  79  0.113  0.067  0.893-  17 1.86  14 1.87  32 1.90   3 2.14
  80  0.112  0.597  0.893-  16 1.87  40 1.90  34 1.91   1 2.13   4 2.26
  81  0.227  0.403  0.778-  36 1.87  24 1.90  33 1.91  10 2.13   4 2.26
  82  0.227  0.933  0.779-  17 1.86  35 1.87  32 1.90  11 2.14
  83  0.336  0.732  0.674-  37 1.87  34 1.88  25 1.92  11 2.01
  84  0.336  0.265  0.668-  36 1.88  27 1.88  24 1.90  12 2.16
  85  0.451  0.070  0.894-  20 1.88  17 1.93  35 1.93   6 2.11  12 2.25
  86  0.434  0.595  0.889-  34 1.87  19 1.92  37 1.99   4 2.08  10 2.11
  87  0.548  0.403  0.771-  27 1.88  36 1.91  39 1.95  10 2.12
  88  0.553  0.933  0.781-  20 1.87  35 1.88  38 1.93  11 2.02
  89  0.671  0.735  0.663-  40 1.86  28 1.87  37 1.96   8 2.12
  90  0.662  0.265  0.673-  39 1.87  27 1.87  30 1.96  12 1.99
  91  0.773  0.066  0.886-  38 1.87  20 1.88  14 1.91  12 2.13
  92  0.782  0.597  0.886-  40 1.88  37 1.91  22 1.91   1 2.11  13 2.27
  93  0.881  0.403  0.783-  39 1.87  30 1.94  33 1.95   1 2.07  13 2.09
  94  0.887  0.933  0.773-  38 1.87  32 1.88  14 1.90   8 2.02

  LATTYP: Found a base centered monoclinic cell.
[...]
   0.144E+02 -.442E+02 0.347E+03   -.150E+02 0.468E+02 -.366E+03   0.586E+00 -.256E+01 0.192E+02   -.189E-02 -.126E-01 0.559E-01
   0.309E+02 -.336E+02 -.320E+03   -.328E+02 0.354E+02 0.339E+03   0.187E+01 -.181E+01 -.189E+02   0.156E-01 0.112E-01 0.133E-01
   -.540E+01 0.312E+02 0.321E+03   0.494E+01 -.340E+02 -.341E+03   0.470E+00 0.280E+01 0.201E+02   -.935E-02 -.142E-01 0.283E-02
   0.402E-01 0.265E+02 -.305E+03   -.763E-01 -.286E+02 0.323E+03   0.386E-01 0.210E+01 -.182E+02   -.271E-02 -.203E-01 0.661E-02
   0.809E+00 0.274E+02 0.339E+03   -.122E+01 -.297E+02 -.360E+03   0.397E+00 0.223E+01 0.208E+02   0.179E-01 -.267E-02 -.256E-01
   -.528E+02 0.238E+02 -.369E+03   0.581E+02 -.261E+02 0.387E+03   -.520E+01 0.231E+01 -.186E+02   -.143E-01 0.216E-02 -.414E-01
   0.512E+02 -.310E+02 0.374E+03   -.569E+02 0.336E+02 -.394E+03   0.571E+01 -.268E+01 0.198E+02   -.348E-02 -.131E-01 0.282E-01
[...]
   -.719E+01 0.410E+02 -.312E+03   0.851E+01 -.437E+02 0.331E+03   -.132E+01 0.266E+01 -.194E+02   0.306E-02 0.313E-01 0.282E-02
   0.153E+02 0.342E+02 0.347E+03   -.159E+02 -.363E+02 -.369E+03   0.581E+00 0.211E+01 0.222E+02   -.127E-01 -.333E-01 -.386E-01
   0.329E+02 0.246E+02 -.365E+03   -.357E+02 -.277E+02 0.383E+03   0.279E+01 0.311E+01 -.183E+02   -.145E-01 -.277E-02 -.310E-01
   0.120E+02 0.325E+02 0.380E+03   -.120E+02 -.347E+02 -.402E+03   -.324E-01 0.218E+01 0.221E+02   0.532E-02 0.243E-01 0.478E-01
   0.567E+01 0.379E+02 -.326E+03   -.442E+01 -.413E+02 0.342E+03   -.128E+01 0.339E+01 -.163E+02   0.418E-02 0.140E-01 0.438E-01
   0.205E+02 -.458E+02 0.304E+03   -.233E+02 0.497E+02 -.319E+03   0.272E+01 -.395E+01 0.151E+02   0.211E-01 0.146E-01 -.702E-02
   -.174E+02 -.315E+02 -.319E+03   0.194E+02 0.345E+02 0.335E+03   -.204E+01 -.304E+01 -.163E+02   0.832E-02 -.984E-03 -.151E-01
   0.484E+02 -.234E+02 0.350E+03   -.535E+02 0.264E+02 -.368E+03   0.515E+01 -.304E+01 0.183E+02   -.815E-02 0.174E-01 -.307E-01
   -.524E+02 0.289E+02 -.374E+03   0.576E+02 -.324E+02 0.394E+03   -.518E+01 0.360E+01 -.198E+02   -.962E-02 -.957E-02 -.282E-01
   0.470E+02 -.339E+02 0.369E+03   -.516E+02 0.372E+02 -.387E+03   0.460E+01 -.335E+01 0.186E+02   0.900E-02 -.113E-01 0.414E-01
   0.839E+01 -.347E+02 -.341E+03   -.795E+01 0.367E+02 0.361E+03   -.437E+00 -.197E+01 -.207E+02   -.829E-02 -.180E-01 0.281E-01
   -.242E+02 0.255E+02 0.308E+03   0.253E+02 -.273E+02 -.327E+03   -.118E+01 0.179E+01 0.187E+02   0.173E-01 0.924E-02 -.119E-01
   0.349E+02 -.113E+02 -.293E+03   -.369E+02 0.128E+02 0.308E+03   0.196E+01 -.151E+01 -.147E+02   0.139E-01 -.134E-01 0.622E-02
   -.315E+02 -.147E+02 0.336E+03   0.338E+02 0.163E+02 -.357E+03   -.231E+01 -.162E+01 0.209E+02   -.256E-01 -.189E-01 -.147E-01
   0.181E-01 0.331E-01 0.291E-03   -.426E-13 0.274E-12 -.512E-12   -.306E-01 -.530E-01 0.126E-11   0.115E-01 0.199E-01 0.706E-07

 POSITION                                       TOTAL-FORCE (eV/Angst)
      4.16106      7.28051      7.16377        -0.002535      0.005306     -0.000062
      1.47136      0.67104     11.97995        -0.008406      0.001056      0.001484
      0.06310      1.44732      2.40877        -0.009771     -0.007648     -0.001848
     -1.33927      2.63602      7.18703         0.004882      0.008456     -0.000000
     -0.04797      3.26367     11.96792         0.002959     -0.000391      0.003641
     -1.44136      4.06814      2.40614        -0.001818      0.002367     -0.003641
     -1.35736      7.12649      7.20379        -0.002281      0.002347     -0.002241
      1.43527      5.86315     11.96154         0.001696      0.011289     -0.002191
      0.06824      6.65241      2.41253         0.008929      0.007113      0.002191
      4.20483      2.40954      7.18325         0.005863      0.000458      0.000062
      5.39862      3.21256     11.93824        -0.001738     -0.012286      0.001848
      4.02221      4.04400      2.36706         0.005117     -0.006752     -0.001484
      2.55863      4.86559      7.17028         0.003173     -0.000801      0.002241
      8.41443     -0.02426     14.31102         0.004728     -0.000441     -0.003927
      1.39649      0.82632      4.79290        -0.000457     -0.000316      0.000965
     -0.03879      1.63234      9.57385        -0.001611      0.000588     -0.000744
      7.03783      2.38222     -0.01803        -0.001473     -0.002551      0.000000
     -0.03202      3.26554      4.81617        -0.000140     -0.000773      0.001041
     -1.44771      4.08289      9.55789        -0.000600     -0.000508     -0.001041
     -2.87783      4.91199     14.34638        -0.003979      0.001163      0.000873
     -1.46210      5.68415      4.81473         0.002107     -0.000519      0.000278
     -2.90737      6.49598      9.60009        -0.001055      0.001375     -0.001216
     -1.44689      7.28967      0.04112         0.004998     -0.001783      0.000981
      4.22594      0.79709      4.76819         0.000605     -0.000697      0.001422
      2.75980      1.65106      9.56835        -0.001294     -0.000461     -0.002110
      1.40106      2.44157      0.02768         0.002996     -0.002865     -0.000873
      2.78761      3.20798      4.77397         0.001719     -0.000226      0.001216
      1.36190      4.05371      9.55934        -0.001503      0.001566     -0.000278
     -0.03011      4.85168      0.00902        -0.000904     -0.001566      0.000000
      1.38684      5.66490      4.78607         0.002628     -0.001719      0.002871
     -0.07924      6.51134      9.58799        -0.002803      0.001416     -0.002871
      5.65107     -0.01972     -0.01803         0.000039      0.000067     -0.000000
      7.00696      0.78691      4.77777        -0.000920      0.000290      0.003868
      5.62677      1.58376      9.54219         0.000711     -0.000652     -0.003868
      4.22054      2.39708      0.00894        -0.002746      0.003874      0.003927
      5.60979      3.21683      4.77316         0.001315     -0.001101      0.000744
      4.19412      4.05680      9.55411        -0.000045     -0.000554     -0.000965
      2.74472      4.86964     14.33295        -0.004043      0.003437     -0.000981
      4.22671      5.64984      4.77867         0.000248     -0.001352      0.002110
      2.75408      6.49257      9.57882        -0.000906      0.000176     -0.001422
     -0.01176      0.02146     10.53944        -0.001990      0.001326     -0.001540
     -0.03109      0.08348      3.85473        -0.001653     -0.000899      0.003035
      1.32236      0.84187      0.97943         0.006233     -0.005160     -0.000553
      1.33745      0.76733      8.56012        -0.002545      0.002798      0.000256
     -0.14614      1.65519      5.82744        -0.002794      0.002252      0.002671
      0.02423      1.65314     13.35092         0.021382     -0.012243     -0.007426
     -1.42555      2.49727     10.57389         0.001379     -0.000436     -0.001101
     -1.41629      2.49193      3.80018        -0.001067      0.000976      0.001101
     -0.05106      3.22401      0.99976         0.000316     -0.004695     -0.002772
     -0.05991      3.24773      8.60636         0.001275      0.000635     -0.000315
     -1.44920      4.04983      5.76771        -0.000087      0.001422      0.000315
     -1.47416      4.04564     13.37430        -0.004224     -0.002073      0.002772
      5.60782      4.79227     10.49954        -0.000855     -0.001137     -0.001984
      5.61227      4.80468      3.79201         0.003894     -0.000745      0.001015
     -1.39778      5.64276      1.00165        -0.000278     -0.001728      0.001103
     -1.47960      5.74393      8.63912        -0.001847     -0.000566     -0.001342
     -2.85216      6.54293      5.79309        -0.000186     -0.000718      0.000028
     -2.89526      6.56006     13.42694         0.008165     -0.004556     -0.001494
      2.70329      0.06316     10.53061        -0.004320      0.003292     -0.003003
     -1.37669      7.25687      3.82402         0.003552     -0.003021     -0.000206
[...]
      7.06382      0.79202      8.55665         0.001290     -0.000990     -0.001299
      5.60277      1.63556      5.76331        -0.001502      0.000622      0.001299
      5.58229      1.64753     13.39295        -0.002181      0.001816      0.002689
      4.26459      2.44907     10.49228         0.000048     -0.001881     -0.003035
      4.20122      2.43479      3.80757         0.002144     -0.001061      0.001540
      5.59630      3.28180      0.99609        -0.021294      0.012396      0.007426
      5.68326      3.13528      8.51957         0.003347     -0.001294     -0.002671
      4.17255      3.97618      5.78689         0.003695     -0.000805     -0.000256
      4.24466      4.00038     13.36758        -0.007585      0.002818      0.000553
      2.68122      4.91404     10.55004        -0.004392      0.001565      0.000206
      2.87980      4.80695      3.81640         0.005011     -0.002095      0.003003
      4.21558      5.60900      0.91999        -0.003402      0.007574     -0.002509
      4.12803      5.68797      8.58120         0.000720     -0.001454      0.000026
      2.85365      6.41789      5.79034         0.000009     -0.001551      0.002955
      2.70796      6.47846     13.39729        -0.000159      0.001789     -0.002488
    total drift:                               -0.000963      0.000050      0.000291

  FREE ENERGIE OF THE ION-ELECTRON SYSTEM (eV)
  free  energy   TOTEN  =      -576.7451331913 eV

  energy  without entropy=     -576.7157759751  energy(sigma->0) =     -576.73045458

 d Force = 0.9128669E-04[ 0.867E-04, 0.959E-04]  d Energy = 0.8429163E-04 0.700E-05
 d Force =-0.7288374E-01[-0.731E-01,-0.727E-01]  d Ewald  = 0.5967394E+00-0.670E+00

 Quasi-Newton relaxation of ions (Broydens 2nd method)
  g(Force)  = 0.174E-03   g(Stress)= 0.228E-03

 retain information from N=  1 steps
 eigenvalues of (default step * inverse Hessian matrix)
  average eigenvalue of G=   0.2261
 eigenvalue spectrum of G is  0.2261

volume of typ            1:    11.4 %

[...]

volume of typ            3:     9.9 %

total charge

# of ion       s       p       d       tot
    1        2.072   0.235   0.089   2.396
    2        2.071   0.234   0.089   2.394
    3        2.072   0.236   0.089   2.397
    4        2.081   0.259   0.100   2.441
    5        2.070   0.231   0.087   2.388
    6        2.070   0.231   0.087   2.388
    7        2.076   0.247   0.094   2.418
    8        2.072   0.236   0.090   2.398
    9        2.072   0.236   0.090   2.398
   10        2.072   0.235   0.089   2.396
   11        2.072   0.236   0.089   2.397
   12        2.071   0.234   0.089   2.394
   13        2.076   0.247   0.094   2.418
   14        0.286   0.392   7.830   8.508
   15        0.275   0.364   7.852   8.491
   16        0.289   0.398   7.841   8.528
   17        0.282   0.380   7.852   8.514
   18        0.285   0.390   7.835   8.511
   19        0.285   0.390   7.835   8.511
   20        0.287   0.393   7.834   8.515
   21        0.290   0.400   7.834   8.524
   22        0.290   0.399   7.835   8.524
   23        0.275   0.366   7.845   8.486
   24        0.294   0.407   7.834   8.535
   25        0.277   0.373   7.841   8.491
   26        0.287   0.393   7.834   8.515
   27        0.290   0.399   7.835   8.524
   28        0.290   0.400   7.834   8.524
   29        0.295   0.410   7.834   8.539
   30        0.269   0.354   7.847   8.470
   31        0.269   0.354   7.847   8.470
   32        0.293   0.405   7.829   8.527
   33        0.278   0.375   7.841   8.494
   34        0.278   0.375   7.841   8.494
   35        0.286   0.392   7.830   8.508
   36        0.289   0.398   7.841   8.528
   37        0.275   0.364   7.852   8.491
   38        0.275   0.366   7.845   8.486
   39        0.277   0.373   7.841   8.491
   40        0.294   0.407   7.834   8.535
   41        1.274   2.750   0.007   4.031
   42        1.272   2.762   0.007   4.040
   43        1.276   2.752   0.007   4.034
   44        1.272   2.758   0.006   4.036
   45        1.268   2.769   0.006   4.043
   46        1.272   2.759   0.006   4.036
   47        1.272   2.758   0.006   4.036
   48        1.272   2.758   0.006   4.036
   49        1.267   2.769   0.007   4.042
   50        1.271   2.763   0.007   4.041
   51        1.271   2.763   0.007   4.041
   52        1.267   2.769   0.007   4.042
   53        1.272   2.758   0.007   4.037
   54        1.266   2.772   0.007   4.045
   55        1.266   2.773   0.007   4.046
   56        1.269   2.769   0.007   4.046
   57        1.263   2.780   0.007   4.050
   58        1.270   2.767   0.007   4.044
   59        1.274   2.756   0.007   4.036
   60        1.277   2.743   0.007   4.028
[...]
   80        1.267   2.772   0.007   4.046
   81        1.267   2.772   0.007   4.046
   82        1.272   2.757   0.007   4.037
   83        1.272   2.762   0.007   4.040
   84        1.274   2.750   0.007   4.031
   85        1.272   2.759   0.006   4.036
   86        1.268   2.769   0.006   4.043
   87        1.272   2.758   0.006   4.036
   88        1.276   2.752   0.007   4.034
   89        1.277   2.743   0.007   4.028
   90        1.274   2.756   0.007   4.036
   91        1.275   2.750   0.007   4.032
   92        1.266   2.773   0.007   4.046
   93        1.266   2.773   0.006   4.046
   94        1.270   2.765   0.007   4.043
tot         103.23  162.67  213.20  479.09

magnetization (x)

# of ion       s       p       d       tot
    1        0.006   0.010   0.001   0.016
    2        0.006   0.011   0.001   0.018
    3        0.006   0.012   0.001   0.020
    4        0.006   0.011   0.001   0.018
    5        0.006   0.010   0.001   0.016
    6        0.006   0.010   0.001   0.016
    7        0.006   0.012   0.001   0.019
    8        0.006   0.011   0.001   0.017
    9        0.006   0.011   0.001   0.017
   10        0.006   0.010   0.001   0.016
   11        0.006   0.012   0.001   0.020
   12        0.006   0.011   0.001   0.018
   13        0.006   0.012   0.001   0.019
   14       -0.001  -0.001   0.219   0.217
   15        0.002  -0.000   0.616   0.617
   16       -0.000  -0.001   0.298   0.297
   17        0.001  -0.000   0.505   0.506
   18       -0.001  -0.001   0.269   0.268
   19       -0.001  -0.001   0.269   0.268
   20       -0.001  -0.001   0.231   0.230
   21       -0.001  -0.001   0.194   0.192
   22       -0.001  -0.000   0.195   0.194
   23        0.001  -0.000   0.587   0.587
   24       -0.001  -0.000   0.133   0.132
   25       -0.000  -0.001   0.436   0.435
   26       -0.001  -0.001   0.231   0.230
   27       -0.001  -0.000   0.195   0.194
   28       -0.001  -0.001   0.194   0.192
   29       -0.001  -0.000   0.134   0.133
   30        0.000  -0.001   0.667   0.667
   31        0.000  -0.001   0.667   0.667
   32       -0.001  -0.001   0.128   0.127
   33       -0.000  -0.001   0.420   0.419
   34       -0.000  -0.001   0.420   0.419
   35       -0.001  -0.001   0.219   0.217
   36       -0.000  -0.001   0.298   0.297
   37        0.002  -0.000   0.616   0.617
   38        0.001  -0.000   0.587   0.587
   39       -0.000  -0.001   0.436   0.435
   40       -0.001  -0.000   0.133   0.132
   41        0.003   0.010   0.000   0.013
   42        0.010   0.082   0.000   0.092
   43        0.011   0.092   0.000   0.103
   44        0.011   0.065   0.000   0.076
   45        0.011   0.089   0.000   0.100
   46        0.011   0.075   0.000   0.086
   47        0.011   0.063   0.000   0.074
   48        0.011   0.063   0.000   0.074
   49        0.004   0.008   0.000   0.012
   50        0.004   0.006   0.000   0.009
   51        0.004   0.006   0.000   0.009
   52        0.004   0.008   0.000   0.012
   53        0.004   0.010   0.000   0.014
   54        0.004   0.006   0.000   0.010
   55        0.004   0.012   0.000   0.017
   56        0.005   0.014   0.000   0.019
   57        0.004   0.007   0.000   0.012
   58        0.004   0.014   0.000   0.018
   59        0.010   0.080   0.000   0.090
   60        0.009   0.082   0.000   0.091
[...]
   80        0.003   0.001   0.000   0.005
   81        0.003   0.001   0.000   0.005
   82        0.003   0.007   0.000   0.010
   83        0.010   0.082   0.000   0.092
   84        0.003   0.010   0.000   0.013
   85        0.011   0.075   0.000   0.086
   86        0.011   0.089   0.000   0.100
   87        0.011   0.065   0.000   0.076
   88        0.011   0.092   0.000   0.103
   89        0.009   0.082   0.000   0.091
   90        0.010   0.080   0.000   0.090
   91        0.007   0.051   0.000   0.059
   92        0.004   0.011   0.000   0.015
   93        0.011   0.083   0.000   0.095
   94        0.004   0.009   0.000   0.013
tot           0.44    2.28    9.31   12.03