 vasp.5.4.4.18Apr17-6-g9f103f2a35 (build May 12 2020 05:39:39) gamma-only

 MD_VERSION_INFO: Compiled 2020-05-12T12:39:39-UTC in devlin.sd.materialsdesign.
 com:/home/medea2/data/build/wwolf/vasp-gpu5.4.4/13047/x86_64/src/src/build/gam
 from svn 13047

 executed on                        Lin64 date 2023.03.14  17:54:25

 INCAR:
 POTCAR:    PAW_PBE Li_sv 10Sep2004
 POTCAR:    PAW_PBE Ni 02Aug2007
 POTCAR:    PAW_PBE O 08Apr2002

 POTCAR:    PAW_PBE Li_sv 10Sep2004

 POTCAR:    PAW_PBE Ni 02Aug2007

 POTCAR:    PAW_PBE O 08Apr2002

 Optimization of the real space projectors (new method)

 maximal supplied QI-value         = 22.11
 optimisation between [QCUT,QGAM] = [ 11.28, 22.77] = [ 35.61,145.23] Ry
 Optimized for a Real-space Cutoff    1.10 Angstroem

   l    n(q)    QCUT    max X(q) W(low)/X(q) W(high)/X(q)  e(spline)
   0      7    11.276    10.506    0.54E-04    0.58E-04    0.16E-07
   0      7    11.276     8.367    0.11E-03    0.14E-03    0.35E-07
   1      7    11.276     8.983    0.23E-03    0.43E-03    0.86E-07
 Optimization of the real space projectors (new method)

[...]

   l    n(q)    QCUT    max X(q) W(low)/X(q) W(high)/X(q)  e(spline)
   2      9    11.376    60.317    0.17E-03    0.16E-04    0.16E-06
   2      9    11.376    55.921    0.17E-03    0.16E-04    0.17E-06
   0     10    11.376    51.690    0.45E-04    0.60E-04    0.21E-06
   0     10    11.376    30.015    0.37E-04    0.55E-04    0.19E-06
   1     10    11.376    18.849    0.83E-04    0.11E-03    0.92E-07
   1     10    11.376    14.624    0.69E-04    0.92E-04    0.82E-07
 Optimization of the real space projectors (new method)

 maximal supplied QI-value         = 24.76
 optimisation between [QCUT,QGAM] = [ 11.39, 22.77] = [ 36.31,145.25] Ry
 Optimized for a Real-space Cutoff    1.10 Angstroem

   l    n(q)    QCUT    max X(q) W(low)/X(q) W(high)/X(q)  e(spline)
   0      7    11.387    20.381    0.22E-03    0.48E-03    0.18E-06
   0      7    11.387    15.268    0.22E-03    0.52E-03    0.19E-06
   1      7    11.387     5.964    0.22E-03    0.73E-03    0.24E-06
   1      7    11.387     5.382    0.19E-03    0.60E-03    0.21E-06

  PAW_PBE Li_sv 10Sep2004               :
  PAW_PBE Ni 02Aug2007                  :
  PAW_PBE O 08Apr2002                   :

 POSCAR: 2
  positions in direct lattice
 exchange correlation table for  LEXCH =       14
   RHO(1)=    0.500       N(1)  =     2000
   RHO(2)=  100.500       N(2)  =     4000

 ion  position               nearest neighbor table
   1  0.997  0.500  0.997-  42 2.11  41 2.11  89 2.11  90 2.12  54 2.14  77 2.15  36 2.83  37 2.84
                            30 2.85
   2  0.107  0.832  0.219-  62 2.04  43 2.06  56 2.09  55 2.11  61 2.12  38 2.19
   3  0.221  0.167  0.109-  40 2.08  45 2.10  63 2.10  76 2.14  46 2.16  39 2.23
   4  0.380  0.500  0.998-  83 2.00  48 2.01  47 2.14  42 2.14  78 2.15  77 2.16  33 2.80  16 2.83

   5  1.000  0.501  0.381-  72 2.00  59 2.01  41 2.13  54 2.15  53 2.16  60 2.16  28 2.81  21 2.82

   6  0.786  0.835  0.568-  91 2.04  73 2.04  86 2.12  74 2.13  67 2.13  68 2.14  25 2.59  28 2.81
                            29 2.82  35 2.82
   7  0.892  0.165  0.446-  69 2.08  70 2.10  58 2.12  57 2.13  52 2.15  75 2.18
   8  0.446  0.834  0.891-  80 2.04  85 2.04  49 2.09  44 2.10  79 2.11  50 2.16  16 2.83
   9  0.561  0.165  0.779-  88 2.10  81 2.11  87 2.12  82 2.14  64 2.14  51 2.16  33 2.82
  10  0.616  0.502  0.614-  65 2.01  66 2.02  84 2.12  71 2.14  90 2.18  89 2.18  24 2.83
  11  0.999  0.999  0.997-  76 1.86  55 1.86  40 1.86  91 1.88  88 1.89  43 2.00  29 2.78  35 2.78
                            17 2.79  23 2.83  20 2.83  14 2.84
  12  0.104  0.337  0.226-  63 1.84  54 1.84  39 1.85  60 1.87  57 1.90  42 2.25  18 2.70  24 2.75
                            21 2.81  36 2.85  15 2.87  30 2.90
  13  0.225  0.663  0.103-  77 1.83  38 1.84  62 1.85  47 1.85  44 1.92  41 2.25  25 2.43  31 2.69
                            37 2.81  16 2.82  22 2.87  19 2.90
  14  0.337  0.000  0.000-  76 1.85  46 1.85  79 1.85  49 1.86  82 1.92  43 2.04  26 2.76  29 2.79
                            32 2.79  17 2.80  23 2.82  11 2.84
  15  0.439  0.335  0.216-  66 1.82  48 1.86  63 1.86  45 1.87  42 1.90  69 2.04  30 2.74  33 2.77
                            24 2.81  27 2.82  18 2.86  12 2.87
  16  0.565  0.673  0.114-  50 1.84  47 1.84  83 1.87  53 1.88  44 1.89  68 1.90  25 2.45  19 2.71
                            28 2.77  34 2.80  31 2.81  13 2.82   4 2.83   8 2.83
  17  0.671  0.999  0.002-  85 1.86  88 1.86  82 1.87  52 1.88  55 1.89  49 2.01  20 2.77  11 2.79
                            14 2.80  26 2.80  32 2.83  35 2.83
  18  0.782  0.334  0.224-  48 1.83  57 1.86  69 1.88  72 1.89  54 1.90  51 1.91  12 2.70  33 2.79
                            27 2.81  21 2.82  15 2.86  36 2.87
  19  0.887  0.662  0.115-  38 1.85  41 1.85  53 1.86  56 1.86  50 1.90  89 2.13  16 2.71  22 2.74
                            28 2.79  34 2.81  37 2.84  13 2.90
  20  0.000  0.998  0.333-  58 1.86  55 1.86  61 1.87  52 1.87  73 2.02  40 2.02  17 2.77  32 2.79
                            29 2.82  23 2.82  26 2.82  11 2.83
  21  0.115  0.329  0.564-  60 1.86  75 1.86  57 1.87  78 1.88  72 1.90  81 1.90  30 2.73  33 2.77
                            24 2.78  12 2.81  18 2.82   5 2.82  27 2.83
  22  0.216  0.667  0.439-  65 1.81  56 1.86  62 1.87  59 1.87  41 1.90  80 2.05  19 2.74  28 2.77
                            34 2.83  13 2.87  31 2.87
  23  0.336  0.998  0.334-  40 1.85  61 1.86  46 1.86  43 1.87  67 1.89  64 1.90  35 2.77  26 2.78
                            32 2.82  14 2.82  20 2.82  11 2.83
  24  0.437  0.328  0.548-  84 1.86  81 1.87  66 1.88  63 1.89  87 1.89  60 1.91  12 2.75  21 2.78
                            36 2.79  15 2.81  27 2.83  10 2.83  33 2.86
  25  0.488  0.754  0.324-  62 1.50  68 1.55  47 2.33  44 2.34  13 2.43  16 2.45   6 2.59
  26  0.665  0.998  0.332-  52 1.85  73 1.86  70 1.87  67 1.87  49 1.88  46 1.89  14 2.76  23 2.78
                            35 2.80  17 2.80  20 2.82  29 2.83
  27  0.775  0.334  0.554-  72 1.85  66 1.85  75 1.86  69 1.87  90 1.90  87 1.94  36 2.75  18 2.81
                            15 2.82  30 2.83  24 2.83  21 2.83
  28  0.892  0.677  0.448-  68 1.86  59 1.86  53 1.87  74 1.88  56 1.89  71 2.01  22 2.77  16 2.77
                            19 2.79  31 2.80   6 2.81  37 2.81   5 2.81
  29  0.002  0.998  0.668-  58 1.85  91 1.86  70 1.88  73 1.89  79 1.89  76 1.90  11 2.78  32 2.79
                            14 2.79  35 2.81  20 2.82   6 2.82  26 2.83
  30  0.115  0.339  0.887-  39 1.84  42 1.86  45 1.86  78 1.87  75 1.89  90 2.15  21 2.73  15 2.74
                            33 2.79  27 2.83   1 2.85  36 2.85  12 2.90
  31  0.224  0.668  0.784-  59 1.84  80 1.86  83 1.88  74 1.89  44 1.90  77 1.90  13 2.69  28 2.80
                            16 2.81  34 2.81  37 2.85  22 2.87
  32  0.332  0.999  0.666-  64 1.86  85 1.87  82 1.88  58 1.89  79 1.89  61 1.93  20 2.79  29 2.79
                            14 2.79  23 2.82  35 2.82  17 2.83
  33  0.448  0.325  0.893-  81 1.85  51 1.85  78 1.86  48 1.87  45 1.89  84 2.08  15 2.77  21 2.77
                            30 2.79  18 2.79   4 2.80  36 2.81   9 2.82  24 2.86
  34  0.554  0.668  0.776-  65 1.84  83 1.85  50 1.86  80 1.90  89 1.92  86 1.92  37 2.77  16 2.80
                            19 2.81  31 2.81  22 2.83
  35  0.666  0.999  0.665-  64 1.86  88 1.86  91 1.86  67 1.87  70 1.97  85 2.03  23 2.77  11 2.78
                            26 2.80  29 2.81  32 2.82   6 2.82  17 2.83
  36  0.772  0.339  0.878-  51 1.84  90 1.85  87 1.85  84 1.87  39 1.90  54 2.18  27 2.75  24 2.79
                            33 2.81   1 2.83  12 2.85  30 2.85  18 2.87
  37  0.882  0.662  0.775-  86 1.85  74 1.86  71 1.86  89 1.87  38 1.90  77 2.16  34 2.77  28 2.81
                            13 2.81   1 2.84  19 2.84  31 2.85
  38  0.001  0.723  0.007-  13 1.84  19 1.85  37 1.90   2 2.19
  39  0.005  0.278  0.999-  30 1.84  12 1.85  36 1.90   3 2.23
  40  0.121  0.068  0.214-  23 1.85  11 1.86  20 2.02   3 2.08
  41  0.090  0.585  0.234-  19 1.85  22 1.90   1 2.11   5 2.13  13 2.25
  42  0.234  0.416  0.091-  30 1.86  15 1.90   1 2.11   4 2.14  12 2.25
  43  0.229  0.923  0.124-  23 1.87  11 2.00  14 2.04   2 2.06
  44  0.340  0.740  0.004-  16 1.89  31 1.90  13 1.92   8 2.10  25 2.34
  45  0.326  0.265  0.000-  30 1.86  15 1.87  33 1.89   3 2.10
  46  0.440  0.065  0.220-  14 1.85  23 1.86  26 1.89   3 2.16
  47  0.450  0.602  0.208-  16 1.84  13 1.85   4 2.14  25 2.33
  48  0.560  0.394  0.112-  18 1.83  15 1.86  33 1.87   4 2.01
  49  0.548  0.926  0.114-  14 1.86  26 1.88  17 2.01   8 2.09
  50  0.668  0.734  0.997-  16 1.84  34 1.86  19 1.90   8 2.16
  51  0.678  0.270  0.994-  36 1.84  33 1.85  18 1.91   9 2.16
  52  0.778  0.063  0.228-  26 1.85  20 1.87  17 1.88   7 2.15
  53  0.784  0.603  0.235-  19 1.86  28 1.87  16 1.88   5 2.16
  54  0.902  0.415  0.140-  12 1.84  18 1.90   1 2.14   5 2.15  36 2.18
  55  0.896  0.933  0.112-  11 1.86  20 1.86  17 1.89   2 2.11
  56  0.999  0.736  0.326-  22 1.86  19 1.86  28 1.89   2 2.09
  57  0.001  0.265  0.340-  18 1.86  21 1.87  12 1.90   7 2.13
  58  0.106  0.064  0.554-  29 1.85  20 1.86  32 1.89   7 2.12
  59  0.110  0.607  0.560-  31 1.84  28 1.86  22 1.87   5 2.01
  60  0.214  0.399  0.451-  21 1.86  12 1.87  24 1.91   5 2.16
  61  0.221  0.931  0.436-  23 1.86  20 1.87  32 1.93   2 2.12
  62  0.310  0.733  0.315-  25 1.50  13 1.85  22 1.87   2 2.04
  63  0.319  0.270  0.316-  12 1.84  15 1.86  24 1.89   3 2.10
  64  0.446  0.064  0.561-  35 1.86  32 1.86  23 1.90   9 2.14
  65  0.433  0.605  0.556-  22 1.81  34 1.84  10 2.01
  66  0.549  0.394  0.438-  15 1.82  27 1.85  24 1.88  10 2.02
  67  0.560  0.931  0.445-  26 1.87  35 1.87  23 1.89   6 2.13
  68  0.676  0.746  0.333-  25 1.55  28 1.86  16 1.90   6 2.14
  69  0.681  0.263  0.338-  27 1.87  18 1.88  15 2.04   7 2.08
  70  0.783  0.068  0.548-  26 1.87  29 1.88  35 1.97   7 2.10
  71  0.771  0.598  0.553-  37 1.86  28 2.01  10 2.14
  72  0.892  0.397  0.452-  27 1.85  18 1.89  21 1.90   5 2.00
  73  0.879  0.927  0.450-  26 1.86  29 1.89  20 2.02   6 2.04
  74  0.998  0.733  0.680-  37 1.86  28 1.88  31 1.89   6 2.13
  75  0.995  0.268  0.667-  27 1.86  21 1.86  30 1.89   7 2.18
  76  0.116  0.064  0.895-  14 1.85  11 1.86  29 1.90   3 2.14
  77  0.139  0.587  0.902-  13 1.83  31 1.90   1 2.15  37 2.16   4 2.16
  78  0.237  0.398  0.784-  33 1.86  30 1.87  21 1.88   4 2.15
  79  0.228  0.932  0.783-  14 1.85  32 1.89  29 1.89   8 2.11
  80  0.334  0.739  0.682-  31 1.86  34 1.90   8 2.04  22 2.05
  81  0.342  0.262  0.671-  33 1.85  24 1.87  21 1.90   9 2.11
  82  0.451  0.067  0.888-  17 1.87  32 1.88  14 1.92   9 2.14
  83  0.452  0.605  0.893-  34 1.85  16 1.87  31 1.88   4 2.00
  84  0.549  0.404  0.757-  24 1.86  36 1.87  33 2.08  10 2.12
  85  0.550  0.929  0.787-  17 1.86  32 1.87  35 2.03   8 2.04
  86  0.676  0.739  0.676-  37 1.85  34 1.92   6 2.12
  87  0.665  0.265  0.670-  36 1.85  24 1.89  27 1.94   9 2.12
  88  0.772  0.065  0.886-  35 1.86  17 1.86  11 1.89   9 2.10
  89  0.763  0.587  0.862-  37 1.87  34 1.92   1 2.11  19 2.13  10 2.18
[...]
   -.251E+02 0.347E+03 -.388E+02   0.281E+02 -.369E+03 0.426E+02   -.319E+01 0.222E+02 -.348E+01   0.151E-01 -.237E-01 -.142E-01
   -.151E+02 -.379E+03 0.307E+02   0.150E+02 0.402E+03 -.324E+02   0.319E+00 -.230E+02 0.175E+01   0.360E-01 0.197E-01 0.588E-03
   0.602E+02 0.380E+03 -.160E+02   -.636E+02 -.404E+03 0.168E+02   0.338E+01 0.241E+02 -.127E+01   -.103E-01 -.387E-01 -.102E-01
   0.366E+02 -.298E+03 0.541E+02   -.398E+02 0.317E+03 -.577E+02   0.290E+01 -.201E+02 0.271E+01   0.952E-02 -.308E-01 -.224E-01
   0.223E+02 0.323E+03 0.208E+02   -.241E+02 -.345E+03 -.224E+02   0.176E+01 0.225E+02 0.167E+01   0.282E-01 0.532E-01 -.328E-02
   0.678E+01 -.347E+03 -.210E+02   -.851E+01 0.370E+03 0.212E+02   0.186E+01 -.230E+02 0.269E-01   0.344E-01 0.538E-01 0.141E-01
   -.338E+02 0.381E+03 0.333E+02   0.379E+02 -.402E+03 -.357E+02   -.481E+01 0.211E+02 0.261E+01   0.141E-01 -.558E-01 -.286E-01
   -.293E+02 -.370E+03 -.854E+01   0.313E+02 0.393E+03 0.965E+01   -.188E+01 -.224E+02 -.110E+01   0.219E-01 0.224E-01 -.420E-01
   0.272E+01 0.350E+03 -.269E+02   -.268E+01 -.371E+03 0.284E+02   -.164E+00 0.198E+02 -.196E+01   0.340E-01 -.162E-01 0.788E-02
   -.462E+02 -.347E+03 -.265E+02   0.486E+02 0.370E+03 0.286E+02   -.201E+01 -.236E+02 -.208E+01   0.467E-01 -.171E-01 -.970E-02
[...]
   -.164E+02 -.346E+03 0.385E+02   0.181E+02 0.369E+03 -.406E+02   -.224E+01 -.237E+02 0.197E+01   0.183E-01 -.306E-02 0.271E-01
   0.279E+02 0.322E+03 0.354E+02   -.297E+02 -.345E+03 -.368E+02   0.202E+01 0.231E+02 0.116E+01   0.501E-02 -.162E-01 -.229E-01
   -.271E+02 -.316E+03 0.785E+02   0.270E+02 0.336E+03 -.843E+02   0.560E+00 -.205E+02 0.522E+01   0.565E-02 0.224E-01 -.100E-01
   0.187E+02 0.360E+03 0.227E+02   -.209E+02 -.382E+03 -.249E+02   0.197E+01 0.219E+02 0.197E+01   0.456E-01 -.317E-01 -.199E-02
   0.241E+02 -.387E+03 -.162E+02   -.274E+02 0.407E+03 0.181E+02   0.331E+01 -.204E+02 -.191E+01   0.507E-01 0.480E-01 -.181E-01
   -.375E+02 0.378E+03 0.336E+02   0.394E+02 -.399E+03 -.340E+02   -.234E+01 0.205E+02 0.535E-01   -.105E-01 -.224E-01 -.585E-02
   0.592E+02 -.346E+03 -.254E+02   -.655E+02 0.367E+03 0.278E+02   0.606E+01 -.218E+02 -.190E+01   0.137E-01 -.415E-01 -.724E-02
   -.499E+02 0.332E+03 0.295E+02   0.549E+02 -.352E+03 -.325E+02   -.482E+01 0.206E+02 0.276E+01   0.388E-01 0.357E-01 -.176E-01
   0.340E+02 -.238E+03 0.687E+02   -.369E+02 0.254E+03 -.752E+02   0.239E+01 -.162E+02 0.680E+01   -.977E-02 0.359E-01 0.149E-02
   -.378E+02 0.372E+03 0.160E+02   0.414E+02 -.392E+03 -.170E+02   -.350E+01 0.204E+02 0.100E+00   -.324E-01 -.289E-01 0.974E-02
   -.303E+02 -.381E+03 -.208E+02   0.325E+02 0.402E+03 0.222E+02   -.218E+01 -.207E+02 -.152E+01   0.258E-01 -.135E-01 -.118E-01
   0.350E+02 0.309E+03 0.745E+01   -.384E+02 -.328E+03 -.546E+01   0.343E+01 0.202E+02 -.899E+00   0.187E-03 -.279E-01 -.841E-02
   -.520E+02 -.308E+03 0.118E+02   0.564E+02 0.327E+03 -.131E+02   -.354E+01 -.202E+02 0.174E+01   -.304E-01 -.222E-01 0.275E-01
   0.707E+01 0.329E+03 -.430E+02   -.743E+01 -.352E+03 0.458E+02   0.425E+00 0.223E+02 -.280E+01   -.521E-01 0.435E-01 0.225E-01
   -.847E-01 -.956E+01 -.987E+01   0.610E-12 0.512E-12 -.540E-12   0.672E-01 0.966E+01 0.982E+01   0.175E-01 -.111E+00 0.396E-01

 POSITION                                       TOTAL-FORCE (eV/Angst)
      4.20241      7.14814      7.25318         0.051718      0.039064      0.010122
      0.04800     11.93068      1.59577        -0.250642      0.030272     -0.222370
      1.41705      2.39859      0.78935        -0.067279      0.044673     -0.000541
     -1.00052      7.14296      7.25867        -0.242210      0.147952      0.094649
      6.85054      7.18387      2.76775         0.093011      0.073200     -0.129144
      4.27884     11.97083      4.13305         0.096915     -0.139303      0.447191
      5.63655      2.35566      3.24059        -0.008059     -0.011062     -0.001758
      0.03773     11.94680      6.48114         0.051625     -0.020644     -0.004372
      1.42244      2.34906      5.66265         0.045572     -0.010320      0.013341
      2.62699      7.19252      4.46261         0.059338      0.485713     -0.171143
      4.26495     14.31099      7.24673         0.782435     -0.640252      0.600071
     -0.05731      4.82936      1.64088         1.252482      0.586314     -0.306611
      1.51845      9.51511      0.74686        -1.057486     -1.469276      0.699468
      2.83907      0.00054      0.00122        -0.781227     -0.881207      0.451792
      2.80959      4.79984      1.57376         0.495913     -0.789275      0.246230
      4.33896      9.65013      0.82758         0.230067     -1.136440     -0.045712
      5.73634     14.33343      0.01731        -0.788623     -0.719264      0.409406
      5.67093      4.77941      1.63075         0.012701     -0.090907      0.222012
      7.04946      9.50156      0.83325        -0.095921     -0.471716     -0.936799
     -1.32296     14.31248      2.42367         0.090356     -0.114744     -0.113540
     -1.39998      4.70349      4.10063         0.098534      0.443160     -0.213188
      0.01243      9.55437      3.19142         0.394658      0.316772      1.571596
      1.50050     14.31205      2.42852        -0.013314     -0.192496     -0.036944
      1.37500      4.69766      3.98813         0.188322      0.692333      0.116971
      2.80467     10.80594      2.35331         3.394958      3.061029      2.810855
      4.28066     14.30678      2.41331        -0.090512     -0.229432      0.004903
      4.20175      4.77585      4.02587        -0.267678     -0.330488      0.133804
      5.67684      9.69493      3.25475        -1.612752     -1.717625      0.994370
     -2.73509     14.30265      4.85984        -0.113582     -0.088600     -0.042556
     -2.77695      4.83430      6.45208        -0.943017      0.559452     -0.612679
     -1.38606      9.56125      5.70109         0.144619     -0.164976      0.073532
      0.05656     14.31608      4.84583        -0.065763     -0.480156     -0.093027
      0.00158      4.63953      6.49410         1.083184      1.248747     -0.571981
      1.42793      9.56830      5.64514         0.605691      0.150142     -1.492971
      2.87836     14.31913      4.83405        -0.199716     -0.162768      0.241264
      2.79794      4.84525      6.38829         0.004408      0.573026      1.271134
      4.19286      9.48116      5.63420         0.175634     -0.515266     -1.104707
      0.04715     10.37581      0.05003        -0.165485      0.176652     -0.362233
     -4.18712      3.96862      7.26448        -0.406904      0.022541     -0.117817
      0.11320      0.96315      1.55283        -0.159136     -0.119503      0.076039
     -0.17913      8.38527      1.70020         0.611247      0.768969     -0.431019
      1.62473      5.96881      0.66450        -0.522841     -0.753380      0.108021
      1.48532     13.23460      0.90195        -0.352357      1.156421     -0.508810
      2.92257     10.61241      0.02665         0.558201      0.227394     -0.481833
      2.77335      3.79694      0.00005         0.066322     -0.089076      0.539749
      2.77474      0.92227      1.60230         0.105041      0.179774      0.124694
      2.96343      8.63879      1.51032        -0.125707      0.207547     -0.071674
      4.27782      5.65080      0.81596        -0.341045      0.469139     -0.296605
      4.22203     13.28860      0.82954         0.885846      0.882019     -0.459076
      1.44782     10.51020      7.25381         0.703874      0.304223      0.266115
      1.50145      3.84168      7.22763        -0.151472     -0.380978      0.246718
      5.59078      0.90486      1.65948         0.177824      0.105286     -0.034926
      5.65813      8.64053      1.71177        -0.012766      0.351093     -0.440191
      7.04420      5.94607      1.01877        -0.206143     -0.987947     -0.953093
      7.16727     13.38724      0.81108        -0.101698     -0.000565     -0.006432
      7.10549     10.55806      2.36759         0.169055      0.043774      0.211175
     -1.41900      3.79141      2.47362        -0.740152     -0.204687      0.223996
     -1.46413      0.89727      4.03032         0.069235      0.115452     -0.036597
     -1.40271      8.70114      4.07412        -0.081768     -0.505149     -0.509964
     -0.07843      5.71827      3.28158         0.359508     -0.326832      0.041517
[...]
     -2.61665      8.39639      6.55692        -0.800060      0.948849     -0.944880
     -1.30060      5.69578      5.69865        -0.531745     -0.311812     -0.111036
     -1.32785     13.34798      5.69565         0.226628      0.182378     -0.329782
     -0.01996     10.58397      4.96320         0.417406     -0.205028     -0.627380
      0.04527      3.74042      4.88184        -0.142836     -0.239245     -0.287629
      0.02771      0.93833      6.45533         0.055471     -0.041971     -0.101394
      0.05695      8.65965      6.49628        -0.388231     -0.371690     -0.285220
      1.43662      5.77415      5.50408        -0.238265     -0.803667      0.501158
      1.36451     13.30756      5.72672         0.293320      0.431581     -0.298352
      2.88777     10.57851      4.91902        -0.460792     -0.286612      0.303204
      2.77159      3.77762      4.87306         0.076234      0.104761     -0.908844
      2.74090      0.90430      6.44010         0.020732      0.303740     -0.078246
      2.81066      8.39864      6.27081         0.010571      1.240836      1.080485
      4.03753      5.92288      5.53125         0.778376     -0.989341      0.496257
      4.27360     13.37038      5.61835         0.014034     -0.090722      0.001912
    total drift:                                0.000013     -0.004499     -0.003449

  FREE ENERGIE OF THE ION-ELECTRON SYSTEM (eV)
  free  energy   TOTEN  =      -553.4721470293 eV

  energy  without entropy=     -553.4303751957  energy(sigma->0) =     -553.45126111

volume of typ            1:     8.9 %

[...]

volume of typ            3:    10.0 %

total charge

# of ion       s       p       d       tot
    1        2.068   0.227   0.087   2.383
    2        2.073   0.240   0.094   2.407
    3        2.064   0.210   0.080   2.353
    4        2.078   0.250   0.097   2.425
    5        2.075   0.246   0.095   2.416
    6        2.076   0.251   0.098   2.426
    7        2.067   0.220   0.084   2.370
    8        2.077   0.250   0.098   2.425
    9        2.065   0.216   0.083   2.364
   10        2.071   0.234   0.090   2.395
   11        0.288   0.395   7.829   8.513
   12        0.286   0.383   7.854   8.523
   13        0.286   0.390   7.873   8.549
   14        0.288   0.395   7.841   8.523
   15        0.290   0.399   7.834   8.523
   16        0.299   0.423   7.855   8.577
   17        0.287   0.390   7.833   8.509
   18        0.292   0.405   7.828   8.525
   19        0.288   0.390   7.836   8.514
   20        0.278   0.370   7.844   8.493
   21        0.294   0.408   7.834   8.536
   22        0.283   0.388   7.832   8.503
   23        0.296   0.413   7.826   8.535
   24        0.291   0.400   7.828   8.519
   25        0.348   0.499   8.045   8.892
   26        0.297   0.416   7.828   8.541
   27        0.292   0.406   7.832   8.530
   28        0.284   0.387   7.830   8.501
   29        0.293   0.405   7.828   8.526
   30        0.286   0.384   7.844   8.514
   31        0.291   0.404   7.832   8.527
   32        0.289   0.395   7.827   8.510
   33        0.288   0.392   7.845   8.525
   34        0.291   0.405   7.806   8.501
   35        0.281   0.378   7.847   8.505
   36        0.286   0.383   7.843   8.512
   37        0.288   0.383   7.817   8.488
   38        1.269   2.774   0.008   4.050
   39        1.270   2.766   0.008   4.043
   40        1.278   2.742   0.007   4.027
   41        1.276   2.737   0.005   4.018
   42        1.276   2.738   0.006   4.019
   43        1.282   2.715   0.005   4.002
   44        1.278   2.748   0.007   4.034
   45        1.278   2.751   0.008   4.036
   46        1.272   2.760   0.008   4.040
   47        1.283   2.723   0.007   4.013
   48        1.270   2.778   0.008   4.056
   49        1.276   2.739   0.006   4.022
   50        1.271   2.768   0.008   4.047
   51        1.270   2.764   0.008   4.042
   52        1.271   2.762   0.008   4.040
   53        1.276   2.751   0.008   4.035
   54        1.273   2.745   0.006   4.024
   55        1.271   2.762   0.008   4.041
   56        1.274   2.757   0.008   4.038
   57        1.277   2.751   0.007   4.035
   58        1.270   2.765   0.008   4.043
   59        1.275   2.765   0.008   4.048
   60        1.276   2.750   0.008   4.034
[...]
   77        1.272   2.750   0.006   4.028
   78        1.275   2.758   0.008   4.040
   79        1.274   2.753   0.007   4.034
   80        1.278   2.730   0.006   4.014
   81        1.272   2.760   0.008   4.040
   82        1.278   2.743   0.007   4.028
   83        1.275   2.763   0.008   4.045
   84        1.283   2.722   0.006   4.012
   85        1.279   2.737   0.007   4.023
   86        1.283   2.692   0.005   3.980
   87        1.280   2.738   0.007   4.025
   88        1.274   2.757   0.008   4.039
   89        1.274   2.735   0.005   4.015
   90        1.274   2.742   0.006   4.022
   91        1.271   2.767   0.008   4.046
tot          97.40  161.80  213.07  472.27

magnetization (x)

# of ion       s       p       d       tot
    1        0.003   0.002  -0.000   0.005
    2        0.005   0.010   0.002   0.017
    3        0.005   0.008   0.001   0.014
    4        0.003   0.005   0.001   0.008
    5        0.004   0.009   0.000   0.013
    6        0.004   0.005   0.001   0.010
    7        0.005   0.009   0.001   0.015
    8        0.006   0.010   0.001   0.016
    9        0.005   0.008   0.000   0.013
   10        0.003   0.004   0.000   0.007
   11       -0.000  -0.001   0.190   0.189
   12        0.003   0.003   0.538   0.543
   13        0.003   0.001   0.498   0.503
   14        0.001  -0.000   0.377   0.378
   15       -0.000  -0.000   0.198   0.198
   16       -0.001  -0.001   0.015   0.013
   17       -0.000  -0.000   0.194   0.193
   18       -0.000  -0.001   0.107   0.106
   19        0.000   0.000   0.136   0.137
   20        0.002  -0.000   0.541   0.542
   21       -0.001  -0.001   0.119   0.117
   22       -0.000   0.002   0.292   0.293
   23       -0.001  -0.000   0.092   0.092
   24       -0.001  -0.001   0.121   0.120
   25        0.046   0.015   0.814   0.874
   26       -0.000  -0.000   0.088   0.087
   27       -0.000  -0.000   0.230   0.229
   28        0.000   0.001   0.186   0.188
   29       -0.001  -0.001   0.096   0.095
   30        0.000   0.001   0.262   0.262
   31       -0.000   0.001   0.099   0.099
   32       -0.000  -0.000   0.123   0.122
   33        0.001   0.000   0.364   0.365
   34       -0.000  -0.000   0.073   0.072
   35        0.001  -0.000   0.479   0.480
   36        0.000   0.002   0.297   0.299
   37       -0.000   0.001   0.085   0.086
   38        0.001   0.000   0.000   0.002
   39        0.004   0.004   0.000   0.008
   40        0.009   0.088   0.000   0.098
   41        0.007   0.082   0.000   0.089
   42        0.007   0.095   0.000   0.102
   43        0.007   0.066   0.000   0.073
   44        0.010   0.094   0.000   0.105
   45        0.011   0.102   0.000   0.113
   46        0.002  -0.003   0.000  -0.001
   47        0.002   0.037   0.000   0.039
   48        0.003   0.011   0.000   0.013
   49        0.003   0.009   0.000   0.012
   50        0.000  -0.006   0.000  -0.006
   51        0.002  -0.007   0.000  -0.006
   52        0.002   0.009   0.000   0.011
   53        0.001  -0.003   0.000  -0.001
   54        0.004   0.018   0.000   0.023
   55        0.003   0.018   0.000   0.021
   56        0.003   0.025   0.000   0.028
   57        0.009   0.103   0.000   0.112
   58        0.002   0.004   0.000   0.007
   59        0.007   0.085   0.000   0.092
   60        0.002   0.020   0.000   0.023
[...]
   77        0.001   0.001   0.000   0.002
   78        0.002   0.018   0.000   0.020
   79        0.002   0.009   0.000   0.011
   80        0.004   0.020   0.000   0.024
   81        0.004   0.018   0.000   0.022
   82        0.009   0.072   0.000   0.082
   83        0.000  -0.008   0.000  -0.007
   84        0.005   0.049   0.000   0.054
   85        0.007   0.072   0.000   0.080
   86        0.006   0.150  -0.000   0.157
   87        0.009   0.089   0.000   0.099
   88        0.007   0.057   0.000   0.064
   89        0.003   0.008   0.000   0.011
   90        0.003   0.014   0.000   0.017
   91        0.003   0.015   0.000   0.017
tot           0.32    2.10    6.63    9.05