 vasp.5.4.4.18Apr17-6-g9f103f2a35 (build May 12 2020 05:39:39) gamma-only

 MD_VERSION_INFO: Compiled 2020-05-12T12:39:39-UTC in devlin.sd.materialsdesign.
 com:/home/medea2/data/build/wwolf/vasp-gpu5.4.4/13047/x86_64/src/src/build/gam
 from svn 13047

 executed on                        Lin64 date 2023.03.14  17:57:53

 INCAR:
 POTCAR:    PAW_PBE Li_sv 10Sep2004
 POTCAR:    PAW_PBE Ni 02Aug2007
 POTCAR:    PAW_PBE O 08Apr2002

 POTCAR:    PAW_PBE Li_sv 10Sep2004

 POTCAR:    PAW_PBE Ni 02Aug2007

 POTCAR:    PAW_PBE O 08Apr2002

 Optimization of the real space projectors (new method)

 maximal supplied QI-value         = 22.11
 optimisation between [QCUT,QGAM] = [ 11.28, 22.77] = [ 35.61,145.23] Ry
 Optimized for a Real-space Cutoff    1.10 Angstroem

   l    n(q)    QCUT    max X(q) W(low)/X(q) W(high)/X(q)  e(spline)
   0      7    11.276    10.506    0.54E-04    0.58E-04    0.16E-07
   0      7    11.276     8.367    0.11E-03    0.14E-03    0.35E-07
   1      7    11.276     8.983    0.23E-03    0.43E-03    0.86E-07
 Optimization of the real space projectors (new method)

[...]

   l    n(q)    QCUT    max X(q) W(low)/X(q) W(high)/X(q)  e(spline)
   2      9    11.376    60.317    0.17E-03    0.16E-04    0.16E-06
   2      9    11.376    55.921    0.17E-03    0.16E-04    0.17E-06
   0     10    11.376    51.690    0.45E-04    0.60E-04    0.21E-06
   0     10    11.376    30.015    0.37E-04    0.55E-04    0.19E-06
   1     10    11.376    18.849    0.83E-04    0.11E-03    0.92E-07
   1     10    11.376    14.624    0.69E-04    0.92E-04    0.82E-07
 Optimization of the real space projectors (new method)

 maximal supplied QI-value         = 24.76
 optimisation between [QCUT,QGAM] = [ 11.39, 22.77] = [ 36.31,145.25] Ry
 Optimized for a Real-space Cutoff    1.10 Angstroem

   l    n(q)    QCUT    max X(q) W(low)/X(q) W(high)/X(q)  e(spline)
   0      7    11.387    20.381    0.22E-03    0.48E-03    0.18E-06
   0      7    11.387    15.268    0.22E-03    0.52E-03    0.19E-06
   1      7    11.387     5.964    0.22E-03    0.73E-03    0.24E-06
   1      7    11.387     5.382    0.19E-03    0.60E-03    0.21E-06

  PAW_PBE Li_sv 10Sep2004               :
  PAW_PBE Ni 02Aug2007                  :
  PAW_PBE O 08Apr2002                   :

 POSCAR: LiNiO2r3m.cif_1
  positions in direct lattice
 exchange correlation table for  LEXCH =       14
   RHO(1)=    0.500       N(1)  =     2000
   RHO(2)=  100.500       N(2)  =     4000

 ion  position               nearest neighbor table
   1  0.000  0.000  0.000-   3 2.09   3 2.09   4 2.09   4 2.09   3 2.09   4 2.09
   2  0.500  0.500  0.500-   4 1.95   4 1.95   3 1.95   3 1.95   4 1.95   3 1.95
   3  0.759  0.759  0.759-   2 1.95   2 1.95   2 1.95   1 2.09   1 2.09   1 2.09
   4  0.241  0.241  0.241-   2 1.95   2 1.95   2 1.95   1 2.09   1 2.09   1 2.09

  LATTYP: Found a trigonal (rhomboedric) cell.
 ALAT       =     4.9565987076
 COS(alpha) =     0.8349682029

  Lattice vectors:

 A1 = (   1.4238117600,   0.8220381000,   4.6759901800)
 A2 = (  -1.4238117600,   0.8220381000,   4.6759901800)
 A3 = (   0.0000000000,  -1.6440762100,   4.6759901800)

Analysis of symmetry for initial positions (statically):
 Subroutine PRICEL returns:
 Original cell was already a primitive cell.

 Routine SETGRP: Setting up the symmetry group for a
 trigonal (rhombohedral) supercell.

 Subroutine GETGRP returns: Found 12 space group operations
 (whereof 12 operations were pure point group operations)
 out of a pool of 12 trial point group operations.

The static configuration has the point symmetry D_3d.

Analysis of symmetry for dynamics (positions and initial velocities):
 Subroutine PRICEL returns:
 Original cell was already a primitive cell.

[...]

The dynamic configuration has the point symmetry D_3d.

Analysis of structural, dynamic, and magnetic symmetry:
 Subroutine PRICEL returns:
 Original cell was already a primitive cell.

 Routine SETGRP: Setting up the symmetry group for a
 trigonal (rhombohedral) supercell.

 Subroutine GETGRP returns: Found 12 space group operations
 (whereof 12 operations were pure point group operations)
 out of a pool of 12 trial point group operations.

The magnetic configuration has the point symmetry D_3d.

 Subroutine INISYM returns: Found 12 space group operations
 (whereof 12 operations are pure point group operations),
 and found     1 'primitive' translations

 KPOINTS: Automatic mesh

Automatic generation of k-mesh.
Space group operators:
 irot       det(A)        alpha          n_x          n_y          n_z        tau_x        tau_y        tau_z
    1     1.000000     0.000000     1.000000     0.000000     0.000000     0.000000     0.000000     0.000000
    2    -1.000000     0.000000     1.000000     0.000000     0.000000     0.000000     0.000000     0.000000
    3     1.000000   180.000000    -0.500000     0.866025     0.000000     0.000000     0.000000     0.000000
    4    -1.000000   180.000000    -0.500000     0.866025     0.000000     0.000000     0.000000     0.000000
    5     1.000000   120.000000    -0.000000     0.000000    -1.000000     0.000000     0.000000     0.000000
    6    -1.000000   120.000000    -0.000000     0.000000    -1.000000     0.000000     0.000000     0.000000
    7     1.000000   180.000000     1.000000     0.000000     0.000000     0.000000     0.000000     0.000000
    8    -1.000000   180.000000     1.000000     0.000000     0.000000     0.000000     0.000000     0.000000
    9     1.000000   120.000000    -0.000000    -0.000000     1.000000     0.000000     0.000000     0.000000
   10    -1.000000   120.000000    -0.000000    -0.000000     1.000000     0.000000     0.000000     0.000000
   11     1.000000   180.000000     0.500000     0.866025     0.000000     0.000000     0.000000     0.000000
   12    -1.000000   180.000000     0.500000     0.866025     0.000000     0.000000     0.000000     0.000000

 Subroutine IBZKPT returns following result:

 Found      1 irreducible k-points:

 Following reciprocal coordinates:
            Coordinates               Weight
  0.000000  0.000000  0.000000      1.000000

 Following cartesian coordinates:
            Coordinates               Weight
  0.000000  0.000000  0.000000      1.000000

 SYSTEM =  unknown system
 POSCAR =  LiNiO2r3m.cif_1

 Startparameter for this run:
   NWRITE =      1    write-flag & timer
   PREC   = accura    normal or accurate (medium, high low for compatibility)
   ISTART =      0    job   : 0-new  1-cont  2-samecut
   ICHARG =      2    charge: 1-file 2-atom 10-const
   ISPIN  =      2    spin polarized calculation?
   LNONCOLLINEAR =      F non collinear calculations
   LSORBIT =      F    spin-orbit coupling
   INIWAV =      1    electr: 0-lowe 1-rand  2-diag
   LASPH  =      F    aspherical Exc in radial PAW
   METAGGA=      F    non-selfconsistent MetaGGA calc.

 Electronic Relaxation 1
   ENCUT  =  500.0 eV  36.75 Ry    6.06 a.u.   9.04  9.04  9.04*2*pi/ulx,y,z
   ENINI  =  500.0     initial cutoff
   ENAUG  =  628.9 eV  augmentation charge cutoff
   NELM   =     80;   NELMIN=  2; NELMDL= -5     # of ELM steps
   EDIFF  = 0.1E-04   stopping-criterion for ELM
   LREAL  =      T    real-space projection
   NLSPLINE    = F    spline interpolate recip. space projectors
   LCOMPAT=      F    compatible to vasp.4.4
   GGA_COMPAT  = T    GGA compatible to vasp.4.4-vasp.4.6
   LMAXPAW     = -100 max onsite density
   LMAXMIX     =    2 max onsite mixed and CHGCAR
   VOSKOWN=      1    Vosko Wilk Nusair interpolation
   ROPT   =   -0.00025  -0.00025  -0.00025
 Ionic relaxation
   EDIFFG = 0.1E-03   stopping-criterion for IOM
   NSW    =      0    number of steps for IOM
   NBLOCK =      1;   KBLOCK =      1    inner block; outer block
   IBRION =     -1    ionic relax: 0-MD 1-quasi-New 2-CG
   NFREE  =      0    steps in history (QN), initial steepest desc. (CG)
   ISIF   =      2    stress and relaxation
   IWAVPR =     10    prediction:  0-non 1-charg 2-wave 3-comb
   ISYM   =      2    0-nonsym 1-usesym 2-fastsym
   LCORR  =      T    Harris-Foulkes like correction to forces

   POTIM  = 0.5000    time-step for ionic-motion
   TEIN   =    0.0    initial temperature
   TEBEG  =    0.0;   TEEND  =   0.0 temperature during run
   SMASS  =  -3.00    Nose mass-parameter (am)
   estimated Nose-frequenzy (Omega)   =  0.10E-29 period in steps =****** mass=  -0.561E-27a.u.
   SCALEE = 1.0000    scale energy and forces
   NPACO  =    256;   APACO  = 16.0  distance and # of slots for P.C.
   PSTRESS=    0.0 pullay stress

  Mass of Ions in am
   POMASS =   7.01 58.69 16.00
  Ionic Valenz
   ZVAL   =   3.00 10.00  6.00
  Atomic Wigner-Seitz radii
  virtual crystal weights
   VCA    =   1.00  1.00  1.00
   NELECT =      25.0000    total number of electrons
   NUPDOWN=      -1.0000    fix difference up-down

 DOS related values:
   EMIN   =  10.00;   EMAX   =-10.00  energy-range for DOS
   EFERMI =   0.00
   ISMEAR =     0;   SIGMA  =   0.05  broadening in eV -4-tet -1-fermi 0-gaus

 Electronic relaxation 2 (details)
   IALGO  =     38    algorithm
   LDIAG  =      T    sub-space diagonalisation (order eigenvalues)
   LSUBROT=      F    optimize rotation matrix (better conditioning)
   TURBO    =      0    0=normal 1=particle mesh
   IRESTART =      0    0=no restart 2=restart with 2 vectors
   NREBOOT  =      0    no. of reboots
   NMIN     =      0    reboot dimension
   EREF     =   0.00    reference energy to select bands
   IMIX   =      4    mixing-type and parameters
     AMIX     =   0.40;   BMIX     =  1.00
     AMIX_MAG =   1.60;   BMIX_MAG =  1.00
     AMIN     =   0.10
     WC   =   100.;   INIMIX=   1;  MIXPRE=   1;  MAXMIX= -45

 Intra band minimization:
   WEIMIN = 0.0000     energy-eigenvalue tresh-hold
   EBREAK =  0.78E-07  absolut break condition
   DEPER  =   0.30     relativ break condition

   TIME   =   0.40     timestep for ELM

  volume/ion in A,a.u.               =       8.21        55.40
  Fermi-wavevector in a.u.,A,eV,Ry     =   1.494853  2.824862 30.403366  2.234584
  Thomas-Fermi vector in A             =   2.607072

 Write flags
   LWAVE        =      F    write WAVECAR
   LDOWNSAMPLE  =      F    k-point downsampling of WAVECAR
   LCHARG       =      T    write CHGCAR
   LVTOT        =      F    write LOCPOT, total local potential
   LVHAR        =      F    write LOCPOT, Hartree potential only
   LELF         =      F    write electronic localiz. function (ELF)
   LORBIT       =      0    0 simple, 1 ext, 2 COOP (PROOUT), +10 PAW based schemes

 Dipole corrections
   LMONO  =      F    monopole corrections only (constant potential shift)
   LDIPOL =      F    correct potential (dipole corrections)
   IDIPOL =      0    1-x, 2-y, 3-z, 4-all directions
   EPSILON=  1.0000000 bulk dielectric constant

 Exchange correlation treatment:
   GGA     =    PS    GGA type
   VOSKOWN=      1    Vosko Wilk Nusair interpolation
   LHFCALC =     F    Hartree Fock is set to
   LHFONE  =     F    Hartree Fock one center treatment
   AEXX    =    0.0000 exact exchange contribution

 Linear response parameters
   LEPSILON=     F    determine dielectric tensor
   LRPA    =     F    only Hartree local field effects (RPA)
   LNABLA  =     F    use nabla operator in PAW spheres
   LVEL    =     F    velocity operator in full k-point grid
   LINTERFAST=   F  fast interpolation
   KINTER  =     0    interpolate to denser k-point grid
   CSHIFT  =0.1000    complex shift for real part using Kramers Kronig
   OMEGAMAX=  -1.0    maximum frequency
   DEG_THRESHOLD= 0.2000000E-02 threshold for treating states as degnerate
   RTIME   =   -0.100 relaxation time in fs
  (WPLASMAI=    0.000 imaginary part of plasma frequency in eV, 0.658/RTIME)
   DFIELD  = 0.0000000 0.0000000 0.0000000 field for delta impulse in time

 Orbital magnetization related:
   ORBITALMAG=     F  switch on orbital magnetization
   LCHIMAG   =     F  perturbation theory with respect to B field
   DQ        =  0.001000  dq finite difference perturbation B field
   LLRAUG    =     F  two centre corrections for induced B field

 Static calculation
 charge density and potential will be updated during run
 spin polarized calculation
 Variant of blocked Davidson
 Davidson routine will perform the subspace rotation
 perform sub-space diagonalisation
    after iterative eigenvector-optimisation
 modified Broyden-mixing scheme, WC =      100.0
 initial mixing is a Kerker type mixing with AMIX =  0.4000 and BMIX =      1.0000
 Hartree-type preconditioning will be used
 using additional bands           19
 real space projection scheme for non local part
 use partial core corrections
 calculate Harris-corrections to forces
   (improved forces if not selfconsistent)
 use gradient corrections
 use of overlap-Matrix (Vanderbilt PP)
 Gauss-broadening in eV      SIGMA  =   0.05

  energy-cutoff  :      500.00
  volume of cell :       32.84
      direct lattice vectors                 reciprocal lattice vectors
     1.423811760  0.822038100  4.675990180     0.351170017  0.202748104  0.071286149
    -1.423811760  0.822038100  4.675990180    -0.351170017  0.202748104  0.071286149
     0.000000000 -1.644076210  4.675990180     0.000000000 -0.405496208  0.071286149

  length of vectors
     4.956598706  4.956598706  4.956598708     0.411714573  0.411714573  0.411714573

 k-points in units of 2pi/SCALE and weight: Automatic mesh
   0.00000000  0.00000000  0.00000000       1.000

 k-points in reciprocal lattice and weights: Automatic mesh
   0.00000000  0.00000000  0.00000000       1.000

 position of ions in fractional coordinates (direct lattice)
   0.00000000  0.00000000  0.00000000
   0.50000000  0.50000000  0.50000000
   0.75880276  0.75880276  0.75880276
   0.24119724  0.24119724  0.24119724

 position of ions in cartesian coordinates  (Angst):
   0.00000000  0.00000000  0.00000000
   0.00000000 -0.00000000  7.01398527
   0.00000000 -0.00000001 10.64446276
   0.00000000 -0.00000000  3.38350778

 use serial FFT for orbitals x direction half grid
 k-point  1 :   0.0000 0.0000 0.0000  plane waves:     411

 maximum and minimum number of plane-waves per node :       411      411

 maximum number of plane-waves:       411
 maximum index in each direction:
   IXMAX=    8   IYMAX=    8   IZMAX=    8
   IXMIN=    0   IYMIN=   -4   IZMIN=   -4

 The following grids will avoid any aliasing or wrap around errors in the Hartre
 e energy
  - symmetry arguments have not been applied
  - exchange correlation energies might require even more grid points
  - we recommend to set PREC=Normal or Accurate and rely on VASP defaults
 NGX is ok and might be reduce to    36
 NGY is ok and might be reduce to    28
 NGZ is ok and might be reduce to    28

 serial   3D FFT for wavefunctions
 parallel 3D FFT for charge:
    minimum data exchange during FFTs selected (reduces bandwidth)

 Broyden mixing: mesh for mixing (old mesh)
   NGX = 17   NGY = 17   NGZ = 17
  (NGX  = 72   NGY  = 72   NGZ  = 72)
  gives a total of   4913 points

 initial charge density was supplied:
 charge density of overlapping atoms calculated
 number of electron      25.0000000 magnetization       1.0020000
 keeping initial charge density in first step

 Maximum index for non-local projection operator        18541
 Maximum index for augmentation-charges         2770 (set IRDMAX)

 First call to EWALD:  gamma=   0.554
 Maximum number of real-space cells 3x 3x 3
 Maximum number of reciprocal cells 4x 4x 4

--------------------------------------- Iteration      1(   1)  ---------------------------------------

 eigenvalue-minimisations  :   144
 total energy-change (2. order) : 0.1140136E+03  (-0.1231994E+04)
 number of electron      25.0000000 magnetization       1.0020000
 augmentation part       25.0000000 magnetization       1.0020000

 Free energy of the ion-electron system (eV)
  alpha Z        PSCENC =        79.93225614
  Ewald energy   TEWEN  =     -1602.19930802
  -Hartree energ DENC   =      -589.02809983
  -exchange      EXHF   =         0.00000000
  -V(xc)+E(xc)   XCENC  =       101.70094929
  PAW double counting   =      1734.33511154    -1819.33987401
  entropy T*S    EENTRO =        -0.00000000
  eigenvalues    EBANDS =        69.24073075
  atomic energy  EATOM  =      2139.37186265
  Solvation  Ediel_sol  =         0.00000000
  free energy    TOTEN  =       114.01362850 eV

  energy without entropy =      114.01362850  energy(sigma->0) =      114.01362850

[...]

 eigenvalue-minimisations  :   192
 total energy-change (2. order) :-0.1332517E+03  (-0.1147126E+03)
 number of electron      25.0000000 magnetization       1.0020000
 augmentation part       25.0000000 magnetization       1.0020000

[...]

 Broyden mixing:
  rms(total) = 0.23872E+01    rms(broyden)= 0.23864E+01
  rms(prec ) = 0.45649E+01
  weight for this iteration     100.00

[...]

 eigenvalues of (default mixing * dielectric matrix)
  average eigenvalue GAMMA=   0.3295
  0.3295

[...]

 eigenvalue-minimisations  :   144
 total energy-change (2. order) : 0.3157685E-01  (-0.2881364E-01)
 number of electron      25.0000006 magnetization       1.0000039
 augmentation part        8.5884424 magnetization       0.6323196

[...]

 Broyden mixing:
  rms(total) = 0.17582E-02    rms(broyden)= 0.17577E-02
  rms(prec ) = 0.20992E-02
  weight for this iteration     100.00

 eigenvalues of (default mixing * dielectric matrix)
  average eigenvalue GAMMA=   1.1706
  2.6788  2.0354  1.0229  1.0229  0.4923  0.8461  0.6198  0.6464

[...]

--------------------------------------- Iteration      1(  14)  ---------------------------------------

 eigenvalue-minimisations  :   160
 total energy-change (2. order) :-0.6192921E-05  (-0.4572454E-06)
 number of electron      25.0000006 magnetization       1.0000000
 augmentation part        8.5878142 magnetization       0.6307054

 Free energy of the ion-electron system (eV)
  alpha Z        PSCENC =        79.93225614
  Ewald energy   TEWEN  =     -1602.19930802
  -Hartree energ DENC   =      -595.35366448
  -exchange      EXHF   =         0.00000000
  -V(xc)+E(xc)   XCENC  =       103.16519445
  PAW double counting   =      2330.95711825    -2417.18931172
  entropy T*S    EENTRO =        -0.02820948
  eigenvalues    EBANDS =       -55.03351480
  atomic energy  EATOM  =      2139.37186265
  Solvation  Ediel_sol  =         0.00000000
  free energy    TOTEN  =       -16.37757701 eV

  energy without entropy =      -16.34936753  energy(sigma->0) =      -16.36347227

 average (electrostatic) potential at core
  the test charge radii are     0.7079  0.9791  0.7215
  (the norm of the test charge is              1.0000)
       1 -58.0719       2 -85.1199       3 -67.7412       4 -67.7412

 E-fermi :   7.4394     XC(G=0): -11.6617     alpha+bet :-14.5706

 spin component 1

 k-point     1 :       0.0000    0.0000    0.0000
  band No.  band energies     occupation
      1     -38.7422      1.00000
      2     -13.1967      1.00000
      3     -11.4858      1.00000
      4      -0.5194      1.00000
      5       1.1428      1.00000
      6       1.1428      1.00000
      7       4.3587      1.00000
      8       4.3587      1.00000
      9       4.6534      1.00000
     10       4.6534      1.00000
     11       4.8299      1.00000
     12       5.4130      1.00000
     13       7.4394      0.50000
     14       7.4394      0.50000
     15      11.5965      0.00000
     16      13.6004      0.00000
     17      19.3653      0.00000
     18      20.7325      0.00000
     19      20.7325      0.00000
     20      26.0399      0.00000
     21      26.0399      0.00000
     22      26.1611      0.00000
     23      26.8374      0.00000
     24      27.4006      0.00000
     25      28.0975      0.00000
     26      28.0975      0.00000
     27      30.7040      0.00000
     28      32.5497      0.00000
     29      32.5497      0.00000
     30      34.7884      0.00000
     31      34.7884      0.00000
     32      36.8220      0.00000

 spin component 2

 k-point     1 :       0.0000    0.0000    0.0000
  band No.  band energies     occupation
      1     -38.7463      1.00000
      2     -12.9000      1.00000
      3     -11.1288      1.00000
      4      -0.3635      1.00000
      5       1.7357      1.00000
      6       1.7357      1.00000
      7       4.7622      1.00000
      8       4.7622      1.00000
      9       5.0279      1.00000
     10       5.1170      1.00000
     11       5.1170      1.00000
     12       5.7996      1.00000
     13       8.2129      0.00000
     14       8.2129      0.00000
     15      11.7527      0.00000
     16      13.6678      0.00000
     17      19.5021      0.00000
     18      20.7823      0.00000
     19      20.7823      0.00000
     20      26.1408      0.00000
     21      26.1408      0.00000
     22      26.1519      0.00000
     23      26.9307      0.00000
     24      27.4059      0.00000
     25      28.1780      0.00000
     26      28.1780      0.00000
     27      30.7674      0.00000
     28      32.7027      0.00000
     29      32.7027      0.00000
     30      34.9308      0.00000
     31      34.9308      0.00000
     32      36.8826      0.00000

 soft charge-density along one line, spin component           1
         0         1         2         3         4         5         6         7         8         9
 total charge-density along one line

 soft charge-density along one line, spin component           2
         0         1         2         3         4         5         6         7         8         9
 total charge-density along one line

------------------------ aborting loop because EDIFF is reached ----------------------------------------

  FORCE on cell =-STRESS in cart. coord.  units (eV):
  Direction    XX          YY          ZZ          XY          YZ          ZX
  Alpha Z    79.93226    79.93226    79.93226
  Ewald    -392.87472  -392.87472  -816.45172    -0.00000     0.00000    -0.00000
  Hartree   307.89207   307.89207   -20.40885     0.00000     0.00000     0.00000
  E(xc)    -128.21942  -128.21942  -128.34366    -0.00000    -0.00000     0.00000
  Local    -376.18678  -376.18677   360.88472     0.00000    -0.00000    -0.00000
  n-local   -85.22673   -85.22673   -82.40332     0.00000     0.00000     0.00000
  augment   204.21962   204.21962   214.92598     0.00000    -0.00000     0.00000
  Kinetic   394.74673   394.74673   398.18849     0.00000    -0.00000    -0.00000
  Fock        0.00000     0.00000     0.00000     0.00000     0.00000     0.00000
  Total        4.2830411      4.2830412      6.3238931      0.0000000     -0.0000000      0.0000000
  in kB      208.9745815    208.9745817    308.5501343      0.0000000     -0.0000002      0.0000000

 VOLUME and BASIS-vectors are now :
  energy-cutoff  :      500.00
  volume of cell :       32.84
      direct lattice vectors                 reciprocal lattice vectors
     1.423811760  0.822038100  4.675990180     0.351170017  0.202748104  0.071286149
    -1.423811760  0.822038100  4.675990180    -0.351170017  0.202748104  0.071286149
     0.000000000 -1.644076210  4.675990180     0.000000000 -0.405496208  0.071286149

  length of vectors
     4.956598706  4.956598706  4.956598708     0.411714573  0.411714573  0.411714573

 FORCES acting on ions
    electron-ion (+dipol)            ewald-force                    non-local-force                 convergence-correction
   -.106E-14 0.461E-14 -.410E-13   0.408E-15 -.100E-14 -.284E-13   0.000E+00 0.000E+00 0.000E+00   0.236E-15 -.289E-14 -.663E-14
   -.362E-12 -.577E-12 0.367E-11   -.458E-14 -.498E-14 0.000E+00   0.000E+00 -.212E-21 0.212E-21   -.233E-13 -.278E-13 0.391E-13
   -.392E-11 0.105E-06 0.261E+03   0.838E-14 -.179E-06 -.261E+03   0.000E+00 -.128E-08 0.180E+01   0.107E-13 0.152E-10 -.606E-02
   -.398E-12 -.105E-06 -.261E+03   -.547E-14 0.179E-06 0.261E+03   0.000E+00 0.128E-08 -.180E+01   -.507E-14 -.152E-10 0.606E-02
   -.468E-11 0.167E-12 -.541E-11   -.126E-14 0.172E-14 -.568E-13   0.000E+00 -.694E-17 -.222E-15   -.174E-13 -.210E-13 0.372E-13

 POSITION                                       TOTAL-FORCE (eV/Angst)
      0.00000      0.00000      0.00000         0.000000      0.000000     -0.000000
      0.00000     -0.00000      7.01399         0.000000     -0.000000     -0.000000
      0.00000     -0.00000     10.64446         0.000000     -0.000000      2.218824
      0.00000     -0.00000      3.38351         0.000000      0.000000     -2.218824
    total drift:                               -0.000000      0.000000     -0.000000

  FREE ENERGIE OF THE ION-ELECTRON SYSTEM (eV)
  free  energy   TOTEN  =       -16.3775770089 eV

  energy  without entropy=      -16.3493675297  energy(sigma->0) =      -16.36347227

volume of typ            1:    23.7 %

[...]

volume of typ            3:     9.9 %

total charge

# of ion       s       p       d       tot
    1        2.145   0.173   0.062   2.380
    2        0.275   0.141   8.046   8.462
    3        1.135   3.012   0.007   4.155
    4        1.135   3.012   0.007   4.155
tot           4.69    6.34    8.12   19.15

magnetization (x)

# of ion       s       p       d       tot
    1       -0.002  -0.003   0.013   0.009
    2       -0.001  -0.002   0.548   0.545
    3        0.005   0.173   0.000   0.178
    4        0.005   0.173   0.000   0.178
tot           0.01    0.34    0.56    0.91