 vasp.5.4.4.18Apr17-6-g9f103f2a35 (build May 12 2020 05:39:39) gamma-only

 MD_VERSION_INFO: Compiled 2020-05-12T12:39:39-UTC in devlin.sd.materialsdesign.
 com:/home/medea2/data/build/wwolf/vasp-gpu5.4.4/13047/x86_64/src/src/build/gam
 from svn 13047

 executed on                        Lin64 date 2023.03.14  17:57:52

 INCAR:
 POTCAR:    PAW_PBE Li_sv 10Sep2004
 POTCAR:    PAW_PBE Ni 02Aug2007
 POTCAR:    PAW_PBE O 08Apr2002

 POTCAR:    PAW_PBE Li_sv 10Sep2004

 POTCAR:    PAW_PBE Ni 02Aug2007

 POTCAR:    PAW_PBE O 08Apr2002

 Optimization of the real space projectors (new method)

 maximal supplied QI-value         = 22.11
 optimisation between [QCUT,QGAM] = [ 11.28, 22.77] = [ 35.61,145.23] Ry
 Optimized for a Real-space Cutoff    1.10 Angstroem

   l    n(q)    QCUT    max X(q) W(low)/X(q) W(high)/X(q)  e(spline)
   0      7    11.276    10.506    0.54E-04    0.58E-04    0.16E-07
   0      7    11.276     8.367    0.11E-03    0.14E-03    0.35E-07
   1      7    11.276     8.983    0.23E-03    0.43E-03    0.86E-07
 Optimization of the real space projectors (new method)

[...]

   l    n(q)    QCUT    max X(q) W(low)/X(q) W(high)/X(q)  e(spline)
   2      9    11.376    60.317    0.17E-03    0.16E-04    0.16E-06
   2      9    11.376    55.921    0.17E-03    0.16E-04    0.17E-06
   0     10    11.376    51.690    0.45E-04    0.60E-04    0.21E-06
   0     10    11.376    30.015    0.37E-04    0.55E-04    0.19E-06
   1     10    11.376    18.849    0.83E-04    0.11E-03    0.92E-07
   1     10    11.376    14.624    0.69E-04    0.92E-04    0.82E-07
 Optimization of the real space projectors (new method)

 maximal supplied QI-value         = 24.76
 optimisation between [QCUT,QGAM] = [ 11.39, 22.77] = [ 36.31,145.25] Ry
 Optimized for a Real-space Cutoff    1.10 Angstroem

   l    n(q)    QCUT    max X(q) W(low)/X(q) W(high)/X(q)  e(spline)
   0      7    11.387    20.381    0.22E-03    0.48E-03    0.18E-06
   0      7    11.387    15.268    0.22E-03    0.52E-03    0.19E-06
   1      7    11.387     5.964    0.22E-03    0.73E-03    0.24E-06
   1      7    11.387     5.382    0.19E-03    0.60E-03    0.21E-06

  PAW_PBE Li_sv 10Sep2004               :
  PAW_PBE Ni 02Aug2007                  :
  PAW_PBE O 08Apr2002                   :

 POSCAR: Copy of LiNiO2c2m.cif_1 merged with LiNi
  positions in direct lattice
 exchange correlation table for  LEXCH =       14
   RHO(1)=    0.500       N(1)  =     2000
   RHO(2)=  100.500       N(2)  =     4000

 ion  position               nearest neighbor table
   1  0.000  0.000  0.500-   4 2.10   4 2.10   3 2.10   3 2.10   4 2.13   3 2.13
   2  0.000  0.000  0.000-   4 1.87   4 1.87   3 1.87   3 1.87   3 2.12   4 2.12
   3  0.499  0.000  0.779-   2 1.87   2 1.87   1 2.10   1 2.10   2 2.12   1 2.13
   4  0.501  0.000  0.221-   2 1.87   2 1.87   1 2.10   1 2.10   2 2.12   1 2.13

  LATTYP: Found a base centered monoclinic cell.
 ALAT       =     5.1011714000
 B/A-ratio  =     0.5370305965
 C/A-ratio  =     1.1190674701
 COS(beta)  =    -0.4922001208

  Lattice vectors:

 A1 = (   2.5505857000,   1.3697425600,   0.0000000000)
 A2 = (   2.5505857000,  -1.3697425600,   0.0000000000)
 A3 = (  -3.1892868000,   0.0000000000,  -4.7345590700)

Analysis of symmetry for initial positions (statically):
 Subroutine PRICEL returns:
 Original cell was already a primitive cell.

 Routine SETGRP: Setting up the symmetry group for a
 base centered monoclinic supercell.

 Subroutine GETGRP returns: Found  4 space group operations
 (whereof  4 operations were pure point group operations)
 out of a pool of  4 trial point group operations.

The static configuration has the point symmetry C_2h.

Analysis of symmetry for dynamics (positions and initial velocities):
 Subroutine PRICEL returns:
 Original cell was already a primitive cell.

[...]

The dynamic configuration has the point symmetry C_2h.

Analysis of structural, dynamic, and magnetic symmetry:
 Subroutine PRICEL returns:
 Original cell was already a primitive cell.

 Routine SETGRP: Setting up the symmetry group for a
 base centered monoclinic supercell.

 Subroutine GETGRP returns: Found  4 space group operations
 (whereof  4 operations were pure point group operations)
 out of a pool of  4 trial point group operations.

The magnetic configuration has the point symmetry C_2h.

 Subroutine INISYM returns: Found  4 space group operations
 (whereof  4 operations are pure point group operations),
 and found     1 'primitive' translations

 KPOINTS: Automatic mesh

Automatic generation of k-mesh.
Space group operators:
 irot       det(A)        alpha          n_x          n_y          n_z        tau_x        tau_y        tau_z
    1     1.000000     0.000000     1.000000     0.000000     0.000000     0.000000     0.000000     0.000000
    2    -1.000000     0.000000     1.000000     0.000000     0.000000     0.000000     0.000000     0.000000
    3     1.000000   179.999999     0.000000     1.000000     0.000000     0.000000     0.000000     0.000000
    4    -1.000000   179.999999     0.000000     1.000000     0.000000     0.000000     0.000000     0.000000

 Subroutine IBZKPT returns following result:

 Found      1 irreducible k-points:

 Following reciprocal coordinates:
            Coordinates               Weight
  0.000000  0.000000  0.000000      1.000000

 Following cartesian coordinates:
            Coordinates               Weight
  0.000000  0.000000  0.000000      1.000000

 SYSTEM =  unknown system
 POSCAR =  Copy of LiNiO2c2m.cif_1 merged with LiNi

 Startparameter for this run:
   NWRITE =      1    write-flag & timer
   PREC   = accura    normal or accurate (medium, high low for compatibility)
   ISTART =      0    job   : 0-new  1-cont  2-samecut
   ICHARG =      2    charge: 1-file 2-atom 10-const
   ISPIN  =      2    spin polarized calculation?
   LNONCOLLINEAR =      F non collinear calculations
   LSORBIT =      F    spin-orbit coupling
   INIWAV =      1    electr: 0-lowe 1-rand  2-diag
   LASPH  =      F    aspherical Exc in radial PAW
   METAGGA=      F    non-selfconsistent MetaGGA calc.

 Electronic Relaxation 1
   ENCUT  =  500.0 eV  36.75 Ry    6.06 a.u.   9.30  5.28 10.41*2*pi/ulx,y,z
   ENINI  =  500.0     initial cutoff
   ENAUG  =  628.9 eV  augmentation charge cutoff
   NELM   =     80;   NELMIN=  2; NELMDL= -5     # of ELM steps
   EDIFF  = 0.1E-04   stopping-criterion for ELM
   LREAL  =      T    real-space projection
   NLSPLINE    = F    spline interpolate recip. space projectors
   LCOMPAT=      F    compatible to vasp.4.4
   GGA_COMPAT  = T    GGA compatible to vasp.4.4-vasp.4.6
   LMAXPAW     = -100 max onsite density
   LMAXMIX     =    2 max onsite mixed and CHGCAR
   VOSKOWN=      1    Vosko Wilk Nusair interpolation
   ROPT   =   -0.00025  -0.00025  -0.00025
 Ionic relaxation
   EDIFFG = 0.1E-03   stopping-criterion for IOM
   NSW    =      0    number of steps for IOM
   NBLOCK =      1;   KBLOCK =      1    inner block; outer block
   IBRION =     -1    ionic relax: 0-MD 1-quasi-New 2-CG
   NFREE  =      0    steps in history (QN), initial steepest desc. (CG)
   ISIF   =      2    stress and relaxation
   IWAVPR =     10    prediction:  0-non 1-charg 2-wave 3-comb
   ISYM   =      2    0-nonsym 1-usesym 2-fastsym
   LCORR  =      T    Harris-Foulkes like correction to forces

   POTIM  = 0.5000    time-step for ionic-motion
   TEIN   =    0.0    initial temperature
   TEBEG  =    0.0;   TEEND  =   0.0 temperature during run
   SMASS  =  -3.00    Nose mass-parameter (am)
   estimated Nose-frequenzy (Omega)   =  0.10E-29 period in steps =****** mass=  -0.595E-27a.u.
   SCALEE = 1.0000    scale energy and forces
   NPACO  =    256;   APACO  = 16.0  distance and # of slots for P.C.
   PSTRESS=    0.0 pullay stress

  Mass of Ions in am
   POMASS =   7.01 58.69 16.00
  Ionic Valenz
   ZVAL   =   3.00 10.00  6.00
  Atomic Wigner-Seitz radii
  virtual crystal weights
   VCA    =   1.00  1.00  1.00
   NELECT =      25.0000    total number of electrons
   NUPDOWN=      -1.0000    fix difference up-down

 DOS related values:
   EMIN   =  10.00;   EMAX   =-10.00  energy-range for DOS
   EFERMI =   0.00
   ISMEAR =     0;   SIGMA  =   0.05  broadening in eV -4-tet -1-fermi 0-gaus

 Electronic relaxation 2 (details)
   IALGO  =     38    algorithm
   LDIAG  =      T    sub-space diagonalisation (order eigenvalues)
   LSUBROT=      F    optimize rotation matrix (better conditioning)
   TURBO    =      0    0=normal 1=particle mesh
   IRESTART =      0    0=no restart 2=restart with 2 vectors
   NREBOOT  =      0    no. of reboots
   NMIN     =      0    reboot dimension
   EREF     =   0.00    reference energy to select bands
   IMIX   =      4    mixing-type and parameters
     AMIX     =   0.40;   BMIX     =  1.00
     AMIX_MAG =   1.60;   BMIX_MAG =  1.00
     AMIN     =   0.10
     WC   =   100.;   INIMIX=   1;  MIXPRE=   1;  MAXMIX= -45

 Intra band minimization:
   WEIMIN = 0.0000     energy-eigenvalue tresh-hold
   EBREAK =  0.16E-06  absolut break condition
   DEPER  =   0.30     relativ break condition

   TIME   =   0.40     timestep for ELM

  volume/ion in A,a.u.               =       8.27        55.81
  Fermi-wavevector in a.u.,A,eV,Ry     =   1.491164  2.817891 30.253501  2.223570
  Thomas-Fermi vector in A             =   2.603854

 Write flags
   LWAVE        =      F    write WAVECAR
   LDOWNSAMPLE  =      F    k-point downsampling of WAVECAR
   LCHARG       =      T    write CHGCAR
   LVTOT        =      F    write LOCPOT, total local potential
   LVHAR        =      F    write LOCPOT, Hartree potential only
   LELF         =      F    write electronic localiz. function (ELF)
   LORBIT       =      0    0 simple, 1 ext, 2 COOP (PROOUT), +10 PAW based schemes

 Dipole corrections
   LMONO  =      F    monopole corrections only (constant potential shift)
   LDIPOL =      F    correct potential (dipole corrections)
   IDIPOL =      0    1-x, 2-y, 3-z, 4-all directions
   EPSILON=  1.0000000 bulk dielectric constant

 Exchange correlation treatment:
   GGA     =    PS    GGA type
   VOSKOWN=      1    Vosko Wilk Nusair interpolation
   LHFCALC =     F    Hartree Fock is set to
   LHFONE  =     F    Hartree Fock one center treatment
   AEXX    =    0.0000 exact exchange contribution

 Linear response parameters
   LEPSILON=     F    determine dielectric tensor
   LRPA    =     F    only Hartree local field effects (RPA)
   LNABLA  =     F    use nabla operator in PAW spheres
   LVEL    =     F    velocity operator in full k-point grid
   LINTERFAST=   F  fast interpolation
   KINTER  =     0    interpolate to denser k-point grid
   CSHIFT  =0.1000    complex shift for real part using Kramers Kronig
   OMEGAMAX=  -1.0    maximum frequency
   DEG_THRESHOLD= 0.2000000E-02 threshold for treating states as degnerate
   RTIME   =   -0.100 relaxation time in fs
  (WPLASMAI=    0.000 imaginary part of plasma frequency in eV, 0.658/RTIME)
   DFIELD  = 0.0000000 0.0000000 0.0000000 field for delta impulse in time

 Orbital magnetization related:
   ORBITALMAG=     F  switch on orbital magnetization
   LCHIMAG   =     F  perturbation theory with respect to B field
   DQ        =  0.001000  dq finite difference perturbation B field
   LLRAUG    =     F  two centre corrections for induced B field

 Static calculation
 charge density and potential will be updated during run
 spin polarized calculation
 Variant of blocked Davidson
 Davidson routine will perform the subspace rotation
 perform sub-space diagonalisation
    after iterative eigenvector-optimisation
 modified Broyden-mixing scheme, WC =      100.0
 initial mixing is a Kerker type mixing with AMIX =  0.4000 and BMIX =      1.0000
 Hartree-type preconditioning will be used
 using additional bands            3
 real space projection scheme for non local part
 use partial core corrections
 calculate Harris-corrections to forces
   (improved forces if not selfconsistent)
 use gradient corrections
 use of overlap-Matrix (Vanderbilt PP)
 Gauss-broadening in eV      SIGMA  =   0.05

  energy-cutoff  :      500.00
  volume of cell :       33.08
      direct lattice vectors                 reciprocal lattice vectors
     5.101171400  0.000000000  0.000000000     0.196033405 -0.365032098 -0.132051738
     2.550585700  1.369742560  0.000000000     0.000000000  0.730064195  0.000000000
     3.189286800  0.000000000  4.734559070     0.000000000  0.000000000  0.211212910

  length of vectors
     5.101171400  2.895113485  5.708554973     0.434873763  0.730064195  0.211212910

 k-points in units of 2pi/SCALE and weight: Automatic mesh
   0.00000000  0.00000000  0.00000000       1.000

 k-points in reciprocal lattice and weights: Automatic mesh
   0.00000000  0.00000000  0.00000000       1.000

 position of ions in fractional coordinates (direct lattice)
   0.00000000  0.00000000  0.50000000
   0.00000000  0.00000000  0.00000000
   0.49919665  0.00000000  0.77866126
   0.50080335  0.00000000  0.22133874

 position of ions in cartesian coordinates  (Angst):
   1.59464340  0.00000000  2.36727954
   0.00000000  0.00000000  0.00000000
   5.02986175  0.00000000  3.68661773
   3.26059645  0.00000000  1.04794134

 use serial FFT for orbitals x direction half grid
 k-point  1 :   0.0000 0.0000 0.0000  plane waves:     418

 maximum and minimum number of plane-waves per node :       418      418

 maximum number of plane-waves:       418
 maximum index in each direction:
   IXMAX=    9   IYMAX=    5   IZMAX=   10
   IXMIN=    0   IYMIN=   -1   IZMIN=   -7

 The following grids will avoid any aliasing or wrap around errors in the Hartre
 e energy
  - symmetry arguments have not been applied
  - exchange correlation energies might require even more grid points
  - we recommend to set PREC=Normal or Accurate and rely on VASP defaults
 NGX is ok and might be reduce to    40
 NGY is ok and might be reduce to    14
 NGZ is ok and might be reduce to    36

 serial   3D FFT for wavefunctions
 parallel 3D FFT for charge:
    minimum data exchange during FFTs selected (reduces bandwidth)

 Broyden mixing: mesh for mixing (old mesh)
   NGX = 19   NGY = 11   NGZ = 21
  (NGX  = 80   NGY  = 48   NGZ  = 84)
  gives a total of   4389 points

 initial charge density was supplied:
 charge density of overlapping atoms calculated
 number of electron      25.0000000 magnetization       0.9820000
 keeping initial charge density in first step

 Maximum index for non-local projection operator        15891
 Maximum index for augmentation-charges         2353 (set IRDMAX)

 First call to EWALD:  gamma=   0.552
 Maximum number of real-space cells 4x 6x 2
 Maximum number of reciprocal cells 4x 3x 5

--------------------------------------- Iteration      1(   1)  ---------------------------------------

 eigenvalue-minimisations  :    64
 total energy-change (2. order) : 0.1467233E+03  (-0.1439592E+04)
 number of electron      25.0000000 magnetization       0.9820000
 augmentation part       25.0000000 magnetization       0.9820000

 Free energy of the ion-electron system (eV)
  alpha Z        PSCENC =        79.34197938
  Ewald energy   TEWEN  =     -1580.92879810
  -Hartree energ DENC   =      -606.67040470
  -exchange      EXHF   =         0.00000000
  -V(xc)+E(xc)   XCENC  =       101.73397508
  PAW double counting   =      1734.35425307    -1819.36065538
  entropy T*S    EENTRO =        -0.00000000
  eigenvalues    EBANDS =        98.88104589
  atomic energy  EATOM  =      2139.37186265
  Solvation  Ediel_sol  =         0.00000000
  free energy    TOTEN  =       146.72325789 eV

  energy without entropy =      146.72325789  energy(sigma->0) =      146.72325789

[...]

 eigenvalue-minimisations  :   128
 total energy-change (2. order) :-0.1702302E+03  (-0.1702302E+03)
 number of electron      25.0000000 magnetization       0.9820000
 augmentation part       25.0000000 magnetization       0.9820000

[...]

 Broyden mixing:
  rms(total) = 0.25013E+01    rms(broyden)= 0.25005E+01
  rms(prec ) = 0.46954E+01
  weight for this iteration     100.00

[...]

 eigenvalues of (default mixing * dielectric matrix)
  average eigenvalue GAMMA=   0.3374
  0.3374

[...]

 eigenvalue-minimisations  :   128
 total energy-change (2. order) : 0.3670202E-01  (-0.1013000E+00)
 number of electron      25.0000003 magnetization       0.9999720
 augmentation part        8.5376816 magnetization       0.6002931

[...]

 Broyden mixing:
  rms(total) = 0.17185E-02    rms(broyden)= 0.17182E-02
  rms(prec ) = 0.23604E-02
  weight for this iteration     100.00

 eigenvalues of (default mixing * dielectric matrix)
  average eigenvalue GAMMA=   1.1560
  2.6060  2.0188  1.0278  1.0278  0.7665  0.5828  0.5828  0.6354

[...]

--------------------------------------- Iteration      1(  14)  ---------------------------------------

 eigenvalue-minimisations  :    64
 total energy-change (2. order) :-0.8842413E-05  (-0.7313978E-06)
 number of electron      25.0000003 magnetization       1.0000001
 augmentation part        8.5617367 magnetization       0.5930791

 Free energy of the ion-electron system (eV)
  alpha Z        PSCENC =        79.34197938
  Ewald energy   TEWEN  =     -1580.92879810
  -Hartree energ DENC   =      -612.24907306
  -exchange      EXHF   =         0.00000000
  -V(xc)+E(xc)   XCENC  =       103.15721794
  PAW double counting   =      2357.34466761    -2443.69552276
  entropy T*S    EENTRO =        -0.00000000
  eigenvalues    EBANDS =       -59.37301811
  atomic energy  EATOM  =      2139.37186265
  Solvation  Ediel_sol  =         0.00000000
  free energy    TOTEN  =       -17.03068444 eV

  energy without entropy =      -17.03068444  energy(sigma->0) =      -17.03068444

 average (electrostatic) potential at core
  the test charge radii are     0.7079  0.9791  0.7215
  (the norm of the test charge is              1.0000)
       1 -58.1719       2 -85.2214       3 -67.9508       4 -67.9508

 E-fermi :   7.2051     XC(G=0): -11.6205     alpha+bet :-14.4630

 spin component 1

 k-point     1 :       0.0000    0.0000    0.0000
  band No.  band energies     occupation
      1     -38.8424      1.00000
      2     -13.3845      1.00000
      3     -11.6936      1.00000
      4      -0.7334      1.00000
      5       0.8453      1.00000
      6       1.0750      1.00000
      7       4.1985      1.00000
      8       4.4327      1.00000
      9       4.4609      1.00000
     10       4.4906      1.00000
     11       4.6002      1.00000
     12       5.3355      1.00000
     13       6.8665      1.00000
     14       7.8853      0.00000
     15      11.5084      0.00000
     16      13.5120      0.00000

 spin component 2

 k-point     1 :       0.0000    0.0000    0.0000
  band No.  band energies     occupation
      1     -38.8464      1.00000
      2     -13.0823      1.00000
      3     -11.3371      1.00000
      4      -0.5687      1.00000
      5       1.1246      1.00000
      6       1.9087      1.00000
      7       4.5906      1.00000
      8       4.6422      1.00000
      9       4.7345      1.00000
     10       4.8006      1.00000
     11       5.3104      1.00000
     12       5.6984      1.00000
     13       7.9583      0.00000
     14       8.2503      0.00000
     15      11.7035      0.00000
     16      13.5966      0.00000

 soft charge-density along one line, spin component           1
         0         1         2         3         4         5         6         7         8         9
 total charge-density along one line

 soft charge-density along one line, spin component           2
         0         1         2         3         4         5         6         7         8         9
 total charge-density along one line

------------------------ aborting loop because EDIFF is reached ----------------------------------------

  FORCE on cell =-STRESS in cart. coord.  units (eV):
  Direction    XX          YY          ZZ          XY          YZ          ZX
  Alpha Z    79.34198    79.34198    79.34198
  Ewald    -456.96363  -308.18126  -815.78522    -0.00000     0.00000    74.39369
  Hartree   285.13742   352.20819   -25.08146    -0.00000    -0.00001    32.49764
  E(xc)    -128.28738  -128.27873  -128.35921     0.00001    -0.00001     0.06833
  Local    -301.32512  -495.00436   366.88722     0.00001     0.00002   -97.97284
  n-local   -87.04804   -81.34077   -81.56572    -0.00098    -0.00078    -0.96784
  augment   208.53227   200.54496   213.03439    -0.00000    -0.00002    -5.94170
  Kinetic   408.79104   381.25056   397.28977    -0.00001     0.00004    -5.03478
  Fock        0.00000     0.00000     0.00000     0.00000     0.00000     0.00000
  Total        8.1785356      0.5405615      5.7617525      0.0000000      0.0000000     -2.9574978
  in kB      396.0935100     26.1798568    279.0466259      0.0000000      0.0000000   -143.2341584

 VOLUME and BASIS-vectors are now :
  energy-cutoff  :      500.00
  volume of cell :       33.08
      direct lattice vectors                 reciprocal lattice vectors
     5.101171400  0.000000000  0.000000000     0.196033405 -0.365032098 -0.132051738
     2.550585700  1.369742560  0.000000000     0.000000000  0.730064195  0.000000000
     3.189286800  0.000000000  4.734559070     0.000000000  0.000000000  0.211212910

  length of vectors
     5.101171400  2.895113485  5.708554973     0.434873763  0.730064195  0.211212910

 FORCES acting on ions
    electron-ion (+dipol)            ewald-force                    non-local-force                 convergence-correction
   0.108E-12 -.286E-14 0.148E-12   0.000E+00 0.534E-15 -.426E-13   0.132E-22 0.000E+00 0.000E+00   -.281E-14 -.402E-14 0.109E-13
   -.337E-13 -.184E-13 0.676E-14   0.000E+00 -.442E-14 0.000E+00   0.000E+00 0.000E+00 0.000E+00   -.275E-13 -.117E-13 -.128E-13
   0.303E+02 0.652E-05 0.278E+03   -.323E+02 -.113E-13 -.277E+03   0.371E+01 0.542E-19 0.151E+01   -.456E-02 0.671E-08 -.404E-02
   -.303E+02 -.652E-05 -.278E+03   0.323E+02 0.141E-13 0.277E+03   -.371E+01 -.542E-19 -.151E+01   0.456E-02 -.671E-08 0.404E-02
   0.169E-11 -.114E-12 0.209E-11   0.711E-14 -.108E-14 0.000E+00   0.000E+00 0.000E+00 -.222E-15   -.338E-13 -.709E-15 -.179E-13

 POSITION                                       TOTAL-FORCE (eV/Angst)
      1.59464      0.00000      2.36728        -0.000000      0.000000      0.000000
      0.00000      0.00000      0.00000        -0.000000      0.000000      0.000000
      5.02986      0.00000      3.68662         1.656308      0.000000      2.140147
      3.26060      0.00000      1.04794        -1.656308      0.000000     -2.140147
    total drift:                                0.000000     -0.000000      0.000000

  FREE ENERGIE OF THE ION-ELECTRON SYSTEM (eV)
  free  energy   TOTEN  =       -17.0306844405 eV

  energy  without entropy=      -17.0306844405  energy(sigma->0) =      -17.03068444

volume of typ            1:    23.6 %

[...]

volume of typ            3:     9.9 %

total charge

# of ion       s       p       d       tot
    1        2.144   0.170   0.056   2.370
    2        0.296   0.166   8.050   8.511
    3        1.139   3.008   0.008   4.155
    4        1.139   3.008   0.008   4.155
tot           4.72    6.35    8.12   19.19

magnetization (x)

# of ion       s       p       d       tot
    1       -0.002  -0.003   0.013   0.008
    2        0.006  -0.002   0.517   0.521
    3        0.006   0.176   0.000   0.183
    4        0.006   0.176   0.000   0.183
tot           0.02    0.35    0.53    0.90