 vasp.5.4.4.18Apr17-6-g9f103f2a35 (build May 12 2020 05:39:39) gamma-only

 MD_VERSION_INFO: Compiled 2020-05-12T12:39:39-UTC in devlin.sd.materialsdesign.
 com:/home/medea2/data/build/wwolf/vasp-gpu5.4.4/13047/x86_64/src/src/build/gam
 from svn 13047

 executed on                        Lin64 date 2023.03.14  17:57:54

 INCAR:
 POTCAR:    PAW_PBE Li_sv 10Sep2004
 POTCAR:    PAW_PBE Ni 02Aug2007
 POTCAR:    PAW_PBE O 08Apr2002

 POTCAR:    PAW_PBE Li_sv 10Sep2004

 POTCAR:    PAW_PBE Ni 02Aug2007

 POTCAR:    PAW_PBE O 08Apr2002

 Optimization of the real space projectors (new method)

 maximal supplied QI-value         = 22.11
 optimisation between [QCUT,QGAM] = [ 11.28, 22.77] = [ 35.61,145.23] Ry
 Optimized for a Real-space Cutoff    1.10 Angstroem

   l    n(q)    QCUT    max X(q) W(low)/X(q) W(high)/X(q)  e(spline)
   0      7    11.276    10.506    0.54E-04    0.58E-04    0.16E-07
   0      7    11.276     8.367    0.11E-03    0.14E-03    0.35E-07
   1      7    11.276     8.983    0.23E-03    0.43E-03    0.86E-07
 Optimization of the real space projectors (new method)

[...]

   l    n(q)    QCUT    max X(q) W(low)/X(q) W(high)/X(q)  e(spline)
   2      9    11.376    60.317    0.17E-03    0.16E-04    0.16E-06
   2      9    11.376    55.921    0.17E-03    0.16E-04    0.17E-06
   0     10    11.376    51.690    0.45E-04    0.60E-04    0.21E-06
   0     10    11.376    30.015    0.37E-04    0.55E-04    0.19E-06
   1     10    11.376    18.849    0.83E-04    0.11E-03    0.92E-07
   1     10    11.376    14.624    0.69E-04    0.92E-04    0.82E-07
 Optimization of the real space projectors (new method)

 maximal supplied QI-value         = 24.76
 optimisation between [QCUT,QGAM] = [ 11.39, 22.77] = [ 36.31,145.25] Ry
 Optimized for a Real-space Cutoff    1.10 Angstroem

   l    n(q)    QCUT    max X(q) W(low)/X(q) W(high)/X(q)  e(spline)
   0      7    11.387    20.381    0.22E-03    0.48E-03    0.18E-06
   0      7    11.387    15.268    0.22E-03    0.52E-03    0.19E-06
   1      7    11.387     5.964    0.22E-03    0.73E-03    0.24E-06
   1      7    11.387     5.382    0.19E-03    0.60E-03    0.21E-06

  PAW_PBE Li_sv 10Sep2004               :
  PAW_PBE Ni 02Aug2007                  :
  PAW_PBE O 08Apr2002                   :

 POSCAR: Li2NiBO4.cif
  positions in direct lattice
 exchange correlation table for  LEXCH =       14
   RHO(1)=    0.500       N(1)  =     2000
   RHO(2)=  100.500       N(2)  =     4000

 ion  position               nearest neighbor table
   1  0.902  0.847  0.704-  18 1.89  17 1.93  29 2.05  21 2.11   9 2.75
   2  0.098  0.347  0.796-  17 1.89  18 1.93  30 2.05  22 2.11  10 2.75
   3  0.098  0.153  0.296-  20 1.89  19 1.93  31 2.05  23 2.11  11 2.75
   4  0.902  0.653  0.204-  19 1.89  20 1.93  32 2.05  24 2.11  12 2.75
   5  0.742  0.688  0.913-  29 1.89  25 1.94  18 1.95  24 1.97
   6  0.258  0.188  0.587-  30 1.89  26 1.94  17 1.95  23 1.97
   7  0.258  0.312  0.087-  31 1.89  27 1.94  20 1.95  22 1.97
   8  0.742  0.812  0.413-  32 1.89  28 1.94  19 1.95  21 1.97
   9  0.508  0.661  0.661-  30 1.82  26 1.82  29 1.83  21 1.85   1 2.75  13 2.99
  10  0.492  0.161  0.839-  29 1.82  25 1.82  30 1.83  22 1.85   2 2.75  14 2.99
  11  0.492  0.339  0.339-  32 1.82  28 1.82  31 1.83  23 1.85   3 2.75  15 2.99
  12  0.508  0.839  0.161-  31 1.82  27 1.82  32 1.83  24 1.85   4 2.75  16 2.99
  13  0.830  0.290  0.545-  17 1.70  28 1.74  21 1.80   9 2.99
  14  0.170  0.790  0.955-  18 1.70  27 1.74  22 1.80  10 2.99
  15  0.170  0.710  0.455-  19 1.70  26 1.74  23 1.80  11 2.99
  16  0.830  0.210  0.045-  20 1.70  25 1.74  24 1.80  12 2.99
  17  0.971  0.211  0.662-  13 1.70   2 1.89   1 1.93   6 1.95
  18  0.029  0.711  0.838-  14 1.70   1 1.89   2 1.93   5 1.95
  19  0.029  0.789  0.338-  15 1.70   4 1.89   3 1.93   8 1.95
  20  0.971  0.289  0.162-  16 1.70   3 1.89   4 1.93   7 1.95
  21  0.761  0.636  0.569-  13 1.80   9 1.85   8 1.97   1 2.11
  22  0.239  0.136  0.931-  14 1.80  10 1.85   7 1.97   2 2.11
  23  0.239  0.364  0.431-  15 1.80  11 1.85   6 1.97   3 2.11
  24  0.761  0.864  0.069-  16 1.80  12 1.85   5 1.97   4 2.11
  25  0.694  0.308  0.924-  16 1.74  10 1.82   5 1.94
  26  0.306  0.808  0.576-  15 1.74   9 1.82   6 1.94
  27  0.306  0.692  0.076-  14 1.74  12 1.82   7 1.94
  28  0.694  0.192  0.424-  13 1.74  11 1.82   8 1.94
  29  0.603  0.844  0.787-  10 1.82   9 1.83   5 1.89   1 2.05
  30  0.397  0.344  0.713-   9 1.82  10 1.83   6 1.89   2 2.05
  31  0.397  0.156  0.213-  12 1.82  11 1.83   7 1.89   3 2.05
  32  0.603  0.656  0.287-  11 1.82  12 1.83   8 1.89   4 2.05

  LATTYP: Found a simple monoclinic cell.
 ALAT       =    13.3371497915
 B/A-ratio  =     0.3761794685
 C/A-ratio  =     1.7858614355
 COS(beta)  =    -0.9746096847

  Lattice vectors:

 A1 = (  -7.2600230900,   0.0000000000, -11.1880127500)
 A2 = (   0.0000000000,  -5.0171619200,   0.0000000000)
 A3 = (   8.1624118900,   0.0000000000,  22.3760255000)

Analysis of symmetry for initial positions (statically):
 Subroutine PRICEL returns:
 Original cell was already a primitive cell.

 Routine SETGRP: Setting up the symmetry group for a
 simple monoclinic supercell.

 Subroutine GETGRP returns: Found  4 space group operations
 (whereof  2 operations were pure point group operations)
 out of a pool of  4 trial point group operations.

The static configuration has the point symmetry S_2 .
 The point group associated with its full space group is C_2h.

Analysis of symmetry for dynamics (positions and initial velocities):
 Subroutine PRICEL returns:
 Original cell was already a primitive cell.

[...]

The dynamic configuration has the point symmetry S_2 .
 The point group associated with its full space group is C_2h.

Analysis of structural, dynamic, and magnetic symmetry:
 Subroutine PRICEL returns:
 Original cell was already a primitive cell.

 Routine SETGRP: Setting up the symmetry group for a
 simple monoclinic supercell.

 Subroutine GETGRP returns: Found  4 space group operations
 (whereof  2 operations were pure point group operations)
 out of a pool of  4 trial point group operations.

The magnetic configuration has the point symmetry S_2 .
 The point group associated with its full space group is C_2h.

 Subroutine INISYM returns: Found  4 space group operations
 (whereof  2 operations are pure point group operations),
 and found     1 'primitive' translations

 KPOINTS: Automatic mesh

Automatic generation of k-mesh.
Space group operators:
 irot       det(A)        alpha          n_x          n_y          n_z        tau_x        tau_y        tau_z
    1     1.000000     0.000000     1.000000     0.000000     0.000000     0.000000     0.000000     0.000000
    2    -1.000000     0.000000     1.000000     0.000000     0.000000     0.000000     0.000000     0.000000
    3     1.000000   179.999999     0.000000     1.000000     0.000000    -0.000000    -0.500000     0.500000
    4    -1.000000   179.999999     0.000000     1.000000     0.000000    -0.000000    -0.500000     0.500000

 Subroutine IBZKPT returns following result:

 Found      1 irreducible k-points:

 Following reciprocal coordinates:
            Coordinates               Weight
  0.000000  0.000000  0.000000      1.000000

 Following cartesian coordinates:
            Coordinates               Weight
  0.000000  0.000000  0.000000      1.000000

 SYSTEM =  unknown system
 POSCAR =  Li2NiBO4.cif

 Startparameter for this run:
   NWRITE =      1    write-flag & timer
   PREC   = accura    normal or accurate (medium, high low for compatibility)
   ISTART =      0    job   : 0-new  1-cont  2-samecut
   ICHARG =      2    charge: 1-file 2-atom 10-const
   ISPIN  =      2    spin polarized calculation?
   LNONCOLLINEAR =      F non collinear calculations
   LSORBIT =      F    spin-orbit coupling
   INIWAV =      1    electr: 0-lowe 1-rand  2-diag
   LASPH  =      F    aspherical Exc in radial PAW
   METAGGA=      F    non-selfconsistent MetaGGA calc.

 Electronic Relaxation 1
   ENCUT  =  500.0 eV  36.75 Ry    6.06 a.u.  11.59  9.15 20.46*2*pi/ulx,y,z
   ENINI  =  500.0     initial cutoff
   ENAUG  =  628.9 eV  augmentation charge cutoff
   NELM   =     80;   NELMIN=  2; NELMDL= -5     # of ELM steps
   EDIFF  = 0.1E-04   stopping-criterion for ELM
   LREAL  =      T    real-space projection
   NLSPLINE    = F    spline interpolate recip. space projectors
   LCOMPAT=      F    compatible to vasp.4.4
   GGA_COMPAT  = T    GGA compatible to vasp.4.4-vasp.4.6
   LMAXPAW     = -100 max onsite density
   LMAXMIX     =    2 max onsite mixed and CHGCAR
   VOSKOWN=      1    Vosko Wilk Nusair interpolation
   ROPT   =   -0.00025  -0.00025  -0.00025
 Ionic relaxation
   EDIFFG = 0.1E-03   stopping-criterion for IOM
   NSW    =      0    number of steps for IOM
   NBLOCK =      1;   KBLOCK =      1    inner block; outer block
   IBRION =     -1    ionic relax: 0-MD 1-quasi-New 2-CG
   NFREE  =      0    steps in history (QN), initial steepest desc. (CG)
   ISIF   =      2    stress and relaxation
   IWAVPR =     10    prediction:  0-non 1-charg 2-wave 3-comb
   ISYM   =      2    0-nonsym 1-usesym 2-fastsym
   LCORR  =      T    Harris-Foulkes like correction to forces

   POTIM  = 0.5000    time-step for ionic-motion
   TEIN   =    0.0    initial temperature
   TEBEG  =    0.0;   TEEND  =   0.0 temperature during run
   SMASS  =  -3.00    Nose mass-parameter (am)
   estimated Nose-frequenzy (Omega)   =  0.10E-29 period in steps =****** mass=  -0.924E-27a.u.
   SCALEE = 1.0000    scale energy and forces
   NPACO  =    256;   APACO  = 16.0  distance and # of slots for P.C.
   PSTRESS=    0.0 pullay stress

  Mass of Ions in am
   POMASS =   7.01 58.69 16.00
  Ionic Valenz
   ZVAL   =   3.00 10.00  6.00
  Atomic Wigner-Seitz radii
  virtual crystal weights
   VCA    =   1.00  1.00  1.00
   NELECT =     200.0000    total number of electrons
   NUPDOWN=      -1.0000    fix difference up-down

 DOS related values:
   EMIN   =  10.00;   EMAX   =-10.00  energy-range for DOS
   EFERMI =   0.00
   ISMEAR =     0;   SIGMA  =   0.05  broadening in eV -4-tet -1-fermi 0-gaus

 Electronic relaxation 2 (details)
   IALGO  =     38    algorithm
   LDIAG  =      T    sub-space diagonalisation (order eigenvalues)
   LSUBROT=      F    optimize rotation matrix (better conditioning)
   TURBO    =      0    0=normal 1=particle mesh
   IRESTART =      0    0=no restart 2=restart with 2 vectors
   NREBOOT  =      0    no. of reboots
   NMIN     =      0    reboot dimension
   EREF     =   0.00    reference energy to select bands
   IMIX   =      4    mixing-type and parameters
     AMIX     =   0.40;   BMIX     =  1.00
     AMIX_MAG =   1.60;   BMIX_MAG =  1.00
     AMIN     =   0.10
     WC   =   100.;   INIMIX=   1;  MIXPRE=   1;  MAXMIX= -45

 Intra band minimization:
   WEIMIN = 0.0000     energy-eigenvalue tresh-hold
   EBREAK =  0.20E-07  absolut break condition
   DEPER  =   0.30     relativ break condition

   TIME   =   0.40     timestep for ELM

  volume/ion in A,a.u.               =      11.15        75.26
  Fermi-wavevector in a.u.,A,eV,Ry     =   1.349737  2.550634 24.786973  1.821791
[...]
     31      -3.0934      1.00000
     32      -2.9996      1.00000
     33      -2.9687      1.00000
     34      -2.9614      1.00000
     35      -2.9207      1.00000
     36      -2.8364      1.00000
     37      -2.7758      1.00000
     38      -2.7169      1.00000
     39      -2.6550      1.00000
     40      -2.5385      1.00000
     41      -2.4401      1.00000
     42      -2.3954      1.00000
     43      -2.3191      1.00000
     44      -2.2711      1.00000
     45      -2.2369      1.00000
     46      -2.2121      1.00000
     47      -2.1556      1.00000
     48      -2.0762      1.00000
     49      -2.0112      1.00000
     50      -1.9948      1.00000
     51      -1.9692      1.00000
     52      -1.9564      1.00000
     53      -1.7767      1.00000
     54      -1.7403      1.00000
     55      -1.5302      1.00000
     56      -1.5124      1.00000
     57      -1.3747      1.00000
     58      -1.2960      1.00000
     59      -1.1645      1.00000
     60      -1.1373      1.00000
[...]
    114       7.4009      0.00000
    115       7.8540      0.00000
    116       8.7227      0.00000
    117       9.0788      0.00000
    118       9.4734      0.00000
    119      10.0280      0.00000
    120      10.0374      0.00000
    121      10.3066      0.00000
    122      10.5656      0.00000
    123      10.5816      0.00000
    124      10.9137      0.00000
    125      11.0278      0.00000
    126      11.4233      0.00000
    127      11.6477      0.00000
    128      11.7276      0.00000

 spin component 2

 k-point     1 :       0.0000    0.0000    0.0000
  band No.  band energies     occupation
      1     -40.4726      1.00000
      2     -40.4722      1.00000
      3     -40.4603      1.00000
      4     -40.4601      1.00000
      5     -40.3660      1.00000
      6     -40.3655      1.00000
      7     -40.3648      1.00000
      8     -40.3647      1.00000
      9     -16.0295      1.00000
     10     -15.8244      1.00000
     11     -15.7764      1.00000
     12     -15.5343      1.00000
     13     -15.4980      1.00000
     14     -15.4254      1.00000
     15     -15.3607      1.00000
     16     -15.3593      1.00000
     17     -15.2985      1.00000
     18     -15.2134      1.00000
     19     -15.2020      1.00000
     20     -15.1901      1.00000
     21     -14.4858      1.00000
     22     -14.4415      1.00000
     23     -14.4188      1.00000
     24     -14.3998      1.00000
     25      -3.6491      1.00000
     26      -3.5538      1.00000
     27      -3.4949      1.00000
     28      -3.4738      1.00000
     29      -3.2813      1.00000
     30      -3.2038      1.00000
     31      -2.8974      1.00000
     32      -2.8494      1.00000
     33      -2.8119      1.00000
     34      -2.8036      1.00000
     35      -2.7290      1.00000
     36      -2.5904      1.00000
     37      -2.5078      1.00000
     38      -2.4998      1.00000
     39      -2.4125      1.00000
     40      -2.3475      1.00000
     41      -2.2874      1.00000
     42      -2.2410      1.00000
     43      -2.1823      1.00000
     44      -2.0043      1.00000
     45      -1.9923      1.00000
     46      -1.9761      1.00000
     47      -1.9017      1.00000
     48      -1.8875      1.00000
     49      -1.8080      1.00000
     50      -1.6293      1.00000
     51      -1.6026      1.00000
     52      -1.5850      1.00000
     53      -1.4941      1.00000
     54      -1.1927      1.00000
     55      -1.1645      1.00000
     56      -1.1037      1.00000
     57      -1.0883      1.00000
     58      -1.0632      1.00000
     59      -0.8406      1.00000
     60      -0.7530      1.00000
[...]
    114       7.6488      0.00000
    115       7.9562      0.00000
    116       8.8460      0.00000
    117       9.1873      0.00000
    118       9.5978      0.00000
    119      10.1736      0.00000
    120      10.1849      0.00000
    121      10.4656      0.00000
    122      10.6809      0.00000
    123      10.8119      0.00000
    124      10.9953      0.00000
    125      11.1273      0.00000
    126      11.5063      0.00000
    127      11.7302      0.00000
    128      11.7618      0.00000

 soft charge-density along one line, spin component           1
         0         1         2         3         4         5         6         7         8         9
 total charge-density along one line

 soft charge-density along one line, spin component           2
         0         1         2         3         4         5         6         7         8         9
 total charge-density along one line

------------------------ aborting loop because EDIFF is reached ----------------------------------------

  FORCE on cell =-STRESS in cart. coord.  units (eV):
  Direction    XX          YY          ZZ          XY          YZ          ZX
  Alpha Z   470.72233   470.72233   470.72233
  Ewald   -3821.80105 -3760.78535 -3519.55859    -0.00000    -0.00000  1231.31628
  Hartree  1787.00922  1826.96192  1916.28477    -0.00000    -0.00000   604.28602
  E(xc)   -1005.72297 -1005.47995 -1005.53120     0.00000    -0.00000     0.88394
  Local   -1571.64945 -1654.06994 -1979.83492    -0.00000    -0.00000 -1749.75894
  n-local  -538.45801  -541.78192  -536.83870     0.00000     0.00000     8.15055
  augment  1651.51881  1648.31910  1634.69958    -0.00000     0.00000   -43.90952
  Kinetic  3019.12959  3015.04683  3011.85287    -0.00000     0.00000   -53.45069
  Fock        0.00000     0.00000     0.00000     0.00000     0.00000     0.00000
  Total       -9.2515305     -1.0669780     -8.2038552      0.0000000      0.0000000     -2.4823604
  in kB      -41.5353196     -4.7902636    -36.8317164      0.0000000      0.0000000    -11.1447106

 VOLUME and BASIS-vectors are now :
  energy-cutoff  :      500.00
  volume of cell :      356.87
      direct lattice vectors                 reciprocal lattice vectors
     6.357634290  0.000000000  0.000000000     0.157291212  0.000000000 -0.012686599
     0.000000000  5.017161920  0.000000000     0.000000000  0.199315871  0.000000000
     0.902388800  0.000000000 11.188012750     0.000000000  0.000000000  0.089381378

  length of vectors
     6.357634290  5.017161920 11.224345631     0.157802012  0.199315871  0.089381378

 FORCES acting on ions
    electron-ion (+dipol)            ewald-force                    non-local-force                 convergence-correction
   -.361E+02 0.429E+01 0.524E+01   0.363E+02 -.349E+01 -.438E+01   -.107E+00 -.900E+00 -.947E+00   -.461E-02 -.120E-04 0.102E-02
   0.361E+02 0.429E+01 -.524E+01   -.363E+02 -.349E+01 0.438E+01   0.107E+00 -.900E+00 0.947E+00   0.461E-02 -.120E-04 -.102E-02
   0.361E+02 -.429E+01 -.524E+01   -.363E+02 0.349E+01 0.438E+01   0.107E+00 0.900E+00 0.947E+00   0.461E-02 0.120E-04 -.102E-02
   -.361E+02 -.429E+01 0.524E+01   0.363E+02 0.349E+01 -.438E+01   -.107E+00 0.900E+00 -.947E+00   -.461E-02 0.120E-04 0.102E-02
   0.480E+01 0.136E+02 -.925E+00   -.404E+01 -.137E+02 0.519E+00   -.632E+00 0.135E+00 0.478E+00   -.513E-02 0.169E-02 -.238E-02
   -.480E+01 0.136E+02 0.925E+00   0.404E+01 -.137E+02 -.519E+00   0.632E+00 0.135E+00 -.478E+00   0.513E-02 0.169E-02 0.238E-02
   -.480E+01 -.136E+02 0.925E+00   0.404E+01 0.137E+02 -.519E+00   0.632E+00 -.135E+00 -.478E+00   0.513E-02 -.169E-02 0.238E-02
   0.480E+01 -.136E+02 -.925E+00   -.404E+01 0.137E+02 0.519E+00   -.632E+00 -.135E+00 0.478E+00   -.513E-02 -.169E-02 -.238E-02
   0.335E+02 -.418E+02 -.334E+01   -.336E+02 0.415E+02 0.398E+01   -.292E+00 -.883E-02 -.131E+00   -.252E-02 -.253E-02 0.191E-01
   -.335E+02 -.418E+02 0.334E+01   0.336E+02 0.415E+02 -.398E+01   0.292E+00 -.883E-02 0.131E+00   0.252E-02 -.253E-02 -.191E-01
   -.335E+02 0.418E+02 0.334E+01   0.336E+02 -.415E+02 -.398E+01   0.292E+00 0.883E-02 0.131E+00   0.252E-02 0.253E-02 -.191E-01
   0.335E+02 0.418E+02 -.334E+01   -.336E+02 -.415E+02 0.398E+01   -.292E+00 0.883E-02 -.131E+00   -.252E-02 0.253E-02 0.191E-01
   -.479E+02 0.116E+03 0.206E+02   0.477E+02 -.112E+03 -.182E+02   -.174E+00 -.240E+01 -.273E+01   -.118E-01 0.597E-05 0.304E-02
   0.479E+02 0.116E+03 -.206E+02   -.477E+02 -.112E+03 0.182E+02   0.174E+00 -.240E+01 0.273E+01   0.118E-01 0.597E-05 -.304E-02
   0.479E+02 -.116E+03 -.206E+02   -.477E+02 0.112E+03 0.182E+02   0.174E+00 0.240E+01 0.273E+01   0.118E-01 -.597E-05 -.304E-02
   -.479E+02 -.116E+03 0.206E+02   0.477E+02 0.112E+03 -.182E+02   -.174E+00 0.240E+01 -.273E+01   -.118E-01 -.597E-05 0.304E-02
   -.833E+02 0.436E+02 -.153E+03   0.901E+02 -.447E+02 0.166E+03   -.684E+01 0.682E+00 -.132E+02   -.499E-02 0.170E-02 -.428E-03
   0.833E+02 0.436E+02 0.153E+03   -.901E+02 -.447E+02 -.166E+03   0.684E+01 0.682E+00 0.132E+02   0.499E-02 0.170E-02 0.428E-03
   0.833E+02 -.436E+02 0.153E+03   -.901E+02 0.447E+02 -.166E+03   0.684E+01 -.682E+00 0.132E+02   0.499E-02 -.170E-02 0.428E-03
   -.833E+02 -.436E+02 -.153E+03   0.901E+02 0.447E+02 0.166E+03   -.684E+01 -.682E+00 -.132E+02   -.499E-02 -.170E-02 -.428E-03
   -.858E+02 -.135E+03 0.362E+02   0.942E+02 0.147E+03 -.407E+02   -.835E+01 -.118E+02 0.464E+01   -.141E-01 -.169E-02 0.821E-02
   0.858E+02 -.135E+03 -.362E+02   -.942E+02 0.147E+03 0.407E+02   0.835E+01 -.118E+02 -.464E+01   0.141E-01 -.169E-02 -.821E-02
   0.858E+02 0.135E+03 -.362E+02   -.942E+02 -.147E+03 0.407E+02   0.835E+01 0.118E+02 -.464E+01   0.141E-01 0.169E-02 -.821E-02
   -.858E+02 0.135E+03 0.362E+02   0.942E+02 -.147E+03 -.407E+02   -.835E+01 0.118E+02 0.464E+01   -.141E-01 0.169E-02 0.821E-02
   -.324E+02 -.113E+03 0.607E+02   0.334E+02 0.121E+03 -.672E+02   -.136E+01 -.794E+01 0.668E+01   -.149E-01 -.814E-02 -.600E-02
   0.324E+02 -.113E+03 -.607E+02   -.334E+02 0.121E+03 0.672E+02   0.136E+01 -.794E+01 -.668E+01   0.149E-01 -.814E-02 0.600E-02
   0.324E+02 0.113E+03 -.607E+02   -.334E+02 -.121E+03 0.672E+02   0.136E+01 0.794E+01 -.668E+01   0.149E-01 0.814E-02 0.600E-02
   -.324E+02 0.113E+03 0.607E+02   0.334E+02 -.121E+03 -.672E+02   -.136E+01 0.794E+01 0.668E+01   -.149E-01 0.814E-02 -.600E-02
   -.104E+03 0.504E+02 -.530E+02   0.110E+03 -.543E+02 0.580E+02   -.675E+01 0.447E+01 -.571E+01   -.156E-01 0.454E-02 -.713E-02
   0.104E+03 0.504E+02 0.530E+02   -.110E+03 -.543E+02 -.580E+02   0.675E+01 0.447E+01 0.571E+01   0.156E-01 0.454E-02 0.713E-02
   0.104E+03 -.504E+02 0.530E+02   -.110E+03 0.543E+02 -.580E+02   0.675E+01 -.447E+01 0.571E+01   0.156E-01 -.454E-02 0.713E-02
   -.104E+03 -.504E+02 -.530E+02   0.110E+03 0.543E+02 0.580E+02   -.675E+01 -.447E+01 -.571E+01   -.156E-01 -.454E-02 -.713E-02
   0.114E-10 -.757E-11 0.852E-10   0.000E+00 0.107E-12 -.199E-12   -.266E-14 -.711E-14 0.888E-15   -.118E-12 0.712E-12 -.337E-12

 POSITION                                       TOTAL-FORCE (eV/Angst)
      6.36941      4.25035      7.87319         0.024003     -0.108408     -0.093054
      1.34181      1.74177      8.90883        -0.024003     -0.108408      0.093054
      0.89062      0.76681      3.31482        -0.024003      0.108408      0.093054
      5.91821      3.27539      2.27918         0.024003      0.108408     -0.093054
      5.54034      3.45390     10.21556         0.130860      0.064776      0.069356
      2.17087      0.94532      6.56646        -0.130860      0.064776     -0.069356
      1.71968      1.56326      0.97245        -0.130860     -0.064776     -0.069356
      5.08915      4.07184      4.62156         0.130860     -0.064776      0.069356
      3.82945      3.31451      7.40080        -0.358787     -0.365512      0.531118
      3.88176      0.80593      9.38122         0.358787     -0.365512     -0.531118
      3.43057      1.70265      3.78721         0.358787      0.365512     -0.531118
      3.37826      4.21123      1.80679        -0.358787      0.365512      0.531118
      5.76820      1.45534      6.09810        -0.374496      0.691350     -0.273069
      1.94301      3.96392     10.68392         0.374496      0.691350      0.273069
      1.49182      3.56182      5.08991         0.374496     -0.691350      0.273069
      5.31701      1.05324      0.50410        -0.374496     -0.691350     -0.273069
      6.77045      1.06086      7.41175        -0.042198     -0.475826     -0.028739
      0.94077      3.56944      9.37027         0.042198     -0.475826      0.028739
      0.48957      3.95631      3.77627         0.042198      0.475826      0.028739
      6.31926      1.44773      1.81774        -0.042198      0.475826     -0.028739
      5.35217      3.19046      6.36090        -0.030148      0.036943      0.089524
      2.35905      0.68188     10.42112         0.030148      0.036943     -0.089524
      1.90785      1.82671      4.82712         0.030148     -0.036943     -0.089524
      4.90097      4.33529      0.76689        -0.030148     -0.036943      0.089524
      5.24679      1.54446     10.34034        -0.355780     -0.101532      0.148322
      2.46443      4.05304      6.44168         0.355780     -0.101532     -0.148322
      2.01324      3.47270      0.84767         0.355780      0.101532     -0.148322
      4.79559      0.96412      4.74633        -0.355780      0.101532      0.148322
      4.54535      4.23308      8.80873        -1.110794      0.532436     -0.757844
      3.16587      1.72450      7.97329         1.110794      0.532436      0.757844
      2.71467      0.78408      2.37928         1.110794     -0.532436      0.757844
      4.09416      3.29266      3.21473        -1.110794     -0.532436     -0.757844
    total drift:                                0.000000     -0.000000      0.000000

  FREE ENERGIE OF THE ION-ELECTRON SYSTEM (eV)
  free  energy   TOTEN  =      -181.7850411180 eV

  energy  without entropy=     -181.7776048817  energy(sigma->0) =     -181.78132300

volume of typ            1:    17.5 %

[...]

volume of typ            3:     7.3 %

total charge

# of ion       s       p       d       tot
    1        2.093   0.298   0.106   2.496
    2        2.093   0.298   0.106   2.496
    3        2.093   0.298   0.106   2.496
    4        2.093   0.298   0.106   2.496
    5        2.111   0.344   0.120   2.576
    6        2.111   0.344   0.120   2.576
    7        2.111   0.344   0.120   2.576
    8        2.111   0.344   0.120   2.576
    9        0.278   0.329   7.851   8.459
   10        0.278   0.329   7.851   8.459
   11        0.278   0.329   7.851   8.459
   12        0.278   0.329   7.851   8.459
   13        0.324   0.350   7.847   8.521
   14        0.324   0.350   7.847   8.521
   15        0.324   0.350   7.847   8.521
   16        0.324   0.350   7.847   8.521
   17        1.256   2.801   0.005   4.062
   18        1.256   2.801   0.005   4.062
   19        1.256   2.801   0.005   4.062
   20        1.256   2.801   0.005   4.062
   21        1.267   2.760   0.006   4.033
   22        1.267   2.760   0.006   4.033
   23        1.267   2.760   0.006   4.033
   24        1.267   2.760   0.006   4.033
   25        1.262   2.770   0.008   4.040
   26        1.262   2.770   0.008   4.040
   27        1.262   2.770   0.008   4.040
   28        1.262   2.770   0.008   4.040
   29        1.262   2.772   0.006   4.040
   30        1.262   2.772   0.006   4.040
   31        1.262   2.772   0.006   4.040
   32        1.262   2.772   0.006   4.040
tot          39.41   49.70   63.80  152.91

magnetization (x)

# of ion       s       p       d       tot
    1        0.003   0.009   0.004   0.016
    2        0.003   0.009   0.004   0.016
    3        0.003   0.009   0.004   0.016
    4        0.003   0.009   0.004   0.016
    5        0.002   0.009   0.002   0.013
    6        0.002   0.009   0.002   0.013
    7        0.002   0.009   0.002   0.013
    8        0.002   0.009   0.002   0.013
    9        0.001   0.002   0.015   0.017
   10        0.001   0.002   0.015   0.017
   11        0.001   0.002   0.015   0.017
   12        0.001   0.002   0.015   0.017
   13       -0.000   0.009   0.897   0.906
   14       -0.000   0.009   0.897   0.906
   15       -0.000   0.009   0.897   0.906
   16       -0.000   0.009   0.897   0.906
   17        0.004   0.179   0.000   0.183
   18        0.004   0.179   0.000   0.183
   19        0.004   0.179   0.000   0.183
   20        0.004   0.179   0.000   0.183
   21        0.006   0.071   0.000   0.077
   22        0.006   0.071   0.000   0.077
   23        0.006   0.071   0.000   0.077
   24        0.006   0.071   0.000   0.077
   25        0.003   0.160   0.000   0.163
   26        0.003   0.160   0.000   0.163
   27        0.003   0.160   0.000   0.163
   28        0.003   0.160   0.000   0.163
   29       -0.000  -0.022   0.000  -0.022
   30       -0.000  -0.022   0.000  -0.022
   31       -0.000  -0.022   0.000  -0.022
   32       -0.000  -0.022   0.000  -0.022
tot           0.07    1.67    3.68    5.41