 vasp.5.4.4.18Apr17-6-g9f103f2a35 (build May 12 2020 05:39:39) gamma-only

 MD_VERSION_INFO: Compiled 2020-05-12T12:39:39-UTC in devlin.sd.materialsdesign.
 com:/home/medea2/data/build/wwolf/vasp-gpu5.4.4/13047/x86_64/src/src/build/gam
 from svn 13047

 executed on                        Lin64 date 2023.03.14  17:57:50

 INCAR:
 POTCAR:    PAW_PBE Li_sv 10Sep2004
 POTCAR:    PAW_PBE Ni 02Aug2007
 POTCAR:    PAW_PBE O 08Apr2002

 POTCAR:    PAW_PBE Li_sv 10Sep2004

 POTCAR:    PAW_PBE Ni 02Aug2007

 POTCAR:    PAW_PBE O 08Apr2002

 Optimization of the real space projectors (new method)

 maximal supplied QI-value         = 22.11
 optimisation between [QCUT,QGAM] = [ 11.28, 22.77] = [ 35.61,145.23] Ry
 Optimized for a Real-space Cutoff    1.10 Angstroem

   l    n(q)    QCUT    max X(q) W(low)/X(q) W(high)/X(q)  e(spline)
   0      7    11.276    10.506    0.54E-04    0.58E-04    0.16E-07
   0      7    11.276     8.367    0.11E-03    0.14E-03    0.35E-07
   1      7    11.276     8.983    0.23E-03    0.43E-03    0.86E-07
 Optimization of the real space projectors (new method)

[...]

   l    n(q)    QCUT    max X(q) W(low)/X(q) W(high)/X(q)  e(spline)
   2      9    11.376    60.317    0.17E-03    0.16E-04    0.16E-06
   2      9    11.376    55.921    0.17E-03    0.16E-04    0.17E-06
   0     10    11.376    51.690    0.45E-04    0.60E-04    0.21E-06
   0     10    11.376    30.015    0.37E-04    0.55E-04    0.19E-06
   1     10    11.376    18.849    0.83E-04    0.11E-03    0.92E-07
   1     10    11.376    14.624    0.69E-04    0.92E-04    0.82E-07
 Optimization of the real space projectors (new method)

 maximal supplied QI-value         = 24.76
 optimisation between [QCUT,QGAM] = [ 11.39, 22.77] = [ 36.31,145.25] Ry
 Optimized for a Real-space Cutoff    1.10 Angstroem

   l    n(q)    QCUT    max X(q) W(low)/X(q) W(high)/X(q)  e(spline)
   0      7    11.387    20.381    0.22E-03    0.48E-03    0.18E-06
   0      7    11.387    15.268    0.22E-03    0.52E-03    0.19E-06
   1      7    11.387     5.964    0.22E-03    0.73E-03    0.24E-06
   1      7    11.387     5.382    0.19E-03    0.60E-03    0.21E-06

  PAW_PBE Li_sv 10Sep2004               :
  PAW_PBE Ni 02Aug2007                  :
  PAW_PBE O 08Apr2002                   :

 POSCAR: Li2AlNiO4.cif_1
  positions in direct lattice
 exchange correlation table for  LEXCH =       14
   RHO(1)=    0.500       N(1)  =     2000
   RHO(2)=  100.500       N(2)  =     4000

 ion  position               nearest neighbor table
   1  0.333  0.668  0.984-  19 1.91  27 1.92  30 1.92  21 1.96
   2  0.667  0.168  0.516-  20 1.91  28 1.92  29 1.92  22 1.96
   3  0.667  0.332  0.016-  17 1.91  25 1.92  32 1.92  23 1.96
   4  0.333  0.832  0.484-  18 1.91  26 1.92  31 1.92  24 1.96
   5  0.535  0.422  0.760-  23 1.92  30 1.92  20 1.93  25 2.14  14 2.66
   6  0.465  0.922  0.740-  24 1.92  29 1.92  19 1.93  26 2.14  13 2.66
   7  0.465  0.578  0.240-  21 1.92  32 1.92  18 1.93  27 2.14  16 2.66
   8  0.535  0.078  0.260-  22 1.92  31 1.92  17 1.93  28 2.14  15 2.66
   9  0.914  0.085  0.761-  26 1.83  17 1.83  29 1.84  22 1.86  14 3.05
  10  0.086  0.585  0.739-  25 1.83  18 1.83  30 1.84  21 1.86  13 3.05
  11  0.086  0.915  0.239-  28 1.83  19 1.83  31 1.84  24 1.86  16 3.05
  12  0.914  0.415  0.261-  27 1.83  20 1.83  32 1.84  23 1.86  15 3.05
  13  0.838  0.830  0.986-  21 1.83  26 1.84  31 1.86  19 1.86   6 2.66  10 3.05
  14  0.162  0.330  0.514-  22 1.83  25 1.84  32 1.86  20 1.86   5 2.66   9 3.05
  15  0.162  0.170  0.014-  23 1.83  28 1.84  29 1.86  17 1.86   8 2.66  12 3.05
  16  0.838  0.670  0.486-  24 1.83  27 1.84  30 1.86  18 1.86   7 2.66  11 3.05
  17  0.813  0.165  0.994-   9 1.83  15 1.86   3 1.91   8 1.93
  18  0.187  0.665  0.506-  10 1.83  16 1.86   4 1.91   7 1.93
  19  0.187  0.835  0.006-  11 1.83  13 1.86   1 1.91   6 1.93
  20  0.813  0.335  0.494-  12 1.83  14 1.86   2 1.91   5 1.93
  21  0.727  0.669  0.979-  13 1.83  10 1.86   7 1.92   1 1.96
  22  0.273  0.169  0.521-  14 1.83   9 1.86   8 1.92   2 1.96
  23  0.273  0.331  0.021-  15 1.83  12 1.86   5 1.92   3 1.96
  24  0.727  0.831  0.479-  16 1.83  11 1.86   6 1.92   4 1.96
  25  0.965  0.422  0.756-  10 1.83  14 1.84   3 1.92   5 2.14
  26  0.035  0.922  0.744-   9 1.83  13 1.84   4 1.92   6 2.14
  27  0.035  0.578  0.244-  12 1.83  16 1.84   1 1.92   7 2.14
  28  0.965  0.078  0.256-  11 1.83  15 1.84   2 1.92   8 2.14
  29  0.536  0.093  0.773-   9 1.84  15 1.86   6 1.92   2 1.92
  30  0.464  0.593  0.727-  10 1.84  16 1.86   5 1.92   1 1.92
  31  0.464  0.907  0.227-  11 1.84  13 1.86   8 1.92   4 1.92
  32  0.536  0.407  0.273-  12 1.84  14 1.86   7 1.92   3 1.92

  LATTYP: Found a simple monoclinic cell.
 ALAT       =     8.0956983969
 B/A-ratio  =     1.3277564767
 C/A-ratio  =     1.6839650557
 COS(beta)  =    -0.9575661641

  Lattice vectors:

 A1 = (  -5.0511311300,   0.0000000000,  -6.3266426200)
 A2 = (   0.0000000000, -10.7491159800,   0.0000000000)
 A3 = (   5.0744068000,   0.0000000000,  12.6532852400)

Analysis of symmetry for initial positions (statically):
 Subroutine PRICEL returns:
 Original cell was already a primitive cell.

 Routine SETGRP: Setting up the symmetry group for a
 simple monoclinic supercell.

 Subroutine GETGRP returns: Found  4 space group operations
 (whereof  2 operations were pure point group operations)
 out of a pool of  4 trial point group operations.

The static configuration has the point symmetry S_2 .
 The point group associated with its full space group is C_2h.

Analysis of symmetry for dynamics (positions and initial velocities):
 Subroutine PRICEL returns:
 Original cell was already a primitive cell.

[...]

The dynamic configuration has the point symmetry S_2 .
 The point group associated with its full space group is C_2h.

Analysis of structural, dynamic, and magnetic symmetry:
 Subroutine PRICEL returns:
 Original cell was already a primitive cell.

 Routine SETGRP: Setting up the symmetry group for a
 simple monoclinic supercell.

 Subroutine GETGRP returns: Found  4 space group operations
 (whereof  2 operations were pure point group operations)
 out of a pool of  4 trial point group operations.

The magnetic configuration has the point symmetry S_2 .
 The point group associated with its full space group is C_2h.

 Subroutine INISYM returns: Found  4 space group operations
 (whereof  2 operations are pure point group operations),
 and found     1 'primitive' translations

 KPOINTS: Automatic mesh

Automatic generation of k-mesh.
Space group operators:
 irot       det(A)        alpha          n_x          n_y          n_z        tau_x        tau_y        tau_z
    1     1.000000     0.000000     1.000000     0.000000     0.000000     0.000000     0.000000     0.000000
    2    -1.000000     0.000000     1.000000     0.000000     0.000000     0.000000     0.000000     0.000000
    3     1.000000   180.000000     0.000000     1.000000     0.000000     0.000000    -0.500000    -0.500000
    4    -1.000000   180.000000     0.000000     1.000000     0.000000     0.000000    -0.500000    -0.500000

 Subroutine IBZKPT returns following result:

 Found      1 irreducible k-points:

 Following reciprocal coordinates:
            Coordinates               Weight
  0.000000  0.000000  0.000000      1.000000

 Following cartesian coordinates:
            Coordinates               Weight
  0.000000  0.000000  0.000000      1.000000

 SYSTEM =  unknown system
 POSCAR =  Li2AlNiO4.cif_1

 Startparameter for this run:
   NWRITE =      1    write-flag & timer
   PREC   = accura    normal or accurate (medium, high low for compatibility)
   ISTART =      0    job   : 0-new  1-cont  2-samecut
   ICHARG =      2    charge: 1-file 2-atom 10-const
   ISPIN  =      2    spin polarized calculation?
   LNONCOLLINEAR =      F non collinear calculations
   LSORBIT =      F    spin-orbit coupling
   INIWAV =      1    electr: 0-lowe 1-rand  2-diag
   LASPH  =      F    aspherical Exc in radial PAW
   METAGGA=      F    non-selfconsistent MetaGGA calc.

 Electronic Relaxation 1
   ENCUT  =  500.0 eV  36.75 Ry    6.06 a.u.   9.17 19.60 14.76*2*pi/ulx,y,z
   ENINI  =  500.0     initial cutoff
   ENAUG  =  628.9 eV  augmentation charge cutoff
   NELM   =     80;   NELMIN=  2; NELMDL= -5     # of ELM steps
   EDIFF  = 0.1E-04   stopping-criterion for ELM
   LREAL  =      T    real-space projection
   NLSPLINE    = F    spline interpolate recip. space projectors
   LCOMPAT=      F    compatible to vasp.4.4
   GGA_COMPAT  = T    GGA compatible to vasp.4.4-vasp.4.6
   LMAXPAW     = -100 max onsite density
   LMAXMIX     =    2 max onsite mixed and CHGCAR
   VOSKOWN=      1    Vosko Wilk Nusair interpolation
   ROPT   =   -0.00025  -0.00025  -0.00025
 Ionic relaxation
   EDIFFG = 0.1E-03   stopping-criterion for IOM
   NSW    =      0    number of steps for IOM
   NBLOCK =      1;   KBLOCK =      1    inner block; outer block
   IBRION =     -1    ionic relax: 0-MD 1-quasi-New 2-CG
   NFREE  =      0    steps in history (QN), initial steepest desc. (CG)
   ISIF   =      2    stress and relaxation
   IWAVPR =     10    prediction:  0-non 1-charg 2-wave 3-comb
   ISYM   =      2    0-nonsym 1-usesym 2-fastsym
   LCORR  =      T    Harris-Foulkes like correction to forces

   POTIM  = 0.5000    time-step for ionic-motion
   TEIN   =    0.0    initial temperature
   TEBEG  =    0.0;   TEEND  =   0.0 temperature during run
   SMASS  =  -3.00    Nose mass-parameter (am)
   estimated Nose-frequenzy (Omega)   =  0.10E-29 period in steps =****** mass=  -0.578E-27a.u.
   SCALEE = 1.0000    scale energy and forces
   NPACO  =    256;   APACO  = 16.0  distance and # of slots for P.C.
   PSTRESS=    0.0 pullay stress

  Mass of Ions in am
   POMASS =   7.01 58.69 16.00
  Ionic Valenz
   ZVAL   =   3.00 10.00  6.00
  Atomic Wigner-Seitz radii
  virtual crystal weights
   VCA    =   1.00  1.00  1.00
   NELECT =     200.0000    total number of electrons
   NUPDOWN=      -1.0000    fix difference up-down

 DOS related values:
   EMIN   =  10.00;   EMAX   =-10.00  energy-range for DOS
   EFERMI =   0.00
   ISMEAR =     0;   SIGMA  =   0.05  broadening in eV -4-tet -1-fermi 0-gaus

 Electronic relaxation 2 (details)
   IALGO  =     38    algorithm
   LDIAG  =      T    sub-space diagonalisation (order eigenvalues)
   LSUBROT=      F    optimize rotation matrix (better conditioning)
   TURBO    =      0    0=normal 1=particle mesh
   IRESTART =      0    0=no restart 2=restart with 2 vectors
   NREBOOT  =      0    no. of reboots
   NMIN     =      0    reboot dimension
   EREF     =   0.00    reference energy to select bands
   IMIX   =      4    mixing-type and parameters
     AMIX     =   0.40;   BMIX     =  1.00
     AMIX_MAG =   1.60;   BMIX_MAG =  1.00
     AMIN     =   0.10
     WC   =   100.;   INIMIX=   1;  MIXPRE=   1;  MAXMIX= -45

 Intra band minimization:
   WEIMIN = 0.0000     energy-eigenvalue tresh-hold
   EBREAK =  0.17E-07  absolut break condition
   DEPER  =   0.30     relativ break condition

   TIME   =   0.40     timestep for ELM

  volume/ion in A,a.u.               =      10.69        72.11
[...]
     31      -2.5594      1.00000
     32      -2.5159      1.00000
     33      -2.4646      1.00000
     34      -2.4302      1.00000
     35      -2.3902      1.00000
     36      -2.3496      1.00000
     37      -2.3163      1.00000
     38      -2.2676      1.00000
     39      -2.2620      1.00000
     40      -2.2421      1.00000
     41      -2.2271      1.00000
     42      -2.1545      1.00000
     43      -2.1031      1.00000
     44      -2.0752      1.00000
     45      -2.0521      1.00000
     46      -2.0206      1.00000
     47      -1.8581      1.00000
     48      -1.8544      1.00000
     49      -1.8298      1.00000
     50      -1.6543      1.00000
     51      -1.5960      1.00000
     52      -1.5210      1.00000
     53      -1.5184      1.00000
     54      -1.3970      1.00000
     55      -1.3325      1.00000
     56      -1.3292      1.00000
     57      -1.3259      1.00000
     58      -1.2804      1.00000
     59      -0.9115      1.00000
     60      -0.8894      1.00000
[...]
    130      12.5135      0.00000
    131      12.5944      0.00000
    132      12.8657      0.00000
    133      13.1427      0.00000
    134      13.2789      0.00000
    135      13.8577      0.00000
    136      13.8646      0.00000
    137      13.9101      0.00000
    138      14.2218      0.00000
    139      14.4064      0.00000
    140      14.5735      0.00000
    141      14.8049      0.00000
    142      14.8918      0.00000
    143      14.9056      0.00000
    144      14.9312      0.00000

 spin component 2

 k-point     1 :       0.0000    0.0000    0.0000
  band No.  band energies     occupation
      1     -40.1283      1.00000
      2     -40.1280      1.00000
      3     -40.1276      1.00000
      4     -40.1275      1.00000
      5     -39.8414      1.00000
      6     -39.8414      1.00000
      7     -39.8413      1.00000
      8     -39.8411      1.00000
      9     -15.4083      1.00000
     10     -15.1707      1.00000
     11     -15.1348      1.00000
     12     -14.8867      1.00000
     13     -14.8070      1.00000
     14     -14.7796      1.00000
     15     -14.7068      1.00000
     16     -14.6456      1.00000
     17     -14.5999      1.00000
     18     -14.5951      1.00000
     19     -14.5919      1.00000
     20     -14.5487      1.00000
     21     -14.5423      1.00000
     22     -14.5328      1.00000
     23     -14.4878      1.00000
     24     -14.4565      1.00000
     25      -2.9376      1.00000
     26      -2.8477      1.00000
     27      -2.4720      1.00000
     28      -2.3218      1.00000
     29      -2.2924      1.00000
     30      -2.1960      1.00000
     31      -2.1693      1.00000
     32      -2.1012      1.00000
     33      -1.9976      1.00000
     34      -1.9964      1.00000
     35      -1.8759      1.00000
     36      -1.8727      1.00000
     37      -1.8611      1.00000
     38      -1.8428      1.00000
     39      -1.8367      1.00000
     40      -1.7987      1.00000
     41      -1.7878      1.00000
     42      -1.6906      1.00000
     43      -1.6893      1.00000
     44      -1.6507      1.00000
     45      -1.6287      1.00000
     46      -1.5819      1.00000
     47      -1.4612      1.00000
     48      -1.4222      1.00000
     49      -1.3383      1.00000
     50      -1.2608      1.00000
     51      -1.1893      1.00000
     52      -1.0906      1.00000
     53      -1.0536      1.00000
     54      -0.9104      1.00000
     55      -0.9021      1.00000
     56      -0.7889      1.00000
     57      -0.7292      1.00000
     58      -0.7241      1.00000
     59      -0.5067      1.00000
     60      -0.4174      1.00000
[...]
    130      12.6885      0.00000
    131      12.7963      0.00000
    132      13.0893      0.00000
    133      13.2854      0.00000
    134      13.4328      0.00000
    135      13.9908      0.00000
    136      14.0443      0.00000
    137      14.0515      0.00000
    138      14.5135      0.00000
    139      14.6087      0.00000
    140      14.7432      0.00000
    141      15.0286      0.00000
    142      15.0715      0.00000
    143      15.0867      0.00000
    144      15.1019      0.00000

 soft charge-density along one line, spin component           1
         0         1         2         3         4         5         6         7         8         9
 total charge-density along one line

 soft charge-density along one line, spin component           2
         0         1         2         3         4         5         6         7         8         9
 total charge-density along one line

------------------------ aborting loop because EDIFF is reached ----------------------------------------

  FORCE on cell =-STRESS in cart. coord.  units (eV):
  Direction    XX          YY          ZZ          XY          YZ          ZX
  Alpha Z   491.29526   491.29526   491.29526
  Ewald   -3815.65054 -3580.34013 -3997.51443     0.00000     0.00000  -175.67481
  Hartree  1836.30774  1911.68745  1596.27252    -0.00000    -0.00000  -110.57544
  E(xc)   -1006.29144 -1005.95511 -1006.02922     0.00000     0.00000    -0.05200
  Local   -1640.70056 -1941.69458 -1203.88286     0.00000     0.00000   283.04986
  n-local  -539.47702  -551.16908  -550.91799    -0.00000    -0.00000     0.01939
  augment  1650.03945  1649.13116  1647.73941     0.00000     0.00000     2.00613
  Kinetic  3006.29100  3018.82969  3015.04587     0.00000     0.00000    -0.13214
  Fock        0.00000     0.00000     0.00000     0.00000     0.00000     0.00000
  Total      -18.1860977     -8.2153340     -7.9914253      0.0000000      0.0000000     -1.3590106
  in kB      -85.2160241    -38.4952347    -37.4460481      0.0000000      0.0000000     -6.3680224

 VOLUME and BASIS-vectors are now :
  energy-cutoff  :      500.00
  volume of cell :      341.92
      direct lattice vectors                 reciprocal lattice vectors
     5.027855460  0.000000000  0.000000000     0.198891955  0.000000000 -0.158793440
     0.000000000 10.749115980  0.000000000     0.000000000  0.093030906  0.000000000
     5.051131130  0.000000000  6.326642620     0.000000000  0.000000000  0.158061718

  length of vectors
     5.027855460 10.749115980  8.095698397     0.254506122  0.093030906  0.158061718

 FORCES acting on ions
    electron-ion (+dipol)            ewald-force                    non-local-force                 convergence-correction
   0.581E+01 0.184E+02 0.218E+00   -.563E+01 -.181E+02 -.258E+00   -.288E+00 -.352E+00 0.610E-01   0.999E-04 -.319E-03 0.931E-03
   -.581E+01 0.184E+02 -.218E+00   0.563E+01 -.181E+02 0.258E+00   0.288E+00 -.352E+00 -.610E-01   -.999E-04 -.319E-03 -.931E-03
   -.581E+01 -.184E+02 -.218E+00   0.563E+01 0.181E+02 0.258E+00   0.288E+00 0.352E+00 -.610E-01   -.999E-04 0.319E-03 -.931E-03
   0.581E+01 -.184E+02 0.218E+00   -.563E+01 0.181E+02 -.258E+00   -.288E+00 0.352E+00 0.610E-01   0.999E-04 0.319E-03 0.931E-03
   0.260E+02 0.102E+01 -.319E+02   -.258E+02 -.758E+00 0.314E+02   -.264E+00 -.302E+00 0.403E+00   0.339E-02 -.126E-02 -.170E-02
   -.260E+02 0.102E+01 0.319E+02   0.258E+02 -.758E+00 -.314E+02   0.264E+00 -.302E+00 -.403E+00   -.339E-02 -.126E-02 0.170E-02
   -.260E+02 -.102E+01 0.319E+02   0.258E+02 0.758E+00 -.314E+02   0.264E+00 0.302E+00 -.403E+00   -.339E-02 0.126E-02 0.170E-02
   0.260E+02 -.102E+01 -.319E+02   -.258E+02 0.758E+00 0.314E+02   -.264E+00 0.302E+00 0.403E+00   0.339E-02 0.126E-02 -.170E-02
   0.122E+02 0.381E+02 0.699E+02   -.122E+02 -.384E+02 -.698E+02   -.570E+00 0.682E+00 0.319E-01   -.286E-02 -.528E-02 -.134E-02
   -.122E+02 0.381E+02 -.699E+02   0.122E+02 -.384E+02 0.698E+02   0.570E+00 0.682E+00 -.319E-01   0.286E-02 -.528E-02 0.134E-02
   -.122E+02 -.381E+02 -.699E+02   0.122E+02 0.384E+02 0.698E+02   0.570E+00 -.682E+00 -.319E-01   0.286E-02 0.528E-02 0.134E-02
   0.122E+02 -.381E+02 0.699E+02   -.122E+02 0.384E+02 -.698E+02   -.570E+00 -.682E+00 0.319E-01   -.286E-02 0.528E-02 -.134E-02
   0.303E+02 0.411E+02 0.465E+00   -.300E+02 -.409E+02 0.340E+00   0.663E+00 -.355E-01 -.175E-01   -.853E-02 0.444E-02 -.508E-02
   -.303E+02 0.411E+02 -.465E+00   0.300E+02 -.409E+02 -.340E+00   -.663E+00 -.355E-01 0.175E-01   0.853E-02 0.444E-02 0.508E-02
   -.303E+02 -.411E+02 -.465E+00   0.300E+02 0.409E+02 -.340E+00   -.663E+00 0.355E-01 0.175E-01   0.853E-02 -.444E-02 0.508E-02
   0.303E+02 -.411E+02 0.465E+00   -.300E+02 0.409E+02 0.340E+00   0.663E+00 0.355E-01 -.175E-01   -.853E-02 -.444E-02 -.508E-02
   0.815E+02 -.720E+02 -.996E+02   -.887E+02 0.767E+02 0.107E+03   0.814E+01 -.511E+01 -.725E+01   0.321E-01 0.104E-01 0.197E-01
   -.815E+02 -.720E+02 0.996E+02   0.887E+02 0.767E+02 -.107E+03   -.814E+01 -.511E+01 0.725E+01   -.321E-01 0.104E-01 -.197E-01
   -.815E+02 0.720E+02 0.996E+02   0.887E+02 -.767E+02 -.107E+03   -.814E+01 0.511E+01 0.725E+01   -.321E-01 -.104E-01 -.197E-01
   0.815E+02 0.720E+02 -.996E+02   -.887E+02 -.767E+02 0.107E+03   0.814E+01 0.511E+01 -.725E+01   0.321E-01 -.104E-01 0.197E-01
   0.638E+02 0.858E+02 -.107E+03   -.697E+02 -.907E+02 0.114E+03   0.612E+01 0.493E+01 -.773E+01   0.214E-02 0.416E-01 0.159E-01
   -.638E+02 0.858E+02 0.107E+03   0.697E+02 -.907E+02 -.114E+03   -.612E+01 0.493E+01 0.773E+01   -.214E-02 0.416E-01 -.159E-01
   -.638E+02 -.858E+02 0.107E+03   0.697E+02 0.907E+02 -.114E+03   -.612E+01 -.493E+01 0.773E+01   -.214E-02 -.416E-01 -.159E-01
   0.638E+02 -.858E+02 -.107E+03   -.697E+02 0.907E+02 0.114E+03   0.612E+01 -.493E+01 -.773E+01   0.214E-02 -.416E-01 0.159E-01
   -.136E+02 0.504E+02 -.148E+03   0.131E+02 -.553E+02 0.158E+03   0.369E+00 0.531E+01 -.105E+02   -.147E-01 -.388E-01 -.167E-01
   0.136E+02 0.504E+02 0.148E+03   -.131E+02 -.553E+02 -.158E+03   -.369E+00 0.531E+01 0.105E+02   0.147E-01 -.388E-01 0.167E-01
   0.136E+02 -.504E+02 0.148E+03   -.131E+02 0.553E+02 -.158E+03   -.369E+00 -.531E+01 0.105E+02   0.147E-01 0.388E-01 0.167E-01
   -.136E+02 -.504E+02 -.148E+03   0.131E+02 0.553E+02 0.158E+03   0.369E+00 -.531E+01 -.105E+02   -.147E-01 0.388E-01 -.167E-01
   0.728E+02 0.538E+02 0.123E+03   -.799E+02 -.573E+02 -.130E+03   0.799E+01 0.379E+01 0.777E+01   -.297E-01 0.146E-01 0.239E-01
   -.728E+02 0.538E+02 -.123E+03   0.799E+02 -.573E+02 0.130E+03   -.799E+01 0.379E+01 -.777E+01   0.297E-01 0.146E-01 -.239E-01
   -.728E+02 -.538E+02 -.123E+03   0.799E+02 0.573E+02 0.130E+03   -.799E+01 -.379E+01 -.777E+01   0.297E-01 -.146E-01 -.239E-01
   0.728E+02 -.538E+02 0.123E+03   -.799E+02 0.573E+02 -.130E+03   0.799E+01 -.379E+01 0.777E+01   -.297E-01 -.146E-01 0.239E-01
   -.503E-11 -.122E-08 -.114E-10   0.568E-13 0.711E-14 -.284E-13   0.444E-14 0.000E+00 -.266E-14   0.766E-13 0.682E-12 0.146E-12

 POSITION                                       TOTAL-FORCE (eV/Angst)
      6.64191      7.17922      6.22269        -0.106042      0.016626      0.022024
      5.96265      1.80467      3.26727         0.106042      0.016626     -0.022024
      3.43708      3.56989      0.10395         0.106042     -0.016626     -0.022024
      4.11634      8.94445      3.05937        -0.106042     -0.016626      0.022024
      6.52877      4.54136      4.80993        -0.020673     -0.040134     -0.078250
      6.07578      9.91592      4.68003         0.020673     -0.040134      0.078250
      3.55022      6.20776      1.51671         0.020673      0.040134      0.078250
      4.00320      0.83320      1.64661        -0.020673      0.040134     -0.078250
      8.43806      0.91636      4.81446        -0.631225      0.370190      0.174667
      4.16649      6.29092      4.67550         0.631225      0.370190     -0.174667
      1.64093      9.83275      1.51218         0.631225     -0.370190     -0.174667
      5.91249      4.45819      1.65114        -0.631225     -0.370190      0.174667
      9.19438      8.91642      6.23744         0.896936      0.152020      0.782243
      3.41017      3.54186      3.25253        -0.896936      0.152020     -0.782243
      0.88461      1.83270      0.08920        -0.896936     -0.152020     -0.782243
      6.66881      7.20725      3.07412         0.896936     -0.152020      0.782243
      9.10955      1.77229      6.29009         0.988033     -0.385716     -0.197949
      3.49500      7.14685      3.19987        -0.988033     -0.385716      0.197949
      0.96944      8.97683      0.03655        -0.988033      0.385716      0.197949
      6.58398      3.60227      3.12677         0.988033      0.385716     -0.197949
      8.59892      7.18711      6.19216         0.162611      0.147735     -0.497436
      4.00563      1.81255      3.29780        -0.162611      0.147735      0.497436
      1.48007      3.56201      0.13448        -0.162611     -0.147735      0.497436
      6.07335      8.93656      3.02884         0.162611     -0.147735     -0.497436
      8.67055      4.54119      4.78397        -0.162481      0.396140     -0.412161
      3.93401      9.91575      4.70599         0.162481      0.396140      0.412161
      1.40844      6.20793      1.54267         0.162481     -0.396140      0.412161
      6.14498      0.83337      1.62065        -0.162481     -0.396140     -0.412161
      6.59924      1.00212      4.89171         0.875215      0.297196      0.577013
      6.00531      6.37668      4.59825        -0.875215      0.297196     -0.577013
      3.47974      9.74699      1.43493        -0.875215     -0.297196     -0.577013
      4.07368      4.37243      1.72839         0.875215     -0.297196      0.577013
    total drift:                               -0.000000     -0.000000     -0.000000

  FREE ENERGIE OF THE ION-ELECTRON SYSTEM (eV)
  free  energy   TOTEN  =      -185.8382401320 eV

  energy  without entropy=     -185.8057467520  energy(sigma->0) =     -185.82199344

volume of typ            1:    18.2 %

[...]

volume of typ            3:     7.6 %

total charge

# of ion       s       p       d       tot
    1        2.112   0.361   0.121   2.593
    2        2.112   0.361   0.121   2.593
    3        2.112   0.361   0.121   2.593
    4        2.112   0.361   0.121   2.593
    5        2.096   0.331   0.110   2.537
    6        2.096   0.331   0.110   2.537
    7        2.096   0.331   0.110   2.537
    8        2.096   0.331   0.110   2.537
    9        0.275   0.330   7.825   8.431
   10        0.275   0.330   7.825   8.431
   11        0.275   0.330   7.825   8.431
   12        0.275   0.330   7.825   8.431
   13        0.270   0.325   7.839   8.434
   14        0.270   0.325   7.839   8.434
   15        0.270   0.325   7.839   8.434
   16        0.270   0.325   7.839   8.434
   17        1.261   2.775   0.006   4.042
   18        1.261   2.775   0.006   4.042
   19        1.261   2.775   0.006   4.042
   20        1.261   2.775   0.006   4.042
   21        1.257   2.777   0.006   4.040
   22        1.257   2.777   0.006   4.040
   23        1.257   2.777   0.006   4.040
   24        1.257   2.777   0.006   4.040
   25        1.258   2.769   0.006   4.033
   26        1.258   2.769   0.006   4.033
   27        1.258   2.769   0.006   4.033
   28        1.258   2.769   0.006   4.033
   29        1.258   2.777   0.006   4.041
   30        1.258   2.777   0.006   4.041
   31        1.258   2.777   0.006   4.041
   32        1.258   2.777   0.006   4.041
tot          39.15   49.78   63.67  152.60

magnetization (x)

# of ion       s       p       d       tot
    1        0.003   0.007   0.005   0.016
    2        0.003   0.007   0.005   0.016
    3        0.003   0.007   0.005   0.016
    4        0.003   0.007   0.005   0.016
    5        0.003   0.007   0.005   0.014
    6        0.003   0.007   0.005   0.014
    7        0.003   0.007   0.005   0.014
    8        0.003   0.007   0.005   0.014
    9       -0.000   0.017   1.007   1.024
   10       -0.000   0.017   1.007   1.024
   11       -0.000   0.017   1.007   1.024
   12       -0.000   0.017   1.007   1.024
   13        0.002   0.014   0.705   0.722
   14        0.002   0.014   0.705   0.722
   15        0.002   0.014   0.705   0.722
   16        0.002   0.014   0.705   0.722
   17        0.007   0.146   0.000   0.152
   18        0.007   0.146   0.000   0.152
   19        0.007   0.146   0.000   0.152
   20        0.007   0.146   0.000   0.152
   21        0.007   0.186   0.000   0.193
   22        0.007   0.186   0.000   0.193
   23        0.007   0.186   0.000   0.193
   24        0.007   0.186   0.000   0.193
   25        0.008   0.217   0.000   0.225
   26        0.008   0.217   0.000   0.225
   27        0.008   0.217   0.000   0.225
   28        0.008   0.217   0.000   0.225
   29        0.003   0.086   0.000   0.089
   30        0.003   0.086   0.000   0.089
   31        0.003   0.086   0.000   0.089
   32        0.003   0.086   0.000   0.089
tot           0.13    2.72    6.89    9.74