 vasp.5.4.4.18Apr17-6-g9f103f2a35 (build May 12 2020 05:39:39) gamma-only

 MD_VERSION_INFO: Compiled 2020-05-12T12:39:39-UTC in devlin.sd.materialsdesign.
 com:/home/medea2/data/build/wwolf/vasp-gpu5.4.4/13047/x86_64/src/src/build/gam
 from svn 13047

 executed on                        Lin64 date 2023.03.14  17:57:56

 INCAR:
 POTCAR:    PAW_PBE Ni 02Aug2007
 POTCAR:    PAW_PBE O 08Apr2002

 POTCAR:    PAW_PBE Ni 02Aug2007

 POTCAR:    PAW_PBE O 08Apr2002

 Optimization of the real space projectors (new method)

 maximal supplied QI-value         = 16.25
 optimisation between [QCUT,QGAM] = [ 11.38, 22.75] = [ 36.24,144.96] Ry
 Optimized for a Real-space Cutoff    1.47 Angstroem

   l    n(q)    QCUT    max X(q) W(low)/X(q) W(high)/X(q)  e(spline)
   2      9    11.376    60.317    0.17E-03    0.16E-04    0.16E-06
   2      9    11.376    55.921    0.17E-03    0.16E-04    0.17E-06
   0     10    11.376    51.690    0.45E-04    0.60E-04    0.21E-06
   0     10    11.376    30.015    0.37E-04    0.55E-04    0.19E-06
   1     10    11.376    18.849    0.83E-04    0.11E-03    0.92E-07
   1     10    11.376    14.624    0.69E-04    0.92E-04    0.82E-07
 Optimization of the real space projectors (new method)

 maximal supplied QI-value         = 24.76
 optimisation between [QCUT,QGAM] = [ 11.39, 22.77] = [ 36.31,145.25] Ry
 Optimized for a Real-space Cutoff    1.10 Angstroem

   l    n(q)    QCUT    max X(q) W(low)/X(q) W(high)/X(q)  e(spline)
   0      7    11.387    20.381    0.22E-03    0.48E-03    0.18E-06
   0      7    11.387    15.268    0.22E-03    0.52E-03    0.19E-06
   1      7    11.387     5.964    0.22E-03    0.73E-03    0.24E-06
   1      7    11.387     5.382    0.19E-03    0.60E-03    0.21E-06

  PAW_PBE Ni 02Aug2007                  :
  PAW_PBE O 08Apr2002                   :

 POSCAR: (COD #4320487)_1
  positions in direct lattice
 exchange correlation table for  LEXCH =       14
   RHO(1)=    0.500       N(1)  =     2000
   RHO(2)=  100.500       N(2)  =     4000

 ion  position               nearest neighbor table
   1  0.000  0.000  0.000-   2 2.09   2 2.09   2 2.09   2 2.09   2 2.09   2 2.09
   2  0.500  0.500  0.500-   1 2.09   1 2.09   1 2.09   1 2.09   1 2.09   1 2.09

  LATTYP: Found a face centered cubic cell.
 ALAT       =     4.1826300000

  Lattice vectors:

 A1 = (   0.0000000000,   2.0913150000,   2.0913150000)
 A2 = (   2.0913150000,   0.0000000000,   2.0913150000)
 A3 = (   2.0913150000,   2.0913150000,   0.0000000000)

Analysis of symmetry for initial positions (statically):
 Subroutine PRICEL returns:
 Original cell was already a primitive cell.

 Routine SETGRP: Setting up the symmetry group for a
 face centered cubic supercell.

 Subroutine GETGRP returns: Found 48 space group operations
 (whereof 48 operations were pure point group operations)
 out of a pool of 48 trial point group operations.

The static configuration has the point symmetry O_h .

Analysis of symmetry for dynamics (positions and initial velocities):
 Subroutine PRICEL returns:
 Original cell was already a primitive cell.

[...]

The dynamic configuration has the point symmetry O_h .

Analysis of structural, dynamic, and magnetic symmetry:
 Subroutine PRICEL returns:
 Original cell was already a primitive cell.

 Routine SETGRP: Setting up the symmetry group for a
 face centered cubic supercell.

 Subroutine GETGRP returns: Found 48 space group operations
 (whereof 48 operations were pure point group operations)
 out of a pool of 48 trial point group operations.

The magnetic configuration has the point symmetry O_h .

 Subroutine INISYM returns: Found 48 space group operations
 (whereof 48 operations are pure point group operations),
 and found     1 'primitive' translations

 KPOINTS: Automatic mesh

Automatic generation of k-mesh.
Space group operators:
 irot       det(A)        alpha          n_x          n_y          n_z        tau_x        tau_y        tau_z
    1     1.000000     0.000001     1.000000     0.000000     0.000000     0.000000     0.000000     0.000000
    2    -1.000000     0.000001     1.000000     0.000000     0.000000     0.000000     0.000000     0.000000
    3     1.000000   120.000000    -0.577350    -0.577350    -0.577350     0.000000     0.000000     0.000000
    4    -1.000000   120.000000    -0.577350    -0.577350    -0.577350     0.000000     0.000000     0.000000
    5     1.000000   120.000000     0.577350     0.577350     0.577350     0.000000     0.000000     0.000000
    6    -1.000000   120.000000     0.577350     0.577350     0.577350     0.000000     0.000000     0.000000
    7     1.000000    90.000000     0.000000     0.000000    -1.000000     0.000000     0.000000     0.000000
    8    -1.000000    90.000000     0.000000     0.000000    -1.000000     0.000000     0.000000     0.000000
    9     1.000000   180.000000     0.000000     0.707107     0.707107     0.000000     0.000000     0.000000
   10    -1.000000   180.000000     0.000000     0.707107     0.707107     0.000000     0.000000     0.000000
   11     1.000000    90.000000     0.000000     1.000000     0.000000     0.000000     0.000000     0.000000
   12    -1.000000    90.000000     0.000000     1.000000     0.000000     0.000000     0.000000     0.000000
   13     1.000000   180.000000     0.000000     0.000000     1.000000     0.000000     0.000000     0.000000
   14    -1.000000   180.000000     0.000000     0.000000     1.000000     0.000000     0.000000     0.000000
   15     1.000000   120.000000    -0.577350     0.577350     0.577350     0.000000     0.000000     0.000000
   16    -1.000000   120.000000    -0.577350     0.577350     0.577350     0.000000     0.000000     0.000000
   17     1.000000   120.000000    -0.577350     0.577350    -0.577350     0.000000     0.000000     0.000000
   18    -1.000000   120.000000    -0.577350     0.577350    -0.577350     0.000000     0.000000     0.000000
   19     1.000000    90.000000     0.000000     0.000000     1.000000     0.000000     0.000000     0.000000
   20    -1.000000    90.000000     0.000000     0.000000     1.000000     0.000000     0.000000     0.000000
   21     1.000000    90.000000    -1.000000     0.000000     0.000000     0.000000     0.000000     0.000000
   22    -1.000000    90.000000    -1.000000     0.000000     0.000000     0.000000     0.000000     0.000000
   23     1.000000   180.000000     0.707107     0.000000     0.707107     0.000000     0.000000     0.000000
   24    -1.000000   180.000000     0.707107     0.000000     0.707107     0.000000     0.000000     0.000000
   25     1.000000   120.000000     0.577350    -0.577350     0.577350     0.000000     0.000000     0.000000
   26    -1.000000   120.000000     0.577350    -0.577350     0.577350     0.000000     0.000000     0.000000
   27     1.000000   120.000000    -0.577350    -0.577350     0.577350     0.000000     0.000000     0.000000
   28    -1.000000   120.000000    -0.577350    -0.577350     0.577350     0.000000     0.000000     0.000000
   29     1.000000   180.000000     1.000000     0.000000     0.000000     0.000000     0.000000     0.000000
   30    -1.000000   180.000000     1.000000     0.000000     0.000000     0.000000     0.000000     0.000000
   31     1.000000    90.000000     0.000000    -1.000000     0.000000     0.000000     0.000000     0.000000
   32    -1.000000    90.000000     0.000000    -1.000000     0.000000     0.000000     0.000000     0.000000
   33     1.000000   180.000000     0.707107     0.707107     0.000000     0.000000     0.000000     0.000000
   34    -1.000000   180.000000     0.707107     0.707107     0.000000     0.000000     0.000000     0.000000
   35     1.000000    90.000000     1.000000     0.000000     0.000000     0.000000     0.000000     0.000000
   36    -1.000000    90.000000     1.000000     0.000000     0.000000     0.000000     0.000000     0.000000
   37     1.000000   120.000000     0.577350    -0.577350    -0.577350     0.000000     0.000000     0.000000
   38    -1.000000   120.000000     0.577350    -0.577350    -0.577350     0.000000     0.000000     0.000000
   39     1.000000   180.000000     0.000000     1.000000     0.000000     0.000000     0.000000     0.000000
   40    -1.000000   180.000000     0.000000     1.000000     0.000000     0.000000     0.000000     0.000000
   41     1.000000   120.000000     0.577350     0.577350    -0.577350     0.000000     0.000000     0.000000
   42    -1.000000   120.000000     0.577350     0.577350    -0.577350     0.000000     0.000000     0.000000
   43     1.000000   180.000000     0.000000    -0.707107     0.707107     0.000000     0.000000     0.000000
   44    -1.000000   180.000000     0.000000    -0.707107     0.707107     0.000000     0.000000     0.000000
   45     1.000000   180.000000     0.707107    -0.707107     0.000000     0.000000     0.000000     0.000000
   46    -1.000000   180.000000     0.707107    -0.707107     0.000000     0.000000     0.000000     0.000000
   47     1.000000   180.000000     0.707107     0.000000    -0.707107     0.000000     0.000000     0.000000
   48    -1.000000   180.000000     0.707107     0.000000    -0.707107     0.000000     0.000000     0.000000

 Subroutine IBZKPT returns following result:

 Found      1 irreducible k-points:

 Following reciprocal coordinates:
            Coordinates               Weight
  0.000000  0.000000  0.000000      1.000000

 Following cartesian coordinates:
            Coordinates               Weight
  0.000000  0.000000  0.000000      1.000000

 SYSTEM =  unknown system
 POSCAR =  (COD #4320487)_1

 Startparameter for this run:
   NWRITE =      1    write-flag & timer
   PREC   = accura    normal or accurate (medium, high low for compatibility)
   ISTART =      0    job   : 0-new  1-cont  2-samecut
   ICHARG =      2    charge: 1-file 2-atom 10-const
   ISPIN  =      2    spin polarized calculation?
   LNONCOLLINEAR =      F non collinear calculations
   LSORBIT =      F    spin-orbit coupling
   INIWAV =      1    electr: 0-lowe 1-rand  2-diag
   LASPH  =      F    aspherical Exc in radial PAW
   METAGGA=      F    non-selfconsistent MetaGGA calc.

 Electronic Relaxation 1
   ENCUT  =  500.0 eV  36.75 Ry    6.06 a.u.   5.39  5.39  5.39*2*pi/ulx,y,z
   ENINI  =  500.0     initial cutoff
   ENAUG  =  605.4 eV  augmentation charge cutoff
   NELM   =     80;   NELMIN=  2; NELMDL= -5     # of ELM steps
   EDIFF  = 0.1E-04   stopping-criterion for ELM
   LREAL  =      T    real-space projection
   NLSPLINE    = F    spline interpolate recip. space projectors
   LCOMPAT=      F    compatible to vasp.4.4
   GGA_COMPAT  = T    GGA compatible to vasp.4.4-vasp.4.6
   LMAXPAW     = -100 max onsite density
   LMAXMIX     =    2 max onsite mixed and CHGCAR
   VOSKOWN=      1    Vosko Wilk Nusair interpolation
   ROPT   =   -0.00025  -0.00025
 Ionic relaxation
   EDIFFG = 0.1E-03   stopping-criterion for IOM
   NSW    =      0    number of steps for IOM
   NBLOCK =      1;   KBLOCK =      1    inner block; outer block
   IBRION =     -1    ionic relax: 0-MD 1-quasi-New 2-CG
   NFREE  =      0    steps in history (QN), initial steepest desc. (CG)
   ISIF   =      2    stress and relaxation
   IWAVPR =     10    prediction:  0-non 1-charg 2-wave 3-comb
   ISYM   =      2    0-nonsym 1-usesym 2-fastsym
   LCORR  =      T    Harris-Foulkes like correction to forces

   POTIM  = 0.5000    time-step for ionic-motion
   TEIN   =    0.0    initial temperature
   TEBEG  =    0.0;   TEEND  =   0.0 temperature during run
   SMASS  =  -3.00    Nose mass-parameter (am)
   estimated Nose-frequenzy (Omega)   =  0.10E-29 period in steps =****** mass=  -0.200E-27a.u.
   SCALEE = 1.0000    scale energy and forces
   NPACO  =    256;   APACO  = 16.0  distance and # of slots for P.C.
   PSTRESS=    0.0 pullay stress

  Mass of Ions in am
   POMASS =  58.69 16.00
  Ionic Valenz
   ZVAL   =  10.00  6.00
  Atomic Wigner-Seitz radii
  virtual crystal weights
   VCA    =   1.00  1.00
   NELECT =      16.0000    total number of electrons
   NUPDOWN=      -1.0000    fix difference up-down

 DOS related values:
   EMIN   =  10.00;   EMAX   =-10.00  energy-range for DOS
   EFERMI =   0.00
   ISMEAR =     0;   SIGMA  =   0.05  broadening in eV -4-tet -1-fermi 0-gaus

 Electronic relaxation 2 (details)
   IALGO  =     38    algorithm
   LDIAG  =      T    sub-space diagonalisation (order eigenvalues)
   LSUBROT=      F    optimize rotation matrix (better conditioning)
   TURBO    =      0    0=normal 1=particle mesh
   IRESTART =      0    0=no restart 2=restart with 2 vectors
   NREBOOT  =      0    no. of reboots
   NMIN     =      0    reboot dimension
   EREF     =   0.00    reference energy to select bands
   IMIX   =      4    mixing-type and parameters
     AMIX     =   0.40;   BMIX     =  1.00
     AMIX_MAG =   1.60;   BMIX_MAG =  1.00
     AMIN     =   0.10
     WC   =   100.;   INIMIX=   1;  MIXPRE=   1;  MAXMIX= -45

 Intra band minimization:
   WEIMIN = 0.0000     energy-eigenvalue tresh-hold
   EBREAK =  0.16E-06  absolut break condition
   DEPER  =   0.30     relativ break condition

   TIME   =   0.40     timestep for ELM

  volume/ion in A,a.u.               =       9.15        61.72
  Fermi-wavevector in a.u.,A,eV,Ry     =   1.565616  2.958586 33.349986  2.451155
  Thomas-Fermi vector in A             =   2.668066

 Write flags
   LWAVE        =      F    write WAVECAR
   LDOWNSAMPLE  =      F    k-point downsampling of WAVECAR
   LCHARG       =      T    write CHGCAR
   LVTOT        =      F    write LOCPOT, total local potential
   LVHAR        =      F    write LOCPOT, Hartree potential only
   LELF         =      F    write electronic localiz. function (ELF)
   LORBIT       =      0    0 simple, 1 ext, 2 COOP (PROOUT), +10 PAW based schemes

 Dipole corrections
   LMONO  =      F    monopole corrections only (constant potential shift)
   LDIPOL =      F    correct potential (dipole corrections)
   IDIPOL =      0    1-x, 2-y, 3-z, 4-all directions
   EPSILON=  1.0000000 bulk dielectric constant

 Exchange correlation treatment:
   GGA     =    PS    GGA type
   VOSKOWN=      1    Vosko Wilk Nusair interpolation
   LHFCALC =     F    Hartree Fock is set to
   LHFONE  =     F    Hartree Fock one center treatment
   AEXX    =    0.0000 exact exchange contribution

 Linear response parameters
   LEPSILON=     F    determine dielectric tensor
   LRPA    =     F    only Hartree local field effects (RPA)
   LNABLA  =     F    use nabla operator in PAW spheres
   LVEL    =     F    velocity operator in full k-point grid
   LINTERFAST=   F  fast interpolation
   KINTER  =     0    interpolate to denser k-point grid
   CSHIFT  =0.1000    complex shift for real part using Kramers Kronig
   OMEGAMAX=  -1.0    maximum frequency
   DEG_THRESHOLD= 0.2000000E-02 threshold for treating states as degnerate
   RTIME   =   -0.100 relaxation time in fs
  (WPLASMAI=    0.000 imaginary part of plasma frequency in eV, 0.658/RTIME)
   DFIELD  = 0.0000000 0.0000000 0.0000000 field for delta impulse in time

 Orbital magnetization related:
   ORBITALMAG=     F  switch on orbital magnetization
   LCHIMAG   =     F  perturbation theory with respect to B field
   DQ        =  0.001000  dq finite difference perturbation B field
   LLRAUG    =     F  two centre corrections for induced B field

 Static calculation
 charge density and potential will be updated during run
 spin polarized calculation
 Variant of blocked Davidson
 Davidson routine will perform the subspace rotation
 perform sub-space diagonalisation
    after iterative eigenvector-optimisation
 modified Broyden-mixing scheme, WC =      100.0
 initial mixing is a Kerker type mixing with AMIX =  0.4000 and BMIX =      1.0000
 Hartree-type preconditioning will be used
 using additional bands            8
 real space projection scheme for non local part
 use partial core corrections
 calculate Harris-corrections to forces
   (improved forces if not selfconsistent)
 use gradient corrections
 use of overlap-Matrix (Vanderbilt PP)
 Gauss-broadening in eV      SIGMA  =   0.05

  energy-cutoff  :      500.00
  volume of cell :       18.29
      direct lattice vectors                 reciprocal lattice vectors
     0.000000000  2.091315000  2.091315000    -0.239084021  0.239084021  0.239084021
     2.091315000  0.000000000  2.091315000     0.239084021 -0.239084021  0.239084021
     2.091315000  2.091315000  0.000000000     0.239084021  0.239084021 -0.239084021

  length of vectors
     2.957566036  2.957566036  2.957566036     0.414105672  0.414105672  0.414105672

 k-points in units of 2pi/SCALE and weight: Automatic mesh
   0.00000000  0.00000000  0.00000000       1.000

 k-points in reciprocal lattice and weights: Automatic mesh
   0.00000000  0.00000000  0.00000000       1.000

 position of ions in fractional coordinates (direct lattice)
   0.00000000  0.00000000  0.00000000
   0.50000000  0.50000000  0.50000000

 position of ions in cartesian coordinates  (Angst):
   0.00000000  0.00000000  0.00000000
   2.09131500  2.09131500  2.09131500

 use serial FFT for orbitals x direction half grid
 k-point  1 :   0.0000 0.0000 0.0000  plane waves:     230

 maximum and minimum number of plane-waves per node :       230      230

 maximum number of plane-waves:       230
 maximum index in each direction:
   IXMAX=    5   IYMAX=    5   IZMAX=    5
   IXMIN=    0   IYMIN=   -4   IZMIN=   -4

 The following grids will avoid any aliasing or wrap around errors in the Hartre
 e energy
  - symmetry arguments have not been applied
  - exchange correlation energies might require even more grid points
  - we recommend to set PREC=Normal or Accurate and rely on VASP defaults
 NGX is ok and might be reduce to    24
 NGY is ok and might be reduce to    20
 NGZ is ok and might be reduce to    20

 serial   3D FFT for wavefunctions
 parallel 3D FFT for charge:
    minimum data exchange during FFTs selected (reduces bandwidth)

 Broyden mixing: mesh for mixing (old mesh)
   NGX = 11   NGY = 11   NGZ = 11
  (NGX  = 48   NGY  = 48   NGZ  = 48)
  gives a total of   1331 points

 initial charge density was supplied:
 charge density of overlapping atoms calculated
 number of electron      16.0000000 magnetization       2.0000000
 keeping initial charge density in first step

 Maximum index for non-local projection operator         9909
 Maximum index for augmentation-charges         1513 (set IRDMAX)

 First call to EWALD:  gamma=   0.673
 Maximum number of real-space cells 3x 3x 3
 Maximum number of reciprocal cells 3x 3x 3

--------------------------------------- Iteration      1(   1)  ---------------------------------------

 eigenvalue-minimisations  :    64
 total energy-change (2. order) : 0.4102786E+02  (-0.9090771E+03)
 number of electron      16.0000000 magnetization       2.0000000
 augmentation part       16.0000000 magnetization       2.0000000

 Free energy of the ion-electron system (eV)
  alpha Z        PSCENC =        64.86231301
  Ewald energy   TEWEN  =     -1298.45239125
  -Hartree energ DENC   =      -328.00194243
  -exchange      EXHF   =         0.00000000
  -V(xc)+E(xc)   XCENC  =        60.49011044
  PAW double counting   =      1308.15217330    -1376.61593701
  entropy T*S    EENTRO =        -0.00000000
  eigenvalues    EBANDS =       102.87223242
  atomic energy  EATOM  =      1507.72129817
  Solvation  Ediel_sol  =         0.00000000
  free energy    TOTEN  =        41.02785665 eV

  energy without entropy =       41.02785665  energy(sigma->0) =       41.02785665

[...]

 eigenvalue-minimisations  :    96
 total energy-change (2. order) :-0.5179966E+02  (-0.5096804E+02)
 number of electron      16.0000000 magnetization       2.0000000
 augmentation part       16.0000000 magnetization       2.0000000

[...]

 Broyden mixing:
  rms(total) = 0.20110E+01    rms(broyden)= 0.20105E+01
  rms(prec ) = 0.65767E+01
  weight for this iteration     100.00

[...]

 eigenvalues of (default mixing * dielectric matrix)
  average eigenvalue GAMMA=   0.3196
  0.3196

[...]

 eigenvalue-minimisations  :    64
 total energy-change (2. order) :-0.6861516E-03  (-0.2205773E-02)
 number of electron      16.0000006 magnetization       0.2820934
 augmentation part        6.9290220 magnetization       0.2834731

[...]

 Broyden mixing:
  rms(total) = 0.25702E-01    rms(broyden)= 0.25691E-01
  rms(prec ) = 0.72189E-01
  weight for this iteration     100.00

 eigenvalues of (default mixing * dielectric matrix)
  average eigenvalue GAMMA=   1.4238
  9.1316  4.6148  4.6148  2.9582  2.5464  2.3196  2.3196  1.9609  1.9609  1.3169
  1.3169  1.2500  1.2500  0.9765  0.9765  0.9847  0.9847  0.0061  0.8113  0.8595
  0.4546  0.4546  0.7652  0.8947  0.8500  0.5618  0.5618  0.9518  0.9782  0.9341
  0.9226  0.7326  0.8577  0.9545  0.6217  0.8013  0.6035  0.6224  0.8334  0.8079
  0.9368  0.9721  0.9893

[...]

--------------------------------------- Iteration      1(  49)  ---------------------------------------

 eigenvalue-minimisations  :    48
 total energy-change (2. order) : 0.9174233E-05  (-0.4461591E-05)
 number of electron      16.0000006 magnetization       0.2705921
 augmentation part        7.1519556 magnetization       0.6999929

 Free energy of the ion-electron system (eV)
  alpha Z        PSCENC =        64.86231301
  Ewald energy   TEWEN  =     -1298.45239125
  -Hartree energ DENC   =      -332.33745093
  -exchange      EXHF   =         0.00000000
  -V(xc)+E(xc)   XCENC  =        61.39364989
  PAW double counting   =      1566.28444538    -1634.24493929
  entropy T*S    EENTRO =        -0.06427087
  eigenvalues    EBANDS =        60.47809805
  atomic energy  EATOM  =      1507.72129817
  Solvation  Ediel_sol  =         0.00000000
  free energy    TOTEN  =        -4.35924783 eV

  energy without entropy =       -4.29497697  energy(sigma->0) =       -4.32711240

 average (electrostatic) potential at core
  the test charge radii are     0.9791  0.7215
  (the norm of the test charge is              1.0000)
       1 -83.3756       2 -65.7659

 E-fermi :   6.9308     XC(G=0): -12.5556     alpha+bet :-13.8849

 spin component 1

 k-point     1 :       0.0000    0.0000    0.0000
  band No.  band energies     occupation
      1     -10.7797      1.00000
      2       5.3024      1.00000
      3       5.3024      1.00000
      4       5.4261      1.00000
      5       5.4261      1.00000
      6       5.4261      1.00000
      7       6.9114      0.70828
      8       6.9114      0.70828
      9       6.9114      0.70828
     10      10.1738      0.00000
     11      26.0045      0.00000
     12      26.7307      0.00000
     13      26.7307      0.00000
     14      26.7307      0.00000
     15      30.0048      0.00000
     16      30.0048      0.00000

 spin component 2

 k-point     1 :       0.0000    0.0000    0.0000
  band No.  band energies     occupation
      1     -11.7757      1.00000
      2       5.6813      1.00000
      3       5.6813      1.00000
      4       5.6813      1.00000
      5       6.1168      1.00000
      6       6.1168      1.00000
      7       6.1168      1.00000
      8       6.9363      0.43758
      9       6.9363      0.43758
     10       9.8410      0.00000
     11      25.9208      0.00000
     12      26.7624      0.00000
     13      26.7624      0.00000
     14      26.7624      0.00000
     15      30.2825      0.00000
     16      30.2825      0.00000

 soft charge-density along one line, spin component           1
         0         1         2         3         4         5         6         7         8         9
 total charge-density along one line

 soft charge-density along one line, spin component           2
         0         1         2         3         4         5         6         7         8         9
 total charge-density along one line

------------------------ aborting loop because EDIFF is reached ----------------------------------------

  FORCE on cell =-STRESS in cart. coord.  units (eV):
  Direction    XX          YY          ZZ          XY          YZ          ZX
  Alpha Z    64.86231    64.86231    64.86231
  Ewald    -432.81760  -432.81760  -432.81760     0.00000    -0.00000     0.00000
  Hartree   110.90705   110.90705   110.90705     0.00000     0.00000     0.00000
  E(xc)     -84.84149   -84.84149   -84.84149    -0.00000    -0.00000    -0.00000
  Local     -13.80393   -13.80393   -13.80393     0.00005     0.00005     0.00005
  n-local   -46.78295   -46.78298   -46.78294    -0.00001     0.00000     0.00000
  augment   186.15915   186.15915   186.15915     0.00000     0.00000     0.00000
  Kinetic   218.53539   218.53552   218.53533    -0.00010    -0.00006    -0.00005
  Fock        0.00000     0.00000     0.00000     0.00000     0.00000     0.00000
  Total        2.2179510      2.2179510      2.2179510     -0.0000000     -0.0000000      0.0000000
  in kB      194.2558808    194.2558808    194.2558808     -0.0000000     -0.0000000      0.0000000

 VOLUME and BASIS-vectors are now :
  energy-cutoff  :      500.00
  volume of cell :       18.29
      direct lattice vectors                 reciprocal lattice vectors
     0.000000000  2.091315000  2.091315000    -0.239084021  0.239084021  0.239084021
     2.091315000  0.000000000  2.091315000     0.239084021 -0.239084021  0.239084021
     2.091315000  2.091315000  0.000000000     0.239084021  0.239084021 -0.239084021

  length of vectors
     2.957566036  2.957566036  2.957566036     0.414105672  0.414105672  0.414105672

 FORCES acting on ions
    electron-ion (+dipol)            ewald-force                    non-local-force                 convergence-correction
   -.455E-13 -.545E-13 -.572E-13   0.909E-15 -.480E-14 -.504E-14   -.529E-22 0.529E-22 0.695E-22   0.158E-13 -.241E-14 0.109E-13
   0.649E-12 -.139E-11 -.281E-12   -.580E-15 0.334E-14 0.394E-14   0.000E+00 -.331E-23 -.827E-24   0.222E-14 0.741E-14 0.877E-14
   0.604E-12 -.144E-11 -.338E-12   0.328E-15 -.146E-14 -.110E-14   -.529E-22 0.496E-22 0.687E-22   0.180E-13 0.500E-14 0.196E-13

 POSITION                                       TOTAL-FORCE (eV/Angst)
      0.00000      0.00000      0.00000        -0.000000     -0.000000     -0.000000
      2.09131      2.09131      2.09131         0.000000      0.000000      0.000000
    total drift:                                0.000000     -0.000000     -0.000000

  FREE ENERGIE OF THE ION-ELECTRON SYSTEM (eV)
  free  energy   TOTEN  =        -4.3592478345 eV

  energy  without entropy=       -4.2949769686  energy(sigma->0) =       -4.32711240

volume of typ            1:    34.8 %

volume of typ            2:     8.9 %

total charge

# of ion       s       p       d       tot
    1        0.134   0.115   8.090   8.339
    2        0.997   3.142   0.016   4.155
tot           1.13    3.26    8.11   12.49

magnetization (x)

# of ion       s       p       d       tot
    1        0.010  -0.010   1.088   1.088
    2       -0.026  -0.578   0.002  -0.603
tot          -0.02   -0.59    1.09    0.49