 vasp.5.4.4.18Apr17-6-g9f103f2a35 (build May 12 2020 05:39:39) gamma-only

 MD_VERSION_INFO: Compiled 2020-05-12T12:39:39-UTC in devlin.sd.materialsdesign.
 com:/home/medea2/data/build/wwolf/vasp-gpu5.4.4/13047/x86_64/src/src/build/gam
 from svn 13047

 executed on                        Lin64 date 2023.03.14  17:57:56

 INCAR:
 POTCAR:    PAW_PBE Ni 02Aug2007
 POTCAR:    PAW_PBE O 08Apr2002

 POTCAR:    PAW_PBE Ni 02Aug2007

 POTCAR:    PAW_PBE O 08Apr2002

 Optimization of the real space projectors (new method)

 maximal supplied QI-value         = 16.25
 optimisation between [QCUT,QGAM] = [ 11.38, 22.75] = [ 36.24,144.96] Ry
 Optimized for a Real-space Cutoff    1.47 Angstroem

   l    n(q)    QCUT    max X(q) W(low)/X(q) W(high)/X(q)  e(spline)
   2      9    11.376    60.317    0.17E-03    0.16E-04    0.16E-06
   2      9    11.376    55.921    0.17E-03    0.16E-04    0.17E-06
   0     10    11.376    51.690    0.45E-04    0.60E-04    0.21E-06
   0     10    11.376    30.015    0.37E-04    0.55E-04    0.19E-06
   1     10    11.376    18.849    0.83E-04    0.11E-03    0.92E-07
   1     10    11.376    14.624    0.69E-04    0.92E-04    0.82E-07
 Optimization of the real space projectors (new method)

 maximal supplied QI-value         = 24.76
 optimisation between [QCUT,QGAM] = [ 11.39, 22.77] = [ 36.31,145.25] Ry
 Optimized for a Real-space Cutoff    1.10 Angstroem

   l    n(q)    QCUT    max X(q) W(low)/X(q) W(high)/X(q)  e(spline)
   0      7    11.387    20.381    0.22E-03    0.48E-03    0.18E-06
   0      7    11.387    15.268    0.22E-03    0.52E-03    0.19E-06
   1      7    11.387     5.964    0.22E-03    0.73E-03    0.24E-06
   1      7    11.387     5.382    0.19E-03    0.60E-03    0.21E-06

  PAW_PBE Ni 02Aug2007                  :
  PAW_PBE O 08Apr2002                   :

 POSCAR: (COD #9016308)_1
  positions in direct lattice
 exchange correlation table for  LEXCH =       14
   RHO(1)=    0.500       N(1)  =     2000
   RHO(2)=  100.500       N(2)  =     4000

 ion  position               nearest neighbor table
   1  0.000  0.000  0.000-   2 2.14   3 2.14   3 2.14   2 2.14   3 2.14   2 2.14
   2  0.333  0.667  0.250-   1 2.14   1 2.14   1 2.14
   3  0.667  0.333  0.750-   1 2.14   1 2.14   1 2.14

  LATTYP: Found a hexagonal cell.
 ALAT       =     3.1140000023
 C/A-ratio  =     1.4826589585

  Lattice vectors:

 A1 = (   3.1140000000,   0.0000000000,   0.0000000000)
 A2 = (  -1.5570000000,   2.6968031100,   0.0000000000)
 A3 = (   0.0000000000,   0.0000000000,   4.6170000000)

Analysis of symmetry for initial positions (statically):
 Subroutine PRICEL returns:
 Original cell was already a primitive cell.

 Routine SETGRP: Setting up the symmetry group for a
 hexagonal supercell.

 Subroutine GETGRP returns: Found 12 space group operations
 (whereof 12 operations were pure point group operations)
 out of a pool of 24 trial point group operations.

The static configuration has the point symmetry D_3d.

Analysis of symmetry for dynamics (positions and initial velocities):
 Subroutine PRICEL returns:
 Original cell was already a primitive cell.

[...]

The dynamic configuration has the point symmetry D_3d.

Analysis of structural, dynamic, and magnetic symmetry:
 Subroutine PRICEL returns:
 Original cell was already a primitive cell.

 Routine SETGRP: Setting up the symmetry group for a
 hexagonal supercell.

 Subroutine GETGRP returns: Found 12 space group operations
 (whereof 12 operations were pure point group operations)
 out of a pool of 24 trial point group operations.

The magnetic configuration has the point symmetry D_3d.

 Subroutine INISYM returns: Found 12 space group operations
 (whereof 12 operations are pure point group operations),
 and found     1 'primitive' translations

 KPOINTS: Automatic mesh

Automatic generation of k-mesh.
Space group operators:
 irot       det(A)        alpha          n_x          n_y          n_z        tau_x        tau_y        tau_z
    1     1.000000     0.000000     1.000000     0.000000     0.000000     0.000000     0.000000     0.000000
    2    -1.000000     0.000000     1.000000     0.000000     0.000000     0.000000     0.000000     0.000000
    3     1.000000   120.000000     0.000000     0.000000    -1.000000     0.000000     0.000000     0.000000
    4    -1.000000   120.000000     0.000000     0.000000    -1.000000     0.000000     0.000000     0.000000
    5     1.000000   120.000000     0.000000     0.000000     1.000000     0.000000     0.000000     0.000000
    6    -1.000000   120.000000     0.000000     0.000000     1.000000     0.000000     0.000000     0.000000
    7     1.000000   180.000000     1.000000     0.000000     0.000000     0.000000     0.000000     0.000000
    8    -1.000000   180.000000     1.000000     0.000000     0.000000     0.000000     0.000000     0.000000
    9     1.000000   180.000000     0.500000    -0.866025     0.000000     0.000000     0.000000     0.000000
   10    -1.000000   180.000000     0.500000    -0.866025     0.000000     0.000000     0.000000     0.000000
   11     1.000000   180.000000    -0.500000    -0.866025     0.000000     0.000000     0.000000     0.000000
   12    -1.000000   180.000000    -0.500000    -0.866025     0.000000     0.000000     0.000000     0.000000

 Subroutine IBZKPT returns following result:

 Found      1 irreducible k-points:

 Following reciprocal coordinates:
            Coordinates               Weight
  0.000000  0.000000  0.000000      1.000000

 Following cartesian coordinates:
            Coordinates               Weight
  0.000000  0.000000  0.000000      1.000000

 SYSTEM =  unknown system
 POSCAR =  (COD #9016308)_1

 Startparameter for this run:
   NWRITE =      1    write-flag & timer
   PREC   = accura    normal or accurate (medium, high low for compatibility)
   ISTART =      0    job   : 0-new  1-cont  2-samecut
   ICHARG =      2    charge: 1-file 2-atom 10-const
   ISPIN  =      2    spin polarized calculation?
   LNONCOLLINEAR =      F non collinear calculations
   LSORBIT =      F    spin-orbit coupling
   INIWAV =      1    electr: 0-lowe 1-rand  2-diag
   LASPH  =      F    aspherical Exc in radial PAW
   METAGGA=      F    non-selfconsistent MetaGGA calc.

 Electronic Relaxation 1
   ENCUT  =  500.0 eV  36.75 Ry    6.06 a.u.   5.68  5.68  8.42*2*pi/ulx,y,z
   ENINI  =  500.0     initial cutoff
   ENAUG  =  605.4 eV  augmentation charge cutoff
   NELM   =     80;   NELMIN=  2; NELMDL= -5     # of ELM steps
   EDIFF  = 0.1E-04   stopping-criterion for ELM
   LREAL  =      T    real-space projection
   NLSPLINE    = F    spline interpolate recip. space projectors
   LCOMPAT=      F    compatible to vasp.4.4
   GGA_COMPAT  = T    GGA compatible to vasp.4.4-vasp.4.6
   LMAXPAW     = -100 max onsite density
   LMAXMIX     =    2 max onsite mixed and CHGCAR
   VOSKOWN=      1    Vosko Wilk Nusair interpolation
   ROPT   =   -0.00025  -0.00025
 Ionic relaxation
   EDIFFG = 0.1E-03   stopping-criterion for IOM
   NSW    =      0    number of steps for IOM
   NBLOCK =      1;   KBLOCK =      1    inner block; outer block
   IBRION =     -1    ionic relax: 0-MD 1-quasi-New 2-CG
   NFREE  =      0    steps in history (QN), initial steepest desc. (CG)
   ISIF   =      2    stress and relaxation
   IWAVPR =     10    prediction:  0-non 1-charg 2-wave 3-comb
   ISYM   =      2    0-nonsym 1-usesym 2-fastsym
   LCORR  =      T    Harris-Foulkes like correction to forces

   POTIM  = 0.5000    time-step for ionic-motion
   TEIN   =    0.0    initial temperature
   TEBEG  =    0.0;   TEEND  =   0.0 temperature during run
   SMASS  =  -3.00    Nose mass-parameter (am)
   estimated Nose-frequenzy (Omega)   =  0.10E-29 period in steps =****** mass=  -0.222E-27a.u.
   SCALEE = 1.0000    scale energy and forces
   NPACO  =    256;   APACO  = 16.0  distance and # of slots for P.C.
   PSTRESS=    0.0 pullay stress

  Mass of Ions in am
   POMASS =  58.69 16.00
  Ionic Valenz
   ZVAL   =  10.00  6.00
  Atomic Wigner-Seitz radii
  virtual crystal weights
   VCA    =   1.00  1.00
   NELECT =      22.0000    total number of electrons
   NUPDOWN=      -1.0000    fix difference up-down

 DOS related values:
   EMIN   =  10.00;   EMAX   =-10.00  energy-range for DOS
   EFERMI =   0.00
   ISMEAR =     0;   SIGMA  =   0.05  broadening in eV -4-tet -1-fermi 0-gaus

 Electronic relaxation 2 (details)
   IALGO  =     38    algorithm
   LDIAG  =      T    sub-space diagonalisation (order eigenvalues)
   LSUBROT=      F    optimize rotation matrix (better conditioning)
   TURBO    =      0    0=normal 1=particle mesh
   IRESTART =      0    0=no restart 2=restart with 2 vectors
   NREBOOT  =      0    no. of reboots
   NMIN     =      0    reboot dimension
   EREF     =   0.00    reference energy to select bands
   IMIX   =      4    mixing-type and parameters
     AMIX     =   0.40;   BMIX     =  1.00
     AMIX_MAG =   1.60;   BMIX_MAG =  1.00
     AMIN     =   0.10
     WC   =   100.;   INIMIX=   1;  MIXPRE=   1;  MAXMIX= -45

 Intra band minimization:
   WEIMIN = 0.0000     energy-eigenvalue tresh-hold
   EBREAK =  0.78E-07  absolut break condition
   DEPER  =   0.30     relativ break condition

   TIME   =   0.40     timestep for ELM

  volume/ion in A,a.u.               =      12.92        87.22
  Fermi-wavevector in a.u.,A,eV,Ry     =   1.355314  2.561171 24.992203  1.836875
  Thomas-Fermi vector in A             =   2.482412

 Write flags
   LWAVE        =      F    write WAVECAR
   LDOWNSAMPLE  =      F    k-point downsampling of WAVECAR
   LCHARG       =      T    write CHGCAR
   LVTOT        =      F    write LOCPOT, total local potential
   LVHAR        =      F    write LOCPOT, Hartree potential only
   LELF         =      F    write electronic localiz. function (ELF)
   LORBIT       =      0    0 simple, 1 ext, 2 COOP (PROOUT), +10 PAW based schemes

 Dipole corrections
   LMONO  =      F    monopole corrections only (constant potential shift)
   LDIPOL =      F    correct potential (dipole corrections)
   IDIPOL =      0    1-x, 2-y, 3-z, 4-all directions
   EPSILON=  1.0000000 bulk dielectric constant

 Exchange correlation treatment:
   GGA     =    PS    GGA type
   VOSKOWN=      1    Vosko Wilk Nusair interpolation
   LHFCALC =     F    Hartree Fock is set to
   LHFONE  =     F    Hartree Fock one center treatment
   AEXX    =    0.0000 exact exchange contribution

 Linear response parameters
   LEPSILON=     F    determine dielectric tensor
   LRPA    =     F    only Hartree local field effects (RPA)
   LNABLA  =     F    use nabla operator in PAW spheres
   LVEL    =     F    velocity operator in full k-point grid
   LINTERFAST=   F  fast interpolation
   KINTER  =     0    interpolate to denser k-point grid
   CSHIFT  =0.1000    complex shift for real part using Kramers Kronig
   OMEGAMAX=  -1.0    maximum frequency
   DEG_THRESHOLD= 0.2000000E-02 threshold for treating states as degnerate
   RTIME   =   -0.100 relaxation time in fs
  (WPLASMAI=    0.000 imaginary part of plasma frequency in eV, 0.658/RTIME)
   DFIELD  = 0.0000000 0.0000000 0.0000000 field for delta impulse in time

 Orbital magnetization related:
   ORBITALMAG=     F  switch on orbital magnetization
   LCHIMAG   =     F  perturbation theory with respect to B field
   DQ        =  0.001000  dq finite difference perturbation B field
   LLRAUG    =     F  two centre corrections for induced B field

 Static calculation
 charge density and potential will be updated during run
 spin polarized calculation
 Variant of blocked Davidson
 Davidson routine will perform the subspace rotation
 perform sub-space diagonalisation
    after iterative eigenvector-optimisation
 modified Broyden-mixing scheme, WC =      100.0
 initial mixing is a Kerker type mixing with AMIX =  0.4000 and BMIX =      1.0000
 Hartree-type preconditioning will be used
 using additional bands           21
 real space projection scheme for non local part
 use partial core corrections
 calculate Harris-corrections to forces
   (improved forces if not selfconsistent)
 use gradient corrections
 use of overlap-Matrix (Vanderbilt PP)
 Gauss-broadening in eV      SIGMA  =   0.05

  energy-cutoff  :      500.00
  volume of cell :       38.77
      direct lattice vectors                 reciprocal lattice vectors
     3.114000000  0.000000000  0.000000000     0.321130379  0.185404711  0.000000000
    -1.557000000  2.696803110  0.000000000     0.000000000  0.370809421  0.000000000
     0.000000000  0.000000000  4.617000000     0.000000000  0.000000000  0.216590860

  length of vectors
     3.114000000  3.114000002  4.617000000     0.370809421  0.370809421  0.216590860

 k-points in units of 2pi/SCALE and weight: Automatic mesh
   0.00000000  0.00000000  0.00000000       1.000

 k-points in reciprocal lattice and weights: Automatic mesh
   0.00000000  0.00000000  0.00000000       1.000

 position of ions in fractional coordinates (direct lattice)
   0.00000000  0.00000000  0.00000000
   0.33333333  0.66666667  0.25000000
   0.66666667  0.33333333  0.75000000

 position of ions in cartesian coordinates  (Angst):
   0.00000000  0.00000000  0.00000000
  -0.00000002  1.79786875  1.15425000
   1.55700002  0.89893436  3.46275000

 use serial FFT for orbitals x direction half grid
 k-point  1 :   0.0000 0.0000 0.0000  plane waves:     489

 maximum and minimum number of plane-waves per node :       489      489

 maximum number of plane-waves:       489
 maximum index in each direction:
   IXMAX=    5   IYMAX=    4   IZMAX=    8
   IXMIN=    0   IYMIN=   -5   IZMIN=   -8

 The following grids will avoid any aliasing or wrap around errors in the Hartre
 e energy
  - symmetry arguments have not been applied
  - exchange correlation energies might require even more grid points
  - we recommend to set PREC=Normal or Accurate and rely on VASP defaults
 NGX is ok and might be reduce to    24
 NGY is ok and might be reduce to    20
 NGZ is ok and might be reduce to    36

 serial   3D FFT for wavefunctions
 parallel 3D FFT for charge:
    minimum data exchange during FFTs selected (reduces bandwidth)

 Broyden mixing: mesh for mixing (old mesh)
   NGX = 11   NGY = 11   NGZ = 17
  (NGX  = 48   NGY  = 48   NGZ  = 72)
  gives a total of   2057 points

 initial charge density was supplied:
 charge density of overlapping atoms calculated
 number of electron      22.0000000 magnetization       3.0000000
 keeping initial charge density in first step

 Maximum index for non-local projection operator         6953
 Maximum index for augmentation-charges          947 (set IRDMAX)

 First call to EWALD:  gamma=   0.524
 Maximum number of real-space cells 3x 3x 2
 Maximum number of reciprocal cells 3x 3x 4

--------------------------------------- Iteration      1(   1)  ---------------------------------------

 eigenvalue-minimisations  :   128
 total energy-change (2. order) : 0.1331268E+03  (-0.1090531E+04)
 number of electron      22.0000000 magnetization       3.0000000
 augmentation part       22.0000000 magnetization       3.0000000

 Free energy of the ion-electron system (eV)
  alpha Z        PSCENC =        55.21869492
  Ewald energy   TEWEN  =     -1340.49584460
  -Hartree energ DENC   =      -620.29685964
  -exchange      EXHF   =         0.00000000
  -V(xc)+E(xc)   XCENC  =        86.48834479
  PAW double counting   =      1654.29826820    -1724.07685178
  entropy T*S    EENTRO =        -0.00000000
  eigenvalues    EBANDS =        83.63657557
  atomic energy  EATOM  =      1938.35452211
  Solvation  Ediel_sol  =         0.00000000
  free energy    TOTEN  =       133.12684957 eV

  energy without entropy =      133.12684957  energy(sigma->0) =      133.12684957

[...]

 eigenvalue-minimisations  :   192
 total energy-change (2. order) :-0.1436007E+03  (-0.1186906E+03)
 number of electron      22.0000000 magnetization       3.0000000
 augmentation part       22.0000000 magnetization       3.0000000

[...]

 Broyden mixing:
  rms(total) = 0.26998E+01    rms(broyden)= 0.26991E+01
  rms(prec ) = 0.58347E+01
  weight for this iteration     100.00

[...]

 eigenvalues of (default mixing * dielectric matrix)
  average eigenvalue GAMMA=   0.2290
  0.2290

[...]

 eigenvalue-minimisations  :   128
 total energy-change (2. order) : 0.2035472E+00  (-0.4185474E-01)
 number of electron      22.0000019 magnetization       0.4625522
 augmentation part        7.4250676 magnetization       0.4328622

[...]

 Broyden mixing:
  rms(total) = 0.36684E-02    rms(broyden)= 0.36681E-02
  rms(prec ) = 0.47356E-02
  weight for this iteration     100.00

 eigenvalues of (default mixing * dielectric matrix)
  average eigenvalue GAMMA=   1.3906
  7.4565  3.0072  2.4809  1.6117  1.2564  1.2564  1.0381  1.0381  0.1588  0.4734
  0.4734  0.8081  0.8081  0.7087  0.7087  0.5529  0.5970  0.5970

[...]

--------------------------------------- Iteration      1(  24)  ---------------------------------------

 eigenvalue-minimisations  :   144
 total energy-change (2. order) :-0.4007097E-05  (-0.1549169E-05)
 number of electron      22.0000019 magnetization       0.0016558
 augmentation part        7.4552054 magnetization       0.0013934

 Free energy of the ion-electron system (eV)
  alpha Z        PSCENC =        55.21869492
  Ewald energy   TEWEN  =     -1340.49584460
  -Hartree energ DENC   =      -614.89361315
  -exchange      EXHF   =         0.00000000
  -V(xc)+E(xc)   XCENC  =        86.73079250
  PAW double counting   =      1853.60918077    -1922.64186765
  entropy T*S    EENTRO =        -0.00000000
  eigenvalues    EBANDS =       -67.57763564
  atomic energy  EATOM  =      1938.35452211
  Solvation  Ediel_sol  =         0.00000000
  free energy    TOTEN  =       -11.69577073 eV

  energy without entropy =      -11.69577073  energy(sigma->0) =      -11.69577073

 average (electrostatic) potential at core
  the test charge radii are     0.9791  0.7215
  (the norm of the test charge is              1.0000)
       1 -90.0930       2 -72.5443       3 -72.5443

 E-fermi :   2.0526     XC(G=0):  -9.8963     alpha+bet : -8.4823

 spin component 1

 k-point     1 :       0.0000    0.0000    0.0000
  band No.  band energies     occupation
      1     -15.8131      1.00000
      2     -14.5272      1.00000
      3      -2.8009      1.00000
      4      -2.2169      1.00000
      5      -2.2169      1.00000
      6      -0.1781      1.00000
      7      -0.1781      1.00000
      8       0.7828      1.00000
      9       0.7828      1.00000
     10       0.8222      1.00000
     11       1.7503      1.00000
     12       2.3281      0.00000
     13       2.3281      0.00000
     14       6.2326      0.00000
     15      10.6971      0.00000
     16      15.3363      0.00000
     17      17.5722      0.00000
     18      17.5722      0.00000
     19      22.2183      0.00000
     20      22.3804      0.00000
     21      22.3804      0.00000
     22      23.3101      0.00000
     23      25.5546      0.00000
     24      25.5546      0.00000
     25      26.0320      0.00000
     26      26.0320      0.00000
     27      27.3023      0.00000
     28      27.3676      0.00000
     29      32.5569      0.00000
     30      32.5569      0.00000
     31      33.5365      0.00000
     32      35.9930      0.00000

 spin component 2

 k-point     1 :       0.0000    0.0000    0.0000
  band No.  band energies     occupation
      1     -15.8120      1.00000
      2     -14.5260      1.00000
      3      -2.8001      1.00000
      4      -2.2165      1.00000
      5      -2.2165      1.00000
      6      -0.1780      1.00000
      7      -0.1780      1.00000
      8       0.7840      1.00000
      9       0.7840      1.00000
     10       0.8227      1.00000
     11       1.7520      1.00000
     12       2.3288      0.00000
     13       2.3288      0.00000
     14       6.2330      0.00000
     15      10.6973      0.00000
     16      15.3371      0.00000
     17      17.5722      0.00000
     18      17.5722      0.00000
     19      22.2184      0.00000
     20      22.3805      0.00000
     21      22.3805      0.00000
     22      23.3101      0.00000
     23      25.5548      0.00000
     24      25.5548      0.00000
     25      26.0322      0.00000
     26      26.0322      0.00000
     27      27.3026      0.00000
     28      27.3678      0.00000
     29      32.5573      0.00000
     30      32.5573      0.00000
     31      33.5367      0.00000
     32      35.9935      0.00000

 soft charge-density along one line, spin component           1
         0         1         2         3         4         5         6         7         8         9
 total charge-density along one line

 soft charge-density along one line, spin component           2
         0         1         2         3         4         5         6         7         8         9
 total charge-density along one line

------------------------ aborting loop because EDIFF is reached ----------------------------------------

  FORCE on cell =-STRESS in cart. coord.  units (eV):
  Direction    XX          YY          ZZ          XY          YZ          ZX
  Alpha Z    55.21869    55.21869    55.21869
  Ewald    -314.93792  -314.93793  -710.62080    -0.00001    -0.00000     0.00000
  Hartree   295.95058   295.95058    22.96142    -0.00000    -0.00000     0.00000
  E(xc)    -110.97839  -110.97839  -111.18638    -0.00000     0.00000    -0.00000
  Local    -383.13685  -383.13693   251.69528    -0.00007     0.00000    -0.00000
  n-local   -61.20968   -61.20969   -65.13596     0.00000    -0.00000     0.00001
  augment   185.44809   185.44817   199.38643     0.00006     0.00000    -0.00000
  Kinetic   328.03306   328.03309   355.36474     0.00002     0.00000    -0.00001
  Fock        0.00000     0.00000     0.00000     0.00000     0.00000     0.00000
  Total       -5.6124143     -5.6124143     -2.3165781      0.0000000      0.0000000      0.0000000
  in kB     -231.9169979   -231.9169984    -95.7259750      0.0000000      0.0000000      0.0000000

 VOLUME and BASIS-vectors are now :
  energy-cutoff  :      500.00
  volume of cell :       38.77
      direct lattice vectors                 reciprocal lattice vectors
     3.114000000  0.000000000  0.000000000     0.321130379  0.185404711  0.000000000
    -1.557000000  2.696803110  0.000000000     0.000000000  0.370809421  0.000000000
     0.000000000  0.000000000  4.617000000     0.000000000  0.000000000  0.216590860

  length of vectors
     3.114000000  3.114000002  4.617000000     0.370809421  0.370809421  0.216590860

 FORCES acting on ions
    electron-ion (+dipol)            ewald-force                    non-local-force                 convergence-correction
   -.339E-13 -.903E-14 -.613E-13   -.520E-14 -.324E-14 -.568E-13   0.662E-23 0.000E+00 0.000E+00   -.408E-14 0.232E-13 0.464E-13
   0.180E-04 -.106E-04 -.201E+03   0.202E-05 -.132E-05 0.218E+03   0.101E-20 0.212E-21 -.215E+02   -.272E-07 0.157E-07 -.105E-01
   -.180E-04 0.106E-04 0.201E+03   -.202E-05 0.132E-05 -.218E+03   -.143E-20 -.212E-21 0.215E+02   0.272E-07 -.157E-07 0.105E-01
   0.102E-11 0.646E-13 -.814E-12   -.389E-14 -.439E-14 0.000E+00   -.417E-21 0.000E+00 0.000E+00   -.379E-13 0.198E-13 0.132E-13

 POSITION                                       TOTAL-FORCE (eV/Angst)
      0.00000      0.00000      0.00000         0.000000      0.000000      0.000000
     -0.00000      1.79787      1.15425        -0.000000     -0.000000     -4.322231
      1.55700      0.89893      3.46275         0.000000      0.000000      4.322231
    total drift:                                0.000000      0.000000     -0.000000

  FREE ENERGIE OF THE ION-ELECTRON SYSTEM (eV)
  free  energy   TOTEN  =       -11.6957707297 eV

  energy  without entropy=      -11.6957707297  energy(sigma->0) =      -11.69577073

volume of typ            1:    16.4 %

volume of typ            2:     8.4 %

total charge

# of ion       s       p       d       tot
    1        0.210   0.086   7.899   8.195
    2        1.225   2.743   0.003   3.971
    3        1.225   2.743   0.003   3.971
tot           2.66    5.57    7.91   16.14

magnetization (x)

# of ion       s       p       d       tot
    1       -0.000  -0.000  -0.000  -0.000
    2        0.000   0.000  -0.000   0.000
    3        0.000   0.000  -0.000   0.000
tot           0.00    0.00   -0.00    0.00