 vasp.5.4.4.18Apr17-6-g9f103f2a35 (build May 12 2020 05:39:39) gamma-only

 MD_VERSION_INFO: Compiled 2020-05-12T12:39:39-UTC in devlin.sd.materialsdesign.
 com:/home/medea2/data/build/wwolf/vasp-gpu5.4.4/13047/x86_64/src/src/build/gam
 from svn 13047

 executed on                        Lin64 date 2023.03.14  17:57:55

 INCAR:
 POTCAR:    PAW_PBE Ni 02Aug2007
 POTCAR:    PAW_PBE O 08Apr2002

 POTCAR:    PAW_PBE Ni 02Aug2007

 POTCAR:    PAW_PBE O 08Apr2002

 Optimization of the real space projectors (new method)

 maximal supplied QI-value         = 16.25
 optimisation between [QCUT,QGAM] = [ 11.38, 22.75] = [ 36.24,144.96] Ry
 Optimized for a Real-space Cutoff    1.47 Angstroem

   l    n(q)    QCUT    max X(q) W(low)/X(q) W(high)/X(q)  e(spline)
   2      9    11.376    60.317    0.17E-03    0.16E-04    0.16E-06
   2      9    11.376    55.921    0.17E-03    0.16E-04    0.17E-06
   0     10    11.376    51.690    0.45E-04    0.60E-04    0.21E-06
   0     10    11.376    30.015    0.37E-04    0.55E-04    0.19E-06
   1     10    11.376    18.849    0.83E-04    0.11E-03    0.92E-07
   1     10    11.376    14.624    0.69E-04    0.92E-04    0.82E-07
 Optimization of the real space projectors (new method)

 maximal supplied QI-value         = 24.76
 optimisation between [QCUT,QGAM] = [ 11.39, 22.77] = [ 36.31,145.25] Ry
 Optimized for a Real-space Cutoff    1.10 Angstroem

   l    n(q)    QCUT    max X(q) W(low)/X(q) W(high)/X(q)  e(spline)
   0      7    11.387    20.381    0.22E-03    0.48E-03    0.18E-06
   0      7    11.387    15.268    0.22E-03    0.52E-03    0.19E-06
   1      7    11.387     5.964    0.22E-03    0.73E-03    0.24E-06
   1      7    11.387     5.382    0.19E-03    0.60E-03    0.21E-06

  PAW_PBE Ni 02Aug2007                  :
  PAW_PBE O 08Apr2002                   :

 POSCAR: Ni O (COD #1526380)_3
  positions in direct lattice
 exchange correlation table for  LEXCH =       14
   RHO(1)=    0.500       N(1)  =     2000
   RHO(2)=  100.500       N(2)  =     4000

 ion  position               nearest neighbor table
   1  0.000  0.000  0.000-   2 2.09   2 2.09   2 2.09   2 2.09   2 2.09   2 2.09
   2  0.500  0.500  0.500-   1 2.09   1 2.09   1 2.09   1 2.09   1 2.09   1 2.09

  LATTYP: Found a trigonal (rhomboedric) cell.
 ALAT       =     2.9481196972
 COS(alpha) =     0.4987848265

  Lattice vectors:

 A1 = (   1.4758500000,   0.8520823900,   2.4056666700)
 A2 = (  -1.4758500000,   0.8520823900,   2.4056666700)
 A3 = (   0.0000000000,  -1.7041647900,   2.4056666700)

Analysis of symmetry for initial positions (statically):
 Subroutine PRICEL returns:
 Original cell was already a primitive cell.

 Routine SETGRP: Setting up the symmetry group for a
 trigonal (rhombohedral) supercell.

 Subroutine GETGRP returns: Found 12 space group operations
 (whereof 12 operations were pure point group operations)
 out of a pool of 12 trial point group operations.

The static configuration has the point symmetry D_3d.

Analysis of symmetry for dynamics (positions and initial velocities):
 Subroutine PRICEL returns:
 Original cell was already a primitive cell.

[...]

The dynamic configuration has the point symmetry D_3d.

Analysis of structural, dynamic, and magnetic symmetry:
 Subroutine PRICEL returns:
 Original cell was already a primitive cell.

 Routine SETGRP: Setting up the symmetry group for a
 trigonal (rhombohedral) supercell.

 Subroutine GETGRP returns: Found 12 space group operations
 (whereof 12 operations were pure point group operations)
 out of a pool of 12 trial point group operations.

The magnetic configuration has the point symmetry D_3d.

 Subroutine INISYM returns: Found 12 space group operations
 (whereof 12 operations are pure point group operations),
 and found     1 'primitive' translations

 KPOINTS: Automatic mesh

Automatic generation of k-mesh.
Space group operators:
 irot       det(A)        alpha          n_x          n_y          n_z        tau_x        tau_y        tau_z
    1     1.000000     0.000001     1.000000     0.000000     0.000000     0.000000     0.000000     0.000000
    2    -1.000000     0.000001     1.000000     0.000000     0.000000     0.000000     0.000000     0.000000
    3     1.000000   180.000000    -0.500000     0.866025     0.000000     0.000000     0.000000     0.000000
    4    -1.000000   180.000000    -0.500000     0.866025     0.000000     0.000000     0.000000     0.000000
    5     1.000000   120.000000    -0.000000     0.000000    -1.000000     0.000000     0.000000     0.000000
    6    -1.000000   120.000000    -0.000000     0.000000    -1.000000     0.000000     0.000000     0.000000
    7     1.000000   179.999999     1.000000     0.000000     0.000000     0.000000     0.000000     0.000000
    8    -1.000000   179.999999     1.000000     0.000000     0.000000     0.000000     0.000000     0.000000
    9     1.000000   120.000000    -0.000000    -0.000000     1.000000     0.000000     0.000000     0.000000
   10    -1.000000   120.000000    -0.000000    -0.000000     1.000000     0.000000     0.000000     0.000000
   11     1.000000   180.000000     0.500000     0.866025     0.000000     0.000000     0.000000     0.000000
   12    -1.000000   180.000000     0.500000     0.866025     0.000000     0.000000     0.000000     0.000000

 Subroutine IBZKPT returns following result:

 Found      1 irreducible k-points:

 Following reciprocal coordinates:
            Coordinates               Weight
  0.000000  0.000000  0.000000      1.000000

 Following cartesian coordinates:
            Coordinates               Weight
  0.000000  0.000000  0.000000      1.000000

 SYSTEM =  unknown system
 POSCAR =  Ni O (COD #1526380)_3

 Startparameter for this run:
   NWRITE =      1    write-flag & timer
   PREC   = accura    normal or accurate (medium, high low for compatibility)
   ISTART =      0    job   : 0-new  1-cont  2-samecut
   ICHARG =      2    charge: 1-file 2-atom 10-const
   ISPIN  =      2    spin polarized calculation?
   LNONCOLLINEAR =      F non collinear calculations
   LSORBIT =      F    spin-orbit coupling
   INIWAV =      1    electr: 0-lowe 1-rand  2-diag
   LASPH  =      F    aspherical Exc in radial PAW
   METAGGA=      F    non-selfconsistent MetaGGA calc.

 Electronic Relaxation 1
   ENCUT  =  500.0 eV  36.75 Ry    6.06 a.u.   5.38  5.38  5.38*2*pi/ulx,y,z
   ENINI  =  500.0     initial cutoff
   ENAUG  =  605.4 eV  augmentation charge cutoff
   NELM   =     80;   NELMIN=  2; NELMDL= -5     # of ELM steps
   EDIFF  = 0.1E-04   stopping-criterion for ELM
   LREAL  =      T    real-space projection
   NLSPLINE    = F    spline interpolate recip. space projectors
   LCOMPAT=      F    compatible to vasp.4.4
   GGA_COMPAT  = T    GGA compatible to vasp.4.4-vasp.4.6
   LMAXPAW     = -100 max onsite density
   LMAXMIX     =    2 max onsite mixed and CHGCAR
   VOSKOWN=      1    Vosko Wilk Nusair interpolation
   ROPT   =   -0.00025  -0.00025
 Ionic relaxation
   EDIFFG = 0.1E-03   stopping-criterion for IOM
   NSW    =      0    number of steps for IOM
   NBLOCK =      1;   KBLOCK =      1    inner block; outer block
   IBRION =     -1    ionic relax: 0-MD 1-quasi-New 2-CG
   NFREE  =      0    steps in history (QN), initial steepest desc. (CG)
   ISIF   =      2    stress and relaxation
   IWAVPR =     10    prediction:  0-non 1-charg 2-wave 3-comb
   ISYM   =      2    0-nonsym 1-usesym 2-fastsym
   LCORR  =      T    Harris-Foulkes like correction to forces

   POTIM  = 0.5000    time-step for ionic-motion
   TEIN   =    0.0    initial temperature
   TEBEG  =    0.0;   TEEND  =   0.0 temperature during run
   SMASS  =  -3.00    Nose mass-parameter (am)
   estimated Nose-frequenzy (Omega)   =  0.10E-29 period in steps =****** mass=  -0.199E-27a.u.
   SCALEE = 1.0000    scale energy and forces
   NPACO  =    256;   APACO  = 16.0  distance and # of slots for P.C.
   PSTRESS=    0.0 pullay stress

  Mass of Ions in am
   POMASS =  58.69 16.00
  Ionic Valenz
   ZVAL   =  10.00  6.00
  Atomic Wigner-Seitz radii
  virtual crystal weights
   VCA    =   1.00  1.00
   NELECT =      16.0000    total number of electrons
   NUPDOWN=      -1.0000    fix difference up-down

 DOS related values:
   EMIN   =  10.00;   EMAX   =-10.00  energy-range for DOS
   EFERMI =   0.00
   ISMEAR =     0;   SIGMA  =   0.05  broadening in eV -4-tet -1-fermi 0-gaus

 Electronic relaxation 2 (details)
   IALGO  =     38    algorithm
   LDIAG  =      T    sub-space diagonalisation (order eigenvalues)
   LSUBROT=      F    optimize rotation matrix (better conditioning)
   TURBO    =      0    0=normal 1=particle mesh
   IRESTART =      0    0=no restart 2=restart with 2 vectors
   NREBOOT  =      0    no. of reboots
   NMIN     =      0    reboot dimension
   EREF     =   0.00    reference energy to select bands
   IMIX   =      4    mixing-type and parameters
     AMIX     =   0.40;   BMIX     =  1.00
     AMIX_MAG =   1.60;   BMIX_MAG =  1.00
     AMIN     =   0.10
     WC   =   100.;   INIMIX=   1;  MIXPRE=   1;  MAXMIX= -45

 Intra band minimization:
   WEIMIN = 0.0000     energy-eigenvalue tresh-hold
   EBREAK =  0.16E-06  absolut break condition
   DEPER  =   0.30     relativ break condition

   TIME   =   0.40     timestep for ELM

  volume/ion in A,a.u.               =       9.08        61.25
  Fermi-wavevector in a.u.,A,eV,Ry     =   1.569681  2.966266 33.523361  2.463898
  Thomas-Fermi vector in A             =   2.671527

 Write flags
   LWAVE        =      F    write WAVECAR
   LDOWNSAMPLE  =      F    k-point downsampling of WAVECAR
   LCHARG       =      T    write CHGCAR
   LVTOT        =      F    write LOCPOT, total local potential
   LVHAR        =      F    write LOCPOT, Hartree potential only
   LELF         =      F    write electronic localiz. function (ELF)
   LORBIT       =      0    0 simple, 1 ext, 2 COOP (PROOUT), +10 PAW based schemes

 Dipole corrections
   LMONO  =      F    monopole corrections only (constant potential shift)
   LDIPOL =      F    correct potential (dipole corrections)
   IDIPOL =      0    1-x, 2-y, 3-z, 4-all directions
   EPSILON=  1.0000000 bulk dielectric constant

 Exchange correlation treatment:
   GGA     =    PS    GGA type
   VOSKOWN=      1    Vosko Wilk Nusair interpolation
   LHFCALC =     F    Hartree Fock is set to
   LHFONE  =     F    Hartree Fock one center treatment
   AEXX    =    0.0000 exact exchange contribution

 Linear response parameters
   LEPSILON=     F    determine dielectric tensor
   LRPA    =     F    only Hartree local field effects (RPA)
   LNABLA  =     F    use nabla operator in PAW spheres
   LVEL    =     F    velocity operator in full k-point grid
   LINTERFAST=   F  fast interpolation
   KINTER  =     0    interpolate to denser k-point grid
   CSHIFT  =0.1000    complex shift for real part using Kramers Kronig
   OMEGAMAX=  -1.0    maximum frequency
   DEG_THRESHOLD= 0.2000000E-02 threshold for treating states as degnerate
   RTIME   =   -0.100 relaxation time in fs
  (WPLASMAI=    0.000 imaginary part of plasma frequency in eV, 0.658/RTIME)
   DFIELD  = 0.0000000 0.0000000 0.0000000 field for delta impulse in time

 Orbital magnetization related:
   ORBITALMAG=     F  switch on orbital magnetization
   LCHIMAG   =     F  perturbation theory with respect to B field
   DQ        =  0.001000  dq finite difference perturbation B field
   LLRAUG    =     F  two centre corrections for induced B field

 Static calculation
 charge density and potential will be updated during run
 spin polarized calculation
 Variant of blocked Davidson
 Davidson routine will perform the subspace rotation
 perform sub-space diagonalisation
    after iterative eigenvector-optimisation
 modified Broyden-mixing scheme, WC =      100.0
 initial mixing is a Kerker type mixing with AMIX =  0.4000 and BMIX =      1.0000
 Hartree-type preconditioning will be used
 using additional bands            8
 real space projection scheme for non local part
 use partial core corrections
 calculate Harris-corrections to forces
   (improved forces if not selfconsistent)
 use gradient corrections
 use of overlap-Matrix (Vanderbilt PP)
 Gauss-broadening in eV      SIGMA  =   0.05

  energy-cutoff  :      500.00
  volume of cell :       18.15
      direct lattice vectors                 reciprocal lattice vectors
     1.475850000  0.852082390  2.405666670     0.338787817  0.195599238  0.138561729
    -1.475850000  0.852082390  2.405666670    -0.338787817  0.195599238  0.138561729
     0.000000000 -1.704164790  2.405666670     0.000000000 -0.391198476  0.138561729

  length of vectors
     2.948119697  2.948119697  2.948119699     0.415012771  0.415012771  0.415012771

 k-points in units of 2pi/SCALE and weight: Automatic mesh
   0.00000000  0.00000000  0.00000000       1.000

 k-points in reciprocal lattice and weights: Automatic mesh
   0.00000000  0.00000000  0.00000000       1.000

 position of ions in fractional coordinates (direct lattice)
   0.00000000  0.00000000  0.00000000
   0.50000000  0.50000000  0.50000000

 position of ions in cartesian coordinates  (Angst):
   0.00000000  0.00000000  0.00000000
   0.00000000 -0.00000001  3.60850000

 use serial FFT for orbitals x direction half grid
 k-point  1 :   0.0000 0.0000 0.0000  plane waves:     230

 maximum and minimum number of plane-waves per node :       230      230

 maximum number of plane-waves:       230
 maximum index in each direction:
   IXMAX=    5   IYMAX=    5   IZMAX=    5
   IXMIN=    0   IYMIN=   -4   IZMIN=   -4

 The following grids will avoid any aliasing or wrap around errors in the Hartre
 e energy
  - symmetry arguments have not been applied
  - exchange correlation energies might require even more grid points
  - we recommend to set PREC=Normal or Accurate and rely on VASP defaults
 NGX is ok and might be reduce to    24
 NGY is ok and might be reduce to    20
 NGZ is ok and might be reduce to    20

 serial   3D FFT for wavefunctions
 parallel 3D FFT for charge:
    minimum data exchange during FFTs selected (reduces bandwidth)

 Broyden mixing: mesh for mixing (old mesh)
   NGX = 11   NGY = 11   NGZ = 11
  (NGX  = 48   NGY  = 48   NGZ  = 48)
  gives a total of   1331 points

 initial charge density was supplied:
 charge density of overlapping atoms calculated
 number of electron      16.0000000 magnetization       2.0000000
 keeping initial charge density in first step

 Maximum index for non-local projection operator         9945
 Maximum index for augmentation-charges         1537 (set IRDMAX)

 First call to EWALD:  gamma=   0.674
 Maximum number of real-space cells 3x 3x 3
 Maximum number of reciprocal cells 3x 3x 3

--------------------------------------- Iteration      1(   1)  ---------------------------------------

 eigenvalue-minimisations  :    64
 total energy-change (2. order) : 0.4110416E+02  (-0.9121138E+03)
 number of electron      16.0000000 magnetization       2.0000000
 augmentation part       16.0000000 magnetization       2.0000000

 Free energy of the ion-electron system (eV)
  alpha Z        PSCENC =        65.36876380
  Ewald energy   TEWEN  =     -1301.82335553
  -Hartree energ DENC   =      -326.40948964
  -exchange      EXHF   =         0.00000000
  -V(xc)+E(xc)   XCENC  =        60.53023924
  PAW double counting   =      1308.15217330    -1376.61593701
  entropy T*S    EENTRO =        -0.00000000
  eigenvalues    EBANDS =       104.18046584
  atomic energy  EATOM  =      1507.72129817
  Solvation  Ediel_sol  =         0.00000000
  free energy    TOTEN  =        41.10415816 eV

  energy without entropy =       41.10415816  energy(sigma->0) =       41.10415816

[...]

 eigenvalue-minimisations  :    96
 total energy-change (2. order) :-0.5188118E+02  (-0.5104993E+02)
 number of electron      16.0000000 magnetization       2.0000000
 augmentation part       16.0000000 magnetization       2.0000000

[...]

 Broyden mixing:
  rms(total) = 0.19845E+01    rms(broyden)= 0.19840E+01
  rms(prec ) = 0.64939E+01
  weight for this iteration     100.00

[...]

 eigenvalues of (default mixing * dielectric matrix)
  average eigenvalue GAMMA=   0.3198
  0.3198

[...]

 eigenvalue-minimisations  :    64
 total energy-change (2. order) : 0.2501522E-04  (-0.9046314E-05)
 number of electron      16.0000002 magnetization       0.2693757
 augmentation part        7.1705970 magnetization       0.7343352

 Broyden mixing:
  rms(total) = 0.22120E-01    rms(broyden)= 0.22088E-01
  rms(prec ) = 0.61232E-01
  weight for this iteration     100.00

 eigenvalues of (default mixing * dielectric matrix)
  average eigenvalue GAMMA=   5.6390
143.4637  3.0350  3.0350  2.7614  2.4583  1.5385  1.5385  1.0617  1.0617  1.0703
  1.0703  0.6067  0.6067  1.1489  0.4054  0.4054  0.8465  0.8465  0.3145  0.8628
  0.7235  0.7235  0.4455  0.7593  0.7593  0.6978  0.6978  0.5975  0.6261  0.6261
  0.0157

[...]

--------------------------------------- Iteration      1(  37)  ---------------------------------------

 eigenvalue-minimisations  :    64
 total energy-change (2. order) :-0.7649735E-05  (-0.7273053E-05)
 number of electron      16.0000002 magnetization       0.2693757
 augmentation part        7.1705970 magnetization       0.7343352

 Free energy of the ion-electron system (eV)
  alpha Z        PSCENC =        65.36876380
  Ewald energy   TEWEN  =     -1301.82335553
  -Hartree energ DENC   =      -330.68909542
  -exchange      EXHF   =         0.00000000
  -V(xc)+E(xc)   XCENC  =        61.43225451
  PAW double counting   =      1572.18357818    -1640.16401864
  entropy T*S    EENTRO =        -0.06340355
  eigenvalues    EBANDS =        61.68876594
  atomic energy  EATOM  =      1507.72129817
  Solvation  Ediel_sol  =         0.00000000
  free energy    TOTEN  =        -4.34521254 eV

  energy without entropy =       -4.28180900  energy(sigma->0) =       -4.31351077

 average (electrostatic) potential at core
  the test charge radii are     0.9791  0.7215
  (the norm of the test charge is              1.0000)
       1 -83.2869       2 -65.6842

 E-fermi :   7.0153     XC(G=0): -12.6034     alpha+bet :-13.9933

 spin component 1

 k-point     1 :       0.0000    0.0000    0.0000
  band No.  band energies     occupation
      1     -10.7445      1.00000
      2       5.3961      1.00000
      3       5.3961      1.00000
      4       5.4983      1.00000
      5       5.4983      1.00000
      6       5.5106      1.00000
      7       6.9859      0.79691
      8       6.9998      0.66970
      9       6.9998      0.66970
     10      10.3342      0.00000
     11      26.1369      0.00000
     12      26.8808      0.00000
     13      26.8808      0.00000
     14      26.9307      0.00000
     15      30.2457      0.00000
     16      30.2457      0.00000

 spin component 2

 k-point     1 :       0.0000    0.0000    0.0000
  band No.  band energies     occupation
      1     -11.7420      1.00000
      2       5.6682      1.00000
      3       5.6682      1.00000
      4       5.9431      1.00000
      5       6.1914      1.00000
      6       6.1914      1.00000
      7       6.2066      1.00000
      8       7.0214      0.43185
      9       7.0214      0.43185
     10       9.9961      0.00000
     11      26.0542      0.00000
     12      26.9011      0.00000
     13      26.9011      0.00000
     14      26.9897      0.00000
     15      30.5227      0.00000
     16      30.5227      0.00000

 soft charge-density along one line, spin component           1
         0         1         2         3         4         5         6         7         8         9
 total charge-density along one line

 soft charge-density along one line, spin component           2
         0         1         2         3         4         5         6         7         8         9
 total charge-density along one line

------------------------ aborting loop because EDIFF is reached ----------------------------------------

  FORCE on cell =-STRESS in cart. coord.  units (eV):
  Direction    XX          YY          ZZ          XY          YZ          ZX
  Alpha Z    65.36876    65.36876    65.36876
  Ewald    -433.80709  -433.80709  -434.20957    -0.00000     0.00000     0.00000
  Hartree   110.03546   110.03546   110.56259    -0.00000     0.00000     0.00000
  E(xc)     -84.88552   -84.88552   -84.89547     0.00000     0.00000     0.00000
  Local     -11.54213   -11.54213   -14.87677     0.00000    -0.00000    -0.00000
  n-local   -46.94593   -46.94593   -47.68327    -0.00000    -0.00000     0.00000
  augment   185.70748   185.70748   186.35123    -0.00000    -0.00000     0.00000
  Kinetic   217.48977   217.48977   221.69954     0.00000     0.00000    -0.00000
  Fock        0.00000     0.00000     0.00000     0.00000     0.00000     0.00000
  Total        1.4207919      1.4207919      2.3170391      0.0000000     -0.0000000      0.0000000
  in kB      125.4095307    125.4095302    204.5188914      0.0000000     -0.0000003      0.0000000

 VOLUME and BASIS-vectors are now :
  energy-cutoff  :      500.00
  volume of cell :       18.15
      direct lattice vectors                 reciprocal lattice vectors
     1.475850000  0.852082390  2.405666670     0.338787817  0.195599238  0.138561729
    -1.475850000  0.852082390  2.405666670    -0.338787817  0.195599238  0.138561729
     0.000000000 -1.704164790  2.405666670     0.000000000 -0.391198476  0.138561729

  length of vectors
     2.948119697  2.948119697  2.948119699     0.415012771  0.415012771  0.415012771

 FORCES acting on ions
    electron-ion (+dipol)            ewald-force                    non-local-force                 convergence-correction
   0.248E-14 0.124E-13 -.667E-13   -.675E-14 0.314E-14 -.736E-14   -.646E-26 0.646E-26 0.000E+00   -.102E-13 0.843E-14 0.132E-14
   -.144E-11 0.847E-13 -.584E-12   0.701E-14 -.288E-14 0.560E-14   -.162E-26 0.404E-27 -.808E-27   0.110E-14 -.424E-14 -.792E-14
   -.144E-11 0.972E-13 -.651E-12   0.259E-15 0.259E-15 -.176E-14   -.808E-26 0.687E-26 -.808E-27   -.906E-14 0.419E-14 -.660E-14

 POSITION                                       TOTAL-FORCE (eV/Angst)
      0.00000      0.00000      0.00000         0.000000     -0.000000      0.000000
      0.00000     -0.00000      3.60850        -0.000000      0.000000     -0.000000
    total drift:                               -0.000000      0.000000     -0.000000

  FREE ENERGIE OF THE ION-ELECTRON SYSTEM (eV)
  free  energy   TOTEN  =        -4.3452125428 eV

  energy  without entropy=       -4.2818089965  energy(sigma->0) =       -4.31351077

volume of typ            1:    35.1 %

volume of typ            2:     9.0 %

total charge

# of ion       s       p       d       tot
    1        0.137   0.116   8.080   8.333
    2        0.995   3.153   0.016   4.165
tot           1.13    3.27    8.10   12.50

magnetization (x)

# of ion       s       p       d       tot
    1        0.010  -0.010   1.099   1.099
    2       -0.026  -0.572   0.002  -0.596
tot          -0.02   -0.58    1.10    0.50