 vasp.5.4.4.18Apr17-6-g9f103f2a35 (build May 12 2020 05:39:39) gamma-only

 MD_VERSION_INFO: Compiled 2020-05-12T12:39:39-UTC in devlin.sd.materialsdesign.
 com:/home/medea2/data/build/wwolf/vasp-gpu5.4.4/13047/x86_64/src/src/build/gam
 from svn 13047

 executed on                        Lin64 date 2023.03.14  17:57:55

 INCAR:
 POTCAR:    PAW_PBE Li_sv 10Sep2004
 POTCAR:    PAW_PBE Ni 02Aug2007
 POTCAR:    PAW_PBE O 08Apr2002

 POTCAR:    PAW_PBE Li_sv 10Sep2004

 POTCAR:    PAW_PBE Ni 02Aug2007

 POTCAR:    PAW_PBE O 08Apr2002

 Optimization of the real space projectors (new method)

 maximal supplied QI-value         = 22.11
 optimisation between [QCUT,QGAM] = [ 11.28, 22.77] = [ 35.61,145.23] Ry
 Optimized for a Real-space Cutoff    1.10 Angstroem

   l    n(q)    QCUT    max X(q) W(low)/X(q) W(high)/X(q)  e(spline)
   0      7    11.276    10.506    0.54E-04    0.58E-04    0.16E-07
   0      7    11.276     8.367    0.11E-03    0.14E-03    0.35E-07
   1      7    11.276     8.983    0.23E-03    0.43E-03    0.86E-07
 Optimization of the real space projectors (new method)

[...]

   l    n(q)    QCUT    max X(q) W(low)/X(q) W(high)/X(q)  e(spline)
   2      9    11.376    60.317    0.17E-03    0.16E-04    0.16E-06
   2      9    11.376    55.921    0.17E-03    0.16E-04    0.17E-06
   0     10    11.376    51.690    0.45E-04    0.60E-04    0.21E-06
   0     10    11.376    30.015    0.37E-04    0.55E-04    0.19E-06
   1     10    11.376    18.849    0.83E-04    0.11E-03    0.92E-07
   1     10    11.376    14.624    0.69E-04    0.92E-04    0.82E-07
 Optimization of the real space projectors (new method)

 maximal supplied QI-value         = 24.76
 optimisation between [QCUT,QGAM] = [ 11.39, 22.77] = [ 36.31,145.25] Ry
 Optimized for a Real-space Cutoff    1.10 Angstroem

   l    n(q)    QCUT    max X(q) W(low)/X(q) W(high)/X(q)  e(spline)
   0      7    11.387    20.381    0.22E-03    0.48E-03    0.18E-06
   0      7    11.387    15.268    0.22E-03    0.52E-03    0.19E-06
   1      7    11.387     5.964    0.22E-03    0.73E-03    0.24E-06
   1      7    11.387     5.382    0.19E-03    0.60E-03    0.21E-06

  PAW_PBE Li_sv 10Sep2004               :
  PAW_PBE Ni 02Aug2007                  :
  PAW_PBE O 08Apr2002                   :

 POSCAR: Li(NiO2)2_p4332.cif
  positions in direct lattice
 exchange correlation table for  LEXCH =       14
   RHO(1)=    0.500       N(1)  =     2000
   RHO(2)=  100.500       N(2)  =     4000

 ion  position               nearest neighbor table
   1  0.744  0.744  0.744-  53 1.96  39 1.96  48 1.96  42 1.96
   2  0.244  0.756  0.256-  54 1.96  40 1.96  47 1.96  41 1.96
   3  0.256  0.244  0.756-  55 1.96  37 1.96  46 1.96  44 1.96
   4  0.756  0.256  0.244-  56 1.96  38 1.96  45 1.96  43 1.96
   5  0.506  0.506  0.506-  49 1.96  26 1.96  35 1.96  32 1.96
   6  0.006  0.994  0.494-  50 1.96  25 1.96  36 1.96  31 1.96
   7  0.494  0.006  0.994-  51 1.96  28 1.96  33 1.96  30 1.96
   8  0.994  0.494  0.006-  52 1.96  27 1.96  34 1.96  29 1.96
   9  0.125  0.616  0.634-  25 1.87  41 1.87  35 1.88  48 1.88  52 1.89  55 1.89  18 2.82  19 2.82
                            14 2.82  16 2.82  23 2.92  24 2.92
  10  0.625  0.884  0.366-  26 1.87  42 1.87  36 1.88  47 1.88  51 1.89  56 1.89  17 2.82  20 2.82
                            13 2.82  15 2.82  23 2.92  24 2.92
  11  0.875  0.116  0.866-  27 1.87  43 1.87  33 1.88  46 1.88  50 1.89  53 1.89  17 2.82  20 2.82
                            14 2.82  16 2.82  21 2.92  22 2.92
  12  0.375  0.384  0.134-  28 1.87  44 1.87  34 1.88  45 1.88  49 1.89  54 1.89  18 2.82  19 2.82
                            13 2.82  15 2.82  21 2.92  22 2.92
  13  0.616  0.634  0.125-  29 1.87  45 1.87  39 1.88  26 1.88  51 1.89  54 1.89  19 2.82  20 2.82
                            10 2.82  12 2.82  22 2.92  23 2.92
  14  0.116  0.866  0.875-  30 1.87  46 1.87  40 1.88  25 1.88  52 1.89  53 1.89  19 2.82  20 2.82
                             9 2.82  11 2.82  21 2.92  24 2.92
  15  0.384  0.134  0.375-  31 1.87  47 1.87  37 1.88  28 1.88  49 1.89  56 1.89  17 2.82  18 2.82
                            10 2.82  12 2.82  21 2.92  24 2.92
  16  0.884  0.366  0.625-  32 1.87  48 1.87  38 1.88  27 1.88  50 1.89  55 1.89  17 2.82  18 2.82
                             9 2.82  11 2.82  22 2.92  23 2.92
  17  0.634  0.125  0.616-  33 1.87  37 1.87  32 1.88  42 1.88  50 1.89  56 1.89  15 2.82  16 2.82
                            10 2.82  11 2.82  22 2.92  24 2.92
  18  0.134  0.375  0.384-  34 1.87  38 1.87  31 1.88  41 1.88  49 1.89  55 1.89  15 2.82  16 2.82
                             9 2.82  12 2.82  21 2.92  23 2.92
  19  0.366  0.625  0.884-  35 1.87  39 1.87  30 1.88  44 1.88  52 1.89  54 1.89  13 2.82  14 2.82
                             9 2.82  12 2.82  22 2.92  24 2.92
  20  0.866  0.875  0.116-  36 1.87  40 1.87  29 1.88  43 1.88  51 1.89  53 1.89  13 2.82  14 2.82
                            10 2.82  11 2.82  21 2.92  23 2.92
  21  0.125  0.125  0.125-  28 2.06  31 2.06  34 2.06  40 2.06  43 2.06  46 2.06  11 2.92  12 2.92
                            14 2.92  15 2.92  18 2.92  20 2.92
  22  0.625  0.375  0.875-  27 2.06  32 2.06  33 2.06  39 2.06  44 2.06  45 2.06  11 2.92  12 2.92
                            13 2.92  16 2.92  17 2.92  19 2.92
  23  0.875  0.625  0.375-  26 2.06  29 2.06  36 2.06  38 2.06  41 2.06  48 2.06   9 2.92  10 2.92
                            13 2.92  16 2.92  18 2.92  20 2.92
  24  0.375  0.875  0.625-  25 2.06  30 2.06  35 2.06  37 2.06  42 2.06  47 2.06   9 2.92  10 2.92
                            14 2.92  15 2.92  17 2.92  19 2.92
  25  0.123  0.845  0.645-   9 1.87  14 1.88   6 1.96  24 2.06
  26  0.623  0.655  0.355-  10 1.87  13 1.88   5 1.96  23 2.06
  27  0.877  0.345  0.855-  11 1.87  16 1.88   8 1.96  22 2.06
  28  0.377  0.155  0.145-  12 1.87  15 1.88   7 1.96  21 2.06
  29  0.845  0.645  0.123-  13 1.87  20 1.88   8 1.96  23 2.06
  30  0.345  0.855  0.877-  14 1.87  19 1.88   7 1.96  24 2.06
  31  0.155  0.145  0.377-  15 1.87  18 1.88   6 1.96  21 2.06
  32  0.655  0.355  0.623-  16 1.87  17 1.88   5 1.96  22 2.06
  33  0.645  0.123  0.845-  17 1.87  11 1.88   7 1.96  22 2.06
  34  0.145  0.377  0.155-  18 1.87  12 1.88   8 1.96  21 2.06
  35  0.355  0.623  0.655-  19 1.87   9 1.88   5 1.96  24 2.06
  36  0.855  0.877  0.345-  20 1.87  10 1.88   6 1.96  23 2.06
  37  0.405  0.127  0.605-  17 1.87  15 1.88   3 1.96  24 2.06
  38  0.905  0.373  0.395-  18 1.87  16 1.88   4 1.96  23 2.06
  39  0.595  0.627  0.895-  19 1.87  13 1.88   1 1.96  22 2.06
  40  0.095  0.873  0.105-  20 1.87  14 1.88   2 1.96  21 2.06
  41  0.127  0.605  0.405-   9 1.87  18 1.88   2 1.96  23 2.06
  42  0.627  0.895  0.595-  10 1.87  17 1.88   1 1.96  24 2.06
  43  0.873  0.105  0.095-  11 1.87  20 1.88   4 1.96  21 2.06
  44  0.373  0.395  0.905-  12 1.87  19 1.88   3 1.96  22 2.06
  45  0.605  0.405  0.127-  13 1.87  12 1.88   4 1.96  22 2.06
  46  0.105  0.095  0.873-  14 1.87  11 1.88   3 1.96  21 2.06
  47  0.395  0.905  0.373-  15 1.87  10 1.88   2 1.96  24 2.06
  48  0.895  0.595  0.627-  16 1.87   9 1.88   1 1.96  23 2.06
  49  0.367  0.367  0.367-  12 1.89  15 1.89  18 1.89   5 1.96
  50  0.867  0.133  0.633-  11 1.89  16 1.89  17 1.89   6 1.96
  51  0.633  0.867  0.133-  10 1.89  13 1.89  20 1.89   7 1.96
  52  0.133  0.633  0.867-   9 1.89  14 1.89  19 1.89   8 1.96
  53  0.883  0.883  0.883-  11 1.89  14 1.89  20 1.89   1 1.96
  54  0.383  0.617  0.117-  12 1.89  13 1.89  19 1.89   2 1.96
  55  0.117  0.383  0.617-   9 1.89  16 1.89  18 1.89   3 1.96
  56  0.617  0.117  0.383-  10 1.89  15 1.89  17 1.89   4 1.96

  LATTYP: Found a simple cubic cell.
 ALAT       =     8.1127470000

  Lattice vectors:

 A1 = (   8.1127470000,   0.0000000000,   0.0000000000)
 A2 = (   0.0000000000,   8.1127470000,   0.0000000000)
 A3 = (   0.0000000000,   0.0000000000,   8.1127470000)

Analysis of symmetry for initial positions (statically):
 Subroutine PRICEL returns:
 Original cell was already a primitive cell.

 Routine SETGRP: Setting up the symmetry group for a
 simple cubic supercell.

 Subroutine GETGRP returns: Found 24 space group operations
 (whereof  3 operations were pure point group operations)
 out of a pool of 48 trial point group operations.

The static configuration has the point symmetry C_3 .
 The point group associated with its full space group is O   .

Analysis of symmetry for dynamics (positions and initial velocities):
 Subroutine PRICEL returns:
 Original cell was already a primitive cell.

[...]

The dynamic configuration has the point symmetry C_3 .
 The point group associated with its full space group is O   .

Analysis of structural, dynamic, and magnetic symmetry:
 Subroutine PRICEL returns:
 Original cell was already a primitive cell.

 Routine SETGRP: Setting up the symmetry group for a
 simple cubic supercell.

 Subroutine GETGRP returns: Found 24 space group operations
 (whereof  3 operations were pure point group operations)
 out of a pool of 48 trial point group operations.

The magnetic configuration has the point symmetry C_3 .
 The point group associated with its full space group is O   .

 Subroutine INISYM returns: Found 24 space group operations
 (whereof  3 operations are pure point group operations),
 and found     1 'primitive' translations

 KPOINTS: Automatic mesh

Automatic generation of k-mesh.
Space group operators:
 irot       det(A)        alpha          n_x          n_y          n_z        tau_x        tau_y        tau_z
    1     1.000000     0.000000     1.000000     0.000000     0.000000     0.000000     0.000000     0.000000
    2     1.000000   120.000000    -0.577350    -0.577350    -0.577350     0.000000     0.000000     0.000000
    3     1.000000   120.000000     0.577350     0.577350     0.577350     0.000000     0.000000     0.000000
    4     1.000000    90.000000     0.000000     0.000000    -1.000000     0.750000     0.250000     0.750000
    5     1.000000   180.000000     0.000000     0.707107     0.707107     0.750000     0.250000     0.750000
    6     1.000000    90.000000     0.000000     1.000000     0.000000     0.750000     0.250000     0.750000
    7     1.000000   180.000000     0.000000     0.000000     1.000000     0.500000     0.000000     0.500000
    8     1.000000   120.000000    -0.577350     0.577350     0.577350     0.500000     0.000000     0.500000
    9     1.000000   120.000000    -0.577350     0.577350    -0.577350     0.500000     0.000000     0.500000
   10     1.000000    90.000000     0.000000     0.000000     1.000000     0.750000     0.750000     0.250000
   11     1.000000    90.000000    -1.000000     0.000000     0.000000     0.750000     0.750000     0.250000
   12     1.000000   180.000000     0.707107     0.000000     0.707107     0.750000     0.750000     0.250000
   13     1.000000   120.000000     0.577350    -0.577350     0.577350     0.500000     0.500000     0.000000
   14     1.000000   120.000000    -0.577350    -0.577350     0.577350     0.500000     0.500000     0.000000
   15     1.000000   180.000000     1.000000     0.000000     0.000000     0.500000     0.500000     0.000000
[...]
   0.132E+02 -.132E+02 0.132E+02   -.128E+02 0.128E+02 -.128E+02   -.324E+00 0.324E+00 -.324E+00   -.305E-02 0.305E-02 -.305E-02
   0.132E+02 0.132E+02 -.132E+02   -.128E+02 -.128E+02 0.128E+02   -.324E+00 -.324E+00 0.324E+00   -.305E-02 -.305E-02 0.305E-02
   -.630E-06 -.241E+02 0.241E+02   0.132E-12 0.245E+02 -.245E+02   0.146E-21 -.493E+00 0.493E+00   -.148E-12 0.955E-02 -.955E-02
   -.630E-06 0.241E+02 -.241E+02   0.107E-12 -.245E+02 0.245E+02   0.000E+00 0.493E+00 -.493E+00   -.168E-12 -.955E-02 0.955E-02
   0.564E-06 -.241E+02 -.241E+02   0.320E-13 0.245E+02 0.245E+02   -.132E-21 -.493E+00 -.493E+00   -.986E-13 0.955E-02 0.955E-02
   0.564E-06 0.241E+02 0.241E+02   0.711E-14 -.245E+02 -.245E+02   0.000E+00 0.493E+00 0.493E+00   0.226E-12 -.955E-02 -.955E-02
   -.241E+02 0.241E+02 -.175E-11   0.245E+02 -.245E+02 0.568E-13   -.493E+00 0.493E+00 -.245E-21   0.955E-02 -.955E-02 0.422E-12
   -.241E+02 -.241E+02 -.676E-05   0.245E+02 0.245E+02 -.580E-13   -.493E+00 -.493E+00 -.265E-21   0.955E-02 0.955E-02 0.156E-13
   0.241E+02 0.241E+02 0.676E-05   -.245E+02 -.245E+02 -.213E-13   0.493E+00 0.493E+00 0.212E-21   -.955E-02 -.955E-02 -.661E-14
   0.241E+02 -.241E+02 0.313E-10   -.245E+02 0.245E+02 -.711E-13   0.493E+00 -.493E+00 0.106E-21   -.955E-02 0.955E-02 -.851E-12
   0.241E+02 0.630E-06 -.241E+02   -.245E+02 0.338E-13 0.245E+02   0.493E+00 0.106E-21 -.493E+00   -.955E-02 -.772E-13 0.955E-02
   0.241E+02 -.564E-06 0.241E+02   -.245E+02 0.711E-14 -.245E+02   0.493E+00 -.695E-22 0.493E+00   -.955E-02 0.406E-12 -.955E-02
   -.241E+02 0.630E-06 0.241E+02   0.245E+02 -.896E-13 -.245E+02   -.493E+00 -.357E-21 0.493E+00   0.955E-02 -.343E-13 -.955E-02
   -.241E+02 -.564E-06 -.241E+02   0.245E+02 0.568E-13 0.245E+02   -.493E+00 0.159E-21 -.493E+00   0.955E-02 -.305E-12 0.955E-02
   0.436E-07 -.436E-07 -.188E-10   -.768E-13 0.643E-13 0.533E-13   0.106E-21 0.106E-21 -.529E-21   -.442E-13 0.197E-12 0.473E-12
   0.436E-07 0.436E-07 -.130E-10   -.340E-13 -.711E-14 -.644E-14   0.424E-21 0.476E-21 0.424E-21   -.312E-12 0.419E-12 0.190E-12
   -.436E-07 -.436E-07 -.216E-10   0.355E-14 0.393E-13 -.101E-13   -.106E-21 0.000E+00 -.634E-21   0.384E-14 -.899E-13 -.170E-12
   -.436E-07 0.436E-07 -.110E-10   0.284E-13 0.924E-13 -.213E-13   -.159E-21 -.132E-21 -.529E-22   0.405E-12 0.588E-13 -.666E-12
   0.119E+03 -.183E+03 0.209E+03   -.126E+03 0.193E+03 -.220E+03   0.728E+01 -.101E+02 0.109E+02   0.149E-01 0.446E-02 -.962E-02
   0.119E+03 0.183E+03 -.209E+03   -.126E+03 -.193E+03 0.220E+03   0.728E+01 0.101E+02 -.109E+02   0.149E-01 -.446E-02 0.962E-02
   -.119E+03 -.183E+03 -.209E+03   0.126E+03 0.193E+03 0.220E+03   -.728E+01 -.101E+02 -.109E+02   -.149E-01 0.446E-02 0.962E-02
   -.119E+03 0.183E+03 0.209E+03   0.126E+03 -.193E+03 -.220E+03   -.728E+01 0.101E+02 0.109E+02   -.149E-01 -.446E-02 -.962E-02
   -.183E+03 0.209E+03 0.119E+03   0.193E+03 -.220E+03 -.126E+03   -.101E+02 0.109E+02 0.728E+01   0.446E-02 -.962E-02 0.149E-01
   -.183E+03 -.209E+03 -.119E+03   0.193E+03 0.220E+03 0.126E+03   -.101E+02 -.109E+02 -.728E+01   0.446E-02 0.962E-02 -.149E-01
   0.183E+03 0.209E+03 -.119E+03   -.193E+03 -.220E+03 0.126E+03   0.101E+02 0.109E+02 -.728E+01   -.446E-02 -.962E-02 -.149E-01
   0.183E+03 -.209E+03 0.119E+03   -.193E+03 0.220E+03 -.126E+03   0.101E+02 -.109E+02 0.728E+01   -.446E-02 0.962E-02 0.149E-01
   0.209E+03 0.119E+03 -.183E+03   -.220E+03 -.126E+03 0.193E+03   0.109E+02 0.728E+01 -.101E+02   -.962E-02 0.149E-01 0.446E-02
   0.209E+03 -.119E+03 0.183E+03   -.220E+03 0.126E+03 -.193E+03   0.109E+02 -.728E+01 0.101E+02   -.962E-02 -.149E-01 -.446E-02
   -.209E+03 0.119E+03 0.183E+03   0.220E+03 -.126E+03 -.193E+03   -.109E+02 0.728E+01 0.101E+02   0.962E-02 0.149E-01 -.446E-02
   -.209E+03 -.119E+03 -.183E+03   0.220E+03 0.126E+03 0.193E+03   -.109E+02 -.728E+01 -.101E+02   0.962E-02 -.149E-01 0.446E-02
   0.183E+03 -.119E+03 -.209E+03   -.193E+03 0.126E+03 0.220E+03   0.101E+02 -.728E+01 -.109E+02   -.446E-02 -.149E-01 0.962E-02
   0.183E+03 0.119E+03 0.209E+03   -.193E+03 -.126E+03 -.220E+03   0.101E+02 0.728E+01 0.109E+02   -.446E-02 0.149E-01 -.962E-02
   -.183E+03 -.119E+03 0.209E+03   0.193E+03 0.126E+03 -.220E+03   -.101E+02 -.728E+01 0.109E+02   0.446E-02 -.149E-01 -.962E-02
   -.183E+03 0.119E+03 -.209E+03   0.193E+03 -.126E+03 0.220E+03   -.101E+02 0.728E+01 -.109E+02   0.446E-02 0.149E-01 0.962E-02
   -.119E+03 -.209E+03 0.183E+03   0.126E+03 0.220E+03 -.193E+03   -.728E+01 -.109E+02 0.101E+02   -.149E-01 0.962E-02 -.446E-02
   -.119E+03 0.209E+03 -.183E+03   0.126E+03 -.220E+03 0.193E+03   -.728E+01 0.109E+02 -.101E+02   -.149E-01 -.962E-02 0.446E-02
   0.119E+03 -.209E+03 -.183E+03   -.126E+03 0.220E+03 0.193E+03   0.728E+01 -.109E+02 -.101E+02   0.149E-01 0.962E-02 0.446E-02
   0.119E+03 0.209E+03 0.183E+03   -.126E+03 -.220E+03 -.193E+03   0.728E+01 0.109E+02 0.101E+02   0.149E-01 -.962E-02 -.446E-02
   -.209E+03 0.183E+03 -.119E+03   0.220E+03 -.193E+03 0.126E+03   -.109E+02 0.101E+02 -.728E+01   0.962E-02 -.446E-02 -.149E-01
   -.209E+03 -.183E+03 0.119E+03   0.220E+03 0.193E+03 -.126E+03   -.109E+02 -.101E+02 0.728E+01   0.962E-02 0.446E-02 0.149E-01
   0.209E+03 0.183E+03 0.119E+03   -.220E+03 -.193E+03 -.126E+03   0.109E+02 0.101E+02 0.728E+01   -.962E-02 -.446E-02 0.149E-01
   0.209E+03 -.183E+03 -.119E+03   -.220E+03 0.193E+03 0.126E+03   0.109E+02 -.101E+02 -.728E+01   -.962E-02 0.446E-02 -.149E-01
   -.177E+03 -.177E+03 -.177E+03   0.187E+03 0.187E+03 0.187E+03   -.103E+02 -.103E+02 -.103E+02   0.134E-02 0.134E-02 0.134E-02
   -.177E+03 0.177E+03 0.177E+03   0.187E+03 -.187E+03 -.187E+03   -.103E+02 0.103E+02 0.103E+02   0.134E-02 -.134E-02 -.134E-02
   0.177E+03 -.177E+03 0.177E+03   -.187E+03 0.187E+03 -.187E+03   0.103E+02 -.103E+02 0.103E+02   -.134E-02 0.134E-02 -.134E-02
   0.177E+03 0.177E+03 -.177E+03   -.187E+03 -.187E+03 0.187E+03   0.103E+02 0.103E+02 -.103E+02   -.134E-02 -.134E-02 0.134E-02
   0.177E+03 0.177E+03 0.177E+03   -.187E+03 -.187E+03 -.187E+03   0.103E+02 0.103E+02 0.103E+02   -.134E-02 -.134E-02 -.134E-02
   0.177E+03 -.177E+03 -.177E+03   -.187E+03 0.187E+03 0.187E+03   0.103E+02 -.103E+02 -.103E+02   -.134E-02 0.134E-02 0.134E-02
   -.177E+03 0.177E+03 -.177E+03   0.187E+03 -.187E+03 0.187E+03   -.103E+02 0.103E+02 -.103E+02   0.134E-02 -.134E-02 0.134E-02
   -.177E+03 -.177E+03 0.177E+03   0.187E+03 0.187E+03 -.187E+03   -.103E+02 -.103E+02 0.103E+02   0.134E-02 0.134E-02 -.134E-02
   -.224E-05 0.224E-05 0.603E-09   -.398E-12 -.568E-12 0.398E-12   0.000E+00 -.178E-14 -.107E-13   -.420E-12 0.109E-11 -.133E-11

 POSITION                                       TOTAL-FORCE (eV/Angst)
      6.03344      6.03344      6.03344         0.077633      0.077633      0.077633
      1.97707      6.13568      2.07931         0.077633     -0.077633     -0.077633
      2.07931      1.97707      6.13568        -0.077633      0.077633     -0.077633
      6.13568      2.07931      1.97707        -0.077633     -0.077633      0.077633
      4.10749      4.10749      4.10749        -0.077633     -0.077633     -0.077633
      0.05112      8.06163      4.00526        -0.077633      0.077633      0.077633
      4.00526      0.05112      8.06163         0.077633     -0.077633      0.077633
      8.06163      4.00526      0.05112         0.077633      0.077633     -0.077633
      1.01409      4.99417      5.14676         0.000000     -0.110763      0.110763
      5.07047      7.17495      2.96599         0.000000      0.110763     -0.110763
      7.09865      0.93780      7.02236         0.000000     -0.110763     -0.110763
      3.04228      3.11857      1.09039         0.000000      0.110763      0.110763
      4.99417      5.14676      1.01409        -0.110763      0.110763      0.000000
      0.93780      7.02236      7.09865        -0.110763     -0.110763      0.000000
      3.11857      1.09039      3.04228         0.110763      0.110763      0.000000
      7.17495      2.96599      5.07047         0.110763     -0.110763      0.000000
      5.14676      1.01409      4.99417         0.110763     -0.000000     -0.110763
      1.09039      3.04228      3.11857         0.110763     -0.000000      0.110763
      2.96599      5.07047      7.17495        -0.110763     -0.000000      0.110763
      7.02236      7.09865      0.93780        -0.110763     -0.000000     -0.110763
      1.01409      1.01409      1.01409         0.000000     -0.000000      0.000000
      5.07047      3.04228      7.09865         0.000000     -0.000000      0.000000
      7.09865      5.07047      3.04228         0.000000     -0.000000      0.000000
      3.04228      7.09865      5.07047         0.000000     -0.000000      0.000000
      0.99822      6.85839      5.22948         0.737873      0.207447      0.214944
      5.05459      5.31073      2.88326         0.737873     -0.207447     -0.214944
      7.11453      2.80201      6.93964        -0.737873      0.207447     -0.214944
      3.05816      1.25436      1.17311        -0.737873     -0.207447      0.214944
      6.85839      5.22948      0.99822         0.207447      0.214944      0.737873
      2.80201      6.93964      7.11453         0.207447     -0.214944     -0.737873
      1.25436      1.17311      3.05816        -0.207447      0.214944     -0.737873
      5.31073      2.88326      5.05459        -0.207447     -0.214944      0.737873
      5.22948      0.99822      6.85839         0.214944      0.737873      0.207447
      1.17311      3.05816      1.25436         0.214944     -0.737873     -0.207447
      2.88326      5.05459      5.31073        -0.214944      0.737873     -0.207447
      6.93964      7.11453      2.80201        -0.214944     -0.737873      0.207447
      3.28255      1.02997      4.91145        -0.207447     -0.737873     -0.214944
      7.33892      3.02640      3.20130        -0.207447      0.737873      0.214944
      4.83020      5.08634      7.25767         0.207447     -0.737873      0.214944
      0.77383      7.08278      0.85508         0.207447      0.737873     -0.214944
      1.02997      4.91145      3.28255        -0.737873     -0.214944     -0.207447
      5.08634      7.25767      4.83020        -0.737873      0.214944      0.207447
      7.08278      0.85508      0.77383         0.737873     -0.214944      0.207447
      3.02640      3.20130      7.33892         0.737873      0.214944     -0.207447
      4.91145      3.28255      1.02997        -0.214944     -0.207447     -0.737873
      0.85508      0.77383      7.08278        -0.214944      0.207447      0.737873
      3.20130      7.33892      3.02640         0.214944     -0.207447      0.737873
      7.25767      4.83020      5.08634         0.214944      0.207447     -0.737873
      2.97718      2.97718      2.97718         0.000799      0.000799      0.000799
      7.03356      1.07919      5.13556         0.000799     -0.000799     -0.000799
      5.13556      7.03356      1.07919        -0.000799      0.000799     -0.000799
      1.07919      5.13556      7.03356        -0.000799     -0.000799      0.000799
      7.16375      7.16375      7.16375        -0.000799     -0.000799     -0.000799
      3.10738      5.00537      0.94900        -0.000799      0.000799      0.000799
      0.94900      3.10738      5.00537         0.000799     -0.000799      0.000799
      5.00537      0.94900      3.10738         0.000799      0.000799     -0.000799
    total drift:                               -0.000002      0.000002      0.000000

  FREE ENERGIE OF THE ION-ELECTRON SYSTEM (eV)
  free  energy   TOTEN  =      -342.9291666145 eV

  energy  without entropy=     -342.9291651202  energy(sigma->0) =     -342.92916587

volume of typ            1:    11.7 %

[...]

volume of typ            3:     9.8 %

total charge

# of ion       s       p       d       tot
    1        2.095   0.291   0.106   2.492
    2        2.095   0.291   0.106   2.492
    3        2.095   0.291   0.106   2.492
    4        2.095   0.291   0.106   2.492
    5        2.095   0.291   0.106   2.492
    6        2.095   0.291   0.106   2.492
    7        2.095   0.291   0.106   2.492
    8        2.095   0.291   0.106   2.492
    9        0.292   0.404   7.806   8.502
   10        0.292   0.404   7.806   8.502
   11        0.292   0.404   7.806   8.502
   12        0.292   0.404   7.806   8.502
   13        0.292   0.404   7.806   8.502
   14        0.292   0.404   7.806   8.502
   15        0.292   0.404   7.806   8.502
   16        0.292   0.404   7.806   8.502
   17        0.292   0.404   7.806   8.502
   18        0.292   0.404   7.806   8.502
   19        0.292   0.404   7.806   8.502
   20        0.292   0.404   7.806   8.502
   21        0.217   0.230   7.832   8.279
   22        0.217   0.230   7.832   8.279
   23        0.217   0.230   7.832   8.279
   24        0.217   0.230   7.832   8.279
   25        1.265   2.762   0.006   4.033
   26        1.265   2.762   0.006   4.033
   27        1.265   2.762   0.006   4.033
   28        1.265   2.762   0.006   4.033
   29        1.265   2.762   0.006   4.033
   30        1.265   2.762   0.006   4.033
   31        1.265   2.762   0.006   4.033
   32        1.265   2.762   0.006   4.033
   33        1.265   2.762   0.006   4.033
   34        1.265   2.762   0.006   4.033
   35        1.265   2.762   0.006   4.033
   36        1.265   2.762   0.006   4.033
   37        1.265   2.762   0.006   4.033
   38        1.265   2.762   0.006   4.033
   39        1.265   2.762   0.006   4.033
   40        1.265   2.762   0.006   4.033
   41        1.265   2.762   0.006   4.033
   42        1.265   2.762   0.006   4.033
   43        1.265   2.762   0.006   4.033
   44        1.265   2.762   0.006   4.033
   45        1.265   2.762   0.006   4.033
   46        1.265   2.762   0.006   4.033
   47        1.265   2.762   0.006   4.033
   48        1.265   2.762   0.006   4.033
   49        1.268   2.767   0.007   4.042
   50        1.268   2.767   0.007   4.042
   51        1.268   2.767   0.007   4.042
   52        1.268   2.767   0.007   4.042
   53        1.268   2.767   0.007   4.042
   54        1.268   2.767   0.007   4.042
   55        1.268   2.767   0.007   4.042
   56        1.268   2.767   0.007   4.042
tot          61.64   96.51  126.04  284.19

magnetization (x)

# of ion       s       p       d       tot
    1        0.005   0.004   0.000   0.008
    2        0.005   0.004   0.000   0.008
    3        0.005   0.004   0.000   0.008
    4        0.005   0.004   0.000   0.008
    5        0.005   0.004   0.000   0.008
    6        0.005   0.004   0.000   0.008
    7        0.005   0.004   0.000   0.008
    8        0.005   0.004   0.000   0.008
    9       -0.000   0.001   0.096   0.097
   10       -0.000   0.001   0.096   0.097
   11       -0.000   0.001   0.096   0.097
   12       -0.000   0.001   0.096   0.097
   13       -0.000   0.001   0.096   0.097
   14       -0.000   0.001   0.096   0.097
   15       -0.000   0.001   0.096   0.097
   16       -0.000   0.001   0.096   0.097
   17       -0.000   0.001   0.096   0.097
   18       -0.000   0.001   0.096   0.097
   19       -0.000   0.001   0.096   0.097
   20       -0.000   0.001   0.096   0.097
   21        0.002   0.001   1.275   1.277
   22        0.002   0.001   1.275   1.277
   23        0.002   0.001   1.275   1.277
   24        0.002   0.001   1.275   1.277
   25        0.006   0.040   0.000   0.046
   26        0.006   0.040   0.000   0.046
   27        0.006   0.040   0.000   0.046
   28        0.006   0.040   0.000   0.046
   29        0.006   0.040   0.000   0.046
   30        0.006   0.040   0.000   0.046
   31        0.006   0.040   0.000   0.046
   32        0.006   0.040   0.000   0.046
   33        0.006   0.040   0.000   0.046
   34        0.006   0.040   0.000   0.046
   35        0.006   0.040   0.000   0.046
   36        0.006   0.040   0.000   0.046
   37        0.006   0.040   0.000   0.046
   38        0.006   0.040   0.000   0.046
   39        0.006   0.040   0.000   0.046
   40        0.006   0.040   0.000   0.046
   41        0.006   0.040   0.000   0.046
   42        0.006   0.040   0.000   0.046
   43        0.006   0.040   0.000   0.046
   44        0.006   0.040   0.000   0.046
   45        0.006   0.040   0.000   0.046
   46        0.006   0.040   0.000   0.046
   47        0.006   0.040   0.000   0.046
   48        0.006   0.040   0.000   0.046
   49        0.004  -0.012   0.000  -0.008
   50        0.004  -0.012   0.000  -0.008
   51        0.004  -0.012   0.000  -0.008
   52        0.004  -0.012   0.000  -0.008
   53        0.004  -0.012   0.000  -0.008
   54        0.004  -0.012   0.000  -0.008
   55        0.004  -0.012   0.000  -0.008
   56        0.004  -0.012   0.000  -0.008
tot           0.22    0.91    6.26    7.39