 vasp.5.4.4.18Apr17-6-g9f103f2a35 (build May 12 2020 05:39:39) gamma-only

 MD_VERSION_INFO: Compiled 2020-05-12T12:39:39-UTC in devlin.sd.materialsdesign.
 com:/home/medea2/data/build/wwolf/vasp-gpu5.4.4/13047/x86_64/src/src/build/gam
 from svn 13047

 executed on                        Lin64 date 2023.03.14  17:58:17

 INCAR:
 POTCAR:    PAW_PBE Li_sv 10Sep2004
 POTCAR:    PAW_PBE Ni 02Aug2007
 POTCAR:    PAW_PBE O 08Apr2002

 POTCAR:    PAW_PBE Li_sv 10Sep2004

 POTCAR:    PAW_PBE Ni 02Aug2007

 POTCAR:    PAW_PBE O 08Apr2002

 Optimization of the real space projectors (new method)

 maximal supplied QI-value         = 22.11
 optimisation between [QCUT,QGAM] = [ 11.28, 22.77] = [ 35.61,145.23] Ry
 Optimized for a Real-space Cutoff    1.10 Angstroem

   l    n(q)    QCUT    max X(q) W(low)/X(q) W(high)/X(q)  e(spline)
   0      7    11.276    10.506    0.54E-04    0.58E-04    0.16E-07
   0      7    11.276     8.367    0.11E-03    0.14E-03    0.35E-07
   1      7    11.276     8.983    0.23E-03    0.43E-03    0.86E-07
 Optimization of the real space projectors (new method)

[...]

   l    n(q)    QCUT    max X(q) W(low)/X(q) W(high)/X(q)  e(spline)
   2      9    11.376    60.317    0.17E-03    0.16E-04    0.16E-06
   2      9    11.376    55.921    0.17E-03    0.16E-04    0.17E-06
   0     10    11.376    51.690    0.45E-04    0.60E-04    0.21E-06
   0     10    11.376    30.015    0.37E-04    0.55E-04    0.19E-06
   1     10    11.376    18.849    0.83E-04    0.11E-03    0.92E-07
   1     10    11.376    14.624    0.69E-04    0.92E-04    0.82E-07
 Optimization of the real space projectors (new method)

 maximal supplied QI-value         = 24.76
 optimisation between [QCUT,QGAM] = [ 11.39, 22.77] = [ 36.31,145.25] Ry
 Optimized for a Real-space Cutoff    1.10 Angstroem

   l    n(q)    QCUT    max X(q) W(low)/X(q) W(high)/X(q)  e(spline)
   0      7    11.387    20.381    0.22E-03    0.48E-03    0.18E-06
   0      7    11.387    15.268    0.22E-03    0.52E-03    0.19E-06
   1      7    11.387     5.964    0.22E-03    0.73E-03    0.24E-06
   1      7    11.387     5.382    0.19E-03    0.60E-03    0.21E-06

  PAW_PBE Li_sv 10Sep2004               :
  PAW_PBE Ni 02Aug2007                  :
  PAW_PBE O 08Apr2002                   :

 POSCAR: Li(NiO2)2_fd3m.cif
  positions in direct lattice
 exchange correlation table for  LEXCH =       14
   RHO(1)=    0.500       N(1)  =     2000
   RHO(2)=  100.500       N(2)  =     4000

 ion  position               nearest neighbor table
   1  0.375  0.375  0.375-  14 1.95  13 1.95  12 1.95  11 1.95
   2  0.625  0.625  0.625-  10 1.95   9 1.95   8 1.95   7 1.95
   3  0.000  0.000  0.000-   8 1.93   9 1.93  10 1.93  12 1.93  13 1.93  14 1.93   4 2.88   5 2.88
                             6 2.88   6 2.88   5 2.88   4 2.88
   4  0.500  0.000  0.000-   7 1.93  11 1.93  10 1.93  14 1.93  13 1.93   9 1.93   3 2.88   6 2.88
                             5 2.88   3 2.88   5 2.88   6 2.88
   5  0.000  0.500  0.000-   7 1.93  11 1.93  10 1.93  14 1.93  12 1.93   8 1.93   3 2.88   6 2.88
                             3 2.88   4 2.88   6 2.88   4 2.88
   6  0.000  0.000  0.500-   7 1.93  11 1.93   9 1.93   8 1.93  12 1.93  13 1.93   3 2.88   3 2.88
                             4 2.88   5 2.88   5 2.88   4 2.88
   7  0.763  0.763  0.763-   4 1.93   5 1.93   6 1.93   2 1.95
   8  0.210  0.763  0.763-   3 1.93   6 1.93   5 1.93   2 1.95
   9  0.763  0.210  0.763-   3 1.93   6 1.93   4 1.93   2 1.95
  10  0.763  0.763  0.210-   3 1.93   4 1.93   5 1.93   2 1.95
  11  0.237  0.237  0.237-   4 1.93   5 1.93   6 1.93   1 1.95
  12  0.790  0.237  0.237-   3 1.93   6 1.93   5 1.93   1 1.95
  13  0.237  0.790  0.237-   3 1.93   6 1.93   4 1.93   1 1.95
  14  0.237  0.237  0.790-   3 1.93   4 1.93   5 1.93   1 1.95

  LATTYP: Found a face centered cubic cell.
 ALAT       =     8.1428100000

  Lattice vectors:

 A1 = (   0.0000000000,   4.0714050000,   4.0714050000)
 A2 = (   4.0714050000,   0.0000000000,   4.0714050000)
 A3 = (   4.0714050000,   4.0714050000,   0.0000000000)

Analysis of symmetry for initial positions (statically):
 Subroutine PRICEL returns:
 Original cell was already a primitive cell.

 Routine SETGRP: Setting up the symmetry group for a
 face centered cubic supercell.

 Subroutine GETGRP returns: Found 48 space group operations
 (whereof 12 operations were pure point group operations)
 out of a pool of 48 trial point group operations.

The static configuration has the point symmetry D_3d.
 The point group associated with its full space group is O_h .

Analysis of symmetry for dynamics (positions and initial velocities):
 Subroutine PRICEL returns:
 Original cell was already a primitive cell.

[...]

The dynamic configuration has the point symmetry D_3d.
 The point group associated with its full space group is O_h .

Analysis of structural, dynamic, and magnetic symmetry:
 Subroutine PRICEL returns:
 Original cell was already a primitive cell.

 Routine SETGRP: Setting up the symmetry group for a
 face centered cubic supercell.

 Subroutine GETGRP returns: Found 48 space group operations
 (whereof 12 operations were pure point group operations)
 out of a pool of 48 trial point group operations.

The magnetic configuration has the point symmetry D_3d.
 The point group associated with its full space group is O_h .

 Subroutine INISYM returns: Found 48 space group operations
 (whereof 12 operations are pure point group operations),
 and found     1 'primitive' translations

 KPOINTS: Automatic mesh

Automatic generation of k-mesh.
Space group operators:
 irot       det(A)        alpha          n_x          n_y          n_z        tau_x        tau_y        tau_z
    1     1.000000     0.000000     1.000000     0.000000     0.000000     0.000000     0.000000     0.000000
    2    -1.000000     0.000000     1.000000     0.000000     0.000000     0.000000     0.000000     0.000000
    3     1.000000   120.000000    -0.577350    -0.577350    -0.577350     0.000000     0.000000     0.000000
    4    -1.000000   120.000000    -0.577350    -0.577350    -0.577350     0.000000     0.000000     0.000000
    5     1.000000   120.000000     0.577350     0.577350     0.577350     0.000000     0.000000     0.000000
    6    -1.000000   120.000000     0.577350     0.577350     0.577350     0.000000     0.000000     0.000000
    7     1.000000   180.000000     0.000000    -0.707107     0.707107     0.000000     0.000000     0.000000
    8    -1.000000   180.000000     0.000000    -0.707107     0.707107     0.000000     0.000000     0.000000
    9     1.000000   180.000000     0.707107    -0.707107     0.000000     0.000000     0.000000     0.000000
   10    -1.000000   180.000000     0.707107    -0.707107     0.000000     0.000000     0.000000     0.000000
   11     1.000000   180.000000     0.707107     0.000000    -0.707107     0.000000     0.000000     0.000000
   12    -1.000000   180.000000     0.707107     0.000000    -0.707107     0.000000     0.000000     0.000000
   13     1.000000    90.000000     0.000000     0.000000    -1.000000     0.500000     0.000000     0.000000
   14    -1.000000    90.000000     0.000000     0.000000    -1.000000     0.500000     0.000000     0.000000
   15     1.000000   180.000000     0.000000     0.707107     0.707107     0.500000     0.000000     0.000000
   16    -1.000000   180.000000     0.000000     0.707107     0.707107     0.500000     0.000000     0.000000
   17     1.000000    90.000000     0.000000     1.000000     0.000000     0.500000     0.000000     0.000000
   18    -1.000000    90.000000     0.000000     1.000000     0.000000     0.500000     0.000000     0.000000
   19     1.000000   180.000000     0.000000     0.000000     1.000000     0.000000     0.000000     0.500000
   20    -1.000000   180.000000     0.000000     0.000000     1.000000     0.000000     0.000000     0.500000
   21     1.000000   120.000000    -0.577350     0.577350     0.577350     0.000000     0.000000     0.500000
   22    -1.000000   120.000000    -0.577350     0.577350     0.577350     0.000000     0.000000     0.500000
   23     1.000000   120.000000    -0.577350     0.577350    -0.577350     0.000000     0.000000     0.500000
   24    -1.000000   120.000000    -0.577350     0.577350    -0.577350     0.000000     0.000000     0.500000
   25     1.000000    90.000000     0.000000     0.000000     1.000000     0.000000     0.500000     0.000000
   26    -1.000000    90.000000     0.000000     0.000000     1.000000     0.000000     0.500000     0.000000
   27     1.000000    90.000000    -1.000000     0.000000     0.000000     0.000000     0.500000     0.000000
   28    -1.000000    90.000000    -1.000000     0.000000     0.000000     0.000000     0.500000     0.000000
   29     1.000000   180.000000     0.707107     0.000000     0.707107     0.000000     0.500000     0.000000
   30    -1.000000   180.000000     0.707107     0.000000     0.707107     0.000000     0.500000     0.000000
   31     1.000000   120.000000     0.577350    -0.577350     0.577350     0.500000     0.000000     0.000000
   32    -1.000000   120.000000     0.577350    -0.577350     0.577350     0.500000     0.000000     0.000000
   33     1.000000   120.000000    -0.577350    -0.577350     0.577350     0.500000     0.000000     0.000000
   34    -1.000000   120.000000    -0.577350    -0.577350     0.577350     0.500000     0.000000     0.000000
   35     1.000000   180.000000     1.000000     0.000000     0.000000     0.500000     0.000000     0.000000
   36    -1.000000   180.000000     1.000000     0.000000     0.000000     0.500000     0.000000     0.000000
   37     1.000000    90.000000     0.000000    -1.000000     0.000000     0.000000     0.000000     0.500000
   38    -1.000000    90.000000     0.000000    -1.000000     0.000000     0.000000     0.000000     0.500000
   39     1.000000   180.000000     0.707107     0.707107     0.000000     0.000000     0.000000     0.500000
   40    -1.000000   180.000000     0.707107     0.707107     0.000000     0.000000     0.000000     0.500000
   41     1.000000    90.000000     1.000000     0.000000     0.000000     0.000000     0.000000     0.500000
   42    -1.000000    90.000000     1.000000     0.000000     0.000000     0.000000     0.000000     0.500000
   43     1.000000   120.000000     0.577350    -0.577350    -0.577350     0.000000     0.500000     0.000000
   44    -1.000000   120.000000     0.577350    -0.577350    -0.577350     0.000000     0.500000     0.000000
   45     1.000000   180.000000     0.000000     1.000000     0.000000     0.000000     0.500000     0.000000
   46    -1.000000   180.000000     0.000000     1.000000     0.000000     0.000000     0.500000     0.000000
   47     1.000000   120.000000     0.577350     0.577350    -0.577350     0.000000     0.500000     0.000000
   48    -1.000000   120.000000     0.577350     0.577350    -0.577350     0.000000     0.500000     0.000000

 Subroutine IBZKPT returns following result:

 Found      1 irreducible k-points:

 Following reciprocal coordinates:
            Coordinates               Weight
  0.000000  0.000000  0.000000      1.000000

[...]
   4.17961211  4.17961211  1.92749539

 use serial FFT for orbitals x direction half grid
 k-point  1 :   0.0000 0.0000 0.0000  plane waves:    1740

 maximum and minimum number of plane-waves per node :      1740     1740

 maximum number of plane-waves:      1740
 maximum index in each direction:
   IXMAX=   10   IYMAX=   10   IZMAX=   10
   IXMIN=    0   IYMIN=   -8   IZMIN=   -8

 The following grids will avoid any aliasing or wrap around errors in the Hartre
 e energy
  - symmetry arguments have not been applied
  - exchange correlation energies might require even more grid points
  - we recommend to set PREC=Normal or Accurate and rely on VASP defaults
 NGX is ok and might be reduce to    42
 NGY is ok and might be reduce to    40
 NGZ is ok and might be reduce to    40

 serial   3D FFT for wavefunctions
 parallel 3D FFT for charge:
    minimum data exchange during FFTs selected (reduces bandwidth)

 Broyden mixing: mesh for mixing (old mesh)
   NGX = 21   NGY = 21   NGZ = 21
  (NGX  = 84   NGY  = 84   NGZ  = 84)
  gives a total of   9261 points

 initial charge density was supplied:
 charge density of overlapping atoms calculated
 number of electron      94.0000000 magnetization      14.0000000
 keeping initial charge density in first step

 Maximum index for non-local projection operator         7107
 Maximum index for augmentation-charges         1570 (set IRDMAX)

 First call to EWALD:  gamma=   0.346
 Maximum number of real-space cells 3x 3x 3
 Maximum number of reciprocal cells 3x 3x 3

--------------------------------------- Iteration      1(   1)  ---------------------------------------

 eigenvalue-minimisations  :   272
 total energy-change (2. order) : 0.1175331E+04  (-0.4812930E+04)
 number of electron      94.0000000 magnetization      14.0000000
 augmentation part       94.0000000 magnetization      14.0000000

 Free energy of the ion-electron system (eV)
  alpha Z        PSCENC =       281.77914435
  Ewald energy   TEWEN  =     -5658.30186957
  -Hartree energ DENC   =     -2664.40516444
  -exchange      EXHF   =         0.00000000
  -V(xc)+E(xc)   XCENC  =       379.99839746
  PAW double counting   =      6776.18377231    -7085.62280893
  entropy T*S    EENTRO =        -0.00000000
  eigenvalues    EBANDS =       990.24662249
  atomic energy  EATOM  =      8155.45276952
  Solvation  Ediel_sol  =         0.00000000
  free energy    TOTEN  =      1175.33086320 eV

  energy without entropy =     1175.33086320  energy(sigma->0) =     1175.33086320

[...]

 eigenvalue-minimisations  :   336
 total energy-change (2. order) :-0.1147720E+04  (-0.9408603E+03)
 number of electron      94.0000000 magnetization      14.0000000
 augmentation part       94.0000000 magnetization      14.0000000

[...]

 Broyden mixing:
  rms(total) = 0.53035E+01    rms(broyden)= 0.53026E+01
  rms(prec ) = 0.93538E+01
  weight for this iteration     100.00

[...]

 eigenvalues of (default mixing * dielectric matrix)
  average eigenvalue GAMMA=   0.4356
  0.4356

[...]

 eigenvalue-minimisations  :   304
 total energy-change (2. order) : 0.4213171E+02  (-0.7746069E+01)
 number of electron      94.0000007 magnetization      -2.3075351
 augmentation part       31.1992248 magnetization      -1.4418617

[...]

 Broyden mixing:
  rms(total) = 0.16764E-02    rms(broyden)= 0.16762E-02
  rms(prec ) = 0.21775E-02
  weight for this iteration     100.00

 eigenvalues of (default mixing * dielectric matrix)
  average eigenvalue GAMMA=   1.1898
  2.7032  2.2959  1.2659  0.4518  0.9615  0.9615  0.7822  0.6304  0.6561

[...]

--------------------------------------- Iteration      1(  15)  ---------------------------------------

 eigenvalue-minimisations  :   224
 total energy-change (2. order) :-0.6790298E-05  (-0.6950834E-06)
 number of electron      94.0000007 magnetization      -2.0004593
 augmentation part       31.2844459 magnetization      -1.3830210

 Free energy of the ion-electron system (eV)
  alpha Z        PSCENC =       281.77914435
  Ewald energy   TEWEN  =     -5658.30186957
  -Hartree energ DENC   =     -2607.55810437
  -exchange      EXHF   =         0.00000000
  -V(xc)+E(xc)   XCENC  =       378.35773498
  PAW double counting   =      8604.20385533    -8923.96104289
  entropy T*S    EENTRO =        -0.03856558
  eigenvalues    EBANDS =      -316.16351603
  atomic energy  EATOM  =      8155.45276952
  Solvation  Ediel_sol  =         0.00000000
  free energy    TOTEN  =       -86.22959424 eV

  energy without entropy =      -86.19102866  energy(sigma->0) =      -86.21031145

 average (electrostatic) potential at core
  the test charge radii are     0.7079  0.9791  0.7215
  (the norm of the test charge is              1.0000)
       1 -58.2532       2 -58.2532       3 -87.7225       4 -87.7225       5 -87.7225
       6 -87.7225       7 -71.1872       8 -71.1872       9 -71.1872      10 -71.1872
      11 -71.1872      12 -71.1872      13 -71.1872      14 -71.1872

 E-fermi :   4.8886     XC(G=0): -11.1885     alpha+bet :-11.9626

 spin component 1

 k-point     1 :       0.0000    0.0000    0.0000
  band No.  band energies     occupation
      1     -38.9456      1.00000
      2     -38.9428      1.00000
      3     -15.3330      1.00000
      4     -13.9418      1.00000
      5     -13.5764      1.00000
      6     -13.5764      1.00000
      7     -13.5764      1.00000
      8     -13.5593      1.00000
      9     -13.5593      1.00000
     10     -13.5593      1.00000
     11      -2.6147      1.00000
     12      -2.5955      1.00000
     13      -2.5955      1.00000
     14      -2.5955      1.00000
     15      -1.3299      1.00000
     16      -1.3299      1.00000
     17      -1.0931      1.00000
     18      -1.0931      1.00000
     19      -0.9241      1.00000
     20      -0.4608      1.00000
     21      -0.4608      1.00000
     22      -0.4608      1.00000
     23       0.3388      1.00000
     24       0.3388      1.00000
     25       0.3388      1.00000
     26       1.0163      1.00000
     27       1.0163      1.00000
     28       1.0163      1.00000
     29       1.3536      1.00000
     30       1.3536      1.00000
     31       1.3536      1.00000
     32       1.8698      1.00000
     33       1.8698      1.00000
     34       2.4921      1.00000
     35       2.4921      1.00000
     36       2.4921      1.00000
     37       2.5874      1.00000
     38       2.5874      1.00000
     39       2.5874      1.00000
     40       2.7025      1.00000
     41       2.7025      1.00000
     42       2.7025      1.00000
     43       3.0330      1.00000
     44       3.0330      1.00000
     45       3.0330      1.00000
     46       3.2132      1.00000
     47       5.3536      0.00000
     48       5.3536      0.00000
     49       5.3536      0.00000
     50       5.6690      0.00000
     51       5.6690      0.00000
     52       5.6690      0.00000
     53       5.7417      0.00000
     54       5.7417      0.00000
     55       9.6842      0.00000
     56      12.8273      0.00000
     57      12.8274      0.00000
     58      12.8274      0.00000
     59      13.1986      0.00000
     60      13.1986      0.00000
     61      13.1986      0.00000
     62      16.0772      0.00000
     63      16.8639      0.00000
     64      16.8639      0.00000

 spin component 2

 k-point     1 :       0.0000    0.0000    0.0000
  band No.  band energies     occupation
      1     -38.9507      1.00000
      2     -38.9479      1.00000
      3     -15.4718      1.00000
      4     -14.1028      1.00000
      5     -13.7389      1.00000
      6     -13.7389      1.00000
      7     -13.7389      1.00000
      8     -13.7098      1.00000
      9     -13.7098      1.00000
     10     -13.7098      1.00000
     11      -2.7888      1.00000
     12      -2.6684      1.00000
     13      -2.6684      1.00000
     14      -2.6684      1.00000
     15      -1.3780      1.00000
     16      -1.3780      1.00000
     17      -1.3472      1.00000
     18      -1.3472      1.00000
     19      -1.1145      1.00000
     20      -0.7326      1.00000
     21      -0.7326      1.00000
     22      -0.7326      1.00000
     23       0.0237      1.00000
     24       0.0237      1.00000
     25       0.0237      1.00000
     26       0.8453      1.00000
     27       0.8453      1.00000
     28       0.8453      1.00000
     29       1.2861      1.00000
     30       1.2861      1.00000
     31       1.2861      1.00000
     32       1.6184      1.00000
     33       1.6184      1.00000
     34       2.1856      1.00000
     35       2.1856      1.00000
     36       2.1856      1.00000
     37       2.3986      1.00000
     38       2.3986      1.00000
     39       2.3986      1.00000
     40       2.4253      1.00000
     41       2.4253      1.00000
     42       2.4253      1.00000
     43       2.7960      1.00000
     44       2.7960      1.00000
     45       2.7960      1.00000
     46       2.9475      1.00000
     47       4.8734      0.66667
     48       4.8734      0.66667
     49       4.8734      0.66667
     50       5.3385      0.00000
     51       5.3385      0.00000
     52       5.3385      0.00000
     53       5.4039      0.00000
     54       5.4039      0.00000
     55       9.6239      0.00000
     56      12.7956      0.00000
     57      12.7957      0.00000
     58      12.7957      0.00000
     59      13.1787      0.00000
     60      13.1787      0.00000
     61      13.1787      0.00000
     62      16.0243      0.00000
     63      16.7732      0.00000
     64      16.7733      0.00000

 soft charge-density along one line, spin component           1
         0         1         2         3         4         5         6         7         8         9
 total charge-density along one line

 soft charge-density along one line, spin component           2
         0         1         2         3         4         5         6         7         8         9
 total charge-density along one line

------------------------ aborting loop because EDIFF is reached ----------------------------------------

  FORCE on cell =-STRESS in cart. coord.  units (eV):
  Direction    XX          YY          ZZ          XY          YZ          ZX
  Alpha Z   281.77914   281.77914   281.77914
  Ewald   -1886.10494 -1886.10494 -1886.10494     0.00000     0.00000     0.00000
  Hartree   869.20133   869.20133   869.20133     0.00000     0.00000     0.00000
  E(xc)    -476.70295  -476.70295  -476.70295     0.00001     0.00001     0.00001
  Local    -770.04646  -770.04646  -770.04646     0.00027     0.00027     0.00027
  n-local  -245.72626  -245.72584  -245.72602     0.00027     0.00007    -0.00004
  augment   790.65788   790.65788   790.65788    -0.00007    -0.00007    -0.00007
  Kinetic  1428.07976  1428.07940  1428.07949    -0.00018    -0.00003     0.00007
  Fock        0.00000     0.00000     0.00000     0.00000     0.00000     0.00000
  Total       -8.8624948     -8.8624948     -8.8624948      0.0000000      0.0000000      0.0000000
  in kB     -105.1970747   -105.1970747   -105.1970747      0.0000000      0.0000000      0.0000000

 VOLUME and BASIS-vectors are now :
  energy-cutoff  :      500.00
  volume of cell :      134.98
      direct lattice vectors                 reciprocal lattice vectors
     0.000000000  4.071405000  4.071405000    -0.122807729  0.122807729  0.122807729
     4.071405000  0.000000000  4.071405000     0.122807729 -0.122807729  0.122807729
     4.071405000  4.071405000  0.000000000     0.122807729  0.122807729 -0.122807729

  length of vectors
     5.757836169  5.757836169  5.757836169     0.212709225  0.212709225  0.212709225

 FORCES acting on ions
    electron-ion (+dipol)            ewald-force                    non-local-force                 convergence-correction
   -.283E-06 -.283E-06 -.264E-06   -.174E-12 -.192E-12 -.210E-12   0.609E-20 0.270E-20 0.318E-20   -.503E-07 -.503E-07 -.503E-07
   0.283E-06 0.283E-06 0.264E-06   0.198E-12 0.171E-12 0.134E-12   -.664E-20 -.503E-21 -.212E-20   0.503E-07 0.503E-07 0.503E-07
   -.908E-13 -.361E-13 -.760E-13   -.657E-13 0.639E-13 0.114E-12   -.106E-21 -.106E-21 -.185E-21   -.299E-13 -.110E-13 -.431E-13
   -.142E-10 -.135E-10 0.638E-12   0.409E-13 -.853E-13 -.551E-13   0.132E-21 -.265E-22 0.000E+00   -.693E-13 0.390E-13 -.665E-13
   0.672E-12 0.500E-13 0.692E-12   -.568E-13 0.302E-13 0.142E-13   0.000E+00 0.000E+00 0.159E-21   0.343E-13 -.716E-13 -.118E-13
   0.678E-12 0.747E-12 0.124E-13   0.888E-14 0.173E-13 0.431E-13   0.106E-21 -.132E-21 -.159E-21   -.329E-13 0.101E-13 -.773E-13
   0.168E+03 0.168E+03 0.168E+03   -.175E+03 -.175E+03 -.175E+03   0.763E+01 0.763E+01 0.763E+01   0.820E-03 0.820E-03 0.820E-03
   0.168E+03 -.168E+03 -.168E+03   -.175E+03 0.175E+03 0.175E+03   0.763E+01 -.763E+01 -.763E+01   0.820E-03 -.820E-03 -.820E-03
   -.168E+03 0.168E+03 -.168E+03   0.175E+03 -.175E+03 0.175E+03   -.763E+01 0.763E+01 -.763E+01   -.820E-03 0.820E-03 -.820E-03
   -.168E+03 -.168E+03 0.168E+03   0.175E+03 0.175E+03 -.175E+03   -.763E+01 -.763E+01 0.763E+01   -.820E-03 -.820E-03 0.820E-03
   -.168E+03 -.168E+03 -.168E+03   0.175E+03 0.175E+03 0.175E+03   -.763E+01 -.763E+01 -.763E+01   -.820E-03 -.820E-03 -.820E-03
   -.168E+03 0.168E+03 0.168E+03   0.175E+03 -.175E+03 -.175E+03   -.763E+01 0.763E+01 0.763E+01   -.820E-03 0.820E-03 0.820E-03
   0.168E+03 -.168E+03 0.168E+03   -.175E+03 0.175E+03 -.175E+03   0.763E+01 -.763E+01 0.763E+01   0.820E-03 -.820E-03 0.820E-03
   0.168E+03 0.168E+03 -.168E+03   -.175E+03 -.175E+03 0.175E+03   0.763E+01 0.763E+01 -.763E+01   0.820E-03 0.820E-03 -.820E-03
   -.177E-10 -.172E-10 -.694E-13   -.568E-13 0.000E+00 0.000E+00   -.178E-14 0.355E-14 0.000E+00   -.291E-13 -.867E-13 -.205E-12

 POSITION                                       TOTAL-FORCE (eV/Angst)
      3.05355      3.05355      3.05355         0.000000     -0.000000     -0.000000
      5.08926      5.08926      5.08926         0.000000     -0.000000      0.000000
      0.00000      0.00000      0.00000         0.000000     -0.000000      0.000000
      0.00000      2.03570      2.03570         0.000000     -0.000000      0.000000
      2.03570      0.00000      2.03570         0.000000     -0.000000     -0.000000
      2.03570      2.03570      0.00000         0.000000     -0.000000      0.000000
      6.21531      6.21531      6.21531         0.857084      0.857084      0.857084
      6.21531      3.96320      3.96320         0.857084     -0.857084     -0.857084
      3.96320      6.21531      3.96320        -0.857084      0.857084     -0.857084
      3.96320      3.96320      6.21531        -0.857084     -0.857084      0.857084
      1.92750      1.92750      1.92750        -0.857084     -0.857084     -0.857084
      1.92750      4.17961      4.17961        -0.857084      0.857084      0.857084
      4.17961      1.92750      4.17961         0.857084     -0.857084      0.857084
      4.17961      4.17961      1.92750         0.857084      0.857084     -0.857084
    total drift:                               -0.000000     -0.000000     -0.000000

  FREE ENERGIE OF THE ION-ELECTRON SYSTEM (eV)
  free  energy   TOTEN  =       -86.2295942435 eV

  energy  without entropy=      -86.1910286636  energy(sigma->0) =      -86.21031145

volume of typ            1:    11.5 %

[...]

volume of typ            3:     9.7 %

total charge

# of ion       s       p       d       tot
    1        2.089   0.308   0.113   2.510
    2        2.089   0.308   0.113   2.510
    3        0.245   0.334   7.849   8.428
    4        0.245   0.334   7.849   8.428
    5        0.245   0.334   7.849   8.428
    6        0.245   0.334   7.849   8.428
    7        1.257   2.768   0.005   4.030
    8        1.257   2.768   0.005   4.030
    9        1.257   2.768   0.005   4.030
   10        1.257   2.768   0.005   4.030
   11        1.257   2.768   0.005   4.030
   12        1.257   2.768   0.005   4.030
   13        1.257   2.768   0.005   4.030
   14        1.257   2.768   0.005   4.030
tot          15.22   24.09   31.66   70.97

magnetization (x)

# of ion       s       p       d       tot
    1        0.000  -0.011  -0.005  -0.016
    2        0.000  -0.011  -0.005  -0.016
    3        0.001   0.002  -0.329  -0.326
    4        0.001   0.002  -0.329  -0.326
    5        0.001   0.002  -0.329  -0.326
    6        0.001   0.002  -0.329  -0.326
    7       -0.007  -0.066  -0.000  -0.073
    8       -0.007  -0.066  -0.000  -0.073
    9       -0.007  -0.066  -0.000  -0.073
   10       -0.007  -0.066  -0.000  -0.073
   11       -0.007  -0.066  -0.000  -0.073
   12       -0.007  -0.066  -0.000  -0.073
   13       -0.007  -0.066  -0.000  -0.073
   14       -0.007  -0.066  -0.000  -0.073
tot          -0.05   -0.54   -1.33   -1.92