 vasp.5.4.4.18Apr17-6-g9f103f2a35 (build May 12 2020 05:39:39) gamma-only

 MD_VERSION_INFO: Compiled 2020-05-12T12:39:39-UTC in devlin.sd.materialsdesign.
 com:/home/medea2/data/build/wwolf/vasp-gpu5.4.4/13047/x86_64/src/src/build/gam
 from svn 13047

 executed on                        Lin64 date 2023.01.19  14:53:04

 INCAR:
 POTCAR:    PAW_PBE Li_sv 10Sep2004
 POTCAR:    PAW_PBE Ni 02Aug2007
 POTCAR:    PAW_PBE O 08Apr2002

 POTCAR:    PAW_PBE Li_sv 10Sep2004

 POTCAR:    PAW_PBE Ni 02Aug2007

 POTCAR:    PAW_PBE O 08Apr2002

 Optimization of the real space projectors (new method)

 maximal supplied QI-value         = 22.11
 optimisation between [QCUT,QGAM] = [ 11.28, 22.77] = [ 35.61,145.23] Ry
 Optimized for a Real-space Cutoff    1.10 Angstroem

   l    n(q)    QCUT    max X(q) W(low)/X(q) W(high)/X(q)  e(spline)
   0      7    11.276    10.506    0.54E-04    0.58E-04    0.16E-07
   0      7    11.276     8.367    0.11E-03    0.14E-03    0.35E-07
   1      7    11.276     8.983    0.23E-03    0.43E-03    0.86E-07
 Optimization of the real space projectors (new method)

[...]

   l    n(q)    QCUT    max X(q) W(low)/X(q) W(high)/X(q)  e(spline)
   2      9    11.376    60.317    0.17E-03    0.16E-04    0.16E-06
   2      9    11.376    55.921    0.17E-03    0.16E-04    0.17E-06
   0     10    11.376    51.690    0.45E-04    0.60E-04    0.21E-06
   0     10    11.376    30.015    0.37E-04    0.55E-04    0.19E-06
   1     10    11.376    18.849    0.83E-04    0.11E-03    0.92E-07
   1     10    11.376    14.624    0.69E-04    0.92E-04    0.82E-07
 Optimization of the real space projectors (new method)

 maximal supplied QI-value         = 24.76
 optimisation between [QCUT,QGAM] = [ 11.39, 22.77] = [ 36.31,145.25] Ry
 Optimized for a Real-space Cutoff    1.10 Angstroem

   l    n(q)    QCUT    max X(q) W(low)/X(q) W(high)/X(q)  e(spline)
   0      7    11.387    20.381    0.22E-03    0.48E-03    0.18E-06
   0      7    11.387    15.268    0.22E-03    0.52E-03    0.19E-06
   1      7    11.387     5.964    0.22E-03    0.73E-03    0.24E-06
   1      7    11.387     5.382    0.19E-03    0.60E-03    0.21E-06

  PAW_PBE Li_sv 10Sep2004               :
  PAW_PBE Ni 02Aug2007                  :
  PAW_PBE O 08Apr2002                   :

 POSCAR: ce409162_1
  positions in direct lattice
 exchange correlation table for  LEXCH =       14
   RHO(1)=    0.500       N(1)  =     2000
   RHO(2)=  100.500       N(2)  =     4000

 ion  position               nearest neighbor table
   1  0.999  0.500  0.978-  74 2.00  87 2.01  86 2.10  39 2.11  38 2.23  51 2.24  27 2.78  34 2.80

   2  0.110  0.834  0.225-  58 2.10  53 2.10  52 2.11  59 2.11  35 2.12  40 2.13
   3  0.222  0.167  0.110-  42 2.10  37 2.10  36 2.10  73 2.11  60 2.12  43 2.12
   4  0.651  0.499  0.005-  45 2.01  80 2.02  50 2.11  81 2.15  51 2.20  86 2.24  13 2.79  30 2.82

   5  0.354  0.501  0.353-  62 2.01  63 2.02  44 2.12  57 2.14  39 2.22  38 2.22  21 2.80  22 2.82

   6  0.442  0.833  0.888-  41 2.09  82 2.11  76 2.11  47 2.11  77 2.12  46 2.12
   7  0.556  0.166  0.775-  61 2.10  84 2.10  85 2.11  48 2.12  78 2.12  79 2.12  33 2.84
   8  0.999  0.001  0.999-  73 1.87  88 1.87  52 1.87  40 1.88  37 1.88  85 1.89  32 2.79  14 2.79
                            26 2.79  11 2.80  17 2.81  20 2.82
   9  0.110  0.333  0.223-  54 1.86  57 1.87  60 1.87  36 1.88  39 1.89  51 1.90  15 2.78  18 2.78
                            33 2.79  21 2.80  27 2.82  12 2.82
  10  0.223  0.669  0.110-  35 1.87  44 1.87  59 1.87  74 1.88  38 1.88  41 1.89  13 2.78  28 2.79
                            34 2.80  22 2.80  16 2.81  19 2.82
  11  0.333  0.000  1.000-  46 1.87  73 1.87  43 1.87  76 1.87  40 1.91  79 1.91  23 2.79  26 2.79
                             8 2.80  14 2.80  20 2.80  29 2.81
  12  0.446  0.334  0.222-  63 1.87  66 1.87  60 1.87  42 1.87  45 1.88  39 1.92  30 2.79  24 2.79
                            15 2.79  21 2.80  27 2.81   9 2.82
  13  0.555  0.666  0.113-  50 1.87  41 1.87  65 1.87  47 1.87  44 1.89  80 1.89  10 2.78  22 2.79
                             4 2.79  25 2.79  16 2.80  28 2.81  31 2.82
  14  0.668  0.999  0.001-  46 1.87  49 1.87  85 1.87  79 1.88  82 1.88  52 1.89  17 2.79   8 2.79
                            23 2.79  11 2.80  32 2.81  29 2.82
  15  0.779  0.331  0.223-  54 1.86  66 1.86  69 1.87  45 1.88  48 1.91  51 1.91   9 2.78  18 2.79
                            12 2.79  24 2.80  33 2.80  30 2.81
  16  0.889  0.668  0.112-  53 1.86  50 1.87  35 1.87  86 1.87  47 1.91  38 1.92  25 2.79  19 2.80
                            13 2.80  31 2.80  34 2.80  10 2.81
  17  1.000  0.003  0.334-  49 1.86  55 1.86  70 1.87  58 1.88  52 1.88  37 1.90  29 2.79  14 2.79
                            26 2.80  23 2.80  20 2.81   8 2.81
  18  0.112  0.333  0.555-  72 1.86  69 1.87  54 1.87  75 1.87  57 1.90  78 1.90   9 2.78  27 2.79
                            30 2.79  21 2.79  15 2.79  24 2.80
  19  0.222  0.667  0.445-  53 1.87  56 1.87  62 1.87  59 1.88  77 1.89  38 1.91  28 2.79  25 2.79
                            31 2.79  16 2.80  22 2.81  10 2.82
  20  0.335  0.001  0.335-  43 1.86  64 1.87  58 1.87  40 1.88  37 1.88  61 1.89  29 2.79  32 2.79
                            23 2.79  11 2.80  17 2.81   8 2.82
  21  0.445  0.333  0.556-  84 1.87  57 1.87  78 1.87  63 1.88  60 1.90  81 1.91  18 2.79  24 2.80
                             5 2.80  33 2.80   9 2.80  12 2.80  30 2.81
  22  0.556  0.671  0.445-  83 1.86  65 1.86  68 1.87  44 1.88  62 1.88  59 1.90  31 2.79  13 2.79
                            34 2.79  25 2.80  10 2.80  19 2.81   5 2.82
  23  0.666  1.000  0.333-  70 1.87  67 1.87  49 1.87  64 1.87  43 1.90  46 1.90  14 2.79  20 2.79
                            11 2.79  17 2.80  32 2.80  26 2.81
  24  0.778  0.333  0.555-  66 1.86  69 1.87  72 1.87  87 1.89  63 1.90  84 1.91  12 2.79  27 2.79
                            33 2.79  15 2.80  21 2.80  18 2.80
  25  0.889  0.667  0.444-  71 1.86  68 1.87  56 1.87  65 1.87  53 1.89  50 1.90  19 2.79  16 2.79
                            13 2.79  28 2.79  22 2.80  34 2.80
  26  0.001  0.000  0.667-  67 1.87  70 1.87  88 1.87  55 1.87  76 1.90  73 1.90  29 2.79   8 2.79
                            11 2.79  17 2.80  32 2.80  23 2.81
  27  0.111  0.333  0.888-  75 1.86  42 1.87  72 1.87  87 1.87  36 1.88  39 1.92  30 2.78   1 2.78
                            18 2.79  24 2.79  33 2.80  12 2.81   9 2.82
  28  0.221  0.664  0.777-  56 1.86  77 1.87  71 1.87  74 1.88  41 1.88  80 1.90  19 2.79  10 2.79
                            25 2.79  34 2.80  31 2.81  13 2.81
  29  0.332  0.999  0.665-  76 1.87  55 1.87  61 1.87  79 1.88  82 1.88  58 1.89  17 2.79  20 2.79
                            26 2.79  11 2.81  32 2.81  14 2.82
  30  0.443  0.331  0.889-  78 1.87  75 1.87  45 1.87  81 1.88  48 1.88  42 1.89  27 2.78  12 2.79
                            18 2.79  21 2.81  15 2.81   4 2.82  33 2.82
  31  0.556  0.665  0.777-  83 1.87  77 1.87  47 1.88  62 1.88  80 1.88  86 1.90  34 2.79  22 2.79
                            19 2.79  16 2.80  28 2.81  13 2.82
  32  0.667  0.997  0.666-  88 1.86  64 1.86  67 1.87  85 1.88  61 1.88  82 1.90  20 2.79   8 2.79
                            23 2.80  26 2.80  29 2.81  14 2.81
  33  0.779  0.331  0.889-  84 1.86  48 1.87  81 1.88  51 1.88  87 1.88  36 1.89   9 2.79  24 2.79
                            27 2.80  21 2.80  15 2.80  30 2.82   7 2.84
  34  0.888  0.670  0.778-  83 1.86  68 1.87  71 1.87  74 1.88  35 1.90  86 1.92  31 2.79  22 2.79
                            28 2.80  10 2.80   1 2.80  16 2.80  25 2.80
  35  0.002  0.736  0.005-  10 1.87  16 1.87  34 1.90   2 2.12
  36  0.005  0.265  0.002-   9 1.88  27 1.88  33 1.89   3 2.10
  37  0.113  0.070  0.220-  20 1.88   8 1.88  17 1.90   3 2.10
  38  0.114  0.597  0.220-  10 1.88  19 1.91  16 1.92   5 2.22   1 2.23
  39  0.220  0.405  0.113-   9 1.89  12 1.92  27 1.92   1 2.11   5 2.22
  40  0.220  0.933  0.114-  20 1.88   8 1.88  11 1.91   2 2.13
  41  0.335  0.734  0.996-  13 1.87  28 1.88  10 1.89   6 2.09
  42  0.331  0.265  0.003-  27 1.87  12 1.87  30 1.89   3 2.10
  43  0.441  0.068  0.221-  20 1.86  11 1.87  23 1.90   3 2.12
  44  0.443  0.600  0.226-  10 1.87  22 1.88  13 1.89   5 2.12
  45  0.558  0.400  0.109-  30 1.87  15 1.88  12 1.88   4 2.01
  46  0.554  0.932  0.108-  14 1.87  11 1.87  23 1.90   6 2.12
  47  0.661  0.734  0.997-  13 1.87  31 1.88  16 1.91   6 2.11
  48  0.665  0.263  0.996-  33 1.87  30 1.88  15 1.91   7 2.12
  49  0.776  0.067  0.222-  17 1.86  14 1.87  23 1.87
  50  0.776  0.599  0.219-  13 1.87  16 1.87  25 1.90   4 2.11
  51  0.886  0.402  0.107-  33 1.88   9 1.90  15 1.91   4 2.20   1 2.24
  52  0.893  0.933  0.114-   8 1.87  17 1.88  14 1.89   2 2.11
  53  0.002  0.735  0.332-  16 1.86  19 1.87  25 1.89   2 2.10
  54  0.001  0.266  0.334-  15 1.86   9 1.86  18 1.87
  55  0.112  0.067  0.557-  17 1.86  29 1.87  26 1.87
  56  0.110  0.599  0.554-  28 1.86  19 1.87  25 1.87
  57  0.224  0.401  0.443-   9 1.87  21 1.87  18 1.90   5 2.14
  58  0.219  0.933  0.440-  20 1.87  17 1.88  29 1.89   2 2.10
  59  0.329  0.737  0.332-  10 1.87  19 1.88  22 1.90   2 2.11
  60  0.331  0.266  0.328-  12 1.87   9 1.87  21 1.90   3 2.12
  61  0.448  0.067  0.560-  29 1.87  32 1.88  20 1.89   7 2.10
  62  0.443  0.600  0.551-  19 1.87  22 1.88  31 1.88   5 2.01
  63  0.553  0.401  0.444-  12 1.87  21 1.88  24 1.90   5 2.02
  64  0.555  0.933  0.443-  32 1.86  20 1.87  23 1.87
  65  0.667  0.735  0.333-  22 1.86  13 1.87  25 1.87
  66  0.667  0.267  0.335-  24 1.86  15 1.86  12 1.87
  67  0.777  0.065  0.556-  26 1.87  23 1.87  32 1.87
  68  0.777  0.603  0.556-  25 1.87  22 1.87  34 1.87
  69  0.889  0.399  0.444-  18 1.87  24 1.87  15 1.87
  70  0.890  0.935  0.444-  26 1.87  23 1.87  17 1.87
  71  0.002  0.733  0.666-  25 1.86  34 1.87  28 1.87
  72  1.000  0.267  0.666-  18 1.86  24 1.87  27 1.87
  73  0.113  0.068  0.892-   8 1.87  11 1.87  26 1.90   3 2.11
  74  0.108  0.600  0.891-  10 1.88  34 1.88  28 1.88   1 2.00
  75  0.223  0.399  0.778-  27 1.86  30 1.87  18 1.87
  76  0.225  0.932  0.779-  29 1.87  11 1.87  26 1.90   6 2.11
  77  0.335  0.733  0.672-  28 1.87  31 1.87  19 1.89   6 2.12
  78  0.337  0.264  0.668-  30 1.87  21 1.87  18 1.90   7 2.12
  79  0.447  0.067  0.886-  29 1.88  14 1.88  11 1.91   7 2.12
  80  0.448  0.597  0.891-  31 1.88  13 1.89  28 1.90   4 2.02
  81  0.558  0.400  0.783-  33 1.88  30 1.88  21 1.91   4 2.15
  82  0.553  0.930  0.780-  29 1.88  14 1.88  32 1.90   6 2.11
  83  0.666  0.735  0.668-  34 1.86  22 1.86  31 1.87
  84  0.665  0.264  0.668-  33 1.86  21 1.87  24 1.91   7 2.10
  85  0.773  0.067  0.886-  14 1.87  32 1.88   8 1.89   7 2.11
  86  0.781  0.597  0.893-  16 1.87  31 1.90  34 1.92   1 2.10   4 2.24
  87  0.890  0.401  0.781-  27 1.87  33 1.88  24 1.89   1 2.01
  88  0.890  0.933  0.778-  32 1.86   8 1.87  26 1.87

  LATTYP: Found a triclinic cell.
 ALAT       =    16.4539022941
 B/A-ratio  =     0.8598896046
 C/A-ratio  =     0.5102007149
 COS(alpha) =     0.0001310160
 COS(beta)  =     0.2551665389
 COS(gamma) =     0.8600700021

  Lattice vectors:

 A1 = (   4.1988888615,  -7.2716651811,  14.1500218561)
[...]
   -.779E+01 0.155E+02 -.375E+03   0.847E+01 -.154E+02 0.402E+03   -.698E+00 -.131E+00 -.270E+02   0.101E-01 -.474E-02 0.708E-03
   -.799E+01 0.144E+02 0.376E+03   0.755E+01 -.149E+02 -.403E+03   0.441E+00 0.558E+00 0.266E+02   -.361E-02 -.826E-02 -.167E-01
   -.479E+02 0.188E+02 -.345E+03   0.508E+02 -.204E+02 0.368E+03   -.289E+01 0.159E+01 -.225E+02   -.496E-02 0.122E-01 -.257E-01
   -.283E+02 -.699E+01 0.344E+03   0.305E+02 0.785E+01 -.366E+03   -.223E+01 -.861E+00 0.224E+02   0.171E-01 -.412E-02 0.100E-01
   -.649E+01 -.408E+02 -.363E+03   0.699E+01 0.435E+02 0.385E+03   -.499E+00 -.274E+01 -.220E+02   0.224E-02 0.515E-02 0.106E-01
   -.270E+02 -.214E+02 0.360E+03   0.295E+02 0.230E+02 -.382E+03   -.250E+01 -.164E+01 0.217E+02   0.770E-02 0.382E-02 0.118E-01
[...]
   0.165E+02 0.103E+02 -.371E+03   -.172E+02 -.102E+02 0.397E+03   0.641E+00 -.121E+00 -.265E+02   -.213E-02 0.229E-03 -.181E-01
   -.306E-01 0.478E+02 0.348E+03   0.327E+00 -.512E+02 -.370E+03   -.289E+00 0.336E+01 0.226E+02   -.931E-02 -.859E-02 0.191E-01
   0.226E+02 0.193E+02 -.351E+03   -.249E+02 -.206E+02 0.372E+03   0.227E+01 0.127E+01 -.218E+02   -.495E-02 0.855E-03 0.171E-01
   0.178E+01 0.467E+02 0.353E+03   -.208E+01 -.501E+02 -.376E+03   0.308E+00 0.338E+01 0.223E+02   -.993E-02 0.629E-02 0.460E-02
   -.273E+02 0.160E+02 -.352E+03   0.300E+02 -.175E+02 0.373E+03   -.269E+01 0.152E+01 -.218E+02   -.831E-02 -.495E-02 0.765E-02
   0.277E+01 0.419E+02 0.349E+03   -.297E+01 -.451E+02 -.370E+03   0.206E+00 0.323E+01 0.209E+02   -.250E-02 0.442E-02 -.200E-01
   0.275E+02 0.242E+02 -.350E+03   -.301E+02 -.255E+02 0.372E+03   0.259E+01 0.138E+01 -.215E+02   -.123E-01 -.986E-02 -.229E-01
   0.340E+02 -.192E+02 0.354E+03   -.365E+02 0.207E+02 -.376E+03   0.247E+01 -.147E+01 0.220E+02   -.343E-02 -.354E-02 0.168E-01
   0.813E+01 -.608E+01 -.383E+03   -.729E+01 0.583E+01 0.410E+03   -.828E+00 0.248E+00 -.268E+02   -.786E-02 -.350E-02 0.133E-01
   0.481E+02 -.214E+02 0.356E+03   -.517E+02 0.230E+02 -.378E+03   0.360E+01 -.159E+01 0.222E+02   -.380E-02 -.115E-01 0.396E-02
   0.779E+01 -.264E+02 -.342E+03   -.813E+01 0.288E+02 0.364E+03   0.348E+00 -.238E+01 -.224E+02   -.900E-02 0.201E-02 0.585E-02
   0.363E+02 0.181E+02 0.319E+03   -.385E+02 -.193E+02 -.338E+03   0.226E+01 0.123E+01 0.185E+02   -.807E-03 -.536E-02 -.213E-01
   0.524E+02 0.214E+02 -.340E+03   -.553E+02 -.237E+02 0.361E+03   0.287E+01 0.227E+01 -.214E+02   -.493E-02 -.189E-02 -.182E-01
   0.173E+02 0.583E+00 0.374E+03   -.174E+02 0.118E+00 -.401E+03   0.176E+00 -.701E+00 0.269E+02   -.113E-01 -.954E-03 0.226E-01
   0.112E+00 0.917E-01 0.551E-01   -.213E-13 -.635E-12 -.114E-12   -.119E+00 -.889E-01 -.324E-01   -.374E-02 -.489E-02 -.170E-01

 POSITION                                       TOTAL-FORCE (eV/Angst)
      4.01325      7.26341      7.07924        -0.012543      0.000357     -0.004487
      1.43205      0.79547     11.80333         0.002319     -0.005817     -0.008138
     -0.01146      1.61248      2.35866         0.002562     -0.003134     -0.007051
     -2.68795      4.73001      7.06368         0.008863      0.000532      0.011352
      1.47867      2.57282      7.08486         0.001051      0.001051     -0.006994
      5.60512      3.21284     11.78547         0.000245     -0.001709      0.014643
      4.17314      4.04520      2.34512        -0.004451      0.006643      0.005541
      4.19204      7.26125      0.01189         0.001064      0.000058     -0.001104
      1.40932      0.79824      4.71733        -0.002998     -0.000676     -0.004359
     -0.00828      1.62020      9.46740         0.001308     -0.000748      0.004509
      6.99718      2.42324      0.00058        -0.000163     -0.001035      0.000002
     -0.00430      3.23887      4.73197        -0.000289      0.000418     -0.003372
     -1.38555      4.03656      9.43000        -0.000221      0.001216      0.003400
     -2.79123      4.85429     14.13633        -0.002362     -0.000752     -0.000146
     -1.39718      5.66102      4.68036        -0.001028      0.001744     -0.005937
     -2.79174      6.45904      9.44512         0.001635      0.001734      0.004638
     -1.39440      7.26807      0.04267         0.002115     -0.001898      0.002515
      4.19428      0.81104      4.70636        -0.000302     -0.000219     -0.002333
      2.80937      1.61032      9.43677         0.000294      0.001096      0.000927
      1.40508      2.43385      0.01292         0.000434     -0.001832     -0.001312
      2.79953      3.23180      4.70648        -0.000575     -0.001413     -0.000817
      1.40256      4.04248      9.49002         0.000212      0.001121      0.005353
     -0.00110      4.84149     14.14861         0.001287      0.002829     -0.000444
      1.39856      5.65512      4.71748        -0.003976      0.003420     -0.005452
     -0.00271      6.46104      9.44184         0.002850     -0.000967      0.002644
      5.59902      0.00368      0.00107        -0.002142     -0.004136     -0.000071
      6.98639      0.80923      4.71801         0.000540      0.000059     -0.004276
      5.59676      1.60636      9.39116         0.000375     -0.001925      0.001590
      4.19326      2.41053     14.13836        -0.000864      0.000412      0.000118
      5.60466      3.22162      4.68744        -0.000133      0.002099      0.000116
      4.18954      4.04092      9.41406         0.003973     -0.000322      0.003029
      2.79546      4.84748     14.10676        -0.002469      0.001083     -0.003764
      4.19439      5.66045      4.68399         0.000021     -0.001345     -0.004613
      2.80048      6.45721      9.47459         0.000700     -0.000951      0.007249
      0.03161      0.01139     10.41879        -0.000126      0.000275      0.001771
     -0.00105      0.03273      3.74608        -0.001132     -0.000143     -0.000429
      1.37177      0.82439      0.98606         0.001963     -0.003221     -0.004854
      1.36549      0.82941      8.45420        -0.001007     -0.001959      0.013439
      0.02668      1.59620      5.72299        -0.000734     -0.001621     -0.009544
      0.03222      1.59665     13.19788         0.000769     -0.002955      0.005749
      6.95962      2.43471     10.39326         0.000548     -0.001641      0.000526
     -1.36793      2.40681      3.75070        -0.001957      0.002067      0.002648
     -0.00082      3.20858      0.96271         0.001817      0.001806     -0.004750
      0.03442      3.21994      8.49571        -0.000693     -0.001549      0.007813
     -1.42378      4.05746      5.65849        -0.000755      0.000311     -0.005556
     -1.41802      4.02281     13.18548         0.000961      0.001954      0.005300
      5.59833      4.80344     10.39021         0.003026      0.002706     -0.003071
      5.57371      4.83379      3.72231         0.000151     -0.000737      0.000996
     -1.39971      5.64488      0.95119        -0.002322      0.000489     -0.001763
     -1.41613      5.63918      8.47390         0.000604      0.003035      0.006742
     -2.82322      6.43925      5.68963         0.000171      0.001748     -0.009217
     -2.78961      6.49407     13.20209         0.000078      0.000398      0.002772
      2.77968      0.01109     10.39842         0.005126     -0.000812     -0.003129
      2.79738      0.00650      3.76214        -0.002162      0.002156     -0.001156
      4.20675      0.81339      0.95531        -0.000596      0.001558     -0.002567
      4.19171      0.79611      8.48058        -0.000617     -0.001276      0.004713
      2.77909      1.62904      5.67386        -0.001594     -0.002054     -0.007154
      2.77518      1.59003     13.20312         0.001467     -0.001923      0.002356
      1.40636      2.38765     10.42429         0.000430      0.001219     -0.001095
      1.36672      2.40917      3.76013         0.000448      0.000128      0.004866
[...]
      7.02669      0.78500      8.48480         0.004033      0.001477      0.005987
      5.59447      1.61915      5.64630         0.002962      0.001594     -0.006001
      5.59865      1.63620     13.18702        -0.002514     -0.003887      0.006218
      4.23644      2.43122     10.37246         0.001977     -0.000980     -0.004513
      4.19633      2.44630      3.73833         0.000230     -0.000415      0.006547
      5.56709      3.24755      0.95311        -0.002278     -0.000722     -0.007073
      5.60393      3.25759      8.44698         0.003037      0.000275      0.005700
      4.23065      4.05805      5.65731        -0.000328      0.002785     -0.011146
      4.22784      4.01961     13.16441        -0.003530     -0.000565      0.004194
      2.81532      4.84255     10.40030         0.003936     -0.003382      0.002288
      2.81567      4.83424      3.74119        -0.005149      0.000595      0.002187
      4.19102      5.62149      0.94682        -0.002244      0.001255     -0.004874
      4.22169      5.67844      8.44977        -0.001072      0.002422      0.009903
      2.81734      6.47119      5.66946         0.001568     -0.001135     -0.009418
      2.79951      6.47036     13.19740         0.001505     -0.000542      0.003163
    total drift:                               -0.010285     -0.002116      0.005734

  FREE ENERGIE OF THE ION-ELECTRON SYSTEM (eV)
  free  energy   TOTEN  =      -545.2294617926 eV

  energy  without entropy=     -545.1905386291  energy(sigma->0) =     -545.21000021

 d Force = 0.1315356E-03[ 0.697E-04, 0.193E-03]  d Energy = 0.2338451E-03-0.102E-03
 d Force = 0.3813743E+00[ 0.380E+00, 0.383E+00]  d Ewald  =-0.3521991E+01 0.390E+01

 Quasi-Newton relaxation of ions (Broydens 2nd method)
  g(Force)  = 0.182E-03   g(Stress)= 0.221E-04

 retain information from N=  2 steps
 eigenvalues of (default step * inverse Hessian matrix)
  average eigenvalue of G=   0.6731
 eigenvalue spectrum of G is  0.6731  0.6731

 reached required accuracy - stopping structural energy minimisation

volume of typ            1:     6.3 %

[...]

volume of typ            3:    10.2 %

total charge

# of ion       s       p       d       tot
    1        2.076   0.244   0.095   2.414
    2        2.070   0.228   0.089   2.387
    3        2.070   0.229   0.090   2.388
    4        2.073   0.236   0.092   2.401
    5        2.072   0.235   0.091   2.398
    6        2.070   0.227   0.089   2.386
    7        2.070   0.227   0.089   2.386
    8        0.296   0.411   7.832   8.539
    9        0.295   0.410   7.836   8.542
   10        0.295   0.411   7.837   8.544
   11        0.291   0.402   7.836   8.528
   12        0.291   0.401   7.835   8.527
   13        0.296   0.413   7.833   8.542
   14        0.296   0.412   7.832   8.540
   15        0.291   0.400   7.830   8.521
   16        0.290   0.400   7.841   8.531
   17        0.296   0.411   7.826   8.532
   18        0.292   0.403   7.822   8.517
   19        0.291   0.401   7.836   8.528
   20        0.296   0.412   7.832   8.541
   21        0.290   0.400   7.837   8.527
   22        0.295   0.410   7.828   8.533
   23        0.292   0.402   7.821   8.514
   24        0.288   0.395   7.822   8.505
   25        0.292   0.402   7.822   8.516
   26        0.292   0.402   7.821   8.515
   27        0.295   0.409   7.836   8.540
   28        0.292   0.404   7.827   8.524
   29        0.296   0.412   7.832   8.540
   30        0.295   0.411   7.834   8.540
   31        0.291   0.401   7.834   8.527
   32        0.296   0.410   7.826   8.531
   33        0.296   0.411   7.838   8.545
   34        0.291   0.399   7.831   8.520
   35        1.275   2.751   0.007   4.033
   36        1.275   2.753   0.007   4.035
   37        1.276   2.748   0.007   4.031
   38        1.275   2.753   0.006   4.034
   39        1.270   2.765   0.006   4.041
   40        1.279   2.742   0.007   4.028
   41        1.275   2.754   0.007   4.036
   42        1.275   2.755   0.007   4.037
   43        1.275   2.751   0.007   4.034
   44        1.275   2.755   0.007   4.036
   45        1.273   2.763   0.007   4.043
   46        1.276   2.751   0.007   4.034
   47        1.278   2.744   0.007   4.029
   48        1.276   2.748   0.007   4.031
   49        1.286   2.722   0.008   4.016
   50        1.275   2.753   0.007   4.035
   51        1.270   2.764   0.007   4.041
   52        1.275   2.754   0.007   4.036
   53        1.275   2.755   0.007   4.037
   54        1.286   2.723   0.008   4.017
   55        1.286   2.721   0.008   4.015
   56        1.286   2.722   0.008   4.016
   57        1.275   2.751   0.007   4.034
   58        1.275   2.754   0.007   4.036
   59        1.276   2.750   0.007   4.033
   60        1.278   2.744   0.007   4.029
[...]
   74        1.273   2.763   0.007   4.042
   75        1.285   2.726   0.008   4.019
   76        1.275   2.752   0.007   4.034
   77        1.278   2.746   0.007   4.031
   78        1.276   2.750   0.007   4.034
   79        1.279   2.742   0.007   4.028
   80        1.274   2.755   0.007   4.036
   81        1.278   2.743   0.007   4.028
   82        1.276   2.748   0.007   4.031
   83        1.286   2.723   0.008   4.017
   84        1.275   2.752   0.007   4.035
   85        1.275   2.753   0.007   4.036
   86        1.269   2.769   0.007   4.045
   87        1.273   2.761   0.007   4.041
   88        1.286   2.722   0.008   4.015
tot          91.45  160.70  212.47  464.63

magnetization (x)

# of ion       s       p       d       tot
    1        0.005   0.005  -0.000   0.009
    2        0.002   0.004  -0.000   0.005
    3        0.003   0.004  -0.000   0.007
    4        0.004   0.005  -0.000   0.009
    5        0.004   0.005  -0.000   0.008
    6        0.002   0.005   0.000   0.008
    7        0.003   0.003  -0.000   0.006
    8       -0.000  -0.000   0.142   0.141
    9       -0.000  -0.000   0.167   0.167
   10       -0.000  -0.000   0.165   0.165
   11       -0.000   0.000   0.080   0.080
   12       -0.000  -0.000   0.174   0.173
   13       -0.000  -0.000   0.127   0.126
   14       -0.000  -0.000   0.116   0.116
   15       -0.000  -0.000   0.117   0.117
   16       -0.000  -0.000   0.195   0.195
   17       -0.000  -0.000   0.092   0.092
   18       -0.000  -0.000   0.087   0.087
   19       -0.000  -0.000   0.177   0.177
   20       -0.000  -0.000   0.136   0.135
   21       -0.000  -0.000   0.193   0.193
   22       -0.000  -0.000   0.099   0.099
   23       -0.000   0.000   0.066   0.066
   24       -0.000  -0.000   0.185   0.185
   25       -0.000  -0.000   0.116   0.116
   26       -0.000  -0.000   0.084   0.084
   27       -0.000  -0.000   0.115   0.115
   28       -0.000  -0.000   0.149   0.149
   29       -0.000  -0.000   0.083   0.083
   30       -0.000  -0.000   0.156   0.156
   31       -0.000  -0.000   0.229   0.228
   32       -0.000  -0.000   0.077   0.077
   33       -0.000  -0.000   0.143   0.142
   34       -0.000  -0.000   0.117   0.117
   35        0.003   0.011   0.000   0.014
   36        0.003   0.013   0.000   0.016
   37        0.003   0.006   0.000   0.009
   38        0.005   0.022   0.000   0.027
   39        0.003   0.005   0.000   0.008
   40        0.003   0.012   0.000   0.015
   41        0.004   0.011   0.000   0.015
   42        0.004   0.011   0.000   0.015
   43        0.002   0.004   0.000   0.006
   44        0.004   0.008   0.000   0.012
   45        0.005   0.017   0.000   0.022
   46        0.003   0.007   0.000   0.010
   47        0.005   0.027   0.000   0.032
   48        0.002   0.007   0.000   0.009
   49        0.002   0.012   0.000   0.015
   50        0.003   0.011   0.000   0.014
   51        0.004   0.005   0.000   0.009
   52        0.003   0.011   0.000   0.015
   53        0.003   0.015   0.000   0.018
   54        0.003   0.020   0.000   0.023
   55        0.002   0.010   0.000   0.012
   56        0.003   0.013   0.000   0.016
   57        0.003   0.007   0.000   0.010
   58        0.003   0.008   0.000   0.011
   59        0.003   0.008   0.000   0.011
   60        0.005   0.030   0.000   0.036
[...]
   74        0.004   0.015   0.000   0.020
   75        0.003   0.013   0.000   0.016
   76        0.002   0.003   0.000   0.005
   77        0.006   0.033   0.000   0.039
   78        0.003   0.012   0.000   0.015
   79        0.001   0.002   0.000   0.003
   80        0.003   0.009   0.000   0.012
   81        0.005   0.024   0.000   0.029
   82        0.001  -0.002   0.000  -0.001
   83        0.003   0.022   0.000   0.025
   84        0.004   0.020   0.000   0.024
   85        0.004   0.014   0.000   0.018
   86        0.005   0.012   0.000   0.017
   87        0.004   0.011   0.000   0.015
   88        0.002   0.013   0.000   0.015
tot           0.19    0.70    3.59    4.47