 vasp.5.4.4.18Apr17-6-g9f103f2a35 (build May 12 2020 05:39:39) gamma-only

 MD_VERSION_INFO: Compiled 2020-05-12T12:39:39-UTC in devlin.sd.materialsdesign.
 com:/home/medea2/data/build/wwolf/vasp-gpu5.4.4/13047/x86_64/src/src/build/gam
 from svn 13047

 executed on                        Lin64 date 2023.01.19  16:57:54

 INCAR:
 POTCAR:    PAW_PBE Li_sv 10Sep2004
 POTCAR:    PAW_PBE Ni 02Aug2007
 POTCAR:    PAW_PBE O 08Apr2002

 POTCAR:    PAW_PBE Li_sv 10Sep2004

 POTCAR:    PAW_PBE Ni 02Aug2007

 POTCAR:    PAW_PBE O 08Apr2002

 Optimization of the real space projectors (new method)

 maximal supplied QI-value         = 22.11
 optimisation between [QCUT,QGAM] = [ 11.28, 22.77] = [ 35.61,145.23] Ry
 Optimized for a Real-space Cutoff    1.10 Angstroem

   l    n(q)    QCUT    max X(q) W(low)/X(q) W(high)/X(q)  e(spline)
   0      7    11.276    10.506    0.54E-04    0.58E-04    0.16E-07
   0      7    11.276     8.367    0.11E-03    0.14E-03    0.35E-07
   1      7    11.276     8.983    0.23E-03    0.43E-03    0.86E-07
 Optimization of the real space projectors (new method)

[...]

   l    n(q)    QCUT    max X(q) W(low)/X(q) W(high)/X(q)  e(spline)
   2      9    11.376    60.317    0.17E-03    0.16E-04    0.16E-06
   2      9    11.376    55.921    0.17E-03    0.16E-04    0.17E-06
   0     10    11.376    51.690    0.45E-04    0.60E-04    0.21E-06
   0     10    11.376    30.015    0.37E-04    0.55E-04    0.19E-06
   1     10    11.376    18.849    0.83E-04    0.11E-03    0.92E-07
   1     10    11.376    14.624    0.69E-04    0.92E-04    0.82E-07
 Optimization of the real space projectors (new method)

 maximal supplied QI-value         = 24.76
 optimisation between [QCUT,QGAM] = [ 11.39, 22.77] = [ 36.31,145.25] Ry
 Optimized for a Real-space Cutoff    1.10 Angstroem

   l    n(q)    QCUT    max X(q) W(low)/X(q) W(high)/X(q)  e(spline)
   0      7    11.387    20.381    0.22E-03    0.48E-03    0.18E-06
   0      7    11.387    15.268    0.22E-03    0.52E-03    0.19E-06
   1      7    11.387     5.964    0.22E-03    0.73E-03    0.24E-06
   1      7    11.387     5.382    0.19E-03    0.60E-03    0.21E-06

  PAW_PBE Li_sv 10Sep2004               :
  PAW_PBE Ni 02Aug2007                  :
  PAW_PBE O 08Apr2002                   :

 POSCAR: ce4_1
  positions in direct lattice
 exchange correlation table for  LEXCH =       14
   RHO(1)=    0.500       N(1)  =     2000
   RHO(2)=  100.500       N(2)  =     4000

 ion  position               nearest neighbor table
   1  0.989  0.500  0.989- 104 2.08 103 2.08  68 2.09  91 2.09  55 2.19  56 2.19  51 2.82  50 2.82

   2  0.103  0.835  0.212-  52 2.04  69 2.05  57 2.09  70 2.14  76 2.16  75 2.17  25 2.81  33 2.81

[...]

  24  0.566  0.167  0.778- 101 2.08 102 2.08  65 2.09  78 2.09  95 2.19  96 2.19  50 2.82  49 2.82

  25  0.998  0.000  0.998- 105 1.92 102 1.92  54 1.94  57 1.94  69 1.98  90 1.98   2 2.81   3 2.81
                            20 2.82   9 2.82  49 2.83  43 2.86  31 2.86  37 2.87  34 2.87  28 2.87
  26  0.112  0.334  0.224-  53 1.86  74 1.92  77 1.93  71 1.94  68 1.94  56 1.94  38 2.83  35 2.84
                            29 2.85  32 2.86  44 2.86  50 2.87
  27  0.224  0.666  0.112-  52 1.86  61 1.92  76 1.93  58 1.94  91 1.94  55 1.94  39 2.83  30 2.84
                            36 2.85  45 2.86  33 2.86  51 2.87
  28  0.335  0.999  0.001-  90 1.86  63 1.92  96 1.92  57 1.93  60 1.94  93 1.94  31 2.83  40 2.84
                            46 2.85  37 2.86  43 2.87  25 2.87
  29  0.443  0.332  0.220-  80 1.86  59 1.92  56 1.92  83 1.93  62 1.94  77 1.94  44 2.83  47 2.84
                            26 2.85  32 2.86  38 2.87  41 2.87
  30  0.555  0.665  0.112-  64 1.86  61 1.92  82 1.92  97 1.93  58 1.94  67 1.94  39 2.83  27 2.84
                            42 2.85  45 2.86  33 2.87  48 2.87
  31  0.666  0.997  0.001- 102 1.87  63 1.92  69 1.94  99 1.94  96 1.96  66 1.96   8 2.80  23 2.81
                            28 2.83  40 2.83  25 2.86  49 2.86  46 2.86  34 2.87
  32  0.778  0.333  0.222-  71 1.92  62 1.92  83 1.96  86 1.96  65 1.96  68 1.96  26 2.86  47 2.86
                            35 2.86  29 2.86  50 2.86  41 2.87
  33  0.890  0.669  0.113- 103 1.87  70 1.92  64 1.94  52 1.94  55 1.96  67 1.96   8 2.80   2 2.81
                            36 2.83  42 2.83  48 2.86  51 2.86  27 2.86  30 2.87
  34  0.001  0.001  0.335-  69 1.86  72 1.92  87 1.92  54 1.93  75 1.94  66 1.94  43 2.83  46 2.84
                            40 2.85  37 2.86  31 2.87  25 2.87
  35  0.112  0.335  0.555-  89 1.86  74 1.92  95 1.92  86 1.93  71 1.94  92 1.94  38 2.83  26 2.84
                            47 2.85  32 2.86  44 2.87  41 2.87
  36  0.220  0.668  0.443-  79 1.86  70 1.92  55 1.92  94 1.93  73 1.94  76 1.94  33 2.83  42 2.84
                            27 2.85  45 2.86  39 2.87  48 2.87
  37  0.334  0.000  0.334-  60 1.92  75 1.92  57 1.96  54 1.96  78 1.96  81 1.96  46 2.86  40 2.86
                            28 2.86  34 2.86  49 2.86  25 2.87
  38  0.442  0.336  0.554- 101 1.87  74 1.92  80 1.94  98 1.94  95 1.96  77 1.96  13 2.80  22 2.81
                            35 2.83  26 2.83  41 2.86  50 2.86  47 2.86  29 2.87
  39  0.554  0.664  0.442- 100 1.87  61 1.92  79 1.94  85 1.94  82 1.96  76 1.96  13 2.80  16 2.81
                            30 2.83  27 2.83  48 2.86  51 2.86  42 2.86  36 2.87
  40  0.666  0.999  0.332-  84 1.86  63 1.92  66 1.93  60 1.94  81 1.94  87 1.94  31 2.83  28 2.84
                            34 2.85  37 2.86  43 2.86  49 2.87
  41  0.778  0.333  0.557- 101 1.92 104 1.92  83 1.94  86 1.94  89 1.98  80 1.98  18 2.81  16 2.81
                            15 2.82  19 2.82  50 2.83  44 2.86  38 2.86  32 2.87  35 2.87  29 2.87
  42  0.889  0.668  0.443-  85 1.86  70 1.92  67 1.93  73 1.94  88 1.94  82 1.94  33 2.83  36 2.84
                            30 2.85  45 2.86  39 2.86  51 2.87
  43  0.001  0.003  0.666- 105 1.87  72 1.92  90 1.94  84 1.94  87 1.96  93 1.96  21 2.80  18 2.81
                            34 2.83  46 2.83  25 2.86  49 2.86  40 2.86  28 2.87
  44  0.113  0.331  0.890- 104 1.87  59 1.92  89 1.94  53 1.94  56 1.96  92 1.96  21 2.80   3 2.81
                            29 2.83  47 2.83  41 2.86  50 2.86  26 2.86  35 2.87
  45  0.222  0.667  0.778-  58 1.92  73 1.92  94 1.96  97 1.96  88 1.96  91 1.96  27 2.86  42 2.86
                            30 2.86  36 2.86  51 2.86  48 2.87
  46  0.332  0.001  0.666-  99 1.86  72 1.92  93 1.93  75 1.94  78 1.94  96 1.94  43 2.83  34 2.84
                            28 2.85  37 2.86  31 2.86  49 2.87
  47  0.443  0.332  0.889-  98 1.86  59 1.92  92 1.93  62 1.94  65 1.94  95 1.94  44 2.83  29 2.84
                            35 2.85  32 2.86  38 2.86  50 2.87
  48  0.557  0.667  0.778- 100 1.92 103 1.92  94 1.94  97 1.94  64 1.98  79 1.98  23 2.81  22 2.81
                            14 2.82   7 2.82  51 2.83  33 2.86  39 2.86  45 2.87  30 2.87  36 2.87
  49  0.668  0.000  0.668- 102 1.92 105 1.92  81 1.93  78 1.93  84 1.98  99 1.98  24 2.82  17 2.82
                            25 2.83  15 2.83  14 2.83  31 2.86  43 2.86  37 2.86  40 2.87  46 2.87
  50  0.778  0.333  0.887- 101 1.92 104 1.92  65 1.93  68 1.93  53 1.98  98 1.98  24 2.82   1 2.82
                            41 2.83   9 2.83   7 2.83  44 2.86  38 2.86  32 2.86  26 2.87  47 2.87
  51  0.887  0.667  0.778- 100 1.92 103 1.92  88 1.93  91 1.93  52 1.98  85 1.98  17 2.82   1 2.82
                            48 2.83  20 2.83  19 2.83  33 2.86  39 2.86  45 2.86  27 2.87  42 2.87
  52  0.014  0.737  0.009-  27 1.86  33 1.94  51 1.98   2 2.04  20 2.05
  53  0.009  0.263  0.014-  26 1.86  44 1.94  50 1.98   3 2.04   9 2.05
  54  0.108  0.073  0.220-  34 1.93  25 1.94  37 1.96   3 2.09   9 2.09  12 2.12
  55  0.112  0.594  0.225-  36 1.92  27 1.94  33 1.96  10 2.11  13 2.15   1 2.19
  56  0.225  0.406  0.112-  29 1.92  26 1.94  44 1.96   4 2.11  13 2.15   1 2.19
  57  0.220  0.927  0.108-  28 1.93  25 1.94  37 1.96   2 2.09  20 2.09   5 2.12
  58  0.333  0.738  0.999-  45 1.92  27 1.94  30 1.94   5 2.13  23 2.17  20 2.18
  59  0.335  0.260  0.001-  47 1.92  29 1.92  44 1.92  21 2.11   6 2.12   3 2.14
  60  0.444  0.071  0.223-  37 1.92  40 1.94  28 1.94   6 2.13   3 2.17  15 2.18
  61  0.443  0.593  0.220-  27 1.92  30 1.92  39 1.92  13 2.11   4 2.12  16 2.14
  62  0.557  0.405  0.112-  32 1.92  47 1.94  29 1.94   4 2.13  16 2.17   7 2.18
  63  0.555  0.927  0.112-  40 1.92  28 1.92  31 1.92   8 2.11   5 2.12  23 2.14
  64  0.662  0.737  0.009-  30 1.86  33 1.94  48 1.98   8 2.04  23 2.05
  65  0.666  0.260  0.996-  50 1.93  47 1.94  32 1.96  24 2.09   9 2.11   6 2.12
  66  0.777  0.073  0.224-  40 1.93  34 1.94  31 1.96   6 2.08  18 2.16   9 2.18
  67  0.779  0.594  0.224-  42 1.93  30 1.94  33 1.96  10 2.08  16 2.16   7 2.18
  68  0.889  0.407  0.108-  50 1.93  26 1.94  32 1.96   1 2.09   7 2.11  10 2.12
  69  0.893  0.930  0.125-  34 1.86  31 1.94  25 1.98   8 2.04   2 2.05
  70  0.001  0.740  0.335-  42 1.92  36 1.92  33 1.92   8 2.11  11 2.12   2 2.14
  71  0.999  0.262  0.333-  32 1.92  26 1.94  35 1.94  12 2.13  18 2.17   9 2.18
  72  0.112  0.073  0.555-  46 1.92  34 1.92  43 1.92  21 2.11  12 2.12  18 2.14
  73  0.112  0.595  0.557-  45 1.92  42 1.94  36 1.94  10 2.13  22 2.17  19 2.18
  74  0.220  0.407  0.443-  26 1.92  35 1.92  38 1.92  13 2.11  10 2.12  22 2.14
  75  0.223  0.929  0.444-  37 1.92  46 1.94  34 1.94  11 2.13   2 2.17  14 2.18
  76  0.332  0.740  0.331-  27 1.93  36 1.94  39 1.96   5 2.08   2 2.16  14 2.18
  77  0.331  0.260  0.332-  26 1.93  29 1.94  38 1.96  12 2.08   3 2.16  15 2.18
  78  0.448  0.073  0.559-  49 1.93  46 1.94  37 1.96  24 2.09  15 2.11  12 2.12
  79  0.431  0.596  0.546-  36 1.86  39 1.94  48 1.98  13 2.04  22 2.05
  80  0.546  0.404  0.431-  29 1.86  38 1.94  41 1.98  13 2.04  16 2.05
  81  0.559  0.927  0.448-  49 1.93  40 1.94  37 1.96  17 2.09  14 2.11   5 2.12
  82  0.665  0.739  0.331-  30 1.92  42 1.94  39 1.96   5 2.11   8 2.15  17 2.19
  83  0.666  0.260  0.335-  29 1.93  41 1.94  32 1.96  18 2.09  15 2.09   6 2.12
  84  0.773  0.071  0.542-  40 1.86  43 1.94  49 1.98  18 2.04  15 2.05
  85  0.782  0.596  0.547-  42 1.86  39 1.94  51 1.98  16 2.04  19 2.05
  86  0.890  0.406  0.448-  35 1.93  41 1.94  32 1.96  16 2.09  19 2.09  10 2.12
  87  0.890  0.927  0.443-  34 1.92  40 1.94  43 1.96  11 2.11   8 2.15  17 2.19
  88  0.996  0.740  0.666-  51 1.93  42 1.94  45 1.96  17 2.09  20 2.11  11 2.12
  89  0.009  0.263  0.662-  35 1.86  44 1.94  41 1.98  21 2.04  18 2.05
  90  0.125  0.070  0.893-  28 1.86  43 1.94  25 1.98  21 2.04   3 2.05
  91  0.108  0.593  0.889-  51 1.93  27 1.94  45 1.96   1 2.09  19 2.11   4 2.12
  92  0.224  0.406  0.779-  47 1.93  35 1.94  44 1.96   4 2.08  22 2.16  19 2.18
  93  0.224  0.927  0.777-  46 1.93  28 1.94  43 1.96  11 2.08  23 2.16  20 2.18
  94  0.335  0.740  0.666-  36 1.93  48 1.94  45 1.96  23 2.09  14 2.09  11 2.12
  95  0.331  0.261  0.665-  35 1.92  47 1.94  38 1.96  12 2.11  21 2.15  24 2.19
  96  0.443  0.073  0.890-  28 1.92  46 1.94  31 1.96   6 2.11  21 2.15  24 2.19
  97  0.448  0.594  0.890-  30 1.93  48 1.94  45 1.96  22 2.09   7 2.09   4 2.12
[...]
   0.954E+01 0.129E+02 0.269E+03   -.104E+02 -.133E+02 -.280E+03   0.869E+00 0.431E+00 0.112E+02   0.464E-02 0.945E-02 0.180E-02
   0.637E+01 0.147E+02 -.269E+03   -.632E+01 -.157E+02 0.280E+03   -.611E-01 0.969E+00 -.112E+02   0.587E-02 0.874E-02 -.180E-02
   -.526E+01 0.169E+02 0.259E+03   0.612E+01 -.165E+02 -.269E+03   -.852E+00 -.370E+00 0.990E+01   -.174E-01 -.143E-01 0.121E-02
   0.697E+01 0.594E+01 -.269E+03   -.738E+01 -.617E+01 0.280E+03   0.392E+00 0.212E+00 -.112E+02   0.142E-01 0.161E-01 0.403E-02
   -.169E+01 0.821E+01 0.270E+03   0.175E+01 -.807E+01 -.284E+03   -.611E-01 -.150E+00 0.140E+02   0.366E-02 0.670E-02 0.134E-02
   -.863E+01 0.307E+01 -.269E+03   0.904E+01 -.331E+01 0.280E+03   -.379E+00 0.233E+00 -.112E+02   -.211E-01 0.428E-02 0.403E-02
[...]
   -.532E+01 0.127E+02 -.271E+03   0.524E+01 -.136E+02 0.281E+03   0.909E-01 0.894E+00 -.109E+02   -.969E-02 -.112E-02 -.364E-02
   -.831E+01 0.109E+02 0.271E+03   0.912E+01 -.113E+02 -.281E+03   -.820E+00 0.369E+00 0.109E+02   0.582E-02 0.783E-02 0.364E-02
   -.526E+01 -.169E+02 -.259E+03   0.612E+01 0.165E+02 0.269E+03   -.852E+00 0.370E+00 -.990E+01   -.174E-01 0.143E-01 -.121E-02
   0.637E+01 -.147E+02 0.269E+03   -.632E+01 0.157E+02 -.280E+03   -.611E-01 -.969E+00 0.112E+02   0.587E-02 -.874E-02 0.180E-02
   0.954E+01 -.129E+02 -.269E+03   -.104E+02 0.133E+02 0.280E+03   0.869E+00 -.431E+00 -.112E+02   0.464E-02 -.945E-02 -.180E-02
   0.173E+02 -.389E+01 0.259E+03   -.174E+02 0.295E+01 -.269E+03   0.106E+00 0.923E+00 0.990E+01   -.367E-02 0.222E-01 0.121E-02
   0.505E+02 -.468E+02 -.290E+03   -.539E+02 0.498E+02 0.302E+03   0.339E+01 -.298E+01 -.126E+02   0.307E-02 0.141E-02 0.275E-02
   0.152E+02 -.672E+02 0.290E+03   -.161E+02 0.716E+02 -.302E+03   0.883E+00 -.442E+01 0.126E+02   -.275E-02 -.195E-02 -.275E-02
   -.455E+02 -.272E+02 -.277E+03   0.478E+02 0.284E+02 0.291E+03   -.238E+01 -.127E+01 -.137E+02   0.153E-01 -.734E-03 -.290E-02
   -.792E+00 -.530E+02 0.277E+03   0.708E+00 0.556E+02 -.291E+03   0.931E-01 -.269E+01 0.137E+02   -.830E-02 0.129E-01 0.290E-02
   0.463E+02 -.258E+02 -.277E+03   -.485E+02 0.272E+02 0.291E+03   0.229E+01 -.143E+01 -.137E+02   -.702E-02 0.136E-01 -.290E-02
   0.463E+02 0.258E+02 0.277E+03   -.485E+02 -.272E+02 -.291E+03   0.229E+01 0.143E+01 0.137E+02   -.703E-02 -.136E-01 0.290E-02
   -.792E+00 0.530E+02 -.277E+03   0.708E+00 -.556E+02 0.291E+03   0.931E-01 0.269E+01 -.137E+02   -.830E-02 -.129E-01 -.290E-02
   -.455E+02 0.272E+02 0.277E+03   0.478E+02 -.284E+02 -.291E+03   -.238E+01 0.127E+01 0.137E+02   0.153E-01 0.734E-03 0.290E-02
   -.683E-03 0.174E-02 0.220E-02   0.909E-12 0.284E-13 0.568E-12   0.222E-14 -.155E-14 0.533E-14   -.585E-06 -.102E-05 -.501E-08

 POSITION                                       TOTAL-FORCE (eV/Angst)
      4.23831      7.34097      7.02726         0.000373      0.000645     -0.000000
      1.37477      0.76621     11.73358         0.005629      0.002023     -0.000665
     -0.02383      1.57369      2.32095        -0.001063      0.005886      0.000665
      7.12272      2.46523      7.01899         0.000029      0.002139      0.001371
      0.01480      3.28718     11.70383        -0.001867     -0.001044      0.001371
     -1.42640      4.13953      2.33415         0.001838     -0.001095      0.001371
      5.62244      4.94367      7.02955         0.002236      0.000028     -0.000736
     -1.49451      5.77030     11.71211         0.008870     -0.000000     -0.000000
     -2.94424      6.59694      2.34014         0.002236     -0.000028      0.000736
     -1.42640      7.40107      7.03554         0.001838      0.001095     -0.001371
      4.29814      0.83446     11.72038        -0.001867      0.001044     -0.001371
      2.83938      1.65641      2.35070         0.000029     -0.002139     -0.001371
      1.46114      2.53077      7.02726        -0.004435     -0.007682     -0.000000
      2.90190      3.37296     11.70983        -0.001142     -0.001922      0.000736
      1.47012      4.19960      2.34470        -0.001094     -0.001950     -0.000736
      0.07684      4.96281      7.00579        -0.004566     -0.003863      0.000665
      1.51784      5.77030     11.71211        -0.000745      0.000000     -0.000000
      0.07684      6.57779      2.36390        -0.004566      0.003863     -0.000665
      1.47012      7.34101      7.02498        -0.001094      0.001950      0.000736
      7.18523      0.74868     11.71439        -0.001142      0.001922     -0.000736
      5.74448      1.59087      2.34242        -0.004435      0.007682     -0.000000
      4.25950      2.54795      7.04874        -0.001063     -0.005886     -0.000665
      5.65811      3.35544     11.69063         0.005629     -0.002023      0.000665
      4.23831      4.19963      2.34242         0.000373     -0.000645     -0.000000
      4.27671      7.40748     -0.00000        -0.002298     -0.003980     -0.000000
      1.43592      0.83208      4.70082         0.000356     -0.003032     -0.004036
      0.00264      1.65959      9.35371        -0.002804     -0.001207      0.004036
     -1.43057      2.48590     14.03654         0.003321      0.001843      0.002503
     -0.00979      3.28844      4.66686        -0.003257      0.001955      0.002503
     -1.41520      4.11760      9.35170        -0.000065     -0.003798      0.002503
     -2.84133      4.93792     14.01776         0.004857     -0.000659     -0.002021
     -1.43228      5.77030      4.68484         0.001992     -0.000000     -0.000000
     -2.84133      6.60268      9.40646         0.004857      0.000659      0.002021
      2.86814      0.00404      0.01799        -0.000065      0.003798     -0.002503
      4.27355      0.83320      4.70283        -0.003257     -0.001955     -0.002503
      2.85277      1.63574      9.38767         0.003321     -0.001843     -0.002503
      1.43003      2.47688     -0.00000        -0.000996     -0.001725     -0.000000
      2.85542      3.28097      4.72162        -0.001858     -0.004535      0.002021
      1.41369      4.11335      9.33291        -0.002999     -0.003877     -0.002021
     -0.01079      4.94280     14.03856         0.002448     -0.001825      0.004036
      1.44103      5.77030      4.68484         0.004596     -0.000000     -0.000000
     -0.01079      6.59781      9.38566         0.002448      0.001825     -0.004036
      5.69703      0.00830      0.03677        -0.002999      0.003877      0.002021
      7.13876      0.84068      4.64807        -0.001858      0.004535     -0.002021
      5.71337      1.64476      9.36969        -0.000996      0.001725     -0.000000
      4.28598      2.46206      0.01597        -0.002804      0.001207     -0.004036
      5.71926      3.28956      4.66887         0.000356      0.003032      0.004036
      4.27671      4.13312      9.36969        -0.002298      0.003980     -0.000000
      2.86186      4.95688     -0.00000         0.002839      0.004917     -0.000000
      4.27074      5.77030      4.68484        -0.005678      0.000000     -0.000000
      2.86186      6.58372      9.36969         0.002839     -0.004917     -0.000000
      0.01890      0.09959     10.36162         0.005527     -0.006753     -0.002538
      0.07680      0.06616      3.69291        -0.008611      0.001410      0.002538
      1.42353      0.80106      1.02485         0.000567     -0.005117     -0.005880
      1.44539      0.83389      8.34971         0.008293     -0.000389      0.006774
     -0.00052      1.66869      5.70482        -0.004483      0.006988     -0.006774
     -0.01802      1.63334     13.02968        -0.004715     -0.002068      0.005880
      7.13140      2.46807     10.37199        -0.004638     -0.001770      0.003749
     -1.43063      2.48668      3.65573         0.003205      0.000751      0.000321
      0.00800      3.29328      1.00231         0.003852     -0.003132      0.003749
[...]
      7.15601      0.80024      8.33738         0.003277     -0.004606      0.007343
      5.70893      1.66511      5.71179         0.001556      0.007542     -0.006035
      5.69796      1.65878     13.02759        -0.007310      0.002423      0.006035
      4.26531      2.48830     10.39454        -0.004715      0.002068     -0.005880
      4.28282      2.45296      3.66486        -0.004483     -0.006988      0.006774
      5.72872      3.28775      1.01998         0.008293      0.000389     -0.006774
      5.70686      3.32058      8.34483         0.000567      0.005117      0.005880
      4.36014      4.05548      5.67678        -0.008611     -0.001410     -0.002538
      4.30224      4.02205     13.06259         0.005527      0.006753      0.002538
      2.79208      4.91258     10.30608        -0.000510      0.001131     -0.008032
      2.85837      4.87430      3.74845         0.001235      0.000124      0.008032
      4.34400      5.73203      0.93639        -0.000725     -0.001008     -0.008032
      4.34400      5.80857      8.43329        -0.000725      0.001008      0.008032
      2.85837      6.66630      5.62124         0.001235     -0.000124     -0.008032
      2.79208      6.62803     13.11814        -0.000510     -0.001131      0.008032
    total drift:                               -0.000683      0.001738      0.002198

  FREE ENERGIE OF THE ION-ELECTRON SYSTEM (eV)
  free  energy   TOTEN  =      -630.2491173593 eV

  energy  without entropy=     -630.2156323970  energy(sigma->0) =     -630.23237488

 d Force = 0.3668966E-03[ 0.209E-03, 0.525E-03]  d Energy = 0.4228522E-03-0.560E-04
 d Force = 0.2583918E+01[ 0.258E+01, 0.259E+01]  d Ewald  =-0.4093050E+01 0.668E+01

 Quasi-Newton relaxation of ions (Broydens 2nd method)
  g(Force)  = 0.248E-03   g(Stress)= 0.157E-03

 retain information from N=  1 steps
 eigenvalues of (default step * inverse Hessian matrix)
  average eigenvalue of G=   0.5114
 eigenvalue spectrum of G is  0.5114

 reached required accuracy - stopping structural energy minimisation

volume of typ            1:    20.9 %

[...]

volume of typ            3:     9.9 %

total charge

# of ion       s       p       d       tot
    1        2.079   0.256   0.096   2.432
    2        2.082   0.265   0.100   2.447
    3        2.082   0.265   0.100   2.447
    4        2.080   0.258   0.098   2.436
    5        2.080   0.258   0.098   2.436
    6        2.080   0.258   0.098   2.436
    7        2.080   0.258   0.097   2.435
    8        2.085   0.271   0.104   2.460
    9        2.080   0.258   0.097   2.435
   10        2.080   0.258   0.098   2.436
   11        2.080   0.258   0.098   2.436
   12        2.080   0.258   0.098   2.436
   13        2.085   0.271   0.104   2.460
   14        2.080   0.258   0.097   2.435
   15        2.080   0.258   0.097   2.435
   16        2.082   0.265   0.100   2.447
   17        2.079   0.256   0.096   2.432
   18        2.082   0.265   0.100   2.447
   19        2.080   0.258   0.097   2.435
   20        2.080   0.258   0.097   2.435
   21        2.085   0.271   0.104   2.460
   22        2.082   0.265   0.100   2.447
   23        2.082   0.265   0.100   2.447
   24        2.079   0.256   0.096   2.432
   25        0.255   0.324   7.855   8.433
   26        0.269   0.356   7.856   8.480
   27        0.269   0.356   7.856   8.480
   28        0.270   0.357   7.854   8.481
   29        0.270   0.357   7.854   8.481
   30        0.270   0.357   7.854   8.481
   31        0.263   0.342   7.857   8.463
   32        0.253   0.323   7.865   8.442
   33        0.263   0.342   7.857   8.463
   34        0.270   0.357   7.854   8.481
   35        0.270   0.357   7.854   8.481
   36        0.270   0.357   7.854   8.481
   37        0.253   0.323   7.865   8.442
   38        0.263   0.342   7.857   8.463
   39        0.263   0.342   7.857   8.463
   40        0.269   0.356   7.856   8.480
   41        0.255   0.324   7.855   8.433
   42        0.269   0.356   7.856   8.480
   43        0.263   0.342   7.857   8.463
   44        0.263   0.342   7.857   8.463
   45        0.253   0.323   7.865   8.442
   46        0.269   0.356   7.856   8.480
   47        0.269   0.356   7.856   8.480
   48        0.255   0.324   7.855   8.433
   49        0.256   0.327   7.854   8.437
   50        0.256   0.327   7.854   8.437
   51        0.256   0.327   7.854   8.437
   52        1.264   2.779   0.006   4.049
   53        1.264   2.779   0.006   4.049
   54        1.259   2.791   0.005   4.055
   55        1.262   2.783   0.005   4.050
   56        1.262   2.783   0.005   4.050
   57        1.259   2.791   0.005   4.055
   58        1.261   2.784   0.005   4.051
   59        1.255   2.798   0.006   4.059
   60        1.261   2.784   0.005   4.051
[...]
   91        1.258   2.790   0.005   4.054
   92        1.262   2.783   0.005   4.050
   93        1.262   2.783   0.005   4.050
   94        1.259   2.791   0.005   4.055
   95        1.262   2.783   0.005   4.050
   96        1.262   2.783   0.005   4.050
   97        1.259   2.791   0.005   4.055
   98        1.264   2.779   0.006   4.049
   99        1.264   2.779   0.006   4.049
  100        1.263   2.783   0.006   4.052
  101        1.263   2.783   0.006   4.052
  102        1.263   2.783   0.006   4.052
  103        1.263   2.783   0.006   4.052
  104        1.263   2.783   0.006   4.052
  105        1.263   2.783   0.006   4.052
tot         125.14  165.93  214.80  505.87

magnetization (x)

# of ion       s       p       d       tot
    1        0.007   0.013   0.001   0.021
    2        0.007   0.013   0.001   0.022
    3        0.007   0.013   0.001   0.022
    4        0.007   0.012   0.001   0.019
    5        0.007   0.012   0.001   0.019
    6        0.007   0.012   0.001   0.019
    7        0.007   0.014   0.001   0.022
    8        0.007   0.013   0.001   0.021
    9        0.007   0.014   0.001   0.022
   10        0.007   0.012   0.001   0.019
   11        0.007   0.012   0.001   0.019
   12        0.007   0.012   0.001   0.019
   13        0.007   0.013   0.001   0.021
   14        0.007   0.014   0.001   0.022
   15        0.007   0.014   0.001   0.022
   16        0.007   0.013   0.001   0.022
   17        0.007   0.013   0.001   0.021
   18        0.007   0.013   0.001   0.022
   19        0.007   0.014   0.001   0.022
   20        0.007   0.014   0.001   0.022
   21        0.007   0.013   0.001   0.021
   22        0.007   0.013   0.001   0.022
   23        0.007   0.013   0.001   0.022
   24        0.007   0.013   0.001   0.021
   25       -0.000  -0.001   0.779   0.778
   26       -0.001  -0.001   0.559   0.558
   27       -0.001  -0.001   0.559   0.558
   28       -0.001  -0.001   0.542   0.540
   29       -0.001  -0.001   0.542   0.540
   30       -0.001  -0.001   0.542   0.540
   31       -0.000  -0.001   0.655   0.653
   32       -0.000  -0.001   0.897   0.896
   33       -0.000  -0.001   0.655   0.653
   34       -0.001  -0.001   0.542   0.540
   35       -0.001  -0.001   0.542   0.540
   36       -0.001  -0.001   0.542   0.540
   37       -0.000  -0.001   0.897   0.896
   38       -0.000  -0.001   0.655   0.653
   39       -0.000  -0.001   0.655   0.653
   40       -0.001  -0.001   0.559   0.558
   41       -0.000  -0.001   0.779   0.778
   42       -0.001  -0.001   0.559   0.558
   43       -0.000  -0.001   0.655   0.653
   44       -0.000  -0.001   0.655   0.653
   45       -0.000  -0.001   0.897   0.896
   46       -0.001  -0.001   0.559   0.558
   47       -0.001  -0.001   0.559   0.558
   48       -0.000  -0.001   0.779   0.778
   49       -0.000  -0.001   0.750   0.750
   50       -0.000  -0.001   0.750   0.750
   51       -0.000  -0.001   0.750   0.750
   52        0.013   0.085   0.000   0.098
   53        0.013   0.085   0.000   0.098
   54        0.014   0.082   0.000   0.096
   55        0.013   0.079   0.000   0.093
   56        0.013   0.079   0.000   0.093
   57        0.014   0.082   0.000   0.096
   58        0.014   0.072   0.000   0.086
   59        0.004   0.002   0.000   0.006
   60        0.014   0.072   0.000   0.086
[...]
   91        0.014   0.080   0.000   0.094
   92        0.014   0.084   0.000   0.098
   93        0.014   0.084   0.000   0.098
   94        0.014   0.082   0.000   0.096
   95        0.013   0.079   0.000   0.093
   96        0.013   0.079   0.000   0.093
   97        0.014   0.082   0.000   0.096
   98        0.013   0.085   0.000   0.098
   99        0.013   0.085   0.000   0.098
  100        0.011   0.045   0.000   0.056
  101        0.011   0.045   0.000   0.056
  102        0.011   0.045   0.000   0.056
  103        0.011   0.045   0.000   0.056
  104        0.011   0.045   0.000   0.056
  105        0.011   0.045   0.000   0.056
tot           0.81    3.96   17.85   22.62