 vasp.5.4.4.18Apr17-6-g9f103f2a35 (build May 12 2020 05:39:39) gamma-only

 MD_VERSION_INFO: Compiled 2020-05-12T12:39:39-UTC in devlin.sd.materialsdesign.
 com:/home/medea2/data/build/wwolf/vasp-gpu5.4.4/13047/x86_64/src/src/build/gam
 from svn 13047

 executed on                        Lin64 date 2023.01.19  19:20:52

 INCAR:
 POTCAR:    PAW_PBE Li_sv 10Sep2004
 POTCAR:    PAW_PBE Ni 02Aug2007
 POTCAR:    PAW_PBE O 08Apr2002

 POTCAR:    PAW_PBE Li_sv 10Sep2004

 POTCAR:    PAW_PBE Ni 02Aug2007

 POTCAR:    PAW_PBE O 08Apr2002

 Optimization of the real space projectors (new method)

 maximal supplied QI-value         = 22.11
 optimisation between [QCUT,QGAM] = [ 11.28, 22.77] = [ 35.61,145.23] Ry
 Optimized for a Real-space Cutoff    1.10 Angstroem

   l    n(q)    QCUT    max X(q) W(low)/X(q) W(high)/X(q)  e(spline)
   0      7    11.276    10.506    0.54E-04    0.58E-04    0.16E-07
   0      7    11.276     8.367    0.11E-03    0.14E-03    0.35E-07
   1      7    11.276     8.983    0.23E-03    0.43E-03    0.86E-07
 Optimization of the real space projectors (new method)

[...]

   l    n(q)    QCUT    max X(q) W(low)/X(q) W(high)/X(q)  e(spline)
   2      9    11.376    60.317    0.17E-03    0.16E-04    0.16E-06
   2      9    11.376    55.921    0.17E-03    0.16E-04    0.17E-06
   0     10    11.376    51.690    0.45E-04    0.60E-04    0.21E-06
   0     10    11.376    30.015    0.37E-04    0.55E-04    0.19E-06
   1     10    11.376    18.849    0.83E-04    0.11E-03    0.92E-07
   1     10    11.376    14.624    0.69E-04    0.92E-04    0.82E-07
 Optimization of the real space projectors (new method)

 maximal supplied QI-value         = 24.76
 optimisation between [QCUT,QGAM] = [ 11.39, 22.77] = [ 36.31,145.25] Ry
 Optimized for a Real-space Cutoff    1.10 Angstroem

   l    n(q)    QCUT    max X(q) W(low)/X(q) W(high)/X(q)  e(spline)
   0      7    11.387    20.381    0.22E-03    0.48E-03    0.18E-06
   0      7    11.387    15.268    0.22E-03    0.52E-03    0.19E-06
   1      7    11.387     5.964    0.22E-03    0.73E-03    0.24E-06
   1      7    11.387     5.382    0.19E-03    0.60E-03    0.21E-06

  PAW_PBE Li_sv 10Sep2004               :
  PAW_PBE Ni 02Aug2007                  :
  PAW_PBE O 08Apr2002                   :

 POSCAR: ce239433_1
  positions in direct lattice
 exchange correlation table for  LEXCH =       14
   RHO(1)=    0.500       N(1)  =     2000
   RHO(2)=  100.500       N(2)  =     4000

 ion  position               nearest neighbor table
   1  0.978  0.500  1.000-  56 2.01  91 2.01  92 2.13  43 2.14  44 2.21  79 2.24  38 2.79  21 2.80

   2  0.090  0.834  0.223-  57 2.01  58 2.01  63 2.13  40 2.14  45 2.21  64 2.24  22 2.79  21 2.80

[...]

  12  0.556  0.166  0.757-  66 2.01  89 2.01  90 2.13  83 2.14  84 2.21  53 2.24  37 2.79  26 2.80

  13  0.999  0.999  0.999-  78 1.87  57 1.88  42 1.88  93 1.90  90 1.91  45 1.92  19 2.80  31 2.80
                            37 2.81   3 2.81  16 2.81  22 2.82  25 2.83
  14  0.111  0.335  0.223-  65 1.87  56 1.88  41 1.88  62 1.90  59 1.91  44 1.92  20 2.80  26 2.80
                            23 2.81   3 2.81  17 2.81  38 2.82  32 2.83
  15  0.222  0.667  0.111-  64 1.87  79 1.87  40 1.89  43 1.89  46 1.92  49 1.92  33 2.81  27 2.81
                            24 2.81  39 2.81  18 2.82  21 2.84
  16  0.332  0.000  0.999-  81 1.86  78 1.86  48 1.88  51 1.88  45 1.94  84 1.94  31 2.78  34 2.81
                            13 2.81  28 2.82  25 2.83  19 2.83
  17  0.444  0.333  0.223-  65 1.86  68 1.86  47 1.88  50 1.88  71 1.94  44 1.94  26 2.78  14 2.81
                            29 2.81  35 2.82  32 2.83  20 2.83
  18  0.557  0.667  0.111-  52 1.86  55 1.86  46 1.88  49 1.88  70 1.94  85 1.94  21 2.78  36 2.81
                            30 2.81  15 2.82  27 2.83  33 2.83
  19  0.668  0.998  0.001-  90 1.87  84 1.88  87 1.88  57 1.88  51 1.91  54 1.92  13 2.80  22 2.80
                            28 2.81  37 2.82  16 2.83  34 2.83
  20  0.778  0.335  0.221-  59 1.87  71 1.88  74 1.88  56 1.88  50 1.91  53 1.92  14 2.80  38 2.80
                            35 2.81  23 2.82  17 2.83  29 2.83
  21  0.886  0.667  0.111-  40 1.88  43 1.88  58 1.88  91 1.88  52 1.90  55 1.90  18 2.78   2 2.80
                             1 2.80  30 2.80  36 2.80  39 2.82  24 2.82  15 2.84
  22  0.999  0.001  0.333-  63 1.87  60 1.87  57 1.88  54 1.91  42 1.91  75 1.91   2 2.79  19 2.80
                            34 2.81  28 2.81  13 2.82  31 2.82  25 2.82
  23  0.112  0.335  0.556-  59 1.87  62 1.87  77 1.88  80 1.91  74 1.91  83 1.91   9 2.79  32 2.80
                            14 2.81  35 2.81  29 2.82  26 2.82  20 2.82
  24  0.222  0.668  0.444-  61 1.87  58 1.87  67 1.88  64 1.91  82 1.91  43 1.91  10 2.79  27 2.80
                            30 2.81  15 2.81  36 2.82  21 2.82  33 2.82
  25  0.335  0.002  0.335-  63 1.87  45 1.88  42 1.88  66 1.88  48 1.91  69 1.92  34 2.80  37 2.80
                            28 2.81  22 2.82  16 2.83  13 2.83
  26  0.444  0.333  0.553-  83 1.88  86 1.88  89 1.88  62 1.88  65 1.90  68 1.90  17 2.78  12 2.80
                            10 2.80  14 2.80  29 2.80  23 2.82  38 2.82  35 2.84
  27  0.554  0.665  0.445-  88 1.87  70 1.88  73 1.88  67 1.88  49 1.91  64 1.92  36 2.80  24 2.80
                            15 2.81  39 2.82  18 2.83  30 2.83
  28  0.667  0.000  0.333-  54 1.87  69 1.87  75 1.89  72 1.89  51 1.92  48 1.92  19 2.81  25 2.81
                            22 2.81  37 2.81  16 2.82  31 2.84
  29  0.778  0.332  0.557-  68 1.87  77 1.88  74 1.88  89 1.90  92 1.91  71 1.92  32 2.80  26 2.80
                            38 2.81   7 2.81  17 2.81  23 2.82  20 2.83
  30  0.890  0.668  0.445-  55 1.87  76 1.88  73 1.88  58 1.90  61 1.91  70 1.92  33 2.80  21 2.80
                            24 2.81   7 2.81  18 2.81  39 2.82  27 2.83
  31  0.003  0.000  0.669-  72 1.88  75 1.88  60 1.88  93 1.88  78 1.90  81 1.90  16 2.78   8 2.80
                             9 2.80  13 2.80  34 2.80  37 2.82  22 2.82  28 2.84
  32  0.111  0.332  0.887-  92 1.87  44 1.88  41 1.88  77 1.88  47 1.91  80 1.92  29 2.80  23 2.80
                            35 2.81  38 2.82  17 2.83  14 2.83
  33  0.220  0.668  0.778-  61 1.87  85 1.88  82 1.88  76 1.88  46 1.91  79 1.92  30 2.80  39 2.80
                            15 2.81  24 2.82  18 2.83  36 2.83
  34  0.333  0.001  0.665-  81 1.87  66 1.88  87 1.88  60 1.90  63 1.91  84 1.92  25 2.80  31 2.80
                            22 2.81  11 2.81  16 2.81  37 2.82  19 2.83
  35  0.444  0.333  0.889-  53 1.87  80 1.87  83 1.89  86 1.89  47 1.92  50 1.92  32 2.81  20 2.81
                            23 2.81  38 2.81  17 2.82  26 2.84
  36  0.556  0.665  0.777-  52 1.87  67 1.88  82 1.88  91 1.90  88 1.91  85 1.92  27 2.80  21 2.80
                            39 2.81  11 2.81  18 2.81  24 2.82  33 2.83
  37  0.667  0.999  0.666-  90 1.87  93 1.87  66 1.88  69 1.91  87 1.91  72 1.91  12 2.79  25 2.80
                            13 2.81  28 2.81  34 2.82  31 2.82  19 2.82
  38  0.777  0.332  0.889-  92 1.87  89 1.87  56 1.88  53 1.91  41 1.91  86 1.91   1 2.79  20 2.80
                            29 2.81  35 2.81  14 2.82  26 2.82  32 2.82
  39  0.889  0.665  0.778-  88 1.87  91 1.87  76 1.88  79 1.91  73 1.91  40 1.91   8 2.79  33 2.80
                            36 2.81  15 2.81  30 2.82  21 2.82  27 2.82
  40  1.000  0.734  0.004-  21 1.88  15 1.89  39 1.91   2 2.14
  41  0.004  0.265  0.003-  32 1.88  14 1.88  38 1.91   3 2.02
  42  0.112  0.068  0.219-  25 1.88  13 1.88  22 1.91   3 2.02
  43  0.107  0.599  0.218-  21 1.88  15 1.89  24 1.91   1 2.14
  44  0.217  0.404  0.103-  32 1.88  14 1.92  17 1.94   4 2.11   1 2.21
  45  0.225  0.930  0.119-  25 1.88  13 1.92  16 1.94   5 2.11   2 2.21
  46  0.339  0.737  0.002-  18 1.88  33 1.91  15 1.92   5 2.11  11 2.21
  47  0.336  0.263  0.005-  17 1.88  32 1.91  35 1.92   6 2.11   3 2.21
  48  0.441  0.070  0.217-  16 1.88  25 1.91  28 1.92   6 2.11   3 2.21
  49  0.447  0.596  0.220-  18 1.88  27 1.91  15 1.92   4 2.11   7 2.21
  50  0.553  0.404  0.114-  17 1.88  20 1.91  35 1.92   4 2.11   7 2.21
  51  0.550  0.930  0.108-  16 1.88  19 1.91  28 1.92   5 2.11  11 2.21
  52  0.662  0.734  0.997-  18 1.86  36 1.87  21 1.90  11 2.13
  53  0.662  0.264  0.998-  35 1.87  38 1.91  20 1.92   6 2.11  12 2.24
  54  0.775  0.070  0.224-  28 1.87  22 1.91  19 1.92   6 2.11   9 2.24
  55  0.776  0.600  0.225-  18 1.86  30 1.87  21 1.90   7 2.13
  56  0.889  0.401  0.108-  14 1.88  38 1.88  20 1.88   1 2.01
  57  0.892  0.932  0.114-  13 1.88  22 1.88  19 1.88   2 2.01
  58  0.001  0.735  0.332-  24 1.87  21 1.88  30 1.90   2 2.01
  59  0.998  0.267  0.336-  20 1.87  23 1.87  14 1.91   9 2.13
  60  0.108  0.068  0.554-  22 1.87  31 1.88  34 1.90   9 2.01
  61  0.116  0.600  0.558-  33 1.87  24 1.87  30 1.91  10 2.13
  62  0.224  0.402  0.447-  23 1.87  26 1.88  14 1.90  10 2.01
  63  0.220  0.934  0.440-  25 1.87  22 1.87  34 1.91   2 2.13
  64  0.331  0.736  0.328-  15 1.87  24 1.91  27 1.92   5 2.11   2 2.24
  65  0.330  0.266  0.329-  17 1.86  14 1.87  26 1.90   3 2.13
  66  0.447  0.068  0.559-  34 1.88  37 1.88  25 1.88  12 2.01
  67  0.441  0.599  0.556-  36 1.88  24 1.88  27 1.88  10 2.01
  68  0.559  0.400  0.443-  17 1.86  29 1.87  26 1.90   7 2.13
  69  0.558  0.930  0.442-  28 1.87  37 1.91  25 1.92   5 2.11   8 2.24
  70  0.664  0.737  0.339-  27 1.88  30 1.92  18 1.94   5 2.11   8 2.21
  71  0.672  0.263  0.331-  20 1.88  29 1.92  17 1.94   6 2.11   9 2.21
  72  0.782  0.067  0.556-  31 1.88  28 1.89  37 1.91   9 2.14
  73  0.777  0.599  0.551-  27 1.88  30 1.88  39 1.91   7 2.02
  74  0.885  0.401  0.444-  20 1.88  29 1.88  23 1.91   7 2.02
  75  0.889  0.933  0.448-  31 1.88  28 1.89  22 1.91   8 2.14
  76  0.997  0.735  0.667-  30 1.88  39 1.88  33 1.88   8 2.01
  77  1.000  0.265  0.664-  29 1.88  23 1.88  32 1.88   9 2.01
  78  0.113  0.067  0.894-  16 1.86  13 1.87  31 1.90   3 2.13
  79  0.114  0.597  0.894-  15 1.87  39 1.91  33 1.92   4 2.11   1 2.24
  80  0.227  0.403  0.781-  35 1.87  23 1.91  32 1.92   4 2.11  10 2.24
  81  0.227  0.933  0.779-  16 1.86  34 1.87  31 1.90  11 2.13
  82  0.337  0.735  0.671-  33 1.88  36 1.88  24 1.91  11 2.02
  83  0.337  0.266  0.667-  26 1.88  35 1.89  23 1.91  12 2.14
  84  0.453  0.070  0.891-  19 1.88  34 1.92  16 1.94   6 2.11  12 2.21
  85  0.436  0.596  0.883-  33 1.88  36 1.92  18 1.94   4 2.11  10 2.21
  86  0.552  0.401  0.774-  26 1.88  35 1.89  38 1.91  10 2.14
  87  0.552  0.932  0.779-  19 1.88  34 1.88  37 1.91  11 2.02
  88  0.669  0.733  0.665-  27 1.87  39 1.87  36 1.91   8 2.13
  89  0.665  0.265  0.668-  38 1.87  26 1.88  29 1.90  12 2.01
  90  0.773  0.066  0.886-  19 1.87  37 1.87  13 1.91  12 2.13
  91  0.781  0.598  0.891-  39 1.87  21 1.88  36 1.90   1 2.01
  92  0.891  0.400  0.782-  32 1.87  38 1.87  29 1.91   1 2.13
  93  0.888  0.932  0.775-  37 1.87  31 1.88  13 1.90   8 2.01

  LATTYP: Found a hexagonal cell.
 ALAT       =     8.4371980338
 C/A-ratio  =     1.6797315297

  Lattice vectors:

 A1 = (   4.2185989630,  -7.3068278652,   0.0000000000)
 A2 = (  -8.4371980209,   0.0000000000,   0.0000000000)
[...]
   0.253E+02 -.307E+02 0.350E+03   -.271E+02 0.322E+02 -.372E+03   0.188E+01 -.147E+01 0.222E+02   -.440E-01 -.326E-01 0.437E-01
   -.247E+02 0.127E+02 -.345E+03   0.269E+02 -.139E+02 0.366E+03   -.225E+01 0.118E+01 -.210E+02   -.156E-01 -.491E-02 0.232E-01
   0.131E+01 0.277E+02 0.345E+03   -.143E+01 -.302E+02 -.366E+03   0.106E+00 0.254E+01 0.210E+02   0.121E-01 0.110E-01 -.232E-01
   -.345E+02 0.141E+02 -.346E+03   0.372E+02 -.156E+02 0.367E+03   -.270E+01 0.157E+01 -.212E+02   -.404E-01 -.219E-01 -.195E-01
   0.267E+02 -.270E+02 0.346E+03   -.289E+02 0.280E+02 -.367E+03   0.214E+01 -.107E+01 0.206E+02   0.142E-01 0.231E-01 -.132E-01
   0.507E+01 -.369E+02 -.346E+03   -.510E+01 0.400E+02 0.367E+03   -.912E-02 -.313E+01 -.212E+02   0.392E-01 -.241E-01 -.195E-01
[...]
   0.148E+02 0.475E+02 -.327E+03   -.153E+02 -.504E+02 0.346E+03   0.494E+00 0.285E+01 -.189E+02   -.195E-01 0.760E-02 0.866E-02
   0.140E+02 0.372E+02 0.350E+03   -.144E+02 -.396E+02 -.372E+03   0.332E+00 0.236E+01 0.222E+02   0.502E-01 -.219E-01 0.437E-01
   0.433E+02 0.208E+02 -.353E+03   -.474E+02 -.232E+02 0.371E+03   0.414E+01 0.247E+01 -.181E+02   -.267E-02 0.202E-03 0.150E-01
   0.138E+02 0.503E+02 0.358E+03   -.135E+02 -.549E+02 -.378E+03   -.250E+00 0.459E+01 0.197E+02   -.407E-01 0.880E-02 0.173E-01
   0.134E+02 0.368E+02 -.330E+03   -.133E+02 -.398E+02 0.346E+03   -.194E+00 0.304E+01 -.162E+02   0.459E-01 -.476E-01 -.706E-02
   0.134E+02 -.368E+02 0.330E+03   -.133E+02 0.398E+02 -.346E+03   -.194E+00 -.304E+01 0.162E+02   0.459E-01 0.476E-01 0.706E-02
   0.138E+02 -.503E+02 -.358E+03   -.135E+02 0.549E+02 0.378E+03   -.250E+00 -.459E+01 -.197E+02   -.407E-01 -.880E-02 -.173E-01
   0.433E+02 -.208E+02 0.353E+03   -.474E+02 0.232E+02 -.371E+03   0.414E+01 -.247E+01 0.181E+02   -.267E-02 -.203E-03 -.150E-01
   -.367E+02 0.962E+01 -.346E+03   0.387E+02 -.110E+02 0.367E+03   -.200E+01 0.132E+01 -.206E+02   0.129E-01 0.239E-01 0.132E-01
   0.294E+02 -.228E+02 0.346E+03   -.321E+02 0.244E+02 -.367E+03   0.271E+01 -.156E+01 0.212E+02   0.125E-02 -.460E-01 0.195E-01
   0.100E+02 -.366E+02 -.346E+03   -.985E+01 0.390E+02 0.367E+03   -.149E+00 -.239E+01 -.206E+02   -.271E-01 -.761E-03 0.132E-01
   0.507E+01 0.369E+02 0.346E+03   -.510E+01 -.400E+02 -.367E+03   -.912E-02 0.313E+01 0.212E+02   0.392E-01 0.241E-01 0.195E-01
   0.267E+02 0.270E+02 -.346E+03   -.289E+02 -.280E+02 0.367E+03   0.214E+01 0.107E+01 -.206E+02   0.142E-01 -.231E-01 0.132E-01
   -.345E+02 -.141E+02 0.346E+03   0.372E+02 0.156E+02 -.367E+03   -.270E+01 -.157E+01 0.212E+02   -.404E-01 0.219E-01 0.195E-01
   -.416E-03 0.350E-03 0.173E-02   0.618E-12 0.213E-13 -.568E-12   0.266E-14 -.133E-14 0.107E-13   -.390E-05 -.813E-05 0.389E-06

 POSITION                                       TOTAL-FORCE (eV/Angst)
      4.30593      7.14997      7.16692         0.012831     -0.012020     -0.005094
      1.49348      0.65740     11.97668         0.003994     -0.017121      0.005094
      0.08467      1.47628      2.39295         0.009674     -0.016756     -0.000000
      7.02068      2.42258      7.17885        -0.006077     -0.010526     -0.000000
      0.01364      3.24586     11.96475         0.012154     -0.000000     -0.000000
     -1.41232      4.06914      2.39295        -0.006077      0.010526     -0.000000
      0.08467      5.01544      7.17885         0.009674      0.016756     -0.000000
      1.49348      5.83432     11.95282         0.003994      0.017121     -0.005094
      0.08943      6.64495      2.40488         0.012831      0.012020      0.005094
      4.03909      2.43524      7.19078        -0.016825      0.005102      0.005094
      5.45266      3.24586     11.96475        -0.019348      0.000000     -0.000000
      4.03909      4.05649      2.38102        -0.016825     -0.005102     -0.005094
      4.20853      7.29544     14.33939        -0.000862      0.006139     -0.002331
      1.41619      0.81449      4.80421        -0.004886      0.003816      0.002331
     -0.00496      1.63152      9.57180         0.004473     -0.007748     -0.000000
      7.02259      2.42590     -0.00000        -0.004312     -0.007469     -0.000000
      0.00982      3.24586      4.78590         0.008625     -0.000000     -0.000000
     -1.41041      4.06583      9.57180        -0.004312      0.007469     -0.000000
     -2.79424      4.88401     14.33555         0.000236     -0.006828     -0.000534
     -1.42706      5.67336      4.80805         0.005795     -0.003619      0.000534
     -2.80291      6.47772      9.57180        -0.005780      0.010011     -0.000000
     -1.40005      7.29642      0.02124        -0.009939     -0.000792     -0.002026
      4.21964      0.81957      4.80714         0.005656     -0.008211     -0.002026
      2.80241      1.62159      9.59304         0.004283      0.009004     -0.002026
      1.41030      2.45652      0.02215        -0.006031     -0.003209      0.000534
      2.79482      3.24586      4.78590         0.011560     -0.000000     -0.000000
      1.41030      4.03521      9.54965        -0.006031      0.003209     -0.000534
     -0.00496      4.86021     -0.00000         0.004473      0.007748     -0.000000
      1.41619      5.67723      4.76759        -0.004886     -0.003816     -0.002331
     -0.00797      6.49947      9.59011        -0.000862     -0.006139      0.002331
      5.63009      0.01401     -0.00000        -0.005780     -0.010011     -0.000000
      7.00594      0.81837      4.76375         0.005795      0.003619     -0.000534
      5.63875      1.60771      9.59395         0.000236      0.006828      0.000534
      4.21377      2.42362      0.01831         0.005748      0.002323      0.002331
      5.63191      3.24586      4.78590        -0.008947      0.000000     -0.000000
      4.21377      4.06810      9.55349         0.005748     -0.002323     -0.002331
      2.80241      4.87013     14.33646         0.004283     -0.009004      0.002026
      4.21964      5.67215      4.76466         0.005656      0.008211      0.002026
      2.81645      6.49850      9.55056        -0.009939      0.000792      0.002026
     -4.15244      7.33949     10.54298        -0.001875     -0.010127      0.000570
      0.00509      0.07764      3.81700         0.003798      0.002389     -0.007350
      1.33572      0.84588      0.96890        -0.003968     -0.002094      0.007350
      1.34203      0.77413      8.60062         0.009707     -0.003440     -0.000570
     -0.05092      1.57083      5.79154         0.007689     -0.000923      0.001301
      0.07058      1.64098     13.35206        -0.003046     -0.007120     -0.001301
     -1.39926      2.47635     10.57090        -0.005276      0.001426      0.000059
     -1.37229      2.46078      3.78680         0.003873     -0.003856     -0.000059
     -0.03945      3.23029      0.99910         0.001402     -0.005282      0.000059
     -0.03945      3.26143      8.57270         0.001402      0.005282     -0.000059
     -1.37229      4.03095      5.78500         0.003873      0.003856      0.000059
     -1.39926      4.01538     13.35860        -0.005276     -0.001426     -0.000059
      5.62034      4.83557     10.52171        -0.004383      0.005775     -0.001131
      5.62534      4.81887      3.79311        -0.001374      0.012819      0.002844
     -1.36394      5.65240      0.99279        -0.010415      0.007599     -0.002844
     -1.37590      5.66508      8.62189        -0.002810      0.006683      0.001131
     -2.84964      6.49510      5.73900        -0.009596      0.003837      0.010156
     -2.79460      6.52688     13.40460         0.001475      0.010229     -0.010156
      2.77863      0.01768     10.53712        -0.000240      0.000860      0.009358
     -1.37359      7.28241      3.85352        -0.006820      0.001969     -0.004420
      4.21737      0.77460      0.96532        -0.000625     -0.000637      0.009358
[...]
      7.06906      0.83932      8.57901        -0.010415     -0.007599      0.002844
      5.62534      1.67285      5.77869        -0.001374     -0.012819     -0.002844
      5.62034      1.65615     13.40779        -0.004383     -0.005775      0.001131
      4.28119      2.47762     10.54070         0.000170      0.004484      0.007350
      4.21590      2.50803      3.81472        -0.007832     -0.006687     -0.000570
      5.60234      3.31601      1.00564        -0.004644     -0.006198      0.001301
      5.60234      3.17571      8.56616        -0.004644      0.006198     -0.001301
      4.21590      3.98370      5.75708        -0.007832      0.006687      0.000570
      4.28119      4.01410     13.38880         0.000170     -0.004484     -0.007350
      2.77704      4.88604     10.50418         0.005115     -0.004922      0.004420
      2.84250      4.84960      3.82058         0.000864      0.000222     -0.009358
      4.21854      5.64223      0.93238         0.001705      0.006891      0.004420
      4.21737      5.71713      8.60648        -0.000625      0.000637     -0.009358
      2.84291      6.51251      5.71828        -0.006820     -0.001969      0.004420
      2.77863      6.47404     13.39238        -0.000240     -0.000860     -0.009358
    total drift:                               -0.000420      0.000342      0.001734

  FREE ENERGIE OF THE ION-ELECTRON SYSTEM (eV)
  free  energy   TOTEN  =      -571.5563665871 eV

  energy  without entropy=     -571.4965094010  energy(sigma->0) =     -571.52643799

 d Force = 0.4433925E-02[-0.218E-03, 0.909E-02]  d Energy = 0.5517288E-02-0.108E-02
 d Force =-0.6268964E+02[-0.630E+02,-0.624E+02]  d Ewald  =-0.1323653E+03 0.697E+02

 Quasi-Newton relaxation of ions (Broydens 2nd method)
  g(Force)  = 0.522E-03   g(Stress)= 0.448E-03

 retain information from N=  2 steps
 eigenvalues of (default step * inverse Hessian matrix)
  average eigenvalue of G=   2.0158
 eigenvalue spectrum of G is  2.0158  2.0158

 reached required accuracy - stopping structural energy minimisation

volume of typ            1:    10.6 %

[...]

volume of typ            3:    10.0 %

total charge

# of ion       s       p       d       tot
    1        2.070   0.230   0.087   2.387
    2        2.070   0.230   0.087   2.387
    3        2.072   0.236   0.090   2.399
    4        2.071   0.233   0.088   2.392
    5        2.071   0.233   0.088   2.392
    6        2.071   0.233   0.088   2.392
    7        2.072   0.236   0.090   2.399
    8        2.070   0.230   0.087   2.387
    9        2.070   0.230   0.087   2.387
   10        2.070   0.230   0.087   2.387
   11        2.072   0.236   0.090   2.399
   12        2.070   0.230   0.087   2.387
   13        0.284   0.388   7.834   8.506
   14        0.284   0.388   7.834   8.506
   15        0.293   0.406   7.840   8.539
   16        0.285   0.388   7.846   8.518
   17        0.285   0.388   7.846   8.518
   18        0.285   0.388   7.846   8.518
   19        0.286   0.392   7.838   8.516
   20        0.286   0.392   7.838   8.516
   21        0.292   0.403   7.830   8.525
   22        0.279   0.375   7.842   8.496
   23        0.279   0.375   7.842   8.496
   24        0.279   0.375   7.842   8.496
   25        0.286   0.392   7.838   8.516
   26        0.292   0.403   7.830   8.525
   27        0.286   0.392   7.838   8.516
   28        0.293   0.406   7.840   8.539
   29        0.284   0.388   7.834   8.506
   30        0.284   0.388   7.834   8.506
   31        0.292   0.403   7.830   8.525
   32        0.286   0.392   7.838   8.516
   33        0.286   0.392   7.838   8.516
   34        0.284   0.388   7.834   8.506
   35        0.293   0.406   7.840   8.539
   36        0.284   0.388   7.834   8.506
   37        0.279   0.375   7.842   8.496
   38        0.279   0.375   7.842   8.496
   39        0.279   0.375   7.842   8.496
   40        1.278   2.742   0.007   4.027
   41        1.276   2.754   0.007   4.036
   42        1.276   2.754   0.007   4.036
   43        1.278   2.742   0.007   4.027
   44        1.271   2.760   0.006   4.037
   45        1.271   2.760   0.006   4.037
   46        1.267   2.771   0.007   4.044
   47        1.267   2.771   0.007   4.044
   48        1.267   2.771   0.007   4.044
   49        1.267   2.771   0.007   4.044
   50        1.267   2.771   0.007   4.044
   51        1.267   2.771   0.007   4.044
   52        1.272   2.757   0.007   4.037
   53        1.266   2.773   0.007   4.046
   54        1.266   2.773   0.007   4.046
   55        1.272   2.757   0.007   4.037
   56        1.270   2.766   0.007   4.043
   57        1.270   2.766   0.007   4.043
   58        1.271   2.764   0.007   4.042
   59        1.276   2.748   0.007   4.031
   60        1.271   2.764   0.007   4.042
[...]
   79        1.266   2.773   0.007   4.046
   80        1.266   2.773   0.007   4.046
   81        1.272   2.757   0.007   4.037
   82        1.276   2.754   0.007   4.036
   83        1.278   2.742   0.007   4.027
   84        1.271   2.760   0.006   4.037
   85        1.271   2.760   0.006   4.037
   86        1.278   2.742   0.007   4.027
   87        1.276   2.754   0.007   4.036
   88        1.276   2.748   0.007   4.031
   89        1.271   2.764   0.007   4.042
   90        1.276   2.748   0.007   4.031
   91        1.271   2.764   0.007   4.042
   92        1.276   2.748   0.007   4.031
   93        1.271   2.764   0.007   4.042
tot         101.23  162.31  213.06  476.60

magnetization (x)

# of ion       s       p       d       tot
    1        0.006   0.011   0.000   0.017
    2        0.006   0.011   0.000   0.017
    3        0.006   0.011   0.001   0.019
    4        0.005   0.009   0.000   0.014
    5        0.005   0.009   0.000   0.014
    6        0.005   0.009   0.000   0.014
    7        0.006   0.011   0.001   0.019
    8        0.006   0.011   0.000   0.017
    9        0.006   0.011   0.000   0.017
   10        0.006   0.011   0.000   0.017
   11        0.006   0.011   0.001   0.019
   12        0.006   0.011   0.000   0.017
   13       -0.001  -0.001   0.277   0.276
   14       -0.001  -0.001   0.277   0.276
   15       -0.001  -0.001   0.192   0.190
   16        0.000  -0.000   0.421   0.421
   17        0.000  -0.000   0.421   0.421
   18        0.000  -0.000   0.421   0.421
   19       -0.001  -0.001   0.271   0.270
   20       -0.001  -0.001   0.271   0.270
   21       -0.001  -0.001   0.158   0.157
   22        0.000  -0.001   0.481   0.481
   23        0.000  -0.001   0.481   0.481
   24        0.000  -0.001   0.481   0.481
   25       -0.001  -0.001   0.271   0.270
   26       -0.001  -0.001   0.158   0.157
   27       -0.001  -0.001   0.271   0.270
   28       -0.001  -0.001   0.192   0.190
   29       -0.001  -0.001   0.277   0.276
   30       -0.001  -0.001   0.277   0.276
   31       -0.001  -0.001   0.158   0.157
   32       -0.001  -0.001   0.271   0.270
   33       -0.001  -0.001   0.271   0.270
   34       -0.001  -0.001   0.277   0.276
   35       -0.001  -0.001   0.192   0.190
   36       -0.001  -0.001   0.277   0.276
   37        0.000  -0.001   0.481   0.481
   38        0.000  -0.001   0.481   0.481
   39        0.000  -0.001   0.481   0.481
   40        0.009   0.072   0.000   0.081
   41        0.011   0.091   0.000   0.102
   42        0.011   0.091   0.000   0.102
   43        0.009   0.072   0.000   0.081
   44        0.011   0.070   0.000   0.082
   45        0.011   0.070   0.000   0.082
   46        0.005   0.009   0.000   0.014
   47        0.005   0.009   0.000   0.014
   48        0.005   0.009   0.000   0.014
   49        0.005   0.009   0.000   0.014
   50        0.005   0.009   0.000   0.014
   51        0.005   0.009   0.000   0.014
   52        0.004   0.011   0.000   0.015
   53        0.005   0.012   0.000   0.017
   54        0.005   0.012   0.000   0.017
   55        0.004   0.011   0.000   0.015
   56        0.004   0.012   0.000   0.016
   57        0.004   0.012   0.000   0.016
   58        0.003   0.007   0.000   0.010
   59        0.008   0.054   0.000   0.062
   60        0.003   0.007   0.000   0.010
[...]
   79        0.005   0.012   0.000   0.017
   80        0.005   0.012   0.000   0.017
   81        0.004   0.011   0.000   0.015
   82        0.011   0.091   0.000   0.102
   83        0.009   0.072   0.000   0.081
   84        0.011   0.070   0.000   0.082
   85        0.011   0.070   0.000   0.082
   86        0.009   0.072   0.000   0.081
   87        0.011   0.091   0.000   0.102
   88        0.008   0.054   0.000   0.062
   89        0.003   0.007   0.000   0.010
   90        0.008   0.054   0.000   0.062
   91        0.003   0.007   0.000   0.010
   92        0.008   0.054   0.000   0.062
   93        0.003   0.007   0.000   0.010
tot           0.41    2.14    8.50   11.05