 vasp.5.4.4.18Apr17-6-g9f103f2a35 (build May 12 2020 05:39:39) gamma-only

 MD_VERSION_INFO: Compiled 2020-05-12T12:39:39-UTC in devlin.sd.materialsdesign.
 com:/home/medea2/data/build/wwolf/vasp-gpu5.4.4/13047/x86_64/src/src/build/gam
 from svn 13047

 executed on                        Lin64 date 2023.01.19  20:29:44

 INCAR:
 POTCAR:    PAW_PBE Li_sv 10Sep2004
 POTCAR:    PAW_PBE Ni 02Aug2007
 POTCAR:    PAW_PBE O 08Apr2002

 POTCAR:    PAW_PBE Li_sv 10Sep2004

 POTCAR:    PAW_PBE Ni 02Aug2007

 POTCAR:    PAW_PBE O 08Apr2002

 Optimization of the real space projectors (new method)

 maximal supplied QI-value         = 22.11
 optimisation between [QCUT,QGAM] = [ 11.28, 22.77] = [ 35.61,145.23] Ry
 Optimized for a Real-space Cutoff    1.10 Angstroem

   l    n(q)    QCUT    max X(q) W(low)/X(q) W(high)/X(q)  e(spline)
   0      7    11.276    10.506    0.54E-04    0.58E-04    0.16E-07
   0      7    11.276     8.367    0.11E-03    0.14E-03    0.35E-07
   1      7    11.276     8.983    0.23E-03    0.43E-03    0.86E-07
 Optimization of the real space projectors (new method)

[...]

   l    n(q)    QCUT    max X(q) W(low)/X(q) W(high)/X(q)  e(spline)
   2      9    11.376    60.317    0.17E-03    0.16E-04    0.16E-06
   2      9    11.376    55.921    0.17E-03    0.16E-04    0.17E-06
   0     10    11.376    51.690    0.45E-04    0.60E-04    0.21E-06
   0     10    11.376    30.015    0.37E-04    0.55E-04    0.19E-06
   1     10    11.376    18.849    0.83E-04    0.11E-03    0.92E-07
   1     10    11.376    14.624    0.69E-04    0.92E-04    0.82E-07
 Optimization of the real space projectors (new method)

 maximal supplied QI-value         = 24.76
 optimisation between [QCUT,QGAM] = [ 11.39, 22.77] = [ 36.31,145.25] Ry
 Optimized for a Real-space Cutoff    1.10 Angstroem

   l    n(q)    QCUT    max X(q) W(low)/X(q) W(high)/X(q)  e(spline)
   0      7    11.387    20.381    0.22E-03    0.48E-03    0.18E-06
   0      7    11.387    15.268    0.22E-03    0.52E-03    0.19E-06
   1      7    11.387     5.964    0.22E-03    0.73E-03    0.24E-06
   1      7    11.387     5.382    0.19E-03    0.60E-03    0.21E-06

  PAW_PBE Li_sv 10Sep2004               :
  PAW_PBE Ni 02Aug2007                  :
  PAW_PBE O 08Apr2002                   :

 POSCAR: ce503_1
  positions in direct lattice
 exchange correlation table for  LEXCH =       14
   RHO(1)=    0.500       N(1)  =     2000
   RHO(2)=  100.500       N(2)  =     4000

 ion  position               nearest neighbor table
   1  0.996  0.501  0.996- 101 2.07 102 2.08  66 2.11  89 2.11  53 2.13  54 2.13  31 2.84
   2  0.110  0.833  0.224-  68 2.11  74 2.12  67 2.12  73 2.12  50 2.12  55 2.14
   3  0.226  0.166  0.111-  57 2.10  58 2.10  88 2.11  75 2.12  51 2.13  52 2.15
   4  0.334  0.501  0.989-  90 2.04  95 2.07  89 2.08  60 2.08  59 2.16  54 2.19  43 2.80  45 2.83

   5  0.453  0.833  0.223-  61 2.03  80 2.06  56 2.11  79 2.11  74 2.13  55 2.16  28 2.82  37 2.83
                            26 2.84
   6  0.565  0.167  0.114-  64 2.04  63 2.06  58 2.09  81 2.10  57 2.17  94 2.19  30 2.83  38 2.84

   7  0.658  0.499  0.991-  96 2.07 101 2.08  95 2.09  60 2.09  66 2.17  65 2.18  45 2.82  46 2.83

   8  0.770  0.834  0.221-  61 2.05  80 2.08  62 2.10  85 2.14  68 2.14  67 2.16  28 2.83
   9  0.879  0.166  0.111-  63 2.04  64 2.07 100 2.09  69 2.11  52 2.17  51 2.17  30 2.83  32 2.84
                            48 2.84
  10  0.009  0.499  0.342-  71 2.04  72 2.04  84 2.12  53 2.12  66 2.15  65 2.15  34 2.80  33 2.81

[...]

  21  0.772  0.833  0.883-  98 2.06 103 2.08  97 2.09  62 2.11  67 2.14  50 2.15  49 2.84  47 2.84

  22  0.882  0.166  0.770-  99 2.05  82 2.07 100 2.08  87 2.11  88 2.14  51 2.16  47 2.83  48 2.84
                            41 2.84  39 2.84
  23  0.002  1.000  0.003- 103 1.85 100 1.85  55 1.92  52 1.92  88 1.92  67 1.92  35 2.80  26 2.84
                            32 2.84  47 2.86  29 2.86  41 2.87
  24  0.111  0.333  0.219-  69 1.86  72 1.87  66 1.92  54 1.92  75 1.92  51 1.92  42 2.81  27 2.82
                            48 2.82  30 2.85  36 2.87  33 2.87
  25  0.222  0.666  0.113-  56 1.86  53 1.92  59 1.93  50 1.93  74 1.94  89 1.94  31 2.83  34 2.83
                            37 2.85  28 2.85  49 2.86  43 2.87
  26  0.333  0.997  0.000-  94 1.86  55 1.91  61 1.93  88 1.96  91 1.97  58 2.00  35 2.84  23 2.84
                            29 2.84   5 2.84  38 2.85  44 2.86  41 2.88
  27  0.441  0.335  0.220-  81 1.86  54 1.91  60 1.95  78 1.95  75 1.95  57 1.96  42 2.82  24 2.82
                            45 2.86  36 2.86  30 2.87  39 2.87
  28  0.556  0.668  0.111-  80 1.88  95 1.88  62 1.93  56 1.94  59 1.95  65 1.95   5 2.82   8 2.83
                            46 2.83  40 2.83  43 2.83  37 2.84  25 2.85  31 2.85
  29  0.663  0.999  0.995-  64 1.88  97 1.90  94 1.92  67 1.93 100 1.99  61 1.99  44 2.81  47 2.82
                            26 2.84  23 2.86  32 2.89  38 2.89
  30  0.779  0.333  0.225-  63 1.86  84 1.91  81 1.93  69 1.94  66 1.96  60 1.98  39 2.82  33 2.82
                             6 2.83   9 2.83  24 2.85  27 2.87  45 2.87  48 2.87
  31  0.891  0.665  0.113-  62 1.86  53 1.92  68 1.94 101 1.94  50 1.94  65 1.94  34 2.82  25 2.83
                             1 2.84  40 2.85  28 2.85  49 2.86  46 2.87
  32  0.000  0.003  0.334-  85 1.86  52 1.90  70 1.94  64 1.96  67 1.98  73 1.99  35 2.83   9 2.84
                            23 2.84  41 2.84  38 2.85  44 2.85  29 2.89
  33  0.110  0.334  0.555-  93 1.86  84 1.91  87 1.96  72 1.96  69 1.96  90 1.97  10 2.81  39 2.81
                            30 2.82  17 2.83  12 2.83  19 2.84  45 2.85  36 2.86  42 2.87  24 2.87
  34  0.222  0.664  0.444-  92 1.86  53 1.91  77 1.94  71 1.95  68 1.97  74 1.99  13 2.80  10 2.80
                            31 2.82  25 2.83  43 2.85  46 2.85  40 2.86  37 2.86
  35  0.330  1.000  0.330-  76 1.87  79 1.87  55 1.91  52 1.91  73 2.00  58 2.01  23 2.80  32 2.83
                            26 2.84  38 2.86  44 2.86  47 2.88
  36  0.445  0.333  0.556-  93 1.92  96 1.93  78 1.94  75 1.95  72 1.96  99 1.97  13 2.81  20 2.82
                            45 2.84  48 2.85  33 2.86  27 2.86  39 2.87  24 2.87
  37  0.557  0.669  0.444-  77 1.87  80 1.91  74 1.91  83 1.92  98 1.95  59 1.96  40 2.81   5 2.83
                            49 2.84  28 2.84  14 2.85  25 2.85  34 2.86  46 2.88
  38  0.667  0.002  0.334-  61 1.87  58 1.90  85 1.90  79 1.92  82 1.92  64 1.92  41 2.81   6 2.84
                            32 2.85  47 2.85  26 2.85  35 2.86  29 2.89
  39  0.780  0.333  0.554-  99 1.85  84 1.91  87 1.94  81 1.94 102 1.96  78 1.97  33 2.81  30 2.82
                            15 2.84  22 2.84  42 2.85  36 2.87  48 2.87  27 2.87
  40  0.886  0.668  0.444-  71 1.87  80 1.91  68 1.92  83 1.92  86 1.94  65 1.95  37 2.81  28 2.83
                            49 2.84  31 2.85  34 2.86  43 2.87
  41  0.996  0.001  0.664-  91 1.87  82 1.90  85 1.92  88 1.95 103 1.99  70 1.99  38 2.81  47 2.82
                            22 2.84  32 2.84  23 2.87  44 2.88  26 2.88
  42  0.111  0.333  0.891-  87 1.86  90 1.87  54 1.92 102 1.92  57 1.92  51 1.92  24 2.81  27 2.82
                            48 2.82  39 2.85  45 2.86  33 2.87
  43  0.225  0.666  0.778-  86 1.87  95 1.91  92 1.91  89 1.94  56 1.97  71 1.98  46 2.80   4 2.80
                            17 2.81  28 2.83  11 2.84  18 2.84  34 2.85  49 2.87  40 2.87  25 2.87
  44  0.334  0.998  0.666-  70 1.86  73 1.91  94 1.91  97 1.92  76 1.92  91 1.92  29 2.81  47 2.84
                            32 2.85  35 2.86  26 2.86  41 2.88
  45  0.445  0.333  0.888-  93 1.92  96 1.93  60 1.93  57 1.94  90 1.96  63 1.96   7 2.82   4 2.83
                            36 2.84  48 2.85  33 2.85  27 2.86  42 2.86  30 2.87
  46  0.554  0.666  0.779-  98 1.86  95 1.90  92 1.92 101 1.94  62 1.97  77 1.98  43 2.80   7 2.83
                            20 2.83  28 2.83  14 2.84  34 2.85  49 2.86  31 2.87  37 2.88
  47  0.668  1.000  0.668-  97 1.86  82 1.86 100 1.96  79 1.96 103 1.97  76 1.97  41 2.82  29 2.82
                            22 2.83  21 2.84  44 2.84  38 2.85  23 2.86  35 2.88
  48  0.779  0.330  0.889-  96 1.86  51 1.90  99 1.94  63 1.95  66 1.97 102 1.97  42 2.82  24 2.82
                            22 2.84   9 2.84  36 2.85  45 2.85  39 2.87  30 2.87
  49  0.888  0.668  0.777-  50 1.92  83 1.93  98 1.94  86 1.95  89 1.98 101 1.98  37 2.84  18 2.84
                            21 2.84  40 2.84  25 2.86  31 2.86  46 2.86  43 2.87
  50  0.000  0.738  0.000-  49 1.92  25 1.93  31 1.94   2 2.12  21 2.15  18 2.17
  51  1.000  0.260  1.000-  48 1.90  42 1.92  24 1.92   3 2.13  22 2.16   9 2.17
  52  0.110  0.071  0.222-  32 1.90  35 1.91  23 1.92   3 2.15   9 2.17  12 2.19
  53  0.112  0.594  0.223-  34 1.91  31 1.92  25 1.92  10 2.12  13 2.13   1 2.13
  54  0.221  0.406  0.110-  27 1.91  24 1.92  42 1.92   1 2.13   4 2.19  13 2.19
  55  0.223  0.928  0.111-  26 1.91  35 1.91  23 1.92   2 2.14   5 2.16  18 2.19
  56  0.329  0.737  0.007-  25 1.86  28 1.94  43 1.97   5 2.11  18 2.11
  57  0.331  0.261  0.997-  42 1.92  45 1.94  27 1.96   3 2.10  19 2.14   6 2.17
  58  0.453  0.076  0.224-  38 1.90  26 2.00  35 2.01   6 2.09   3 2.10  15 2.11
  59  0.444  0.593  0.222-  25 1.93  28 1.95  37 1.96  16 2.08   4 2.16  13 2.16
  60  0.553  0.408  0.107-  45 1.93  27 1.95  30 1.98   4 2.08   7 2.09  16 2.11
  61  0.559  0.929  0.124-  38 1.87  26 1.93  29 1.99   5 2.03   8 2.05
  62  0.679  0.736  0.008-  31 1.86  28 1.93  46 1.97   8 2.10  21 2.11
  63  0.673  0.263  0.013-  30 1.86  48 1.95  45 1.96   9 2.04   6 2.06
  64  0.768  0.070  0.210-  29 1.88  38 1.92  32 1.96   6 2.04   9 2.07
  65  0.778  0.593  0.224-  31 1.94  40 1.95  28 1.95  16 2.10  10 2.15   7 2.18
  66  0.892  0.406  0.113-  24 1.92  30 1.96  48 1.97   1 2.11  10 2.15   7 2.17
  67  0.887  0.928  0.108-  23 1.92  29 1.93  32 1.98   2 2.12  21 2.14   8 2.16
  68  0.996  0.739  0.333-  40 1.92  31 1.94  34 1.97   2 2.11   8 2.14  11 2.16
  69  0.005  0.263  0.327-  24 1.86  30 1.94  33 1.96  12 2.10   9 2.11
  70  0.124  0.072  0.560-  44 1.86  32 1.94  41 1.99  12 2.03  19 2.05
  71  0.097  0.595  0.548-  40 1.87  34 1.95  43 1.98  17 2.04  10 2.04
  72  0.216  0.404  0.433-  24 1.87  33 1.96  36 1.96  10 2.04  13 2.05
  73  0.223  0.924  0.452-  44 1.91  32 1.99  35 2.00  11 2.09  14 2.11   2 2.12
  74  0.336  0.740  0.333-  37 1.91  25 1.94  34 1.99   2 2.12   5 2.13  14 2.15
  75  0.331  0.260  0.333-  24 1.92  36 1.95  27 1.95   3 2.12  12 2.14  15 2.15
  76  0.436  0.068  0.546-  35 1.87  44 1.92  47 1.97  12 2.11  15 2.17
  77  0.450  0.596  0.548-  37 1.87  34 1.94  46 1.98  13 2.02  20 2.05
  78  0.554  0.407  0.445-  36 1.94  27 1.95  39 1.97  13 2.06  20 2.10  16 2.11
  79  0.547  0.932  0.437-  35 1.87  38 1.92  47 1.96   5 2.11  14 2.16
  80  0.664  0.737  0.328-  28 1.88  40 1.91  37 1.91   5 2.06   8 2.08
  81  0.655  0.265  0.327-  27 1.86  30 1.93  39 1.94   6 2.10  15 2.11
  82  0.774  0.069  0.560-  47 1.86  41 1.90  38 1.92  22 2.07  15 2.09
  83  0.777  0.597  0.555-  37 1.92  40 1.92  49 1.93  16 2.15  17 2.20  20 2.20
  84  0.889  0.405  0.444-  39 1.91  33 1.91  30 1.91  10 2.12  16 2.14  17 2.15
[...]
   0.127E+02 -.577E+01 0.278E+03   -.126E+02 0.582E+01 -.292E+03   -.781E-01 -.656E-01 0.145E+02   -.345E-02 0.113E-01 0.318E-02
   0.577E+02 -.184E+02 -.314E+03   -.612E+02 0.192E+02 0.328E+03   0.343E+01 -.815E+00 -.139E+02   0.332E-02 -.208E-02 -.389E-02
   0.241E+02 -.227E+02 0.293E+03   -.246E+02 0.241E+02 -.303E+03   0.571E+00 -.138E+01 0.108E+02   -.306E-01 0.207E-01 0.465E-02
   0.194E+02 -.196E+02 -.269E+03   -.210E+02 0.200E+02 0.280E+03   0.161E+01 -.373E+00 -.107E+02   -.104E-01 0.303E-02 0.624E-02
   0.181E+00 -.643E+01 0.258E+03   0.131E+00 0.654E+01 -.269E+03   -.310E+00 -.112E+00 0.107E+02   -.215E-02 -.277E-02 -.265E-02
   0.155E+02 -.494E+01 -.250E+03   -.152E+02 0.564E+01 0.260E+03   -.272E+00 -.693E+00 -.992E+01   -.302E-01 -.806E-02 -.116E-01
[...]
   0.629E+02 -.350E+02 -.279E+03   -.667E+02 0.372E+02 0.292E+03   0.387E+01 -.231E+01 -.124E+02   -.183E-01 0.336E-01 -.102E-01
   0.971E+01 -.454E+02 0.290E+03   -.984E+01 0.499E+02 -.303E+03   0.135E+00 -.449E+01 0.130E+02   0.936E-03 -.386E-02 0.872E-02
   -.403E+02 -.236E+02 -.302E+03   0.422E+02 0.248E+02 0.318E+03   -.195E+01 -.124E+01 -.155E+02   0.798E-02 0.241E-02 0.118E-02
   -.240E+01 -.454E+02 0.298E+03   0.245E+01 0.490E+02 -.311E+03   -.521E-01 -.363E+01 0.138E+02   -.237E-02 0.304E-01 0.320E-01
   0.404E+02 -.217E+02 -.288E+03   -.424E+02 0.228E+02 0.303E+03   0.207E+01 -.109E+01 -.153E+02   0.469E-02 0.710E-03 0.559E-02
   0.450E+02 0.223E+02 0.274E+03   -.469E+02 -.234E+02 -.290E+03   0.189E+01 0.109E+01 0.166E+02   0.103E-02 0.200E-03 -.107E-01
   0.856E+00 0.555E+02 -.266E+03   -.891E+00 -.592E+02 0.280E+03   0.367E-01 0.378E+01 -.134E+02   -.150E-02 -.365E-01 -.299E-01
   -.345E+02 0.200E+02 0.287E+03   0.367E+02 -.212E+02 -.304E+03   -.229E+01 0.118E+01 0.170E+02   0.178E-01 -.487E-02 -.528E-02
   0.308E+02 -.189E+02 -.309E+03   -.345E+02 0.211E+02 0.322E+03   0.364E+01 -.216E+01 -.129E+02   0.557E-04 -.402E-04 -.498E-02
   -.390E+02 0.375E+02 0.308E+03   0.426E+02 -.403E+02 -.322E+03   -.366E+01 0.285E+01 0.132E+02   0.441E-02 -.356E-01 0.167E-01
   0.678E-01 0.661E+02 -.295E+03   0.188E+00 -.698E+02 0.309E+03   -.280E+00 0.370E+01 -.137E+02   0.201E-01 -.417E-02 0.143E-01
   0.144E+02 0.162E+02 0.253E+03   -.153E+02 -.159E+02 -.263E+03   0.940E+00 -.342E+00 0.981E+01   0.768E-03 -.542E-02 -.923E-02
   0.860E+01 0.253E+02 -.262E+03   -.921E+01 -.272E+02 0.273E+03   0.614E+00 0.192E+01 -.111E+02   -.339E-02 -.143E-01 0.528E-02
   0.551E+02 0.317E+02 0.296E+03   -.584E+02 -.333E+02 -.310E+03   0.330E+01 0.161E+01 0.137E+02   -.122E-01 0.168E-01 -.495E-02
   -.450E+00 -.296E-01 -.607E-01   -.369E-12 -.171E-12 -.398E-12   0.443E+00 0.292E-01 0.678E-01   0.288E-02 0.300E-02 0.344E-02

 POSITION                                       TOTAL-FORCE (eV/Angst)
      4.26539      7.37174      7.06419        -0.000329      0.000896      0.000253
      1.44209      0.82326     11.72868        -0.007715     -0.001262     -0.001311
     -0.01153      1.66888      2.34416         0.001997     -0.004744      0.001113
      7.03942      2.47600      7.05942         0.000122      0.000452     -0.000127
     -0.01557      3.34979     11.74376         0.001454      0.001230     -0.007097
     -1.44744      4.17152      2.35626        -0.009544     -0.001607     -0.006070
      5.66706      4.87013      7.03858        -0.001415      0.001238      0.001633
     -1.39757      5.69362     11.75936        -0.001129      0.002541     -0.000873
     -2.80406      6.48504      2.34825        -0.004480      0.002173      0.005455
      2.89200      0.06303      7.04009        -0.000570     -0.003326     -0.001083
      4.35148      0.82944     11.74098         0.003170     -0.008848      0.004285
      2.93151      1.66256      2.37048         0.001778      0.000482      0.005119
      1.52210      2.49219      7.04439         0.000291     -0.000542      0.000380
      2.88328      3.34939     11.73984         0.000743      0.000728      0.001842
      1.45824      4.16258      2.36100         0.002740     -0.000817     -0.003215
     -0.00122      4.90726      7.05111         0.002175     -0.000313     -0.002114
      5.67959      0.09172      7.06008         0.000014     -0.000816     -0.000309
      7.04807      0.82121     11.73062         0.002277     -0.003734     -0.004947
      5.62700      1.65175      2.35541         0.003331     -0.000552      0.000875
      2.90703      4.85177      7.04684         0.000224      0.001868      0.001359
      4.25606      5.70676     11.74172         0.002280     -0.002821      0.001571
      2.81548      6.51634      2.34144        -0.004354      0.001546     -0.000391
      0.01540      0.02437     14.08802        -0.004197     -0.004874     -0.000016
      1.40320      0.82137      4.69737        -0.003149      0.000428      0.003445
      0.01659      1.64906      9.38013        -0.000802      0.000850     -0.001566
     -1.40858      2.46176     14.04982         0.007862     -0.000602     -0.004534
      0.00165      3.26281      4.72279        -0.000975      0.000651     -0.003096
     -1.42170      4.11005      9.41385        -0.001183     -0.000713     -0.000490
      5.69177      4.91571     14.08546         0.005563      0.000322      0.001258
     -1.40371      5.76018      4.69808        -0.000225     -0.001069     -0.001991
     -2.83615      6.58554      9.37871         0.000052     -0.001650      0.000464
      2.83926      0.00802      0.04228        -0.004100      0.005887      0.003368
      4.27771      0.81345      4.71465        -0.000577     -0.001580      0.000451
      2.84793      1.64197      9.35742         0.000809     -0.002060      0.001979
      1.42633      2.45596     14.09398        -0.000063      0.000239     -0.000569
      2.86147      3.29310      4.70036         0.000771     -0.001044      0.002031
      1.42133      4.12528      9.42642         0.000676      0.000086      0.000823
      0.01874      4.94043      0.01632         0.003329      0.006812     -0.006214
      1.41080      5.76375      4.70042         0.000010     -0.000213     -0.002201
      0.01424      6.55318      9.42305         0.000419     -0.001909      0.000963
      1.42286      7.36747      0.01271        -0.003008      0.003480     -0.000976
      7.14923      0.82644      4.70070         0.000889      0.000509     -0.000110
      5.69753      1.67165      9.38846        -0.000558     -0.000612     -0.000741
      4.28782      2.49166     14.08176         0.004585      0.004147      0.006987
      5.69749      3.29368      4.70155        -0.000176     -0.000944     -0.000266
      4.30116      4.09587      9.39129        -0.001142     -0.000177      0.002331
      2.85968      4.93552     14.09523        -0.001499     -0.003357     -0.000242
      4.27736      5.77176      4.66392        -0.000233      0.002538      0.001510
      2.85775      6.57065      9.42046         0.000413      0.000268     -0.000520
     -0.00483      0.00705     10.40088        -0.000269      0.002914      0.001593
      4.27863      7.39456      3.67362        -0.000675      0.003031      0.001175
      1.42819      0.81978      1.01801        -0.005126      0.001991      0.004720
      1.43224      0.83147      8.37001         0.000608     -0.000894     -0.001636
      0.00067      1.63869      5.71881        -0.000885      0.005068      0.000976
      0.00820      1.65563     13.07112         0.001689     -0.002280     -0.006126
     -1.34027      2.43997     10.37853         0.000343      0.000486     -0.000287
      7.12237      2.45056      3.67960        -0.002813     -0.001393     -0.003584
      0.03827      3.29071      1.03194         0.006267     -0.012285     -0.013254
      0.00149      3.28712      8.35819         0.000085     -0.002565     -0.003491
     -1.43853      4.08736      5.74512         0.001489      0.000134     -0.003774
[...]
      7.13697      0.85758      8.36375         0.001029      0.002734     -0.003409
      5.77928      1.60870      5.69936        -0.000170     -0.001573      0.001122
      5.70509      1.54955     13.09609         0.008856      0.006453     -0.000052
      4.21044      2.42516     10.33901        -0.001396     -0.001216      0.004774
      4.28006      2.40896      3.76009        -0.001955      0.001754      0.001726
      5.77620      3.23945      0.94479         0.017835      0.004601      0.004132
      5.74452      3.31746      8.43480        -0.004212      0.001020     -0.001845
      4.28085      4.20124      5.65139        -0.000225     -0.001610      0.000689
      4.24571      4.13275     13.12937         0.007666     -0.002010     -0.000110
      2.94350      4.88721     10.38697         0.002100     -0.001172      0.004146
      2.77408      4.99353      3.71151         0.002874     -0.000140      0.000330
      4.27385      5.83101      0.99650        -0.003761     -0.008612      0.002389
      4.30805      5.74789      8.35768        -0.002229      0.001459      0.000143
      2.85378      6.60343      5.73910        -0.000125      0.000643      0.001875
      2.93502      6.61638     13.10193        -0.007416     -0.008527     -0.001408
    total drift:                               -0.003245      0.002599      0.010574

  FREE ENERGIE OF THE ION-ELECTRON SYSTEM (eV)
  free  energy   TOTEN  =      -620.8590144629 eV

  energy  without entropy=     -620.8348720485  energy(sigma->0) =     -620.84694326

 d Force = 0.7187733E-03[ 0.610E-03, 0.828E-03]  d Energy = 0.5923654E-03 0.126E-03
 d Force = 0.2588724E+00[ 0.251E+00, 0.267E+00]  d Ewald  = 0.3615044E+01-0.336E+01

 Quasi-Newton relaxation of ions (Broydens 2nd method)
  g(Force)  = 0.215E-03   g(Stress)= 0.109E-04

 retain information from N=  6 steps
 eigenvalues of (default step * inverse Hessian matrix)
  average eigenvalue of G=   5.0625
 eigenvalue spectrum of G is  7.7605  7.7605  5.4993  3.7558  3.7558  1.8433

 reached required accuracy - stopping structural energy minimisation

volume of typ            1:    19.3 %

[...]

volume of typ            3:     9.9 %

total charge

# of ion       s       p       d       tot
    1        2.083   0.266   0.102   2.450
    2        2.077   0.251   0.094   2.422
    3        2.080   0.259   0.098   2.436
    4        2.084   0.269   0.103   2.456
    5        2.082   0.264   0.101   2.447
    6        2.078   0.252   0.095   2.424
    7        2.081   0.259   0.098   2.438
    8        2.079   0.255   0.096   2.430
    9        2.083   0.265   0.101   2.449
   10        2.084   0.269   0.102   2.455
   11        2.078   0.252   0.095   2.425
   12        2.080   0.258   0.097   2.435
   13        2.085   0.272   0.104   2.461
   14        2.079   0.255   0.096   2.430
   15        2.079   0.255   0.096   2.429
   16        2.081   0.259   0.098   2.438
   17        2.082   0.264   0.100   2.445
   18        2.080   0.260   0.098   2.438
   19        2.077   0.250   0.094   2.421
   20        2.080   0.258   0.097   2.435
   21        2.079   0.257   0.097   2.433
   22        2.081   0.261   0.099   2.441
   23        0.280   0.379   7.850   8.510
   24        0.281   0.381   7.851   8.513
   25        0.270   0.359   7.855   8.484
   26        0.264   0.343   7.856   8.463
   27        0.266   0.350   7.860   8.477
   28        0.270   0.357   7.854   8.482
   29        0.265   0.346   7.850   8.461
   30        0.264   0.345   7.857   8.466
   31        0.269   0.355   7.857   8.481
   32        0.264   0.343   7.856   8.463
   33        0.262   0.340   7.855   8.457
   34        0.264   0.343   7.859   8.466
   35        0.280   0.379   7.850   8.509
   36        0.255   0.324   7.854   8.433
   37        0.269   0.355   7.852   8.475
   38        0.266   0.348   7.849   8.463
   39        0.265   0.347   7.856   8.468
   40        0.270   0.358   7.851   8.479
   41        0.265   0.346   7.850   8.461
   42        0.280   0.379   7.852   8.512
   43        0.264   0.344   7.853   8.462
   44        0.266   0.349   7.849   8.465
   45        0.256   0.328   7.853   8.437
   46        0.265   0.346   7.853   8.463
   47        0.268   0.351   7.852   8.471
   48        0.265   0.346   7.856   8.467
   49        0.254   0.324   7.860   8.439
   50        1.261   2.786   0.005   4.053
   51        1.258   2.793   0.006   4.057
   52        1.258   2.793   0.006   4.057
   53        1.255   2.799   0.006   4.060
   54        1.258   2.792   0.006   4.056
   55        1.258   2.794   0.006   4.057
   56        1.267   2.770   0.006   4.043
   57        1.261   2.785   0.005   4.052
   58        1.262   2.784   0.005   4.050
   59        1.262   2.783   0.005   4.050
   60        1.259   2.790   0.005   4.054
[...]
   89        1.259   2.790   0.005   4.054
   90        1.265   2.777   0.006   4.048
   91        1.264   2.778   0.006   4.048
   92        1.264   2.777   0.007   4.048
   93        1.263   2.783   0.007   4.053
   94        1.265   2.775   0.007   4.046
   95        1.259   2.790   0.007   4.056
   96        1.263   2.783   0.006   4.053
   97        1.259   2.788   0.007   4.055
   98        1.264   2.780   0.006   4.050
   99        1.264   2.779   0.006   4.049
  100        1.268   2.768   0.006   4.042
  101        1.259   2.790   0.005   4.054
  102        1.262   2.783   0.005   4.050
  103        1.268   2.768   0.006   4.042
tot         121.15  165.41  214.53  501.08

magnetization (x)

# of ion       s       p       d       tot
    1        0.007   0.012   0.001   0.019
    2        0.006   0.011   0.001   0.017
    3        0.006   0.011   0.001   0.018
    4        0.007   0.013   0.001   0.021
    5        0.007   0.014   0.001   0.022
    6        0.007   0.014   0.001   0.022
    7        0.007   0.012   0.001   0.021
    8        0.007   0.013   0.001   0.021
    9        0.007   0.014   0.001   0.022
   10        0.007   0.013   0.001   0.021
   11        0.007   0.014   0.001   0.022
   12        0.007   0.014   0.001   0.022
   13        0.007   0.014   0.001   0.022
   14        0.007   0.013   0.001   0.021
   15        0.007   0.013   0.001   0.021
   16        0.007   0.012   0.001   0.020
   17        0.007   0.013   0.001   0.021
   18        0.007   0.015   0.001   0.023
   19        0.007   0.014   0.001   0.022
   20        0.007   0.013   0.001   0.022
   21        0.007   0.014   0.001   0.022
   22        0.007   0.013   0.001   0.021
   23       -0.001  -0.001   0.374   0.372
   24       -0.001  -0.001   0.356   0.354
   25       -0.001  -0.001   0.555   0.553
   26       -0.000  -0.001   0.685   0.684
   27       -0.000  -0.001   0.644   0.643
   28       -0.000  -0.001   0.558   0.557
   29       -0.000  -0.001   0.606   0.605
   30       -0.000  -0.001   0.655   0.654
   31       -0.001  -0.001   0.593   0.591
   32       -0.000  -0.001   0.682   0.681
   33       -0.000  -0.001   0.661   0.659
   34       -0.000  -0.001   0.688   0.687
   35       -0.001  -0.001   0.385   0.383
   36       -0.000  -0.001   0.814   0.814
   37       -0.000  -0.001   0.555   0.554
   38       -0.000  -0.001   0.591   0.590
   39       -0.000  -0.001   0.633   0.632
   40       -0.001  -0.001   0.527   0.526
   41       -0.000  -0.001   0.611   0.610
   42       -0.001  -0.001   0.370   0.368
   43       -0.000  -0.001   0.612   0.611
   44       -0.000  -0.001   0.578   0.577
   45       -0.000  -0.001   0.782   0.781
   46       -0.000  -0.001   0.606   0.605
   47       -0.000  -0.001   0.585   0.584
   48       -0.000  -0.001   0.627   0.626
   49       -0.000  -0.001   0.870   0.869
   50        0.014   0.070   0.000   0.085
   51        0.004  -0.001   0.000   0.003
   52        0.005   0.001   0.000   0.006
   53        0.004   0.000   0.000   0.005
   54        0.004  -0.001   0.000   0.004
   55        0.005   0.007   0.000   0.012
   56        0.013   0.077   0.000   0.090
   57        0.014   0.075   0.000   0.089
   58        0.014   0.087   0.000   0.101
   59        0.014   0.094   0.000   0.109
   60        0.014   0.092   0.000   0.106
[...]
   89        0.014   0.090   0.000   0.104
   90        0.014   0.094   0.000   0.108
   91        0.013   0.085   0.000   0.098
   92        0.010   0.040   0.000   0.050
   93        0.011   0.042   0.000   0.053
   94        0.010   0.047   0.000   0.057
   95        0.004   0.002   0.000   0.006
   96        0.012   0.062   0.000   0.074
   97        0.004  -0.003   0.000   0.001
   98        0.013   0.073   0.000   0.086
   99        0.013   0.070   0.000   0.082
  100        0.013   0.090   0.000   0.103
  101        0.014   0.093   0.000   0.107
  102        0.013   0.089   0.000   0.102
  103        0.013   0.090   0.000   0.104
tot           0.74    3.70   16.24   20.68