 vasp.5.4.4.18Apr17-6-g9f103f2a35 (build May 12 2020 05:39:39) gamma-only

 MD_VERSION_INFO: Compiled 2020-05-12T12:39:39-UTC in devlin.sd.materialsdesign.
 com:/home/medea2/data/build/wwolf/vasp-gpu5.4.4/13047/x86_64/src/src/build/gam
 from svn 13047

 executed on                        Lin64 date 2023.01.19  21:43:23

 INCAR:
 POTCAR:    PAW_PBE Li_sv 10Sep2004
 POTCAR:    PAW_PBE Ni 02Aug2007
 POTCAR:    PAW_PBE O 08Apr2002

 POTCAR:    PAW_PBE Li_sv 10Sep2004

 POTCAR:    PAW_PBE Ni 02Aug2007

 POTCAR:    PAW_PBE O 08Apr2002

 Optimization of the real space projectors (new method)

 maximal supplied QI-value         = 22.11
 optimisation between [QCUT,QGAM] = [ 11.28, 22.77] = [ 35.61,145.23] Ry
 Optimized for a Real-space Cutoff    1.10 Angstroem

   l    n(q)    QCUT    max X(q) W(low)/X(q) W(high)/X(q)  e(spline)
   0      7    11.276    10.506    0.54E-04    0.58E-04    0.16E-07
   0      7    11.276     8.367    0.11E-03    0.14E-03    0.35E-07
   1      7    11.276     8.983    0.23E-03    0.43E-03    0.86E-07
 Optimization of the real space projectors (new method)

[...]

   l    n(q)    QCUT    max X(q) W(low)/X(q) W(high)/X(q)  e(spline)
   2      9    11.376    60.317    0.17E-03    0.16E-04    0.16E-06
   2      9    11.376    55.921    0.17E-03    0.16E-04    0.17E-06
   0     10    11.376    51.690    0.45E-04    0.60E-04    0.21E-06
   0     10    11.376    30.015    0.37E-04    0.55E-04    0.19E-06
   1     10    11.376    18.849    0.83E-04    0.11E-03    0.92E-07
   1     10    11.376    14.624    0.69E-04    0.92E-04    0.82E-07
 Optimization of the real space projectors (new method)

 maximal supplied QI-value         = 24.76
 optimisation between [QCUT,QGAM] = [ 11.39, 22.77] = [ 36.31,145.25] Ry
 Optimized for a Real-space Cutoff    1.10 Angstroem

   l    n(q)    QCUT    max X(q) W(low)/X(q) W(high)/X(q)  e(spline)
   0      7    11.387    20.381    0.22E-03    0.48E-03    0.18E-06
   0      7    11.387    15.268    0.22E-03    0.52E-03    0.19E-06
   1      7    11.387     5.964    0.22E-03    0.73E-03    0.24E-06
   1      7    11.387     5.382    0.19E-03    0.60E-03    0.21E-06

  PAW_PBE Li_sv 10Sep2004               :
  PAW_PBE Ni 02Aug2007                  :
  PAW_PBE O 08Apr2002                   :

 POSCAR: ce425608_1
  positions in direct lattice
 exchange correlation table for  LEXCH =       14
   RHO(1)=    0.500       N(1)  =     2000
   RHO(2)=  100.500       N(2)  =     4000

 ion  position               nearest neighbor table
   1  0.000  0.500  0.001-  36 2.10  49 2.10  37 2.10  85 2.12  72 2.12  84 2.12
   2  0.111  0.834  0.221-  33 2.10  38 2.10  50 2.10  56 2.12  51 2.12  57 2.12
   3  0.556  0.167  0.111-  46 2.09  40 2.09  47 2.09  41 2.09  64 2.11  77 2.11  28 2.84  21 2.84

   4  0.778  0.834  0.556-  81 2.10  69 2.10  86 2.11  62 2.12  68 2.12  63 2.12
   5  0.333  0.499  0.666-  60 2.10  54 2.10  55 2.11  73 2.12  79 2.12  78 2.12
   6  1.000  0.002  1.000-  71 1.86  83 1.86  38 1.87  50 1.87  35 1.87  86 1.90   9 2.79  12 2.79
                            24 2.79  30 2.79  18 2.80  15 2.80
   7  0.111  0.331  0.223-  52 1.86  58 1.86  49 1.87  37 1.87  34 1.87  55 1.90  13 2.79  10 2.79
                            16 2.79  19 2.79  31 2.80  25 2.80
   8  0.224  0.667  0.111-  39 1.86  42 1.86  57 1.87  72 1.87  33 1.88  36 1.88  11 2.78  26 2.78
                            20 2.78  17 2.80  32 2.80  14 2.82
   9  0.332  0.998  1.000-  74 1.86  77 1.87  71 1.87  44 1.87  41 1.88  38 1.89  24 2.78   6 2.79
                            18 2.79  21 2.80  27 2.80  12 2.81
  10  0.444  0.335  0.222-  61 1.86  64 1.87  58 1.87  43 1.87  40 1.88  37 1.89  19 2.78   7 2.79
                            25 2.79  28 2.80  22 2.80  13 2.81
  11  0.556  0.667  0.111-  45 1.87  39 1.87  48 1.87  42 1.87  63 1.90  78 1.90  14 2.78   8 2.78
                            20 2.80  29 2.80  23 2.80  26 2.80
  12  0.667  0.998  1.000-  80 1.86  77 1.87  83 1.87  44 1.87  47 1.88  50 1.89  30 2.78   6 2.79
                            15 2.79  21 2.80  27 2.80   9 2.81
  13  0.779  0.335  0.222-  67 1.86  64 1.87  52 1.87  43 1.87  46 1.88  49 1.89  16 2.78   7 2.79
                            31 2.79  28 2.80  22 2.80  10 2.81
  14  0.887  0.667  0.111-  45 1.86  48 1.86  51 1.87  84 1.87  33 1.88  36 1.88  11 2.78  23 2.78
                            29 2.78  32 2.80  17 2.80   8 2.82
  15  1.000  0.003  0.334-  53 1.86  35 1.87  56 1.87  50 1.87  47 1.89  68 1.90  24 2.79  21 2.79
                            27 2.79  12 2.79   6 2.80  18 2.80
  16  0.110  0.330  0.555-  70 1.86  52 1.86  67 1.87  73 1.87  76 1.87  55 1.88  22 2.78  13 2.78
                            25 2.79   7 2.79  28 2.80  19 2.81
  17  0.222  0.666  0.445-  60 1.86  54 1.86  51 1.87  57 1.87  75 1.87  36 1.91  23 2.78  20 2.78
                            26 2.80  29 2.80   8 2.80  14 2.80
  18  0.334  0.003  0.334-  59 1.86  35 1.87  56 1.87  38 1.87  41 1.89  62 1.90  30 2.79  21 2.79
                            27 2.79   9 2.79   6 2.80  15 2.80
  19  0.445  0.330  0.555-  82 1.86  58 1.86  61 1.87  79 1.87  76 1.87  55 1.88  22 2.78  10 2.78
                            31 2.79   7 2.79  28 2.80  16 2.81
  20  0.554  0.665  0.444-  42 1.86  66 1.87  63 1.87  81 1.87  60 1.90  57 1.90   8 2.78  17 2.78
                            29 2.79  11 2.80  32 2.80  23 2.81
  21  0.667  0.001  0.333-  47 1.86  41 1.86  62 1.87  68 1.87  44 1.88  65 1.88  15 2.79  18 2.79
                            12 2.80   9 2.80  24 2.80  30 2.80   3 2.84
  22  0.778  0.333  0.556-  82 1.87  70 1.87  61 1.87  67 1.87  85 1.90  64 1.90  16 2.78  19 2.78
                            31 2.79  25 2.79  13 2.80  10 2.80
  23  0.890  0.665  0.444-  48 1.86  66 1.87  63 1.87  69 1.87  54 1.90  51 1.90  14 2.78  17 2.78
                            26 2.79  11 2.80  32 2.80  20 2.81
  24  0.001  0.003  0.667-  53 1.86  71 1.86  74 1.87  68 1.87  65 1.87  86 1.88  27 2.78   9 2.78
                            15 2.79   6 2.79  21 2.80  30 2.81
  25  0.112  0.331  0.888-  70 1.86  34 1.87  85 1.87  37 1.87  40 1.89  73 1.90  16 2.79  28 2.79
                            22 2.79  10 2.79   7 2.80  31 2.80
  26  0.222  0.668  0.778-  39 1.86  75 1.87  78 1.87  54 1.87  69 1.90  72 1.90   8 2.78  32 2.78
                            23 2.79  11 2.80  17 2.80  29 2.81
  27  0.333  0.001  0.666-  59 1.87  53 1.87  74 1.87  80 1.87  56 1.90  77 1.90  24 2.78  30 2.78
                            15 2.79  18 2.79   9 2.80  12 2.80
  28  0.445  0.333  0.889-  40 1.86  46 1.86  73 1.87  79 1.87  43 1.88  76 1.88  25 2.79  31 2.79
                            10 2.80  13 2.80  19 2.80  16 2.80   3 2.84
  29  0.557  0.668  0.778-  45 1.86  75 1.87  78 1.87  60 1.87  81 1.90  84 1.90  14 2.78  32 2.78
                            20 2.79  11 2.80  17 2.80  26 2.81
  30  0.666  0.003  0.667-  59 1.86  83 1.86  80 1.87  62 1.87  65 1.87  86 1.88  27 2.78  12 2.78
                            18 2.79   6 2.79  21 2.80  24 2.81
  31  0.777  0.331  0.888-  82 1.86  34 1.87  85 1.87  49 1.87  46 1.89  79 1.90  19 2.79  28 2.79
                            22 2.79  13 2.79   7 2.80  25 2.80
  32  0.889  0.667  0.777-  69 1.86  81 1.86  72 1.87  84 1.87  66 1.87  33 1.91  29 2.78  26 2.78
                            20 2.80  23 2.80  14 2.80   8 2.80
  33  0.002  0.736  0.004-   8 1.88  14 1.88  32 1.91   2 2.10
  34  1.000  0.264  1.000-  25 1.87  31 1.87   7 1.87
  35  0.111  0.069  0.223-  15 1.87  18 1.87   6 1.87
  36  0.109  0.598  0.218-  14 1.88   8 1.88  17 1.91   1 2.10
  37  0.217  0.401  0.108-   7 1.87  25 1.87  10 1.89   1 2.10
  38  0.220  0.933  0.114-   6 1.87  18 1.87   9 1.89   2 2.10
  39  0.334  0.734  0.001-   8 1.86  26 1.86  11 1.87
  40  0.338  0.265  0.003-  28 1.86  10 1.88  25 1.89   3 2.09
  41  0.446  0.069  0.219-  21 1.86   9 1.88  18 1.89   3 2.09
  42  0.444  0.599  0.221-   8 1.86  20 1.86  11 1.87
  43  0.555  0.402  0.110-  13 1.87  10 1.87  28 1.88
  44  0.556  0.932  0.112-  12 1.87   9 1.87  21 1.88
  45  0.667  0.734  0.001-  14 1.86  29 1.86  11 1.87
  46  0.665  0.265  0.003-  28 1.86  13 1.88  31 1.89   3 2.09
  47  0.773  0.069  0.219-  21 1.86  12 1.88  15 1.89   3 2.09
  48  0.777  0.599  0.221-  14 1.86  23 1.86  11 1.87
  49  0.891  0.401  0.108-   7 1.87  31 1.87  13 1.89   1 2.10
  50  0.894  0.933  0.114-   6 1.87  15 1.87  12 1.89   2 2.10
  51  0.002  0.734  0.332-  14 1.87  17 1.87  23 1.90   2 2.12
  52  0.998  0.266  0.332-  16 1.86   7 1.86  13 1.87
  53  0.112  0.069  0.556-  24 1.86  15 1.86  27 1.87
  54  0.116  0.598  0.559-  17 1.86  26 1.87  23 1.90   5 2.10
  55  0.224  0.399  0.449-  19 1.88  16 1.88   7 1.90   5 2.11
  56  0.220  0.934  0.440-  18 1.87  15 1.87  27 1.90   2 2.12
  57  0.331  0.734  0.332-   8 1.87  17 1.87  20 1.90   2 2.12
  58  0.334  0.266  0.332-  19 1.86   7 1.86  10 1.87
  59  0.444  0.069  0.556-  30 1.86  18 1.86  27 1.87
  60  0.443  0.598  0.559-  17 1.86  29 1.87  20 1.90   5 2.10
  61  0.556  0.400  0.446-  10 1.86  19 1.87  22 1.87
  62  0.559  0.934  0.447-  21 1.87  30 1.87  18 1.90   4 2.12
  63  0.669  0.734  0.338-  23 1.87  20 1.87  11 1.90   4 2.12
  64  0.664  0.267  0.328-  13 1.87  10 1.87  22 1.90   3 2.11
  65  0.777  0.069  0.555-  30 1.87  24 1.87  21 1.88
  66  0.778  0.599  0.556-  23 1.87  20 1.87  32 1.87
  67  0.891  0.400  0.446-  13 1.86  16 1.87  22 1.87
  68  0.888  0.934  0.447-  21 1.87  24 1.87  15 1.90   4 2.12
  69  0.995  0.735  0.663-  32 1.86  23 1.87  26 1.90   4 2.10
  70  0.999  0.265  0.666-  16 1.86  25 1.86  22 1.87
  71  0.113  0.068  0.890-  24 1.86   6 1.86   9 1.87
  72  0.109  0.599  0.890-   8 1.87  32 1.87  26 1.90   1 2.12
  73  0.223  0.400  0.776-  28 1.87  16 1.87  25 1.90   5 2.12
  74  0.221  0.934  0.776-   9 1.86  24 1.87  27 1.87
  75  0.333  0.734  0.667-  26 1.87  29 1.87  17 1.87
  76  0.334  0.264  0.667-  19 1.87  16 1.87  28 1.88
  77  0.447  0.067  0.894-   9 1.87  12 1.87  27 1.90   3 2.11
  78  0.442  0.600  0.884-  26 1.87  29 1.87  11 1.90   5 2.12
  79  0.552  0.400  0.776-  28 1.87  19 1.87  31 1.90   5 2.12
  80  0.555  0.934  0.776-  12 1.86  30 1.87  27 1.87
  81  0.668  0.735  0.663-  32 1.86  20 1.87  29 1.90   4 2.10
  82  0.667  0.265  0.666-  19 1.86  31 1.86  22 1.87
  83  0.777  0.068  0.890-  30 1.86   6 1.86  12 1.87
  84  0.781  0.599  0.890-  14 1.87  32 1.87  29 1.90   1 2.12
  85  0.891  0.399  0.783-  31 1.87  25 1.87  22 1.90   1 2.12
  86  0.887  0.934  0.774-  30 1.88  24 1.88   6 1.90   4 2.11

  LATTYP: Found a base centered monoclinic cell.
 ALAT       =    14.5230282195
 B/A-ratio  =     0.5767366043
 C/A-ratio  =     1.3919777633
 COS(beta)  =    -0.6217206648

  Lattice vectors:

 A1 = (   4.1946643623,   7.2576545736,  -0.0036456639)
 A2 = (   8.3826453689,   0.0038587277,  -0.0036456639)
 A3 = ( -12.5713190451,  -7.2580545751, -14.0697695501)

Analysis of symmetry for initial positions (statically):
 Subroutine PRICEL returns:
 Original cell was already a primitive cell.

 Routine SETGRP: Setting up the symmetry group for a
 base centered monoclinic supercell.

 Subroutine GETGRP returns: Found  4 space group operations
[...]
   -.313E+00 -.641E+01 -.375E+03   0.395E-01 0.706E+01 0.403E+03   0.240E+00 -.631E+00 -.277E+02   0.330E-01 -.216E-01 -.627E-02
   -.602E+01 0.385E+02 0.351E+03   0.675E+01 -.415E+02 -.373E+03   -.703E+00 0.308E+01 0.226E+02   -.212E-01 0.581E-02 -.261E-01
   0.255E+02 0.147E+02 -.339E+03   -.281E+02 -.162E+02 0.362E+03   0.254E+01 0.147E+01 -.224E+02   0.198E-01 0.114E-01 -.250E-01
   -.349E+02 -.201E+02 0.345E+03   0.375E+02 0.216E+02 -.368E+03   -.256E+01 -.148E+01 0.222E+02   -.139E-02 -.802E-03 -.192E-01
   -.148E+01 -.354E+02 -.349E+03   0.177E+01 0.387E+02 0.372E+03   -.275E+00 -.331E+01 -.228E+02   -.132E-01 -.257E-01 0.438E-02
   -.286E+01 0.149E+01 0.372E+03   0.214E+01 -.137E+01 -.400E+03   0.695E+00 -.134E+00 0.275E+02   0.218E-01 0.110E-01 0.270E-01
   -.570E+01 0.293E+01 -.375E+03   0.613E+01 -.349E+01 0.403E+03   -.426E+00 0.523E+00 -.277E+02   -.224E-02 0.393E-01 -.627E-02
   0.303E+02 -.244E+02 0.351E+03   -.326E+02 0.266E+02 -.373E+03   0.232E+01 -.215E+01 0.226E+02   -.556E-02 -.213E-01 -.261E-01
[...]
   -.255E+02 0.213E+02 -.345E+03   0.282E+02 -.233E+02 0.368E+03   -.271E+01 0.202E+01 -.228E+02   -.302E-01 0.240E-01 -.168E-01
   0.603E+01 -.755E+01 0.374E+03   -.666E+01 0.742E+01 -.401E+03   0.613E+00 0.153E+00 0.272E+02   0.196E-01 -.246E-01 0.109E-01
   -.759E+01 -.438E+01 -.389E+03   0.748E+01 0.432E+01 0.415E+03   0.112E+00 0.645E-01 -.266E+02   -.110E-01 -.637E-02 0.230E-01
   0.805E+01 0.465E+01 0.381E+03   -.796E+01 -.460E+01 -.408E+03   -.727E-01 -.419E-01 0.270E+02   -.258E-02 -.149E-02 0.496E-01
   0.350E+02 0.202E+02 -.339E+03   -.376E+02 -.217E+02 0.361E+03   0.262E+01 0.151E+01 -.225E+02   0.155E-01 0.894E-02 -.112E-01
   -.336E+02 -.194E+02 0.345E+03   0.361E+02 0.208E+02 -.367E+03   -.249E+01 -.144E+01 0.218E+02   0.339E-01 0.196E-01 -.180E-01
   0.568E+01 -.327E+02 -.345E+03   -.609E+01 0.361E+02 0.368E+03   0.396E+00 -.336E+01 -.228E+02   0.565E-02 -.381E-01 -.168E-01
   -.352E+01 0.900E+01 0.374E+03   0.309E+01 -.948E+01 -.401E+03   0.439E+00 0.455E+00 0.272E+02   -.115E-01 0.293E-01 0.109E-01
   -.303E+02 0.244E+02 -.351E+03   0.326E+02 -.266E+02 0.373E+03   -.232E+01 0.215E+01 -.226E+02   0.556E-02 0.213E-01 0.261E-01
   0.570E+01 -.293E+01 0.375E+03   -.613E+01 0.349E+01 -.403E+03   0.426E+00 -.523E+00 0.277E+02   0.224E-02 -.393E-01 0.627E-02
   0.286E+01 -.149E+01 -.372E+03   -.214E+01 0.137E+01 0.400E+03   -.695E+00 0.134E+00 -.275E+02   -.218E-01 -.110E-01 -.270E-01
   0.148E+01 0.354E+02 0.349E+03   -.177E+01 -.387E+02 -.372E+03   0.275E+00 0.331E+01 0.228E+02   0.132E-01 0.257E-01 -.438E-02
   0.349E+02 0.201E+02 -.345E+03   -.375E+02 -.216E+02 0.368E+03   0.256E+01 0.148E+01 -.222E+02   0.139E-02 0.802E-03 0.192E-01
   -.255E+02 -.147E+02 0.339E+03   0.281E+02 0.162E+02 -.362E+03   -.254E+01 -.147E+01 0.224E+02   -.198E-01 -.114E-01 0.250E-01
   -.784E-03 0.109E-02 0.334E-02   0.725E-12 0.604E-12 -.108E-11   0.000E+00 0.377E-14 0.000E+00   -.449E-07 0.200E-07 0.153E-07

 POSITION                                       TOTAL-FORCE (eV/Angst)
      0.00158      0.00091      7.03196        -0.000701     -0.000405     -0.002364
      1.38791      0.80131     11.73664         0.000701      0.000405      0.002364
     -1.39625      4.02974      2.34577         0.000000     -0.000000     -0.000000
      1.39725      5.64256     11.74396        -0.000282     -0.000163      0.002370
      4.18691      2.41731      7.02100         0.000282      0.000163     -0.002370
      4.19250      7.25641      0.02377         0.002130      0.001230      0.011120
      1.39764      0.80693      4.66413        -0.002130     -0.001230     -0.011120
     -0.01039      1.62244      9.38430         0.000703     -0.001218     -0.000000
      6.98246      2.41134     14.04622         0.001134      0.000323      0.003395
      0.00464      3.21855      4.71874        -0.000846     -0.000821     -0.003395
     -1.39924      4.02801      9.38430        -0.000000     -0.000000     -0.000000
      5.57951      4.84132     14.04622         0.000846      0.000821      0.003395
     -1.39831      5.64854      4.71874        -0.001134     -0.000323     -0.003395
     -2.78810      6.43358      9.38430        -0.000703      0.001218     -0.000000
     -1.38846      7.25199      0.03777        -0.001907      0.006328      0.009685
      4.19225      0.79841      4.64991         0.001836      0.001336     -0.012941
      2.79439      1.61334      9.37187         0.004299      0.002482      0.003384
      1.39819      2.42536      0.03777         0.004527     -0.004816      0.009685
      2.78756      3.23139      4.64991         0.002075      0.000922     -0.012941
      1.39622      4.02108      9.35788        -0.006503      0.002026      0.000984
      0.00076      4.83630      0.01047        -0.000605     -0.000349      0.008767
      1.40000      5.64415      4.67861         0.001968      0.001136     -0.009453
     -0.00751      6.45241      9.35788        -0.001497     -0.006645      0.000984
      5.58588      0.01113      0.03799        -0.001836     -0.001336      0.012941
      6.97861      0.81135      4.65013         0.001907     -0.006328     -0.009685
      5.59167      1.60746      9.40708         0.001497      0.006645     -0.000984
      4.19015      2.41918      0.00929        -0.001968     -0.001136      0.009453
      5.58938      3.22703      4.67742         0.000605      0.000349     -0.008767
      4.18794      4.03879      9.40708         0.006503     -0.002026     -0.000984
      2.80258      4.83195      0.03799        -0.002075     -0.000922      0.012941
      4.19195      5.63798      4.65013        -0.004527      0.004816     -0.009685
      2.78976      6.44653      9.39309        -0.004299     -0.002482     -0.003384
      0.02253      0.01301     10.35542        -0.007708     -0.004450     -0.003005
      4.19051      7.25526      3.71809         0.007671      0.004429     -0.002640
      1.39963      0.80808      0.96980        -0.007671     -0.004429      0.002640
      1.36696      0.78921      8.41318         0.007708      0.004450      0.003005
     -0.00341      1.57166      5.63798        -0.002593     -0.001557     -0.007922
      0.03009      1.59101     13.13062         0.002645      0.001467      0.007922
     -1.39561      2.42097     10.33403         0.004494     -0.002038     -0.000990
     -1.39162      2.45435      3.72419         0.003222      0.003042     -0.000465
     -0.03423      3.23804      0.96735        -0.004246     -0.001269      0.000465
     -0.00933      3.22134      8.43458        -0.000482     -0.004911      0.000990
     -1.40284      4.02594      5.65160        -0.013264     -0.007658     -0.003832
     -1.39565      4.03008     13.11701         0.013264      0.007658      0.003832
     -2.78916      4.83468     10.33403         0.000482      0.004911     -0.000990
     -2.75826      4.82144      3.72419         0.004246      0.001269     -0.000465
     -1.40087      5.60513      0.96735        -0.003222     -0.003042      0.000465
     -1.40288      5.63505      8.43458        -0.004494      0.002038      0.000990
     -2.82858      6.46501      5.63798        -0.002645     -0.001467     -0.007922
     -2.79508      6.48436     13.13062         0.002593      0.001557      0.007922
      2.77441      0.01206     10.33671         0.003711     -0.000835     -0.005502
     -1.39821      7.24049      3.73627        -0.000738     -0.006768      0.004237
      4.18996      0.81588      0.96631        -0.000450     -0.001287     -0.000729
      4.19648      0.84489      8.41682         0.007065     -0.002298     -0.000847
      2.81876      1.62741      5.62073        -0.009268     -0.005351     -0.014462
      2.75906      1.59294     13.14625         0.004190      0.002419      0.013665
      1.39766      2.39668     10.33671         0.001132      0.003631     -0.005502
      1.38337      2.42267      3.73627        -0.006230      0.002745      0.004237
      2.80155      3.22068      0.96631        -0.001339      0.000253     -0.000729
      2.82994      3.21181      8.41682         0.001543      0.007268     -0.000847
[...]
      6.99772      0.79402      8.42825        -0.003711      0.000835      0.005502
      5.56462      1.62014      5.62547         0.002634     -0.003334     -0.008884
      5.57392      1.59955     13.13983         0.000423     -0.007339      0.011613
      4.18829      2.41811     10.33282        -0.011653     -0.006728      0.000904
      4.19505      2.42201      3.71434         0.014434      0.008334      0.004133
      5.62285      3.24635      0.93747        -0.001082     -0.000624     -0.012644
      5.55744      3.20859      8.43632         0.005669      0.003273      0.010686
      4.18540      4.00903      5.62547        -0.001571      0.003948     -0.008884
      4.17222      4.02738     13.13983        -0.006144      0.004036      0.011613
      2.75422      4.84807     10.34814        -0.001543     -0.007268      0.000847
      2.78859      4.84266      3.72158         0.001339     -0.000253      0.000729
      4.20678      5.64067      0.95163         0.006230     -0.002745     -0.004237
      4.18650      5.66320      8.42825        -0.001132     -0.003631      0.005502
      2.82509      6.46693      5.61871        -0.004190     -0.002419     -0.013665
      2.76540      6.43247     13.14423         0.009268      0.005351      0.014462
    total drift:                               -0.000784      0.001088      0.003338

  FREE ENERGIE OF THE ION-ELECTRON SYSTEM (eV)
  free  energy   TOTEN  =      -534.5163974610 eV

  energy  without entropy=     -534.4978235263  energy(sigma->0) =     -534.50711049

 Quasi-Newton relaxation of ions (Broydens 2nd method)
  g(Force)  = 0.384E-03   g(Stress)= 0.244E-03

 Reset! Starting new Quasi-Newton update for ions

 reached required accuracy - stopping structural energy minimisation

volume of typ            1:     4.6 %

[...]

volume of typ            3:    10.3 %

total charge

# of ion       s       p       d       tot
    1        2.069   0.227   0.089   2.385
    2        2.069   0.227   0.089   2.385
    3        2.073   0.236   0.093   2.402
    4        2.069   0.226   0.088   2.383
    5        2.069   0.226   0.088   2.383
    6        0.297   0.413   7.825   8.535
    7        0.297   0.413   7.825   8.535
    8        0.301   0.422   7.832   8.555
    9        0.297   0.414   7.825   8.536
   10        0.297   0.414   7.825   8.536
   11        0.292   0.405   7.821   8.518
   12        0.297   0.414   7.825   8.536
   13        0.297   0.414   7.825   8.536
   14        0.301   0.422   7.832   8.555
   15        0.294   0.406   7.827   8.527
   16        0.301   0.421   7.823   8.546
   17        0.297   0.414   7.833   8.544
   18        0.294   0.406   7.827   8.527
   19        0.301   0.421   7.823   8.546
   20        0.293   0.405   7.829   8.526
   21        0.302   0.423   7.830   8.555
   22        0.292   0.405   7.822   8.518
   23        0.293   0.405   7.829   8.526
   24        0.301   0.421   7.823   8.546
   25        0.294   0.406   7.827   8.527
   26        0.293   0.405   7.829   8.526
   27        0.292   0.405   7.822   8.518
   28        0.302   0.423   7.830   8.555
   29        0.293   0.405   7.829   8.526
   30        0.301   0.421   7.823   8.546
   31        0.294   0.406   7.827   8.527
   32        0.297   0.414   7.833   8.544
   33        1.275   2.751   0.007   4.033
   34        1.289   2.712   0.008   4.009
   35        1.289   2.712   0.008   4.009
   36        1.275   2.751   0.007   4.033
   37        1.275   2.754   0.007   4.036
   38        1.275   2.754   0.007   4.036
   39        1.285   2.725   0.008   4.018
   40        1.275   2.753   0.007   4.036
   41        1.275   2.753   0.007   4.036
   42        1.285   2.725   0.008   4.018
   43        1.286   2.720   0.008   4.014
   44        1.286   2.720   0.008   4.014
   45        1.285   2.725   0.008   4.018
   46        1.275   2.753   0.007   4.036
   47        1.275   2.753   0.007   4.036
   48        1.285   2.725   0.008   4.018
   49        1.275   2.754   0.007   4.036
   50        1.275   2.754   0.007   4.036
   51        1.275   2.753   0.007   4.035
   52        1.286   2.723   0.008   4.017
   53        1.286   2.722   0.008   4.017
   54        1.275   2.754   0.007   4.036
   55        1.275   2.752   0.007   4.034
   56        1.278   2.745   0.007   4.031
   57        1.275   2.753   0.007   4.035
   58        1.286   2.723   0.008   4.017
   59        1.286   2.722   0.008   4.017
   60        1.275   2.754   0.007   4.036
[...]
   72        1.275   2.753   0.007   4.035
   73        1.275   2.753   0.007   4.035
   74        1.285   2.723   0.008   4.017
   75        1.288   2.714   0.008   4.011
   76        1.286   2.719   0.008   4.013
   77        1.278   2.745   0.007   4.030
   78        1.279   2.744   0.007   4.030
   79        1.275   2.753   0.007   4.035
   80        1.285   2.723   0.008   4.017
   81        1.275   2.754   0.007   4.036
   82        1.286   2.722   0.008   4.017
   83        1.286   2.723   0.008   4.017
   84        1.275   2.753   0.007   4.035
   85        1.278   2.745   0.007   4.031
   86        1.275   2.752   0.007   4.034
tot          87.50  160.13  212.18  459.81

magnetization (x)

# of ion       s       p       d       tot
    1        0.005   0.004  -0.000   0.009
    2        0.005   0.004  -0.000   0.009
    3        0.006   0.006  -0.000   0.012
    4        0.005   0.005  -0.000   0.010
    5        0.005   0.005  -0.000   0.010
    6       -0.000  -0.000   0.110   0.110
    7       -0.000  -0.000   0.110   0.110
    8       -0.000  -0.000   0.110   0.109
    9       -0.000  -0.000   0.119   0.119
   10       -0.000  -0.000   0.119   0.119
   11       -0.000  -0.000   0.164   0.164
   12       -0.000  -0.000   0.119   0.119
   13       -0.000  -0.000   0.119   0.119
   14       -0.000  -0.000   0.110   0.109
   15       -0.000  -0.000   0.155   0.155
   16       -0.000  -0.000   0.079   0.079
   17       -0.000  -0.000   0.156   0.155
   18       -0.000  -0.000   0.155   0.155
   19       -0.000  -0.000   0.079   0.079
   20       -0.000  -0.000   0.178   0.178
   21       -0.000  -0.000   0.106   0.106
   22       -0.000  -0.000   0.157   0.156
   23       -0.000  -0.000   0.178   0.178
   24       -0.000  -0.000   0.079   0.079
   25       -0.000  -0.000   0.155   0.155
   26       -0.000  -0.000   0.178   0.178
   27       -0.000  -0.000   0.157   0.156
   28       -0.000  -0.000   0.106   0.106
   29       -0.000  -0.000   0.178   0.178
   30       -0.000  -0.000   0.079   0.079
   31       -0.000  -0.000   0.155   0.155
   32       -0.000  -0.000   0.156   0.155
   33        0.004   0.016   0.000   0.019
   34        0.003   0.029   0.000   0.032
   35        0.003   0.029   0.000   0.032
   36        0.004   0.016   0.000   0.019
   37        0.003   0.006   0.000   0.009
   38        0.003   0.006   0.000   0.009
   39        0.002   0.007   0.000   0.009
   40        0.004   0.011   0.000   0.014
   41        0.004   0.011   0.000   0.014
   42        0.002   0.007   0.000   0.009
   43        0.002   0.004   0.000   0.006
   44        0.002   0.004   0.000   0.006
   45        0.002   0.007   0.000   0.009
   46        0.004   0.011   0.000   0.014
   47        0.004   0.011   0.000   0.014
   48        0.002   0.007   0.000   0.009
   49        0.003   0.006   0.000   0.009
   50        0.003   0.006   0.000   0.009
   51        0.003   0.011   0.000   0.014
   52        0.002   0.006   0.000   0.008
   53        0.002   0.007   0.000   0.009
   54        0.004   0.012   0.000   0.016
   55        0.003   0.013   0.000   0.017
   56        0.006   0.035   0.000   0.041
   57        0.003   0.011   0.000   0.014
   58        0.002   0.006   0.000   0.008
   59        0.002   0.007   0.000   0.009
   60        0.004   0.012   0.000   0.016
[...]
   72        0.003   0.011   0.000   0.014
   73        0.003   0.007   0.000   0.010
   74        0.002   0.006   0.000   0.008
   75        0.004   0.031   0.000   0.035
   76        0.002   0.007   0.000   0.009
   77        0.006   0.033   0.000   0.039
   78        0.007   0.047   0.000   0.054
   79        0.003   0.007   0.000   0.010
   80        0.002   0.006   0.000   0.008
   81        0.004   0.012   0.000   0.016
   82        0.002   0.007   0.000   0.009
   83        0.002   0.006   0.000   0.008
   84        0.003   0.011   0.000   0.014
   85        0.006   0.035   0.000   0.041
   86        0.003   0.013   0.000   0.017
tot           0.19    0.75    3.57    4.51