 vasp.5.4.4.18Apr17-6-g9f103f2a35 (build May 12 2020 05:39:39) gamma-only

 MD_VERSION_INFO: Compiled 2020-05-12T12:39:39-UTC in devlin.sd.materialsdesign.
 com:/home/medea2/data/build/wwolf/vasp-gpu5.4.4/13047/x86_64/src/src/build/gam
 from svn 13047

 executed on                        Lin64 date 2023.01.20  04:38:51

 INCAR:
 POTCAR:    PAW_PBE Li_sv 10Sep2004
 POTCAR:    PAW_PBE Ni 02Aug2007
 POTCAR:    PAW_PBE O 08Apr2002

 POTCAR:    PAW_PBE Li_sv 10Sep2004

 POTCAR:    PAW_PBE Ni 02Aug2007

 POTCAR:    PAW_PBE O 08Apr2002

 Optimization of the real space projectors (new method)

 maximal supplied QI-value         = 22.11
 optimisation between [QCUT,QGAM] = [ 11.28, 22.77] = [ 35.61,145.23] Ry
 Optimized for a Real-space Cutoff    1.10 Angstroem

   l    n(q)    QCUT    max X(q) W(low)/X(q) W(high)/X(q)  e(spline)
   0      7    11.276    10.506    0.54E-04    0.58E-04    0.16E-07
   0      7    11.276     8.367    0.11E-03    0.14E-03    0.35E-07
   1      7    11.276     8.983    0.23E-03    0.43E-03    0.86E-07
 Optimization of the real space projectors (new method)

[...]

   l    n(q)    QCUT    max X(q) W(low)/X(q) W(high)/X(q)  e(spline)
   2      9    11.376    60.317    0.17E-03    0.16E-04    0.16E-06
   2      9    11.376    55.921    0.17E-03    0.16E-04    0.17E-06
   0     10    11.376    51.690    0.45E-04    0.60E-04    0.21E-06
   0     10    11.376    30.015    0.37E-04    0.55E-04    0.19E-06
   1     10    11.376    18.849    0.83E-04    0.11E-03    0.92E-07
   1     10    11.376    14.624    0.69E-04    0.92E-04    0.82E-07
 Optimization of the real space projectors (new method)

 maximal supplied QI-value         = 24.76
 optimisation between [QCUT,QGAM] = [ 11.39, 22.77] = [ 36.31,145.25] Ry
 Optimized for a Real-space Cutoff    1.10 Angstroem

   l    n(q)    QCUT    max X(q) W(low)/X(q) W(high)/X(q)  e(spline)
   0      7    11.387    20.381    0.22E-03    0.48E-03    0.18E-06
   0      7    11.387    15.268    0.22E-03    0.52E-03    0.19E-06
   1      7    11.387     5.964    0.22E-03    0.73E-03    0.24E-06
   1      7    11.387     5.382    0.19E-03    0.60E-03    0.21E-06

  PAW_PBE Li_sv 10Sep2004               :
  PAW_PBE Ni 02Aug2007                  :
  PAW_PBE O 08Apr2002                   :

 POSCAR: ce285514_1
  positions in direct lattice
 exchange correlation table for  LEXCH =       14
   RHO(1)=    0.500       N(1)  =     2000
   RHO(2)=  100.500       N(2)  =     4000

 ion  position               nearest neighbor table
   1  0.999  0.500  0.999-  44 2.09  43 2.09  91 2.11  92 2.11  79 2.13  56 2.13
   2  0.091  0.834  0.222-  57 2.01  58 2.02  63 2.13  40 2.15  45 2.23  64 2.24  22 2.78  21 2.81

   3  0.222  0.166  0.091-  78 2.01  47 2.02  48 2.13  41 2.15  42 2.23  65 2.24  16 2.78  32 2.81

[...]

  12  0.644  0.500  0.644-  67 2.02  68 2.02  73 2.13  86 2.13  92 2.24  91 2.24  26 2.79  27 2.79

  13  0.000  0.000  0.000-  78 1.86  57 1.86  90 1.92  93 1.92  45 1.94  42 1.94  16 2.81  22 2.81
                            19 2.82  31 2.82  37 2.83  25 2.84
  14  0.111  0.333  0.223-  65 1.87  56 1.87  41 1.88  62 1.88  59 1.91  44 1.92  26 2.80  20 2.80
                            17 2.81  38 2.81  23 2.82  32 2.82
  15  0.223  0.667  0.111-  64 1.87  79 1.87  40 1.88  49 1.88  46 1.91  43 1.92  27 2.80  33 2.80
                            24 2.81  39 2.81  18 2.82  21 2.82
  16  0.333  1.000  0.000-  78 1.87  81 1.87  48 1.88  51 1.88  84 1.91  45 1.92   3 2.78  28 2.80
                            31 2.80  13 2.81  34 2.81  19 2.81  25 2.82
  17  0.444  0.333  0.223-  50 1.87  47 1.87  68 1.90  65 1.91  71 1.92  44 1.94  26 2.78  14 2.81
                            29 2.81  35 2.83  20 2.83  32 2.83
  18  0.559  0.666  0.114-  52 1.87  49 1.88  46 1.88  85 1.88  55 1.89  70 1.91  30 2.78  21 2.79
                            27 2.80   4 2.81  36 2.82  15 2.82  33 2.84
  19  0.667  0.998  0.002-  90 1.87  87 1.88  84 1.89  54 1.90  57 1.90  51 1.91  28 2.78  11 2.80
                            22 2.80  16 2.81  13 2.82  37 2.83  34 2.83
  20  0.778  0.334  0.221-  71 1.86  74 1.88  56 1.90  53 1.91  50 1.92  59 1.95  38 2.79  14 2.80
                            35 2.81  29 2.82  17 2.83  23 2.84
  21  0.887  0.667  0.108-  55 1.88  40 1.88  58 1.88  43 1.88  52 1.89  91 1.91  36 2.79  18 2.79
                            39 2.80   2 2.81  30 2.82  15 2.82  24 2.83
  22  0.000  0.000  0.333-  57 1.87  54 1.87  63 1.88  60 1.88  75 1.91  42 1.92   2 2.78  34 2.80
                            19 2.80  13 2.81  28 2.81  31 2.81  25 2.82
  23  0.114  0.334  0.559-  77 1.87  62 1.88  59 1.88  74 1.88  80 1.89  83 1.91  35 2.78  32 2.79
                            26 2.80   6 2.81  29 2.82  14 2.82  20 2.84
  24  0.223  0.667  0.444-  61 1.87  58 1.87  67 1.90  64 1.91  82 1.92  43 1.94  27 2.78  15 2.81
                            36 2.81  30 2.83  33 2.83  21 2.83
  25  0.337  0.000  0.337-  42 1.88  45 1.88  63 1.88  48 1.88  69 1.90  66 1.90  37 2.77  28 2.80
                            34 2.80  22 2.82  16 2.82  13 2.84
  26  0.444  0.334  0.553-  68 1.87  89 1.87  86 1.88  83 1.88  62 1.90  65 1.91  17 2.78  12 2.79
                            14 2.80  23 2.80  29 2.81  35 2.82  38 2.83
  27  0.553  0.666  0.444-  67 1.87  88 1.87  73 1.88  70 1.88  49 1.90  64 1.91  24 2.78  12 2.79
                            15 2.80  18 2.80  36 2.81  30 2.82  39 2.83
  28  0.666  0.001  0.331-  54 1.87  72 1.87  75 1.88  69 1.88  48 1.90  51 1.91  19 2.78   9 2.80
                            16 2.80  25 2.80  22 2.81  37 2.82  31 2.83
  29  0.778  0.335  0.556-  71 1.87  68 1.87  77 1.87  74 1.91  92 1.91  89 1.92  32 2.79   9 2.80
                            17 2.81  26 2.81  23 2.82  20 2.82  38 2.82
  30  0.888  0.668  0.444-  76 1.87  55 1.87  61 1.87  70 1.91  58 1.92  73 1.93  18 2.78   6 2.79
                            39 2.81  33 2.81  21 2.82  27 2.82  24 2.83
  31  0.002  0.002  0.667-  93 1.87  72 1.88  75 1.89  81 1.90  78 1.90  60 1.91  34 2.78   8 2.80
                            16 2.80  22 2.81  13 2.82  37 2.83  28 2.83
  32  0.108  0.333  0.887-  80 1.88  41 1.88  47 1.88  44 1.88  77 1.89  92 1.91  29 2.79  23 2.79
                            38 2.80   3 2.81  35 2.82  14 2.82  17 2.83
  33  0.221  0.666  0.778-  82 1.86  85 1.88  79 1.90  76 1.91  61 1.92  46 1.95  39 2.79  15 2.80
                            30 2.81  36 2.82  24 2.83  18 2.84
  34  0.331  0.999  0.666-  81 1.87  87 1.87  84 1.88  66 1.88  63 1.90  60 1.91  31 2.78  10 2.80
                            22 2.80  25 2.80  16 2.81  37 2.82  19 2.83
  35  0.444  0.332  0.888-  53 1.87  80 1.87  50 1.87  83 1.91  47 1.92  86 1.93  23 2.78   4 2.79
                            38 2.81  20 2.81  32 2.82  26 2.82  17 2.83
  36  0.556  0.665  0.778-  82 1.87  67 1.87  52 1.87  85 1.91  91 1.91  88 1.92  21 2.79  10 2.80
                            24 2.81  27 2.81  18 2.82  33 2.82  39 2.82
  37  0.665  0.000  0.665-  93 1.87  90 1.87  66 1.91  69 1.91  72 1.94  87 1.94  25 2.77  34 2.82
                            28 2.82  13 2.83  31 2.83  19 2.83
  38  0.778  0.333  0.890-  53 1.87  86 1.88  92 1.88  89 1.89  41 1.90  56 1.92  20 2.79  11 2.80
                            32 2.80  14 2.81  35 2.81  29 2.82  26 2.83
  39  0.890  0.667  0.778-  76 1.87  73 1.88  91 1.88  88 1.89  40 1.90  79 1.92  33 2.79   8 2.80
                            21 2.80  15 2.81  30 2.81  36 2.82  27 2.83
  40  0.002  0.734  0.003-  15 1.88  21 1.88  39 1.90   2 2.15
  41  0.003  0.266  0.002-  14 1.88  32 1.88  38 1.90   3 2.15
  42  0.119  0.070  0.229-  25 1.88  22 1.92  13 1.94   7 2.10   3 2.23
  43  0.104  0.596  0.216-  21 1.88  15 1.92  24 1.94   1 2.09   6 2.25
  44  0.216  0.404  0.104-  32 1.88  14 1.92  17 1.94   1 2.09   4 2.25
  45  0.229  0.930  0.119-  25 1.88  16 1.92  13 1.94   5 2.10   2 2.23
  46  0.341  0.737  0.007-  18 1.88  15 1.91  33 1.95   5 2.10  10 2.23
  47  0.330  0.266  0.003-  17 1.87  32 1.88  35 1.92   3 2.02
  48  0.441  0.068  0.221-  16 1.88  25 1.88  28 1.90   3 2.13
  49  0.443  0.599  0.219-  15 1.88  18 1.88  27 1.90   4 2.15
  50  0.548  0.400  0.108-  17 1.87  35 1.87  20 1.92   4 2.00
  51  0.551  0.930  0.109-  16 1.88  19 1.91  28 1.91   5 2.11  10 2.24
  52  0.663  0.733  0.998-  18 1.87  36 1.87  21 1.89  10 2.14
  53  0.664  0.266  0.996-  35 1.87  38 1.87  20 1.91  11 2.02
  54  0.780  0.067  0.224-  28 1.87  22 1.87  19 1.90   9 2.15
  55  0.782  0.600  0.225-  30 1.87  21 1.88  18 1.89   6 2.13
  56  0.893  0.403  0.114-  14 1.87  20 1.90  38 1.92   1 2.13   6 2.24
  57  0.894  0.933  0.113-  13 1.86  22 1.87  19 1.90   2 2.01
  58  0.003  0.734  0.330-  24 1.87  21 1.88  30 1.92   2 2.02
  59  0.007  0.263  0.341-  23 1.88  14 1.91  20 1.95   7 2.10   9 2.23
  60  0.109  0.070  0.551-  22 1.88  31 1.91  34 1.91   7 2.11   9 2.24
  61  0.108  0.600  0.548-  24 1.87  30 1.87  33 1.92   6 2.00
  62  0.219  0.401  0.443-  14 1.88  23 1.88  26 1.90   6 2.15
  63  0.221  0.932  0.441-  22 1.88  25 1.88  34 1.90   2 2.13
  64  0.331  0.736  0.328-  15 1.87  27 1.91  24 1.91   5 2.13   2 2.24
  65  0.328  0.264  0.331-  14 1.87  26 1.91  17 1.91   7 2.13   3 2.24
  66  0.442  0.069  0.559-  34 1.88  25 1.90  37 1.91   7 2.11  11 2.24
  67  0.446  0.599  0.557-  27 1.87  36 1.87  24 1.90  12 2.02
  68  0.557  0.401  0.446-  26 1.87  29 1.87  17 1.90  12 2.02
  69  0.559  0.931  0.442-  28 1.88  25 1.90  37 1.91   5 2.11   8 2.24
  70  0.664  0.737  0.337-  27 1.88  30 1.91  18 1.91   5 2.10   8 2.24
  71  0.674  0.267  0.336-  20 1.86  29 1.87  17 1.92   9 2.01
  72  0.780  0.068  0.551-  28 1.87  31 1.88  37 1.94   9 2.01
  73  0.774  0.599  0.557-  27 1.88  39 1.88  30 1.93  12 2.13
  74  0.893  0.401  0.443-  23 1.88  20 1.88  29 1.91   6 2.01
  75  0.887  0.933  0.445-  28 1.88  31 1.89  22 1.91   8 2.14
  76  0.996  0.734  0.664-  30 1.87  39 1.87  33 1.91   8 2.02
  77  0.998  0.267  0.663-  23 1.87  29 1.87  32 1.89   9 2.14
  78  0.113  0.067  0.894-  13 1.86  16 1.87  31 1.90   3 2.01
  79  0.114  0.597  0.893-  15 1.87  33 1.90  39 1.92   1 2.13   4 2.24
  80  0.225  0.400  0.782-  35 1.87  32 1.88  23 1.89   4 2.13
  81  0.224  0.933  0.780-  34 1.87  16 1.87  31 1.90  10 2.15
  82  0.336  0.733  0.674-  33 1.86  36 1.87  24 1.92  10 2.01
  83  0.337  0.263  0.664-  26 1.88  35 1.91  23 1.91   7 2.10  11 2.24
  84  0.445  0.067  0.887-  34 1.88  19 1.89  16 1.91  11 2.14
  85  0.443  0.599  0.893-  18 1.88  33 1.88  36 1.91   4 2.01
  86  0.557  0.401  0.774-  26 1.88  38 1.88  35 1.93  12 2.13
  87  0.551  0.932  0.780-  34 1.87  19 1.88  37 1.94  10 2.01
  88  0.667  0.733  0.664-  27 1.87  39 1.89  36 1.92   8 2.17
  89  0.664  0.267  0.667-  26 1.87  38 1.89  29 1.92  11 2.17
  90  0.771  0.066  0.886-  37 1.87  19 1.87  13 1.92  11 2.00
  91  0.780  0.596  0.886-  39 1.88  36 1.91  21 1.91   1 2.11  12 2.24
  92  0.886  0.404  0.780-  38 1.88  29 1.91  32 1.91   1 2.11  12 2.24
  93  0.886  0.934  0.771-  37 1.87  31 1.87  13 1.92   8 2.00

  LATTYP: Found a base centered monoclinic cell.
 ALAT       =    14.6133599530
 B/A-ratio  =     0.5772445208
 C/A-ratio  =     1.3949370443
 COS(beta)  =    -0.6198943030

  Lattice vectors:

[...]
   -.819E+01 0.290E+02 0.351E+03   0.781E+01 -.309E+02 -.373E+03   0.367E+00 0.198E+01 0.220E+02   0.752E-02 -.433E-01 -.645E-02
   -.191E+02 0.437E+02 -.329E+03   0.200E+02 -.461E+02 0.349E+03   -.955E+00 0.248E+01 -.191E+02   0.679E-02 -.387E-01 -.646E-02
   0.995E+01 0.370E+02 0.344E+03   -.105E+02 -.403E+02 -.365E+03   0.567E+00 0.323E+01 0.210E+02   0.237E-01 0.420E-02 -.588E-02
   -.505E+02 0.188E+02 -.353E+03   0.555E+02 -.209E+02 0.372E+03   -.509E+01 0.219E+01 -.182E+02   0.124E-01 -.402E-01 0.523E-01
   0.191E+02 0.420E+02 0.335E+03   -.212E+02 -.449E+02 -.351E+03   0.213E+01 0.286E+01 0.165E+02   0.328E-01 -.230E-01 0.589E-02
   -.373E+02 -.272E+01 -.328E+03   0.395E+02 0.290E+01 0.347E+03   -.220E+01 -.181E+00 -.189E+02   -.217E-01 -.526E-02 0.321E-02
[...]
   0.292E+02 0.740E+01 -.351E+03   -.307E+02 -.869E+01 0.373E+03   0.153E+01 0.131E+01 -.220E+02   -.413E-01 -.151E-01 0.645E-02
   0.538E+00 0.397E+02 0.354E+03   -.109E+00 -.425E+02 -.376E+03   -.444E+00 0.277E+01 0.222E+02   0.135E-01 0.962E-02 -.460E-02
   0.286E+02 0.207E+02 -.339E+03   -.314E+02 -.229E+02 0.357E+03   0.275E+01 0.222E+01 -.185E+02   0.598E-01 0.445E-01 0.857E-02
   -.423E+02 0.432E+01 0.326E+03   0.446E+02 -.472E+01 -.345E+03   -.226E+01 0.404E+00 0.189E+02   -.475E-02 -.738E-02 0.516E-02
   -.371E+02 0.954E+01 -.362E+03   0.402E+02 -.111E+02 0.382E+03   -.317E+01 0.157E+01 -.205E+02   0.989E-02 -.526E-02 -.976E-03
   0.484E+02 -.174E+02 0.353E+03   -.532E+02 0.195E+02 -.371E+03   0.480E+01 -.207E+01 0.180E+02   -.202E-02 0.680E-02 0.237E-01
   -.479E+02 0.321E+02 -.359E+03   0.528E+02 -.346E+02 0.379E+03   -.485E+01 0.255E+01 -.200E+02   -.135E-01 0.176E-01 -.462E-02
   0.468E+02 -.364E+02 0.356E+03   -.524E+02 0.401E+02 -.375E+03   0.564E+01 -.366E+01 0.185E+02   -.150E-01 0.467E-03 -.108E-01
   -.500E+02 0.239E+02 -.362E+03   0.545E+02 -.268E+02 0.382E+03   -.451E+01 0.286E+01 -.198E+02   0.802E-02 0.108E-01 -.140E-01
   0.457E+02 -.313E+02 0.362E+03   -.504E+02 0.338E+02 -.382E+03   0.473E+01 -.248E+01 0.198E+02   0.536E-02 0.124E-01 0.140E-01
   0.269E+01 -.431E+02 -.337E+03   -.290E+01 0.473E+02 0.356E+03   0.225E+00 -.412E+01 -.186E+02   -.141E-01 -.218E-01 0.110E-01
   -.259E+02 0.353E+02 0.324E+03   0.273E+02 -.373E+02 -.343E+03   -.145E+01 0.196E+01 0.188E+02   -.222E-01 -.400E-01 0.109E-01
   0.435E+02 -.472E+01 -.324E+03   -.459E+02 0.503E+01 0.343E+03   0.242E+01 -.274E+00 -.188E+02   -.235E-01 -.392E-01 -.109E-01
   -.387E+02 -.192E+02 0.337E+03   0.424E+02 0.211E+02 -.356E+03   -.368E+01 -.187E+01 0.186E+02   -.119E-01 -.231E-01 -.110E-01
   -.118E+00 -.205E+00 -.351E-06   0.711E-13 0.274E-12 -.512E-12   0.126E+00 0.219E+00 -.796E-12   -.119E-01 -.206E-01 -.923E-11

 POSITION                                       TOTAL-FORCE (eV/Angst)
      4.18424      7.27981      7.19358        -0.003004     -0.005203      0.000000
      1.46141      0.66414     11.99852        -0.010219     -0.004103      0.003120
     -0.18368      1.61393      2.38864         0.001556     -0.010901     -0.003120
      6.92010      2.58889      7.16902         0.001387      0.008303     -0.006034
     -0.02502      3.25598     11.99775         0.000585      0.000230      0.002207
     -1.24614      7.30367      7.21815         0.006497      0.005352      0.006034
      2.80413      1.62257      2.38942        -0.000093      0.000621     -0.002207
      1.47334      5.85804     11.99816         0.013761      0.012096     -0.003300
      0.05292      6.31724      2.42889        -0.006475     -0.013945      0.003274
      5.41630      3.22070     11.95828        -0.008839     -0.012580     -0.003274
      4.30840      4.22121      2.38900         0.003594      0.017965      0.003300
      2.68944      4.69073      7.19358        -0.006326     -0.010956      0.000000
     -0.00220     -0.00381      0.00000        -0.000596     -0.001032      0.000000
      1.39568      0.81198      4.79349         0.001620     -0.000020     -0.000712
     -0.02278      1.63093      9.59368        -0.000827      0.001393      0.000712
     -1.43398      2.44463     14.39549         0.001386     -0.001803      0.002184
      0.00240      3.23862      4.79279         0.004347      0.001186     -0.006107
     -1.41875      4.08299      9.59379         0.000633     -0.001408     -0.000267
     -2.84271      4.88466     14.37078         0.000613     -0.000275     -0.006638
     -1.45804      5.68258      4.81473        -0.005698      0.000609      0.005280
     -2.87271      6.48339      9.61003        -0.000977      0.001240      0.003792
      2.80596     -0.00330     -0.00833        -0.002255      0.000299     -0.002184
      4.21721      0.82907      4.79337        -0.001536     -0.000156      0.000267
      2.77540      1.63763      9.59437        -0.001147      0.004358      0.006107
      1.41838      2.45670     -0.00000         0.000892      0.001545     -0.000000
      2.78822      3.23412      4.79452         0.006041      0.002184     -0.004154
      1.37858      4.04797      9.59265        -0.001129      0.006324      0.004154
     -0.03365      4.85949      0.01384         0.001428     -0.000419      0.000658
      1.38297      5.67974      4.82259        -0.001823     -0.000338     -0.001758
     -0.04415      6.48322      9.61978        -0.000349      0.000263      0.000720
      5.62346     -0.00329      0.01639        -0.000545      0.000393      0.006638
      7.02300      0.77010      4.77714         0.001562     -0.000226     -0.003792
      5.62214      1.59483      9.57243         0.003376     -0.004630     -0.005280
      4.19713      2.41685     14.37332        -0.001077      0.001027     -0.000658
      5.60857      3.21962      4.76739         0.000403     -0.000171     -0.000720
      4.19918      4.05381      9.56458         0.000619     -0.001748      0.001758
      2.79171      4.83539     -0.00000         0.001288      0.002232     -0.000000
      4.20568      5.66918      4.79499        -0.001903     -0.000067      0.002445
      2.77868      6.49306      9.59218         0.000893     -0.001682     -0.002445
     -0.00170      0.02176     10.55588        -0.000318      0.001699      0.001304
     -0.00844      0.02565      3.83129         0.001630      0.000574     -0.001304
      1.41125      0.88800      1.00939         0.002016     -0.003835     -0.000865
      1.36312      0.76745      8.58705         0.004705      0.007874      0.004150
     -0.04506      1.58046      5.80012         0.004466      0.008012     -0.004150
      0.03527      1.68242     13.37778        -0.004329     -0.000171      0.000865
     -1.40380      2.49758     10.59948        -0.006274     -0.006711     -0.001389
     -1.34703      2.38461      3.82512         0.014178     -0.003309     -0.011856
     -0.00037      3.21261      0.96676         0.002910     -0.002043     -0.001214
     -0.04662      3.23897      8.63071         0.000064      0.001913      0.001459
     -1.41946      3.99103      5.74258         0.003019      0.003494     -0.001618
     -1.43603      4.03752     13.39520         0.000894     -0.001767     -0.003046
      5.60252      4.81379     10.52928         0.002511     -0.007582     -0.002796
      5.57365      4.83336      3.83908         0.001145      0.003810      0.005548
     -1.41196      5.69102      0.96187        -0.000572     -0.001594     -0.002893
     -1.45000      5.72738      8.65481        -0.003709      0.002507      0.005501
     -2.84853      6.53269      5.80312        -0.004461      0.002535      0.004669
     -2.88259      6.54808     13.44679        -0.002280      0.000509     -0.004045
      2.71051      0.04198     10.56204        -0.009955      0.010624      0.011856
      2.83673      0.04931      3.78768        -0.002675     -0.008789      0.001389
      4.18647      0.79136      0.99196        -0.001977     -0.000109      0.003046
[...]
      7.05361      0.81569      8.58404         0.004426     -0.002596     -0.004669
      5.65692      1.62419      5.73236         0.004025     -0.001959     -0.005501
      5.60641      1.63896     13.42530        -0.001094     -0.001293      0.002893
      4.25251      2.44103     10.51823         0.002788     -0.006267     -0.000975
      4.16245      2.45214      3.79179         0.001692     -0.001586      0.000648
      5.59095      3.24493      0.94884         0.004091      0.000066     -0.000917
      5.68689      3.19395      8.61038         0.008340     -0.011600     -0.007803
      4.13408      4.07852      5.76878        -0.012923      0.005664      0.007771
      4.26810      3.99170     13.38821         0.001127     -0.000756     -0.007011
      2.72493      4.90438     10.56505        -0.010651      0.008248      0.010122
      2.85672      4.82830      3.82212         0.012469     -0.005100     -0.010122
      4.21250      5.58250      0.93107         0.004178     -0.000958     -0.004659
      4.14535      5.69663      8.58948         0.001989     -0.000594      0.006075
      2.83262      6.45454      5.79769        -0.001509      0.001425     -0.006075
      2.70020      6.45563     13.45609        -0.002918      0.003139      0.004659
    total drift:                               -0.003616     -0.006261     -0.000000

  FREE ENERGIE OF THE ION-ELECTRON SYSTEM (eV)
  free  energy   TOTEN  =      -571.6370196490 eV

  energy  without entropy=     -571.5789821950  energy(sigma->0) =     -571.60800092

 d Force =-0.2413281E-03[-0.226E-03,-0.256E-03]  d Energy =-0.2533568E-03 0.120E-04
 d Force = 0.3408997E+00[ 0.340E+00, 0.342E+00]  d Ewald  =-0.2220606E+00 0.563E+00

 Quasi-Newton relaxation of ions (Broydens 2nd method)
  g(Force)  = 0.317E-03   g(Stress)= 0.279E-03

 retain information from N=  2 steps
 eigenvalues of (default step * inverse Hessian matrix)
  average eigenvalue of G=   0.7730
 eigenvalue spectrum of G is  0.7730  0.7730

 reached required accuracy - stopping structural energy minimisation

volume of typ            1:    10.6 %

[...]

volume of typ            3:     9.9 %

total charge

# of ion       s       p       d       tot
    1        2.072   0.236   0.089   2.398
    2        2.070   0.231   0.088   2.390
    3        2.070   0.231   0.088   2.390
    4        2.071   0.235   0.088   2.394
    5        2.072   0.237   0.089   2.398
    6        2.071   0.235   0.088   2.394
    7        2.072   0.237   0.089   2.398
    8        2.071   0.233   0.088   2.391
    9        2.071   0.233   0.088   2.391
   10        2.071   0.233   0.088   2.391
   11        2.071   0.233   0.088   2.391
   12        2.072   0.234   0.089   2.394
   13        0.272   0.362   7.842   8.477
   14        0.290   0.399   7.842   8.531
   15        0.290   0.399   7.842   8.531
   16        0.285   0.389   7.841   8.515
   17        0.278   0.375   7.838   8.492
   18        0.291   0.402   7.835   8.528
   19        0.287   0.393   7.833   8.513
   20        0.277   0.372   7.837   8.486
   21        0.292   0.403   7.835   8.530
   22        0.285   0.389   7.841   8.515
   23        0.291   0.402   7.835   8.528
   24        0.278   0.375   7.838   8.492
   25        0.293   0.406   7.837   8.536
   26        0.293   0.407   7.834   8.534
   27        0.293   0.407   7.834   8.534
   28        0.293   0.406   7.834   8.534
   29        0.277   0.370   7.843   8.490
   30        0.277   0.371   7.844   8.493
   31        0.287   0.393   7.833   8.513
   32        0.292   0.403   7.835   8.530
   33        0.277   0.372   7.837   8.486
   34        0.293   0.406   7.834   8.534
   35        0.277   0.371   7.844   8.493
   36        0.277   0.370   7.843   8.490
   37        0.272   0.359   7.846   8.477
   38        0.294   0.407   7.834   8.535
   39        0.294   0.407   7.834   8.535
   40        1.273   2.753   0.007   4.033
   41        1.273   2.753   0.007   4.033
   42        1.270   2.762   0.006   4.038
   43        1.272   2.759   0.006   4.037
   44        1.272   2.759   0.006   4.037
   45        1.270   2.762   0.006   4.038
   46        1.271   2.760   0.006   4.037
   47        1.275   2.753   0.007   4.035
   48        1.273   2.753   0.007   4.033
   49        1.274   2.752   0.007   4.033
   50        1.273   2.759   0.007   4.040
   51        1.267   2.770   0.007   4.044
   52        1.273   2.757   0.007   4.036
   53        1.270   2.768   0.007   4.044
   54        1.273   2.754   0.007   4.035
   55        1.272   2.757   0.007   4.037
   56        1.267   2.771   0.007   4.045
   57        1.270   2.767   0.007   4.044
   58        1.275   2.753   0.007   4.035
   59        1.271   2.760   0.006   4.037
   60        1.267   2.770   0.007   4.044
[...]
   79        1.267   2.771   0.007   4.045
   80        1.272   2.757   0.007   4.037
   81        1.273   2.754   0.007   4.035
   82        1.273   2.759   0.007   4.039
   83        1.266   2.772   0.007   4.045
   84        1.278   2.741   0.007   4.026
   85        1.275   2.755   0.007   4.036
   86        1.278   2.742   0.007   4.027
   87        1.276   2.752   0.007   4.034
   88        1.278   2.741   0.007   4.027
   89        1.278   2.741   0.007   4.027
   90        1.273   2.762   0.007   4.041
   91        1.266   2.773   0.007   4.045
   92        1.266   2.773   0.007   4.045
   93        1.273   2.762   0.007   4.041
tot         101.24  162.33  213.06  476.63

magnetization (x)

# of ion       s       p       d       tot
    1        0.006   0.010   0.000   0.016
    2        0.006   0.010   0.000   0.016
    3        0.006   0.010   0.000   0.016
    4        0.006   0.012   0.001   0.019
    5        0.005   0.010   0.001   0.016
    6        0.006   0.012   0.001   0.019
    7        0.005   0.010   0.001   0.016
    8        0.006   0.012   0.001   0.019
    9        0.006   0.012   0.001   0.019
   10        0.006   0.012   0.001   0.019
   11        0.006   0.012   0.001   0.019
   12        0.006   0.010   0.000   0.016
   13       -0.000  -0.001   0.559   0.558
   14       -0.000  -0.000   0.285   0.284
   15       -0.000  -0.000   0.285   0.284
   16        0.000  -0.001   0.347   0.347
   17       -0.000  -0.001   0.398   0.396
   18       -0.001  -0.000   0.192   0.191
   19       -0.001  -0.001   0.219   0.218
   20       -0.000  -0.001   0.444   0.443
   21       -0.000  -0.000   0.179   0.178
   22        0.000  -0.001   0.347   0.347
   23       -0.001  -0.000   0.192   0.191
   24       -0.000  -0.001   0.398   0.396
   25       -0.001  -0.000   0.180   0.179
   26       -0.001  -0.000   0.158   0.157
   27       -0.001  -0.000   0.158   0.157
   28       -0.000  -0.000   0.160   0.159
   29        0.000  -0.001   0.518   0.518
   30        0.000  -0.001   0.516   0.516
   31       -0.001  -0.001   0.219   0.218
   32       -0.000  -0.000   0.179   0.178
   33       -0.000  -0.001   0.444   0.443
   34       -0.000  -0.000   0.160   0.159
   35        0.000  -0.001   0.516   0.516
   36        0.000  -0.001   0.518   0.518
   37        0.001  -0.001   0.656   0.656
   38       -0.001  -0.000   0.150   0.149
   39       -0.001  -0.000   0.150   0.149
   40        0.003   0.002   0.000   0.005
   41        0.003   0.002   0.000   0.005
   42        0.011   0.080   0.000   0.091
   43        0.009   0.053   0.000   0.063
   44        0.009   0.053   0.000   0.063
   45        0.011   0.080   0.000   0.091
   46        0.010   0.066   0.000   0.077
   47        0.011   0.081   0.000   0.092
   48        0.003   0.007   0.000   0.010
   49        0.003   0.007   0.000   0.011
   50        0.010   0.079   0.000   0.090
   51        0.004   0.008   0.000   0.012
   52        0.004   0.012   0.000   0.016
   53        0.004   0.013   0.000   0.017
   54        0.003   0.008   0.000   0.012
   55        0.004   0.011   0.000   0.015
   56        0.004   0.006   0.000   0.011
   57        0.004   0.009   0.000   0.013
   58        0.011   0.081   0.000   0.092
   59        0.010   0.066   0.000   0.077
   60        0.004   0.008   0.000   0.012
[...]
   79        0.004   0.006   0.000   0.011
   80        0.004   0.011   0.000   0.015
   81        0.003   0.008   0.000   0.012
   82        0.010   0.074   0.000   0.084
   83        0.004   0.007   0.000   0.011
   84        0.008   0.052   0.000   0.060
   85        0.011   0.085   0.000   0.096
   86        0.009   0.072   0.000   0.081
   87        0.010   0.089   0.000   0.099
   88        0.009   0.073   0.000   0.083
   89        0.009   0.073   0.000   0.083
   90        0.010   0.071   0.000   0.081
   91        0.004   0.010   0.000   0.015
   92        0.004   0.010   0.000   0.015
   93        0.010   0.071   0.000   0.081
tot           0.41    2.12    8.54   11.08