 vasp.5.4.4.18Apr17-6-g9f103f2a35 (build May 12 2020 04:58:55) complex

 MD_VERSION_INFO: Compiled 2020-05-12T11:58:55-UTC in devlin.sd.materialsdesign.
 com:/home/medea2/data/build/wwolf/vasp-gpu5.4.4/13047/x86_64/src/src/build/std
 from svn 13047

 executed on                        Lin64 date 2023.04.27  00:18:46

 INCAR:
 POTCAR:    PAW_PBE Ni 02Aug2007
 POTCAR:    PAW_PBE O 08Apr2002

 POTCAR:    PAW_PBE Ni 02Aug2007

 POTCAR:    PAW_PBE O 08Apr2002

 Optimization of the real space projectors (new method)

 maximal supplied QI-value         = 16.25
 optimisation between [QCUT,QGAM] = [ 11.38, 22.75] = [ 36.24,144.96] Ry
 Optimized for a Real-space Cutoff    1.47 Angstroem

   l    n(q)    QCUT    max X(q) W(low)/X(q) W(high)/X(q)  e(spline)
   2      9    11.376    60.317    0.17E-03    0.16E-04    0.16E-06
   2      9    11.376    55.921    0.17E-03    0.16E-04    0.17E-06
   0     10    11.376    51.690    0.45E-04    0.60E-04    0.21E-06
   0     10    11.376    30.015    0.37E-04    0.55E-04    0.19E-06
   1     10    11.376    18.849    0.83E-04    0.11E-03    0.92E-07
   1     10    11.376    14.624    0.69E-04    0.92E-04    0.82E-07
 Optimization of the real space projectors (new method)

 maximal supplied QI-value         = 24.76
 optimisation between [QCUT,QGAM] = [ 11.39, 22.77] = [ 36.31,145.25] Ry
 Optimized for a Real-space Cutoff    1.10 Angstroem

   l    n(q)    QCUT    max X(q) W(low)/X(q) W(high)/X(q)  e(spline)
   0      7    11.387    20.381    0.22E-03    0.48E-03    0.18E-06
   0      7    11.387    15.268    0.22E-03    0.52E-03    0.19E-06
   1      7    11.387     5.964    0.22E-03    0.73E-03    0.24E-06
   1      7    11.387     5.382    0.19E-03    0.60E-03    0.21E-06

  PAW_PBE Ni 02Aug2007                  :
  PAW_PBE O 08Apr2002                   :

 POSCAR: NiO2_Fd-3m_scale_1_000_disp_0_08_round_1
  positions in direct lattice
 exchange correlation table for  LEXCH =       14
   RHO(1)=    0.500       N(1)  =     2000
   RHO(2)=  100.500       N(2)  =     4000

 ion  position               nearest neighbor table
   1  0.138  0.622  0.131-  22 1.82  41 1.85  28 1.89  24 1.89  47 1.89  43 1.96   3 2.71   2 2.76
                            11 2.76  14 2.78   8 2.81   4 2.82
   2  0.379  0.877  0.124-  29 1.75  41 1.81  19 1.89  18 1.89  46 1.99  24 1.99  12 2.72   4 2.76
                             1 2.76   7 2.77  13 2.79   3 2.83
   3  0.373  0.627  0.383-  27 1.79  18 1.83  44 1.85  21 1.93  47 1.98  41 2.07   1 2.71   4 2.72
                             6 2.75   9 2.79   2 2.83  16 2.94
   4  0.137  0.881  0.379-  20 1.81  18 1.83  30 1.89  47 1.93  24 2.02  45 2.06   3 2.72   5 2.75
                             2 2.76  15 2.76   1 2.82  10 2.94
   5  0.119  0.115  0.637-  39 1.69  35 1.73  30 1.91  33 1.93  32 1.94  20 1.97   7 2.70   4 2.75
                             8 2.76  15 2.77  10 2.81   6 2.83
   6  0.370  0.372  0.622-  38 1.73  32 1.75  21 1.82  33 1.88  27 1.93  26 1.95   8 2.72   3 2.75
                             7 2.78   9 2.78  16 2.81   5 2.83
   7  0.373  0.120  0.869-  19 1.81  39 1.82  29 1.85  33 1.91  36 1.92  26 1.98   5 2.70  12 2.75
                             2 2.77   6 2.78   8 2.78  13 2.81
   8  0.130  0.377  0.871-  32 1.81  28 1.87  22 1.87  39 1.88  26 1.92  37 1.92   6 2.72  14 2.76
                             5 2.76   7 2.78   1 2.81  11 2.91
   9  0.629  0.613  0.629-  25 1.78  44 1.87  38 1.89  27 1.90  40 1.92  31 1.92  10 2.74   6 2.78
                            16 2.79   3 2.79  12 2.86  11 2.89
  10  0.848  0.882  0.616-  45 1.61  40 1.63  25 1.88  30 1.90  35 1.96  34 1.99  15 2.71  12 2.73
                             9 2.74   5 2.81  11 2.94   4 2.94
  11  0.873  0.642  0.901-  34 1.65  43 1.67  31 1.85  28 1.94  37 1.98  25 2.06  14 2.62  12 2.70
                             1 2.76   9 2.89   8 2.91  10 2.94
  12  0.623  0.876  0.880-  34 1.79  31 1.82  40 1.84  46 1.87  29 1.91  36 1.91  11 2.70   2 2.72
                            10 2.73   7 2.75   9 2.86  13 2.86
  13  0.616  0.141  0.130-  19 1.75  48 1.77  23 1.81  36 1.91  46 1.97  17 2.08  16 2.63   2 2.79
                             7 2.81  14 2.82  12 2.86  15 2.87
  14  0.877  0.385  0.113-  37 1.73  43 1.83  22 1.84  48 1.86  17 1.88  42 2.11  11 2.62   8 2.76
                             1 2.78  13 2.82  16 2.86  15 2.90
  15  0.886  0.126  0.375-  17 1.77  42 1.87  45 1.88  35 1.92  20 1.98  23 2.06  16 2.71  10 2.71
                             4 2.76   5 2.77  13 2.87  14 2.90
  16  0.633  0.360  0.381-  23 1.76  48 1.86  38 1.87  42 1.91  21 1.98  44 2.02  13 2.63  15 2.71
                             9 2.79   6 2.81  14 2.86   3 2.94
  17  0.879  0.149  0.151-  15 1.77  14 1.88  13 2.08
  18  0.369  0.859  0.364-   3 1.83   4 1.83   2 1.89
  19  0.397  0.115  0.098-  13 1.75   7 1.81   2 1.89
  20  0.136  0.111  0.387-   4 1.81   5 1.97  15 1.98
  21  0.383  0.383  0.392-   6 1.82   3 1.93  16 1.98
  22  0.110  0.393  0.107-   1 1.82  14 1.84   8 1.87
  23  0.625  0.137  0.359-  16 1.76  13 1.81  15 2.06
  24  0.126  0.862  0.124-   1 1.89   2 1.99   4 2.02
  25  0.853  0.645  0.639-   9 1.78  10 1.88  11 2.06
  26  0.374  0.371  0.870-   8 1.92   6 1.95   7 1.98
  27  0.388  0.617  0.611-   3 1.79   9 1.90   6 1.93
  28  0.118  0.613  0.892-   8 1.87   1 1.89  11 1.94
  29  0.382  0.887  0.902-   2 1.75   7 1.85  12 1.91
  30  0.090  0.875  0.614-   4 1.89  10 1.90   5 1.91
  31  0.641  0.645  0.871-  12 1.82  11 1.85   9 1.92
  32  0.149  0.360  0.642-   6 1.75   8 1.81   5 1.94
  33  0.364  0.133  0.628-   6 1.88   7 1.91   5 1.93
  34  0.848  0.848  0.867-  11 1.65  12 1.79  10 1.99
  35  0.900  0.126  0.619-   5 1.73  15 1.92  10 1.96
  36  0.616  0.118  0.888-  13 1.91  12 1.91   7 1.92
  37  0.887  0.391  0.894-  14 1.73   8 1.92  11 1.98
  38  0.589  0.376  0.614-   6 1.73  16 1.87   9 1.89
  39  0.143  0.140  0.850-   5 1.69   7 1.82   8 1.88
  40  0.646  0.855  0.647-  10 1.63  12 1.84   9 1.92
  41  0.372  0.647  0.120-   2 1.81   1 1.85   3 2.07
  42  0.876  0.363  0.380-  15 1.87  16 1.91  14 2.11
  43  0.889  0.617  0.112-  11 1.67  14 1.83   1 1.96
  44  0.608  0.615  0.392-   3 1.85   9 1.87  16 2.02
  45  0.878  0.890  0.413-  10 1.61  15 1.88   4 2.06
  46  0.631  0.890  0.117-  12 1.87  13 1.97   2 1.99
  47  0.121  0.636  0.371-   1 1.89   4 1.93   3 1.98
  48  0.644  0.363  0.145-  13 1.77  14 1.86  16 1.86

  LATTYP: Found a simple cubic cell.
 ALAT       =     7.8666804200

  Lattice vectors:

 A1 = (   7.8666804200,   0.0000000000,   0.0000000000)
 A2 = (   0.0000000000,   7.8666804200,   0.0000000000)
 A3 = (   0.0000000000,   0.0000000000,   7.8666804200)

Analysis of symmetry for initial positions (statically):
 Subroutine PRICEL returns:
 Original cell was already a primitive cell.

 Routine SETGRP: Setting up the symmetry group for a
 simple cubic supercell.

 Subroutine GETGRP returns: Found  1 space group operations
 (whereof  1 operations were pure point group operations)
 out of a pool of 48 trial point group operations.

The static configuration has the point symmetry C_1 .

Analysis of symmetry for dynamics (positions and initial velocities):
 Subroutine PRICEL returns:
 Original cell was already a primitive cell.

 Routine SETGRP: Setting up the symmetry group for a
 simple cubic supercell.

 Subroutine GETGRP returns: Found  1 space group operations
 (whereof  1 operations were pure point group operations)
 out of a pool of 48 trial point group operations.

The dynamic configuration has the point symmetry C_1 .

 Subroutine INISYM returns: Found  1 space group operations
 (whereof  1 operations are pure point group operations),
 and found     1 'primitive' translations

 KPOINTS: Automatic mesh

Automatic generation of k-mesh.
Space group operators:
 irot       det(A)        alpha          n_x          n_y          n_z        tau_x        tau_y        tau_z
    1     1.000000     0.000000     1.000000     0.000000     0.000000     0.000000     0.000000     0.000000

 Subroutine IBZKPT returns following result:

 Found     36 irreducible k-points:

 Following reciprocal coordinates:
            Coordinates               Weight
  0.000000  0.000000  0.000000      1.000000
  0.250000  0.000000  0.000000      2.000000
  0.500000  0.000000  0.000000      1.000000
  0.000000  0.250000  0.000000      2.000000
  0.250000  0.250000  0.000000      2.000000
  0.500000  0.250000  0.000000      2.000000
 -0.250000  0.250000  0.000000      2.000000
  0.000000  0.500000  0.000000      1.000000
  0.250000  0.500000  0.000000      2.000000
  0.500000  0.500000  0.000000      1.000000
  0.000000  0.000000  0.250000      2.000000
  0.250000  0.000000  0.250000      2.000000
  0.500000  0.000000  0.250000      2.000000
 -0.250000  0.000000  0.250000      2.000000
  0.000000  0.250000  0.250000      2.000000
  0.250000  0.250000  0.250000      2.000000
  0.500000  0.250000  0.250000      2.000000
 -0.250000  0.250000  0.250000      2.000000
  0.000000  0.500000  0.250000      2.000000
  0.250000  0.500000  0.250000      2.000000
  0.500000  0.500000  0.250000      2.000000
 -0.250000  0.500000  0.250000      2.000000
  0.000000 -0.250000  0.250000      2.000000
  0.250000 -0.250000  0.250000      2.000000
  0.500000 -0.250000  0.250000      2.000000
 -0.250000 -0.250000  0.250000      2.000000
  0.000000  0.000000  0.500000      1.000000
  0.250000  0.000000  0.500000      2.000000
  0.500000  0.000000  0.500000      1.000000
  0.000000  0.250000  0.500000      2.000000
  0.250000  0.250000  0.500000      2.000000
  0.500000  0.250000  0.500000      2.000000
 -0.250000  0.250000  0.500000      2.000000
  0.000000  0.500000  0.500000      1.000000
  0.250000  0.500000  0.500000      2.000000
  0.500000  0.500000  0.500000      1.000000

 Following cartesian coordinates:
            Coordinates               Weight
  0.000000  0.000000  0.000000      1.000000
  0.031780  0.000000  0.000000      2.000000
  0.063559  0.000000  0.000000      1.000000
  0.000000  0.031780  0.000000      2.000000
  0.031780  0.031780  0.000000      2.000000
  0.063559  0.031780  0.000000      2.000000
 -0.031780  0.031780  0.000000      2.000000
  0.000000  0.063559  0.000000      1.000000
  0.031780  0.063559  0.000000      2.000000
  0.063559  0.063559  0.000000      1.000000
  0.000000  0.000000  0.031780      2.000000
  0.031780  0.000000  0.031780      2.000000
  0.063559  0.000000  0.031780      2.000000
 -0.031780  0.000000  0.031780      2.000000
  0.000000  0.031780  0.031780      2.000000
  0.031780  0.031780  0.031780      2.000000
  0.063559  0.031780  0.031780      2.000000
 -0.031780  0.031780  0.031780      2.000000
  0.000000  0.063559  0.031780      2.000000
  0.031780  0.063559  0.031780      2.000000
  0.063559  0.063559  0.031780      2.000000
 -0.031780  0.063559  0.031780      2.000000
  0.000000 -0.031780  0.031780      2.000000
  0.031780 -0.031780  0.031780      2.000000
  0.063559 -0.031780  0.031780      2.000000
 -0.031780 -0.031780  0.031780      2.000000
  0.000000  0.000000  0.063559      1.000000
  0.031780  0.000000  0.063559      2.000000
  0.063559  0.000000  0.063559      1.000000
[...]
     24     -14.3473      2.00000
     25     -14.2992      2.00000
     26     -14.2716      2.00000
     27     -14.2448      2.00000
     28     -14.1962      2.00000
     29     -14.1443      2.00000
     30     -14.0872      2.00000
     31     -14.0061      2.00000
     32     -13.9819      2.00000
     33      -3.6554      2.00000
     34      -3.5092      2.00000
     35      -3.4563      2.00000
     36      -3.3599      2.00000
     37      -3.3335      2.00000
     38      -3.2778      2.00000
     39      -3.2191      2.00000
     40      -3.2144      2.00000
     41      -3.1598      2.00000
     42      -3.1146      2.00000
     43      -3.0521      2.00000
     44      -3.0195      2.00000
     45      -3.0119      2.00000
     46      -2.9320      2.00000
     47      -2.8283      2.00000
     48      -2.8125      2.00000
     49      -2.7851      2.00000
     50      -2.7575      2.00000
     51      -2.7215      2.00000
     52      -2.6981      2.00000
     53      -2.6599      2.00000
     54      -2.6368      2.00000
     55      -2.5888      2.00000
     56      -2.5471      2.00000
     57      -2.4955      2.00000
     58      -2.4173      2.00000
     59      -2.3485      2.00000
     60      -2.3376      2.00000
[...]
    210      12.5997      0.00000
    211      12.7301      0.00000
    212      12.7906      0.00000
    213      12.8289      0.00000
    214      12.9406      0.00000
    215      13.0541      0.00000
    216      13.1454      0.00000
    217      15.0566      0.00000
    218      15.0988      0.00000
    219      15.2898      0.00000
    220      15.4558      0.00000
    221      15.4764      0.00000
    222      15.5687      0.00000
    223      15.6042      0.00000
    224      15.6117      0.00000

 soft charge-density along one line, spin component           1
         0         1         2         3         4         5         6         7         8         9
 total charge-density along one line

------------------------ aborting loop because EDIFF is reached ----------------------------------------

  FORCE on cell =-STRESS in cart. coord.  units (eV):
  Direction    XX          YY          ZZ          XY          YZ          ZX
  Alpha Z  1125.84682  1125.84682  1125.84682
  Ewald   -7019.43909 -6972.81878 -6834.56961   290.73252  -106.50912  -123.28474
  Hartree  3583.19597  3612.05132  3646.05918   196.44486   -68.40504   -78.03289
  E(xc)   -1796.75050 -1796.69063 -1797.01782     0.11487    -0.01157    -0.02765
  Local   -3511.21422 -3591.77108 -3745.78874  -476.55451   169.93024   195.26418
  n-local  -765.77522  -767.16074  -760.51712     0.92511    -0.48688    -0.99811
  augment  2995.81047  2997.01856  2989.22308    -4.53708     2.60165     2.96942
  Kinetic  5392.19411  5396.21160  5394.20423    -8.73768     2.15738     3.78794
  Fock        0.00000     0.00000     0.00000     0.00000     0.00000     0.00000
  Total        3.8683401      2.6870625     17.4400173     -1.6119217     -0.7233538     -0.3218467
  in kB       12.7309471      8.8432891     57.3961776     -5.3049341     -2.3806021     -1.0592174

 VOLUME and BASIS-vectors are now :
  energy-cutoff  :      500.00
  volume of cell :      486.83
      direct lattice vectors                 reciprocal lattice vectors
     7.866680420  0.000000000  0.000000000     0.127118422  0.000000000  0.000000000
     0.000000000  7.866680420  0.000000000     0.000000000  0.127118422  0.000000000
     0.000000000  0.000000000  7.866680420     0.000000000  0.000000000  0.127118422

  length of vectors
     7.866680420  7.866680420  7.866680420     0.127118422  0.127118422  0.127118422

 FORCES acting on ions
    electron-ion (+dipol)            ewald-force                    non-local-force                 convergence-correction
   -.286E+02 0.196E+02 -.547E+02   0.284E+02 -.188E+02 0.544E+02   -.184E+01 0.434E+00 -.929E+00   -.151E-01 -.118E-01 0.547E-02
   0.158E+02 -.200E+02 -.856E+02   -.159E+02 0.195E+02 0.870E+02   0.172E+00 0.765E+00 -.156E+00   0.568E-02 0.963E-02 -.111E-02
   0.367E+02 0.164E+02 0.588E+02   -.364E+02 -.170E+02 -.597E+02   -.222E-01 -.473E+00 -.109E+01   -.227E-02 0.614E-02 0.133E-01
   0.131E+02 0.678E+01 0.322E+02   -.140E+02 -.794E+01 -.322E+02   -.182E+01 -.424E+00 -.463E+00   0.145E-02 -.626E-02 0.887E-02
   -.607E+01 0.561E+02 0.178E+02   0.768E+01 -.565E+02 -.214E+02   0.117E+01 0.117E+01 -.780E+00   -.127E-01 0.542E-02 0.227E-01
   0.278E+02 -.272E+02 -.719E+01   -.281E+02 0.268E+02 0.767E+01   0.675E+00 0.472E+00 0.513E+00   0.112E-02 0.654E-02 0.218E-02
   -.846E+01 0.292E+01 0.356E+02   0.101E+02 -.168E+01 -.365E+02   0.972E-01 0.211E+00 0.530E+00   -.141E-01 -.162E-03 0.103E-01
   0.256E+02 -.157E+02 -.749E+01   -.254E+02 0.172E+02 0.847E+01   -.183E+00 -.787E+00 0.260E+00   -.542E-02 -.193E-01 -.198E-02
   -.974E+01 0.711E+02 -.172E+02   0.902E+01 -.714E+02 0.173E+02   -.105E+01 0.147E+01 0.472E+00   -.113E-01 -.209E-02 0.465E-02
   -.117E+02 -.733E+02 -.254E+02   0.171E+02 0.732E+02 0.299E+02   0.132E+01 -.533E+00 0.172E+01   -.154E-02 0.101E-01 -.459E-02
   -.483E+02 0.297E+02 0.470E+02   0.495E+02 -.331E+02 -.513E+02   -.337E+00 -.139E+01 -.181E+01   -.805E-02 -.261E-02 0.188E-01
   0.569E+02 -.566E+02 -.223E+01   -.580E+02 0.578E+02 0.386E+01   0.712E+00 -.544E+00 -.118E+01   0.224E-02 -.338E-02 -.397E-02
   -.436E+02 0.143E+02 0.241E+02   0.457E+02 -.165E+02 -.259E+02   0.150E+01 -.973E+00 0.856E-01   -.126E-01 0.418E-02 0.547E-02
   0.492E+02 0.486E+02 -.833E+02   -.497E+02 -.512E+02 0.869E+02   0.702E+00 0.125E+01 0.117E+01   0.284E-04 0.137E-01 -.822E-02
   -.844E+01 0.508E+01 0.320E+02   0.952E+01 -.366E+01 -.321E+02   -.107E+01 -.568E+00 0.148E+01   -.891E-02 -.615E-02 0.942E-02
   -.231E+02 -.693E+02 -.371E+02   0.225E+02 0.722E+02 0.381E+02   -.862E+00 0.645E+00 -.888E+00   -.421E-02 -.115E-01 0.236E-02
   -.174E+03 0.204E+03 0.212E+03   0.185E+03 -.220E+03 -.230E+03   -.129E+02 0.152E+02 0.172E+02   0.753E-02 0.314E-02 -.902E-02
   -.201E+03 -.192E+03 -.182E+03   0.219E+03 0.209E+03 0.196E+03   -.181E+02 -.163E+02 -.150E+02   0.105E-01 0.793E-02 0.730E-02
   0.230E+03 -.192E+03 -.206E+03   -.250E+03 0.207E+03 0.222E+03   0.180E+02 -.149E+02 -.146E+02   -.979E-02 0.677E-02 0.265E-02
   -.178E+03 -.207E+03 0.198E+03   0.193E+03 0.226E+03 -.210E+03   -.167E+02 -.190E+02 0.131E+02   0.725E-02 0.800E-02 -.326E-02
   0.184E+03 0.164E+03 0.245E+03   -.197E+03 -.178E+03 -.263E+03   0.137E+02 0.145E+02 0.181E+02   -.642E-02 -.628E-02 0.360E-03
   -.207E+03 0.222E+03 -.208E+03   0.222E+03 -.241E+03 0.224E+03   -.144E+02 0.180E+02 -.154E+02   -.394E-02 -.122E-01 -.105E-02
   0.156E+03 0.239E+03 -.202E+03   -.168E+03 -.261E+03 0.219E+03   0.138E+02 0.203E+02 -.165E+02   -.869E-02 -.139E-01 0.112E-01
   0.198E+03 -.211E+03 0.159E+03   -.213E+03 0.225E+03 -.172E+03   0.167E+02 -.145E+02 0.153E+02   -.645E-02 0.916E-02 -.607E-02
   -.244E+03 0.230E+03 0.165E+03   0.265E+03 -.244E+03 -.175E+03   -.203E+02 0.138E+02 0.103E+02   0.587E-02 0.116E-02 0.430E-03
   -.199E+03 -.186E+03 -.202E+03   0.215E+03 0.199E+03 0.216E+03   -.170E+02 -.146E+02 -.158E+02   -.713E-03 0.476E-03 0.243E-03
   0.195E+03 -.206E+03 -.216E+03   -.209E+03 0.221E+03 0.235E+03   0.144E+02 -.157E+02 -.181E+02   -.532E-02 0.190E-02 0.786E-02
   -.178E+03 -.198E+03 0.226E+03   0.191E+03 0.214E+03 -.242E+03   -.142E+02 -.157E+02 0.164E+02   -.167E-02 -.270E-02 -.999E-02
   0.198E+03 0.200E+03 0.232E+03   -.213E+03 -.218E+03 -.250E+03   0.162E+02 0.176E+02 0.162E+02   -.516E-02 -.242E-02 -.668E-02
   -.190E+03 0.214E+03 -.198E+03   0.201E+03 -.231E+03 0.213E+03   -.100E+02 0.188E+02 -.155E+02   -.301E-02 -.478E-02 0.587E-02
   0.217E+03 0.236E+03 -.171E+03   -.235E+03 -.254E+03 0.185E+03   0.164E+02 0.164E+02 -.138E+02   0.777E-03 -.671E-02 0.650E-02
   0.238E+03 -.201E+03 0.211E+03   -.258E+03 0.214E+03 -.229E+03   0.176E+02 -.134E+02 0.176E+02   -.212E-02 0.364E-02 0.218E-02
   -.196E+03 0.217E+03 0.195E+03   0.210E+03 -.232E+03 -.211E+03   -.151E+02 0.151E+02 0.177E+02   0.562E-02 -.500E-03 -.273E-02
   -.239E+03 -.268E+03 -.156E+03   0.257E+03 0.293E+03 0.165E+03   -.171E+02 -.199E+02 -.846E+01   0.694E-02 0.147E-02 0.120E-02
   0.230E+03 -.204E+03 -.189E+03   -.249E+03 0.221E+03 0.203E+03   0.169E+02 -.173E+02 -.140E+02   -.764E-02 0.318E-02 0.978E-02
   -.216E+03 -.196E+03 0.194E+03   0.231E+03 0.211E+03 -.209E+03   -.155E+02 -.158E+02 0.153E+02   0.417E-02 0.653E-02 -.769E-02
   0.190E+03 0.190E+03 0.260E+03   -.205E+03 -.202E+03 -.282E+03   0.154E+02 0.127E+02 0.205E+02   -.164E-02 -.318E-02 0.131E-02
   -.242E+03 0.182E+03 -.196E+03   0.259E+03 -.198E+03 0.213E+03   -.146E+02 0.160E+02 -.166E+02   0.348E-04 -.623E-02 0.930E-02
   0.210E+03 0.187E+03 -.256E+03   -.227E+03 -.201E+03 0.280E+03   0.161E+02 0.132E+02 -.201E+02   -.683E-02 0.111E-02 0.838E-02
   0.281E+03 -.181E+03 0.192E+03   -.308E+03 0.192E+03 -.206E+03   0.217E+02 -.106E+02 0.135E+02   -.144E-02 0.804E-02 -.826E-02
   -.204E+03 0.221E+03 0.146E+03   0.221E+03 -.238E+03 -.159E+03   -.178E+02 0.162E+02 0.155E+02   0.111E-01 -.456E-02 -.526E-02
   -.190E+03 -.215E+03 -.168E+03   0.205E+03 0.231E+03 0.180E+03   -.164E+02 -.168E+02 -.133E+02   0.872E-02 0.550E-02 -.126E-02
   0.173E+03 -.197E+03 -.283E+03   -.185E+03 0.212E+03 0.309E+03   0.125E+02 -.154E+02 -.224E+02   -.121E-01 -.173E-02 0.300E-02
   -.203E+03 -.164E+03 0.216E+03   0.219E+03 0.177E+03 -.232E+03   -.158E+02 -.142E+02 0.166E+02   0.589E-02 0.768E-02 -.461E-02
   0.144E+03 0.188E+03 0.290E+03   -.153E+03 -.205E+03 -.317E+03   0.100E+02 0.173E+02 0.206E+02   -.864E-02 -.805E-02 0.655E-03
   -.200E+03 0.165E+03 -.224E+03   0.215E+03 -.177E+03 0.240E+03   -.172E+02 0.131E+02 -.159E+02   0.602E-02 -.637E-02 0.565E-02
   0.194E+03 0.182E+03 -.190E+03   -.210E+03 -.196E+03 0.205E+03   0.181E+02 0.147E+02 -.162E+02   -.800E-02 -.563E-02 0.101E-01
   0.186E+03 -.232E+03 0.179E+03   -.201E+03 0.253E+03 -.192E+03   0.154E+02 -.198E+02 0.137E+02   0.269E-02 0.109E-01 -.108E-01
   0.955E+00 0.193E+00 -.495E+01   0.227E-12 -.654E-12 -.625E-12   -.839E+00 -.212E+00 0.483E+01   -.102E+00 -.610E-02 0.101E+00

 POSITION                                       TOTAL-FORCE (eV/Angst)
      1.08618      4.89239      1.03286        -2.050494      1.210529     -1.127989
      2.98169      6.90122      0.97899         0.103817      0.349669      1.278063
      2.93566      4.93610      3.01569         0.208569     -1.146769     -1.909404
      1.08070      6.92810      2.98014        -2.662328     -1.596160     -0.441337
      0.93844      0.90272      5.01477         2.765206      0.765060     -4.338168
      2.90757      2.92797      4.89338         0.309914      0.118513      0.988047
      2.93101      0.94251      6.83968         1.772836      1.455304     -0.351564
      1.02003      2.96565      6.84993        -0.071329      0.645322      1.230434
      4.94677      4.81961      4.95027        -1.784226      1.211226      0.536444
      6.67361      6.94119      4.84504         6.700249     -0.640638      6.251980
      6.86970      5.05421      7.08909         0.856847     -4.839417     -6.090767
      4.90120      6.88987      6.91985        -0.385582      0.681290      0.447752
      4.84922      1.10548      1.01874         3.577091     -3.160512     -1.618254
      6.90055      3.02975      0.89153         0.277853     -1.326135      4.749500
      6.96788      0.98788      2.94836         0.007065      0.850199      1.412934
      4.98161      2.82831      2.99968        -1.511826      3.541797      0.132403
      6.91759      1.17488      1.18502        -1.550592     -0.234804     -1.318289
      2.90244      6.75800      2.86311        -0.223939      0.175832     -0.386638
      3.12581      0.90343      0.76733        -2.081482      0.023584      1.306008
      1.07168      0.86997      3.04747        -1.778191     -0.156962      1.030135
      3.01010      3.01025      3.08045         0.541650      0.680360     -0.590118
      0.86850      3.09316      0.84427         0.508980     -0.603389      0.037953
      4.91751      1.07944      2.82726         1.495730     -0.781417      0.521726
      0.99184      6.77914      0.97182         2.021166     -0.354080      1.915744
      6.71157      5.07348      5.03052         0.870515     -0.570939      0.580732
      2.94239      2.92102      6.84790        -1.278234     -1.376038     -1.391789
      3.04895      4.85349      4.80320         0.248147     -0.754280      0.760276
      0.93005      4.82284      7.01935        -0.500772      0.121683      0.339779
      3.00445      6.98088      7.09487         0.766387      0.014403     -1.986672
      0.70568      6.87968      4.82786         0.805359      1.170799      0.147993
      5.03955      5.07219      6.85549        -0.688648     -1.044552     -0.023961
      1.17076      2.82872      5.05279        -1.867027     -0.420043     -0.447120
      2.86555      1.04934      4.93797        -0.640043      0.097741      1.163089
      6.67415      6.67142      6.82110         1.059661      5.064175     -0.157835
      7.08205      0.99348      4.86707        -2.397249     -0.772064     -0.598854
      4.84776      0.93063      6.98690        -0.661572     -0.712792      0.340812
      6.97568      3.07873      7.03154         0.559154      0.623391     -1.880410
      4.63289      2.96068      4.82903         2.924094      0.326570     -0.056107
      1.12607      1.10007      6.68412        -0.510431     -0.100555      3.432738
      5.08069      6.72547      5.09115        -6.031477     -0.129502     -0.416932
      2.92434      5.09332      0.94716        -0.552064     -0.654515      2.182959
      6.89294      2.85518      2.99166        -1.109806     -0.507541     -1.629838
      6.99690      4.85453      0.88036         0.659878      0.023853      3.255085
      4.78285      4.83545      3.08275         0.317244     -1.266900      0.362020
      6.91077      7.00340      3.25011         1.108165      0.688989     -6.613960
      4.96603      7.00422      0.92131        -1.979994      0.984517     -0.321026
      0.95466      5.00315      2.91806         2.080156      1.002193     -0.857565
      5.06675      2.85403      1.13938        -0.228429      1.323007      0.149993
    total drift:                                0.013669     -0.025763     -0.019930

  FREE ENERGIE OF THE ION-ELECTRON SYSTEM (eV)
  free  energy   TOTEN  =      -291.5802471606 eV

  energy  without entropy=     -291.5802471606  energy(sigma->0) =     -291.58024716

volume of typ            1:    20.9 %

volume of typ            2:    10.7 %

total charge

# of ion       s       p       d       tot
    1        0.298   0.405   7.816   8.519
    2        0.300   0.412   7.825   8.537
    3        0.292   0.385   7.815   8.493
    4        0.286   0.370   7.815   8.471
    5        0.321   0.449   7.840   8.610
    6        0.324   0.473   7.833   8.630
    7        0.301   0.411   7.823   8.535
    8        0.298   0.406   7.820   8.523
    9        0.297   0.399   7.821   8.517
   10        0.358   0.514   7.885   8.757
   11        0.339   0.468   7.863   8.670
   12        0.308   0.432   7.833   8.573
   13        0.312   0.424   7.829   8.565
   14        0.313   0.429   7.837   8.579
   15        0.288   0.382   7.820   8.490
   16        0.295   0.392   7.822   8.510
   17        1.287   2.713   0.008   4.007
   18        1.284   2.728   0.009   4.021
   19        1.281   2.757   0.010   4.048
   20        1.292   2.689   0.007   3.988
   21        1.289   2.699   0.007   3.996
   22        1.283   2.738   0.009   4.030
   23        1.289   2.720   0.009   4.018
   24        1.295   2.666   0.006   3.967
   25        1.292   2.706   0.008   4.006
   26        1.294   2.674   0.006   3.974
   27        1.288   2.714   0.008   4.010
   28        1.289   2.702   0.007   3.998
   29        1.284   2.741   0.010   4.036
   30        1.290   2.703   0.007   4.000
   31        1.286   2.724   0.008   4.019
   32        1.284   2.748   0.010   4.042
   33        1.289   2.701   0.007   3.998
   34        1.283   2.780   0.012   4.075
   35        1.285   2.732   0.009   4.026
   36        1.288   2.698   0.007   3.993
   37        1.287   2.725   0.009   4.021
   38        1.282   2.753   0.010   4.045
   39        1.279   2.773   0.012   4.064
   40        1.281   2.786   0.013   4.080
   41        1.291   2.698   0.008   3.997
   42        1.294   2.673   0.006   3.973
   43        1.286   2.753   0.012   4.051
   44        1.289   2.696   0.007   3.992
   45        1.287   2.756   0.012   4.056
   46        1.294   2.677   0.006   3.977
   47        1.291   2.683   0.006   3.980
   48        1.281   2.747   0.010   4.038
tot          46.12   93.80  125.57  265.50