 vasp.5.4.4.18Apr17-6-g9f103f2a35 (build May 12 2020 04:58:55) complex

 MD_VERSION_INFO: Compiled 2020-05-12T11:58:55-UTC in devlin.sd.materialsdesign.
 com:/home/medea2/data/build/wwolf/vasp-gpu5.4.4/13047/x86_64/src/src/build/std
 from svn 13047

 executed on                        Lin64 date 2023.04.27  06:10:50

 INCAR:
 POTCAR:    PAW_PBE Ni 02Aug2007
 POTCAR:    PAW_PBE O 08Apr2002

 POTCAR:    PAW_PBE Ni 02Aug2007

 POTCAR:    PAW_PBE O 08Apr2002

 Optimization of the real space projectors (new method)

 maximal supplied QI-value         = 16.25
 optimisation between [QCUT,QGAM] = [ 11.38, 22.75] = [ 36.24,144.96] Ry
 Optimized for a Real-space Cutoff    1.47 Angstroem

   l    n(q)    QCUT    max X(q) W(low)/X(q) W(high)/X(q)  e(spline)
   2      9    11.376    60.317    0.17E-03    0.16E-04    0.16E-06
   2      9    11.376    55.921    0.17E-03    0.16E-04    0.17E-06
   0     10    11.376    51.690    0.45E-04    0.60E-04    0.21E-06
   0     10    11.376    30.015    0.37E-04    0.55E-04    0.19E-06
   1     10    11.376    18.849    0.83E-04    0.11E-03    0.92E-07
   1     10    11.376    14.624    0.69E-04    0.92E-04    0.82E-07
 Optimization of the real space projectors (new method)

 maximal supplied QI-value         = 24.76
 optimisation between [QCUT,QGAM] = [ 11.39, 22.77] = [ 36.31,145.25] Ry
 Optimized for a Real-space Cutoff    1.10 Angstroem

   l    n(q)    QCUT    max X(q) W(low)/X(q) W(high)/X(q)  e(spline)
   0      7    11.387    20.381    0.22E-03    0.48E-03    0.18E-06
   0      7    11.387    15.268    0.22E-03    0.52E-03    0.19E-06
   1      7    11.387     5.964    0.22E-03    0.73E-03    0.24E-06
   1      7    11.387     5.382    0.19E-03    0.60E-03    0.21E-06

  PAW_PBE Ni 02Aug2007                  :
  PAW_PBE O 08Apr2002                   :

 POSCAR: NiO2_Fd-3m_pris -- File /home/vwiobs1/Me
  positions in direct lattice
 exchange correlation table for  LEXCH =       14
   RHO(1)=    0.500       N(1)  =     2000
   RHO(2)=  100.500       N(2)  =     4000

 ion  position               nearest neighbor table
   1  0.125  0.625  0.125-  22 1.86  24 1.86  28 1.86  41 1.86  43 1.86  47 1.86   2 2.78   3 2.78
                             4 2.78   8 2.78  11 2.78  14 2.78
   2  0.375  0.875  0.125-  18 1.86  19 1.86  24 1.86  29 1.86  41 1.86  46 1.86   1 2.78   3 2.78
                             4 2.78   7 2.78  12 2.78  13 2.78
   3  0.375  0.625  0.375-  18 1.86  21 1.86  27 1.86  41 1.86  44 1.86  47 1.86   1 2.78   2 2.78
                             4 2.78   6 2.78   9 2.78  16 2.78
   4  0.125  0.875  0.375-  18 1.86  20 1.86  24 1.86  30 1.86  45 1.86  47 1.86   1 2.78   2 2.78
                             3 2.78   5 2.78  10 2.78  15 2.78
   5  0.125  0.125  0.625-  20 1.86  30 1.86  32 1.86  33 1.86  35 1.86  39 1.86   4 2.78   6 2.78
                             7 2.78   8 2.78  10 2.78  15 2.78
   6  0.375  0.375  0.625-  21 1.86  26 1.86  27 1.86  32 1.86  33 1.86  38 1.86   3 2.78   5 2.78
                             7 2.78   8 2.78   9 2.78  16 2.78
   7  0.375  0.125  0.875-  19 1.86  26 1.86  29 1.86  33 1.86  36 1.86  39 1.86   2 2.78   5 2.78
                             6 2.78   8 2.78  12 2.78  13 2.78
   8  0.125  0.375  0.875-  22 1.86  26 1.86  28 1.86  32 1.86  37 1.86  39 1.86   1 2.78   5 2.78
                             6 2.78   7 2.78  11 2.78  14 2.78
   9  0.625  0.625  0.625-  25 1.86  27 1.86  31 1.86  38 1.86  40 1.86  44 1.86   3 2.78   6 2.78
                            10 2.78  11 2.78  12 2.78  16 2.78
  10  0.875  0.875  0.625-  25 1.86  30 1.86  34 1.86  35 1.86  40 1.86  45 1.86   4 2.78   5 2.78
                             9 2.78  11 2.78  12 2.78  15 2.78
  11  0.875  0.625  0.875-  25 1.86  28 1.86  31 1.86  34 1.86  37 1.86  43 1.86   1 2.78   8 2.78
                             9 2.78  10 2.78  12 2.78  14 2.78
  12  0.625  0.875  0.875-  29 1.86  31 1.86  34 1.86  36 1.86  40 1.86  46 1.86   2 2.78   7 2.78
                             9 2.78  10 2.78  11 2.78  13 2.78
  13  0.625  0.125  0.125-  17 1.86  19 1.86  23 1.86  36 1.86  46 1.86  48 1.86   2 2.78   7 2.78
                            12 2.78  14 2.78  15 2.78  16 2.78
  14  0.875  0.375  0.125-  17 1.86  22 1.86  37 1.86  42 1.86  43 1.86  48 1.86   1 2.78   8 2.78
                            11 2.78  13 2.78  15 2.78  16 2.78
  15  0.875  0.125  0.375-  17 1.86  20 1.86  23 1.86  35 1.86  42 1.86  45 1.86   4 2.78   5 2.78
                            10 2.78  13 2.78  14 2.78  16 2.78
  16  0.625  0.375  0.375-  21 1.86  23 1.86  38 1.86  42 1.86  44 1.86  48 1.86   3 2.78   6 2.78
                             9 2.78  13 2.78  14 2.78  15 2.78
  17  0.861  0.139  0.139-  13 1.86  14 1.86  15 1.86
  18  0.361  0.861  0.361-   2 1.86   3 1.86   4 1.86
  19  0.389  0.111  0.111-   2 1.86   7 1.86  13 1.86
  20  0.111  0.111  0.389-   4 1.86   5 1.86  15 1.86
  21  0.389  0.389  0.389-   3 1.86   6 1.86  16 1.86
  22  0.111  0.389  0.111-   1 1.86   8 1.86  14 1.86
  23  0.639  0.139  0.361-  13 1.86  15 1.86  16 1.86
  24  0.139  0.861  0.139-   1 1.86   2 1.86   4 1.86
  25  0.861  0.639  0.639-   9 1.86  10 1.86  11 1.86
  26  0.361  0.361  0.861-   6 1.86   7 1.86   8 1.86
  27  0.389  0.611  0.611-   3 1.86   6 1.86   9 1.86
  28  0.111  0.611  0.889-   1 1.86   8 1.86  11 1.86
  29  0.389  0.889  0.889-   2 1.86   7 1.86  12 1.86
  30  0.111  0.889  0.611-   4 1.86   5 1.86  10 1.86
  31  0.639  0.639  0.861-   9 1.86  11 1.86  12 1.86
  32  0.139  0.361  0.639-   5 1.86   6 1.86   8 1.86
  33  0.361  0.139  0.639-   5 1.86   6 1.86   7 1.86
  34  0.861  0.861  0.861-  10 1.86  11 1.86  12 1.86
  35  0.889  0.111  0.611-   5 1.86  10 1.86  15 1.86
  36  0.611  0.111  0.889-   7 1.86  12 1.86  13 1.86
  37  0.889  0.389  0.889-   8 1.86  11 1.86  14 1.86
  38  0.611  0.389  0.611-   6 1.86   9 1.86  16 1.86
  39  0.139  0.139  0.861-   5 1.86   7 1.86   8 1.86
  40  0.639  0.861  0.639-   9 1.86  10 1.86  12 1.86
  41  0.361  0.639  0.139-   1 1.86   2 1.86   3 1.86
  42  0.861  0.361  0.361-  14 1.86  15 1.86  16 1.86
  43  0.889  0.611  0.111-   1 1.86  11 1.86  14 1.86
  44  0.611  0.611  0.389-   3 1.86   9 1.86  16 1.86
  45  0.889  0.889  0.389-   4 1.86  10 1.86  15 1.86
  46  0.611  0.889  0.111-   2 1.86  12 1.86  13 1.86
  47  0.139  0.639  0.361-   1 1.86   3 1.86   4 1.86
  48  0.639  0.361  0.139-  13 1.86  14 1.86  16 1.86

  LATTYP: Found a simple cubic cell.
 ALAT       =     7.8666804200

  Lattice vectors:

 A1 = (   7.8666804200,   0.0000000000,   0.0000000000)
 A2 = (   0.0000000000,   7.8666804200,   0.0000000000)
 A3 = (   0.0000000000,   0.0000000000,   7.8666804200)

Analysis of symmetry for initial positions (statically):
 Subroutine PRICEL returns following result:

  LATTYP: Found a face centered cubic cell.
 ALAT       =     7.8666804200

[...]

   4 primitive cells build up your supercell.

 Routine SETGRP: Setting up the symmetry group for a
 simple cubic supercell.

 Subroutine GETGRP returns: Found 48 space group operations
 (whereof 24 operations were pure point group operations)
 out of a pool of 48 trial point group operations.

The static configuration has the point symmetry T_d .
 The point group associated with its full space group is O_h .

Analysis of symmetry for dynamics (positions and initial velocities):
 Subroutine PRICEL returns following result:

  LATTYP: Found a face centered cubic cell.
 ALAT       =     7.8666804200

  Lattice vectors:

 A1 = (   3.9333402100,   3.9333402100,   0.0000000000)
 A2 = (   3.9333402100,   0.0000000000,  -3.9333402100)
 A3 = (   0.0000000000,   3.9333402100,  -3.9333402100)

   4 primitive cells build up your supercell.

 Routine SETGRP: Setting up the symmetry group for a
 simple cubic supercell.

 Subroutine GETGRP returns: Found 48 space group operations
 (whereof 24 operations were pure point group operations)
 out of a pool of 48 trial point group operations.

The dynamic configuration has the point symmetry T_d .
 The point group associated with its full space group is O_h .

 Subroutine INISYM returns: Found 48 space group operations
 (whereof 24 operations are pure point group operations),
 and found     4 'primitive' translations

 KPOINTS: Automatic mesh

Automatic generation of k-mesh.
Space group operators:
 irot       det(A)        alpha          n_x          n_y          n_z        tau_x        tau_y        tau_z
    1     1.000000     0.000000     1.000000     0.000000     0.000000     0.000000     0.000000     0.000000
    2     1.000000   120.000000    -0.577350    -0.577350    -0.577350     0.000000     0.000000     0.000000
    3     1.000000   120.000000     0.577350     0.577350     0.577350     0.000000     0.000000     0.000000
    4    -1.000000    90.000000     0.000000     0.000000    -1.000000     0.000000     0.000000     0.000000
    5    -1.000000   180.000000     0.000000     0.707107     0.707107     0.000000     0.000000     0.000000
    6    -1.000000    90.000000     0.000000     1.000000     0.000000     0.000000     0.000000     0.000000
    7     1.000000   180.000000     0.000000     0.000000     1.000000     0.000000     0.000000     0.000000
    8     1.000000   120.000000    -0.577350     0.577350     0.577350     0.000000     0.000000     0.000000
    9     1.000000   120.000000    -0.577350     0.577350    -0.577350     0.000000     0.000000     0.000000
   10    -1.000000    90.000000     0.000000     0.000000     1.000000     0.000000     0.000000     0.000000
   11    -1.000000    90.000000    -1.000000     0.000000     0.000000     0.000000     0.000000     0.000000
   12    -1.000000   180.000000     0.707107     0.000000     0.707107     0.000000     0.000000     0.000000
   13     1.000000   120.000000     0.577350    -0.577350     0.577350     0.000000     0.000000     0.000000
   14     1.000000   120.000000    -0.577350    -0.577350     0.577350     0.000000     0.000000     0.000000
   15     1.000000   180.000000     1.000000     0.000000     0.000000     0.000000     0.000000     0.000000
   16    -1.000000    90.000000     0.000000    -1.000000     0.000000     0.000000     0.000000     0.000000
   17    -1.000000   180.000000     0.707107     0.707107     0.000000     0.000000     0.000000     0.000000
   18    -1.000000    90.000000     1.000000     0.000000     0.000000     0.000000     0.000000     0.000000
   19     1.000000   120.000000     0.577350    -0.577350    -0.577350     0.000000     0.000000     0.000000
   20     1.000000   180.000000     0.000000     1.000000     0.000000     0.000000     0.000000     0.000000
   21     1.000000   120.000000     0.577350     0.577350    -0.577350     0.000000     0.000000     0.000000
   22    -1.000000   180.000000     0.000000    -0.707107     0.707107     0.000000     0.000000     0.000000
   23    -1.000000   180.000000     0.707107    -0.707107     0.000000     0.000000     0.000000     0.000000
   24    -1.000000   180.000000     0.707107     0.000000    -0.707107     0.000000     0.000000     0.000000
   25    -1.000000     0.000000     1.000000     0.000000     0.000000     0.750000     0.750000    -0.750000
[...]
     24     -14.5410      2.00000
     25     -14.4431      2.00000
     26     -14.4431      2.00000
     27     -14.4431      2.00000
     28     -14.4431      2.00000
     29     -14.4431      2.00000
     30     -14.4431      2.00000
     31     -14.4431      2.00000
     32     -14.4431      2.00000
     33      -3.1900      2.00000
     34      -3.1900      2.00000
     35      -3.1900      2.00000
     36      -3.1900      2.00000
     37      -3.0863      2.00000
     38      -3.0863      2.00000
     39      -3.0863      2.00000
     40      -3.0863      2.00000
     41      -3.0863      2.00000
     42      -3.0863      2.00000
     43      -3.0863      2.00000
     44      -3.0863      2.00000
     45      -2.7137      2.00000
     46      -2.7137      2.00000
     47      -2.7137      2.00000
     48      -2.7137      2.00000
     49      -2.7137      2.00000
     50      -2.7137      2.00000
     51      -2.7137      2.00000
     52      -2.7137      2.00000
     53      -2.5845      2.00000
     54      -2.5845      2.00000
     55      -2.5845      2.00000
     56      -2.5845      2.00000
     57      -2.5845      2.00000
     58      -2.5845      2.00000
     59      -2.5845      2.00000
     60      -2.5845      2.00000
[...]
    210      12.9966      0.00000
    211      12.9966      0.00000
    212      12.9966      0.00000
    213      13.0333      0.00000
    214      13.0333      0.00000
    215      13.0333      0.00000
    216      13.0333      0.00000
    217      15.6483      0.00000
    218      15.6483      0.00000
    219      15.6483      0.00000
    220      15.6483      0.00000
    221      15.6483      0.00000
    222      15.6483      0.00000
    223      15.6483      0.00000
    224      15.6483      0.00000

 soft charge-density along one line, spin component           1
         0         1         2         3         4         5         6         7         8         9
 total charge-density along one line

------------------------ aborting loop because EDIFF is reached ----------------------------------------

  FORCE on cell =-STRESS in cart. coord.  units (eV):
  Direction    XX          YY          ZZ          XY          YZ          ZX
  Alpha Z  1125.84682  1125.84682  1125.84682
  Ewald   -6882.85386 -6882.85386 -6882.85386    -0.00000    -0.00000    -0.00000
  Hartree  3673.22772  3673.22772  3673.22772    -0.00000    -0.00000    -0.00000
  E(xc)   -1797.34145 -1797.34145 -1797.34145    -0.00000     0.00000     0.00000
  Local   -3739.95832 -3739.95832 -3739.95832    -0.00000    -0.00000    -0.00000
  n-local  -765.84469  -768.09195  -769.94667     0.49999     0.42712     0.18320
  augment  2994.99788  2994.99788  2994.99788     0.00000     0.00000     0.00000
  Kinetic  5387.65046  5395.46141  5401.33838    -1.42815    -1.18480    -0.51585
  Fock        0.00000     0.00000     0.00000     0.00000     0.00000     0.00000
  Total        0.7744402      0.7744402      0.7744402      0.0000000      0.0000000     -0.0000000
  in kB        2.5487306      2.5487306      2.5487306      0.0000000      0.0000000     -0.0000000

 VOLUME and BASIS-vectors are now :
  energy-cutoff  :      500.00
  volume of cell :      486.83
      direct lattice vectors                 reciprocal lattice vectors
     7.866680420  0.000000000  0.000000000     0.127118422  0.000000000  0.000000000
     0.000000000  7.866680420  0.000000000     0.000000000  0.127118422  0.000000000
     0.000000000  0.000000000  7.866680420     0.000000000  0.000000000  0.127118422

  length of vectors
     7.866680420  7.866680420  7.866680420     0.127118422  0.127118422  0.127118422

 FORCES acting on ions
    electron-ion (+dipol)            ewald-force                    non-local-force                 convergence-correction
   -.976E-12 -.410E-11 0.666E-11   0.136E-12 -.355E-14 0.215E-13   0.910E-22 -.778E-22 0.331E-22   -.285E-12 0.100E-12 0.539E-14
   -.236E-11 0.638E-11 -.303E-11   0.178E-12 0.666E-14 -.353E-13   -.678E-22 0.277E-22 -.827E-22   0.841E-13 0.439E-12 -.209E-12
   -.280E-11 0.398E-11 -.511E-11   0.639E-13 0.249E-13 0.178E-13   0.154E-22 0.612E-22 -.558E-22   -.218E-13 0.234E-13 0.312E-12
   0.835E-12 -.109E-11 0.683E-11   0.859E-13 -.122E-13 -.107E-13   -.372E-22 -.617E-22 0.120E-21   -.111E-12 0.217E-13 0.690E-13
   -.101E-11 -.309E-11 0.542E-11   0.163E-12 0.124E-13 0.693E-13   0.213E-21 -.414E-22 0.347E-22   -.284E-12 -.111E-12 0.933E-13
   -.503E-11 -.249E-11 -.191E-11   0.213E-12 0.417E-13 0.102E-12   -.133E-21 0.844E-22 -.108E-22   0.256E-13 0.269E-12 -.114E-12
   0.579E-12 0.126E-12 0.132E-11   0.817E-13 0.142E-13 0.639E-13   0.490E-22 0.662E-22 -.562E-22   -.538E-13 -.265E-12 0.227E-12
   0.871E-12 -.270E-11 0.641E-11   -.342E-13 -.822E-14 0.639E-13   -.662E-23 -.910E-22 0.728E-22   -.825E-13 -.105E-12 -.643E-13
   -.303E-11 -.733E-11 0.122E-10   0.197E-12 0.391E-13 0.924E-13   0.109E-21 -.860E-22 -.414E-23   -.265E-12 0.223E-12 -.123E-13
   0.353E-11 -.419E-11 -.110E-10   0.139E-12 0.653E-13 0.520E-13   -.109E-21 0.106E-21 0.199E-22   -.212E-13 0.310E-12 -.165E-12
   -.355E-11 -.487E-11 -.284E-11   0.320E-13 0.355E-14 0.121E-12   0.119E-21 0.124E-23 -.265E-22   -.841E-13 -.266E-13 0.124E-12
   -.276E-11 -.479E-11 0.498E-11   0.693E-13 0.657E-13 -.142E-13   0.135E-22 -.381E-22 0.175E-21   -.188E-12 0.629E-13 -.147E-12
   0.598E-11 -.803E-11 0.169E-11   0.146E-12 0.284E-13 0.817E-13   0.155E-21 -.798E-22 -.285E-22   -.428E-12 -.138E-12 -.867E-13
   0.132E-11 0.163E-10 0.158E-10   0.171E-12 0.160E-13 0.853E-13   -.670E-22 0.126E-21 -.579E-23   0.877E-13 0.311E-12 -.202E-12
   -.696E-11 0.159E-10 -.303E-11   0.426E-13 0.213E-13 0.149E-12   -.232E-22 0.529E-22 -.102E-21   -.790E-13 -.296E-12 0.352E-12
   -.372E-12 -.523E-11 0.144E-10   0.586E-13 0.746E-13 0.284E-13   -.331E-22 0.331E-23 0.142E-21   -.148E-12 0.129E-13 0.355E-13
   -.210E+03 0.210E+03 0.210E+03   0.226E+03 -.226E+03 -.226E+03   -.161E+02 0.161E+02 0.161E+02   0.782E-02 -.782E-02 -.782E-02
   -.210E+03 -.210E+03 -.210E+03   0.226E+03 0.226E+03 0.226E+03   -.161E+02 -.161E+02 -.161E+02   0.782E-02 0.782E-02 0.782E-02
   0.210E+03 -.210E+03 -.210E+03   -.226E+03 0.226E+03 0.226E+03   0.161E+02 -.161E+02 -.161E+02   -.782E-02 0.782E-02 0.782E-02
   -.210E+03 -.210E+03 0.210E+03   0.226E+03 0.226E+03 -.226E+03   -.161E+02 -.161E+02 0.161E+02   0.782E-02 0.782E-02 -.782E-02
   0.210E+03 0.210E+03 0.210E+03   -.226E+03 -.226E+03 -.226E+03   0.161E+02 0.161E+02 0.161E+02   -.782E-02 -.782E-02 -.782E-02
   -.210E+03 0.210E+03 -.210E+03   0.226E+03 -.226E+03 0.226E+03   -.161E+02 0.161E+02 -.161E+02   0.782E-02 -.782E-02 0.782E-02
   0.210E+03 0.210E+03 -.210E+03   -.226E+03 -.226E+03 0.226E+03   0.161E+02 0.161E+02 -.161E+02   -.782E-02 -.782E-02 0.782E-02
   0.210E+03 -.210E+03 0.210E+03   -.226E+03 0.226E+03 -.226E+03   0.161E+02 -.161E+02 0.161E+02   -.782E-02 0.782E-02 -.782E-02
   -.210E+03 0.210E+03 0.210E+03   0.226E+03 -.226E+03 -.226E+03   -.161E+02 0.161E+02 0.161E+02   0.782E-02 -.782E-02 -.782E-02
   -.210E+03 -.210E+03 -.210E+03   0.226E+03 0.226E+03 0.226E+03   -.161E+02 -.161E+02 -.161E+02   0.782E-02 0.782E-02 0.782E-02
   0.210E+03 -.210E+03 -.210E+03   -.226E+03 0.226E+03 0.226E+03   0.161E+02 -.161E+02 -.161E+02   -.782E-02 0.782E-02 0.782E-02
   -.210E+03 -.210E+03 0.210E+03   0.226E+03 0.226E+03 -.226E+03   -.161E+02 -.161E+02 0.161E+02   0.782E-02 0.782E-02 -.782E-02
   0.210E+03 0.210E+03 0.210E+03   -.226E+03 -.226E+03 -.226E+03   0.161E+02 0.161E+02 0.161E+02   -.782E-02 -.782E-02 -.782E-02
   -.210E+03 0.210E+03 -.210E+03   0.226E+03 -.226E+03 0.226E+03   -.161E+02 0.161E+02 -.161E+02   0.782E-02 -.782E-02 0.782E-02
   0.210E+03 0.210E+03 -.210E+03   -.226E+03 -.226E+03 0.226E+03   0.161E+02 0.161E+02 -.161E+02   -.782E-02 -.782E-02 0.782E-02
   0.210E+03 -.210E+03 0.210E+03   -.226E+03 0.226E+03 -.226E+03   0.161E+02 -.161E+02 0.161E+02   -.782E-02 0.782E-02 -.782E-02
   -.210E+03 0.210E+03 0.210E+03   0.226E+03 -.226E+03 -.226E+03   -.161E+02 0.161E+02 0.161E+02   0.782E-02 -.782E-02 -.782E-02
   -.210E+03 -.210E+03 -.210E+03   0.226E+03 0.226E+03 0.226E+03   -.161E+02 -.161E+02 -.161E+02   0.782E-02 0.782E-02 0.782E-02
   0.210E+03 -.210E+03 -.210E+03   -.226E+03 0.226E+03 0.226E+03   0.161E+02 -.161E+02 -.161E+02   -.782E-02 0.782E-02 0.782E-02
   -.210E+03 -.210E+03 0.210E+03   0.226E+03 0.226E+03 -.226E+03   -.161E+02 -.161E+02 0.161E+02   0.782E-02 0.782E-02 -.782E-02
   0.210E+03 0.210E+03 0.210E+03   -.226E+03 -.226E+03 -.226E+03   0.161E+02 0.161E+02 0.161E+02   -.782E-02 -.782E-02 -.782E-02
   -.210E+03 0.210E+03 -.210E+03   0.226E+03 -.226E+03 0.226E+03   -.161E+02 0.161E+02 -.161E+02   0.782E-02 -.782E-02 0.782E-02
   0.210E+03 0.210E+03 -.210E+03   -.226E+03 -.226E+03 0.226E+03   0.161E+02 0.161E+02 -.161E+02   -.782E-02 -.782E-02 0.782E-02
   0.210E+03 -.210E+03 0.210E+03   -.226E+03 0.226E+03 -.226E+03   0.161E+02 -.161E+02 0.161E+02   -.782E-02 0.782E-02 -.782E-02
   -.210E+03 0.210E+03 0.210E+03   0.226E+03 -.226E+03 -.226E+03   -.161E+02 0.161E+02 0.161E+02   0.782E-02 -.782E-02 -.782E-02
   -.210E+03 -.210E+03 -.210E+03   0.226E+03 0.226E+03 0.226E+03   -.161E+02 -.161E+02 -.161E+02   0.782E-02 0.782E-02 0.782E-02
   0.210E+03 -.210E+03 -.210E+03   -.226E+03 0.226E+03 0.226E+03   0.161E+02 -.161E+02 -.161E+02   -.782E-02 0.782E-02 0.782E-02
   -.210E+03 -.210E+03 0.210E+03   0.226E+03 0.226E+03 -.226E+03   -.161E+02 -.161E+02 0.161E+02   0.782E-02 0.782E-02 -.782E-02
   0.210E+03 0.210E+03 0.210E+03   -.226E+03 -.226E+03 -.226E+03   0.161E+02 0.161E+02 0.161E+02   -.782E-02 -.782E-02 -.782E-02
   -.210E+03 0.210E+03 -.210E+03   0.226E+03 -.226E+03 0.226E+03   -.161E+02 0.161E+02 -.161E+02   0.782E-02 -.782E-02 0.782E-02
   0.210E+03 0.210E+03 -.210E+03   -.226E+03 -.226E+03 0.226E+03   0.161E+02 0.161E+02 -.161E+02   -.782E-02 -.782E-02 0.782E-02
   0.210E+03 -.210E+03 0.210E+03   -.226E+03 0.226E+03 -.226E+03   0.161E+02 -.161E+02 0.161E+02   -.782E-02 0.782E-02 -.782E-02
   0.141E-11 0.365E-10 0.463E-10   0.455E-12 0.483E-12 0.597E-12   0.711E-14 -.142E-13 0.178E-13   -.253E-11 0.975E-12 0.406E-12

 POSITION                                       TOTAL-FORCE (eV/Angst)
      0.98334      4.91668      0.98334         0.000000      0.000000      0.000000
      2.95001      6.88335      0.98334         0.000000      0.000000      0.000000
      2.95001      4.91668      2.95001         0.000000      0.000000      0.000000
      0.98334      6.88335      2.95001         0.000000      0.000000      0.000000
      0.98334      0.98334      4.91668         0.000000      0.000000      0.000000
      2.95001      2.95001      4.91668         0.000000      0.000000      0.000000
      2.95001      0.98334      6.88335         0.000000      0.000000      0.000000
      0.98334      2.95001      6.88335         0.000000      0.000000      0.000000
      4.91668      4.91668      4.91668         0.000000      0.000000      0.000000
      6.88335      6.88335      4.91668         0.000000      0.000000      0.000000
      6.88335      4.91668      6.88335         0.000000      0.000000      0.000000
      4.91668      6.88335      6.88335         0.000000      0.000000      0.000000
      4.91668      0.98334      0.98334         0.000000      0.000000      0.000000
      6.88335      2.95001      0.98334         0.000000      0.000000      0.000000
      6.88335      0.98334      2.95001         0.000000      0.000000      0.000000
      4.91668      2.95001      2.95001         0.000000      0.000000      0.000000
      6.77285      1.09383      1.09383        -0.001010      0.001010      0.001010
      2.83951      6.77285      2.83951        -0.001010     -0.001010     -0.001010
      3.06050      0.87284      0.87284         0.001010     -0.001010     -0.001010
      0.87284      0.87284      3.06050        -0.001010     -0.001010      0.001010
      3.06050      3.06050      3.06050         0.001010      0.001010      0.001010
      0.87284      3.06050      0.87284        -0.001010      0.001010     -0.001010
      5.02717      1.09383      2.83951         0.001010      0.001010     -0.001010
      1.09383      6.77285      1.09383         0.001010     -0.001010      0.001010
      6.77285      5.02717      5.02717        -0.001010      0.001010      0.001010
      2.83951      2.83951      6.77285        -0.001010     -0.001010     -0.001010
      3.06050      4.80618      4.80618         0.001010     -0.001010     -0.001010
      0.87284      4.80618      6.99384        -0.001010     -0.001010      0.001010
      3.06050      6.99384      6.99384         0.001010      0.001010      0.001010
      0.87284      6.99384      4.80618        -0.001010      0.001010     -0.001010
      5.02717      5.02717      6.77285         0.001010      0.001010     -0.001010
      1.09383      2.83951      5.02717         0.001010     -0.001010      0.001010
      2.83951      1.09383      5.02717        -0.001010      0.001010      0.001010
      6.77285      6.77285      6.77285        -0.001010     -0.001010     -0.001010
      6.99384      0.87284      4.80618         0.001010     -0.001010     -0.001010
      4.80618      0.87284      6.99384        -0.001010     -0.001010      0.001010
      6.99384      3.06050      6.99384         0.001010      0.001010      0.001010
      4.80618      3.06050      4.80618        -0.001010      0.001010     -0.001010
      1.09383      1.09383      6.77285         0.001010      0.001010     -0.001010
      5.02717      6.77285      5.02717         0.001010     -0.001010      0.001010
      2.83951      5.02717      1.09383        -0.001010      0.001010      0.001010
      6.77285      2.83951      2.83951        -0.001010     -0.001010     -0.001010
      6.99384      4.80618      0.87284         0.001010     -0.001010     -0.001010
      4.80618      4.80618      3.06050        -0.001010     -0.001010      0.001010
      6.99384      6.99384      3.06050         0.001010      0.001010      0.001010
      4.80618      6.99384      0.87284        -0.001010      0.001010     -0.001010
      1.09383      5.02717      2.83951         0.001010      0.001010     -0.001010
      5.02717      2.83951      1.09383         0.001010     -0.001010      0.001010
    total drift:                               -0.000000      0.000000      0.000000

  FREE ENERGIE OF THE ION-ELECTRON SYSTEM (eV)
  free  energy   TOTEN  =      -299.3410426828 eV

  energy  without entropy=     -299.3410426828  energy(sigma->0) =     -299.34104268

volume of typ            1:    20.9 %

volume of typ            2:    10.7 %

total charge

# of ion       s       p       d       tot
    1        0.306   0.424   7.821   8.551
    2        0.306   0.425   7.817   8.547
    3        0.306   0.425   7.816   8.547
    4        0.306   0.425   7.818   8.549
    5        0.306   0.424   7.821   8.551
    6        0.306   0.425   7.817   8.547
    7        0.306   0.425   7.816   8.547
    8        0.306   0.425   7.818   8.549
    9        0.306   0.424   7.821   8.551
   10        0.306   0.425   7.817   8.547
   11        0.306   0.425   7.816   8.547
   12        0.306   0.425   7.818   8.549
   13        0.306   0.424   7.821   8.551
   14        0.306   0.425   7.817   8.547
   15        0.306   0.425   7.816   8.547
   16        0.306   0.425   7.818   8.549
   17        1.285   2.725   0.008   4.018
   18        1.285   2.725   0.008   4.018
   19        1.285   2.725   0.008   4.018
   20        1.285   2.724   0.008   4.018
   21        1.285   2.725   0.008   4.018
   22        1.285   2.724   0.008   4.017
   23        1.285   2.724   0.008   4.018
   24        1.285   2.724   0.008   4.017
   25        1.285   2.725   0.008   4.018
   26        1.285   2.725   0.008   4.018
   27        1.285   2.725   0.008   4.018
   28        1.285   2.724   0.008   4.018
   29        1.285   2.725   0.008   4.018
   30        1.285   2.724   0.008   4.017
   31        1.285   2.724   0.008   4.018
   32        1.285   2.724   0.008   4.017
   33        1.285   2.725   0.008   4.018
   34        1.285   2.725   0.008   4.018
   35        1.285   2.725   0.008   4.018
   36        1.285   2.724   0.008   4.018
   37        1.285   2.725   0.008   4.018
   38        1.285   2.724   0.008   4.017
   39        1.285   2.724   0.008   4.018
   40        1.285   2.724   0.008   4.017
   41        1.285   2.725   0.008   4.018
   42        1.285   2.725   0.008   4.018
   43        1.285   2.725   0.008   4.018
   44        1.285   2.724   0.008   4.018
   45        1.285   2.725   0.008   4.018
   46        1.285   2.724   0.008   4.017
   47        1.285   2.724   0.008   4.018
   48        1.285   2.724   0.008   4.017
tot          46.00   93.98  125.36  265.34