 vasp.5.4.4.18Apr17-6-g9f103f2a35 (build May 12 2020 04:58:55) complex

 MD_VERSION_INFO: Compiled 2020-05-12T11:58:55-UTC in devlin.sd.materialsdesign.
 com:/home/medea2/data/build/wwolf/vasp-gpu5.4.4/13047/x86_64/src/src/build/std
 from svn 13047

 executed on                        Lin64 date 2023.04.27  06:16:31

 INCAR:
 POTCAR:    PAW_PBE Ni 02Aug2007
 POTCAR:    PAW_PBE O 08Apr2002

 POTCAR:    PAW_PBE Ni 02Aug2007

 POTCAR:    PAW_PBE O 08Apr2002

 Optimization of the real space projectors (new method)

 maximal supplied QI-value         = 16.25
 optimisation between [QCUT,QGAM] = [ 11.38, 22.75] = [ 36.24,144.96] Ry
 Optimized for a Real-space Cutoff    1.47 Angstroem

   l    n(q)    QCUT    max X(q) W(low)/X(q) W(high)/X(q)  e(spline)
   2      9    11.376    60.317    0.17E-03    0.16E-04    0.16E-06
   2      9    11.376    55.921    0.17E-03    0.16E-04    0.17E-06
   0     10    11.376    51.690    0.45E-04    0.60E-04    0.21E-06
   0     10    11.376    30.015    0.37E-04    0.55E-04    0.19E-06
   1     10    11.376    18.849    0.83E-04    0.11E-03    0.92E-07
   1     10    11.376    14.624    0.69E-04    0.92E-04    0.82E-07
 Optimization of the real space projectors (new method)

 maximal supplied QI-value         = 24.76
 optimisation between [QCUT,QGAM] = [ 11.39, 22.77] = [ 36.31,145.25] Ry
 Optimized for a Real-space Cutoff    1.10 Angstroem

   l    n(q)    QCUT    max X(q) W(low)/X(q) W(high)/X(q)  e(spline)
   0      7    11.387    20.381    0.22E-03    0.48E-03    0.18E-06
   0      7    11.387    15.268    0.22E-03    0.52E-03    0.19E-06
   1      7    11.387     5.964    0.22E-03    0.73E-03    0.24E-06
   1      7    11.387     5.382    0.19E-03    0.60E-03    0.21E-06

  PAW_PBE Ni 02Aug2007                  :
  PAW_PBE O 08Apr2002                   :

 POSCAR: NiO2_C2_m_scale_1_050_disp_0_12_round_2
  positions in direct lattice
 exchange correlation table for  LEXCH =       14
   RHO(1)=    0.500       N(1)  =     2000
   RHO(2)=  100.500       N(2)  =     4000

 ion  position               nearest neighbor table
   1  0.982  0.009  0.005-  19 1.92  51 2.01  46 2.25  22 2.40  27 2.47   9 2.89   3 2.90  17 2.97
                             7 3.01
   2  0.983  0.010  0.461-  21 1.92  20 1.98  53 2.01  44 2.05  52 2.21   4 2.71  14 2.91  10 3.06

   3  0.997  0.345  0.986-  23 1.80  26 1.94  50 2.06  46 2.12  19 2.13   5 2.44  43 2.44  11 2.78
                             1 2.90
   4  0.966  0.309  0.472-  44 1.77  24 2.07  45 2.07  48 2.14  25 2.18  21 2.27   6 2.70   2 2.71
                            14 2.83  16 3.07
   5  0.992  0.620  0.996-  23 1.86  47 1.91  27 2.00  50 2.07  30 2.13   3 2.44  54 2.50  11 2.83
                            15 3.06
   6  0.988  0.627  0.487-  29 1.70  25 1.79  49 2.01  48 2.02  28 2.11  52 2.37   4 2.70   8 2.99
                            16 3.03  12 3.05
   7  0.319  0.999  0.993-  31 1.86  27 2.01  34 2.01  22 2.21  39 2.24  30 2.50  13 2.52   9 2.60
                            15 2.67   1 3.01
   8  0.320  0.976  0.476-  32 1.92  29 2.04  41 2.06  20 2.07  28 2.07  33 2.11  14 2.79  16 2.81
                             6 2.99  12 3.03
   9  0.337  0.303  0.999-  31 1.40  19 2.05  22 2.09  35 2.12  38 2.14  26 2.41  15 2.45   7 2.60
                             1 2.89  17 2.98
  10  0.340  0.349  0.465-  37 1.44  36 1.70  24 1.87  20 2.01  33 2.17  21 2.22  18 2.46  12 2.57
                            16 2.62   2 3.06
  11  0.326  0.648  0.970-  26 1.76  42 1.97  30 2.02  35 2.02  39 2.22  23 2.32  13 2.76   3 2.78
                             5 2.83  17 2.90
  12  0.342  0.642  0.478-  37 1.73  24 1.87  41 1.90  40 1.94  25 1.99  28 2.03  18 2.40  10 2.57
                            14 2.86   8 3.03   6 3.05
  13  0.598  0.985  0.019-  43 1.60  39 1.76  34 2.09  51 2.29  42 2.46  46 2.50   7 2.52  15 2.75
                            11 2.76
  14  0.643  0.988  0.489-  44 1.69  45 1.84  41 1.94  32 2.07  53 2.10  40 2.20   8 2.79   4 2.83
                            12 2.86   2 2.91  18 2.96  16 2.98
  15  0.617  0.307  0.012-  31 1.74  43 1.91  47 2.01  34 2.20  38 2.25  50 2.30   9 2.45   7 2.67
                            13 2.75  17 2.91   5 3.06
  16  0.619  0.314  0.484-  33 1.58  36 1.73  32 1.73  49 1.74  45 1.84  48 2.09  10 2.62   8 2.81
                            18 2.86  14 2.98   6 3.03   4 3.07
  17  0.659  0.657  0.994-  51 1.64  42 1.92  47 1.95  35 1.97  38 2.07  54 2.11  11 2.90  15 2.91
                             1 2.97   9 2.98
  18  0.612  0.636  0.486-  37 1.85  53 1.88  40 1.91  52 1.93  36 1.98  49 2.05  12 2.40  10 2.46
                            16 2.86  14 2.96
  19  0.109  0.225  0.107-   1 1.92   9 2.05   3 2.13
  20  0.218  0.112  0.375-   2 1.98  10 2.01   8 2.07
  21  0.103  0.194  0.594-   2 1.92  10 2.22   4 2.27
  22  0.219  0.117  0.843-   9 2.09   7 2.21   1 2.40
  23  0.082  0.517  0.114-   3 1.80   5 1.86  11 2.32
  24  0.209  0.435  0.377-  10 1.87  12 1.87   4 2.07
  25  0.118  0.557  0.581-   6 1.79  12 1.99   4 2.18
  26  0.210  0.451  0.876-  11 1.76   3 1.94   9 2.41
  27  0.108  0.839  0.108-   5 2.00   7 2.01   1 2.47
  28  0.217  0.743  0.366-  12 2.03   8 2.07   6 2.11
  29  0.097  0.812  0.583-   6 1.70   8 2.04
  30  0.196  0.729  0.846-  11 2.02   5 2.13   7 2.50
  31  0.405  0.217  0.078-   9 1.40  15 1.74   7 1.86
  32  0.541  0.123  0.387-  16 1.73   8 1.92  14 2.07
  33  0.453  0.218  0.581-  16 1.58   8 2.11  10 2.17
  34  0.522  0.093  0.860-   7 2.01  13 2.09  15 2.20
  35  0.437  0.550  0.099-  17 1.97  11 2.02   9 2.12
  36  0.533  0.415  0.382-  10 1.70  16 1.73  18 1.98
  37  0.390  0.495  0.557-  10 1.44  12 1.73  18 1.85
  38  0.545  0.449  0.856-  17 2.07   9 2.14  15 2.25
  39  0.417  0.859  0.128-  13 1.76  11 2.22   7 2.24
  40  0.543  0.754  0.357-  18 1.91  12 1.94  14 2.20
  41  0.423  0.849  0.586-  12 1.90  14 1.94   8 2.06
  42  0.548  0.740  0.868-  17 1.92  11 1.97  13 2.46
  43  0.709  0.172  0.093-  13 1.60  15 1.91   3 2.44
  44  0.825  0.105  0.392-  14 1.69   4 1.77   2 2.05
  45  0.725  0.205  0.569-  16 1.84  14 1.84   4 2.07
  46  0.859  0.118  0.862-   3 2.12   1 2.25  13 2.50
  47  0.775  0.548  0.091-   5 1.91  17 1.95  15 2.01
  48  0.842  0.425  0.357-   6 2.02  16 2.09   4 2.14
  49  0.742  0.516  0.564-  16 1.74   6 2.01  18 2.05
  50  0.850  0.412  0.862-   3 2.06   5 2.07  15 2.30
  51  0.742  0.840  0.082-  17 1.64   1 2.01  13 2.29
  52  0.825  0.741  0.378-  18 1.93   2 2.21   6 2.37
  53  0.764  0.853  0.569-  18 1.88   2 2.01  14 2.10
  54  0.857  0.748  0.841-  17 2.11   5 2.50

  LATTYP: Found a hexagonal cell.
 ALAT       =     8.7810134983
 C/A-ratio  =     1.1065328053

  Lattice vectors:

 A1 = (   8.7810135000,   0.0000000000,   0.0000000000)
 A2 = (  -4.3905067500,   7.6045807600,   0.0000000000)
 A3 = (   0.0000000000,   0.0000000000,   9.7164795000)

Analysis of symmetry for initial positions (statically):
 Subroutine PRICEL returns:
 Original cell was already a primitive cell.

 Routine SETGRP: Setting up the symmetry group for a
 hexagonal supercell.

 Subroutine GETGRP returns: Found  1 space group operations
 (whereof  1 operations were pure point group operations)
 out of a pool of 24 trial point group operations.

The static configuration has the point symmetry C_1 .

Analysis of symmetry for dynamics (positions and initial velocities):
 Subroutine PRICEL returns:
 Original cell was already a primitive cell.

 Routine SETGRP: Setting up the symmetry group for a
 hexagonal supercell.

 Subroutine GETGRP returns: Found  1 space group operations
 (whereof  1 operations were pure point group operations)
 out of a pool of 24 trial point group operations.

The dynamic configuration has the point symmetry C_1 .

 Subroutine INISYM returns: Found  1 space group operations
 (whereof  1 operations are pure point group operations),
 and found     1 'primitive' translations

 KPOINTS: Automatic mesh

Automatic generation of k-mesh.
Space group operators:
 irot       det(A)        alpha          n_x          n_y          n_z        tau_x        tau_y        tau_z
    1     1.000000     0.000000     1.000000     0.000000     0.000000     0.000000     0.000000     0.000000

 Subroutine IBZKPT returns following result:

 Found     26 irreducible k-points:

 Following reciprocal coordinates:
            Coordinates               Weight
  0.000000  0.000000  0.000000      1.000000
  0.250000  0.000000  0.000000      2.000000
  0.500000  0.000000  0.000000      1.000000
  0.000000  0.250000  0.000000      2.000000
  0.250000  0.250000  0.000000      2.000000
  0.500000  0.250000  0.000000      2.000000
 -0.250000  0.250000  0.000000      2.000000
  0.000000  0.500000  0.000000      1.000000
  0.250000  0.500000  0.000000      2.000000
  0.500000  0.500000  0.000000      1.000000
  0.000000  0.000000  0.333333      2.000000
  0.250000  0.000000  0.333333      2.000000
  0.500000  0.000000  0.333333      2.000000
 -0.250000  0.000000  0.333333      2.000000
  0.000000  0.250000  0.333333      2.000000
  0.250000  0.250000  0.333333      2.000000
  0.500000  0.250000  0.333333      2.000000
 -0.250000  0.250000  0.333333      2.000000
  0.000000  0.500000  0.333333      2.000000
  0.250000  0.500000  0.333333      2.000000
  0.500000  0.500000  0.333333      2.000000
 -0.250000  0.500000  0.333333      2.000000
  0.000000 -0.250000  0.333333      2.000000
  0.250000 -0.250000  0.333333      2.000000
  0.500000 -0.250000  0.333333      2.000000
 -0.250000 -0.250000  0.333333      2.000000

 Following cartesian coordinates:
            Coordinates               Weight
  0.000000  0.000000  0.000000      1.000000
  0.028471  0.016437  0.000000      2.000000
  0.056941  0.032875  0.000000      1.000000
  0.000000  0.032875  0.000000      2.000000
  0.028471  0.049312  0.000000      2.000000
  0.056941  0.065750  0.000000      2.000000
 -0.028471  0.016437  0.000000      2.000000
  0.000000  0.065750  0.000000      1.000000
  0.028471  0.082187  0.000000      2.000000
  0.056941  0.098625  0.000000      1.000000
  0.000000  0.000000  0.034306      2.000000
  0.028471  0.016437  0.034306      2.000000
  0.056941  0.032875  0.034306      2.000000
 -0.028471 -0.016437  0.034306      2.000000
  0.000000  0.032875  0.034306      2.000000
  0.028471  0.049312  0.034306      2.000000
  0.056941  0.065750  0.034306      2.000000
 -0.028471  0.016437  0.034306      2.000000
  0.000000  0.065750  0.034306      2.000000
  0.028471  0.082187  0.034306      2.000000
  0.056941  0.098625  0.034306      2.000000
 -0.028471  0.049312  0.034306      2.000000
  0.000000 -0.032875  0.034306      2.000000
  0.028471 -0.016437  0.034306      2.000000
  0.056941  0.000000  0.034306      2.000000
 -0.028471 -0.049312  0.034306      2.000000

 SYSTEM =  unknown system
 POSCAR =  NiO2_C2_m_scale_1_050_disp_0_12_round_2

 Startparameter for this run:
   NWRITE =      1    write-flag & timer
   PREC   = accura    normal or accurate (medium, high low for compatibility)
   ISTART =      0    job   : 0-new  1-cont  2-samecut
   ICHARG =      2    charge: 1-file 2-atom 10-const
   ISPIN  =      1    spin polarized calculation?
[...]
    234       3.7156      0.00000
    235       7.3513      0.00000
    236       8.1044      0.00000
    237       8.4658      0.00000
    238       8.5833      0.00000
    239       9.3640      0.00000
    240       9.5571      0.00000

 soft charge-density along one line, spin component           1
         0         1         2         3         4         5         6         7         8         9
 total charge-density along one line

------------------------ aborting loop because EDIFF is reached ----------------------------------------

  FORCE on cell =-STRESS in cart. coord.  units (eV):
  Direction    XX          YY          ZZ          XY          YZ          ZX
  Alpha Z  1069.12876  1069.12876  1069.12876
  Ewald   -3099.97455 -2483.19490-16185.66858    20.20847   288.66535   -37.40250
  Hartree  7526.96585  7737.93675 -2112.94626   -61.32754   115.40684   -21.72793
  E(xc)   -1999.27837 -1999.55142 -2002.03308     0.28372    -0.34156     0.08446
  Local  -11983.52077-12759.04381 10613.06628    49.69637  -386.94287    66.32193
  n-local  -898.03822  -884.42673  -903.05647    -1.03836     8.12289    -1.33709
  augment  3376.56882  3345.03471  3405.78066    -8.75529   -10.02608    -3.01364
  Kinetic  5968.14167  5946.93078  6064.02913   -12.08734     1.06732    -3.44750
  Fock        0.00000     0.00000     0.00000     0.00000     0.00000     0.00000
  Total      -40.0068185    -27.1858739    -51.6995701    -13.0199683     15.9518706     -0.5222642
  in kB      -98.7906262    -67.1312942   -127.6640606    -32.1507900     39.3906674     -1.2896504

 VOLUME and BASIS-vectors are now :
  energy-cutoff  :      500.00
  volume of cell :      648.83
      direct lattice vectors                 reciprocal lattice vectors
     8.781013500  0.000000000  0.000000000     0.113882071  0.065749844  0.000000000
    -4.390506750  7.604580760  0.000000000     0.000000000  0.131499688  0.000000000
     0.000000000  0.000000000  9.716479500     0.000000000  0.000000000  0.102917934

  length of vectors
     8.781013500  8.781013498  9.716479500     0.131499688  0.131499688  0.102917934

 FORCES acting on ions
    electron-ion (+dipol)            ewald-force                    non-local-force                 convergence-correction
   -.207E+02 0.910E+02 0.625E+02   0.182E+02 -.900E+02 -.630E+02   0.195E+01 -.206E+01 -.172E+01   0.442E-01 0.200E-01 0.132E-01
   -.978E+02 0.109E+03 0.356E+02   0.994E+02 -.110E+03 -.341E+02   -.968E+00 -.154E+01 -.499E+00   0.255E-01 -.852E-02 -.285E-02
   0.192E+02 0.214E+03 0.688E+02   -.176E+02 -.216E+03 -.726E+02   -.139E+01 -.448E+00 0.233E+01   0.246E-01 0.437E-01 0.222E-01
   -.764E+02 -.343E+02 -.906E+02   0.757E+02 0.365E+02 0.906E+02   0.103E+00 -.404E-01 0.148E+01   0.259E-01 -.633E-02 -.696E-02
   0.965E+02 -.160E+03 0.110E+03   -.987E+02 0.163E+03 -.110E+03   0.217E+00 -.689E+00 -.155E+01   0.485E-01 0.194E-01 0.100E-01
   0.120E+03 -.663E+02 0.230E+02   -.122E+03 0.654E+02 -.250E+02   -.237E-01 0.752E+00 -.140E+01   0.905E-02 0.240E-01 -.369E-02
   0.123E+03 0.199E+03 0.109E+03   -.125E+03 -.204E+03 -.111E+03   0.167E+01 0.232E+01 0.853E+00   -.415E-01 -.340E-01 -.795E-02
   0.174E+03 0.657E+02 -.482E+02   -.176E+03 -.672E+02 0.475E+02   0.435E+00 0.589E+00 0.115E+01   -.179E-01 0.163E-01 -.150E-02
   0.278E+03 -.849E+02 0.169E+03   -.299E+03 0.982E+02 -.184E+03   0.433E+01 -.199E+01 0.142E+01   -.407E-01 -.484E-01 -.140E-01
   0.124E+03 0.352E+03 0.418E+02   -.126E+03 -.375E+03 -.532E+02   0.491E-01 0.360E+01 0.397E+01   0.524E-02 -.208E-01 0.106E-01
   0.340E+02 -.104E+03 0.534E+02   -.323E+02 0.104E+03 -.559E+02   -.142E+01 0.466E+00 0.307E+01   -.633E-01 -.672E-02 -.819E-02
   0.137E+03 -.116E+03 -.528E+02   -.145E+03 0.121E+03 0.505E+02   0.167E+01 -.267E+01 0.320E+00   0.479E-02 0.960E-02 -.337E-02
   -.202E+03 0.931E+02 0.122E+03   0.204E+03 -.963E+02 -.124E+03   0.373E-01 0.930E-01 -.152E+01   -.226E-01 -.134E-01 0.141E-01
   -.504E+02 0.108E+03 -.155E+03   0.480E+02 -.111E+03 0.157E+03   0.521E+00 0.428E+00 -.213E+01   -.433E-02 -.243E-01 -.810E-02
   -.151E+03 -.933E+02 0.400E+02   0.159E+03 0.970E+02 -.426E+02   -.407E+01 -.201E+01 -.135E+01   0.371E-02 -.653E-02 0.143E-01
   -.153E+03 -.513E+02 -.500E+02   0.162E+03 0.552E+02 0.467E+02   -.743E+00 -.118E+01 -.857E+00   -.383E-01 -.262E-01 0.133E-01
   -.108E+03 -.314E+02 0.811E+02   0.109E+03 0.282E+02 -.856E+02   -.739E-01 0.371E+00 -.546E+00   0.925E-02 0.136E-01 0.214E-01
   -.151E+03 -.159E+03 -.163E+03   0.159E+03 0.164E+03 0.161E+03   -.220E+01 -.290E+01 0.284E+00   -.137E-01 0.138E-01 0.442E-02
   0.536E+02 0.412E+02 -.224E+03   -.548E+02 -.357E+02 0.245E+03   0.804E+00 -.629E+01 -.233E+02   -.508E-02 -.176E-02 -.161E-01
   0.448E+02 0.106E+03 0.249E+03   -.423E+02 -.106E+03 -.267E+03   -.283E+01 -.630E+00 0.199E+02   -.594E-03 -.207E-01 0.154E-02
   0.182E+02 0.480E+02 -.347E+03   -.154E+02 -.444E+02 0.366E+03   -.390E+01 -.339E+01 -.216E+02   0.249E-01 -.243E-01 0.102E-01
   0.859E+02 0.847E+02 0.277E+03   -.881E+02 -.864E+02 -.294E+03   0.239E+01 0.147E+01 0.210E+02   0.258E-02 -.130E-01 0.119E-01
   -.313E+02 -.177E+02 -.297E+03   0.379E+02 0.215E+02 0.323E+03   -.661E+01 -.307E+01 -.289E+02   -.879E-02 0.684E-02 -.395E-01
   0.118E+03 0.810E+02 0.321E+03   -.126E+03 -.826E+02 -.345E+03   0.675E+01 0.850E+00 0.241E+02   0.155E-01 0.777E-02 -.236E-01
   -.233E+01 0.674E+02 -.350E+03   0.829E+01 -.698E+02 0.374E+03   -.524E+01 -.106E-01 -.252E+02   0.175E-01 0.172E-01 0.301E-01
   -.316E+02 0.116E+03 0.321E+03   0.361E+02 -.126E+03 -.345E+03   -.423E+01 0.853E+01 0.250E+02   -.173E-01 0.375E-02 0.177E-01
   0.925E+02 -.353E+02 -.192E+03   -.951E+02 0.354E+02 0.211E+03   0.207E+01 0.616E+00 -.220E+02   0.121E-01 -.428E-02 -.273E-01
   0.808E+02 -.307E+02 0.279E+03   -.816E+02 0.292E+02 -.298E+03   0.490E+00 0.223E+01 0.210E+02   0.334E-02 0.228E-01 -.181E-01
   0.105E+03 -.144E+03 -.317E+03   -.108E+03 0.155E+03 0.340E+03   0.374E+01 -.806E+01 -.237E+02   0.108E-01 0.335E-01 0.884E-02
   0.666E+02 -.841E+02 0.249E+03   -.698E+02 0.877E+02 -.267E+03   0.363E+01 -.380E+01 0.217E+02   -.629E-02 -.143E-02 0.312E-01
   -.353E+02 0.117E+03 -.361E+03   0.506E+02 -.135E+03 0.406E+03   -.200E+01 0.747E+01 -.328E+02   -.161E-01 -.368E-01 -.549E-02
   -.166E+02 0.961E+02 0.343E+03   0.215E+02 -.101E+03 -.369E+03   -.527E+01 0.749E+00 0.248E+02   -.410E-01 -.526E-02 -.942E-02
   0.140E+03 0.134E+03 -.444E+03   -.154E+03 -.143E+03 0.475E+03   0.817E+01 0.583E+01 -.276E+02   -.127E-01 -.196E-01 0.374E-02
   -.499E+02 0.192E+02 0.333E+03   0.535E+02 -.166E+02 -.354E+03   -.425E+01 -.251E+01 0.250E+02   -.314E-01 -.197E-01 0.830E-02
   0.282E+02 0.729E+01 -.233E+03   -.317E+02 -.763E+01 0.254E+03   0.371E+01 -.185E-01 -.226E+02   -.186E-01 0.481E-03 -.247E-02
   -.503E+02 -.456E+02 0.409E+03   0.575E+02 0.530E+02 -.441E+03   -.744E+01 -.492E+01 0.298E+02   -.346E-02 -.778E-02 -.255E-02
   0.457E+02 -.427E+02 -.526E+03   -.507E+02 0.533E+02 0.572E+03   0.495E+01 0.197E+01 -.339E+02   0.162E-02 0.133E-02 0.114E-01
   -.179E+02 -.322E+01 0.305E+03   0.187E+02 0.369E+01 -.323E+03   -.654E+00 -.934E+00 0.220E+02   -.144E-01 -.987E-02 -.100E-02
   0.601E+02 0.627E+02 -.234E+03   -.674E+02 -.718E+02 0.256E+03   0.667E+01 0.937E+01 -.250E+02   -.260E-01 -.664E-02 -.122E-01
   -.247E+02 -.104E+03 0.330E+03   0.264E+02 0.110E+03 -.354E+03   -.216E+01 -.593E+01 0.266E+02   -.132E-02 -.116E-01 -.169E-01
   0.210E+02 -.316E+02 -.374E+03   -.256E+02 0.315E+02 0.398E+03   0.531E+01 0.116E+01 -.257E+02   -.333E-01 -.929E-02 0.148E-01
   -.177E+02 -.115E+03 0.314E+03   0.200E+02 0.121E+03 -.334E+03   -.335E+01 -.624E+01 0.228E+02   -.217E-01 -.589E-02 0.623E-02
   -.149E+03 -.994E+02 -.238E+03   0.160E+03 0.115E+03 0.262E+03   -.113E+02 -.109E+02 -.218E+02   0.106E-01 0.415E-02 0.488E-02
   -.977E+02 0.286E+02 0.327E+03   0.991E+02 -.301E+02 -.356E+03   0.214E+01 0.163E+01 0.268E+02   0.399E-01 -.195E-01 -.385E-01
   -.104E+03 -.193E+02 -.403E+03   0.106E+03 0.236E+02 0.427E+03   -.676E+00 -.363E+01 -.226E+02   -.299E-01 0.141E-01 0.228E-01
   -.187E+02 0.704E+02 0.247E+03   0.150E+02 -.744E+02 -.262E+03   0.487E+01 0.451E+01 0.175E+02   0.207E-01 0.119E-01 0.185E-01
   -.227E+02 -.507E+02 -.225E+03   0.232E+02 0.529E+02 0.247E+03   -.946E+00 -.310E+01 -.236E+02   0.309E-01 0.189E-01 -.418E-02
   -.393E+02 -.356E+02 0.298E+03   0.369E+02 0.349E+02 -.317E+03   0.379E+01 0.693E+00 0.214E+02   -.113E-01 0.555E-02 -.310E-01
   -.669E+02 -.142E+03 -.359E+03   0.683E+02 0.151E+03 0.381E+03   -.166E+01 -.685E+01 -.204E+02   -.157E-01 -.496E-02 0.114E-01
   0.309E+02 0.225E+02 0.294E+03   -.369E+02 -.257E+02 -.312E+03   0.701E+01 0.363E+01 0.220E+02   0.278E-01 0.248E-01 0.278E-01
   -.404E+02 -.153E+03 -.220E+03   0.358E+02 0.164E+03 0.244E+03   0.509E+01 -.693E+01 -.220E+02   0.127E-01 0.748E-02 0.429E-02
   -.121E+03 -.876E+02 0.253E+03   0.126E+03 0.864E+02 -.268E+03   -.439E+01 0.189E+01 0.166E+02   -.307E-02 0.226E-01 -.735E-02
   -.841E+02 -.656E+02 -.351E+03   0.892E+02 0.681E+02 0.371E+03   -.646E+01 -.121E+01 -.214E+02   0.262E-01 -.235E-02 0.158E-02
   -.607E+02 -.930E+02 0.225E+03   0.638E+02 0.942E+02 -.239E+03   -.335E+01 -.117E+01 0.169E+02   0.239E-01 0.995E-02 0.170E-01
   0.513E+01 0.340E+02 0.360E+02   0.924E-13 0.853E-13 0.853E-13   -.506E+01 -.339E+02 -.361E+02   -.788E-01 -.464E-01 0.755E-01

 POSITION                                       TOTAL-FORCE (eV/Angst)
      8.58070      0.06759      0.05045        -0.518957     -1.091391     -2.108866
      8.58885      0.07588      4.48385         0.610747     -1.966620      1.026063
      7.23901      2.62680      9.58180         0.263020     -3.156858     -1.422867
      7.12386      2.35263      4.58215        -0.542500      2.200029      1.479268
      5.98548      4.71283      9.67544        -1.883015      2.400380     -1.471392
      5.91930      4.76950      4.73391        -1.919771     -0.050584     -3.411987
     -1.58745      7.59597      9.64871        -0.653363     -2.716189     -1.570047
     -1.47615      7.42046      4.62115        -0.834085     -0.872590      0.494386
      1.62781      2.30757      9.70817       -16.539695     11.293025    -12.939517
      1.45722      2.65378      4.52286        -1.977731    -18.818911     -7.365418
      0.01372      4.92973      9.42782         0.191362      0.335253      0.562539
      0.18031      4.88483      4.64420        -6.611357      2.113817     -1.946685
      0.92087      7.49309      0.18751         2.025238     -3.152288     -3.806766
      1.31009      7.51245      4.75490        -1.865913     -1.921730      0.139850
      4.06981      2.33739      0.11907         3.340761      1.706196     -4.012074
      4.05300      2.38724      4.69841         8.639866      2.639942     -4.207166
      2.90408      4.99450      9.65717         0.222138     -2.805847     -4.976313
      2.58205      4.83719      4.71816         6.226771      2.635816     -2.047296
     -0.02654      1.70810      1.04086        -0.386958     -0.864724     -2.507554
      1.41891      0.85233      3.63995        -0.315396     -0.659038      1.561155
      0.05822      1.47285      5.77367        -1.096459      0.188691     -2.968849
      1.40687      0.89008      8.18666         0.206638     -0.241531      3.888615
     -1.55257      3.92909      1.10435        -0.029847      0.779898     -2.419132
     -0.07065      3.30869      3.66789        -0.452463     -0.723815     -0.200079
     -1.41277      4.23801      5.64234         0.738438     -2.408245     -1.118057
     -0.14018      3.43110      8.51128         0.186587     -1.100637      1.489225
     -2.73830      6.38184      1.05355        -0.441479      0.738972     -2.562525
     -1.35458      5.65000      3.55597        -0.350369      0.766782      2.292799
     -2.71144      6.17864      5.66757         0.016872      2.959997     -0.643840
     -1.48404      5.54669      8.22069         0.471001     -0.171337      3.968458
      2.60117      1.64771      0.75444        13.223666     -9.990891     11.783927
      4.21156      0.93885      3.76286        -0.369014     -3.649855     -0.732662
      3.01885      1.65581      5.64767        -5.823535     -3.540588      3.014139
      4.17146      0.70776      8.35588        -0.642444      0.010341      3.764135
      1.42023      4.18359      0.95980         0.219745     -0.357499     -2.020602
      2.86021      3.15686      3.70803        -0.230620      2.510359     -2.345653
      1.24652      3.76689      5.41416        -0.033521     12.573660     12.012069
      2.81775      3.41534      8.31471         0.200333     -0.472780      3.892102
     -0.10935      6.52895      1.24006        -0.677689      0.212141     -2.674524
      1.45863      5.73698      3.46423        -0.465061      0.035796      2.770600
     -0.01085      6.45509      5.69371         0.693732      1.096463     -2.108811
      1.56172      5.62947      8.43851        -1.005061     -0.219190      2.511978
      5.47210      1.30650      0.90658         0.072971      4.266140      1.456996
      6.78740      0.79596      3.81259         3.596989      0.101038     -1.643152
      5.46745      1.56095      5.53015         2.029026      0.646821      1.240233
      7.01963      0.89983      8.37935         1.231954      0.542998      3.234085
      4.39982      4.16519      0.88064        -0.459622     -0.842133     -0.837715
      5.52566      3.23495      3.47319         1.362289     -0.013315      2.741300
      4.25373      3.92445      5.48320        -0.370059      2.140562      1.491008
      5.65232      3.13482      8.37214         1.083387      0.491255      3.689925
      2.82878      6.39090      0.79604         0.534603      4.332857      1.478455
      3.99166      5.63512      3.67051         0.730566      0.782289      1.113579
      2.96538      6.48395      5.52930        -1.370534      1.211597     -0.561127
      4.23855      5.68553      8.17345        -0.252178      0.095472      3.533785
    total drift:                               -0.007320     -0.021808      0.019078

  FREE ENERGIE OF THE ION-ELECTRON SYSTEM (eV)
  free  energy   TOTEN  =      -296.0405981658 eV

  energy  without entropy=     -295.9987636580  energy(sigma->0) =     -296.01968091

volume of typ            1:    17.7 %

volume of typ            2:     9.0 %

total charge

# of ion       s       p       d       tot
    1        0.199   0.170   7.821   8.191
    2        0.225   0.227   7.807   8.259
    3        0.244   0.270   7.813   8.327
    4        0.233   0.251   7.824   8.309
    5        0.245   0.273   7.789   8.306
    6        0.278   0.338   7.804   8.420
    7        0.224   0.235   7.848   8.307
    8        0.229   0.249   7.788   8.266
    9        0.344   0.438   7.958   8.740
   10        0.379   0.536   7.954   8.868
   11        0.255   0.279   7.801   8.335
   12        0.291   0.393   7.833   8.517
   13        0.301   0.335   7.872   8.508
   14        0.276   0.350   7.826   8.452
   15        0.247   0.283   7.849   8.380
   16        0.382   0.587   7.884   8.854
   17        0.292   0.382   7.781   8.454
   18        0.271   0.349   7.841   8.461
   19        1.295   2.635   0.005   3.934
   20        1.282   2.671   0.004   3.957
   21        1.305   2.601   0.004   3.909
   22        1.313   2.559   0.003   3.875
   23        1.301   2.651   0.008   3.959
   24        1.292   2.682   0.007   3.981
   25        1.300   2.650   0.007   3.957
   26        1.299   2.652   0.007   3.957
   27        1.299   2.608   0.003   3.911
   28        1.304   2.607   0.004   3.915
   29        1.300   2.655   0.007   3.963
   30        1.309   2.578   0.003   3.890
   31        1.296   2.857   0.032   4.185
   32        1.293   2.705   0.008   4.007
   33        1.301   2.709   0.012   4.022
   34        1.309   2.588   0.004   3.901
   35        1.298   2.634   0.004   3.936
   36        1.288   2.768   0.013   4.069
   37        1.291   2.872   0.028   4.191
   38        1.311   2.578   0.003   3.893
   39        1.304   2.628   0.006   3.938
   40        1.301   2.639   0.006   3.945
   41        1.290   2.671   0.006   3.966
   42        1.306   2.611   0.005   3.921
   43        1.291   2.720   0.012   4.022
   44        1.287   2.733   0.012   4.032
   45        1.292   2.694   0.007   3.993
   46        1.311   2.558   0.002   3.871
   47        1.288   2.666   0.006   3.960
   48        1.300   2.621   0.004   3.925
   49        1.286   2.705   0.007   3.998
   50        1.310   2.580   0.003   3.893
   51        1.293   2.693   0.009   3.996
   52        1.305   2.601   0.003   3.910
   53        1.296   2.642   0.005   3.943
   54        1.317   2.536   0.002   3.855
tot          51.68  101.50  141.35  294.53