 vasp.5.4.4.18Apr17-6-g9f103f2a35 (build May 12 2020 04:58:55) complex

 MD_VERSION_INFO: Compiled 2020-05-12T11:58:55-UTC in devlin.sd.materialsdesign.
 com:/home/medea2/data/build/wwolf/vasp-gpu5.4.4/13047/x86_64/src/src/build/std
 from svn 13047

 executed on                        Lin64 date 2023.04.27  07:35:46

 INCAR:
 POTCAR:    PAW_PBE Ni 02Aug2007
 POTCAR:    PAW_PBE O 08Apr2002

 POTCAR:    PAW_PBE Ni 02Aug2007

 POTCAR:    PAW_PBE O 08Apr2002

 Optimization of the real space projectors (new method)

 maximal supplied QI-value         = 16.25
 optimisation between [QCUT,QGAM] = [ 11.38, 22.75] = [ 36.24,144.96] Ry
 Optimized for a Real-space Cutoff    1.47 Angstroem

   l    n(q)    QCUT    max X(q) W(low)/X(q) W(high)/X(q)  e(spline)
   2      9    11.376    60.317    0.17E-03    0.16E-04    0.16E-06
   2      9    11.376    55.921    0.17E-03    0.16E-04    0.17E-06
   0     10    11.376    51.690    0.45E-04    0.60E-04    0.21E-06
   0     10    11.376    30.015    0.37E-04    0.55E-04    0.19E-06
   1     10    11.376    18.849    0.83E-04    0.11E-03    0.92E-07
   1     10    11.376    14.624    0.69E-04    0.92E-04    0.82E-07
 Optimization of the real space projectors (new method)

 maximal supplied QI-value         = 24.76
 optimisation between [QCUT,QGAM] = [ 11.39, 22.77] = [ 36.31,145.25] Ry
 Optimized for a Real-space Cutoff    1.10 Angstroem

   l    n(q)    QCUT    max X(q) W(low)/X(q) W(high)/X(q)  e(spline)
   0      7    11.387    20.381    0.22E-03    0.48E-03    0.18E-06
   0      7    11.387    15.268    0.22E-03    0.52E-03    0.19E-06
   1      7    11.387     5.964    0.22E-03    0.73E-03    0.24E-06
   1      7    11.387     5.382    0.19E-03    0.60E-03    0.21E-06

  PAW_PBE Ni 02Aug2007                  :
  PAW_PBE O 08Apr2002                   :

 POSCAR: NiO2_C2_m_scale_1_050_disp_0_02_round_2
  positions in direct lattice
 exchange correlation table for  LEXCH =       14
   RHO(1)=    0.500       N(1)  =     2000
   RHO(2)=  100.500       N(2)  =     4000

 ion  position               nearest neighbor table
   1  0.994  0.997  0.000-  19 1.84  51 2.14  22 2.15  27 2.21  46 2.38  54 2.42   3 2.77   7 2.81
                             9 2.82
   2  0.998  0.002  0.478-  21 1.86  20 1.86  53 2.16  44 2.17  29 2.20  52 2.21   4 2.78  10 2.80
                             8 2.81
   3  0.994  0.313  0.001-  19 1.85  23 1.89  43 2.14  46 2.14  26 2.19  50 2.43   1 2.77   5 2.80
                            11 2.80   9 2.83  13 2.96
   4  0.999  0.319  0.477-  25 1.83  24 1.85  21 1.88  44 1.92  48 2.12  45 2.15   6 2.77  12 2.77
                             2 2.78  10 2.83  14 3.01
   5  0.996  0.633  0.998-  27 1.88  23 1.88  30 2.12  50 2.12  47 2.18  54 2.41   3 2.80  11 2.81
                            15 2.97   7 3.08
   6  0.998  0.634  0.475-  28 1.86  25 1.88  48 1.90  29 1.92  49 2.15  52 2.21   4 2.77  12 2.79
                            16 3.02   8 3.03
   7  0.319  0.007  0.997-  31 1.84  27 1.96  22 2.08  34 2.10  39 2.25  30 2.44   9 2.71  15 2.77
                            13 2.81   1 2.81   5 3.08
   8  0.317  1.000  0.479-  20 1.83  33 1.85  32 1.87  29 1.88  41 2.17  28 2.22  10 2.77  16 2.78
                            14 2.80   2 2.81   6 3.03
   9  0.318  0.315  1.000-  31 1.86  35 1.87  19 1.89  26 2.14  22 2.15  38 2.15   7 2.71  15 2.78
                            11 2.79   1 2.82  17 2.82   3 2.83
  10  0.320  0.316  0.473-  36 1.84  20 1.85  33 1.86  21 1.88  24 1.88  37 1.90  16 2.75   8 2.77
                            18 2.79   2 2.80  12 2.80   4 2.83
  11  0.315  0.631  0.999-  23 1.87  35 1.87  39 1.91  42 2.12  26 2.13  30 2.15   9 2.79   3 2.80
                             5 2.81  17 2.81  13 3.06
  12  0.316  0.634  0.475-  37 1.83  28 1.85  24 1.85  41 1.86  25 1.88  40 1.89   4 2.77  18 2.79
                             6 2.79  10 2.80  14 3.05
  13  0.636  0.001  0.001-  43 1.88  39 1.91  46 2.13  34 2.14  51 2.21  42 2.44  15 2.79   7 2.81
                             3 2.96  11 3.06
  14  0.637  0.002  0.479-  32 1.83  44 1.84  45 1.84  41 1.89  53 2.13  40 2.24  16 2.78   8 2.80
                             4 3.01  12 3.05
  15  0.637  0.320  0.000-  47 1.83  43 1.90  31 1.90  50 2.10  34 2.11  38 2.15   7 2.77  17 2.78
                             9 2.78  13 2.79   5 2.97
  16  0.633  0.316  0.480-  45 1.82  33 1.83  49 1.84  36 1.86  32 1.88  48 1.90  10 2.75  14 2.78
                             8 2.78  18 2.81   6 3.02
  17  0.638  0.637  0.999-  47 1.85  51 1.86  35 1.88  54 2.13  42 2.13  38 2.16  15 2.78  11 2.81
                             9 2.82
  18  0.635  0.637  0.478-  37 1.83  53 1.84  40 1.84  52 1.86  36 1.88  49 1.89  12 2.79  10 2.79
                            16 2.81
  19  0.101  0.207  0.094-   1 1.84   3 1.85   9 1.89
  20  0.211  0.102  0.383-   8 1.83  10 1.85   2 1.86
  21  0.108  0.214  0.572-   2 1.86   4 1.88  10 1.88
  22  0.208  0.101  0.856-   7 2.08   9 2.15   1 2.15
  23  0.105  0.528  0.098-  11 1.87   5 1.88   3 1.89
  24  0.210  0.424  0.380-  12 1.85   4 1.85  10 1.88
  25  0.102  0.525  0.574-   4 1.83   6 1.88  12 1.88
  26  0.213  0.421  0.854-  11 2.13   9 2.14   3 2.19
  27  0.104  0.846  0.097-   5 1.88   7 1.96   1 2.21
  28  0.211  0.738  0.380-  12 1.85   6 1.86   8 2.22
  29  0.109  0.852  0.575-   8 1.88   6 1.92   2 2.20
  30  0.208  0.741  0.856-   5 2.12  11 2.15   7 2.44
  31  0.421  0.210  0.099-   7 1.84   9 1.86  15 1.90
  32  0.530  0.102  0.383-  14 1.83   8 1.87  16 1.88
  33  0.424  0.212  0.572-  16 1.83   8 1.85  10 1.86
  34  0.530  0.110  0.858-   7 2.10  15 2.11  13 2.14
  35  0.425  0.528  0.096-   9 1.87  11 1.87  17 1.88
  36  0.531  0.423  0.381-  10 1.84  16 1.86  18 1.88
  37  0.425  0.534  0.569-  18 1.83  12 1.83  10 1.90
  38  0.529  0.423  0.852-  15 2.15   9 2.15  17 2.16
  39  0.424  0.848  0.098-  11 1.91  13 1.91   7 2.25
  40  0.530  0.738  0.378-  18 1.84  12 1.89  14 2.24
  41  0.424  0.846  0.568-  12 1.86  14 1.89   8 2.17
  42  0.528  0.739  0.857-  11 2.12  17 2.13  13 2.44
  43  0.745  0.213  0.100-  13 1.88  15 1.90   3 2.14
  44  0.845  0.104  0.381-  14 1.84   4 1.92   2 2.17
  45  0.743  0.215  0.568-  16 1.82  14 1.84   4 2.15
  46  0.848  0.105  0.858-  13 2.13   3 2.14   1 2.38
  47  0.739  0.528  0.095-  15 1.83  17 1.85   5 2.18
  48  0.850  0.420  0.382-   6 1.90  16 1.90   4 2.12
  49  0.745  0.529  0.571-  16 1.84  18 1.89   6 2.15
  50  0.845  0.426  0.858-  15 2.10   5 2.12   3 2.43
  51  0.744  0.847  0.097-  17 1.86   1 2.14  13 2.21
  52  0.845  0.741  0.379-  18 1.86   6 2.21   2 2.21
  53  0.739  0.850  0.567-  18 1.84  14 2.13   2 2.16
  54  0.848  0.741  0.854-  17 2.13   5 2.41   1 2.42

  LATTYP: Found a hexagonal cell.
 ALAT       =     8.7810134983
 C/A-ratio  =     1.1065328053

  Lattice vectors:

 A1 = (   8.7810135000,   0.0000000000,   0.0000000000)
 A2 = (  -4.3905067500,   7.6045807600,   0.0000000000)
 A3 = (   0.0000000000,   0.0000000000,   9.7164795000)

Analysis of symmetry for initial positions (statically):
 Subroutine PRICEL returns:
 Original cell was already a primitive cell.

 Routine SETGRP: Setting up the symmetry group for a
 hexagonal supercell.

 Subroutine GETGRP returns: Found  1 space group operations
 (whereof  1 operations were pure point group operations)
 out of a pool of 24 trial point group operations.

The static configuration has the point symmetry C_1 .

Analysis of symmetry for dynamics (positions and initial velocities):
 Subroutine PRICEL returns:
 Original cell was already a primitive cell.

 Routine SETGRP: Setting up the symmetry group for a
 hexagonal supercell.

 Subroutine GETGRP returns: Found  1 space group operations
 (whereof  1 operations were pure point group operations)
 out of a pool of 24 trial point group operations.

The dynamic configuration has the point symmetry C_1 .

 Subroutine INISYM returns: Found  1 space group operations
 (whereof  1 operations are pure point group operations),
 and found     1 'primitive' translations

 KPOINTS: Automatic mesh

Automatic generation of k-mesh.
Space group operators:
 irot       det(A)        alpha          n_x          n_y          n_z        tau_x        tau_y        tau_z
    1     1.000000     0.000000     1.000000     0.000000     0.000000     0.000000     0.000000     0.000000

 Subroutine IBZKPT returns following result:

 Found     26 irreducible k-points:

 Following reciprocal coordinates:
            Coordinates               Weight
  0.000000  0.000000  0.000000      1.000000
  0.250000  0.000000  0.000000      2.000000
  0.500000  0.000000  0.000000      1.000000
  0.000000  0.250000  0.000000      2.000000
  0.250000  0.250000  0.000000      2.000000
  0.500000  0.250000  0.000000      2.000000
 -0.250000  0.250000  0.000000      2.000000
  0.000000  0.500000  0.000000      1.000000
  0.250000  0.500000  0.000000      2.000000
  0.500000  0.500000  0.000000      1.000000
  0.000000  0.000000  0.333333      2.000000
  0.250000  0.000000  0.333333      2.000000
  0.500000  0.000000  0.333333      2.000000
 -0.250000  0.000000  0.333333      2.000000
  0.000000  0.250000  0.333333      2.000000
  0.250000  0.250000  0.333333      2.000000
  0.500000  0.250000  0.333333      2.000000
 -0.250000  0.250000  0.333333      2.000000
  0.000000  0.500000  0.333333      2.000000
  0.250000  0.500000  0.333333      2.000000
  0.500000  0.500000  0.333333      2.000000
 -0.250000  0.500000  0.333333      2.000000
  0.000000 -0.250000  0.333333      2.000000
  0.250000 -0.250000  0.333333      2.000000
  0.500000 -0.250000  0.333333      2.000000
 -0.250000 -0.250000  0.333333      2.000000

 Following cartesian coordinates:
            Coordinates               Weight
  0.000000  0.000000  0.000000      1.000000
  0.028471  0.016437  0.000000      2.000000
  0.056941  0.032875  0.000000      1.000000
  0.000000  0.032875  0.000000      2.000000
  0.028471  0.049312  0.000000      2.000000
  0.056941  0.065750  0.000000      2.000000
 -0.028471  0.016437  0.000000      2.000000
  0.000000  0.065750  0.000000      1.000000
  0.028471  0.082187  0.000000      2.000000
  0.056941  0.098625  0.000000      1.000000
  0.000000  0.000000  0.034306      2.000000
  0.028471  0.016437  0.034306      2.000000
  0.056941  0.032875  0.034306      2.000000
 -0.028471 -0.016437  0.034306      2.000000
  0.000000  0.032875  0.034306      2.000000
  0.028471  0.049312  0.034306      2.000000
  0.056941  0.065750  0.034306      2.000000
 -0.028471  0.016437  0.034306      2.000000
  0.000000  0.065750  0.034306      2.000000
  0.028471  0.082187  0.034306      2.000000
  0.056941  0.098625  0.034306      2.000000
 -0.028471  0.049312  0.034306      2.000000
  0.000000 -0.032875  0.034306      2.000000
  0.028471 -0.016437  0.034306      2.000000
  0.056941  0.000000  0.034306      2.000000
 -0.028471 -0.049312  0.034306      2.000000

 SYSTEM =  unknown system
 POSCAR =  NiO2_C2_m_scale_1_050_disp_0_02_round_2

 Startparameter for this run:
   NWRITE =      1    write-flag & timer
   PREC   = accura    normal or accurate (medium, high low for compatibility)
   ISTART =      0    job   : 0-new  1-cont  2-samecut
[...]
    234       3.3994      0.00000
    235       7.6859      0.00000
    236       8.5449      0.00000
    237       8.7560      0.00000
    238       9.0838      0.00000
    239       9.9518      0.00000
    240      10.1164      0.00000

 soft charge-density along one line, spin component           1
         0         1         2         3         4         5         6         7         8         9
 total charge-density along one line

------------------------ aborting loop because EDIFF is reached ----------------------------------------

  FORCE on cell =-STRESS in cart. coord.  units (eV):
  Direction    XX          YY          ZZ          XY          YZ          ZX
  Alpha Z  1069.12876  1069.12876  1069.12876
  Ewald   -2279.36852 -2172.80158-17243.88377    46.66147    87.66111   -82.28699
  Hartree  8098.84788  8046.08557 -2890.02094   -30.44615    35.14252   -47.48542
  E(xc)   -1997.58009 -1997.48785 -2000.85598     0.03605    -0.09266     0.07194
  Local  -13360.35879-13388.69753 12414.66386    -8.24419  -116.73103   135.09533
  n-local  -910.21053  -907.80263  -921.29914     2.66228     2.79381    -1.17621
  augment  3367.52764  3350.39059  3422.39081    -5.41934    -3.50543    -1.38376
  Kinetic  5942.38545  5930.24420  6077.87520    -7.96387    -1.43921    -6.31112
  Fock        0.00000     0.00000     0.00000     0.00000     0.00000     0.00000
  Total      -69.6282137    -70.9404714    -72.0011931     -2.7137552      3.8291234     -3.4762277
  in kB     -171.9360621   -175.1764789   -177.7957664     -6.7011970      9.4554256     -8.5840045

 VOLUME and BASIS-vectors are now :
  energy-cutoff  :      500.00
  volume of cell :      648.83
      direct lattice vectors                 reciprocal lattice vectors
     8.781013500  0.000000000  0.000000000     0.113882071  0.065749844  0.000000000
    -4.390506750  7.604580760  0.000000000     0.000000000  0.131499688  0.000000000
     0.000000000  0.000000000  9.716479500     0.000000000  0.000000000  0.102917934

  length of vectors
     8.781013500  8.781013498  9.716479500     0.131499688  0.131499688  0.102917934

 FORCES acting on ions
    electron-ion (+dipol)            ewald-force                    non-local-force                 convergence-correction
   0.651E+02 0.170E+03 0.839E+02   -.657E+02 -.172E+03 -.849E+02   -.988E-01 -.492E+00 -.149E+01   0.925E-02 0.341E-02 -.115E-01
   0.952E+02 0.190E+03 -.604E+02   -.968E+02 -.193E+03 0.606E+02   -.156E+00 -.481E+00 -.302E+00   0.345E-02 0.124E-01 0.974E-02
   0.111E+03 0.690E+02 0.977E+02   -.112E+03 -.698E+02 -.994E+02   -.105E+01 0.710E+00 -.118E+01   0.106E-01 0.209E-01 -.174E-01
   0.117E+03 0.103E+03 -.533E+02   -.119E+03 -.105E+03 0.527E+02   -.118E+01 0.478E+00 0.595E+00   0.281E-02 -.112E-01 0.101E-01
   0.100E+03 -.617E+02 0.913E+02   -.101E+03 0.633E+02 -.933E+02   -.118E+01 -.736E+00 -.789E+00   -.755E-02 -.183E-01 -.188E-01
   0.137E+03 -.930E+02 -.448E+02   -.140E+03 0.941E+02 0.445E+02   -.869E+00 -.288E-01 0.676E+00   -.685E-03 -.671E-03 0.115E-01
   -.808E+01 0.176E+03 0.837E+02   0.761E+01 -.178E+03 -.855E+02   0.130E+01 -.741E+00 -.839E+00   -.176E-01 0.123E-01 -.172E-01
   0.114E+01 0.180E+03 -.620E+02   -.653E+00 -.183E+03 0.628E+02   0.132E+01 -.533E+00 -.883E+00   -.199E-01 0.830E-03 0.137E-01
   0.410E+02 0.441E+02 0.101E+03   -.413E+02 -.435E+02 -.103E+03   0.664E-02 -.342E+00 -.116E+01   0.217E-02 0.106E-01 -.180E-01
   0.480E+02 0.488E+02 -.378E+02   -.485E+02 -.477E+02 0.381E+02   -.161E+00 -.249E+00 0.454E+00   -.151E-01 -.172E-01 0.117E-01
   0.416E+02 -.106E+03 0.107E+03   -.415E+02 0.109E+03 -.110E+03   0.123E-01 -.985E+00 -.135E+01   -.338E-02 -.299E-01 -.152E-01
   0.438E+02 -.103E+03 -.519E+02   -.434E+02 0.106E+03 0.517E+02   -.512E-01 -.666E+00 -.645E-01   -.126E-01 -.164E-01 0.133E-01
   -.102E+03 0.755E+02 0.815E+02   0.103E+03 -.762E+02 -.826E+02   0.627E+00 -.103E+01 -.181E+01   0.310E-02 0.752E-02 -.128E-01
   -.114E+03 0.105E+03 -.835E+02   0.116E+03 -.107E+03 0.841E+02   0.397E+00 -.612E+00 -.103E+01   0.119E-01 0.150E-01 0.132E-01
   -.917E+02 0.183E+01 0.831E+02   0.937E+02 -.100E+01 -.855E+02   -.125E+01 -.745E+00 -.119E+01   -.107E-01 0.311E-01 -.194E-01
   -.924E+02 -.241E+02 -.627E+02   0.946E+02 0.262E+02 0.622E+02   -.168E+00 -.647E+00 -.638E+00   0.551E-02 -.199E-02 0.123E-01
   -.702E+02 -.153E+03 0.107E+03   0.714E+02 0.156E+03 -.109E+03   -.695E+00 -.154E+01 -.171E+01   0.130E-01 -.245E-01 -.104E-01
   -.112E+03 -.148E+03 -.752E+02   0.114E+03 0.150E+03 0.749E+02   -.540E+00 -.642E+00 -.378E+00   0.103E-01 -.104E-02 0.119E-01
   0.414E+02 0.661E+02 -.274E+03   -.408E+02 -.653E+02 0.301E+03   -.726E+00 -.910E+00 -.280E+02   0.635E-02 0.815E-02 -.222E-02
   0.493E+02 0.988E+02 0.354E+03   -.498E+02 -.999E+02 -.381E+03   0.113E+00 0.661E+00 0.271E+02   -.987E-02 0.266E-02 0.278E-01
   0.521E+02 0.757E+02 -.419E+03   -.516E+02 -.746E+02 0.446E+03   -.879E+00 -.154E+01 -.277E+02   -.743E-02 0.578E-03 -.227E-01
   0.472E+02 0.798E+02 0.308E+03   -.479E+02 -.793E+02 -.327E+03   0.510E+00 -.588E+00 0.242E+02   0.138E-03 0.737E-02 -.799E-02
   0.502E+02 -.840E+01 -.265E+03   -.505E+02 0.926E+01 0.292E+03   0.139E+00 -.122E+01 -.286E+02   0.678E-03 -.447E-02 -.574E-02
   0.397E+02 0.273E+02 0.366E+03   -.394E+02 -.273E+02 -.392E+03   -.139E+00 -.624E+00 0.265E+02   -.968E-02 -.239E-01 0.236E-01
   0.548E+02 -.141E+02 -.427E+03   -.549E+02 0.156E+02 0.455E+03   -.148E+00 -.133E+01 -.284E+02   -.773E-02 -.219E-01 -.102E-01
   0.497E+02 0.172E+02 0.305E+03   -.499E+02 -.174E+02 -.324E+03   0.211E-01 0.913E-01 0.231E+02   0.180E-02 -.218E-02 -.406E-02
   0.581E+02 -.615E+01 -.217E+03   -.598E+02 0.698E+01 0.240E+03   0.112E+01 0.408E+00 -.240E+02   -.275E-02 -.226E-02 -.183E-02
   0.484E+02 -.890E+02 0.322E+03   -.480E+02 0.959E+02 -.345E+03   -.106E+01 -.641E+01 0.231E+02   -.125E-01 0.292E-03 0.147E-01
   0.824E+02 0.141E+02 -.354E+03   -.861E+02 -.153E+02 0.377E+03   0.274E+01 0.189E+01 -.238E+02   -.582E-02 0.692E-02 -.976E-02
   0.300E+02 -.537E+02 0.270E+03   -.292E+02 0.563E+02 -.286E+03   -.106E+01 -.295E+01 0.203E+02   -.563E-02 -.831E-02 -.958E-02
   -.140E+02 0.471E+02 -.290E+03   0.150E+02 -.467E+02 0.319E+03   -.954E+00 -.462E+00 -.293E+02   -.552E-02 0.114E-01 -.894E-02
   -.168E+02 0.532E+02 0.356E+03   0.166E+02 -.526E+02 -.383E+03   -.358E+00 -.728E+00 0.273E+02   -.384E-02 -.110E-02 0.176E-01
   0.278E+01 0.500E+02 -.440E+03   -.374E+01 -.498E+02 0.468E+03   0.498E+00 -.507E+00 -.282E+02   -.148E-01 -.321E-02 -.777E-02
   -.343E+02 0.575E+02 0.307E+03   0.352E+02 -.572E+02 -.326E+03   -.107E+01 -.499E+00 0.243E+02   -.161E-01 0.181E-01 -.175E-01
   0.246E+00 -.386E+02 -.272E+03   0.133E+00 0.394E+02 0.300E+03   -.538E+00 -.945E+00 -.288E+02   0.382E-02 -.921E-02 -.113E-01
   -.364E+02 -.274E+02 0.366E+03   0.381E+02 0.295E+02 -.393E+03   -.172E+01 -.214E+01 0.270E+02   -.104E-01 -.104E-01 0.106E-01
   -.127E+01 -.235E+02 -.433E+03   0.109E+01 0.224E+02 0.461E+03   0.111E+00 0.141E+00 -.276E+02   -.279E-02 -.194E-01 0.113E-02
   -.174E+02 -.205E+02 0.303E+03   0.174E+02 0.207E+02 -.321E+03   0.252E-02 -.344E+00 0.231E+02   0.163E-02 -.444E-03 0.931E-03
   0.271E+02 -.316E+02 -.215E+03   -.309E+02 0.316E+02 0.238E+03   0.329E+01 0.122E+01 -.240E+02   -.162E-01 -.206E-01 0.694E-02
   -.174E+02 -.125E+03 0.327E+03   0.176E+02 0.132E+03 -.350E+03   -.105E+01 -.667E+01 0.229E+02   0.185E-02 0.225E-02 0.738E-02
   0.224E+02 -.390E+02 -.372E+03   -.253E+02 0.395E+02 0.395E+03   0.201E+01 0.114E+01 -.231E+02   -.643E-02 0.737E-02 -.956E-03
   -.158E+02 -.959E+02 0.274E+03   0.164E+02 0.987E+02 -.291E+03   -.789E+00 -.287E+01 0.208E+02   0.412E-02 -.209E-01 -.111E-01
   -.724E+02 0.299E+00 -.239E+03   0.757E+02 0.286E+01 0.263E+03   -.293E+01 -.351E+01 -.253E+02   -.131E-02 0.326E-01 0.698E-02
   -.542E+02 0.631E+02 0.298E+03   0.563E+02 -.652E+02 -.320E+03   -.295E+00 0.222E+01 0.233E+02   0.159E-01 0.155E-01 0.270E-01
   -.952E+02 0.986E+00 -.397E+03   0.101E+03 0.290E+01 0.421E+03   -.521E+01 -.435E+01 -.234E+02   0.170E-01 0.534E-02 -.556E-02
   -.247E+02 0.534E+02 0.274E+03   0.250E+02 -.547E+02 -.291E+03   0.171E+00 0.147E+01 0.213E+02   0.147E-01 0.152E-01 -.241E-01
   -.887E+02 -.879E+02 -.246E+03   0.935E+02 0.921E+02 0.272E+03   -.394E+01 -.402E+01 -.261E+02   -.324E-02 -.365E-02 -.119E-01
   -.307E+02 -.886E+01 0.311E+03   0.314E+02 0.595E+01 -.333E+03   0.669E+00 0.312E+01 0.227E+02   0.169E-01 -.997E-03 0.155E-01
   -.823E+02 -.989E+02 -.380E+03   0.870E+02 0.104E+03 0.403E+03   -.409E+01 -.479E+01 -.234E+02   0.920E-02 0.914E-03 0.450E-02
   -.454E+02 -.772E+01 0.278E+03   0.457E+02 0.612E+01 -.295E+03   0.218E+00 0.175E+01 0.214E+02   -.386E-02 0.458E-02 -.613E-02
   -.309E+02 -.892E+02 -.195E+03   0.297E+02 0.935E+02 0.216E+03   0.129E+01 -.294E+01 -.222E+02   0.165E-01 -.163E-01 0.357E-02
   -.753E+02 -.907E+02 0.268E+03   0.796E+02 0.931E+02 -.287E+03   -.295E+01 -.153E+01 0.198E+02   0.100E-01 0.996E-02 0.116E-01
   -.520E+02 -.964E+02 -.338E+03   0.520E+02 0.101E+03 0.358E+03   0.281E+00 -.323E+01 -.203E+02   0.116E-01 0.137E-01 -.266E-02
   -.401E+02 -.759E+02 0.243E+03   0.416E+02 0.765E+02 -.258E+03   -.132E+01 -.349E+00 0.183E+02   0.218E-02 -.970E-02 -.727E-02
   0.218E+02 0.506E+02 0.586E+02   0.142E-13 -.298E-12 -.568E-13   -.218E+02 -.506E+02 -.585E+02   -.268E-01 -.231E-01 -.425E-01

 POSITION                                       TOTAL-FORCE (eV/Angst)
      4.35346      7.58296      0.00157        -0.755433     -2.386673     -2.576739
      8.75393      0.01252      4.64156        -1.739799     -3.443521     -0.109157
      7.35780      2.38062      0.01166        -1.776305     -0.068498     -2.910851
      7.37367      2.42768      4.63061        -3.431174     -0.849818     -0.041050
      5.97024      4.81194      9.69841        -1.603118      0.840532     -2.823299
      5.98279      4.82085      4.61967        -3.277042      1.050113      0.420374
      2.77198      0.05017      9.68521         0.825117     -2.842280     -2.612294
     -1.60754      7.60269      4.65000         1.788211     -3.625032     -0.119669
      1.40629      2.39623      9.71403        -0.296343      0.252022     -3.757583
      1.42062      2.40601      4.59422        -0.721443      0.855137      0.753349
     -0.00277      4.79911      9.70453         0.153319      1.652997     -3.674549
     -0.00951      4.81752      4.61788         0.368162      2.061920     -0.274914
      5.57818      0.01066      0.01220         1.514199     -1.715583     -2.861511
      5.58269      0.01284      4.64994         2.399665     -2.962479     -0.404512
      4.18804      2.43046      0.00240         0.810639      0.117294     -3.621185
      4.17305      2.40644      4.66274         2.008681      1.401553     -1.048821
      2.80890      4.84062      9.70687         0.451697      1.221849     -4.010054
      2.77880      4.84359      4.64145         1.670868      1.877215     -0.704718
     -0.02083      1.57097      0.91515        -0.061856     -0.165740     -0.585930
      1.40429      0.77387      3.72387        -0.466174     -0.421928      0.021265
      0.01089      1.62616      5.55993        -0.387003     -0.452516     -0.535247
      1.38431      0.76881      8.31423        -0.108455     -0.055621      4.526893
     -1.40066      4.01815      0.94774        -0.203926     -0.368069     -1.168089
     -0.01953      3.22058      3.69229         0.097006     -0.578686     -0.179088
     -1.40752      3.99388      5.57578        -0.202963      0.140594     -0.571396
      0.01848      3.20345      8.29980        -0.154966     -0.163953      4.445398
     -2.80064      6.42983      0.94628        -0.556519      1.236404     -1.670235
     -1.39282      5.61503      3.69238        -0.700138      0.571893      0.284624
     -2.78627      6.48068      5.58451        -0.982931      0.782988     -1.319186
     -1.42484      5.63496      8.32109        -0.228499     -0.280085      4.036759
      2.77382      1.59535      0.96619         0.090858     -0.009067     -0.924879
      4.20867      0.77823      3.71829        -0.631476     -0.099040      0.349030
      2.79416      1.60882      5.55809        -0.470056     -0.299847      0.353053
      4.17193      0.83416      8.33596        -0.086557     -0.118916      4.483169
      1.41082      4.01351      0.93071        -0.154354     -0.079823     -0.682644
      2.80482      3.21576      3.69914         0.029374     -0.131988      0.032296
      1.38610      4.05811      5.53015        -0.078980     -0.950705      0.243212
      2.79000      3.21400      8.27900         0.009923     -0.052945      4.525969
      0.00317      6.44700      0.94904        -0.535014      1.209260     -1.295142
      1.41642      5.61414      3.66914        -0.790825      0.645650      0.456614
      0.00422      6.43711      5.52309        -0.912689      1.562510     -0.276871
      1.38578      5.62294      8.32823        -0.169708     -0.047738      4.101273
      5.60367      1.62214      0.97337         0.431150     -0.314933     -1.329995
      6.95904      0.79195      3.70632         1.802325      0.158036      0.963024
      5.58140      1.63825      5.52220         1.002295     -0.461857      0.611501
      6.98501      0.79897      8.33459         0.497126      0.266055      4.293923
      4.17415      4.01376      0.92768         0.892642      0.233861     -0.750470
      5.62104      3.19345      3.71241         1.386247      0.207516      0.610926
      4.21901      4.02166      5.55072         0.566646      0.287573     -0.172109
      5.55132      3.23656      8.33782         0.561149      0.159722      4.123058
      2.81382      6.43844      0.93918         0.199204      1.310781     -1.323770
      4.16246      5.63766      3.68024         1.350141      0.907119      1.088311
      2.75568      6.46534      5.51276         0.323506      1.743659     -0.420684
      4.18965      5.63361      8.29717         0.253596      0.193088      4.032620
    total drift:                               -0.013624      0.017321      0.000471

  FREE ENERGIE OF THE ION-ELECTRON SYSTEM (eV)
  free  energy   TOTEN  =      -313.2092642541 eV

  energy  without entropy=     -313.2090418328  energy(sigma->0) =     -313.20915304

volume of typ            1:    17.7 %

volume of typ            2:     9.0 %

total charge

# of ion       s       p       d       tot
    1        0.211   0.203   7.813   8.227
    2        0.233   0.248   7.808   8.289
    3        0.233   0.250   7.808   8.291
    4        0.272   0.335   7.810   8.417
    5        0.231   0.247   7.784   8.262
    6        0.262   0.311   7.788   8.361
    7        0.233   0.246   7.803   8.283
    8        0.274   0.335   7.812   8.420
    9        0.258   0.311   7.802   8.371
   10        0.303   0.417   7.818   8.538
   11        0.254   0.305   7.781   8.341
   12        0.306   0.428   7.805   8.538
   13        0.230   0.238   7.787   8.255
   14        0.277   0.341   7.795   8.413
   15        0.258   0.313   7.784   8.356
   16        0.308   0.431   7.810   8.549
   17        0.260   0.314   7.770   8.344
   18        0.306   0.428   7.791   8.524
   19        1.282   2.710   0.009   4.001
   20        1.283   2.725   0.009   4.017
   21        1.287   2.707   0.008   4.002
   22        1.308   2.583   0.003   3.894
   23        1.286   2.696   0.008   3.990
   24        1.285   2.722   0.008   4.015
   25        1.288   2.707   0.008   4.004
   26        1.311   2.574   0.003   3.888
   27        1.290   2.651   0.005   3.945
   28        1.291   2.678   0.006   3.975
   29        1.292   2.658   0.005   3.955
   30        1.311   2.561   0.002   3.875
   31        1.286   2.703   0.009   3.997
   32        1.285   2.720   0.008   4.013
   33        1.287   2.722   0.009   4.018
   34        1.308   2.584   0.003   3.896
   35        1.286   2.702   0.008   3.996
   36        1.285   2.728   0.008   4.021
   37        1.286   2.726   0.009   4.020
   38        1.313   2.570   0.003   3.886
   39        1.291   2.652   0.005   3.948
   40        1.295   2.668   0.006   3.969
   41        1.289   2.680   0.006   3.975
   42        1.312   2.561   0.002   3.876
   43        1.290   2.661   0.006   3.957
   44        1.289   2.673   0.006   3.968
   45        1.291   2.687   0.007   3.985
   46        1.309   2.566   0.002   3.878
   47        1.289   2.677   0.007   3.974
   48        1.290   2.673   0.006   3.969
   49        1.291   2.678   0.006   3.975
   50        1.311   2.566   0.003   3.880
   51        1.294   2.631   0.004   3.929
   52        1.296   2.632   0.004   3.932
   53        1.293   2.646   0.005   3.944
   54        1.314   2.544   0.002   3.860
tot          51.30  101.33  140.58  293.21