 vasp.5.4.4.18Apr17-6-g9f103f2a35 (build May 12 2020 04:58:55) complex

 MD_VERSION_INFO: Compiled 2020-05-12T11:58:55-UTC in devlin.sd.materialsdesign.
 com:/home/medea2/data/build/wwolf/vasp-gpu5.4.4/13047/x86_64/src/src/build/std
 from svn 13047

 executed on                        Lin64 date 2023.04.27  09:53:24

 INCAR:
 POTCAR:    PAW_PBE Ni 02Aug2007
 POTCAR:    PAW_PBE O 08Apr2002

 POTCAR:    PAW_PBE Ni 02Aug2007

 POTCAR:    PAW_PBE O 08Apr2002

 Optimization of the real space projectors (new method)

 maximal supplied QI-value         = 16.25
 optimisation between [QCUT,QGAM] = [ 11.38, 22.75] = [ 36.24,144.96] Ry
 Optimized for a Real-space Cutoff    1.47 Angstroem

   l    n(q)    QCUT    max X(q) W(low)/X(q) W(high)/X(q)  e(spline)
   2      9    11.376    60.317    0.17E-03    0.16E-04    0.16E-06
   2      9    11.376    55.921    0.17E-03    0.16E-04    0.17E-06
   0     10    11.376    51.690    0.45E-04    0.60E-04    0.21E-06
   0     10    11.376    30.015    0.37E-04    0.55E-04    0.19E-06
   1     10    11.376    18.849    0.83E-04    0.11E-03    0.92E-07
   1     10    11.376    14.624    0.69E-04    0.92E-04    0.82E-07
 Optimization of the real space projectors (new method)

 maximal supplied QI-value         = 24.76
 optimisation between [QCUT,QGAM] = [ 11.39, 22.77] = [ 36.31,145.25] Ry
 Optimized for a Real-space Cutoff    1.10 Angstroem

   l    n(q)    QCUT    max X(q) W(low)/X(q) W(high)/X(q)  e(spline)
   0      7    11.387    20.381    0.22E-03    0.48E-03    0.18E-06
   0      7    11.387    15.268    0.22E-03    0.52E-03    0.19E-06
   1      7    11.387     5.964    0.22E-03    0.73E-03    0.24E-06
   1      7    11.387     5.382    0.19E-03    0.60E-03    0.21E-06

  PAW_PBE Ni 02Aug2007                  :
  PAW_PBE O 08Apr2002                   :

 POSCAR: NiO2_C2_m_scale_1_000_disp_0_04_round_1
  positions in direct lattice
 exchange correlation table for  LEXCH =       14
   RHO(1)=    0.500       N(1)  =     2000
   RHO(2)=  100.500       N(2)  =     4000

 ion  position               nearest neighbor table
   1  0.004  0.006  0.996-  22 1.80  46 1.81  19 1.82  27 1.85  51 1.87  54 1.90   9 2.65  17 2.76
                            13 2.79   7 2.82   3 2.83   5 2.91
   2  0.995  0.995  0.499-  53 1.76  29 1.85  44 1.86  21 1.86  20 1.87  52 1.88   6 2.70   8 2.71
                            18 2.73   4 2.76  10 2.81  14 2.84
   3  0.002  0.343  0.991-  50 1.75  26 1.80  23 1.87  43 1.92  46 1.94  19 1.98   5 2.62  11 2.68
                             9 2.76  15 2.76   1 2.83  13 2.86
   4  0.002  0.328  0.499-  21 1.82  44 1.83  24 1.87  45 1.87  25 1.94  48 1.95  10 2.74   2 2.76
                            14 2.81  12 2.82  16 2.84   6 2.90
   5  0.007  0.659  0.000-  23 1.79  50 1.80  30 1.84  47 1.92  54 1.93  27 1.98   3 2.62  11 2.71
                             7 2.80  15 2.81  17 2.87   1 2.91
   6  0.997  0.673  0.495-  52 1.75  28 1.84  29 1.86  49 1.87  48 1.88  25 1.95  18 2.67   2 2.70
                             8 2.82  16 2.82  12 2.85   4 2.90
   7  0.337  0.998  0.010-  39 1.75  31 1.81  27 1.81  34 1.83  30 1.88  22 1.91  13 2.76  15 2.76
                             9 2.79   5 2.80  11 2.82   1 2.82
   8  0.329  0.016  0.503-  20 1.71  33 1.75  29 1.88  32 1.92  28 1.96  41 2.04  10 2.63   2 2.71
                            16 2.73  14 2.82   6 2.82  12 2.93
   9  0.320  0.322  0.002-  19 1.73  31 1.78  22 1.84  35 1.87  26 1.91  38 2.00   1 2.65   3 2.76
                            11 2.76   7 2.79  15 2.86  17 2.96
  10  0.331  0.330  0.509-  21 1.76  33 1.80  37 1.84  20 1.87  36 1.89  24 1.96   8 2.63   4 2.74
                            16 2.78  12 2.81   2 2.81  18 2.82
  11  0.329  0.657  0.007-  23 1.79  26 1.83  35 1.86  39 1.88  42 1.92  30 1.99   3 2.68   5 2.71
                             9 2.76  17 2.79   7 2.82  13 2.83
  12  0.336  0.669  0.502-  41 1.83  25 1.83  40 1.85  37 1.89  28 1.91  24 1.94  14 2.73  10 2.81
                             4 2.82  18 2.84   6 2.85   8 2.93
  13  0.666  0.997  0.001-  42 1.73  51 1.81  34 1.85  39 1.86  43 1.88  46 1.93  17 2.69   7 2.76
                            15 2.78   1 2.79  11 2.83   3 2.86
  14  0.658  0.001  0.492-  32 1.74  40 1.82  41 1.83  45 1.84  44 1.89  53 1.95  12 2.73  16 2.75
                             4 2.81   8 2.82   2 2.84  18 2.89
  15  0.666  0.329  0.002-  43 1.82  50 1.82  31 1.88  34 1.89  47 1.91  38 1.92   3 2.76   7 2.76
                            13 2.78   5 2.81   9 2.86  17 2.89
  16  0.664  0.332  0.498-  45 1.83  36 1.85  49 1.85  48 1.86  33 1.89  32 1.89   8 2.73  18 2.73
                            14 2.75  10 2.78   6 2.82   4 2.84
  17  0.673  0.678  0.005-  51 1.80  54 1.81  42 1.82  35 1.93  47 1.94  38 1.96  13 2.69   1 2.76
                            11 2.79   5 2.87  15 2.89   9 2.96
  18  0.673  0.663  0.507-  49 1.78  53 1.81  37 1.82  36 1.86  52 1.88  40 1.96   6 2.67  16 2.73
                             2 2.73  10 2.82  12 2.84  14 2.89
  19  0.116  0.220  0.099-   9 1.73   1 1.82   3 1.98
  20  0.223  0.110  0.404-   8 1.71  10 1.87   2 1.87
  21  0.114  0.221  0.594-  10 1.76   4 1.82   2 1.86
  22  0.221  0.105  0.900-   1 1.80   9 1.84   7 1.91
  23  0.115  0.559  0.103-   5 1.79  11 1.79   3 1.87
  24  0.218  0.443  0.390-   4 1.87  12 1.94  10 1.96
  25  0.118  0.562  0.602-  12 1.83   4 1.94   6 1.95
  26  0.219  0.447  0.897-   3 1.80  11 1.83   9 1.91
  27  0.116  0.900  0.101-   7 1.81   1 1.85   5 1.98
  28  0.219  0.780  0.398-   6 1.84  12 1.91   8 1.96
  29  0.104  0.888  0.605-   2 1.85   6 1.86   8 1.88
  30  0.221  0.784  0.896-   5 1.84   7 1.88  11 1.99
  31  0.435  0.222  0.095-   9 1.78   7 1.81  15 1.88
  32  0.555  0.105  0.397-  14 1.74  16 1.89   8 1.92
  33  0.439  0.221  0.602-   8 1.75  10 1.80  16 1.89
  34  0.549  0.102  0.902-   7 1.83  13 1.85  15 1.89
  35  0.441  0.544  0.105-  11 1.86   9 1.87  17 1.93
  36  0.553  0.445  0.401-  16 1.85  18 1.86  10 1.89
  37  0.451  0.556  0.600-  18 1.82  10 1.84  12 1.89
  38  0.559  0.448  0.893-  15 1.92  17 1.96   9 2.00
  39  0.441  0.888  0.098-   7 1.75  13 1.86  11 1.88
  40  0.555  0.779  0.399-  14 1.82  12 1.85  18 1.96
  41  0.449  0.886  0.603-  14 1.83  12 1.83   8 2.04
  42  0.562  0.788  0.910-  13 1.73  17 1.82  11 1.92
  43  0.777  0.223  0.100-  15 1.82  13 1.88   3 1.92
  44  0.890  0.111  0.398-   4 1.83   2 1.86  14 1.89
  45  0.773  0.220  0.592-  16 1.83  14 1.84   4 1.87
  46  0.894  0.107  0.892-   1 1.81  13 1.93   3 1.94
  47  0.782  0.555  0.110-  15 1.91   5 1.92  17 1.94
  48  0.885  0.447  0.396-  16 1.86   6 1.88   4 1.95
  49  0.777  0.552  0.600-  18 1.78  16 1.85   6 1.87
  50  0.885  0.442  0.906-   3 1.75   5 1.80  15 1.82
  51  0.781  0.895  0.099-  17 1.80  13 1.81   1 1.87
  52  0.890  0.771  0.395-   6 1.75  18 1.88   2 1.88
  53  0.782  0.888  0.592-   2 1.76  18 1.81  14 1.95
  54  0.885  0.773  0.901-  17 1.81   1 1.90   5 1.93

  LATTYP: Found a hexagonal cell.
 ALAT       =     8.3628700013
 C/A-ratio  =     1.1065328050

  Lattice vectors:

 A1 = (   8.3628700000,   0.0000000000,   0.0000000000)
 A2 = (  -4.1814350000,   7.2424578700,   0.0000000000)
 A3 = (   0.0000000000,   0.0000000000,   9.2537900000)

Analysis of symmetry for initial positions (statically):
 Subroutine PRICEL returns:
 Original cell was already a primitive cell.

 Routine SETGRP: Setting up the symmetry group for a
 hexagonal supercell.

 Subroutine GETGRP returns: Found  1 space group operations
 (whereof  1 operations were pure point group operations)
 out of a pool of 24 trial point group operations.

The static configuration has the point symmetry C_1 .

Analysis of symmetry for dynamics (positions and initial velocities):
 Subroutine PRICEL returns:
 Original cell was already a primitive cell.

 Routine SETGRP: Setting up the symmetry group for a
 hexagonal supercell.

 Subroutine GETGRP returns: Found  1 space group operations
 (whereof  1 operations were pure point group operations)
 out of a pool of 24 trial point group operations.

The dynamic configuration has the point symmetry C_1 .

 Subroutine INISYM returns: Found  1 space group operations
 (whereof  1 operations are pure point group operations),
 and found     1 'primitive' translations

 KPOINTS: Automatic mesh

Automatic generation of k-mesh.
Space group operators:
 irot       det(A)        alpha          n_x          n_y          n_z        tau_x        tau_y        tau_z
    1     1.000000     0.000000     1.000000     0.000000     0.000000     0.000000     0.000000     0.000000

 Subroutine IBZKPT returns following result:

 Found     26 irreducible k-points:

 Following reciprocal coordinates:
            Coordinates               Weight
  0.000000  0.000000  0.000000      1.000000
  0.250000  0.000000  0.000000      2.000000
  0.500000  0.000000  0.000000      1.000000
  0.000000  0.250000  0.000000      2.000000
  0.250000  0.250000  0.000000      2.000000
  0.500000  0.250000  0.000000      2.000000
 -0.250000  0.250000  0.000000      2.000000
  0.000000  0.500000  0.000000      1.000000
  0.250000  0.500000  0.000000      2.000000
  0.500000  0.500000  0.000000      1.000000
  0.000000  0.000000  0.333333      2.000000
  0.250000  0.000000  0.333333      2.000000
  0.500000  0.000000  0.333333      2.000000
 -0.250000  0.000000  0.333333      2.000000
  0.000000  0.250000  0.333333      2.000000
  0.250000  0.250000  0.333333      2.000000
  0.500000  0.250000  0.333333      2.000000
 -0.250000  0.250000  0.333333      2.000000
  0.000000  0.500000  0.333333      2.000000
  0.250000  0.500000  0.333333      2.000000
  0.500000  0.500000  0.333333      2.000000
 -0.250000  0.500000  0.333333      2.000000
  0.000000 -0.250000  0.333333      2.000000
  0.250000 -0.250000  0.333333      2.000000
  0.500000 -0.250000  0.333333      2.000000
 -0.250000 -0.250000  0.333333      2.000000

 Following cartesian coordinates:
            Coordinates               Weight
  0.000000  0.000000  0.000000      1.000000
  0.029894  0.017259  0.000000      2.000000
  0.059788  0.034519  0.000000      1.000000
  0.000000  0.034519  0.000000      2.000000
  0.029894  0.051778  0.000000      2.000000
  0.059788  0.069037  0.000000      2.000000
 -0.029894  0.017259  0.000000      2.000000
  0.000000  0.069037  0.000000      1.000000
  0.029894  0.086297  0.000000      2.000000
  0.059788  0.103556  0.000000      1.000000
  0.000000  0.000000  0.036021      2.000000
  0.029894  0.017259  0.036021      2.000000
  0.059788  0.034519  0.036021      2.000000
 -0.029894 -0.017259  0.036021      2.000000
  0.000000  0.034519  0.036021      2.000000
  0.029894  0.051778  0.036021      2.000000
  0.059788  0.069037  0.036021      2.000000
 -0.029894  0.017259  0.036021      2.000000
  0.000000  0.069037  0.036021      2.000000
  0.029894  0.086297  0.036021      2.000000
  0.059788  0.103556  0.036021      2.000000
 -0.029894  0.051778  0.036021      2.000000
  0.000000 -0.034519  0.036021      2.000000
  0.029894 -0.017259  0.036021      2.000000
  0.059788  0.000000  0.036021      2.000000
 -0.029894 -0.051778  0.036021      2.000000

 SYSTEM =  unknown system
[...]
    234       4.9232      0.00000
    235      11.5536      0.00000
    236      12.2416      0.00000
    237      12.3894      0.00000
    238      12.5182      0.00000
    239      12.9040      0.00000
    240      13.1004      0.00000

 soft charge-density along one line, spin component           1
         0         1         2         3         4         5         6         7         8         9
 total charge-density along one line

------------------------ aborting loop because EDIFF is reached ----------------------------------------

  FORCE on cell =-STRESS in cart. coord.  units (eV):
  Direction    XX          YY          ZZ          XY          YZ          ZX
  Alpha Z  1237.65018  1237.65018  1237.65018
  Ewald   -1273.04918 -1345.44691-19781.01799    36.65654   -11.77829   -10.01363
  Hartree  8760.85482  8738.37635 -4410.96075    18.90578    -1.11683    -8.56664
  E(xc)   -2022.28526 -2022.20856 -2025.73174     0.00627     0.05263     0.00749
  Local  -15165.20681-15079.49715 16189.98249   -54.33288    11.36522    21.26581
  n-local  -844.14045  -846.34801  -882.46388     0.24263    -1.13418     0.08365
  augment  3332.55154  3337.25057  3433.35320    -0.81889     0.53076    -1.18007
  Kinetic  5987.81480  5991.03391  6246.31835    -1.06908    -0.09924    -1.96507
  Fock        0.00000     0.00000     0.00000     0.00000     0.00000     0.00000
  Total       14.1896293     10.8103744      7.1298654     -0.4096434     -2.1799306     -0.3684737
  in kB       40.5621223     30.9022681     20.3812562     -1.1709963     -6.2314955     -1.0533098

 VOLUME and BASIS-vectors are now :
  energy-cutoff  :      500.00
  volume of cell :      560.48
      direct lattice vectors                 reciprocal lattice vectors
     8.362870000  0.000000000  0.000000000     0.119576174  0.069037336  0.000000000
    -4.181435000  7.242457870  0.000000000     0.000000000  0.138074673  0.000000000
     0.000000000  0.000000000  9.253790000     0.000000000  0.000000000  0.108063831

  length of vectors
     8.362870000  8.362870001  9.253790000     0.138074673  0.138074673  0.108063831

 FORCES acting on ions
    electron-ion (+dipol)            ewald-force                    non-local-force                 convergence-correction
   0.221E+02 0.457E+02 0.247E+02   -.222E+02 -.477E+02 -.249E+02   0.195E+00 0.110E+00 0.627E+00   0.264E-03 0.223E-02 0.505E-02
   0.166E+02 -.131E+02 0.175E+02   -.168E+02 0.138E+02 -.181E+02   0.647E+00 0.253E+00 -.455E+00   -.640E-03 0.189E-02 -.482E-02
   -.726E+01 0.699E+02 0.314E+02   0.813E+01 -.736E+02 -.305E+02   0.699E-01 0.185E+00 0.149E+01   0.311E-02 0.245E-03 0.241E-02
   0.357E+02 -.572E+02 -.259E+02   -.371E+02 0.593E+02 0.253E+02   -.844E-01 -.175E+00 -.277E-01   0.240E-02 -.709E-02 0.236E-03
   0.620E+02 -.476E+02 0.833E+01   -.653E+02 0.508E+02 -.795E+01   -.235E-01 -.382E+00 0.403E+00   0.378E-03 0.253E-02 0.381E-02
   -.757E+02 0.481E+02 -.189E+02   0.791E+02 -.501E+02 0.194E+02   -.653E+00 -.299E-01 0.933E+00   -.316E-02 0.466E-02 0.624E-03
   0.492E+01 0.190E+01 -.219E+02   -.678E+01 -.198E+01 0.206E+02   -.267E+00 0.200E+00 -.159E+01   0.605E-03 -.102E-02 0.655E-02
   -.851E+02 0.946E+02 -.350E+02   0.884E+02 -.996E+02 0.352E+02   0.194E+00 0.102E-01 0.391E-01   -.254E-02 0.415E-02 -.691E-02
   -.456E+02 -.810E+02 0.542E+02   0.483E+02 0.841E+02 -.559E+02   -.692E-01 -.183E+00 -.837E+00   0.316E-03 0.268E-03 0.554E-02
   0.239E+02 -.632E+02 -.177E+02   -.239E+02 0.658E+02 0.159E+02   0.305E+00 -.787E+00 -.128E+01   0.840E-03 -.561E-02 -.496E-02
   -.388E+02 -.268E+02 0.530E+01   0.401E+02 0.286E+02 -.580E+01   -.645E+00 0.636E+00 -.879E+00   0.216E-02 0.141E-02 0.429E-02
   0.186E+02 0.195E+02 -.549E+01   -.195E+02 -.199E+02 0.495E+01   0.297E+00 0.124E-01 -.481E+00   0.218E-02 0.193E-02 -.250E-02
   -.111E+02 -.568E+02 0.603E+00   0.112E+02 0.597E+02 -.322E+00   -.114E+00 -.543E+00 0.731E-01   -.878E-03 -.279E-02 0.471E-02
   -.352E+02 0.142E+02 0.148E+01   0.376E+02 -.152E+02 -.736E+00   0.553E+00 0.140E+00 0.815E+00   0.312E-02 0.668E-03 -.552E-02
   0.500E+02 -.235E+02 0.126E+02   -.522E+02 0.245E+02 -.124E+02   0.552E+00 -.677E-01 -.304E+00   -.411E-02 0.287E-03 0.404E-02
   -.173E+02 0.920E+01 0.158E+01   0.181E+02 -.876E+01 -.228E+01   -.437E+00 -.248E+00 0.460E+00   -.411E-02 -.406E-02 -.204E-02
   -.726E+01 0.848E+02 -.213E+02   0.827E+01 -.885E+02 0.211E+02   -.384E+00 0.189E+00 0.181E+00   -.170E-02 -.190E-02 0.474E-02
   0.475E+02 -.172E+02 -.212E+02   -.498E+02 0.176E+02 0.200E+02   0.418E-01 0.483E-01 -.146E+01   0.724E-03 0.324E-02 -.442E-02
   0.593E+02 -.638E+01 -.384E+03   -.657E+02 0.643E+01 0.413E+03   0.424E+01 -.387E-01 -.291E+02   0.450E-02 0.160E-03 0.562E-02
   0.251E+02 -.149E+02 0.399E+03   -.293E+02 0.175E+02 -.429E+03   0.269E+01 -.161E+01 0.294E+02   0.173E-02 0.228E-02 0.616E-02
   0.338E+02 -.117E+01 -.381E+03   -.361E+02 -.124E+01 0.411E+03   0.112E+01 0.172E+01 -.277E+02   0.211E-02 0.123E-02 -.928E-02
   -.294E+02 0.275E+01 0.394E+03   0.339E+02 -.424E+01 -.422E+03   -.412E+01 0.174E+01 0.277E+02   0.330E-04 0.306E-02 -.216E-02
   0.148E+01 0.140E+02 -.396E+03   -.191E+01 -.163E+02 0.427E+03   0.492E+00 0.141E+01 -.306E+02   -.399E-03 0.308E-02 0.335E-02
   -.668E+01 -.186E+02 0.354E+03   0.849E+01 0.194E+02 -.380E+03   -.123E+01 -.702E+00 0.274E+02   0.257E-02 -.519E-02 0.676E-02
   0.194E+02 0.126E+02 -.352E+03   -.222E+02 -.133E+02 0.378E+03   0.215E+01 0.111E+00 -.260E+02   -.237E-02 -.145E-02 -.502E-02
   -.348E+02 -.103E+02 0.395E+03   0.388E+02 0.111E+02 -.424E+03   -.316E+01 -.893E+00 0.288E+02   0.430E-02 -.385E-03 -.214E-02
   0.236E+02 0.377E+02 -.358E+03   -.266E+02 -.407E+02 0.385E+03   0.286E+01 0.152E+01 -.260E+02   0.311E-03 -.576E-04 0.709E-02
   -.287E+02 -.364E+01 0.339E+03   0.313E+02 0.540E+01 -.364E+03   -.232E+01 -.112E+01 0.259E+02   -.298E-02 0.375E-02 0.451E-02
   -.250E+02 0.195E+02 -.390E+03   0.261E+02 -.206E+02 0.418E+03   -.926E+00 0.141E+01 -.287E+02   0.326E-03 0.118E-03 -.857E-02
   -.183E+02 0.190E+00 0.385E+03   0.208E+02 0.153E+01 -.411E+03   -.144E+01 -.242E+01 0.277E+02   -.238E-03 -.664E-03 -.201E-02
   -.282E+02 -.335E+02 -.359E+03   0.300E+02 0.360E+02 0.388E+03   -.460E+00 -.233E+01 -.269E+02   -.323E-02 0.778E-03 0.596E-02
   0.280E+02 -.365E+01 0.373E+03   -.321E+02 0.440E+01 -.402E+03   0.205E+01 0.399E+00 0.282E+02   0.883E-03 -.372E-02 0.541E-02
   -.401E+02 -.165E+02 -.403E+03   0.439E+02 0.191E+02 0.433E+03   -.307E+01 -.165E+01 -.296E+02   -.474E-02 -.111E-02 -.107E-01
   -.512E+01 -.188E+02 0.390E+03   0.432E+01 0.191E+02 -.418E+03   0.114E+01 0.403E+00 0.280E+02   -.126E-03 -.103E-02 -.248E-02
   -.321E+02 -.596E+01 -.348E+03   0.351E+02 0.532E+01 0.374E+03   -.317E+01 0.125E+01 -.269E+02   0.186E-02 -.850E-03 0.336E-02
   0.195E+02 -.373E+01 0.379E+03   -.223E+02 0.442E+01 -.406E+03   0.271E+01 -.921E+00 0.277E+02   -.357E-02 0.222E-03 0.533E-02
   0.256E+02 -.160E+02 -.369E+03   -.275E+02 0.173E+02 0.397E+03   0.103E+01 -.116E+01 -.268E+02   0.389E-02 -.260E-02 -.742E-02
   0.809E+01 -.110E+02 0.341E+03   -.938E+01 0.117E+02 -.364E+03   0.107E+01 -.863E+00 0.250E+02   -.274E-02 0.100E-02 -.214E-02
   -.237E+02 0.183E+02 -.371E+03   0.269E+02 -.203E+02 0.400E+03   -.197E+01 0.127E+01 -.269E+02   0.736E-03 0.238E-03 0.603E-02
   -.150E+02 0.256E+02 0.361E+03   0.180E+02 -.288E+02 -.388E+03   -.262E+01 0.258E+01 0.266E+02   0.393E-02 0.435E-02 0.447E-02
   0.237E+02 -.717E+01 -.373E+03   -.260E+02 0.899E+01 0.400E+03   0.131E+01 -.113E+01 -.272E+02   0.224E-02 0.441E-02 -.887E-02
   0.179E+02 0.449E+02 0.386E+03   -.206E+02 -.488E+02 -.416E+03   0.223E+01 0.177E+01 0.282E+02   0.178E-02 -.109E-02 -.910E-04
   -.228E+02 0.638E+01 -.363E+03   0.259E+02 -.674E+01 0.390E+03   -.238E+01 0.134E+00 -.273E+02   -.141E-02 -.280E-02 0.686E-02
   0.770E+01 0.247E+01 0.368E+03   -.795E+01 -.305E+01 -.396E+03   0.135E+00 0.284E+00 0.272E+02   -.174E-02 -.140E-02 0.609E-02
   -.159E+02 -.766E+01 -.380E+03   0.168E+02 0.729E+01 0.407E+03   -.542E+00 0.380E+00 -.270E+02   0.265E-02 -.437E-02 -.761E-02
   0.305E+02 -.132E+02 0.375E+03   -.329E+02 0.135E+02 -.402E+03   0.134E+01 0.557E+00 0.269E+02   0.894E-04 -.233E-02 -.521E-02
   0.210E+02 -.432E+01 -.341E+03   -.216E+02 0.460E+01 0.366E+03   0.467E+00 -.246E+00 -.263E+02   -.192E-02 0.235E-02 0.496E-02
   -.302E+02 0.729E+01 0.345E+03   0.323E+02 -.790E+01 -.371E+03   -.152E+01 0.382E+00 0.264E+02   0.773E-03 0.808E-03 0.544E-02
   -.349E+02 0.205E+02 -.395E+03   0.385E+02 -.225E+02 0.425E+03   -.290E+01 0.175E+01 -.287E+02   -.164E-02 0.419E-02 -.673E-02
   0.383E+02 0.113E+01 0.396E+03   -.429E+02 -.542E+00 -.426E+03   0.418E+01 -.318E+00 0.288E+02   -.114E-02 0.279E-02 -.265E-02
   -.147E+02 -.775E+01 -.382E+03   0.168E+02 0.997E+01 0.411E+03   -.163E+01 -.181E+01 -.284E+02   -.975E-03 -.226E-02 0.539E-02
   0.291E+02 -.104E+02 0.396E+03   -.329E+02 0.115E+02 -.425E+03   0.252E+01 -.321E+00 0.297E+02   -.112E-02 -.240E-03 0.610E-02
   0.493E+02 -.171E+02 -.374E+03   -.546E+02 0.196E+02 0.402E+03   0.403E+01 -.229E+01 -.266E+02   -.192E-02 -.732E-03 -.795E-02
   -.167E+02 0.172E+02 0.358E+03   0.189E+02 -.178E+02 -.384E+03   -.152E+01 0.111E+01 0.265E+02   -.151E-02 -.158E-02 -.223E-02
   -.299E+01 0.247E+00 0.288E+01   -.217E-12 -.199E-12 0.171E-12   0.298E+01 -.266E+00 -.289E+01   -.911E-04 0.203E-02 0.165E-01

 POSITION                                       TOTAL-FORCE (eV/Angst)
      0.00913      0.04108      9.22021         0.178054     -1.900809      0.420674
      4.15779      7.20418      4.61800         0.494369      0.944317     -1.063435
     -1.41859      2.48764      9.17166         0.948397     -3.484503      2.348386
     -1.35905      2.37730      4.61760        -1.477888      1.927036     -0.696463
     -2.70152      4.77494      0.00306        -3.369998      2.869724      0.788272
      5.52539      4.87642      4.58490         2.671202     -2.049448      1.400800
     -1.35158      7.22567      0.09179        -2.121627      0.119180     -2.887752
      2.68382      0.11291      4.65413         3.509595     -4.998416      0.226821
      1.33069      2.33508      0.02133         2.619810      2.915427     -2.523509
      1.38216      2.39359      4.70620         0.285311      1.724078     -3.027325
      0.00900      4.75473      0.06431         0.595534      2.369633     -1.370707
      0.01549      4.84432      4.64311        -0.568805     -0.333348     -1.025179
      1.40252      7.21712      0.00986        -0.041460      2.366832      0.358615
      5.49769      0.00456      4.55148         2.913885     -0.946779      1.556961
      4.19120      2.38591      0.01459        -1.694258      0.941224     -0.158249
      4.16136      2.40510      4.60427         0.353347      0.193289     -0.242065
      2.79177      4.90907      0.04377         0.623491     -3.526850      0.007518
      2.85413      4.80323      4.69174        -2.200337      0.479417     -2.609788
      0.04713      1.59442      0.91314        -2.180669      0.008656      0.615100
      1.40531      0.79648      3.73958        -1.516121      0.944459     -1.210770
      0.02916      1.60054      5.49690        -1.153668     -0.685300      1.713457
      1.40630      0.75829      8.33142         0.385805      0.260841     -0.415533
     -1.37496      4.04673      0.95513         0.061619     -0.952961      0.360805
     -0.02506      3.20498      3.60935         0.591947      0.108838      1.571667
     -1.36308      4.06877      5.56848        -0.633648     -0.590340     -0.555727
     -0.03869      3.23852      8.29685         0.790623     -0.111519     -0.037027
     -2.79103      6.51645      0.93240        -0.111729     -1.437713      0.407173
     -1.42788      5.65010      3.68088         0.256165      0.643986      0.566863
     -2.84276      6.43394      5.59515         0.199225      0.284636     -0.261813
     -1.42523      5.67488      8.29305         1.061560     -0.704085      0.784391
      2.71193      1.60553      0.88055         1.358216      0.220498      1.461541
      4.20141      0.75882      3.67052        -2.046308      1.143715     -0.560783
      2.75094      1.60093      5.56952         0.681797      0.959358      1.215893
      4.16857      0.73560      8.34944         0.333239      0.664458     -0.182588
      1.41157      3.93820      0.97572        -0.256726      0.614660     -0.181184
      2.76418      3.22076      3.71439        -0.008938     -0.233752      0.301519
      1.45072      4.02349      5.54989        -0.790264      0.088920      0.867980
      2.79699      3.24572      8.26503        -0.222102     -0.100819      1.490924
     -0.02411      6.43098      0.90858         1.240412     -0.771586      1.810784
      1.38600      5.64014      3.69328         0.419629     -0.657401     -0.070019
      0.05209      6.41617      5.58300        -1.006219      0.693649     -0.315960
      1.40915      5.70506      8.41942        -0.428991     -2.171969     -1.410271
      5.56547      1.61777      0.92288         0.733722     -0.221425     -0.066364
      6.97519      0.80595      3.67899        -0.108927     -0.288687     -0.521462
      5.54418      1.59592      5.48099         0.339378      0.005107      0.730486
      7.02586      0.77503      8.25648        -1.116485      0.829556      0.286942
      4.22009      4.01633      1.01601        -0.172918      0.032522     -1.142710
      5.53166      3.23604      3.66275         0.612592     -0.223222      0.365032
      4.18800      3.99669      5.55506         0.677621     -0.183421      0.534119
      5.55360      3.20474      8.38643        -0.376528      0.274035     -1.788300
      2.79133      6.48259      0.91686         0.466845      0.410422      0.927712
      4.21632      5.58735      3.65760        -1.281924      0.767359     -0.179874
      2.82486      6.43063      5.47547        -1.222338      0.292974      1.326342
      4.16986      5.59685      8.33838         0.705488      0.475549      0.058080
    total drift:                               -0.009079     -0.016966      0.004436

  FREE ENERGIE OF THE ION-ELECTRON SYSTEM (eV)
  free  energy   TOTEN  =      -333.4854559885 eV

  energy  without entropy=     -333.4854559885  energy(sigma->0) =     -333.48545599

volume of typ            1:    20.5 %

volume of typ            2:    10.5 %

total charge

# of ion       s       p       d       tot
    1        0.317   0.452   7.827   8.596
    2        0.316   0.446   7.835   8.597
    3        0.307   0.418   7.833   8.558
    4        0.299   0.407   7.813   8.519
    5        0.305   0.418   7.825   8.548
    6        0.311   0.436   7.823   8.570
    7        0.326   0.471   7.835   8.632
    8        0.314   0.428   7.840   8.583
    9        0.318   0.448   7.833   8.600
   10        0.317   0.446   7.833   8.595
   11        0.303   0.412   7.826   8.541
   12        0.300   0.412   7.808   8.521
   13        0.319   0.455   7.834   8.608
   14        0.319   0.450   7.828   8.598
   15        0.301   0.412   7.815   8.528
   16        0.306   0.426   7.825   8.557
   17        0.302   0.413   7.815   8.530
   18        0.315   0.443   7.829   8.586
   19        1.286   2.741   0.010   4.037
   20        1.285   2.754   0.011   4.050
   21        1.280   2.760   0.010   4.051
   22        1.287   2.731   0.009   4.027
   23        1.286   2.743   0.010   4.040
   24        1.291   2.691   0.007   3.988
   25        1.285   2.709   0.007   4.000
   26        1.284   2.738   0.009   4.031
   27        1.284   2.726   0.008   4.018
   28        1.287   2.704   0.007   3.998
   29        1.287   2.722   0.008   4.017
   30        1.290   2.704   0.007   4.001
   31        1.281   2.753   0.010   4.043
   32        1.285   2.734   0.009   4.029
   33        1.283   2.755   0.011   4.049
   34        1.285   2.730   0.008   4.024
   35        1.285   2.713   0.008   4.006
   36        1.286   2.726   0.008   4.020
   37        1.282   2.737   0.009   4.027
   38        1.289   2.681   0.005   3.976
   39        1.281   2.752   0.010   4.043
   40        1.285   2.722   0.008   4.015
   41        1.288   2.710   0.008   4.005
   42        1.283   2.753   0.010   4.046
   43        1.284   2.728   0.008   4.020
   44        1.284   2.729   0.008   4.021
   45        1.281   2.742   0.009   4.032
   46        1.286   2.712   0.007   4.005
   47        1.290   2.688   0.006   3.984
   48        1.288   2.705   0.007   4.000
   49        1.285   2.738   0.009   4.032
   50        1.282   2.765   0.012   4.058
   51        1.283   2.747   0.010   4.039
   52        1.287   2.736   0.010   4.033
   53        1.281   2.752   0.009   4.043
   54        1.286   2.716   0.008   4.009
tot          51.86  106.04  141.19  299.08