 vasp.5.4.4.18Apr17-6-g9f103f2a35 (build May 12 2020 04:58:55) complex

 MD_VERSION_INFO: Compiled 2020-05-12T11:58:55-UTC in devlin.sd.materialsdesign.
 com:/home/medea2/data/build/wwolf/vasp-gpu5.4.4/13047/x86_64/src/src/build/std
 from svn 13047

 executed on                        Lin64 date 2023.04.27  11:05:34

 INCAR:
 POTCAR:    PAW_PBE Ni 02Aug2007
 POTCAR:    PAW_PBE O 08Apr2002

 POTCAR:    PAW_PBE Ni 02Aug2007

 POTCAR:    PAW_PBE O 08Apr2002

 Optimization of the real space projectors (new method)

 maximal supplied QI-value         = 16.25
 optimisation between [QCUT,QGAM] = [ 11.38, 22.75] = [ 36.24,144.96] Ry
 Optimized for a Real-space Cutoff    1.47 Angstroem

   l    n(q)    QCUT    max X(q) W(low)/X(q) W(high)/X(q)  e(spline)
   2      9    11.376    60.317    0.17E-03    0.16E-04    0.16E-06
   2      9    11.376    55.921    0.17E-03    0.16E-04    0.17E-06
   0     10    11.376    51.690    0.45E-04    0.60E-04    0.21E-06
   0     10    11.376    30.015    0.37E-04    0.55E-04    0.19E-06
   1     10    11.376    18.849    0.83E-04    0.11E-03    0.92E-07
   1     10    11.376    14.624    0.69E-04    0.92E-04    0.82E-07
 Optimization of the real space projectors (new method)

 maximal supplied QI-value         = 24.76
 optimisation between [QCUT,QGAM] = [ 11.39, 22.77] = [ 36.31,145.25] Ry
 Optimized for a Real-space Cutoff    1.10 Angstroem

   l    n(q)    QCUT    max X(q) W(low)/X(q) W(high)/X(q)  e(spline)
   0      7    11.387    20.381    0.22E-03    0.48E-03    0.18E-06
   0      7    11.387    15.268    0.22E-03    0.52E-03    0.19E-06
   1      7    11.387     5.964    0.22E-03    0.73E-03    0.24E-06
   1      7    11.387     5.382    0.19E-03    0.60E-03    0.21E-06

  PAW_PBE Ni 02Aug2007                  :
  PAW_PBE O 08Apr2002                   :

 POSCAR: NiO2_C2_m_scale_0_950_disp_0_08_round_2
  positions in direct lattice
 exchange correlation table for  LEXCH =       14
   RHO(1)=    0.500       N(1)  =     2000
   RHO(2)=  100.500       N(2)  =     4000

 ion  position               nearest neighbor table
   1  0.998  0.997  0.990-  54 1.25  46 1.38  51 1.55  27 1.62  22 1.64  19 1.91  13 2.29  17 2.32
                             5 2.32   7 2.78   9 2.81   3 2.84
   2  0.998  0.996  0.522-  52 1.40  53 1.47  44 1.53  29 1.60  21 1.69  20 1.88   6 2.26  14 2.26
                            18 2.41   8 2.79  10 2.80   4 2.89
   3  0.982  0.345  0.998-  50 1.22  43 1.44  46 1.60  19 1.76  26 1.77  23 1.87  15 2.29  13 2.42
                             5 2.81   1 2.84   9 2.95  11 3.06
   4  0.997  0.358  0.542-  45 1.45  48 1.66  25 1.67  21 1.95  24 2.04  44 2.13  16 2.40  14 2.65
                            12 2.72   6 2.82  10 2.88   2 2.89
   5  0.007  0.710  0.017-  54 1.39  30 1.64  47 1.67  23 1.78  27 1.78  50 1.86   1 2.32  17 2.46
                             7 2.62  15 2.65  11 2.78   3 2.81
   6  0.013  0.720  0.518-  52 1.49  28 1.70  49 1.72  48 1.89  29 1.90  25 1.95   2 2.26  18 2.45
                             8 2.55  16 2.62  12 2.69   4 2.82
   7  0.357  0.015  0.006-  30 1.43  22 1.63  39 1.69  34 1.76  31 1.78  27 1.82  11 2.31   5 2.62
                             9 2.65  15 2.71   1 2.78  13 2.89
   8  0.357  0.011  0.530-  41 1.45  28 1.61  33 1.77  29 1.90  32 1.92  20 1.95  12 2.41   6 2.55
                            10 2.69   2 2.79  16 2.82  14 2.90
   9  0.354  0.347  0.002-  22 1.59  26 1.69  38 1.73  35 1.84  31 1.88  19 2.02   7 2.65  15 2.71
                             1 2.81  17 2.83   3 2.95  11 3.02
  10  0.351  0.345  0.507-  24 1.59  36 1.71  20 1.73  21 1.80  33 1.98  37 2.05   8 2.69  16 2.70
                            18 2.74   2 2.80  12 2.86   4 2.88
  11  0.364  0.730  0.976-  42 1.61  30 1.69  39 1.83  26 1.89  35 2.05  23 2.09   7 2.31  13 2.60
                            17 2.75   5 2.78   9 3.02   3 3.06
  12  0.340  0.699  0.529-  40 1.77  25 1.81  28 1.81  41 1.96  37 1.96  24 1.99   8 2.41   6 2.69
                            14 2.70   4 2.72  18 2.83  10 2.86
  13  0.719  0.012  0.012-  51 1.39  42 1.48  46 1.63  34 1.68  43 1.91  39 1.94   1 2.29  17 2.33
                             3 2.42  11 2.60  15 2.82   7 2.89
  14  0.712  0.992  0.526-  53 1.49  40 1.68  41 1.95  44 1.97  45 1.99  32 2.03   2 2.26  18 2.31
                             4 2.65  12 2.70   8 2.90  16 3.06
  15  0.699  0.356  0.997-  38 1.54  50 1.65  34 1.66  43 1.77  31 1.87  47 1.90   3 2.29   5 2.65
                             9 2.71   7 2.71  13 2.82  17 2.82
  16  0.704  0.373  0.525-  49 1.73  33 1.79  36 1.80  48 1.84  45 1.87  32 2.05   4 2.40  18 2.59
                             6 2.62  10 2.70   8 2.82  14 3.06
  17  0.700  0.711  0.989-  42 1.50  38 1.67  54 1.71  35 1.83  51 1.87  47 2.00   1 2.32  13 2.33
                             5 2.46  11 2.75  15 2.82   9 2.83
  18  0.693  0.694  0.508-  36 1.63  40 1.74  52 1.84  49 1.84  37 1.90  53 2.02  14 2.31   2 2.41
                             6 2.45  16 2.59  10 2.74  12 2.83
  19  0.090  0.233  0.100-  46 1.63   3 1.76   1 1.91   9 2.02
  20  0.232  0.126  0.412-  10 1.73   2 1.88   8 1.95
  21  0.124  0.214  0.607-   2 1.69  10 1.80   4 1.95
  22  0.234  0.122  0.961-   9 1.59   7 1.63   1 1.64  27 1.74
  23  0.110  0.580  0.105-   5 1.78  50 1.83   3 1.87  11 2.09
  24  0.248  0.447  0.423-  10 1.59  12 1.99   4 2.04
  25  0.111  0.574  0.629-   4 1.67  12 1.81   6 1.95
  26  0.230  0.458  0.946-   9 1.69   3 1.77  11 1.89
  27  0.128  0.944  0.102-   1 1.62  22 1.74   5 1.78   7 1.82  54 1.86
  28  0.231  0.819  0.428-   8 1.61   6 1.70  12 1.81
  29  0.126  0.950  0.637-   2 1.60   6 1.90   8 1.90
  30  0.224  0.831  0.940-   7 1.43   5 1.64  11 1.69
  31  0.473  0.234  0.115-   7 1.78  15 1.87   9 1.88
  32  0.586  0.119  0.405-   8 1.92  14 2.03  16 2.05
  33  0.482  0.234  0.629-   8 1.77  16 1.79  10 1.98
  34  0.601  0.123  0.948-  15 1.66  13 1.68   7 1.76
  35  0.473  0.586  0.097-  17 1.83   9 1.84  11 2.05
  36  0.577  0.479  0.430-  18 1.63  10 1.71  16 1.80
  37  0.475  0.588  0.641-  18 1.90  12 1.96  10 2.05
  38  0.599  0.473  0.955-  15 1.54  17 1.67   9 1.73
  39  0.474  0.930  0.114-   7 1.69  11 1.83  13 1.94
  40  0.561  0.792  0.426-  14 1.68  18 1.74  12 1.77
  41  0.475  0.958  0.621-   8 1.45  14 1.95  12 1.96
  42  0.593  0.816  0.949-  13 1.48  17 1.50  11 1.61
  43  0.822  0.262  0.104-   3 1.44  15 1.77  50 1.90  13 1.91
  44  0.956  0.116  0.409-   2 1.53  14 1.97   4 2.13
  45  0.818  0.249  0.627-   4 1.45  16 1.87  14 1.99
  46  0.945  0.133  0.956-   1 1.38   3 1.60  13 1.63  19 1.63  51 1.80
  47  0.807  0.581  0.121-   5 1.67  15 1.90  17 2.00
  48  0.936  0.479  0.422-   4 1.66  16 1.84   6 1.89
  49  0.808  0.588  0.627-   6 1.72  16 1.73  18 1.84
  50  0.932  0.459  0.952-   3 1.22  15 1.65  23 1.83   5 1.86  43 1.90
  51  0.823  0.946  0.096-  13 1.39   1 1.55  46 1.80  17 1.87
  52  0.940  0.831  0.431-   2 1.40   6 1.49  18 1.84
  53  0.834  0.946  0.626-   2 1.47  14 1.49  18 2.02
  54  0.944  0.826  0.949-   1 1.25   5 1.39  17 1.71  27 1.86

  LATTYP: Found a hexagonal cell.
 ALAT       =     7.9447265042
 C/A-ratio  =     1.1065328045

  Lattice vectors:

 A1 = (   7.9447265000,   0.0000000000,   0.0000000000)
 A2 = (  -3.9723632500,   6.8803349800,   0.0000000000)
 A3 = (   0.0000000000,   0.0000000000,   8.7911005000)

Analysis of symmetry for initial positions (statically):
 Subroutine PRICEL returns:
 Original cell was already a primitive cell.

 Routine SETGRP: Setting up the symmetry group for a
 hexagonal supercell.

 Subroutine GETGRP returns: Found  1 space group operations
 (whereof  1 operations were pure point group operations)
 out of a pool of 24 trial point group operations.

The static configuration has the point symmetry C_1 .

Analysis of symmetry for dynamics (positions and initial velocities):
 Subroutine PRICEL returns:
 Original cell was already a primitive cell.

 Routine SETGRP: Setting up the symmetry group for a
 hexagonal supercell.

 Subroutine GETGRP returns: Found  1 space group operations
 (whereof  1 operations were pure point group operations)
 out of a pool of 24 trial point group operations.

The dynamic configuration has the point symmetry C_1 .

 Subroutine INISYM returns: Found  1 space group operations
 (whereof  1 operations are pure point group operations),
 and found     1 'primitive' translations

 KPOINTS: Automatic mesh

Automatic generation of k-mesh.
Space group operators:
 irot       det(A)        alpha          n_x          n_y          n_z        tau_x        tau_y        tau_z
    1     1.000000     0.000000     1.000000     0.000000     0.000000     0.000000     0.000000     0.000000

 Subroutine IBZKPT returns following result:

 Found     26 irreducible k-points:

 Following reciprocal coordinates:
            Coordinates               Weight
  0.000000  0.000000  0.000000      1.000000
  0.250000  0.000000  0.000000      2.000000
  0.500000  0.000000  0.000000      1.000000
  0.000000  0.250000  0.000000      2.000000
  0.250000  0.250000  0.000000      2.000000
  0.500000  0.250000  0.000000      2.000000
 -0.250000  0.250000  0.000000      2.000000
  0.000000  0.500000  0.000000      1.000000
  0.250000  0.500000  0.000000      2.000000
  0.500000  0.500000  0.000000      1.000000
  0.000000  0.000000  0.333333      2.000000
  0.250000  0.000000  0.333333      2.000000
  0.500000  0.000000  0.333333      2.000000
 -0.250000  0.000000  0.333333      2.000000
  0.000000  0.250000  0.333333      2.000000
  0.250000  0.250000  0.333333      2.000000
  0.500000  0.250000  0.333333      2.000000
 -0.250000  0.250000  0.333333      2.000000
  0.000000  0.500000  0.333333      2.000000
  0.250000  0.500000  0.333333      2.000000
  0.500000  0.500000  0.333333      2.000000
 -0.250000  0.500000  0.333333      2.000000
  0.000000 -0.250000  0.333333      2.000000
  0.250000 -0.250000  0.333333      2.000000
  0.500000 -0.250000  0.333333      2.000000
 -0.250000 -0.250000  0.333333      2.000000

 Following cartesian coordinates:
            Coordinates               Weight
  0.000000  0.000000  0.000000      1.000000
  0.031467  0.018168  0.000000      2.000000
  0.062935  0.036335  0.000000      1.000000
  0.000000  0.036335  0.000000      2.000000
  0.031467  0.054503  0.000000      2.000000
  0.062935  0.072671  0.000000      2.000000
 -0.031467  0.018168  0.000000      2.000000
  0.000000  0.072671  0.000000      1.000000
  0.031467  0.090839  0.000000      2.000000
  0.062935  0.109006  0.000000      1.000000
  0.000000  0.000000  0.037917      2.000000
  0.031467  0.018168  0.037917      2.000000
  0.062935  0.036335  0.037917      2.000000
 -0.031467 -0.018168  0.037917      2.000000
  0.000000  0.036335  0.037917      2.000000
  0.031467  0.054503  0.037917      2.000000
  0.062935  0.072671  0.037917      2.000000
 -0.031467  0.018168  0.037917      2.000000
  0.000000  0.072671  0.037917      2.000000
  0.031467  0.090839  0.037917      2.000000
  0.062935  0.109006  0.037917      2.000000
 -0.031467  0.054503  0.037917      2.000000
  0.000000 -0.036335  0.037917      2.000000
  0.031467 -0.018168  0.037917      2.000000
[...]
    234       9.1300      0.00000
    235      12.9373      0.00000
    236      13.5354      0.00000
    237      13.8285      0.00000
    238      14.3666      0.00000
    239      14.7606      0.00000
    240      15.1677      0.00000

 soft charge-density along one line, spin component           1
         0         1         2         3         4         5         6         7         8         9
 total charge-density along one line

------------------------ aborting loop because EDIFF is reached ----------------------------------------

  FORCE on cell =-STRESS in cart. coord.  units (eV):
  Direction    XX          YY          ZZ          XY          YZ          ZX
  Alpha Z  1443.53425  1443.53425  1443.53425
  Ewald    1159.55015   649.41191-23161.25833  -738.02177  -170.43684   467.20599
  Hartree 10461.44874 10171.91160 -6064.64838  -306.87473   -47.08081   142.60466
  E(xc)   -2072.62913 -2072.40310 -2073.88706     1.43490     0.48496    -0.88544
  Local  -19393.78313-18600.46753 20871.10427   963.18458   202.57115  -534.51149
  n-local  -625.78799  -627.76954  -739.75444   -38.91559    -9.66752    34.10976
  augment  3266.85131  3271.50319  3447.19230    34.04260     9.33132   -30.91750
  Kinetic  6185.02625  6201.05110  6491.11258     5.50796   -10.80624   -21.67834
  Fock        0.00000     0.00000     0.00000     0.00000     0.00000     0.00000
  Total      424.2104426    436.7718793    213.3951996    -79.6420518    -25.6039706     55.9276392
  in kB     1414.3606287   1456.2417324    711.4812327   -265.5346761    -85.3662341    186.4684198

 VOLUME and BASIS-vectors are now :
  energy-cutoff  :      500.00
  volume of cell :      480.54
      direct lattice vectors                 reciprocal lattice vectors
     7.944726500  0.000000000  0.000000000     0.125869657  0.072670880  0.000000000
    -3.972363250  6.880334980  0.000000000     0.000000000  0.145341761  0.000000000
     0.000000000  0.000000000  8.791100500     0.000000000  0.000000000  0.113751401

  length of vectors
     7.944726500  7.944726504  8.791100500     0.145341761  0.145341761  0.113751401

 FORCES acting on ions
    electron-ion (+dipol)            ewald-force                    non-local-force                 convergence-correction
   -.110E+03 -.192E+03 0.154E+03   0.122E+03 0.229E+03 -.143E+03   -.157E+01 -.463E+00 0.572E+01   -.272E-01 0.718E-01 0.334E-02
   -.643E+02 -.151E+03 0.375E+02   0.775E+02 0.176E+03 -.323E+02   -.592E+00 -.286E+01 -.101E+01   -.213E-01 0.199E-01 0.736E-02
   -.298E+03 -.104E+03 0.104E+03   0.354E+03 0.842E+02 -.943E+02   -.409E+01 -.151E+01 0.209E+01   0.267E-01 -.643E-01 -.561E-02
   -.181E+03 -.314E+02 0.664E+02   0.200E+03 0.356E+02 -.747E+02   -.186E+01 -.864E+00 -.649E+00   0.165E-01 -.150E-01 0.222E-01
   -.176E+03 0.256E+03 -.120E+03   0.195E+03 -.277E+03 0.135E+03   -.230E+01 0.425E+01 -.293E+01   -.281E-02 0.176E-01 -.162E-02
   -.186E+03 0.209E+03 0.225E+02   0.200E+03 -.222E+03 -.143E+02   -.247E+01 0.350E+01 -.266E+00   0.117E-01 -.488E-02 -.203E-02
   -.130E+03 -.149E+03 -.965E+01   0.138E+03 0.168E+03 0.186E+02   -.387E+01 -.266E+01 0.152E+01   0.170E-02 0.212E-01 0.278E-02
   -.484E+01 -.130E+03 0.826E+02   -.809E+01 0.143E+03 -.911E+02   0.157E+01 -.992E+00 0.670E-01   0.394E-01 0.177E-01 -.736E-02
   -.119E+01 -.154E+03 0.111E+02   0.410E+00 0.161E+03 -.723E+01   -.110E+00 -.137E+01 0.193E+01   -.422E-01 -.344E-01 0.191E-02
   -.747E+02 -.100E+03 0.114E+02   0.770E+02 0.980E+02 -.649E+01   -.583E+00 0.411E+00 0.206E+01   -.593E-02 0.327E-01 0.240E-02
   0.925E+01 0.233E+03 0.166E+03   -.118E+02 -.244E+03 -.162E+03   0.382E+00 0.367E+01 0.159E+01   0.831E-02 0.806E-02 -.104E-01
   -.554E+02 0.110E+03 0.104E+02   0.583E+02 -.115E+03 -.947E+01   -.137E+00 0.185E+01 0.178E+00   0.251E-01 -.227E-01 -.245E-02
   0.317E+03 -.614E+02 -.362E+02   -.346E+03 0.800E+02 0.360E+02   0.626E+01 -.354E+00 -.217E+01   0.190E-01 0.522E-01 0.777E-03
   0.290E+03 -.112E+03 0.104E+03   -.308E+03 0.122E+03 -.113E+03   0.366E+01 -.381E+00 0.507E+00   -.222E-01 0.114E-01 0.997E-02
   0.161E+03 -.145E+01 0.967E+02   -.165E+03 -.284E+01 -.908E+02   0.407E+01 0.209E+01 0.244E+01   0.291E-01 -.410E-01 -.616E-02
   0.426E+02 0.116E+03 0.112E+03   -.446E+02 -.122E+03 -.113E+03   0.176E+01 -.809E-01 -.387E+00   -.169E-01 -.315E-01 0.809E-02
   0.588E+02 0.280E+03 0.957E+02   -.549E+02 -.295E+03 -.899E+02   0.285E+01 0.587E+01 0.170E+01   -.713E-02 0.337E-01 -.379E-02
   0.124E+03 0.119E+03 0.105E+03   -.129E+03 -.124E+03 -.102E+03   0.211E+01 0.434E+01 0.134E+01   -.421E-01 -.245E-01 0.321E-02
   -.138E+03 -.171E+03 -.521E+03   0.149E+03 0.173E+03 0.547E+03   -.666E+01 -.967E+00 -.202E+02   -.264E-01 -.206E-01 -.700E-02
   -.106E+03 -.567E+02 0.422E+03   0.106E+03 0.495E+02 -.449E+03   0.232E+01 0.592E+01 0.248E+02   0.352E-02 0.236E-01 0.111E-01
   -.262E+02 -.197E+03 -.352E+03   0.264E+02 0.202E+03 0.376E+03   -.489E+00 0.334E+00 -.191E+02   -.857E-02 0.265E-01 -.129E-01
   -.683E+02 -.151E+03 0.314E+03   0.672E+02 0.153E+03 -.332E+03   0.281E+01 0.120E+01 0.619E+01   -.258E-01 -.264E-01 -.491E-02
   -.170E+03 -.424E+02 -.473E+03   0.182E+03 0.425E+02 0.494E+03   -.942E+01 0.247E+01 -.175E+02   0.120E-01 -.307E-01 0.210E-01
   0.753E+02 -.102E+03 0.383E+03   -.897E+02 0.107E+03 -.411E+03   0.902E+01 -.161E+01 0.251E+02   0.749E-02 0.267E-02 0.284E-01
   -.625E+02 -.422E+02 -.342E+03   0.589E+02 0.507E+02 0.371E+03   0.376E+01 -.493E+01 -.257E+02   0.243E-01 -.223E-01 -.190E-01
   -.583E+02 -.962E+02 0.276E+03   0.542E+02 0.102E+03 -.287E+03   0.442E+01 -.229E+01 0.393E+01   -.309E-01 -.289E-01 -.154E-01
   -.117E+03 -.216E+02 -.606E+03   0.126E+03 0.260E+02 0.642E+03   -.508E+01 -.650E+01 -.243E+02   -.129E-01 0.369E-01 0.117E-01
   -.970E+02 0.791E+02 0.461E+03   0.989E+02 -.842E+02 -.499E+03   -.220E+00 0.131E+01 0.328E+02   0.236E-01 -.303E-02 0.424E-02
   -.149E+03 -.850E+01 -.428E+03   0.159E+03 0.122E+02 0.464E+03   -.321E+01 -.799E+01 -.286E+02   0.434E-03 0.157E-01 -.418E-02
   -.615E+02 0.140E+03 0.401E+03   0.534E+02 -.161E+03 -.436E+03   0.860E+01 0.627E+01 0.200E+02   -.407E-02 0.293E-01 -.210E-01
   0.119E+02 -.749E+02 -.477E+03   -.101E+02 0.778E+02 0.503E+03   -.167E+01 -.149E+01 -.245E+02   0.127E-01 -.187E-01 0.282E-01
   -.186E+02 -.446E+02 0.358E+03   0.208E+02 0.449E+02 -.380E+03   -.220E+01 0.429E+00 0.230E+02   0.439E-02 -.394E-02 0.118E-01
   0.236E+02 -.736E+02 -.329E+03   -.270E+02 0.759E+02 0.357E+03   0.190E+01 -.125E+00 -.268E+02   -.101E-02 0.577E-02 -.174E-01
   0.709E+02 0.172E+01 0.355E+03   -.715E+02 -.633E+01 -.376E+03   -.146E+01 0.368E+01 0.109E+02   0.236E-01 -.426E-02 -.605E-02
   0.853E+02 0.365E+02 -.441E+03   -.918E+02 -.338E+02 0.461E+03   0.584E+01 -.268E+01 -.179E+02   -.139E-01 -.853E-04 0.454E-01
   0.740E+01 0.593E+02 0.410E+03   -.526E+01 -.656E+02 -.443E+03   -.174E+00 0.406E+01 0.280E+02   -.245E-01 -.607E-02 0.153E-01
   0.429E+02 0.501E+02 -.327E+03   -.419E+02 -.527E+02 0.347E+03   -.178E+01 0.229E+01 -.217E+02   -.128E-01 -.841E-02 -.302E-01
   0.960E+02 0.117E+02 0.298E+03   -.107E+03 -.849E+01 -.313E+03   0.476E+01 -.194E+01 0.652E+01   0.195E-01 -.176E-01 -.225E-01
   -.227E+02 0.733E+02 -.529E+03   0.304E+02 -.730E+02 0.560E+03   -.624E+01 -.355E+01 -.273E+02   0.145E-01 0.270E-01 0.266E-01
   0.977E+02 0.673E+02 0.431E+03   -.106E+03 -.707E+02 -.464E+03   0.787E+01 0.218E+01 0.302E+02   -.147E-01 -.618E-02 0.173E-01
   -.140E+03 0.397E+02 -.369E+03   0.164E+03 -.411E+02 0.407E+03   -.109E+02 -.608E+01 -.272E+02   0.172E-01 0.249E-02 -.164E-01
   0.133E+03 0.137E+03 0.363E+03   -.147E+03 -.146E+03 -.390E+03   0.763E+01 0.500E+01 0.131E+02   -.215E-02 0.539E-01 -.150E-01
   0.127E+03 0.411E+02 -.616E+03   -.146E+03 -.550E+02 0.666E+03   0.751E+01 0.562E+01 -.350E+02   0.220E-01 -.233E-01 -.105E-02
   0.142E+03 -.184E+03 0.483E+03   -.151E+03 0.204E+03 -.520E+03   -.153E+01 -.149E+02 0.277E+02   -.738E-02 0.179E-01 0.127E-01
   0.130E+03 0.870E+02 -.345E+03   -.150E+03 -.106E+03 0.380E+03   0.918E+01 0.119E+02 -.270E+02   0.162E-01 -.305E-02 -.116E-01
   0.294E+02 -.176E+03 0.434E+03   -.429E+02 0.199E+03 -.472E+03   -.490E+00 -.919E+01 0.189E+02   -.382E-03 0.475E-02 0.198E-01
   0.921E+02 0.723E+02 -.513E+03   -.102E+03 -.798E+02 0.541E+03   0.750E+01 0.676E+01 -.263E+02   -.290E-02 -.174E-01 0.367E-01
   -.138E+02 0.401E+01 0.452E+03   0.155E+02 0.926E+00 -.486E+03   -.508E+01 -.335E+01 0.302E+02   0.194E-01 -.226E-01 0.183E-01
   0.447E+02 0.644E+02 -.396E+03   -.475E+02 -.641E+02 0.429E+03   0.837E+00 0.522E+00 -.306E+02   -.102E-01 -.128E-01 -.425E-02
   0.113E+03 -.241E+03 0.426E+03   -.157E+03 0.301E+03 -.474E+03   0.443E+01 -.209E+02 0.196E+02   0.202E-01 -.426E-01 -.162E-01
   0.165E+02 0.140E+03 -.676E+03   -.180E+01 -.154E+03 0.738E+03   -.491E+01 -.339E+00 -.391E+02   -.590E-02 0.546E-01 0.151E-02
   0.383E+02 0.146E+03 0.574E+03   -.445E+02 -.158E+03 -.632E+03   -.159E+00 -.140E+01 0.365E+02   -.589E-02 0.191E-02 -.464E-02
   0.105E+03 0.793E+02 -.506E+03   -.107E+03 -.890E+02 0.562E+03   -.119E+01 0.900E+00 -.371E+02   -.215E-01 0.123E-01 -.273E-02
   0.202E+02 0.223E+03 0.470E+03   -.224E+02 -.268E+03 -.526E+03   -.462E+01 0.839E+01 0.241E+02   -.711E-02 0.572E-01 -.196E-01
   -.259E+02 0.645E+01 0.805E+02   -.750E-12 0.114E-12 0.114E-12   0.259E+02 -.653E+01 -.806E+02   -.849E-02 0.102E+00 0.807E-01

 POSITION                                       TOTAL-FORCE (eV/Angst)
      3.97245      6.85717      8.70182        10.754199     36.756016     16.303222
      3.97133      6.85007      4.58840        12.580157     22.040120      4.121191
      6.42954      2.37486      8.77185        51.832754    -21.604167     12.239352
      6.49909      2.46500      4.76610        17.608380      3.393098     -8.910369
     -2.76390      4.88493      0.14583        17.323916    -15.995596     12.320217
     -2.75318      4.95175      4.55484        12.123984     -9.274390      7.919127
      2.77663      0.10381      0.05402         3.609879     16.456372     10.450829
      2.79015      0.07345      4.65734       -11.318375     12.481853     -8.369493
      1.43511      2.38571      0.01670        -0.935273      4.966303      5.800888
      1.42007      2.37427      4.45955         1.782758     -1.571179      6.925126
     -0.00665      5.02474      8.57733        -2.195054     -7.673682      4.731529
     -0.07310      4.81014      4.64844         2.767741     -3.187471      1.117636
      5.66571      0.08339      0.10430       -22.928594     18.244716     -2.290027
      1.71406      6.82782      4.62239       -15.071701      9.758138     -7.938679
      4.14148      2.44904      8.76104        -0.078310     -2.242288      8.286839
      4.10763      2.56751      4.61487        -0.220301     -5.760000     -1.457087
      2.73654      4.89431      8.69423         6.685249     -9.631108      7.452524
      2.74736      4.77218      4.46895        -2.206362     -0.099278      4.291042
     -0.21246      1.60480      0.88242         4.296792      0.997926      6.153138
      1.34086      0.86626      3.62006         2.496918     -1.251551     -2.400030
      0.13549      1.47363      5.33834        -0.359294      5.002572      4.887971
      1.37571      0.83650      8.45166         1.671244      2.922402    -11.640330
     -1.43334      3.99353      0.92133         2.274235      2.593869      3.480285
      0.19337      3.07413      3.71916        -5.405268      3.732780     -3.018926
     -1.39566      3.94682      5.53116         0.213476      3.560449      3.100771
      0.00876      3.15042      8.31890         0.243754      3.259143     -6.755444
     -2.73453      6.49771      0.89764         4.611593     -2.110914     12.090371
     -1.41603      5.63588      3.75984         1.664677     -3.730105     -5.269174
     -2.77460      6.53444      5.60201         6.659657     -4.263199      6.779030
     -1.52055      5.71488      8.26664         0.535156    -13.802737    -14.813409
      2.83056      1.60878      1.00889         0.130133      1.378988      1.416793
      4.18521      0.81607      3.55969        -0.040471      0.710989      0.875141
      2.89703      1.61143      5.53017        -1.519453      2.269570      0.763465
      4.28423      0.84961      8.33806        -1.989384     -0.929968     -9.460713
      1.43215      4.02856      0.84927        -0.737425     -0.038388      1.777819
      2.68582      3.29244      3.77638         1.944372     -2.264765     -5.054013
      1.43698      4.04834      5.63947        -0.846427     -0.336104     -0.879435
      2.88006      3.25265      8.39882        -5.831280      1.283672     -9.325189
      0.07064      6.39533      1.00004         1.538134     -3.203232      4.210428
      1.31225      5.45238      3.74638        -0.240599     -1.239346     -3.664895
     -0.03218      6.59297      5.46225        12.634395     -7.415324     10.881224
      1.46898      5.61377      8.34054        -6.778854     -4.616844    -14.207627
      5.48763      1.80153      0.91252       -11.090224     -8.369606     15.049044
      7.13154      0.79815      3.59449       -10.093269      5.264237     -8.606338
      5.51072      1.71486      5.51551       -10.922760     -7.455725      8.256782
      6.97564      0.91638      8.40543       -13.933514     13.771090    -18.715806
      4.10011      4.00026      1.05966        -2.301331     -0.800432      2.394065
      5.53157      3.29569      3.70888        -3.453981      1.559252     -3.745700
      4.08181      4.04798      5.51393        -1.949424      0.839064      2.906034
      5.58512      3.15557      8.37039       -39.556022     38.691337    -28.586429
      2.78287      6.51081      0.84766         9.781746    -14.007862     23.074807
      4.16745      5.71826      3.79096        -6.386350    -14.016149    -21.286343
      2.86922      6.50660      5.50321        -2.498222     -8.806208     18.159226
      4.21665      5.68472      8.33983        -6.877776    -36.236335    -31.820458
    total drift:                                0.003919      0.015068     -0.012964

  FREE ENERGIE OF THE ION-ELECTRON SYSTEM (eV)
  free  energy   TOTEN  =      -232.5931486510 eV

  energy  without entropy=     -232.5593051332  energy(sigma->0) =     -232.57622689

volume of typ            1:    23.9 %

volume of typ            2:    12.2 %

total charge

# of ion       s       p       d       tot
    1        0.647   1.233   8.467  10.347
    2        0.580   1.093   8.251   9.924
    3        0.607   1.087   8.380  10.074
    4        0.418   0.618   8.015   9.050
    5        0.456   0.789   8.160   9.406
    6        0.401   0.629   8.025   9.055
    7        0.450   0.782   8.075   9.307
    8        0.419   0.670   8.003   9.093
    9        0.363   0.547   7.932   8.841
   10        0.369   0.543   7.900   8.812
   11        0.328   0.474   7.961   8.763
   12        0.301   0.409   7.880   8.590
   13        0.512   0.894   8.231   9.637
   14        0.375   0.544   8.026   8.945
   15        0.411   0.659   8.018   9.089
   16        0.323   0.460   7.889   8.672
   17        0.394   0.612   8.083   9.089
   18        0.345   0.488   7.965   8.798
   19        1.331   2.724   0.015   4.070
   20        1.295   2.759   0.010   4.064
   21        1.291   2.802   0.012   4.104
   22        1.287   2.952   0.029   4.268
   23        1.314   2.717   0.010   4.042
   24        1.291   2.760   0.012   4.064
   25        1.279   2.797   0.012   4.087
   26        1.279   2.829   0.013   4.121
   27        1.322   2.815   0.021   4.158
   28        1.280   2.853   0.018   4.151
   29        1.291   2.814   0.015   4.119
   30        1.280   3.001   0.034   4.314
   31        1.299   2.754   0.010   4.063
   32        1.297   2.667   0.005   3.969
   33        1.284   2.764   0.009   4.058
   34        1.269   2.905   0.019   4.193
   35        1.310   2.711   0.009   4.029
   36        1.278   2.833   0.017   4.128
   37        1.293   2.690   0.006   3.988
   38        1.278   2.912   0.025   4.215
   39        1.302   2.767   0.013   4.082
   40        1.279   2.813   0.016   4.108
   41        1.297   2.832   0.023   4.152
   42        1.283   3.031   0.042   4.356
   43        1.304   2.907   0.027   4.238
   44        1.304   2.792   0.017   4.112
   45        1.291   2.850   0.023   4.163
   46        1.300   3.040   0.052   4.392
   47        1.299   2.765   0.012   4.075
   48        1.288   2.779   0.013   4.080
   49        1.278   2.816   0.013   4.107
   50        1.317   3.057   0.059   4.433
   51        1.310   3.007   0.040   4.357
   52        1.298   3.005   0.044   4.346
   53        1.288   2.969   0.035   4.292
   54        1.310   3.189   0.076   4.575
tot          54.29  115.21  146.07  315.56