 vasp.5.4.4.18Apr17-6-g9f103f2a35 (build May 12 2020 04:58:55) complex

 MD_VERSION_INFO: Compiled 2020-05-12T11:58:55-UTC in devlin.sd.materialsdesign.
 com:/home/medea2/data/build/wwolf/vasp-gpu5.4.4/13047/x86_64/src/src/build/std
 from svn 13047

 executed on                        Lin64 date 2023.04.27  11:35:43

 INCAR:
 POTCAR:    PAW_PBE Ni 02Aug2007
 POTCAR:    PAW_PBE O 08Apr2002

 POTCAR:    PAW_PBE Ni 02Aug2007

 POTCAR:    PAW_PBE O 08Apr2002

 Optimization of the real space projectors (new method)

 maximal supplied QI-value         = 16.25
 optimisation between [QCUT,QGAM] = [ 11.38, 22.75] = [ 36.24,144.96] Ry
 Optimized for a Real-space Cutoff    1.47 Angstroem

   l    n(q)    QCUT    max X(q) W(low)/X(q) W(high)/X(q)  e(spline)
   2      9    11.376    60.317    0.17E-03    0.16E-04    0.16E-06
   2      9    11.376    55.921    0.17E-03    0.16E-04    0.17E-06
   0     10    11.376    51.690    0.45E-04    0.60E-04    0.21E-06
   0     10    11.376    30.015    0.37E-04    0.55E-04    0.19E-06
   1     10    11.376    18.849    0.83E-04    0.11E-03    0.92E-07
   1     10    11.376    14.624    0.69E-04    0.92E-04    0.82E-07
 Optimization of the real space projectors (new method)

 maximal supplied QI-value         = 24.76
 optimisation between [QCUT,QGAM] = [ 11.39, 22.77] = [ 36.31,145.25] Ry
 Optimized for a Real-space Cutoff    1.10 Angstroem

   l    n(q)    QCUT    max X(q) W(low)/X(q) W(high)/X(q)  e(spline)
   0      7    11.387    20.381    0.22E-03    0.48E-03    0.18E-06
   0      7    11.387    15.268    0.22E-03    0.52E-03    0.19E-06
   1      7    11.387     5.964    0.22E-03    0.73E-03    0.24E-06
   1      7    11.387     5.382    0.19E-03    0.60E-03    0.21E-06

  PAW_PBE Ni 02Aug2007                  :
  PAW_PBE O 08Apr2002                   :

 POSCAR: NiO2_C2_m_pris -- File /home/vwiobs1/Med
  positions in direct lattice
 exchange correlation table for  LEXCH =       14
   RHO(1)=    0.500       N(1)  =     2000
   RHO(2)=  100.500       N(2)  =     4000

 ion  position               nearest neighbor table
   1  0.000  0.000  0.000-  27 1.86  46 1.86  22 1.86  51 1.86  19 1.86  54 1.86   7 2.79  13 2.79
                             5 2.79  17 2.79   3 2.79   9 2.79
   2  0.000  0.000  0.500-  29 1.86  44 1.86  20 1.86  53 1.86  52 1.86  21 1.86   8 2.79  14 2.79
                             6 2.79  18 2.79   4 2.79  10 2.79
   3  0.000  0.333  0.000-  19 1.86  50 1.86  43 1.86  26 1.86  46 1.86  23 1.86   9 2.79  15 2.79
                            13 2.79   1 2.79  11 2.79   5 2.79
   4  0.000  0.333  0.500-  21 1.86  48 1.86  45 1.86  24 1.86  44 1.86  25 1.86  10 2.79  16 2.79
                            14 2.79   2 2.79  12 2.79   6 2.79
   5  0.000  0.667  0.000-  54 1.86  23 1.86  47 1.86  30 1.86  27 1.86  50 1.86  11 2.79  17 2.79
                             1 2.79   7 2.79  15 2.79   3 2.79
   6  0.000  0.667  0.500-  52 1.86  25 1.86  49 1.86  28 1.86  29 1.86  48 1.86  12 2.79  18 2.79
                             2 2.79   8 2.79  16 2.79   4 2.79
   7  0.333  0.000  0.000-  22 1.86  39 1.86  27 1.86  31 1.86  30 1.86  34 1.86   1 2.79   5 2.79
                             9 2.79  11 2.79  15 2.79  13 2.79
   8  0.333  0.000  0.500-  20 1.86  41 1.86  29 1.86  33 1.86  28 1.86  32 1.86   2 2.79   6 2.79
                            10 2.79  12 2.79  16 2.79  14 2.79
   9  0.333  0.333  0.000-  26 1.86  31 1.86  19 1.86  22 1.86  38 1.86  35 1.86   3 2.79   1 2.79
                             7 2.79  15 2.79  11 2.79  17 2.79
  10  0.333  0.333  0.500-  24 1.86  33 1.86  21 1.86  20 1.86  36 1.86  37 1.86   4 2.79   2 2.79
                             8 2.79  16 2.79  12 2.79  18 2.79
  11  0.333  0.667  0.000-  30 1.86  23 1.86  35 1.86  39 1.86  42 1.86  26 1.86   5 2.79   7 2.79
                            13 2.79   3 2.79  17 2.79   9 2.79
  12  0.333  0.667  0.500-  28 1.86  25 1.86  37 1.86  41 1.86  40 1.86  24 1.86   6 2.79   8 2.79
                            14 2.79   4 2.79  18 2.79  10 2.79
  13  0.667  0.000  0.000-  51 1.86  34 1.86  46 1.86  42 1.86  43 1.86  39 1.86   1 2.79   3 2.79
                            15 2.79  17 2.79  11 2.79   7 2.79
  14  0.667  0.000  0.500-  53 1.86  32 1.86  44 1.86  45 1.86  40 1.86  41 1.86   2 2.79   4 2.79
                            16 2.79  18 2.79  12 2.79   8 2.79
  15  0.667  0.333  0.000-  43 1.86  50 1.86  38 1.86  34 1.86  31 1.86  47 1.86   3 2.79  13 2.79
                             7 2.79   5 2.79   9 2.79  17 2.79
  16  0.667  0.333  0.500-  45 1.86  48 1.86  36 1.86  32 1.86  33 1.86  49 1.86   4 2.79  14 2.79
                             8 2.79   6 2.79  10 2.79  18 2.79
  17  0.667  0.667  0.000-  42 1.86  47 1.86  54 1.86  51 1.86  35 1.86  38 1.86   5 2.79   1 2.79
                            13 2.79  11 2.79   9 2.79  15 2.79
  18  0.667  0.667  0.500-  40 1.86  49 1.86  52 1.86  53 1.86  37 1.86  36 1.86   6 2.79   2 2.79
                            14 2.79  12 2.79  10 2.79  16 2.79
  19  0.111  0.222  0.101-   3 1.86   9 1.86   1 1.86
  20  0.222  0.111  0.399-   8 1.86   2 1.86  10 1.86
  21  0.111  0.222  0.601-   4 1.86  10 1.86   2 1.86
  22  0.222  0.111  0.899-   7 1.86   1 1.86   9 1.86
  23  0.111  0.556  0.101-   5 1.86  11 1.86   3 1.86
  24  0.222  0.444  0.399-  10 1.86   4 1.86  12 1.86
  25  0.111  0.556  0.601-   6 1.86  12 1.86   4 1.86
  26  0.222  0.444  0.899-   9 1.86   3 1.86  11 1.86
  27  0.111  0.889  0.101-   1 1.86   7 1.86   5 1.86
  28  0.222  0.778  0.399-  12 1.86   6 1.86   8 1.86
  29  0.111  0.889  0.601-   2 1.86   8 1.86   6 1.86
  30  0.222  0.778  0.899-  11 1.86   5 1.86   7 1.86
  31  0.444  0.222  0.101-   9 1.86   7 1.86  15 1.86
  32  0.556  0.111  0.399-  14 1.86  16 1.86   8 1.86
  33  0.444  0.222  0.601-  10 1.86   8 1.86  16 1.86
  34  0.556  0.111  0.899-  13 1.86  15 1.86   7 1.86
  35  0.444  0.556  0.101-  11 1.86  17 1.86   9 1.86
  36  0.556  0.444  0.399-  16 1.86  10 1.86  18 1.86
  37  0.444  0.556  0.601-  12 1.86  18 1.86  10 1.86
  38  0.556  0.444  0.899-  15 1.86   9 1.86  17 1.86
  39  0.444  0.889  0.101-   7 1.86  11 1.86  13 1.86
  40  0.556  0.778  0.399-  18 1.86  14 1.86  12 1.86
  41  0.444  0.889  0.601-   8 1.86  12 1.86  14 1.86
  42  0.556  0.778  0.899-  17 1.86  13 1.86  11 1.86
  43  0.778  0.222  0.101-  15 1.86   3 1.86  13 1.86
  44  0.889  0.111  0.399-   2 1.86  14 1.86   4 1.86
  45  0.778  0.222  0.601-  16 1.86   4 1.86  14 1.86
  46  0.889  0.111  0.899-   1 1.86  13 1.86   3 1.86
  47  0.778  0.556  0.101-  17 1.86   5 1.86  15 1.86
  48  0.889  0.444  0.399-   4 1.86  16 1.86   6 1.86
  49  0.778  0.556  0.601-  18 1.86   6 1.86  16 1.86
  50  0.889  0.444  0.899-   3 1.86  15 1.86   5 1.86
  51  0.778  0.889  0.101-  13 1.86   1 1.86  17 1.86
  52  0.889  0.778  0.399-   6 1.86  18 1.86   2 1.86
  53  0.778  0.889  0.601-  14 1.86   2 1.86  18 1.86
  54  0.889  0.778  0.899-   5 1.86  17 1.86   1 1.86

  LATTYP: Found a hexagonal cell.
 ALAT       =     8.3628700013
 C/A-ratio  =     1.1065328050

  Lattice vectors:

 A1 = (   8.3628700000,   0.0000000000,   0.0000000000)
 A2 = (  -4.1814350000,   7.2424578700,   0.0000000000)
 A3 = (   0.0000000000,   0.0000000000,   9.2537900000)

Analysis of symmetry for initial positions (statically):
 Subroutine PRICEL returns following result:

[...]

   2 primitive cells build up your supercell.

 Routine SETGRP: Setting up the symmetry group for a
 hexagonal supercell.

 Subroutine GETGRP returns: Found  4 space group operations
 (whereof  4 operations were pure point group operations)
 out of a pool of 24 trial point group operations.

The static configuration has the point symmetry C_2h.

Analysis of symmetry for dynamics (positions and initial velocities):
 Subroutine PRICEL returns following result:

  LATTYP: Found a hexagonal cell.
 ALAT       =     8.3628700013
 C/A-ratio  =     0.5532664025

  Lattice vectors:

 A1 = (   8.3628700000,   0.0000000000,   0.0000000000)
 A2 = (  -4.1814350000,   7.2424578700,   0.0000000000)
 A3 = (   0.0000000000,   0.0000000000,   4.6268950000)

   2 primitive cells build up your supercell.

 Routine SETGRP: Setting up the symmetry group for a
 hexagonal supercell.

 Subroutine GETGRP returns: Found  4 space group operations
 (whereof  4 operations were pure point group operations)
 out of a pool of 24 trial point group operations.

The dynamic configuration has the point symmetry C_2h.

 Subroutine INISYM returns: Found  4 space group operations
 (whereof  4 operations are pure point group operations),
 and found     2 'primitive' translations

 KPOINTS: Automatic mesh

Automatic generation of k-mesh.
Space group operators:
 irot       det(A)        alpha          n_x          n_y          n_z        tau_x        tau_y        tau_z
    1     1.000000     0.000000     1.000000     0.000000     0.000000     0.000000     0.000000     0.000000
    2    -1.000000     0.000000     1.000000     0.000000     0.000000     0.000000     0.000000     0.000000
    3     1.000000   180.000000    -0.500000    -0.866025     0.000000     0.000000     0.000000     0.000000
    4    -1.000000   180.000000    -0.500000    -0.866025     0.000000     0.000000     0.000000     0.000000

 Subroutine IBZKPT returns following result:

 Found     17 irreducible k-points:

 Following reciprocal coordinates:
            Coordinates               Weight
  0.000000  0.000000  0.000000      1.000000
  0.250000  0.000000  0.000000      4.000000
  0.500000  0.000000  0.000000      2.000000
  0.250000  0.250000  0.000000      2.000000
  0.500000  0.250000  0.000000      4.000000
 -0.250000  0.250000  0.000000      2.000000
  0.500000  0.500000  0.000000      1.000000
  0.000000  0.000000  0.333333      2.000000
  0.250000  0.000000  0.333333      4.000000
  0.500000  0.000000  0.333333      4.000000
 -0.250000  0.000000  0.333333      4.000000
  0.250000  0.250000  0.333333      4.000000
  0.500000  0.250000  0.333333      4.000000
 -0.250000  0.250000  0.333333      2.000000
  0.250000  0.500000  0.333333      4.000000
  0.500000  0.500000  0.333333      2.000000
  0.250000 -0.250000  0.333333      2.000000

 Following cartesian coordinates:
            Coordinates               Weight
  0.000000  0.000000  0.000000      1.000000
  0.029894  0.017259  0.000000      4.000000
  0.059788  0.034519  0.000000      2.000000
  0.029894  0.051778  0.000000      2.000000
  0.059788  0.069037  0.000000      4.000000
 -0.029894  0.017259  0.000000      2.000000
  0.059788  0.103556  0.000000      1.000000
  0.000000  0.000000  0.036021      2.000000
  0.029894  0.017259  0.036021      4.000000
  0.059788  0.034519  0.036021      4.000000
 -0.029894 -0.017259  0.036021      4.000000
  0.029894  0.051778  0.036021      4.000000
  0.059788  0.069037  0.036021      4.000000
 -0.029894  0.017259  0.036021      2.000000
  0.029894  0.086297  0.036021      4.000000
  0.059788  0.103556  0.036021      2.000000
  0.029894 -0.017259  0.036021      2.000000

 SYSTEM =  unknown system
 POSCAR =  NiO2_C2_m_pris -- File /home/vwiobs1/Med

 Startparameter for this run:
   NWRITE =      1    write-flag & timer
[...]
    234       4.9085      0.00000
    235      11.0680      0.00000
    236      11.8504      0.00000
    237      12.6900      0.00000
    238      13.5060      0.00000
    239      13.5623      0.00000
    240      13.5874      0.00000

 soft charge-density along one line, spin component           1
         0         1         2         3         4         5         6         7         8         9
 total charge-density along one line

------------------------ aborting loop because EDIFF is reached ----------------------------------------

  FORCE on cell =-STRESS in cart. coord.  units (eV):
  Direction    XX          YY          ZZ          XY          YZ          ZX
  Alpha Z  1237.65018  1237.65018  1237.65018
  Ewald   -1387.64457 -1387.78887-19730.08480    -0.12497    -0.05381     0.09320
  Hartree  8692.50379  8692.44471 -4389.98058    -0.05116    -0.02209     0.03827
  E(xc)   -2020.92452 -2020.92447 -2024.42657     0.00004     0.00009    -0.00015
  Local  -14989.91040-14989.71836 16120.72460     0.16631     0.07372    -0.12768
  n-local  -849.25953  -853.45938  -887.64103     1.20821     1.98383     1.15433
  augment  3336.96973  3336.97556  3433.15990     0.00505     0.00112    -0.00195
  Kinetic  5978.94278  5988.37045  6240.62048    -2.71511    -5.05975    -2.91889
  Fock        0.00000     0.00000     0.00000     0.00000     0.00000     0.00000
  Total        0.9403438      0.9369326      0.0221706     -0.0029542     -0.0038600      0.0066858
  in kB        2.6880435      2.6782922      0.0633763     -0.0084449     -0.0110341      0.0191119

 VOLUME and BASIS-vectors are now :
  energy-cutoff  :      500.00
  volume of cell :      560.48
      direct lattice vectors                 reciprocal lattice vectors
     8.362870000  0.000000000  0.000000000     0.119576174  0.069037336  0.000000000
    -4.181435000  7.242457870  0.000000000     0.000000000  0.138074673  0.000000000
     0.000000000  0.000000000  9.253790000     0.000000000  0.000000000  0.108063831

  length of vectors
     8.362870000  8.362870001  9.253790000     0.138074673  0.138074673  0.108063831

 FORCES acting on ions
    electron-ion (+dipol)            ewald-force                    non-local-force                 convergence-correction
   -.558E-13 -.689E-13 -.971E-13   -.735E-13 0.853E-13 0.284E-13   0.199E-22 -.265E-22 0.000E+00   0.174E-12 -.107E-12 0.834E-12
   -.638E-13 -.470E-13 0.122E-11   -.163E-12 -.693E-13 0.568E-13   0.165E-22 -.199E-22 0.651E-23   0.538E-13 -.220E-12 -.747E-12
   -.648E-02 -.389E-01 -.103E-01   0.155E-02 0.397E-01 0.119E-01   0.841E-04 -.591E-03 0.206E-03   0.501E-02 0.431E-03 -.148E-02
   -.648E-02 -.389E-01 -.103E-01   0.155E-02 0.397E-01 0.119E-01   0.841E-04 -.591E-03 0.206E-03   0.501E-02 0.431E-03 -.148E-02
   0.648E-02 0.389E-01 0.103E-01   -.155E-02 -.397E-01 -.119E-01   -.841E-04 0.591E-03 -.206E-03   -.501E-02 -.431E-03 0.148E-02
   0.648E-02 0.389E-01 0.103E-01   -.155E-02 -.397E-01 -.119E-01   -.841E-04 0.591E-03 -.206E-03   -.501E-02 -.431E-03 0.148E-02
   -.305E-01 -.251E-01 0.103E-01   0.336E-01 0.212E-01 -.119E-01   -.554E-03 -.223E-03 -.206E-03   -.213E-02 0.455E-02 0.148E-02
   -.305E-01 -.251E-01 0.103E-01   0.336E-01 0.212E-01 -.119E-01   -.554E-03 -.223E-03 -.206E-03   -.213E-02 0.455E-02 0.148E-02
   -.359E-01 -.622E-01 -.195E-08   0.351E-01 0.608E-01 -.160E-11   -.475E-03 -.823E-03 0.000E+00   0.180E-02 0.311E-02 0.461E-12
   -.359E-01 -.622E-01 -.194E-08   0.351E-01 0.608E-01 -.155E-11   -.475E-03 -.823E-03 0.000E+00   0.180E-02 0.311E-02 -.121E-11
   -.375E-01 0.216E-01 0.237E-01   0.320E-01 -.185E-01 -.237E-01   -.147E-03 0.850E-04 -.105E-03   0.678E-02 -.391E-02 0.149E-03
   -.375E-01 0.216E-01 0.237E-01   0.320E-01 -.185E-01 -.237E-01   -.147E-03 0.850E-04 -.105E-03   0.678E-02 -.391E-02 0.149E-03
   0.305E-01 0.251E-01 -.103E-01   -.336E-01 -.212E-01 0.119E-01   0.554E-03 0.223E-03 0.206E-03   0.213E-02 -.455E-02 -.148E-02
   0.305E-01 0.251E-01 -.103E-01   -.336E-01 -.212E-01 0.119E-01   0.554E-03 0.223E-03 0.206E-03   0.213E-02 -.455E-02 -.148E-02
   0.375E-01 -.216E-01 -.237E-01   -.320E-01 0.185E-01 0.237E-01   0.147E-03 -.850E-04 0.105E-03   -.678E-02 0.391E-02 -.149E-03
   0.375E-01 -.216E-01 -.237E-01   -.320E-01 0.185E-01 0.237E-01   0.147E-03 -.850E-04 0.105E-03   -.678E-02 0.391E-02 -.149E-03
   0.359E-01 0.622E-01 0.198E-08   -.351E-01 -.608E-01 0.162E-11   0.475E-03 0.823E-03 0.000E+00   -.180E-02 -.311E-02 0.121E-11
   0.359E-01 0.622E-01 0.200E-08   -.351E-01 -.608E-01 0.168E-11   0.475E-03 0.823E-03 0.000E+00   -.180E-02 -.311E-02 -.300E-12
   -.725E-02 -.180E-01 -.373E+03   0.468E-02 0.168E-01 0.400E+03   -.218E-04 -.359E-02 -.278E+02   0.270E-02 0.148E-02 0.208E-02
   -.120E-01 -.153E-01 0.373E+03   0.122E-01 0.125E-01 -.400E+03   -.310E-02 -.182E-02 0.278E+02   -.668E-04 0.308E-02 -.208E-02
   -.725E-02 -.180E-01 -.373E+03   0.468E-02 0.168E-01 0.400E+03   -.218E-04 -.359E-02 -.278E+02   0.270E-02 0.148E-02 0.208E-02
   -.120E-01 -.153E-01 0.373E+03   0.122E-01 0.125E-01 -.400E+03   -.310E-02 -.182E-02 0.278E+02   -.668E-04 0.308E-02 -.208E-02
   -.165E-02 0.190E-01 -.373E+03   0.385E-02 -.178E-01 0.400E+03   0.171E-02 0.168E-02 -.278E+02   -.215E-02 -.257E-02 0.398E-02
   -.164E-01 -.206E-01 0.373E+03   0.134E-01 0.274E-01 -.400E+03   -.383E-03 -.385E-02 0.278E+02   0.351E-02 -.463E-02 -.322E-02
   -.165E-02 0.190E-01 -.373E+03   0.385E-02 -.178E-01 0.400E+03   0.171E-02 0.168E-02 -.278E+02   -.215E-02 -.257E-02 0.398E-02
   -.164E-01 -.206E-01 0.373E+03   0.134E-01 0.274E-01 -.400E+03   -.383E-03 -.385E-02 0.278E+02   0.351E-02 -.463E-02 -.322E-02
   -.357E-02 0.206E-02 -.373E+03   0.496E-02 -.287E-02 0.400E+03   -.329E-02 0.190E-02 -.278E+02   -.120E-02 0.694E-03 0.306E-02
   -.893E-02 0.515E-02 0.373E+03   0.125E-01 -.723E-02 -.400E+03   -.241E-02 0.139E-02 0.278E+02   -.306E-02 0.177E-02 -.432E-02
   -.357E-02 0.206E-02 -.373E+03   0.496E-02 -.287E-02 0.400E+03   -.329E-02 0.190E-02 -.278E+02   -.120E-02 0.694E-03 0.306E-02
   -.893E-02 0.515E-02 0.373E+03   0.125E-01 -.723E-02 -.400E+03   -.241E-02 0.139E-02 0.278E+02   -.306E-02 0.177E-02 -.432E-02
   -.965E-02 -.245E-01 -.373E+03   0.170E-01 0.252E-01 0.400E+03   -.314E-02 -.225E-02 -.278E+02   -.576E-02 0.730E-03 0.322E-02
   0.173E-01 0.805E-02 0.373E+03   -.173E-01 -.555E-02 -.400E+03   0.600E-03 0.232E-02 0.278E+02   -.115E-02 -.315E-02 -.398E-02
   -.965E-02 -.245E-01 -.373E+03   0.170E-01 0.252E-01 0.400E+03   -.314E-02 -.225E-02 -.278E+02   -.576E-02 0.730E-03 0.322E-02
   0.173E-01 0.805E-02 0.373E+03   -.173E-01 -.555E-02 -.400E+03   0.600E-03 0.232E-02 0.278E+02   -.115E-02 -.315E-02 -.398E-02
   -.211E-01 0.122E-01 -.373E+03   0.162E-01 -.935E-02 0.400E+03   -.153E-02 0.885E-03 -.278E+02   0.567E-02 -.328E-02 0.204E-02
   0.211E-01 -.122E-01 0.373E+03   -.162E-01 0.935E-02 -.400E+03   0.153E-02 -.885E-03 0.278E+02   -.567E-02 0.328E-02 -.204E-02
   -.211E-01 0.122E-01 -.373E+03   0.162E-01 -.935E-02 0.400E+03   -.153E-02 0.885E-03 -.278E+02   0.567E-02 -.328E-02 0.204E-02
   0.211E-01 -.122E-01 0.373E+03   -.162E-01 0.935E-02 -.400E+03   0.153E-02 -.885E-03 0.278E+02   -.567E-02 0.328E-02 -.204E-02
   -.173E-01 -.805E-02 -.373E+03   0.173E-01 0.555E-02 0.400E+03   -.600E-03 -.232E-02 -.278E+02   0.115E-02 0.315E-02 0.398E-02
   0.965E-02 0.245E-01 0.373E+03   -.170E-01 -.252E-01 -.400E+03   0.314E-02 0.225E-02 0.278E+02   0.576E-02 -.730E-03 -.322E-02
   -.173E-01 -.805E-02 -.373E+03   0.173E-01 0.555E-02 0.400E+03   -.600E-03 -.232E-02 -.278E+02   0.115E-02 0.315E-02 0.398E-02
   0.965E-02 0.245E-01 0.373E+03   -.170E-01 -.252E-01 -.400E+03   0.314E-02 0.225E-02 0.278E+02   0.576E-02 -.730E-03 -.322E-02
   0.893E-02 -.515E-02 -.373E+03   -.125E-01 0.723E-02 0.400E+03   0.241E-02 -.139E-02 -.278E+02   0.306E-02 -.177E-02 0.432E-02
   0.357E-02 -.206E-02 0.373E+03   -.496E-02 0.287E-02 -.400E+03   0.329E-02 -.190E-02 0.278E+02   0.120E-02 -.694E-03 -.306E-02
   0.893E-02 -.515E-02 -.373E+03   -.125E-01 0.723E-02 0.400E+03   0.241E-02 -.139E-02 -.278E+02   0.306E-02 -.177E-02 0.432E-02
   0.357E-02 -.206E-02 0.373E+03   -.496E-02 0.287E-02 -.400E+03   0.329E-02 -.190E-02 0.278E+02   0.120E-02 -.694E-03 -.306E-02
   0.164E-01 0.206E-01 -.373E+03   -.134E-01 -.274E-01 0.400E+03   0.383E-03 0.385E-02 -.278E+02   -.351E-02 0.463E-02 0.322E-02
   0.165E-02 -.190E-01 0.373E+03   -.385E-02 0.178E-01 -.400E+03   -.171E-02 -.168E-02 0.278E+02   0.215E-02 0.257E-02 -.398E-02
   0.164E-01 0.206E-01 -.373E+03   -.134E-01 -.274E-01 0.400E+03   0.383E-03 0.385E-02 -.278E+02   -.351E-02 0.463E-02 0.322E-02
   0.165E-02 -.190E-01 0.373E+03   -.385E-02 0.178E-01 -.400E+03   -.171E-02 -.168E-02 0.278E+02   0.215E-02 0.257E-02 -.398E-02
   0.120E-01 0.153E-01 -.373E+03   -.122E-01 -.125E-01 0.400E+03   0.310E-02 0.182E-02 -.278E+02   0.668E-04 -.308E-02 0.208E-02
   0.725E-02 0.180E-01 0.373E+03   -.468E-02 -.168E-01 -.400E+03   0.218E-04 0.359E-02 0.278E+02   -.270E-02 -.148E-02 -.208E-02
   0.120E-01 0.153E-01 -.373E+03   -.122E-01 -.125E-01 0.400E+03   0.310E-02 0.182E-02 -.278E+02   0.668E-04 -.308E-02 0.208E-02
   0.725E-02 0.180E-01 0.373E+03   -.468E-02 -.168E-01 -.400E+03   0.218E-04 0.359E-02 0.278E+02   -.270E-02 -.148E-02 -.208E-02
   0.542E-10 0.345E-10 0.343E-09   -.359E-12 -.106E-12 -.568E-13   0.121E-16 -.520E-17 0.249E-13   -.819E-12 -.478E-12 0.107E-11

 POSITION                                       TOTAL-FORCE (eV/Angst)
      0.00000      0.00000      0.00000         0.000000      0.000000      0.000000
      0.00000      0.00000      4.62690         0.000000      0.000000      0.000000
     -1.39380      2.41413      0.00000         0.000157      0.000586      0.000283
     -1.39380      2.41413      4.62690         0.000157      0.000586      0.000283
     -2.78764      4.82833      0.00000        -0.000157     -0.000586     -0.000283
     -2.78764      4.82833      4.62690        -0.000157     -0.000586     -0.000283
      2.78760      0.00000      0.00000         0.000429      0.000429     -0.000283
      2.78760      0.00000      4.62690         0.000429      0.000429     -0.000283
      1.39380      2.41413      0.00000         0.000523      0.000905      0.000000
      1.39380      2.41413      4.62690         0.000523      0.000905      0.000000
     -0.00004      4.82833      0.00000         0.001166     -0.000673     -0.000007
     -0.00004      4.82833      4.62690         0.001166     -0.000673     -0.000007
      5.57527      0.00000      0.00000        -0.000429     -0.000429      0.000283
      5.57527      0.00000      4.62690        -0.000429     -0.000429      0.000283
      4.18148      2.41413      0.00000        -0.001166      0.000673      0.000007
      4.18148      2.41413      4.62690        -0.001166      0.000673      0.000007
      2.78764      4.82833      0.00000        -0.000523     -0.000905      0.000000
      2.78764      4.82833      4.62690        -0.000523     -0.000905      0.000000
     -0.00000      1.60942      0.93491         0.000113     -0.003267     -0.006772
      1.39380      0.80471      3.69198        -0.002886     -0.001535      0.006772
     -0.00000      1.60942      5.56181         0.000113     -0.003267     -0.006772
      1.39380      0.80471      8.31888        -0.002886     -0.001535      0.006772
     -1.39384      4.02362      0.93491         0.001758      0.000302     -0.005859
      0.00000      3.21884      3.69198         0.000044     -0.001727      0.006674
     -1.39384      4.02362      5.56181         0.001758      0.000302     -0.005859
      0.00000      3.21884      8.31888         0.000044     -0.001727      0.006674
     -2.78764      6.43775      0.93491        -0.003094      0.001786     -0.006664
     -1.39384      5.63304      3.69198        -0.001876      0.001083      0.006253
     -2.78764      6.43775      5.56181        -0.003094      0.001786     -0.006664
     -1.39384      5.63304      8.31888        -0.001876      0.001083      0.006253
      2.78760      1.60942      0.93491        -0.001517     -0.000825     -0.006674
      4.18148      0.80471      3.69198        -0.000618      0.001673      0.005859
      2.78760      1.60942      5.56181        -0.001517     -0.000825     -0.006674
      4.18148      0.80471      8.31888        -0.000618      0.001673      0.005859
      1.39376      4.02362      0.93491        -0.000751      0.000434     -0.006307
      2.78768      3.21884      3.69198         0.000751     -0.000434      0.006307
      1.39376      4.02362      5.56181        -0.000751      0.000434     -0.006307
      2.78768      3.21884      8.31888         0.000751     -0.000434      0.006307
     -0.00004      6.43775      0.93491         0.000618     -0.001673     -0.005859
      1.39384      5.63304      3.69198         0.001517      0.000825      0.006674
     -0.00004      6.43775      5.56181         0.000618     -0.001673     -0.005859
      1.39384      5.63304      8.31888         0.001517      0.000825      0.006674
      5.57527      1.60942      0.93491         0.001876     -0.001083     -0.006253
      6.96907      0.80471      3.69198         0.003094     -0.001786      0.006664
      5.57527      1.60942      5.56181         0.001876     -0.001083     -0.006253
      6.96907      0.80471      8.31888         0.003094     -0.001786      0.006664
      4.18143      4.02362      0.93491        -0.000044      0.001727     -0.006674
      5.57527      3.21884      3.69198        -0.001758     -0.000302      0.005859
      4.18143      4.02362      5.56181        -0.000044      0.001727     -0.006674
      5.57527      3.21884      8.31888        -0.001758     -0.000302      0.005859
      2.78764      6.43775      0.93491         0.002886      0.001535     -0.006772
      4.18144      5.63304      3.69198        -0.000113      0.003267      0.006772
      2.78764      6.43775      5.56181         0.002886      0.001535     -0.006772
      4.18144      5.63304      8.31888        -0.000113      0.003267      0.006772
    total drift:                                0.000000      0.000000      0.000000

  FREE ENERGIE OF THE ION-ELECTRON SYSTEM (eV)
  free  energy   TOTEN  =      -337.1149087828 eV

  energy  without entropy=     -337.1149087828  energy(sigma->0) =     -337.11490878

volume of typ            1:    20.5 %

volume of typ            2:    10.5 %

total charge

# of ion       s       p       d       tot
    1        0.306   0.426   7.818   8.550
    2        0.306   0.426   7.818   8.550
    3        0.306   0.426   7.818   8.550
    4        0.306   0.426   7.818   8.550
    5        0.306   0.426   7.818   8.550
    6        0.306   0.426   7.818   8.550
    7        0.306   0.426   7.818   8.550
    8        0.306   0.426   7.818   8.550
    9        0.306   0.426   7.817   8.550
   10        0.306   0.426   7.817   8.550
   11        0.306   0.426   7.818   8.550
   12        0.306   0.426   7.818   8.550
   13        0.306   0.426   7.818   8.550
   14        0.306   0.426   7.818   8.550
   15        0.306   0.426   7.818   8.550
   16        0.306   0.426   7.818   8.550
   17        0.306   0.426   7.817   8.550
   18        0.306   0.426   7.817   8.550
   19        1.285   2.726   0.008   4.019
   20        1.285   2.726   0.008   4.019
   21        1.285   2.726   0.008   4.019
   22        1.285   2.726   0.008   4.019
   23        1.285   2.726   0.008   4.019
   24        1.285   2.726   0.008   4.019
   25        1.285   2.726   0.008   4.019
   26        1.285   2.726   0.008   4.019
   27        1.285   2.726   0.008   4.019
   28        1.285   2.726   0.008   4.019
   29        1.285   2.726   0.008   4.019
   30        1.285   2.726   0.008   4.019
   31        1.285   2.726   0.008   4.019
   32        1.285   2.726   0.008   4.019
   33        1.285   2.726   0.008   4.019
   34        1.285   2.726   0.008   4.019
   35        1.285   2.725   0.008   4.018
   36        1.285   2.725   0.008   4.018
   37        1.285   2.725   0.008   4.018
   38        1.285   2.725   0.008   4.018
   39        1.285   2.726   0.008   4.019
   40        1.285   2.726   0.008   4.019
   41        1.285   2.726   0.008   4.019
   42        1.285   2.726   0.008   4.019
   43        1.285   2.726   0.008   4.019
   44        1.285   2.726   0.008   4.019
   45        1.285   2.726   0.008   4.019
   46        1.285   2.726   0.008   4.019
   47        1.285   2.726   0.008   4.019
   48        1.285   2.726   0.008   4.019
   49        1.285   2.726   0.008   4.019
   50        1.285   2.726   0.008   4.019
   51        1.285   2.726   0.008   4.019
   52        1.285   2.726   0.008   4.019
   53        1.285   2.726   0.008   4.019
   54        1.285   2.726   0.008   4.019
tot          51.76  105.79  141.01  298.57