 vasp.5.4.4.18Apr17-6-g9f103f2a35 (build May 12 2020 04:58:55) complex

 MD_VERSION_INFO: Compiled 2020-05-12T11:58:55-UTC in devlin.sd.materialsdesign.
 com:/home/medea2/data/build/wwolf/vasp-gpu5.4.4/13047/x86_64/src/src/build/std
 from svn 13047

 executed on                        Lin64 date 2022.03.08  07:37:54

 INCAR:
 POTCAR:    PAW_PBE Ni 02Aug2007
 POTCAR:    PAW_PBE Ta_pv 07Sep2000
 POTCAR:    PAW_PBE Li_sv 10Sep2004
 POTCAR:    PAW_PBE Mn_pv 02Aug2007
 POTCAR:    PAW_PBE O 08Apr2002
 POTCAR:    PAW_PBE Co 02Aug2007

 POTCAR:    PAW_PBE Ni 02Aug2007

 POTCAR:    PAW_PBE Ta_pv 07Sep2000

 POTCAR:    PAW_PBE Li_sv 10Sep2004

 POTCAR:    PAW_PBE Mn_pv 02Aug2007

 POTCAR:    PAW_PBE O 08Apr2002

 POTCAR:    PAW_PBE Co 02Aug2007

 Optimization of the real space projectors (new method)

 maximal supplied QI-value         = 16.25
 optimisation between [QCUT,QGAM] = [ 11.38, 22.75] = [ 36.24,144.96] Ry
 Optimized for a Real-space Cutoff    1.47 Angstroem

   l    n(q)    QCUT    max X(q) W(low)/X(q) W(high)/X(q)  e(spline)
   2      9    11.376    60.317    0.17E-03    0.16E-04    0.16E-06
   2      9    11.376    55.921    0.17E-03    0.16E-04    0.17E-06
   0     10    11.376    51.690    0.45E-04    0.60E-04    0.21E-06
   0     10    11.376    30.015    0.37E-04    0.55E-04    0.19E-06
   1     10    11.376    18.849    0.83E-04    0.11E-03    0.92E-07
   1     10    11.376    14.624    0.69E-04    0.92E-04    0.82E-07
 Optimization of the real space projectors (new method)

[...]

   l    n(q)    QCUT    max X(q) W(low)/X(q) W(high)/X(q)  e(spline)
   0      7    11.387    20.381    0.22E-03    0.48E-03    0.18E-06
   0      7    11.387    15.268    0.22E-03    0.52E-03    0.19E-06
   1      7    11.387     5.964    0.22E-03    0.73E-03    0.24E-06
   1      7    11.387     5.382    0.19E-03    0.60E-03    0.21E-06
 Optimization of the real space projectors (new method)

 maximal supplied QI-value         = 16.25
 optimisation between [QCUT,QGAM] = [ 11.38, 22.75] = [ 36.24,144.96] Ry
 Optimized for a Real-space Cutoff    1.43 Angstroem

   l    n(q)    QCUT    max X(q) W(low)/X(q) W(high)/X(q)  e(spline)
   2      9    11.376    65.824    0.18E-03    0.28E-04    0.14E-06
   2      9    11.376    61.429    0.18E-03    0.29E-04    0.14E-06
   0     10    11.376    56.174    0.51E-04    0.12E-03    0.20E-06
   0     10    11.376    31.263    0.46E-04    0.11E-03    0.18E-06
   1      9    11.376    19.828    0.23E-03    0.17E-03    0.10E-06
   1      9    11.376    15.139    0.20E-03    0.14E-03    0.89E-07

  PAW_PBE Ni 02Aug2007                  :
  PAW_PBE Ta_pv 07Sep2000               :
  PAW_PBE Li_sv 10Sep2004               :
  PAW_PBE Mn_pv 02Aug2007               :
  PAW_PBE O 08Apr2002                   :
  PAW_PBE Co 02Aug2007                  :

 POSCAR: ce12_1
  positions in direct lattice

 METAGGA = SCAN     LMAXTAU =  6    LMIXTAU =  T

 ion  position               nearest neighbor table
   1  0.000  0.396  0.000-  63 2.03  64 2.03  41 2.04  42 2.04  47 2.06  48 2.06  29 2.80  30 2.80
                            38 2.85  38 2.85  11 2.86  11 2.86  10 2.87   2 2.88
   2  0.000  0.595  0.000-  41 2.02  42 2.02  49 2.06  50 2.06  65 2.07  66 2.07   1 2.88  38 2.91
                            38 2.91  15 2.94  15 2.94   9 3.03
   3  0.500  0.905  0.000-  39 2.02  40 2.02  51 2.06  52 2.06  67 2.10  68 2.10   4 2.84  37 2.87
                            37 2.87   9 2.88   9 2.88  15 2.91
   4  0.500  0.102  0.000-  69 1.90  70 1.90  39 1.91  40 1.91  53 2.06  54 2.06   3 2.84  10 2.85
                            10 2.85  11 2.85  37 2.87  37 2.87
   5  0.000  0.905  0.500-  43 2.02  44 2.02  59 2.03  60 2.03  75 2.12  76 2.12  17 2.81  18 2.81
                             6 2.83  33 2.83  34 2.83  80 2.88  80 2.88  13 2.88  13 2.88  16 2.95
   6  0.000  0.101  0.500-  43 1.88  44 1.88  61 1.90  62 1.90  77 1.91  78 1.91   5 2.83  80 2.86
                            80 2.86  14 2.87  14 2.87  12 2.89
   7  0.500  0.399  0.500-  45 1.90  46 1.90  71 1.93  72 1.93  55 2.05  56 2.05  79 2.85  79 2.85
                             8 2.85  12 2.86  12 2.86  14 2.88
   8  0.500  0.596  0.500-  45 2.00  46 2.00  73 2.06  74 2.06  57 2.07  58 2.07   7 2.85  79 2.89
                            79 2.89  16 2.92  16 2.92  13 3.03
   9  0.000  0.805  0.000-  51 2.04  52 2.04  65 2.07  66 2.07  67 2.07  68 2.07  37 2.85   3 2.88
                             3 2.88  15 2.89  15 2.89   2 3.03
  10  0.000  0.197  0.000-  63 1.87  64 1.87  69 1.89  70 1.89  53 1.90  54 1.90  37 2.81   4 2.85
                             4 2.85   1 2.87  11 2.90  11 2.90
  11  0.500  0.299  0.000-  69 2.03  70 2.03  47 2.04  48 2.04  63 2.06  64 2.06  38 2.79   4 2.85
                             1 2.86   1 2.86  10 2.90  10 2.90
  12  0.000  0.301  0.500-  71 1.89  72 1.89  55 1.96  56 1.96  77 2.01  78 2.01  79 2.78   7 2.86
                             7 2.86   6 2.89  14 2.90  14 2.90
  13  0.500  0.805  0.500-  59 2.01  60 2.01  75 2.08  76 2.08  73 2.09  74 2.09  25 2.81  26 2.81
                            80 2.87   5 2.88   5 2.88  16 2.91  16 2.91   8 3.03
  14  0.500  0.199  0.500-  77 1.93  78 1.93  61 2.00  62 2.00  71 2.01  72 2.01  80 2.82   6 2.87
                             6 2.87   7 2.88  12 2.90  12 2.90
  15  0.500  0.704  0.000-  67 1.96  68 1.96  65 1.98  66 1.98  49 2.05  50 2.05   9 2.89   9 2.89
                            32 2.90  31 2.90   3 2.91   2 2.94   2 2.94  33 2.98  34 2.98  23 3.00
  16  0.000  0.701  0.500-  75 1.97  76 1.97  73 1.98  74 1.98  57 2.03  58 2.03  31 2.89  32 2.89
                            13 2.91  13 2.91   8 2.92   8 2.92  33 2.95  34 2.95   5 2.95  23 2.97
  17  0.750  0.999  0.257-  59 1.98  62 2.05  51 2.05  43 2.15  54 2.21  39 2.21   5 2.81  80 2.83

  18  0.250  0.999  0.743-  60 1.98  61 2.05  52 2.05  44 2.15  53 2.21  40 2.21   5 2.81  80 2.83

[...]

  32  0.250  0.699  0.251-  75 2.03  67 2.06  74 2.10  66 2.11  58 2.15  50 2.16  16 2.89  15 2.90

  33  0.749  0.811  0.254-  75 2.01  67 2.04  59 2.08  51 2.14  74 2.17  66 2.20   5 2.83  16 2.95
                            15 2.98
  34  0.251  0.811  0.746-  76 2.01  68 2.04  60 2.08  52 2.14  73 2.17  65 2.20   5 2.83  16 2.95
                            15 2.98
  35  0.239  0.201  0.750-  64 2.00  77 2.12  53 2.12  61 2.14  72 2.17  69 2.25
  36  0.761  0.201  0.250-  63 2.00  78 2.12  54 2.12  62 2.14  71 2.17  70 2.25
  37  0.000  0.003  0.000-  51 1.88  52 1.88  39 1.91  40 1.91  53 1.93  54 1.93  10 2.81   9 2.85
                             3 2.87   3 2.87   4 2.87   4 2.87  27 2.88  28 2.88
  38  0.500  0.492  0.000-  47 1.86  48 1.86  41 1.90  42 1.90  49 2.01  50 2.01  11 2.79  21 2.85
                            22 2.85   1 2.85   1 2.85   2 2.91   2 2.91  15 3.05
  39  0.359  0.008  0.109-   4 1.91  37 1.91   3 2.02  28 2.05  17 2.21  25 2.24
  40  0.641  0.008  0.891-   4 1.91  37 1.91   3 2.02  27 2.05  18 2.21  26 2.24
  41  0.850  0.496  0.114-  38 1.90  24 2.01   2 2.02  21 2.03   1 2.04  19 2.15
  42  0.150  0.496  0.886-  38 1.90  23 2.01   2 2.02  22 2.03   1 2.04  20 2.15
  43  0.139  0.010  0.392-   6 1.88  80 1.92   5 2.02  28 2.04  17 2.15  25 2.22
  44  0.861  0.010  0.608-   6 1.88  80 1.92   5 2.02  27 2.04  18 2.15  26 2.22
  45  0.640  0.492  0.394-   7 1.90  79 1.90   8 2.00  21 2.02  24 2.13  19 2.23
  46  0.360  0.492  0.606-   7 1.90  79 1.90   8 2.00  22 2.02  23 2.13  20 2.23
  47  0.385  0.404  0.118-  38 1.86  11 2.04  21 2.04   1 2.06  19 2.07  29 2.09
  48  0.615  0.404  0.882-  38 1.86  11 2.04  22 2.04   1 2.06  20 2.07  30 2.09
  49  0.612  0.596  0.884-  38 2.01  23 2.04  15 2.05   2 2.06  20 2.15  31 2.16
  50  0.388  0.596  0.116-  38 2.01  24 2.04  15 2.05   2 2.06  19 2.15  32 2.16
  51  0.886  0.911  0.117-  37 1.88   9 2.04  17 2.05   3 2.06  25 2.08  33 2.14
  52  0.114  0.911  0.883-  37 1.88   9 2.04  18 2.05   3 2.06  26 2.08  34 2.14
  53  0.110  0.101  0.887-  10 1.90  37 1.93  27 2.03   4 2.06  35 2.12  18 2.21
  54  0.890  0.101  0.113-  10 1.90  37 1.93  28 2.03   4 2.06  36 2.12  17 2.21
  55  0.115  0.401  0.385-  79 1.89  12 1.96  21 2.04   7 2.05  19 2.06  29 2.11
  56  0.885  0.401  0.615-  79 1.89  12 1.96  22 2.04   7 2.05  20 2.06  30 2.11
  57  0.889  0.595  0.617-  79 1.98  23 2.02  16 2.03   8 2.07  20 2.07  31 2.15
  58  0.111  0.595  0.383-  79 1.98  24 2.02  16 2.03   8 2.07  19 2.07  32 2.15
  59  0.619  0.909  0.386-  80 1.91  17 1.98  13 2.01   5 2.03  25 2.03  33 2.08
  60  0.381  0.909  0.614-  80 1.91  18 1.98  13 2.01   5 2.03  26 2.03  34 2.08
  61  0.355  0.099  0.610-   6 1.90  80 1.94  14 2.00  18 2.05  35 2.14  27 2.19
  62  0.645  0.099  0.390-   6 1.90  80 1.94  14 2.00  17 2.05  36 2.14  28 2.19
  63  0.887  0.289  0.114-  10 1.87  36 2.00  29 2.01   1 2.03  11 2.06
  64  0.113  0.289  0.886-  10 1.87  35 2.00  30 2.01   1 2.03  11 2.06
  65  0.134  0.701  0.882-  15 1.98   9 2.07   2 2.07  31 2.11  23 2.17  34 2.20
  66  0.866  0.701  0.118-  15 1.98   9 2.07   2 2.07  32 2.11  24 2.17  33 2.20
  67  0.382  0.797  0.124-  15 1.96  33 2.04  32 2.06   9 2.07  25 2.10   3 2.10
  68  0.618  0.797  0.876-  15 1.96  34 2.04  31 2.06   9 2.07  26 2.10   3 2.10
  69  0.644  0.194  0.893-  10 1.89   4 1.90  11 2.03  27 2.07  30 2.20  35 2.25
  70  0.356  0.194  0.107-  10 1.89   4 1.90  11 2.03  28 2.07  29 2.20  36 2.25
  71  0.645  0.303  0.394-  12 1.89   7 1.93  14 2.01  21 2.10  36 2.17  29 2.25
  72  0.355  0.303  0.606-  12 1.89   7 1.93  14 2.01  22 2.10  35 2.17  30 2.25
  73  0.366  0.699  0.619-  16 1.98   8 2.06  13 2.09  31 2.10  23 2.15  34 2.17
  74  0.634  0.699  0.381-  16 1.98   8 2.06  13 2.09  32 2.10  24 2.15  33 2.17
  75  0.117  0.796  0.376-  16 1.97  33 2.01  32 2.03  13 2.08  25 2.08   5 2.12
  76  0.883  0.796  0.624-  16 1.97  34 2.01  31 2.03  13 2.08  26 2.08   5 2.12
  77  0.864  0.196  0.607-   6 1.91  14 1.93  12 2.01  27 2.09  35 2.12  30 2.24
  78  0.136  0.196  0.393-   6 1.91  14 1.93  12 2.01  28 2.09  36 2.12  29 2.24
  79  0.000  0.494  0.500-  55 1.89  56 1.89  45 1.90  46 1.90  57 1.98  58 1.98  12 2.78  21 2.82
                            22 2.82   7 2.85   7 2.85  20 2.86  19 2.86   8 2.89   8 2.89  16 2.99
  80  0.500  0.004  0.500-  59 1.91  60 1.91  43 1.92  44 1.92  61 1.94  62 1.94  14 2.82  17 2.83
                            18 2.83   6 2.86   6 2.86  13 2.87   5 2.88   5 2.88

  LATTYP: Found a simple monoclinic cell.
 ALAT       =    10.0473930531
 B/A-ratio  =     1.4376918723
 C/A-ratio  =     1.8940319856
 COS(beta)  =    -0.9689644564

  Lattice vectors:

 A1 = (  -3.3350006900,   0.0000000000,  -9.4777569900)
 A2 = (   0.0000000000, -14.4450553300,   0.0000000000)
 A3 = (   1.6830269600,   0.0000000000,  18.9555139800)

Analysis of symmetry for initial positions (statically):
 Subroutine PRICEL returns:
 Original cell was already a primitive cell.

 Routine SETGRP: Setting up the symmetry group for a
 simple monoclinic supercell.

 Subroutine GETGRP returns: Found  2 space group operations
 (whereof  2 operations were pure point group operations)
 out of a pool of  4 trial point group operations.

The static configuration has the point symmetry C_2 .

[...]
   0.812E+02 -.315E+02 0.265E+03   -.854E+02 0.312E+02 -.277E+03   0.422E+01 0.298E+00 0.118E+02
   -.123E+02 0.662E+02 0.230E+03   0.120E+02 -.696E+02 -.244E+03   0.253E+00 0.337E+01 0.140E+02
   0.123E+02 0.662E+02 -.230E+03   -.120E+02 -.696E+02 0.244E+03   -.253E+00 0.337E+01 -.140E+02
   0.959E+01 -.582E+02 0.221E+03   -.108E+02 0.604E+02 -.234E+03   0.125E+01 -.219E+01 0.133E+02
   -.959E+01 -.582E+02 -.221E+03   0.108E+02 0.604E+02 0.234E+03   -.125E+01 -.219E+01 -.133E+02
   0.491E+02 0.600E+02 -.285E+03   -.522E+02 -.639E+02 0.298E+03   0.316E+01 0.388E+01 -.131E+02
   -.491E+02 0.600E+02 0.285E+03   0.522E+02 -.639E+02 -.298E+03   -.316E+01 0.388E+01 0.131E+02
   -.393E+02 -.772E+02 0.256E+03   0.424E+02 0.737E+02 -.270E+03   -.317E+01 0.354E+01 0.138E+02
   0.393E+02 -.772E+02 -.256E+03   -.424E+02 0.737E+02 0.270E+03   0.317E+01 0.354E+01 -.138E+02
   0.409E+02 0.118E+03 -.279E+03   -.431E+02 -.121E+03 0.291E+03   0.212E+01 0.339E+01 -.126E+02
   -.409E+02 0.118E+03 0.279E+03   0.431E+02 -.121E+03 -.291E+03   -.212E+01 0.339E+01 0.126E+02
   -.594E+02 -.279E+02 0.307E+03   0.632E+02 0.281E+02 -.322E+03   -.374E+01 -.203E+00 0.144E+02
   0.594E+02 -.279E+02 -.307E+03   -.632E+02 0.281E+02 0.322E+03   0.374E+01 -.203E+00 -.144E+02
   -.222E+02 -.121E+02 0.241E+03   0.244E+02 0.106E+02 -.253E+03   -.220E+01 0.151E+01 0.121E+02
   0.222E+02 -.121E+02 -.241E+03   -.244E+02 0.106E+02 0.253E+03   0.220E+01 0.151E+01 -.121E+02
   0.162E+02 -.309E+02 -.204E+03   -.197E+02 0.270E+02 0.218E+03   0.349E+01 0.394E+01 -.134E+02
   -.162E+02 -.309E+02 0.204E+03   0.197E+02 0.270E+02 -.218E+03   -.349E+01 0.394E+01 0.134E+02
   -.164E+01 0.530E+02 0.206E+03   0.260E+01 -.547E+02 -.217E+03   -.948E+00 0.167E+01 0.106E+02
   0.164E+01 0.530E+02 -.206E+03   -.260E+01 -.547E+02 0.217E+03   0.948E+00 0.167E+01 -.106E+02
[...]
   0.818E+01 0.577E+01 -.221E+03   -.123E+02 0.106E+01 0.236E+03   0.410E+01 -.683E+01 -.146E+02
   -.818E+01 0.577E+01 0.221E+03   0.123E+02 0.106E+01 -.236E+03   -.410E+01 -.683E+01 0.146E+02
   0.346E+02 -.519E+02 0.276E+03   -.365E+02 0.550E+02 -.290E+03   0.192E+01 -.305E+01 0.132E+02
   -.346E+02 -.519E+02 -.276E+03   0.365E+02 0.550E+02 0.290E+03   -.192E+01 -.305E+01 -.132E+02
   0.232E+02 0.123E+02 0.250E+03   -.254E+02 -.138E+02 -.263E+03   0.218E+01 0.146E+01 0.127E+02
   -.232E+02 0.123E+02 -.250E+03   0.254E+02 -.138E+02 0.263E+03   -.218E+01 0.146E+01 -.127E+02
   -.268E+02 -.915E+01 -.199E+03   0.340E+02 0.950E+01 0.213E+03   -.719E+01 -.350E+00 -.139E+02
   0.268E+02 -.915E+01 0.199E+03   -.340E+02 0.950E+01 -.213E+03   0.719E+01 -.350E+00 0.139E+02
   -.101E+02 -.297E+01 0.197E+03   0.139E+02 0.975E+01 -.210E+03   -.377E+01 -.677E+01 0.136E+02
   0.101E+02 -.297E+01 -.197E+03   -.139E+02 0.975E+01 0.210E+03   0.377E+01 -.677E+01 -.136E+02
   0.917E+01 -.335E+02 -.243E+03   -.860E+01 0.362E+02 0.255E+03   -.579E+00 -.270E+01 -.125E+02
   -.917E+01 -.335E+02 0.243E+03   0.860E+01 0.362E+02 -.255E+03   0.579E+00 -.270E+01 0.125E+02
   -.122E-06 -.962E+02 -.542E-06   0.627E-14 0.941E+02 -.857E-13   0.000E+00 0.226E+01 0.000E+00
   -.132E-06 0.615E+02 -.953E-06   -.903E-13 -.633E+02 0.286E-13   -.542E-19 0.185E+01 0.000E+00
   -.751E-05 0.324E+01 0.211E-05   0.438E-13 -.142E-13 -.540E-12   -.444E-14 -.317E+01 0.000E+00

 POSITION                                       TOTAL-FORCE (eV/Angst)
      0.00000      5.71855      0.00000        -0.000000      0.004367      0.000000
      0.00000      8.59989      0.00000        -0.000000      0.002525      0.000000
      2.49349     13.06885      0.00000        -0.000000      0.002761      0.000000
      2.49349      1.46695      0.00000        -0.000000     -0.001686      0.000000
     -0.82599     13.07206      4.73888        -0.000000      0.004559      0.000000
     -0.82599      1.45699      4.73888        -0.000000      0.000673      0.000000
      1.66750      5.75680      4.73888        -0.000000     -0.004504      0.000000
      1.66750      8.60611      4.73888        -0.000000      0.003514      0.000000
      0.00000     11.63176      0.00000        -0.000000      0.003014      0.000000
      0.00000      2.84494      0.00000        -0.000000     -0.008913      0.000000
      2.49349      4.32070      0.00000        -0.000000     -0.002180      0.000000
     -0.82599      4.35097      4.73888        -0.000000     -0.005738      0.000000
      1.66750     11.63378      4.73888        -0.000000      0.001377      0.000000
      1.66750      2.87575      4.73888        -0.000000     -0.004096      0.000000
      2.49349     10.16285      0.00000        -0.000000      0.009705      0.000000
     -0.82599     10.12448      4.73888        -0.000000      0.005655      0.000000
      3.31410     14.43770      2.43543         0.003458      0.001031      0.002742
      0.02090     14.43770      7.04233        -0.003458      0.001031     -0.002742
      0.77999      7.17724      2.37785        -0.006539      0.003108     -0.006058
      2.55501      7.17724      7.09991         0.006539      0.003108      0.006058
      3.31710      5.81008      2.39655        -0.000223     -0.003280      0.000222
      0.01790      5.81008      7.08121         0.000223     -0.003280     -0.000222
      0.00465      8.53434      7.10408         0.002332      0.007611      0.002840
      3.33035      8.53434      2.37368        -0.002332      0.007611     -0.002840
      0.84721     12.97557      2.41569         0.001208      0.000494     -0.000542
      2.48779     12.97557      7.06206        -0.001208      0.000494      0.000542
      2.50801      1.45432      7.10888         0.001602      0.010369      0.000081
      0.82699      1.45432      2.36888        -0.001602      0.010369     -0.000081
      0.81155      4.39339      2.32730         0.006599      0.005815     -0.003503
      2.52346      4.39339      7.15046        -0.006599      0.005815      0.003503
      2.50252     10.09233      7.09984         0.000043     -0.003025     -0.000437
      0.83248     10.09233      2.37792        -0.000043     -0.003025      0.000437
      3.31829     11.71337      2.40361        -0.001246     -0.008704      0.003049
      0.01671     11.71337      7.07415         0.001246     -0.008704     -0.003049
     -0.04858      2.89772      7.10417        -0.008299     -0.000835     -0.007351
      3.38358      2.89772      2.37358         0.008299     -0.000835      0.007351
      0.00000      0.03671      0.00000        -0.000000     -0.003733      0.000000
      2.49349      7.10865      0.00000        -0.000000     -0.001317      0.000000
      1.60999      0.11936      1.03038        -0.001674     -0.002871     -0.008100
      1.72501      0.11936      8.44737         0.001674     -0.002871      0.008100
      4.04984      7.17159      1.08081        -0.001196     -0.001011     -0.007778
     -0.71484      7.17159      8.39695         0.001196     -0.001011      0.007778
      0.04596      0.13843      3.71631         0.005655     -0.011054     -0.000414
      3.28904      0.13843      5.76145        -0.005655     -0.011054      0.000414
      2.54191      7.10852      3.73886         0.002647      0.000143      0.002719
      0.79309      7.10852      5.73890        -0.002647      0.000143     -0.002719
      1.72381      5.83779      1.11944         0.002008     -0.001989     -0.008459
      1.61119      5.83779      8.35831        -0.002008     -0.001989      0.008459
      1.59122      8.60949      8.37904        -0.000394     -0.003183      0.005086
      1.74378      8.60949      1.09872         0.000394     -0.003183     -0.005086
      4.22345     13.16354      1.10900         0.001728     -0.001166     -0.008342
     -0.88845     13.16354      8.36875        -0.001728     -0.001166      0.008342
     -0.91698      1.45800      8.40336         0.001731     -0.002851      0.006495
      4.25198      1.45800      1.07440        -0.001731     -0.002851     -0.006495
     -0.06157      5.78932      3.64683        -0.001702     -0.003974      0.005097
      3.39657      5.78932      5.83093         0.001702     -0.003974     -0.005097
      3.41351      8.59300      5.85073         0.000055      0.001229     -0.002793
     -0.07851      8.59300      3.62702        -0.000055      0.001229      0.002793
      2.45044     13.13308      3.65544         0.005125     -0.002959      0.008131
      0.88456     13.13308      5.82232        -0.005125     -0.002959     -0.008131
[...]
      4.12383     10.11912      1.11428         0.001137     -0.000897     -0.003013
      1.70290     11.51898      1.17360        -0.000824     -0.001826     -0.003416
      1.63210     11.51898      8.30416         0.000824     -0.001826      0.003416
      1.73563      2.80799      8.46449        -0.003431      0.000470      0.006468
      1.59937      2.80799      1.01327         0.003431      0.000470     -0.006468
      2.56404      4.37189      3.73560        -0.001588     -0.005425      0.006055
      0.77096      4.37189      5.74215         0.001588     -0.005425     -0.006055
      0.80414     10.09426      5.86394         0.000676      0.000199     -0.002725
      2.53086     10.09426      3.61381        -0.000676      0.000199      0.002725
     -0.04032     11.49220      3.56631         0.000972      0.001544      0.005350
      3.37532     11.49220      5.91145        -0.000972      0.001544     -0.005350
      3.30875      2.83099      5.74944        -0.008937      0.008748     -0.006257
      0.02625      2.83099      3.72832         0.008937      0.008748      0.006257
     -0.82599      7.13527      4.73888        -0.000000     -0.002030      0.000000
      1.66750      0.05842      4.73888        -0.000000      0.009567      0.000000
    total drift:                               -0.000008      0.068453      0.000002

  FREE ENERGIE OF THE ION-ELECTRON SYSTEM (eV)
  free  energy   TOTEN  =     -2069.3650154408 eV

  energy  without entropy=    -2069.3577239913  energy(sigma->0) =    -2069.36136972

volume of typ            1:    13.1 %

[...]

volume of typ            6:     1.9 %

total charge

# of ion       s       p       d       tot
    1        0.210   0.243   7.858   8.310
    2        0.206   0.240   7.871   8.316
    3        0.204   0.235   7.872   8.310
    4        0.251   0.322   7.802   8.375
    5        0.210   0.238   7.864   8.312
    6        0.280   0.383   7.760   8.423
    7        0.253   0.322   7.796   8.371
    8        0.211   0.246   7.872   8.329
    9        0.202   0.236   7.872   8.310
   10        0.285   0.395   7.759   8.439
   11        0.212   0.244   7.856   8.311
   12        0.252   0.323   7.794   8.369
   13        0.206   0.237   7.872   8.315
   14        0.239   0.294   7.812   8.346
   15        0.296   6.203   1.885   8.383
   16        0.296   6.203   1.878   8.377
   17        2.083   0.265   0.108   2.456
   18        2.083   0.265   0.108   2.456
   19        2.075   0.247   0.100   2.422
   20        2.075   0.247   0.100   2.422
   21        2.090   0.287   0.119   2.496
   22        2.090   0.287   0.119   2.496
   23        2.088   0.287   0.120   2.494
   24        2.088   0.287   0.120   2.494
   25        2.077   0.249   0.100   2.426
   26        2.077   0.249   0.100   2.426
   27        2.089   0.284   0.118   2.491
   28        2.089   0.284   0.118   2.491
   29        2.069   0.229   0.090   2.388
   30        2.069   0.229   0.090   2.388
   31        2.080   0.267   0.109   2.456
   32        2.080   0.267   0.109   2.456
   33        2.080   0.267   0.110   2.457
   34        2.080   0.267   0.110   2.457
   35        2.074   0.238   0.095   2.406
   36        2.074   0.238   0.095   2.406
   37        0.230   6.251   4.546  11.028
   38        0.226   6.240   4.561  11.027
   39        1.261   2.846   0.005   4.112
   40        1.261   2.846   0.005   4.112
   41        1.255   2.862   0.004   4.121
   42        1.255   2.862   0.004   4.121
   43        1.261   2.835   0.005   4.101
   44        1.261   2.835   0.005   4.101
   45        1.258   2.848   0.005   4.111
   46        1.258   2.848   0.005   4.111
   47        1.257   2.856   0.005   4.118
   48        1.257   2.856   0.005   4.118
   49        1.256   2.876   0.004   4.136
   50        1.256   2.876   0.004   4.136
   51        1.256   2.853   0.004   4.113
   52        1.256   2.853   0.004   4.113
   53        1.263   2.844   0.005   4.112
   54        1.263   2.844   0.005   4.112
   55        1.259   2.842   0.004   4.105
   56        1.259   2.842   0.004   4.105
   57        1.254   2.876   0.004   4.135
   58        1.254   2.876   0.004   4.135
   59        1.251   2.858   0.004   4.113
   60        1.251   2.858   0.004   4.112
[...]
   66        1.258   2.869   0.005   4.132
   67        1.258   2.877   0.005   4.139
   68        1.258   2.877   0.005   4.139
   69        1.264   2.826   0.005   4.095
   70        1.264   2.826   0.005   4.095
   71        1.262   2.827   0.005   4.094
   72        1.262   2.827   0.005   4.094
   73        1.257   2.870   0.005   4.133
   74        1.257   2.870   0.005   4.133
   75        1.257   2.879   0.005   4.141
   76        1.257   2.879   0.005   4.141
   77        1.265   2.823   0.005   4.092
   78        1.265   2.823   0.005   4.092
   79        0.243   0.338   6.826   7.406
   80        0.243   0.336   6.816   7.396
tot          96.71  148.83  138.49  384.03

magnetization (x)

# of ion       s       p       d       tot
    1        0.006   0.001   1.608   1.615
    2        0.005   0.001   1.635   1.641
    3        0.006   0.002   1.637   1.645
    4        0.007   0.002   0.945   0.954
    5        0.003   0.000   1.605   1.608
    6        0.000   0.001   0.164   0.165
    7        0.003   0.001   0.879   0.884
    8        0.003   0.001   1.611   1.615
    9        0.005   0.001   1.634   1.639
   10        0.000   0.001   0.073   0.074
   11        0.004   0.001   1.609   1.614
   12        0.002   0.002   0.876   0.879
   13        0.002   0.001   1.618   1.621
   14        0.003   0.002   1.161   1.167
   15       -0.001  -0.000  -0.003  -0.004
   16       -0.001  -0.001  -0.002  -0.004
   17        0.003   0.007   0.001   0.011
   18        0.003   0.007   0.001   0.011
   19        0.002   0.002   0.000   0.004
   20        0.002   0.002   0.000   0.004
   21        0.006   0.013   0.003   0.021
   22        0.006   0.013   0.003   0.021
   23        0.004   0.010   0.002   0.016
   24        0.004   0.010   0.002   0.016
   25        0.003   0.004   0.000   0.006
   26        0.003   0.004   0.000   0.006
   27        0.005   0.013   0.003   0.021
   28        0.005   0.013   0.003   0.021
   29        0.001   0.001  -0.001   0.001
   30        0.001   0.001  -0.001   0.001
   31        0.001   0.002   0.000   0.003
   32        0.001   0.002   0.000   0.003
   33        0.002   0.005   0.001   0.008
   34        0.002   0.005   0.001   0.008
   35        0.002   0.002  -0.001   0.004
   36        0.002   0.002  -0.001   0.004
   37        0.012   0.013   2.679   2.704
   38        0.011   0.011   2.653   2.675
   39        0.008   0.046   0.001   0.054
   40        0.008   0.046   0.001   0.054
   41        0.011   0.111   0.001   0.123
   42        0.011   0.111   0.001   0.123
   43        0.006   0.041   0.000   0.048
   44        0.006   0.041   0.000   0.048
   45        0.007   0.025   0.000   0.032
   46        0.007   0.025   0.000   0.032
   47        0.011   0.111   0.001   0.122
   48        0.011   0.111   0.001   0.122
   49        0.005   0.050   0.000   0.056
   50        0.005   0.050   0.000   0.056
   51        0.011   0.118   0.001   0.129
   52        0.011   0.117   0.001   0.129
   53        0.007   0.074   0.001   0.082
   54        0.007   0.074   0.001   0.082
   55        0.010   0.090   0.000   0.100
   56        0.010   0.090   0.000   0.101
   57        0.005   0.046   0.000   0.051
   58        0.005   0.046   0.000   0.051
   59        0.009   0.090   0.000   0.099
   60        0.009   0.090   0.000   0.099
[...]
   66        0.009   0.080   0.000   0.090
   67        0.009   0.077   0.000   0.087
   68        0.009   0.077   0.000   0.087
   69        0.008   0.025   0.000   0.033
   70        0.008   0.025   0.000   0.033
   71        0.007  -0.015   0.000  -0.008
   72        0.007  -0.015   0.000  -0.008
   73        0.009   0.070   0.000   0.079
   74        0.009   0.070   0.000   0.079
   75        0.009   0.073   0.000   0.082
   76        0.009   0.073   0.000   0.082
   77        0.008   0.002   0.000   0.010
   78        0.008   0.002   0.000   0.010
   79       -0.001  -0.001  -0.082  -0.085
   80       -0.001  -0.001  -0.066  -0.068
tot           0.45    2.56   22.27   25.28