 vasp.5.4.4.18Apr17-6-g9f103f2a35 (build May 12 2020 05:39:39) gamma-only

 MD_VERSION_INFO: Compiled 2020-05-12T12:39:39-UTC in devlin.sd.materialsdesign.
 com:/home/medea2/data/build/wwolf/vasp-gpu5.4.4/13047/x86_64/src/src/build/gam
 from svn 13047

 executed on                        Lin64 date 2023.01.19  16:49:14

 INCAR:
 POTCAR:    PAW_PBE Li_sv 10Sep2004
 POTCAR:    PAW_PBE Ni 02Aug2007
 POTCAR:    PAW_PBE O 08Apr2002

 POTCAR:    PAW_PBE Li_sv 10Sep2004

 POTCAR:    PAW_PBE Ni 02Aug2007

 POTCAR:    PAW_PBE O 08Apr2002

 Optimization of the real space projectors (new method)

 maximal supplied QI-value         = 22.11
 optimisation between [QCUT,QGAM] = [ 11.28, 22.77] = [ 35.61,145.23] Ry
 Optimized for a Real-space Cutoff    1.10 Angstroem

   l    n(q)    QCUT    max X(q) W(low)/X(q) W(high)/X(q)  e(spline)
   0      7    11.276    10.506    0.54E-04    0.58E-04    0.16E-07
   0      7    11.276     8.367    0.11E-03    0.14E-03    0.35E-07
   1      7    11.276     8.983    0.23E-03    0.43E-03    0.86E-07
 Optimization of the real space projectors (new method)

[...]

   l    n(q)    QCUT    max X(q) W(low)/X(q) W(high)/X(q)  e(spline)
   2      9    11.376    60.317    0.17E-03    0.16E-04    0.16E-06
   2      9    11.376    55.921    0.17E-03    0.16E-04    0.17E-06
   0     10    11.376    51.690    0.45E-04    0.60E-04    0.21E-06
   0     10    11.376    30.015    0.37E-04    0.55E-04    0.19E-06
   1     10    11.376    18.849    0.83E-04    0.11E-03    0.92E-07
   1     10    11.376    14.624    0.69E-04    0.92E-04    0.82E-07
 Optimization of the real space projectors (new method)

 maximal supplied QI-value         = 24.76
 optimisation between [QCUT,QGAM] = [ 11.39, 22.77] = [ 36.31,145.25] Ry
 Optimized for a Real-space Cutoff    1.10 Angstroem

   l    n(q)    QCUT    max X(q) W(low)/X(q) W(high)/X(q)  e(spline)
   0      7    11.387    20.381    0.22E-03    0.48E-03    0.18E-06
   0      7    11.387    15.268    0.22E-03    0.52E-03    0.19E-06
   1      7    11.387     5.964    0.22E-03    0.73E-03    0.24E-06
   1      7    11.387     5.382    0.19E-03    0.60E-03    0.21E-06

  PAW_PBE Li_sv 10Sep2004               :
  PAW_PBE Ni 02Aug2007                  :
  PAW_PBE O 08Apr2002                   :

 POSCAR: ce425833_1
  positions in direct lattice
 exchange correlation table for  LEXCH =       14
   RHO(1)=    0.500       N(1)  =     2000
   RHO(2)=  100.500       N(2)  =     4000

 ion  position               nearest neighbor table
   1  0.000  0.500  0.000-  32 2.10  81 2.10  68 2.10  45 2.10  80 2.10  33 2.10
   2  0.000  0.000  0.000-  31 1.86  82 1.86  79 1.86  34 1.86  46 1.86  67 1.86  11 2.79  20 2.79
                             8 2.79  26 2.79   5 2.79  14 2.79
   3  0.112  0.329  0.223-  48 1.86  54 1.86  51 1.86  45 1.87  33 1.87  30 1.87  12 2.78  15 2.78
                             9 2.79   6 2.79  21 2.80  27 2.80
   4  0.223  0.671  0.112-  35 1.86  53 1.86  38 1.86  68 1.87  32 1.87  29 1.87   7 2.78  16 2.78
                            22 2.79  13 2.79  10 2.80  28 2.80
   5  0.333  0.000  0.000-  73 1.86  40 1.86  67 1.86  34 1.86  37 1.86  70 1.86   8 2.78  23 2.79
                            17 2.79  14 2.79  20 2.79   2 2.79
   6  0.444  0.333  0.222-  60 1.86  57 1.86  39 1.86  54 1.87  36 1.87  33 1.89  24 2.78  15 2.78
                            18 2.78   9 2.78  21 2.79   3 2.79
   7  0.555  0.668  0.111-  41 1.86  35 1.86  74 1.86  44 1.86  38 1.86  59 1.87   4 2.78  10 2.78
                            25 2.78  22 2.78  16 2.79  19 2.79
   8  0.667  0.000  0.000-  40 1.86  73 1.86  46 1.86  79 1.86  76 1.86  43 1.86   5 2.78  17 2.79
                            23 2.79  26 2.79  11 2.79   2 2.79
   9  0.778  0.333  0.222-  60 1.86  63 1.86  39 1.86  42 1.87  48 1.87  45 1.89  12 2.78  24 2.78
                            18 2.78   6 2.78  27 2.79   3 2.79
  10  0.888  0.671  0.112-  47 1.86  41 1.86  44 1.86  80 1.87  32 1.87  29 1.87  19 2.78   7 2.78
                            25 2.79  13 2.79  28 2.80   4 2.80
  11  0.000  0.000  0.333-  49 1.86  64 1.86  46 1.86  31 1.86  52 1.86  43 1.86  20 2.78  17 2.79
                            23 2.79   2 2.79  14 2.79   8 2.79
  12  0.111  0.332  0.555-  66 1.86  48 1.86  63 1.86  69 1.86  51 1.86  72 1.87  21 2.78   3 2.78
                            18 2.78   9 2.78  15 2.79  24 2.79
  13  0.222  0.667  0.444-  71 1.86  56 1.86  50 1.86  53 1.87  47 1.87  32 1.89  19 2.78  16 2.78
                            22 2.78  25 2.78  10 2.79   4 2.79
  14  0.333  0.000  0.333-  55 1.86  58 1.86  34 1.86  31 1.86  37 1.86  52 1.86  26 2.78  23 2.79
                            17 2.79   5 2.79  11 2.79   2 2.79
  15  0.445  0.332  0.555-  54 1.86  78 1.86  57 1.86  75 1.86  51 1.86  72 1.87  27 2.78   3 2.78
                             6 2.78  18 2.78  24 2.79  12 2.79
  16  0.555  0.668  0.445-  77 1.86  53 1.86  56 1.86  38 1.86  62 1.86  59 1.87   4 2.78  28 2.78
                            25 2.78  13 2.78   7 2.79  19 2.79
  17  0.667  0.000  0.333-  40 1.86  64 1.86  58 1.86  61 1.86  43 1.86  37 1.86   8 2.79  11 2.79
                             5 2.79  20 2.79  26 2.79  14 2.79
  18  0.778  0.333  0.556-  60 1.86  57 1.86  63 1.86  78 1.87  66 1.87  81 1.89  12 2.78  15 2.78
                             9 2.78   6 2.78  21 2.79  27 2.79
  19  0.889  0.668  0.445-  47 1.86  65 1.86  50 1.86  44 1.86  62 1.86  59 1.87  10 2.78  28 2.78
                            13 2.78  22 2.78   7 2.79  16 2.79
  20  0.000  0.000  0.667-  49 1.86  64 1.86  67 1.86  82 1.86  61 1.86  70 1.86  11 2.78  23 2.79
                            17 2.79   2 2.79   5 2.79  26 2.79
  21  0.112  0.329  0.888-  66 1.86  36 1.86  69 1.86  33 1.87  81 1.87  30 1.87  12 2.78  24 2.78
                             6 2.79  18 2.79   3 2.80  27 2.80
  22  0.222  0.667  0.778-  71 1.86  50 1.86  74 1.86  35 1.87  65 1.87  68 1.89  19 2.78   7 2.78
                            13 2.78  25 2.78   4 2.79  28 2.79
  23  0.333  1.000  0.667-  73 1.86  49 1.86  55 1.86  52 1.86  70 1.86  76 1.86   5 2.79  20 2.79
                             8 2.79  11 2.79  14 2.79  26 2.79
  24  0.445  0.332  0.889-  36 1.86  42 1.86  39 1.86  69 1.86  75 1.86  72 1.87  27 2.78  21 2.78
                             6 2.78   9 2.78  15 2.79  12 2.79
  25  0.556  0.667  0.778-  71 1.86  56 1.86  74 1.86  77 1.87  41 1.87  80 1.89   7 2.78  16 2.78
                            13 2.78  22 2.78  10 2.79  28 2.79
  26  0.667  0.000  0.667-  58 1.86  55 1.86  79 1.86  82 1.86  76 1.86  61 1.86  14 2.78  17 2.79
                            23 2.79   8 2.79  20 2.79   2 2.79
  27  0.777  0.329  0.888-  42 1.86  78 1.86  75 1.86  45 1.87  81 1.87  30 1.87  15 2.78  24 2.78
                             9 2.79  18 2.79  21 2.80   3 2.80
  28  0.888  0.671  0.777-  65 1.86  77 1.86  62 1.86  68 1.87  80 1.87  29 1.87  19 2.78  16 2.78
                            22 2.79  25 2.79  10 2.80   4 2.80
  29  0.000  0.738  0.000-  10 1.87  28 1.87   4 1.87
  30  0.000  0.262  0.000-  21 1.87   3 1.87  27 1.87
  31  0.111  0.068  0.222-  14 1.86  11 1.86   2 1.86
  32  0.109  0.600  0.217-  10 1.87   4 1.87  13 1.89   1 2.10
  33  0.217  0.400  0.109-  21 1.87   3 1.87   6 1.89   1 2.10
  34  0.222  0.932  0.111-  14 1.86   5 1.86   2 1.86
  35  0.334  0.736  0.999-   4 1.86   7 1.86  22 1.87
  36  0.335  0.264  0.001-  21 1.86  24 1.86   6 1.87
  37  0.444  0.068  0.222-  17 1.86   5 1.86  14 1.86
  38  0.443  0.601  0.222-   4 1.86  16 1.86   7 1.86
  39  0.555  0.401  0.110-  24 1.86   9 1.86   6 1.86
  40  0.556  0.932  0.111-   8 1.86   5 1.86  17 1.86
  41  0.665  0.736  0.999-  10 1.86   7 1.86  25 1.87
  42  0.666  0.264  0.001-  27 1.86  24 1.86   9 1.87
  43  0.778  0.068  0.222-  17 1.86   8 1.86  11 1.86
  44  0.778  0.601  0.222-  10 1.86  19 1.86   7 1.86
  45  0.891  0.400  0.109-  27 1.87   3 1.87   9 1.89   1 2.10
  46  0.889  0.932  0.111-  11 1.86   8 1.86   2 1.86
  47  0.001  0.736  0.335-  10 1.86  19 1.86  13 1.87
  48  0.999  0.264  0.334-   3 1.86  12 1.86   9 1.87
  49  0.111  0.068  0.556-  11 1.86  20 1.86  23 1.86
  50  0.110  0.599  0.555-  19 1.86  22 1.86  13 1.86
  51  0.222  0.399  0.443-   3 1.86  15 1.86  12 1.86
  52  0.222  0.932  0.444-  23 1.86  11 1.86  14 1.86
  53  0.334  0.736  0.335-   4 1.86  16 1.86  13 1.87
  54  0.335  0.264  0.334-   3 1.86  15 1.86   6 1.87
  55  0.444  0.068  0.556-  14 1.86  26 1.86  23 1.86
  56  0.445  0.599  0.555-  16 1.86  25 1.86  13 1.86
  57  0.555  0.401  0.445-  15 1.86   6 1.86  18 1.86
  58  0.556  0.932  0.444-  26 1.86  14 1.86  17 1.86
  59  0.667  0.735  0.333-  16 1.87   7 1.87  19 1.87
  60  0.667  0.266  0.333-   9 1.86  18 1.86   6 1.86
  61  0.778  0.068  0.556-  17 1.86  20 1.86  26 1.86
  62  0.778  0.601  0.557-  28 1.86  16 1.86  19 1.86
  63  0.890  0.401  0.445-  12 1.86   9 1.86  18 1.86
  64  0.889  0.932  0.444-  11 1.86  20 1.86  17 1.86
  65  0.001  0.736  0.666-  28 1.86  19 1.86  22 1.87
  66  0.999  0.264  0.665-  21 1.86  12 1.86  18 1.87
  67  0.111  0.068  0.889-  20 1.86   5 1.86   2 1.86
  68  0.109  0.600  0.891-   4 1.87  28 1.87  22 1.89   1 2.10
  69  0.222  0.399  0.778-  21 1.86  12 1.86  24 1.86
  70  0.222  0.932  0.778-  23 1.86   5 1.86  20 1.86
  71  0.333  0.734  0.667-  22 1.86  13 1.86  25 1.86
  72  0.333  0.265  0.667-  15 1.87  24 1.87  12 1.87
  73  0.444  0.068  0.889-   5 1.86   8 1.86  23 1.86
  74  0.445  0.599  0.890-   7 1.86  22 1.86  25 1.86
  75  0.557  0.399  0.778-  27 1.86  15 1.86  24 1.86
  76  0.556  0.932  0.778-  23 1.86   8 1.86  26 1.86
  77  0.665  0.736  0.666-  28 1.86  16 1.86  25 1.87
  78  0.666  0.264  0.665-  27 1.86  15 1.86  18 1.87
  79  0.778  0.068  0.889-  26 1.86   8 1.86   2 1.86
  80  0.783  0.600  0.891-  10 1.87  28 1.87  25 1.89   1 2.10
  81  0.891  0.400  0.783-  21 1.87  27 1.87  18 1.89   1 2.10
  82  0.889  0.932  0.778-  26 1.86  20 1.86   2 1.86

  LATTYP: Found a hexagonal cell.
 ALAT       =     8.3552357416
 C/A-ratio  =     1.6651391430

  Lattice vectors:

 A1 = (   4.1776178642,  -7.2358464107,   0.0000000000)
 A2 = (  -8.3552357285,   0.0000000000,   0.0000000000)
 A3 = (   0.0000000000,   0.0000000000, -13.9126300821)

Analysis of symmetry for initial positions (statically):
 Subroutine PRICEL returns:
 Original cell was already a primitive cell.

 Routine SETGRP: Setting up the symmetry group for a
 hexagonal supercell.

 Subroutine GETGRP returns: Found 12 space group operations
 (whereof 12 operations were pure point group operations)
 out of a pool of 24 trial point group operations.

The static configuration has the point symmetry D_3d.

Analysis of symmetry for dynamics (positions and initial velocities):
 Subroutine PRICEL returns:
 Original cell was already a primitive cell.

[...]

The dynamic configuration has the point symmetry D_3d.

Analysis of structural, dynamic, and magnetic symmetry:
 Subroutine PRICEL returns:
 Original cell was already a primitive cell.

 Routine SETGRP: Setting up the symmetry group for a
 hexagonal supercell.

 Subroutine GETGRP returns: Found 12 space group operations
 (whereof 12 operations were pure point group operations)
[...]
   -.232E+00 0.134E+00 -.370E+03   0.265E+00 -.153E+00 0.398E+03   -.186E-01 0.107E-01 -.282E+02   -.147E-01 0.851E-02 0.238E-02
   -.466E+00 0.269E+00 0.381E+03   0.417E+00 -.240E+00 -.409E+03   0.457E-01 -.264E-01 0.280E+02   0.579E-02 -.334E-02 -.105E-01
   0.466E+00 -.269E+00 -.381E+03   -.417E+00 0.240E+00 0.409E+03   -.457E-01 0.264E-01 -.280E+02   -.579E-02 0.334E-02 0.105E-01
   0.232E+00 -.134E+00 0.370E+03   -.265E+00 0.153E+00 -.398E+03   0.186E-01 -.107E-01 0.282E+02   0.147E-01 -.851E-02 -.238E-02
   0.462E-04 -.269E-04 -.364E+03   0.111E-04 -.590E-05 0.393E+03   -.635E-21 0.535E-21 -.283E+02   -.166E-08 0.926E-09 -.197E-01
   0.392E-04 -.229E-04 0.366E+03   0.207E-04 -.125E-04 -.394E+03   0.000E+00 0.478E-22 0.278E+02   0.104E-07 -.600E-08 0.262E-01
[...]
   0.897E+01 -.518E+01 -.379E+03   -.882E+01 0.509E+01 0.407E+03   -.143E+00 0.826E-01 -.280E+02   -.100E-01 0.579E-02 0.196E-01
   0.126E+01 -.729E+00 0.370E+03   -.122E+01 0.706E+00 -.399E+03   -.543E-01 0.314E-01 0.281E+02   0.124E-01 -.716E-02 -.510E-02
   -.392E-04 0.229E-04 -.366E+03   -.207E-04 0.125E-04 0.394E+03   0.000E+00 -.478E-22 -.278E+02   -.104E-07 0.600E-08 -.262E-01
   -.462E-04 0.269E-04 0.364E+03   -.111E-04 0.590E-05 -.393E+03   0.424E-21 -.535E-21 0.283E+02   0.166E-08 -.920E-09 0.197E-01
   0.232E+00 0.134E+00 -.370E+03   -.265E+00 -.153E+00 0.398E+03   0.186E-01 0.107E-01 -.282E+02   0.147E-01 0.851E-02 0.238E-02
   0.466E+00 0.269E+00 0.381E+03   -.417E+00 -.240E+00 -.409E+03   -.457E-01 -.264E-01 0.280E+02   -.579E-02 -.334E-02 -.105E-01
   -.126E-05 0.104E+02 -.379E+03   -.541E-05 -.102E+02 0.407E+03   -.347E-17 -.165E+00 -.280E+02   0.674E-07 -.116E-01 0.196E-01
   -.407E-04 0.146E+01 0.370E+03   -.223E-04 -.141E+01 -.399E+03   0.434E-18 -.627E-01 0.281E+02   -.587E-08 0.143E-01 -.510E-02
   -.286E+00 0.859E+01 -.368E+03   0.588E+00 -.934E+01 0.396E+03   -.304E+00 0.768E+00 -.285E+02   -.348E-04 -.152E-01 -.121E-01
   0.758E+01 0.405E+01 0.368E+03   -.838E+01 -.416E+01 -.396E+03   0.817E+00 0.121E+00 0.285E+02   -.132E-01 -.764E-02 0.121E-01
   0.452E-04 0.190E+01 -.368E+03   0.361E-05 -.190E+01 0.396E+03   0.217E-18 0.170E-01 -.282E+02   0.231E-07 -.143E-01 0.108E-03
   0.838E-05 0.405E+02 0.351E+03   -.142E-04 -.433E+02 -.375E+03   0.278E-16 0.277E+01 0.234E+02   0.298E-07 -.177E-01 -.210E-01
   0.351E+02 0.203E+02 -.351E+03   -.375E+02 -.216E+02 0.375E+03   0.240E+01 0.139E+01 -.234E+02   -.154E-01 -.887E-02 0.210E-01
   0.164E+01 0.948E+00 0.368E+03   -.164E+01 -.950E+00 -.396E+03   0.148E-01 0.852E-02 0.282E+02   -.123E-01 -.713E-02 -.108E-03
   -.181E-09 -.170E-10 0.521E-10   0.393E-12 0.263E-13 0.398E-12   -.212E-15 -.612E-15 -.711E-14   0.650E-11 0.204E-11 0.177E-10

 POSITION                                       TOTAL-FORCE (eV/Angst)
      0.00000      0.00000      6.96127        -0.000000      0.000000     -0.000000
      0.00000      0.00000     -0.00000        -0.000000      0.000000     -0.000000
      1.39657      0.80631      4.58929         0.000470      0.000271      0.003656
     -0.00000      1.61262      9.33325        -0.000000      0.000543     -0.003656
     -1.39226      2.41147     -0.00000        -0.000629      0.001089     -0.000000
      0.00000      3.21319      4.63576        -0.000000     -0.002755     -0.014358
     -1.39392      4.01778      9.30131         0.002221      0.001283      0.012860
     -2.78419      4.82236     -0.00000         0.000629     -0.001089     -0.000000
     -1.39375      5.62724      4.63576        -0.002386      0.001377     -0.014358
     -2.77989      6.42752      9.33325         0.000470     -0.000271     -0.003656
      2.78452      0.00000     -0.00000         0.001257      0.000000     -0.000000
      4.17646      0.80172      4.62123        -0.000000      0.002565     -0.012860
      2.78270      1.60659      9.28678        -0.002386     -0.001377      0.014358
      1.39226      2.41147     -0.00000         0.000629      0.001089     -0.000000
      2.78254      3.21606      4.62123         0.002221     -0.001283     -0.012860
      1.39392      4.01778      9.30131        -0.002221      0.001283      0.012860
     -0.00000      4.82256      0.00113        -0.000000      0.000000     -0.000456
      1.39375      5.62724      4.63576         0.002386      0.001377     -0.014358
     -0.00000      6.43211      9.30131        -0.000000     -0.002565      0.012860
      5.56839      0.00000     -0.00000        -0.001257      0.000000     -0.000000
      6.95634      0.80631      4.58929        -0.000470      0.000271      0.003656
      5.57021      1.60659      9.28678         0.002386     -0.001377      0.014358
      4.17646      2.41128     13.92141        -0.000000      0.000000      0.000456
      5.57037      3.21606      4.62123        -0.002221     -0.001283     -0.012860
      4.17646      4.02064      9.28678        -0.000000      0.002755      0.014358
      2.78419      4.82236     -0.00000        -0.000629     -0.001089     -0.000000
      4.17646      5.62121      4.58929        -0.000000     -0.000543      0.003656
      2.77989      6.42752      9.33325        -0.000470     -0.000271     -0.003656
      0.00000      0.00000     10.27716        -0.000000      0.000000     -0.005193
      0.00000      0.00000      3.64538        -0.000000      0.000000      0.005193
      1.39237      0.80389      0.94080         0.000214      0.000123     -0.000907
      1.35983      0.78510      8.35692         0.001985      0.001146     -0.002040
      0.00000      1.57020      5.56562        -0.000000      0.002293      0.002040
      0.00000      1.60777     12.98174        -0.000000      0.000247      0.000907
      6.95227      2.41524     10.24687         0.006956     -0.002625      0.007296
     -1.39134      2.42061      3.67567        -0.001205     -0.007336     -0.007296
     -0.00000      3.21543      0.94310        -0.000000      0.000944     -0.000795
      0.00000      3.20785      8.36633         0.000000      0.005075      0.006313
     -1.39489      4.01722      5.57304         0.002054      0.001186     -0.019014
     -1.39180      4.01900     12.98213        -0.000353     -0.000204      0.000156
      5.56779      4.81322     10.24687         0.001205      0.007336      0.007296
     -2.77581      4.81859      3.67567        -0.006956      0.002625     -0.007296
     -1.39181      5.62612      0.94310         0.000818     -0.000472     -0.000795
     -1.39838      5.62991      8.36633         0.004395     -0.002537      0.006313
     -2.81663      6.44874      5.56562         0.001985     -0.001146      0.002040
     -2.78409      6.42995     12.98174         0.000214     -0.000123      0.000907
      2.79198      0.00538     10.24687        -0.005751     -0.004711      0.007296
     -1.38447      7.22846      3.67567        -0.005751      0.004711     -0.007296
      4.17646      0.80417      0.94040        -0.000000     -0.000408     -0.000156
      4.17646      0.80060      8.34950        -0.000000      0.002372      0.019014
      2.77808      1.60392      5.55620         0.004395      0.002537     -0.006313
      2.78465      1.60772     12.97944         0.000818      0.000472      0.000795
      1.40065      2.41524     10.24687        -0.006956     -0.002625      0.007296
      1.39134      2.42061      3.67567         0.001205     -0.007336     -0.007296
      2.78466      3.21483      0.94040        -0.000353      0.000204     -0.000156
      2.78157      3.21662      8.34950         0.002054     -0.001186      0.019014
      1.39489      4.01722      5.57304        -0.002054      0.001186     -0.019014
      1.39180      4.01900     12.98213         0.000353     -0.000204      0.000156
     -0.00000      4.82256     10.24180        -0.000000      0.000000      0.012120
     -0.00000      4.82256      3.70524        -0.000000      0.000000     -0.016940
[...]
      6.99308      0.78510      8.35692        -0.001985      0.001146     -0.002040
      5.57484      1.60392      5.55620        -0.004395      0.002537     -0.006313
      5.56826      1.60772     12.97944        -0.000818      0.000472      0.000795
      4.17646      2.41128     10.21730        -0.000000      0.000000      0.016940
      4.17646      2.41128      3.68074        -0.000000      0.000000     -0.012120
      5.56825      3.21483      0.94040         0.000353      0.000204     -0.000156
      5.57134      3.21662      8.34950        -0.002054     -0.001186      0.019014
      4.17646      4.02599      5.55620        -0.000000     -0.005075     -0.006313
      4.17646      4.01840     12.97944        -0.000000     -0.000944      0.000795
      2.78512      4.81322     10.24687        -0.001205      0.007336      0.007296
      2.77581      4.81859      3.67567         0.006956      0.002625     -0.007296
      4.17646      5.62606      0.94080        -0.000000     -0.000247     -0.000907
      4.17646      5.66364      8.35692        -0.000000     -0.002293     -0.002040
      2.81663      6.44874      5.56562        -0.001985     -0.001146      0.002040
      2.78409      6.42995     12.98174        -0.000214     -0.000123      0.000907
    total drift:                               -0.000000     -0.000000      0.000000

  FREE ENERGIE OF THE ION-ELECTRON SYSTEM (eV)
  free  energy   TOTEN  =      -512.5526941426 eV

  energy  without entropy=     -512.5137493608  energy(sigma->0) =     -512.53322175

 d Force = 0.3262187E-03[ 0.255E-03, 0.398E-03]  d Energy = 0.2810406E-03 0.452E-04
 d Force =-0.2781268E+01[-0.278E+01,-0.278E+01]  d Ewald  =-0.3864258E+01 0.108E+01

 Quasi-Newton relaxation of ions (Broydens 2nd method)
  g(Force)  = 0.352E-03   g(Stress)= 0.561E-03

 retain information from N=  2 steps
 eigenvalues of (default step * inverse Hessian matrix)
  average eigenvalue of G=   0.4407
 eigenvalue spectrum of G is  0.4407  0.4407

 reached required accuracy - stopping structural energy minimisation

volume of typ            1:     0.9 %

[...]

volume of typ            3:    10.5 %

total charge

# of ion       s       p       d       tot
    1        2.071   0.231   0.092   2.394
    2        0.304   0.428   7.818   8.550
    3        0.304   0.429   7.824   8.557
    4        0.304   0.429   7.824   8.557
    5        0.304   0.428   7.817   8.549
    6        0.300   0.419   7.820   8.538
    7        0.304   0.428   7.818   8.549
    8        0.304   0.428   7.817   8.549
    9        0.300   0.419   7.820   8.538
   10        0.304   0.429   7.824   8.557
   11        0.304   0.428   7.817   8.549
   12        0.304   0.428   7.818   8.549
   13        0.300   0.419   7.820   8.538
   14        0.304   0.428   7.817   8.549
   15        0.304   0.428   7.818   8.549
   16        0.304   0.428   7.818   8.549
   17        0.304   0.428   7.818   8.550
   18        0.300   0.419   7.820   8.538
   19        0.304   0.428   7.818   8.549
   20        0.304   0.428   7.817   8.549
   21        0.304   0.429   7.824   8.557
   22        0.300   0.419   7.820   8.538
   23        0.304   0.428   7.818   8.550
   24        0.304   0.428   7.818   8.549
   25        0.300   0.419   7.820   8.538
   26        0.304   0.428   7.817   8.549
   27        0.304   0.429   7.824   8.557
   28        0.304   0.429   7.824   8.557
   29        1.287   2.719   0.008   4.014
   30        1.287   2.719   0.008   4.014
   31        1.286   2.723   0.008   4.017
   32        1.275   2.756   0.007   4.038
   33        1.275   2.756   0.007   4.038
   34        1.286   2.723   0.008   4.017
   35        1.286   2.722   0.008   4.017
   36        1.286   2.722   0.008   4.017
   37        1.286   2.723   0.008   4.017
   38        1.285   2.724   0.008   4.017
   39        1.286   2.722   0.008   4.017
   40        1.286   2.723   0.008   4.017
   41        1.286   2.722   0.008   4.017
   42        1.286   2.722   0.008   4.017
   43        1.286   2.723   0.008   4.017
   44        1.285   2.724   0.008   4.017
   45        1.275   2.756   0.007   4.038
   46        1.286   2.723   0.008   4.017
   47        1.286   2.722   0.008   4.017
   48        1.286   2.722   0.008   4.017
   49        1.286   2.723   0.008   4.017
   50        1.286   2.722   0.008   4.017
   51        1.285   2.724   0.008   4.017
   52        1.286   2.723   0.008   4.017
   53        1.286   2.722   0.008   4.017
   54        1.286   2.722   0.008   4.017
   55        1.286   2.723   0.008   4.017
   56        1.286   2.722   0.008   4.017
   57        1.286   2.722   0.008   4.017
   58        1.286   2.723   0.008   4.017
   59        1.287   2.721   0.008   4.016
   60        1.289   2.715   0.008   4.013
[...]
   68        1.275   2.756   0.007   4.038
   69        1.285   2.724   0.008   4.017
   70        1.286   2.723   0.008   4.017
   71        1.289   2.715   0.008   4.013
   72        1.287   2.721   0.008   4.016
   73        1.286   2.723   0.008   4.017
   74        1.286   2.722   0.008   4.017
   75        1.285   2.724   0.008   4.017
   76        1.286   2.723   0.008   4.017
   77        1.286   2.722   0.008   4.017
   78        1.286   2.722   0.008   4.017
   79        1.286   2.723   0.008   4.017
   80        1.275   2.756   0.007   4.038
   81        1.275   2.756   0.007   4.038
   82        1.286   2.723   0.008   4.017
tot          79.64  158.93  211.66  450.23

magnetization (x)

# of ion       s       p       d       tot
    1        0.004   0.001  -0.000   0.004
    2       -0.000  -0.000   0.002   0.002
    3       -0.000  -0.000   0.023   0.023
    4       -0.000  -0.000   0.023   0.023
    5        0.000  -0.000   0.010   0.010
    6       -0.000  -0.000   0.055   0.055
    7       -0.000  -0.000   0.010   0.010
    8        0.000  -0.000   0.010   0.010
    9       -0.000  -0.000   0.055   0.055
   10       -0.000  -0.000   0.023   0.023
   11        0.000  -0.000   0.010   0.010
   12       -0.000  -0.000   0.010   0.010
   13       -0.000  -0.000   0.055   0.055
   14        0.000  -0.000   0.010   0.010
   15       -0.000  -0.000   0.010   0.010
   16       -0.000  -0.000   0.010   0.010
   17       -0.000   0.000   0.006   0.006
   18       -0.000  -0.000   0.055   0.055
   19       -0.000  -0.000   0.010   0.010
   20        0.000  -0.000   0.010   0.010
   21       -0.000  -0.000   0.023   0.023
   22       -0.000  -0.000   0.055   0.055
   23       -0.000   0.000   0.006   0.006
   24       -0.000  -0.000   0.010   0.010
   25       -0.000  -0.000   0.055   0.055
   26        0.000  -0.000   0.010   0.010
   27       -0.000  -0.000   0.023   0.023
   28       -0.000  -0.000   0.023   0.023
   29        0.001   0.002   0.000   0.002
   30        0.001   0.002   0.000   0.002
   31        0.000   0.000   0.000   0.001
   32        0.001   0.005   0.000   0.007
   33        0.001   0.005   0.000   0.007
   34        0.000   0.000   0.000   0.001
   35        0.000   0.001   0.000   0.001
   36        0.000   0.001   0.000   0.001
   37        0.000   0.001   0.000   0.002
   38        0.000   0.001   0.000   0.001
   39        0.001   0.002   0.000   0.002
   40        0.000  -0.001   0.000  -0.000
   41        0.000   0.001   0.000   0.001
   42        0.000   0.001   0.000   0.001
   43        0.000   0.001   0.000   0.002
   44        0.000   0.001   0.000   0.001
   45        0.001   0.005   0.000   0.007
   46        0.000   0.000   0.000   0.001
   47        0.000   0.001   0.000   0.001
   48        0.000   0.001   0.000   0.001
   49        0.000  -0.001   0.000  -0.000
   50        0.001   0.002   0.000   0.002
   51        0.000   0.001   0.000   0.001
   52        0.000   0.001   0.000   0.002
   53        0.000   0.001   0.000   0.001
   54        0.000   0.001   0.000   0.001
   55        0.000  -0.001   0.000  -0.000
   56        0.001   0.002   0.000   0.002
   57        0.001   0.002   0.000   0.002
   58        0.000  -0.001   0.000  -0.000
   59        0.000   0.006   0.000   0.006
   60        0.003   0.036   0.000   0.039
[...]
   68        0.001   0.005   0.000   0.007
   69        0.000   0.001   0.000   0.001
   70        0.000   0.001   0.000   0.002
   71        0.003   0.036   0.000   0.039
   72        0.000   0.006   0.000   0.006
   73        0.000  -0.001   0.000  -0.000
   74        0.001   0.002   0.000   0.002
   75        0.000   0.001   0.000   0.001
   76        0.000   0.001   0.000   0.002
   77        0.000   0.001   0.000   0.001
   78        0.000   0.001   0.000   0.001
   79        0.000   0.000   0.000   0.001
   80        0.001   0.005   0.000   0.007
   81        0.001   0.005   0.000   0.007
   82        0.000   0.000   0.000   0.001
tot           0.03    0.15    0.60    0.79