 vasp.5.4.4.18Apr17-6-g9f103f2a35 (build May 12 2020 05:39:39) gamma-only

 MD_VERSION_INFO: Compiled 2020-05-12T12:39:39-UTC in devlin.sd.materialsdesign.
 com:/home/medea2/data/build/wwolf/vasp-gpu5.4.4/13047/x86_64/src/src/build/gam
 from svn 13047

 executed on                        Lin64 date 2023.01.19  16:47:20

 INCAR:
 POTCAR:    PAW_PBE Li_sv 10Sep2004
 POTCAR:    PAW_PBE Ni 02Aug2007
 POTCAR:    PAW_PBE O 08Apr2002

 POTCAR:    PAW_PBE Li_sv 10Sep2004

 POTCAR:    PAW_PBE Ni 02Aug2007

 POTCAR:    PAW_PBE O 08Apr2002

 Optimization of the real space projectors (new method)

 maximal supplied QI-value         = 22.11
 optimisation between [QCUT,QGAM] = [ 11.28, 22.77] = [ 35.61,145.23] Ry
 Optimized for a Real-space Cutoff    1.10 Angstroem

   l    n(q)    QCUT    max X(q) W(low)/X(q) W(high)/X(q)  e(spline)
   0      7    11.276    10.506    0.54E-04    0.58E-04    0.16E-07
   0      7    11.276     8.367    0.11E-03    0.14E-03    0.35E-07
   1      7    11.276     8.983    0.23E-03    0.43E-03    0.86E-07
 Optimization of the real space projectors (new method)

[...]

   l    n(q)    QCUT    max X(q) W(low)/X(q) W(high)/X(q)  e(spline)
   2      9    11.376    60.317    0.17E-03    0.16E-04    0.16E-06
   2      9    11.376    55.921    0.17E-03    0.16E-04    0.17E-06
   0     10    11.376    51.690    0.45E-04    0.60E-04    0.21E-06
   0     10    11.376    30.015    0.37E-04    0.55E-04    0.19E-06
   1     10    11.376    18.849    0.83E-04    0.11E-03    0.92E-07
   1     10    11.376    14.624    0.69E-04    0.92E-04    0.82E-07
 Optimization of the real space projectors (new method)

 maximal supplied QI-value         = 24.76
 optimisation between [QCUT,QGAM] = [ 11.39, 22.77] = [ 36.31,145.25] Ry
 Optimized for a Real-space Cutoff    1.10 Angstroem

   l    n(q)    QCUT    max X(q) W(low)/X(q) W(high)/X(q)  e(spline)
   0      7    11.387    20.381    0.22E-03    0.48E-03    0.18E-06
   0      7    11.387    15.268    0.22E-03    0.52E-03    0.19E-06
   1      7    11.387     5.964    0.22E-03    0.73E-03    0.24E-06
   1      7    11.387     5.382    0.19E-03    0.60E-03    0.21E-06

  PAW_PBE Li_sv 10Sep2004               :
  PAW_PBE Ni 02Aug2007                  :
  PAW_PBE O 08Apr2002                   :

 POSCAR: ce409357_1
  positions in direct lattice
 exchange correlation table for  LEXCH =       14
   RHO(1)=    0.500       N(1)  =     2000
   RHO(2)=  100.500       N(2)  =     4000

 ion  position               nearest neighbor table
   1  0.998  0.500  0.999-  37 2.10  85 2.10  50 2.11  86 2.11  38 2.12  73 2.13
   2  0.112  0.833  0.225-  39 2.10  57 2.10  58 2.11  52 2.11  34 2.12  51 2.13
   3  0.223  0.166  0.110-  35 2.10  41 2.10  72 2.11  42 2.11  36 2.12  59 2.13
   4  0.666  0.500  0.331-  68 2.10  44 2.10  49 2.11  43 2.11  67 2.12  62 2.13
   5  0.776  0.834  0.557-  64 2.10  82 2.10  63 2.11  87 2.11  69 2.12  70 2.13
   6  0.891  0.167  0.446-  66 2.10  54 2.10  71 2.11  53 2.11  65 2.12  48 2.13
   7  0.999  0.999  0.999-  51 1.87  84 1.87  72 1.87  36 1.87  39 1.88  87 1.88  25 2.79  31 2.79
                            13 2.79  16 2.80  10 2.81  19 2.82
   8  0.111  0.332  0.223-  59 1.87  56 1.87  50 1.87  38 1.87  35 1.88  53 1.88  14 2.79  17 2.79
                            20 2.79  11 2.80  32 2.81  26 2.82
   9  0.223  0.666  0.111-  73 1.87  40 1.87  58 1.87  34 1.87  37 1.88  43 1.88  21 2.79  12 2.79
                            27 2.79  33 2.80  18 2.81  15 2.82
  10  0.334  0.997  1.000-  75 1.86  45 1.86  78 1.86  42 1.88  72 1.88  39 1.90  22 2.79  25 2.79
                            28 2.79  13 2.79  19 2.81   7 2.81
  11  0.444  0.333  0.222-  59 1.87  62 1.87  41 1.87  44 1.87  65 1.91  38 1.91  20 2.79  29 2.80
                             8 2.80  23 2.80  26 2.80  14 2.80
  12  0.555  0.670  0.110-  46 1.86  40 1.86  79 1.86  43 1.88  49 1.88  64 1.90   9 2.79  15 2.79
                            30 2.79  27 2.79  21 2.81  24 2.81
  13  0.667  0.000  0.000-  81 1.86  78 1.86  84 1.87  45 1.87  51 1.89  48 1.89   7 2.79  22 2.79
                            16 2.79  31 2.79  10 2.79  28 2.80
  14  0.778  0.334  0.221-  44 1.87  47 1.87  53 1.87  65 1.87  68 1.88  50 1.89   8 2.79  32 2.79
                            29 2.79  11 2.80  17 2.81  23 2.82
  15  0.888  0.666  0.111-  85 1.87  46 1.87  52 1.87  34 1.87  37 1.88  49 1.89  24 2.79  12 2.79
                            30 2.79  33 2.80  18 2.81   9 2.82
  16  1.000  0.000  0.333-  48 1.87  51 1.87  57 1.87  54 1.87  36 1.91  69 1.91  13 2.79  28 2.80
                            22 2.80   7 2.80  19 2.80  25 2.80
  17  0.112  0.337  0.556-  74 1.86  56 1.86  77 1.86  53 1.88  71 1.88  68 1.90   8 2.79  26 2.79
                            29 2.79  20 2.79  14 2.81  23 2.81
  18  0.223  0.663  0.445-  61 1.86  55 1.86  76 1.86  52 1.88  58 1.88  37 1.90  24 2.79  21 2.79
                            30 2.79  27 2.79  15 2.81   9 2.81
  19  0.335  0.999  0.335-  57 1.87  60 1.87  42 1.87  36 1.87  39 1.88  63 1.89  22 2.79  31 2.79
                            28 2.79  16 2.80  10 2.81   7 2.82
  20  0.444  0.333  0.555-  77 1.86  80 1.86  83 1.87  56 1.87  59 1.89  62 1.89   8 2.79  23 2.79
                            11 2.79  17 2.79  32 2.79  29 2.80
  21  0.554  0.668  0.444-  82 1.87  61 1.87  43 1.87  67 1.87  64 1.88  58 1.89   9 2.79  18 2.79
                            30 2.79  33 2.80  12 2.81  24 2.82
  22  0.665  0.001  0.332-  48 1.87  45 1.87  63 1.87  69 1.87  66 1.88  42 1.88  19 2.79  10 2.79
                            13 2.79  16 2.80  31 2.81  25 2.82
  23  0.778  0.334  0.557-  62 1.87  83 1.87  71 1.87  65 1.87  68 1.88  86 1.88  26 2.79  32 2.79
                            20 2.79  11 2.80  17 2.81  14 2.82
  24  0.890  0.668  0.444-  70 1.87  55 1.87  49 1.87  67 1.87  64 1.88  52 1.88  15 2.79  18 2.79
                            27 2.79  33 2.80  12 2.81  21 2.82
  25  0.001  0.001  0.668-  54 1.87  75 1.87  87 1.87  69 1.87  66 1.88  72 1.89   7 2.79  10 2.79
                            28 2.79  16 2.80  31 2.81  22 2.82
  26  0.111  0.332  0.888-  41 1.87  74 1.87  86 1.87  38 1.87  35 1.88  71 1.89  23 2.79  17 2.79
                            29 2.79  11 2.80  32 2.81   8 2.82
  27  0.222  0.667  0.778-  79 1.86  76 1.86  40 1.87  55 1.87  70 1.89  73 1.89   9 2.79  24 2.79
                            33 2.79  12 2.79  18 2.79  30 2.80
  28  0.333  0.000  0.667-  78 1.87  81 1.87  75 1.87  60 1.87  54 1.90  57 1.90  25 2.79  19 2.79
                            10 2.79  31 2.79  16 2.80  13 2.80
  29  0.444  0.333  0.889-  77 1.87  80 1.87  47 1.87  74 1.87  41 1.90  44 1.90  26 2.79  14 2.79
                            17 2.79  32 2.79  11 2.80  20 2.80
  30  0.556  0.667  0.778-  76 1.87  79 1.87  46 1.87  61 1.87  82 1.90  85 1.90  15 2.79  21 2.79
                            12 2.79  18 2.79  33 2.80  27 2.80
  31  0.666  0.003  0.667-  60 1.86  84 1.86  81 1.86  87 1.88  63 1.88  66 1.90   7 2.79  19 2.79
                            28 2.79  13 2.79  25 2.81  22 2.81
  32  0.777  0.330  0.888-  47 1.86  83 1.86  80 1.86  86 1.88  50 1.88  35 1.90  23 2.79  14 2.79
                            29 2.79  20 2.79  26 2.81   8 2.81
  33  0.889  0.667  0.778-  70 1.87  73 1.87  82 1.87  85 1.87  34 1.91  67 1.91  27 2.79  30 2.80
                             9 2.80  24 2.80  15 2.80  21 2.80
  34  0.002  0.734  0.005-  15 1.87   9 1.87  33 1.91   2 2.12
  35  0.004  0.263  0.002-  26 1.88   8 1.88  32 1.90   3 2.10
  36  0.114  0.067  0.220-  19 1.87   7 1.87  16 1.91   3 2.12
  37  0.109  0.597  0.218-  15 1.88   9 1.88  18 1.90   1 2.10
  38  0.217  0.401  0.109-  26 1.87   8 1.87  11 1.91   1 2.12
  39  0.220  0.930  0.113-  19 1.88   7 1.88  10 1.90   2 2.10
  40  0.332  0.734  0.999-  12 1.86   9 1.87  27 1.87
  41  0.332  0.265  0.001-  26 1.87  11 1.87  29 1.90   3 2.10
  42  0.440  0.067  0.219-  19 1.87  10 1.88  22 1.88   3 2.11
  43  0.449  0.600  0.223-  21 1.87  12 1.88   9 1.88   4 2.11
  44  0.557  0.402  0.114-  14 1.87  11 1.87  29 1.90   4 2.10
  45  0.557  0.932  0.112-  10 1.86  22 1.87  13 1.87
  46  0.668  0.734  0.999-  12 1.86  15 1.87  30 1.87
  47  0.666  0.266  0.001-  32 1.86  14 1.87  29 1.87
  48  0.779  0.068  0.225-  22 1.87  16 1.87  13 1.89   6 2.13
  49  0.774  0.600  0.223-  24 1.87  12 1.88  15 1.89   4 2.11
  50  0.890  0.400  0.108-   8 1.87  32 1.88  14 1.89   1 2.11
  51  0.892  0.932  0.113-   7 1.87  16 1.87  13 1.89   2 2.13
  52  0.003  0.734  0.332-  15 1.87  18 1.88  24 1.88   2 2.11
  53  0.999  0.266  0.337-  14 1.87  17 1.88   8 1.88   6 2.11
  54  0.108  0.068  0.554-  25 1.87  16 1.87  28 1.90   6 2.10
  55  0.110  0.599  0.556-  18 1.86  24 1.87  27 1.87
  56  0.223  0.401  0.443-  17 1.86   8 1.87  20 1.87
  57  0.221  0.932  0.442-  19 1.87  16 1.87  28 1.90   2 2.10
  58  0.329  0.734  0.332-   9 1.87  18 1.88  21 1.89   2 2.11
  59  0.332  0.265  0.331-   8 1.87  11 1.87  20 1.89   3 2.13
  60  0.443  0.068  0.555-  31 1.86  19 1.87  28 1.87
  61  0.446  0.599  0.556-  18 1.86  21 1.87  30 1.87
  62  0.557  0.402  0.443-  23 1.87  11 1.87  20 1.89   4 2.13
  63  0.560  0.933  0.448-  22 1.87  31 1.88  19 1.89   5 2.11
  64  0.669  0.737  0.337-  21 1.88  24 1.88  12 1.90   5 2.10
  65  0.672  0.266  0.336-  14 1.87  23 1.87  11 1.91   6 2.12
  66  0.780  0.070  0.554-  25 1.88  22 1.88  31 1.90   6 2.10
  67  0.775  0.599  0.550-  21 1.87  24 1.87  33 1.91   4 2.12
  68  0.885  0.403  0.442-  14 1.88  23 1.88  17 1.90   4 2.10
  69  0.886  0.933  0.447-  25 1.87  22 1.87  16 1.91   5 2.12
  70  0.997  0.735  0.665-  24 1.87  33 1.87  27 1.89   5 2.13
  71  0.999  0.266  0.662-  23 1.87  17 1.88  26 1.89   6 2.11
  72  0.114  0.067  0.893-   7 1.87  10 1.88  25 1.89   3 2.11
  73  0.110  0.598  0.890-   9 1.87  33 1.87  27 1.89   1 2.13
  74  0.223  0.401  0.779-  17 1.86  26 1.87  29 1.87
  75  0.221  0.932  0.776-  10 1.86  25 1.87  28 1.87
  76  0.332  0.732  0.665-  27 1.86  18 1.86  30 1.87
  77  0.332  0.268  0.665-  20 1.86  17 1.86  29 1.87
  78  0.444  0.065  0.890-  13 1.86  10 1.86  28 1.87
  79  0.445  0.602  0.891-  27 1.86  12 1.86  30 1.87
  80  0.557  0.398  0.778-  20 1.86  32 1.86  29 1.87
  81  0.557  0.935  0.777-  13 1.86  31 1.86  28 1.87
  82  0.668  0.735  0.665-  21 1.87  33 1.87  30 1.90   5 2.10
  83  0.666  0.266  0.665-  32 1.86  23 1.87  20 1.87
  84  0.779  0.068  0.891-  31 1.86   7 1.87  13 1.87
  85  0.781  0.598  0.890-  15 1.87  33 1.87  30 1.90   1 2.10
  86  0.890  0.400  0.782-  26 1.87  32 1.88  23 1.88   1 2.11
  87  0.886  0.933  0.773-  25 1.87  31 1.88   7 1.88   5 2.11

  LATTYP: Found a hexagonal cell.
 ALAT       =     8.3881516376
 C/A-ratio  =     1.6836789309

  Lattice vectors:

 A1 = (   4.1940758396,  -7.2643523969,   0.0000000000)
 A2 = (  -8.3881516792,   0.0000000000,   0.0000000000)
 A3 = (   0.0000000000,   0.0000000000, -14.1229541815)

Analysis of symmetry for initial positions (statically):
 Subroutine PRICEL returns:
 Original cell was already a primitive cell.

 Routine SETGRP: Setting up the symmetry group for a
 hexagonal supercell.

 Subroutine GETGRP returns: Found  6 space group operations
[...]
   0.191E+02 -.189E+02 0.347E+03   -.210E+02 0.204E+02 -.369E+03   0.181E+01 -.152E+01 0.225E+02   0.252E-02 -.179E-03 0.989E-02
   0.124E+01 -.489E+02 -.349E+03   -.162E+01 0.524E+02 0.372E+03   0.363E+00 -.347E+01 -.224E+02   0.168E-01 0.797E-02 0.584E-02
   -.727E+01 -.158E+02 0.376E+03   0.800E+01 0.156E+02 -.403E+03   -.743E+00 0.218E+00 0.268E+02   0.990E-02 0.890E-02 0.221E-01
   -.101E+02 -.142E+02 -.376E+03   0.952E+01 0.147E+02 0.403E+03   0.560E+00 -.534E+00 -.268E+02   0.276E-02 0.130E-01 -.221E-01
   -.430E+02 -.234E+02 0.349E+03   0.462E+02 0.248E+02 -.372E+03   -.319E+01 -.142E+01 0.224E+02   -.148E-02 0.185E-01 -.584E-02
   -.867E+01 -.267E+02 -.346E+03   0.906E+01 0.289E+02 0.368E+03   -.396E+00 -.226E+01 -.224E+02   -.891E-03 -.389E-02 -.770E-02
   -.390E+02 -.235E+02 0.350E+03   0.416E+02 0.253E+02 -.372E+03   -.271E+01 -.183E+01 0.227E+02   0.303E-01 -.129E-02 0.439E-02
   -.175E+02 0.576E+00 -.378E+03   0.176E+02 -.136E+01 0.405E+03   -.175E+00 0.785E+00 -.270E+02   0.505E-03 0.535E-02 -.132E-01
[...]
   0.823E+01 -.154E+02 -.378E+03   -.764E+01 0.160E+02 0.405E+03   -.592E+00 -.544E+00 -.270E+02   -.489E-02 -.224E-02 -.132E-01
   0.923E+01 -.148E+02 0.378E+03   -.999E+01 0.146E+02 -.405E+03   0.767E+00 0.241E+00 0.270E+02   0.438E-02 0.311E-02 0.132E-01
   -.906E+01 -.804E+01 -.373E+03   0.879E+01 0.798E+01 0.400E+03   0.258E+00 0.760E-01 -.271E+02   0.128E-01 -.104E-01 -.209E-01
   -.244E+01 -.119E+02 0.373E+03   0.252E+01 0.116E+02 -.400E+03   -.630E-01 0.261E+00 0.271E+02   -.154E-01 0.594E-02 0.209E-01
   0.115E+02 -.382E+01 -.373E+03   -.113E+02 0.362E+01 0.400E+03   -.195E+00 0.185E+00 -.271E+02   0.255E-02 0.163E-01 -.209E-01
   0.115E+02 0.382E+01 0.373E+03   -.113E+02 -.362E+01 -.400E+03   -.195E+00 -.185E+00 0.271E+02   0.255E-02 -.163E-01 0.209E-01
   -.244E+01 0.119E+02 -.373E+03   0.252E+01 -.116E+02 0.400E+03   -.630E-01 -.261E+00 -.271E+02   -.154E-01 -.594E-02 -.209E-01
   -.906E+01 0.804E+01 0.373E+03   0.879E+01 -.798E+01 -.400E+03   0.258E+00 -.760E-01 0.271E+02   0.128E-01 0.104E-01 0.209E-01
   -.430E+02 0.234E+02 -.349E+03   0.462E+02 -.248E+02 0.372E+03   -.319E+01 0.142E+01 -.224E+02   -.148E-02 -.185E-01 0.584E-02
   -.101E+02 0.142E+02 0.376E+03   0.952E+01 -.147E+02 -.403E+03   0.560E+00 0.534E+00 0.268E+02   0.276E-02 -.130E-01 0.221E-01
   -.727E+01 0.158E+02 -.376E+03   0.800E+01 -.156E+02 0.403E+03   -.743E+00 -.218E+00 -.268E+02   0.990E-02 -.890E-02 -.221E-01
   0.124E+01 0.489E+02 0.349E+03   -.162E+01 -.524E+02 -.372E+03   0.363E+00 0.347E+01 0.224E+02   0.168E-01 -.797E-02 -.584E-02
   0.191E+02 0.189E+02 -.347E+03   -.210E+02 -.204E+02 0.369E+03   0.181E+01 0.152E+01 -.225E+02   0.252E-02 0.179E-03 -.989E-02
   -.260E+02 -.712E+01 0.347E+03   0.282E+02 0.794E+01 -.369E+03   -.223E+01 -.809E+00 0.225E+02   -.142E-02 -.209E-02 0.989E-02
   -.144E-02 0.158E-02 0.262E-02   0.473E-12 -.777E-12 -.455E-12   0.444E-15 0.444E-15 0.249E-13   0.347E-07 0.292E-06 0.490E-07

 POSITION                                       TOTAL-FORCE (eV/Angst)
      4.19510      7.24634      7.05533        -0.001557     -0.012252     -0.002292
      1.41311      0.81704     11.76299         0.011389      0.004778     -0.002292
     -0.01611      1.62242      2.34768        -0.009832      0.007474     -0.002292
     -0.01611      4.83478      7.06762        -0.009832     -0.007474      0.002292
      1.41311      5.64016     11.77527         0.011389     -0.004778      0.002292
      0.00102      6.47521      2.35997        -0.001557      0.012252      0.002292
      4.18870      7.25546     14.10995        -0.003528     -0.000150      0.001165
      1.40842      0.80694      4.69465         0.001894     -0.002980      0.001165
     -0.00502      1.62340      9.40230         0.001634      0.003130      0.001165
      6.98501      2.42530     14.07695        -0.003189      0.001276      0.006507
      0.00080      3.22860      4.70765        -0.000307     -0.000000      0.000000
     -1.40314      4.03191      9.46131        -0.003189     -0.001276     -0.006507
     -2.79405      4.84637      0.00000         0.005133      0.008890      0.000000
     -1.40892      5.65013      4.71993        -0.005525      0.003471     -0.001034
     -2.79053      6.44781      9.40302         0.005769     -0.003050      0.001034
     -1.39843      7.26366      0.00000         0.000154      0.000266      0.000000
      4.19330      0.81350      4.75366         0.000489      0.003400     -0.006507
      2.80194      1.61681      9.36930         0.002700      0.002124      0.006507
      1.40340      2.43093     14.11067        -0.000243      0.006521      0.001034
      2.79205      3.22860      4.70765        -0.010266     -0.000000      0.000000
      1.40340      4.02628      9.42758        -0.000243     -0.006521     -0.001034
     -0.00502      4.83380      0.01300         0.001634     -0.003130     -0.001165
      1.40842      5.65026      4.72065         0.001894      0.002980     -0.001165
     -0.00537      6.46610      9.42830        -0.003528      0.000150     -0.001165
      5.59762      0.00940      0.01228         0.005769      0.003050     -0.001034
      6.97923      0.80707      4.69537        -0.005525     -0.003471      0.001034
      5.59410      1.61084      9.41530         0.005133     -0.008890      0.000000
      4.19373      2.42085      0.00000        -0.003130     -0.005421      0.000000
      5.59280      3.22860      4.70765         0.006259     -0.000000      0.000000
      4.19373      4.03636      9.41530        -0.003130      0.005421      0.000000
      2.80194      4.84039      0.04601         0.002700     -0.002124     -0.006507
      4.19330      5.64370      4.66165         0.000489     -0.003400      0.006507
      2.79565      6.45790      9.41530         0.000154     -0.000266      0.000000
      0.03198      0.01808     10.36766         0.003246     -0.000706      0.006029
     -0.00078      0.03010      3.71974        -0.001591      0.000558      0.000669
      1.36638      0.82580      0.95236        -0.001012      0.003165      0.006029
      1.37235      0.79142      8.42739         0.000312     -0.001657      0.000669
     -0.00033      1.57757      5.66001        -0.002235     -0.002458      0.006029
      0.02646      1.59993     13.13504         0.001279      0.001099      0.000669
      6.99221      2.40821     10.37178         0.001366      0.005364     -0.013204
     -1.37947      2.41097      3.74337         0.000348     -0.000261      0.000544
     -0.00960      3.19618      0.94647         0.006227      0.002911      0.002755
     -0.00960      3.26102      8.46884         0.006227     -0.002911     -0.002755
     -1.37947      4.04623      5.67193         0.000348      0.000261     -0.000544
     -1.39595      4.04899     13.16647         0.001366     -0.005364      0.013204
      5.58274      4.84925     10.37089         0.006702     -0.004692     -0.012245
     -2.78587      4.83797      3.75207        -0.007415      0.003458      0.012245
     -1.38052      5.66035      0.96402        -0.000685      0.002370     -0.000290
     -1.37529      5.62562      8.46795         0.002229      0.004834     -0.000324
     -2.82858      6.46468      5.65501         0.003072      0.004347      0.000324
     -2.79589      6.47752     13.15894         0.002394      0.000592      0.000290
      2.77277      0.02452     10.36177        -0.000592     -0.006848      0.002755
     -1.36515      7.25645      3.76119        -0.005635     -0.003937     -0.002755
      4.19387      0.78584      0.96428         0.000052     -0.000432     -0.000544
      4.20450      0.79873      8.45882        -0.005328      0.001499      0.013204
      2.78354      1.61912      5.66413         0.003962     -0.003865     -0.013204
      2.77770      1.60347     13.15867        -0.000400     -0.000171      0.000544
      1.40782      2.38954     10.36266        -0.005301      0.000487      0.000324
      1.38035      2.41144      3.74363        -0.001710      0.001778      0.000290
      2.79524      3.21732      0.95558         0.000713      0.008150     -0.012245
[...]
      7.00764      0.79685      8.45128        -0.000685     -0.002370      0.000290
      5.60228      1.61924      5.66324        -0.007415     -0.003458     -0.012245
      5.58274      1.60795     13.16737         0.006702      0.004692      0.012245
      4.18511      2.41162     10.33472         0.001600     -0.000097     -0.000637
      4.19005      2.40877      3.78824        -0.000885      0.001337      0.000637
      5.60510      3.22575      0.91941        -0.000716      0.001435     -0.000637
      5.60510      3.23145      8.49589        -0.000716     -0.001435      0.000637
      4.19005      4.04843      5.62706        -0.000885     -0.001337     -0.000637
      4.18511      4.04558     13.20354         0.001600      0.000097      0.000637
      2.77770      4.85373     10.37959        -0.000400      0.000171     -0.000544
      2.78354      4.83808      3.75117         0.003962      0.003865      0.013204
      4.20450      5.65847      0.95648        -0.005328     -0.001499     -0.013204
      4.19387      5.67136      8.45102         0.000052      0.000432      0.000544
      2.82893      6.46510      5.65412        -0.005635      0.003937      0.002755
      2.77277      6.43268     13.17649        -0.000592      0.006848     -0.002755
    total drift:                               -0.001436      0.001584      0.002625

  FREE ENERGIE OF THE ION-ELECTRON SYSTEM (eV)
  free  energy   TOTEN  =      -539.9923039480 eV

  energy  without entropy=     -539.9707768990  energy(sigma->0) =     -539.98154042

 Quasi-Newton relaxation of ions (Broydens 2nd method)
  g(Force)  = 0.263E-03   g(Stress)= 0.216E-03

 Reset! Starting new Quasi-Newton update for ions

 reached required accuracy - stopping structural energy minimisation

volume of typ            1:     5.4 %

[...]

volume of typ            3:    10.2 %

total charge

# of ion       s       p       d       tot
    1        2.069   0.227   0.089   2.385
    2        2.069   0.227   0.089   2.385
    3        2.069   0.227   0.089   2.385
    4        2.069   0.227   0.089   2.385
    5        2.069   0.227   0.089   2.385
    6        2.069   0.227   0.089   2.385
    7        0.297   0.413   7.832   8.542
    8        0.297   0.413   7.832   8.542
    9        0.297   0.413   7.832   8.542
   10        0.296   0.412   7.825   8.534
   11        0.291   0.401   7.836   8.528
   12        0.296   0.412   7.825   8.534
   13        0.293   0.405   7.819   8.517
   14        0.297   0.413   7.832   8.542
   15        0.297   0.413   7.832   8.542
   16        0.291   0.401   7.836   8.528
   17        0.296   0.412   7.825   8.534
   18        0.296   0.412   7.825   8.534
   19        0.297   0.413   7.832   8.542
   20        0.293   0.405   7.819   8.517
   21        0.297   0.413   7.832   8.542
   22        0.297   0.413   7.832   8.542
   23        0.297   0.413   7.832   8.542
   24        0.297   0.413   7.832   8.542
   25        0.297   0.413   7.832   8.542
   26        0.297   0.413   7.832   8.542
   27        0.293   0.405   7.819   8.517
   28        0.292   0.402   7.821   8.515
   29        0.292   0.402   7.821   8.515
   30        0.292   0.402   7.821   8.515
   31        0.296   0.412   7.825   8.534
   32        0.296   0.412   7.825   8.534
   33        0.291   0.401   7.836   8.528
   34        1.278   2.744   0.007   4.029
   35        1.276   2.749   0.007   4.032
   36        1.278   2.744   0.007   4.029
   37        1.276   2.749   0.007   4.032
   38        1.278   2.744   0.007   4.029
   39        1.276   2.749   0.007   4.032
   40        1.286   2.722   0.008   4.016
   41        1.275   2.753   0.007   4.035
   42        1.275   2.754   0.007   4.037
   43        1.275   2.754   0.007   4.037
   44        1.275   2.753   0.007   4.035
   45        1.286   2.722   0.008   4.016
   46        1.286   2.722   0.008   4.016
   47        1.286   2.722   0.008   4.016
   48        1.275   2.752   0.007   4.035
   49        1.275   2.754   0.007   4.036
   50        1.275   2.754   0.007   4.036
   51        1.275   2.752   0.007   4.035
   52        1.275   2.754   0.007   4.037
   53        1.275   2.754   0.007   4.037
   54        1.275   2.753   0.007   4.035
   55        1.286   2.722   0.008   4.016
   56        1.286   2.722   0.008   4.016
   57        1.275   2.753   0.007   4.035
   58        1.275   2.754   0.007   4.036
   59        1.275   2.752   0.007   4.035
   60        1.286   2.722   0.008   4.016
[...]
   73        1.275   2.752   0.007   4.035
   74        1.286   2.722   0.008   4.016
   75        1.286   2.722   0.008   4.016
   76        1.288   2.716   0.008   4.012
   77        1.288   2.716   0.008   4.012
   78        1.288   2.716   0.008   4.012
   79        1.288   2.716   0.008   4.012
   80        1.288   2.716   0.008   4.012
   81        1.288   2.716   0.008   4.012
   82        1.275   2.753   0.007   4.035
   83        1.286   2.722   0.008   4.016
   84        1.286   2.722   0.008   4.016
   85        1.275   2.753   0.007   4.035
   86        1.275   2.754   0.007   4.037
   87        1.275   2.754   0.007   4.037
tot          89.46  160.42  212.31  462.19

magnetization (x)

# of ion       s       p       d       tot
    1        0.004   0.005  -0.000   0.009
    2        0.004   0.005  -0.000   0.009
    3        0.004   0.005  -0.000   0.009
    4        0.004   0.005  -0.000   0.009
    5        0.004   0.005  -0.000   0.009
    6        0.004   0.005  -0.000   0.009
    7       -0.000  -0.000   0.165   0.165
    8       -0.000  -0.000   0.165   0.165
    9       -0.000  -0.000   0.165   0.165
   10       -0.000  -0.000   0.124   0.123
   11       -0.000  -0.000   0.246   0.246
   12       -0.000  -0.000   0.124   0.123
   13       -0.000  -0.000   0.119   0.118
   14       -0.000  -0.000   0.153   0.153
   15       -0.000  -0.000   0.153   0.153
   16       -0.000  -0.000   0.246   0.246
   17       -0.000  -0.000   0.124   0.123
   18       -0.000  -0.000   0.124   0.123
   19       -0.000  -0.000   0.153   0.153
   20       -0.000  -0.000   0.119   0.118
   21       -0.000  -0.000   0.153   0.153
   22       -0.000  -0.000   0.165   0.165
   23       -0.000  -0.000   0.165   0.165
   24       -0.000  -0.000   0.165   0.165
   25       -0.000  -0.000   0.153   0.153
   26       -0.000  -0.000   0.153   0.153
   27       -0.000  -0.000   0.119   0.118
   28       -0.000  -0.000   0.150   0.150
   29       -0.000  -0.000   0.150   0.150
   30       -0.000  -0.000   0.150   0.150
   31       -0.000  -0.000   0.124   0.123
   32       -0.000  -0.000   0.124   0.123
   33       -0.000  -0.000   0.246   0.246
   34        0.006   0.032   0.000   0.038
   35        0.003   0.008   0.000   0.012
   36        0.006   0.032   0.000   0.038
   37        0.003   0.008   0.000   0.012
   38        0.006   0.032   0.000   0.038
   39        0.003   0.008   0.000   0.012
   40        0.003   0.016   0.000   0.019
   41        0.004   0.017   0.000   0.021
   42        0.004   0.010   0.000   0.014
   43        0.004   0.010   0.000   0.014
   44        0.004   0.017   0.000   0.021
   45        0.003   0.016   0.000   0.019
   46        0.003   0.011   0.000   0.013
   47        0.003   0.011   0.000   0.013
   48        0.004   0.013   0.000   0.016
   49        0.004   0.013   0.000   0.017
   50        0.004   0.013   0.000   0.017
   51        0.004   0.013   0.000   0.016
   52        0.004   0.010   0.000   0.014
   53        0.004   0.010   0.000   0.014
   54        0.004   0.017   0.000   0.021
   55        0.003   0.016   0.000   0.019
   56        0.003   0.016   0.000   0.019
   57        0.004   0.017   0.000   0.021
   58        0.004   0.013   0.000   0.017
   59        0.004   0.013   0.000   0.016
   60        0.003   0.011   0.000   0.013
[...]
   73        0.004   0.013   0.000   0.016
   74        0.003   0.011   0.000   0.013
   75        0.003   0.011   0.000   0.013
   76        0.003   0.020   0.000   0.023
   77        0.003   0.020   0.000   0.023
   78        0.003   0.020   0.000   0.023
   79        0.003   0.020   0.000   0.023
   80        0.003   0.020   0.000   0.023
   81        0.003   0.020   0.000   0.023
   82        0.004   0.017   0.000   0.021
   83        0.003   0.016   0.000   0.019
   84        0.003   0.016   0.000   0.019
   85        0.004   0.017   0.000   0.021
   86        0.004   0.010   0.000   0.014
   87        0.004   0.010   0.000   0.014
tot           0.22    0.86    4.20    5.27