 vasp.5.4.4.18Apr17-6-g9f103f2a35 (build May 12 2020 05:39:39) gamma-only

 MD_VERSION_INFO: Compiled 2020-05-12T12:39:39-UTC in devlin.sd.materialsdesign.
 com:/home/medea2/data/build/wwolf/vasp-gpu5.4.4/13047/x86_64/src/src/build/gam
 from svn 13047

 executed on                        Lin64 date 2023.01.19  19:16:16

 INCAR:
 POTCAR:    PAW_PBE Li_sv 10Sep2004
 POTCAR:    PAW_PBE Ni 02Aug2007
 POTCAR:    PAW_PBE O 08Apr2002

 POTCAR:    PAW_PBE Li_sv 10Sep2004

 POTCAR:    PAW_PBE Ni 02Aug2007

 POTCAR:    PAW_PBE O 08Apr2002

 Optimization of the real space projectors (new method)

 maximal supplied QI-value         = 22.11
 optimisation between [QCUT,QGAM] = [ 11.28, 22.77] = [ 35.61,145.23] Ry
 Optimized for a Real-space Cutoff    1.10 Angstroem

   l    n(q)    QCUT    max X(q) W(low)/X(q) W(high)/X(q)  e(spline)
   0      7    11.276    10.506    0.54E-04    0.58E-04    0.16E-07
   0      7    11.276     8.367    0.11E-03    0.14E-03    0.35E-07
   1      7    11.276     8.983    0.23E-03    0.43E-03    0.86E-07
 Optimization of the real space projectors (new method)

[...]

   l    n(q)    QCUT    max X(q) W(low)/X(q) W(high)/X(q)  e(spline)
   2      9    11.376    60.317    0.17E-03    0.16E-04    0.16E-06
   2      9    11.376    55.921    0.17E-03    0.16E-04    0.17E-06
   0     10    11.376    51.690    0.45E-04    0.60E-04    0.21E-06
   0     10    11.376    30.015    0.37E-04    0.55E-04    0.19E-06
   1     10    11.376    18.849    0.83E-04    0.11E-03    0.92E-07
   1     10    11.376    14.624    0.69E-04    0.92E-04    0.82E-07
 Optimization of the real space projectors (new method)

 maximal supplied QI-value         = 24.76
 optimisation between [QCUT,QGAM] = [ 11.39, 22.77] = [ 36.31,145.25] Ry
 Optimized for a Real-space Cutoff    1.10 Angstroem

   l    n(q)    QCUT    max X(q) W(low)/X(q) W(high)/X(q)  e(spline)
   0      7    11.387    20.381    0.22E-03    0.48E-03    0.18E-06
   0      7    11.387    15.268    0.22E-03    0.52E-03    0.19E-06
   1      7    11.387     5.964    0.22E-03    0.73E-03    0.24E-06
   1      7    11.387     5.382    0.19E-03    0.60E-03    0.21E-06

  PAW_PBE Li_sv 10Sep2004               :
  PAW_PBE Ni 02Aug2007                  :
  PAW_PBE O 08Apr2002                   :

 POSCAR: ce425607_1
  positions in direct lattice
 exchange correlation table for  LEXCH =       14
   RHO(1)=    0.500       N(1)  =     2000
   RHO(2)=  100.500       N(2)  =     4000

 ion  position               nearest neighbor table
   1  1.000  0.499  0.999-  48 2.10  36 2.10  35 2.11  71 2.11  83 2.11  84 2.12
   2  0.112  0.834  0.224-  37 2.09  49 2.09  56 2.09  50 2.09  55 2.11  32 2.11
   3  0.555  0.166  0.110-  40 2.09  46 2.09  45 2.09  39 2.09  76 2.11  63 2.11
   4  0.667  0.501  0.334-  47 2.10  41 2.10  42 2.11  60 2.11  66 2.11  65 2.12
   5  1.000  0.002  0.999-  82 1.86  70 1.86  85 1.87  49 1.87  37 1.87  34 1.87  11 2.79   8 2.79
                            29 2.79  23 2.79  14 2.80  17 2.80
   6  0.111  0.330  0.223-  51 1.86  57 1.86  54 1.87  36 1.87  48 1.87  33 1.87   9 2.78  12 2.78
                            18 2.79  15 2.79  30 2.80  24 2.80
   7  0.224  0.667  0.111-  38 1.86  71 1.87  56 1.87  32 1.87  35 1.88  41 1.89  10 2.78  25 2.78
                            19 2.79  16 2.80  31 2.80  13 2.81
   8  0.333  0.997  1.000-  73 1.86  76 1.87  43 1.87  70 1.87  40 1.88  37 1.88  23 2.79   5 2.79
                            26 2.79  17 2.79  11 2.80  20 2.80
   9  0.443  0.333  0.222-  57 1.86  60 1.87  39 1.87  63 1.87  42 1.88  36 1.89   6 2.78  18 2.78
                            24 2.79  27 2.80  21 2.80  12 2.81
  10  0.555  0.670  0.110-  44 1.86  38 1.86  77 1.87  47 1.87  41 1.87  62 1.87  13 2.78   7 2.78
                            28 2.79  25 2.79  22 2.80  19 2.80
  11  0.667  0.997  1.000-  79 1.86  76 1.87  43 1.87  82 1.87  46 1.88  49 1.88  29 2.79   5 2.79
                            26 2.79  14 2.79   8 2.80  20 2.80
  12  0.779  0.333  0.222-  51 1.86  66 1.87  45 1.87  63 1.87  42 1.88  48 1.89   6 2.78  15 2.78
                            30 2.79  27 2.80  21 2.80   9 2.81
  13  0.888  0.667  0.111-  44 1.86  83 1.87  50 1.87  32 1.87  35 1.88  47 1.89  10 2.78  28 2.78
                            22 2.79  16 2.80  31 2.80   7 2.81
  14  1.000  0.003  0.334-  52 1.86  55 1.87  34 1.87  67 1.87  49 1.88  46 1.88  23 2.79  20 2.79
                            26 2.79  11 2.79  17 2.80   5 2.80
  15  0.111  0.333  0.555-  75 1.86  72 1.86  54 1.87  51 1.87  69 1.87  66 1.89  24 2.78  12 2.78
                            21 2.79   6 2.79  27 2.79  18 2.80
  16  0.223  0.665  0.445-  59 1.86  53 1.86  74 1.86  56 1.88  50 1.88  35 1.90  19 2.79  22 2.79
                            25 2.79  28 2.79   7 2.80  13 2.80
  17  0.334  0.003  0.334-  58 1.86  55 1.87  34 1.87  61 1.87  37 1.88  40 1.88  29 2.79  20 2.79
                            26 2.79   8 2.79  14 2.80   5 2.80
  18  0.445  0.333  0.555-  75 1.86  78 1.86  54 1.87  57 1.87  81 1.87  60 1.89  30 2.78   9 2.78
                            21 2.79   6 2.79  27 2.79  15 2.80
  19  0.555  0.670  0.445-  80 1.85  65 1.87  62 1.87  59 1.87  41 1.88  56 1.88  28 2.78  31 2.78
                            16 2.79   7 2.79  22 2.80  10 2.80
  20  0.667  0.998  0.334-  67 1.86  61 1.86  64 1.87  46 1.87  40 1.87  43 1.87  14 2.79  17 2.79
                            23 2.79  29 2.79  11 2.80   8 2.80
  21  0.778  0.330  0.557-  81 1.86  69 1.86  60 1.88  66 1.88  84 1.90  63 1.90  30 2.78  24 2.78
                            15 2.79  18 2.79   9 2.80  12 2.80
  22  0.890  0.670  0.445-  68 1.85  65 1.87  62 1.87  53 1.87  47 1.88  50 1.88  25 2.78  31 2.78
                            16 2.79  13 2.79  19 2.80  10 2.80
  23  0.000  0.000  0.667-  52 1.87  73 1.87  70 1.87  67 1.87  64 1.87  85 1.87   8 2.79  14 2.79
                            26 2.79   5 2.79  20 2.79  29 2.80
  24  0.112  0.330  0.888-  69 1.85  84 1.87  33 1.87  72 1.87  36 1.88  39 1.88  15 2.78  21 2.78
                            27 2.79   9 2.79  30 2.80   6 2.80
  25  0.222  0.667  0.778-  74 1.86  53 1.86  77 1.87  38 1.87  68 1.87  71 1.89  22 2.78   7 2.78
                            31 2.79  10 2.79  16 2.79  28 2.80
  26  0.333  0.000  0.667-  58 1.87  73 1.87  52 1.87  79 1.87  76 1.89  55 1.89  23 2.79  29 2.79
                             8 2.79  14 2.79  11 2.79  17 2.79
  27  0.444  0.335  0.888-  72 1.86  78 1.86  75 1.86  39 1.88  45 1.88  42 1.90  24 2.79  30 2.79
                            18 2.79  15 2.79   9 2.80  12 2.80
  28  0.556  0.667  0.778-  74 1.86  59 1.86  77 1.87  44 1.87  80 1.87  83 1.89  19 2.78  13 2.78
                            31 2.79  10 2.79  16 2.79  25 2.80
  29  0.666  0.000  0.667-  79 1.87  58 1.87  82 1.87  61 1.87  85 1.87  64 1.87  11 2.79  17 2.79
                            26 2.79   5 2.79  20 2.79  23 2.80
  30  0.777  0.330  0.888-  81 1.85  84 1.87  33 1.87  78 1.87  48 1.88  45 1.88  18 2.78  21 2.78
                            27 2.79  12 2.79  24 2.80   6 2.80
  31  0.888  0.670  0.777-  68 1.86  80 1.86  71 1.88  83 1.88  65 1.90  32 1.90  22 2.78  19 2.78
                            25 2.79  28 2.79   7 2.80  13 2.80
  32  0.002  0.736  0.005-   7 1.87  13 1.87  31 1.90   2 2.11
  33  0.000  0.263  0.001-  30 1.87  24 1.87   6 1.87
  34  0.111  0.070  0.221-  14 1.87  17 1.87   5 1.87
  35  0.109  0.598  0.218-   7 1.88  13 1.88  16 1.90   1 2.11
  36  0.217  0.400  0.108-   6 1.87  24 1.88   9 1.89   1 2.10
  37  0.220  0.932  0.114-   5 1.87  17 1.88   8 1.88   2 2.09
  38  0.332  0.735  0.999-  10 1.86   7 1.86  25 1.87
  39  0.338  0.264  0.002-   9 1.87  27 1.88  24 1.88   3 2.09
  40  0.447  0.068  0.219-  20 1.87   8 1.88  17 1.88   3 2.09
  41  0.450  0.600  0.226-  10 1.87  19 1.88   7 1.89   4 2.10
  42  0.558  0.402  0.115-  12 1.88   9 1.88  27 1.90   4 2.11
  43  0.556  0.930  0.112-  11 1.87   8 1.87  20 1.87
  44  0.667  0.735  0.999-  10 1.86  13 1.86  28 1.87
  45  0.663  0.264  0.002-  12 1.87  27 1.88  30 1.88   3 2.09
  46  0.772  0.068  0.219-  20 1.87  11 1.88  14 1.88   3 2.09
  47  0.776  0.600  0.226-  10 1.87  22 1.88  13 1.89   4 2.10
  48  0.891  0.400  0.108-   6 1.87  30 1.88  12 1.89   1 2.10
  49  0.895  0.932  0.114-   5 1.87  14 1.88  11 1.88   2 2.09
  50  0.003  0.736  0.332-  13 1.87  16 1.88  22 1.88   2 2.09
  51  1.000  0.265  0.335-   6 1.86  12 1.86  15 1.87
  52  0.111  0.068  0.557-  14 1.86  23 1.87  26 1.87
  53  0.109  0.600  0.556-  16 1.86  25 1.86  22 1.87
  54  0.221  0.400  0.443-  18 1.87  15 1.87   6 1.87
  55  0.220  0.934  0.440-  17 1.87  14 1.87  26 1.89   2 2.11
  56  0.328  0.736  0.332-   7 1.87  16 1.88  19 1.88   2 2.09
  57  0.335  0.265  0.335-   6 1.86   9 1.86  18 1.87
  58  0.445  0.068  0.557-  17 1.86  29 1.87  26 1.87
  59  0.447  0.600  0.556-  16 1.86  28 1.86  19 1.87
  60  0.558  0.401  0.443-   9 1.87  21 1.88  18 1.89   4 2.11
  61  0.554  0.933  0.445-  20 1.86  29 1.87  17 1.87
  62  0.666  0.737  0.333-  22 1.87  19 1.87  10 1.87
  63  0.664  0.264  0.329-  12 1.87   9 1.87  21 1.90   3 2.11
  64  0.777  0.066  0.554-  20 1.87  23 1.87  29 1.87
  65  0.776  0.602  0.551-  22 1.87  19 1.87  31 1.90   4 2.12
  66  0.885  0.401  0.443-  12 1.87  21 1.88  15 1.89   4 2.11
  67  0.891  0.933  0.445-  20 1.86  23 1.87  14 1.87
  68  0.001  0.736  0.667-  22 1.85  31 1.86  25 1.87
  69  0.001  0.264  0.666-  24 1.85  21 1.86  15 1.87
  70  0.113  0.067  0.888-   5 1.86  23 1.87   8 1.87
  71  0.108  0.599  0.890-   7 1.87  31 1.88  25 1.89   1 2.11
  72  0.220  0.400  0.777-  27 1.86  15 1.86  24 1.87
  73  0.222  0.932  0.777-   8 1.86  23 1.87  26 1.87
  74  0.333  0.732  0.666-  25 1.86  28 1.86  16 1.86
  75  0.334  0.268  0.668-  18 1.86  15 1.86  27 1.86
  76  0.447  0.066  0.893-   8 1.87  11 1.87  26 1.89   3 2.11
  77  0.445  0.600  0.891-  25 1.87  28 1.87  10 1.87
  78  0.557  0.400  0.777-  27 1.86  18 1.86  30 1.87
  79  0.555  0.932  0.777-  11 1.86  29 1.87  26 1.87
  80  0.666  0.736  0.667-  19 1.85  31 1.86  28 1.87
  81  0.665  0.264  0.666-  30 1.85  21 1.86  18 1.87
  82  0.776  0.067  0.888-   5 1.86  29 1.87  11 1.87
  83  0.782  0.599  0.890-  13 1.87  31 1.88  28 1.89   1 2.11
  84  0.891  0.398  0.782-  30 1.87  24 1.87  21 1.90   1 2.12
  85  0.890  0.934  0.779-   5 1.87  29 1.87  23 1.87

  LATTYP: Found a base centered monoclinic cell.
 ALAT       =    14.5082154278
 B/A-ratio  =     0.5770568377
 C/A-ratio  =     1.3942571049
 COS(beta)  =    -0.6230758299

  Lattice vectors:

 A1 = (   4.1892175612,   7.2522598465,   0.0114030275)
 A2 = (   8.3752500160,   0.0018389457,   0.0114030275)
 A3 = ( -12.5829467344,  -7.2647677302, -14.0738042523)

Analysis of symmetry for initial positions (statically):
 Subroutine PRICEL returns:
 Original cell was already a primitive cell.

 Routine SETGRP: Setting up the symmetry group for a
 base centered monoclinic supercell.

 Subroutine GETGRP returns: Found  4 space group operations
 (whereof  2 operations were pure point group operations)
 out of a pool of  4 trial point group operations.

The static configuration has the point symmetry C_1h.
[...]
   -.586E+01 -.729E+01 0.377E+03   0.623E+01 0.650E+01 -.404E+03   -.370E+00 0.794E+00 0.272E+02   0.456E-02 -.194E-02 -.338E-02
   -.101E+02 -.585E+01 -.372E+03   0.992E+01 0.573E+01 0.399E+03   0.194E+00 0.112E+00 -.272E+02   0.244E-02 0.141E-02 0.180E-02
   -.365E+02 -.211E+02 0.343E+03   0.390E+02 0.225E+02 -.366E+03   -.251E+01 -.145E+01 0.231E+02   0.214E-03 0.123E-03 -.947E-02
   -.706E+01 -.345E+02 -.349E+03   0.735E+01 0.367E+02 0.371E+03   -.281E+00 -.222E+01 -.227E+02   -.105E-01 -.331E-02 -.159E-01
   -.160E+02 -.130E+01 0.375E+03   0.164E+02 0.195E+01 -.403E+03   -.390E+00 -.670E+00 0.277E+02   -.276E-02 0.102E-01 0.174E-01
   -.771E+01 -.233E+01 -.375E+03   0.838E+01 0.241E+01 0.403E+03   -.663E+00 -.132E+00 -.276E+02   -.948E-02 0.507E-01 -.873E-02
   -.925E+01 -.143E+01 0.377E+03   0.874E+01 0.214E+01 -.404E+03   0.502E+00 -.718E+00 0.272E+02   0.601E-03 0.492E-02 -.338E-02
   -.387E+02 0.141E+02 -.349E+03   0.413E+02 -.150E+02 0.372E+03   -.264E+01 0.809E+00 -.228E+02   -.562E-02 -.404E-02 -.184E-02
[...]
   0.925E+01 0.143E+01 -.377E+03   -.874E+01 -.214E+01 0.404E+03   -.502E+00 0.718E+00 -.272E+02   -.601E-03 -.492E-02 0.338E-02
   0.771E+01 0.233E+01 0.375E+03   -.838E+01 -.241E+01 -.403E+03   0.663E+00 0.132E+00 0.276E+02   0.948E-02 -.507E-01 0.873E-02
   -.726E+01 -.419E+01 -.371E+03   0.713E+01 0.412E+01 0.399E+03   0.128E+00 0.738E-01 -.276E+02   0.781E-02 0.451E-02 -.151E-01
   0.726E+01 0.419E+01 0.371E+03   -.713E+01 -.412E+01 -.399E+03   -.128E+00 -.738E-01 0.276E+02   -.781E-02 -.451E-02 0.151E-01
   0.365E+02 0.211E+02 -.343E+03   -.390E+02 -.225E+02 0.366E+03   0.251E+01 0.145E+01 -.231E+02   -.214E-03 -.123E-03 0.948E-02
   0.101E+02 0.585E+01 0.372E+03   -.992E+01 -.573E+01 -.399E+03   -.194E+00 -.112E+00 0.272E+02   -.244E-02 -.141E-02 -.180E-02
   0.586E+01 0.729E+01 -.377E+03   -.623E+01 -.650E+01 0.404E+03   0.370E+00 -.794E+00 -.272E+02   -.456E-02 0.194E-02 0.338E-02
   0.587E+01 0.551E+01 0.375E+03   -.627E+01 -.605E+01 -.403E+03   0.445E+00 0.508E+00 0.276E+02   -.392E-01 0.336E-01 0.873E-02
   -.671E+01 0.270E+01 -.379E+03   0.749E+01 -.281E+01 0.407E+03   -.783E+00 0.106E+00 -.277E+02   0.476E-02 0.280E-02 -.861E-02
   0.102E+01 0.716E+01 0.379E+03   -.131E+01 -.789E+01 -.407E+03   0.300E+00 0.731E+00 0.277E+02   -.480E-02 -.272E-02 0.861E-02
   0.981E+01 0.428E+01 -.370E+03   -.940E+01 -.503E+01 0.398E+03   -.350E+00 0.758E+00 -.276E+02   -.494E-01 -.104E-01 -.169E-01
   0.709E+01 0.406E+02 0.349E+03   -.772E+01 -.433E+02 -.372E+03   0.622E+00 0.269E+01 0.228E+02   0.631E-02 0.285E-02 0.183E-02
   0.286E+02 0.165E+02 -.346E+03   -.313E+02 -.181E+02 0.368E+03   0.267E+01 0.154E+01 -.224E+02   0.190E-02 0.110E-02 0.718E-02
   0.892E+01 0.515E+01 0.367E+03   -.876E+01 -.506E+01 -.395E+03   -.115E+00 -.664E-01 0.275E+02   -.370E-01 -.213E-01 0.418E-01
   -.997E-04 -.963E-04 -.317E-03   0.355E-13 -.178E-13 -.909E-12   -.291E-14 0.110E-14 0.000E+00   -.702E-07 -.429E-07 -.244E-06

 POSITION                                       TOTAL-FORCE (eV/Angst)
      4.19238      7.25408      7.02593        -0.001979     -0.001142      0.013619
      1.42025      0.81998     11.72468         0.001700      0.000982      0.000650
     -1.40071      4.02491      2.33012        -0.001700     -0.000982     -0.000650
      0.01638      4.84307      7.04027         0.001979      0.001142     -0.013619
      4.18595      7.25038      0.04084         0.002680      0.001547      0.001999
      1.40687      0.81226      4.64562        -0.005330     -0.003077     -0.004321
      0.00791      1.62835      9.36795         0.002056     -0.004043      0.000956
      6.99826      2.42441     14.02008         0.003595      0.000712     -0.002758
      0.01163      3.21654      4.68685        -0.002056      0.004043     -0.000956
     -1.38733      4.03264      9.40918         0.005330      0.003077      0.004321
      5.59873      4.84847     14.02008         0.002414      0.002757     -0.002758
     -1.39461      5.65222      4.68685         0.002473     -0.003802     -0.000956
     -2.77188      6.44310      9.36795        -0.002473      0.003802      0.000956
     -1.38997      7.24869      0.04612        -0.002414     -0.002757      0.002758
      4.19519      0.80679      4.69141        -0.004175      0.001911     -0.005380
      2.80934      1.62197      9.34267         0.000517      0.000299      0.003490
      1.39653      2.42232      0.04612        -0.003595     -0.000712      0.002758
      2.79630      3.22975      4.69141        -0.000432     -0.004572     -0.005380
      1.41565      4.03310      9.42538        -0.003364      0.000129      0.006459
      0.02280      4.84678     14.02536        -0.002680     -0.001547     -0.001999
      1.40941      5.64734      4.64917         0.002229      0.001287      0.003951
      0.01456      6.45986      9.42538        -0.001570     -0.002977      0.006459
      5.58170      0.00434      0.00760         0.002669     -0.004622      0.000000
      6.97914      0.81363      4.64082         0.003364     -0.000129     -0.006459
      5.59849      1.61699      9.37479         0.000432      0.004572      0.005380
      4.18816      2.41803      0.00760        -0.000000     -0.000000      0.000000
      5.58545      3.22476      4.72353        -0.000517     -0.000299     -0.003490
      4.19960      4.03994      9.37479         0.004175     -0.001911      0.005380
      2.79461      4.83172      0.00760        -0.002669      0.004622      0.000000
      4.19420      5.63730      4.64082         0.001570      0.002977     -0.006459
      2.79935      6.44982      9.41703        -0.002229     -0.001287     -0.003951
      0.04282      0.02472     10.33668         0.013696      0.007907      0.005652
      0.01000      0.00577      3.69206         0.001585      0.000915     -0.006413
      1.39169      0.80349      0.98314        -0.002441     -0.001409     -0.003264
      1.38266      0.79828      8.39937        -0.001845     -0.001065      0.002024
      0.00333      1.57503      5.61809        -0.000744     -0.002322     -0.005641
      0.05605      1.60350     13.10369         0.001468     -0.001309      0.001350
      6.98933      2.41623     10.33353         0.000971      0.003643      0.001817
     -1.39711      2.45697      3.71623         0.000491      0.001887     -0.001998
     -0.03651      3.24139      0.95110        -0.001468      0.001309     -0.001350
      0.01621      3.26986      8.43671         0.000744      0.002322      0.005641
     -1.36312      4.04662      5.65543         0.001845      0.001065     -0.002024
     -1.37214      4.04141     13.07166         0.002441      0.001409      0.003264
      5.58718      4.84482     10.33353         0.003641     -0.000981      0.001817
     -2.75679      4.81201      3.71623         0.001880     -0.000518     -0.001998
     -1.39716      5.59811      0.95110         0.000400     -0.001925     -0.001350
     -1.34614      5.62953      8.43671         0.002383     -0.000517      0.005641
     -2.82035      6.46579      5.61809        -0.002383      0.000517     -0.005641
     -2.76933      6.49721     13.10369        -0.000400      0.001925      0.001350
      2.77633      0.03289     10.33857        -0.001880      0.000518      0.001998
     -1.37843      7.25233      3.73267        -0.003641      0.000981     -0.001817
      4.19609      0.80978      0.96146         0.000593     -0.004685     -0.008916
      4.21125      0.79992      8.43591         0.000096     -0.006891      0.010825
      2.78780      1.60953      5.62181        -0.012578     -0.007262     -0.009176
      2.78270      1.60659     13.13113        -0.013061     -0.007541      0.007439
      1.41665      2.38793     10.33857        -0.000491     -0.001887      0.001998
      1.40546      2.43050      3.73267        -0.000971     -0.003643     -0.001817
      2.79933      3.22903      0.96146        -0.003761      0.002856     -0.008916
      2.79838      3.24708      8.43591        -0.005920      0.003528      0.010825
      1.38353      4.05268      5.63861         0.003568     -0.001556     -0.011095
[...]
      7.01126      0.79405      8.42759        -0.003568      0.001556      0.011095
      5.59641      1.59965      5.63029         0.005920     -0.003528     -0.010825
      5.59546      1.61770     13.10474         0.003761     -0.002856      0.008916
      4.19497      2.42197     10.29872         0.000388      0.000224     -0.001367
      4.19982      2.42477      3.76748        -0.000388     -0.000224      0.001367
      5.61209      3.24014      0.93508         0.013061      0.007541     -0.007439
      5.60700      3.23720      8.44440         0.012578      0.007262      0.009176
      4.18355      4.04681      5.63029        -0.000096      0.006891     -0.010825
      4.19870      4.03696     13.10474        -0.000593      0.004685      0.008916
      2.81324      4.83468     10.34452         0.001156     -0.002484      0.002744
      2.80121      4.82774      3.72169         0.001573     -0.002243     -0.002744
      4.19500      5.62692      0.94879         0.002773      0.001868     -0.004287
      4.19330      5.67491      8.42759        -0.000436     -0.003868      0.011095
      2.82671      6.46562      5.60642         0.007843      0.004528     -0.010787
      2.81984      6.46165     13.12729         0.006668      0.003850      0.002269
    total drift:                               -0.000100     -0.000096     -0.000317

  FREE ENERGIE OF THE ION-ELECTRON SYSTEM (eV)
  free  energy   TOTEN  =      -529.0150877943 eV

  energy  without entropy=     -528.9596303596  energy(sigma->0) =     -528.98735908

 Quasi-Newton relaxation of ions (Broydens 2nd method)
  g(Force)  = 0.275E-03   g(Stress)= 0.190E-03

 Reset! Starting new Quasi-Newton update for ions

 reached required accuracy - stopping structural energy minimisation

volume of typ            1:     3.7 %

[...]

volume of typ            3:    10.3 %

total charge

# of ion       s       p       d       tot
    1        2.069   0.225   0.089   2.383
    2        2.072   0.235   0.093   2.400
    3        2.072   0.235   0.093   2.400
    4        2.069   0.225   0.089   2.383
    5        0.302   0.424   7.823   8.549
    6        0.302   0.424   7.824   8.550
    7        0.297   0.415   7.832   8.544
    8        0.298   0.416   7.825   8.539
    9        0.297   0.415   7.832   8.544
   10        0.302   0.424   7.824   8.550
   11        0.298   0.416   7.825   8.539
   12        0.297   0.415   7.832   8.544
   13        0.297   0.415   7.832   8.544
   14        0.298   0.416   7.825   8.539
   15        0.298   0.415   7.819   8.532
   16        0.297   0.414   7.826   8.537
   17        0.298   0.416   7.825   8.539
   18        0.298   0.415   7.819   8.532
   19        0.298   0.416   7.825   8.540
   20        0.302   0.424   7.823   8.549
   21        0.292   0.404   7.828   8.525
   22        0.298   0.416   7.825   8.540
   23        0.302   0.423   7.816   8.540
   24        0.298   0.416   7.825   8.540
   25        0.298   0.415   7.819   8.532
   26        0.293   0.407   7.822   8.522
   27        0.297   0.414   7.826   8.537
   28        0.298   0.415   7.819   8.532
   29        0.302   0.423   7.816   8.540
   30        0.298   0.416   7.825   8.540
   31        0.292   0.404   7.828   8.525
   32        1.279   2.744   0.007   4.030
   33        1.287   2.718   0.008   4.013
   34        1.286   2.719   0.008   4.013
   35        1.275   2.751   0.007   4.033
   36        1.274   2.756   0.007   4.037
   37        1.275   2.754   0.007   4.037
   38        1.286   2.723   0.008   4.017
   39        1.275   2.754   0.007   4.037
   40        1.275   2.754   0.007   4.037
   41        1.274   2.755   0.007   4.037
   42        1.275   2.751   0.007   4.033
   43        1.286   2.719   0.008   4.013
   44        1.286   2.723   0.008   4.017
   45        1.275   2.754   0.007   4.037
   46        1.275   2.754   0.007   4.037
   47        1.274   2.755   0.007   4.037
   48        1.274   2.756   0.007   4.037
   49        1.275   2.754   0.007   4.037
   50        1.275   2.754   0.007   4.037
   51        1.286   2.723   0.008   4.017
   52        1.286   2.721   0.008   4.016
   53        1.286   2.723   0.008   4.017
   54        1.286   2.722   0.008   4.016
   55        1.278   2.747   0.008   4.032
   56        1.275   2.754   0.007   4.037
   57        1.286   2.723   0.008   4.017
   58        1.286   2.721   0.008   4.016
   59        1.286   2.723   0.008   4.017
   60        1.275   2.753   0.007   4.035
[...]
   71        1.275   2.753   0.007   4.035
   72        1.286   2.723   0.008   4.017
   73        1.286   2.721   0.008   4.016
   74        1.288   2.716   0.008   4.012
   75        1.288   2.716   0.008   4.012
   76        1.278   2.747   0.008   4.032
   77        1.286   2.722   0.008   4.016
   78        1.286   2.723   0.008   4.017
   79        1.286   2.721   0.008   4.016
   80        1.286   2.722   0.008   4.017
   81        1.286   2.722   0.008   4.017
   82        1.286   2.723   0.008   4.016
   83        1.275   2.753   0.007   4.035
   84        1.278   2.747   0.007   4.032
   85        1.286   2.722   0.008   4.016
tot          85.53  159.84  212.05  457.42

magnetization (x)

# of ion       s       p       d       tot
    1        0.004   0.004  -0.000   0.008
    2        0.005   0.005  -0.000   0.010
    3        0.005   0.005  -0.000   0.010
    4        0.004   0.004  -0.000   0.008
    5       -0.000  -0.000   0.059   0.058
    6       -0.000  -0.000   0.062   0.062
    7       -0.000  -0.000   0.146   0.146
    8       -0.000  -0.000   0.095   0.095
    9       -0.000  -0.000   0.146   0.146
   10       -0.000  -0.000   0.062   0.062
   11       -0.000  -0.000   0.095   0.095
   12       -0.000  -0.000   0.146   0.146
   13       -0.000  -0.000   0.146   0.146
   14       -0.000  -0.000   0.095   0.095
   15       -0.000  -0.000   0.072   0.071
   16       -0.000  -0.000   0.114   0.114
   17       -0.000  -0.000   0.095   0.095
   18       -0.000  -0.000   0.072   0.071
   19       -0.000  -0.000   0.113   0.113
   20       -0.000  -0.000   0.059   0.058
   21       -0.000  -0.000   0.196   0.195
   22       -0.000  -0.000   0.113   0.113
   23       -0.000  -0.000   0.046   0.045
   24       -0.000  -0.000   0.113   0.113
   25       -0.000  -0.000   0.072   0.071
   26       -0.000  -0.000   0.135   0.134
   27       -0.000  -0.000   0.114   0.114
   28       -0.000  -0.000   0.072   0.071
   29       -0.000  -0.000   0.046   0.045
   30       -0.000  -0.000   0.113   0.113
   31       -0.000  -0.000   0.196   0.195
   32        0.006   0.039   0.000   0.046
   33        0.002   0.009   0.000   0.010
   34        0.001   0.000   0.000   0.001
   35        0.002   0.005   0.000   0.007
   36        0.003   0.009   0.000   0.012
   37        0.003   0.006   0.000   0.009
   38        0.001   0.006   0.000   0.008
   39        0.004   0.014   0.000   0.018
   40        0.003   0.006   0.000   0.009
   41        0.003   0.009   0.000   0.012
   42        0.002   0.005   0.000   0.007
   43        0.001   0.000   0.000   0.001
   44        0.001   0.006   0.000   0.008
   45        0.004   0.014   0.000   0.018
   46        0.003   0.006   0.000   0.009
   47        0.003   0.009   0.000   0.012
   48        0.003   0.009   0.000   0.012
   49        0.003   0.006   0.000   0.009
   50        0.004   0.014   0.000   0.018
   51        0.001   0.006   0.000   0.008
   52        0.001   0.007   0.000   0.008
   53        0.002   0.007   0.000   0.009
   54        0.001   0.007   0.000   0.008
   55        0.005   0.022   0.000   0.027
   56        0.004   0.014   0.000   0.018
   57        0.001   0.006   0.000   0.008
   58        0.001   0.007   0.000   0.008
   59        0.002   0.007   0.000   0.009
   60        0.003   0.012   0.000   0.015
[...]
   71        0.003   0.012   0.000   0.015
   72        0.002   0.007   0.000   0.009
   73        0.001   0.007   0.000   0.008
   74        0.002   0.019   0.000   0.021
   75        0.002   0.019   0.000   0.021
   76        0.005   0.022   0.000   0.027
   77        0.001   0.007   0.000   0.008
   78        0.002   0.007   0.000   0.009
   79        0.001   0.007   0.000   0.008
   80        0.002   0.007   0.000   0.009
   81        0.002   0.007   0.000   0.009
   82        0.001   0.006   0.000   0.007
   83        0.003   0.012   0.000   0.015
   84        0.006   0.031   0.000   0.036
   85        0.001   0.004   0.000   0.005
tot           0.15    0.59    2.79    3.53