 vasp.5.4.4.18Apr17-6-g9f103f2a35 (build May 12 2020 05:39:39) gamma-only

 MD_VERSION_INFO: Compiled 2020-05-12T12:39:39-UTC in devlin.sd.materialsdesign.
 com:/home/medea2/data/build/wwolf/vasp-gpu5.4.4/13047/x86_64/src/src/build/gam
 from svn 13047

 executed on                        Lin64 date 2023.01.19  20:15:48

 INCAR:
 POTCAR:    PAW_PBE Li_sv 10Sep2004
 POTCAR:    PAW_PBE Ni 02Aug2007
 POTCAR:    PAW_PBE O 08Apr2002

 POTCAR:    PAW_PBE Li_sv 10Sep2004

 POTCAR:    PAW_PBE Ni 02Aug2007

 POTCAR:    PAW_PBE O 08Apr2002

 Optimization of the real space projectors (new method)

 maximal supplied QI-value         = 22.11
 optimisation between [QCUT,QGAM] = [ 11.28, 22.77] = [ 35.61,145.23] Ry
 Optimized for a Real-space Cutoff    1.10 Angstroem

   l    n(q)    QCUT    max X(q) W(low)/X(q) W(high)/X(q)  e(spline)
   0      7    11.276    10.506    0.54E-04    0.58E-04    0.16E-07
   0      7    11.276     8.367    0.11E-03    0.14E-03    0.35E-07
   1      7    11.276     8.983    0.23E-03    0.43E-03    0.86E-07
 Optimization of the real space projectors (new method)

[...]

   l    n(q)    QCUT    max X(q) W(low)/X(q) W(high)/X(q)  e(spline)
   2      9    11.376    60.317    0.17E-03    0.16E-04    0.16E-06
   2      9    11.376    55.921    0.17E-03    0.16E-04    0.17E-06
   0     10    11.376    51.690    0.45E-04    0.60E-04    0.21E-06
   0     10    11.376    30.015    0.37E-04    0.55E-04    0.19E-06
   1     10    11.376    18.849    0.83E-04    0.11E-03    0.92E-07
   1     10    11.376    14.624    0.69E-04    0.92E-04    0.82E-07
 Optimization of the real space projectors (new method)

 maximal supplied QI-value         = 24.76
 optimisation between [QCUT,QGAM] = [ 11.39, 22.77] = [ 36.31,145.25] Ry
 Optimized for a Real-space Cutoff    1.10 Angstroem

   l    n(q)    QCUT    max X(q) W(low)/X(q) W(high)/X(q)  e(spline)
   0      7    11.387    20.381    0.22E-03    0.48E-03    0.18E-06
   0      7    11.387    15.268    0.22E-03    0.52E-03    0.19E-06
   1      7    11.387     5.964    0.22E-03    0.73E-03    0.24E-06
   1      7    11.387     5.382    0.19E-03    0.60E-03    0.21E-06

  PAW_PBE Li_sv 10Sep2004               :
  PAW_PBE Ni 02Aug2007                  :
  PAW_PBE O 08Apr2002                   :

 POSCAR: ce425576_1
  positions in direct lattice
 exchange correlation table for  LEXCH =       14
   RHO(1)=    0.500       N(1)  =     2000
   RHO(2)=  100.500       N(2)  =     4000

 ion  position               nearest neighbor table
   1  0.000  0.500  0.000-  53 2.11  76 2.11  41 2.11  88 2.11  40 2.12  89 2.12
   2  0.111  0.833  0.222-  55 2.11  61 2.11  42 2.11  54 2.11  37 2.12  60 2.12
   3  0.556  0.167  0.111-  50 2.11  44 2.11  51 2.11  45 2.11  68 2.12  81 2.12
   4  0.222  0.167  0.444-  62 2.11  56 2.11  63 2.11  57 2.11  80 2.12  39 2.12
   5  0.667  0.500  0.333-  65 2.11  52 2.11  71 2.11  46 2.11  47 2.12  70 2.12
   6  0.778  0.833  0.556-  85 2.11  73 2.11  66 2.11  72 2.11  67 2.12  90 2.12
   7  0.333  0.500  0.667-  64 2.11  77 2.11  58 2.11  83 2.11  82 2.12  59 2.12
   8  0.444  0.833  0.889-  43 2.11  49 2.11  78 2.11  84 2.11  79 2.12  48 2.12
   9  0.889  0.167  0.778-  74 2.11  86 2.11  87 2.11  75 2.11  38 2.12  69 2.12
  10  0.000  0.000  0.000-  54 1.87  75 1.87  42 1.87  87 1.87  39 1.92  90 1.92  13 2.78  16 2.78
                            19 2.81  28 2.81  22 2.81  34 2.81
  11  0.111  0.333  0.222-  56 1.87  62 1.87  41 1.87  53 1.87  38 1.92  59 1.92  14 2.78  17 2.78
                            29 2.81  35 2.81  23 2.81  20 2.81
  12  0.224  0.667  0.111-  61 1.87  76 1.87  37 1.88  40 1.88  43 1.90  46 1.90  15 2.78  30 2.79
                            24 2.79  21 2.81  36 2.81  18 2.83
  13  0.331  0.000  0.000-  78 1.87  45 1.87  81 1.88  48 1.88  42 1.90  75 1.90  10 2.78  22 2.79
                            28 2.79  31 2.81  25 2.81  16 2.83
  14  0.443  0.333  0.222-  44 1.87  65 1.87  68 1.88  47 1.88  62 1.90  41 1.90  11 2.78  29 2.79
                            23 2.79  32 2.81  26 2.81  17 2.83
  15  0.556  0.667  0.111-  49 1.87  43 1.87  52 1.87  46 1.87  67 1.92  82 1.92  18 2.78  12 2.78
                            24 2.81  33 2.81  27 2.81  30 2.81
  16  0.669  0.000  0.000-  51 1.87  84 1.87  48 1.88  81 1.88  87 1.90  54 1.90  10 2.78  34 2.79
                            19 2.79  25 2.81  31 2.81  13 2.83
  17  0.780  0.333  0.222-  50 1.87  71 1.87  68 1.88  47 1.88  56 1.90  53 1.90  11 2.78  35 2.79
                            20 2.79  32 2.81  26 2.81  14 2.83
  18  0.887  0.667  0.111-  55 1.87  88 1.87  37 1.88  40 1.88  49 1.90  52 1.90  15 2.78  27 2.79
                            33 2.79  36 2.81  21 2.81  12 2.83
  19  0.998  0.000  0.333-  54 1.87  57 1.87  39 1.88  60 1.88  72 1.90  51 1.90  25 2.78  16 2.79
                            28 2.79  10 2.81  31 2.81  22 2.83
  20  0.109  0.333  0.556-  56 1.87  77 1.87  80 1.88  59 1.88  74 1.90  71 1.90  26 2.78  29 2.79
                            17 2.79  32 2.81  11 2.81  23 2.83
  21  0.222  0.667  0.444-  61 1.87  55 1.87  64 1.87  58 1.87  79 1.92  40 1.92  27 2.78  24 2.78
                            12 2.81  18 2.81  30 2.81  33 2.81
  22  0.335  0.000  0.333-  42 1.87  63 1.87  60 1.88  39 1.88  45 1.90  66 1.90  25 2.78  13 2.79
                            34 2.79  10 2.81  31 2.81  19 2.83
  23  0.446  0.333  0.556-  62 1.87  83 1.87  80 1.88  59 1.88  86 1.90  65 1.90  26 2.78  35 2.79
                            14 2.79  32 2.81  11 2.81  20 2.83
  24  0.554  0.667  0.444-  85 1.87  46 1.87  67 1.88  70 1.88  61 1.90  64 1.90  21 2.78  12 2.79
                            33 2.79  15 2.81  36 2.81  27 2.83
  25  0.667  0.000  0.333-  66 1.87  51 1.87  72 1.87  45 1.87  48 1.92  69 1.92  19 2.78  22 2.78
                            16 2.81  28 2.81  13 2.81  34 2.81
  26  0.778  0.333  0.556-  86 1.87  74 1.87  65 1.87  71 1.87  68 1.92  89 1.92  20 2.78  23 2.78
                            35 2.81  29 2.81  17 2.81  14 2.81
  27  0.891  0.667  0.444-  73 1.87  52 1.87  67 1.88  70 1.88  55 1.90  58 1.90  21 2.78  18 2.79
                            30 2.79  15 2.81  36 2.81  24 2.83
  28  0.002  0.000  0.667-  75 1.87  72 1.87  90 1.88  69 1.88  57 1.90  78 1.90  31 2.78  13 2.79
                            19 2.79  10 2.81  25 2.81  34 2.83
  29  0.113  0.333  0.889-  74 1.87  41 1.87  38 1.88  89 1.88  44 1.90  77 1.90  32 2.78  20 2.79
                            14 2.79  11 2.81  26 2.81  35 2.83
  30  0.220  0.667  0.778-  43 1.87  58 1.87  79 1.88  82 1.88  73 1.90  76 1.90  36 2.78  12 2.79
                            27 2.79  15 2.81  21 2.81  33 2.83
  31  0.333  0.000  0.667-  63 1.87  78 1.87  57 1.87  84 1.87  81 1.92  60 1.92  28 2.78  34 2.78
                            13 2.81  19 2.81  16 2.81  22 2.81
  32  0.444  0.333  0.889-  44 1.87  50 1.87  77 1.87  83 1.87  80 1.92  47 1.92  29 2.78  35 2.78
                            23 2.81  14 2.81  20 2.81  17 2.81
  33  0.557  0.667  0.778-  49 1.87  64 1.87  79 1.88  82 1.88  85 1.90  88 1.90  36 2.78  18 2.79
                            24 2.79  15 2.81  21 2.81  30 2.83
  34  0.665  0.000  0.667-  87 1.87  66 1.87  69 1.88  90 1.88  84 1.90  63 1.90  31 2.78  16 2.79
                            22 2.79  10 2.81  25 2.81  28 2.83
  35  0.776  0.333  0.889-  86 1.87  53 1.87  38 1.88  89 1.88  50 1.90  83 1.90  32 2.78  17 2.79
                            23 2.79  26 2.81  11 2.81  29 2.83
  36  0.889  0.667  0.778-  73 1.87  85 1.87  88 1.87  76 1.87  37 1.92  70 1.92  33 2.78  30 2.78
                            18 2.81  12 2.81  24 2.81  27 2.81
  37  0.002  0.735  0.005-  18 1.88  12 1.88  36 1.92   2 2.12
  38  0.998  0.265  0.995-  29 1.88  35 1.88  11 1.92   9 2.12
  39  0.113  0.068  0.227-  19 1.88  22 1.88  10 1.92   4 2.12
  40  0.109  0.599  0.218-  12 1.88  18 1.88  21 1.92   1 2.12
  41  0.218  0.401  0.109-  11 1.87  29 1.87  14 1.90   1 2.11
  42  0.220  0.932  0.114-  10 1.87  22 1.87  13 1.90   2 2.11
  43  0.335  0.734  0.998-  15 1.87  30 1.87  12 1.90   8 2.11
  44  0.338  0.266  0.002-  32 1.87  14 1.87  29 1.90   3 2.11
  45  0.446  0.068  0.220-  25 1.87  13 1.87  22 1.90   3 2.11
  46  0.449  0.599  0.225-  15 1.87  24 1.87  12 1.90   5 2.11
  47  0.558  0.401  0.116-  17 1.88  14 1.88  32 1.92   5 2.12
  48  0.553  0.932  0.107-  16 1.88  13 1.88  25 1.92   8 2.12
  49  0.662  0.734  0.998-  15 1.87  33 1.87  18 1.90   8 2.11
  50  0.665  0.266  0.002-  32 1.87  17 1.87  35 1.90   3 2.11
  51  0.773  0.068  0.220-  25 1.87  16 1.87  19 1.90   3 2.11
  52  0.776  0.599  0.225-  15 1.87  27 1.87  18 1.90   5 2.11
  53  0.891  0.401  0.109-  11 1.87  35 1.87  17 1.90   1 2.11
  54  0.893  0.932  0.114-  10 1.87  19 1.87  16 1.90   2 2.11
  55  0.002  0.734  0.331-  21 1.87  18 1.87  27 1.90   2 2.11
  56  0.004  0.266  0.336-  11 1.87  20 1.87  17 1.90   4 2.11
  57  0.113  0.068  0.553-  31 1.87  19 1.87  28 1.90   4 2.11
  58  0.116  0.599  0.558-  21 1.87  30 1.87  27 1.90   7 2.11
  59  0.225  0.401  0.449-  23 1.88  20 1.88  11 1.92   7 2.12
  60  0.220  0.932  0.440-  22 1.88  19 1.88  31 1.92   2 2.12
  61  0.329  0.734  0.331-  21 1.87  12 1.87  24 1.90   2 2.11
  62  0.331  0.266  0.336-  11 1.87  23 1.87  14 1.90   4 2.11
  63  0.440  0.068  0.553-  31 1.87  22 1.87  34 1.90   4 2.11
  64  0.443  0.599  0.558-  21 1.87  33 1.87  24 1.90   7 2.11
  65  0.557  0.401  0.442-  26 1.87  14 1.87  23 1.90   5 2.11
  66  0.560  0.932  0.447-  25 1.87  34 1.87  22 1.90   6 2.11
  67  0.669  0.735  0.338-  24 1.88  27 1.88  15 1.92   6 2.12
  68  0.664  0.265  0.329-  17 1.88  14 1.88  26 1.92   3 2.12
  69  0.780  0.068  0.560-  34 1.88  28 1.88  25 1.92   9 2.12
  70  0.775  0.599  0.551-  24 1.88  27 1.88  36 1.92   5 2.12
  71  0.884  0.401  0.442-  26 1.87  17 1.87  20 1.90   5 2.11
  72  0.887  0.932  0.447-  25 1.87  28 1.87  19 1.90   6 2.11
  73  0.996  0.734  0.664-  36 1.87  27 1.87  30 1.90   6 2.11
  74  0.998  0.266  0.669-  26 1.87  29 1.87  20 1.90   9 2.11
  75  0.107  0.068  0.886-  10 1.87  28 1.87  13 1.90   9 2.11
  76  0.109  0.599  0.891-  36 1.87  12 1.87  30 1.90   1 2.11
  77  0.224  0.401  0.775-  32 1.87  20 1.87  29 1.90   7 2.11
  78  0.227  0.932  0.780-  31 1.87  13 1.87  28 1.90   8 2.11
  79  0.336  0.735  0.671-  30 1.88  33 1.88  21 1.92   8 2.12
  80  0.331  0.265  0.662-  23 1.88  20 1.88  32 1.92   4 2.12
  81  0.447  0.068  0.893-  13 1.88  16 1.88  31 1.92   3 2.12
  82  0.442  0.599  0.884-  30 1.88  33 1.88  15 1.92   7 2.12
  83  0.551  0.401  0.775-  32 1.87  23 1.87  35 1.90   7 2.11
  84  0.554  0.932  0.780-  31 1.87  16 1.87  34 1.90   8 2.11
  85  0.669  0.734  0.664-  36 1.87  24 1.87  33 1.90   6 2.11
  86  0.671  0.266  0.669-  26 1.87  35 1.87  23 1.90   9 2.11
  87  0.780  0.068  0.886-  10 1.87  34 1.87  16 1.90   9 2.11
  88  0.782  0.599  0.891-  36 1.87  18 1.87  33 1.90   1 2.11
  89  0.891  0.401  0.782-  35 1.88  29 1.88  26 1.92   1 2.12
  90  0.887  0.932  0.773-  28 1.88  34 1.88  10 1.92   6 2.12

  LATTYP: Found a base centered monoclinic cell.
 ALAT       =    14.5944618064
 B/A-ratio  =     0.5749918808
 C/A-ratio  =     1.3959005190
 COS(beta)  =    -0.6229066863

[...]
   -.254E+02 0.159E+02 -.347E+03   0.277E+02 -.175E+02 0.369E+03   -.235E+01 0.160E+01 -.221E+02   -.134E-02 -.224E-02 0.556E-03
   -.104E+01 0.299E+02 0.347E+03   0.125E+01 -.328E+02 -.369E+03   -.209E+00 0.283E+01 0.221E+02   0.261E-02 0.427E-04 -.556E-03
   -.254E+02 0.159E+02 -.347E+03   0.277E+02 -.175E+02 0.369E+03   -.235E+01 0.160E+01 -.221E+02   -.134E-02 -.224E-02 0.556E-03
   -.104E+01 0.299E+02 0.347E+03   0.125E+01 -.328E+02 -.369E+03   -.209E+00 0.283E+01 0.221E+02   0.261E-02 0.428E-04 -.556E-03
   -.254E+02 0.159E+02 -.347E+03   0.277E+02 -.175E+02 0.369E+03   -.235E+01 0.160E+01 -.221E+02   -.134E-02 -.224E-02 0.556E-03
   -.104E+01 0.299E+02 0.347E+03   0.125E+01 -.328E+02 -.369E+03   -.209E+00 0.283E+01 0.221E+02   0.261E-02 0.427E-04 -.556E-03
   0.286E+02 0.165E+02 -.353E+03   -.314E+02 -.181E+02 0.374E+03   0.283E+01 0.163E+01 -.206E+02   0.197E-02 0.114E-02 -.312E-02
   -.286E+02 -.165E+02 0.353E+03   0.314E+02 0.181E+02 -.374E+03   -.283E+01 -.163E+01 0.206E+02   -.197E-02 -.114E-02 0.312E-02
[...]
   -.254E+02 0.159E+02 -.347E+03   0.277E+02 -.175E+02 0.369E+03   -.235E+01 0.160E+01 -.221E+02   -.134E-02 -.224E-02 0.556E-03
   -.104E+01 0.299E+02 0.347E+03   0.125E+01 -.328E+02 -.369E+03   -.209E+00 0.283E+01 0.221E+02   0.261E-02 0.427E-04 -.556E-03
   0.286E+02 0.165E+02 -.353E+03   -.314E+02 -.181E+02 0.374E+03   0.283E+01 0.163E+01 -.206E+02   0.197E-02 0.114E-02 -.312E-02
   -.286E+02 -.165E+02 0.353E+03   0.314E+02 0.181E+02 -.374E+03   -.283E+01 -.163E+01 0.206E+02   -.197E-02 -.114E-02 0.312E-02
   0.286E+02 0.165E+02 -.353E+03   -.314E+02 -.181E+02 0.374E+03   0.283E+01 0.163E+01 -.206E+02   0.197E-02 0.114E-02 -.312E-02
   -.286E+02 -.165E+02 0.353E+03   0.314E+02 0.181E+02 -.374E+03   -.283E+01 -.163E+01 0.206E+02   -.197E-02 -.114E-02 0.312E-02
   0.104E+01 -.299E+02 -.347E+03   -.125E+01 0.328E+02 0.369E+03   0.209E+00 -.283E+01 -.221E+02   -.261E-02 -.428E-04 0.556E-03
   0.254E+02 -.159E+02 0.347E+03   -.277E+02 0.175E+02 -.369E+03   0.235E+01 -.160E+01 0.221E+02   0.134E-02 0.224E-02 -.556E-03
   -.254E+02 0.159E+02 -.347E+03   0.277E+02 -.175E+02 0.369E+03   -.235E+01 0.160E+01 -.221E+02   -.134E-02 -.224E-02 0.556E-03
   -.104E+01 0.299E+02 0.347E+03   0.125E+01 -.328E+02 -.369E+03   -.209E+00 0.283E+01 0.221E+02   0.261E-02 0.427E-04 -.556E-03
   -.254E+02 0.159E+02 -.347E+03   0.277E+02 -.175E+02 0.369E+03   -.235E+01 0.160E+01 -.221E+02   -.134E-02 -.224E-02 0.556E-03
   -.104E+01 0.299E+02 0.347E+03   0.125E+01 -.328E+02 -.369E+03   -.209E+00 0.283E+01 0.221E+02   0.261E-02 0.427E-04 -.556E-03
   0.286E+02 0.165E+02 -.353E+03   -.314E+02 -.181E+02 0.374E+03   0.283E+01 0.163E+01 -.206E+02   0.197E-02 0.114E-02 -.312E-02
   -.286E+02 -.165E+02 0.353E+03   0.314E+02 0.181E+02 -.374E+03   -.283E+01 -.163E+01 0.206E+02   -.197E-02 -.114E-02 0.312E-02
   0.505E-10 0.593E-10 0.729E-10   0.117E-12 -.302E-12 -.796E-12   -.262E-13 0.755E-14 -.888E-13   -.262E-11 0.852E-12 0.523E-11

 POSITION                                       TOTAL-FORCE (eV/Angst)
      0.00934      0.00539      7.08442         0.000000      0.000000      0.000000
      1.41991      0.81979     11.80991         0.000000      0.000000      0.000000
     -1.39264      4.04091      2.36275         0.000000      0.000000      0.000000
      2.81181      1.62340      2.36658         0.000000      0.000000      0.000000
      0.01794      4.85531      7.08825         0.000000      0.000000      0.000000
      1.42852      5.66970     11.81374         0.000000      0.000000      0.000000
      4.22239      2.43780      7.09208         0.000000      0.000000      0.000000
      5.63297      3.25219     11.81758         0.000000      0.000000      0.000000
      2.82042      6.47332      2.37041         0.000000      0.000000      0.000000
      0.00000      0.00000      0.00000         0.000000      0.000000      0.000000
      1.41058      0.81440      4.72550         0.000000      0.000000      0.000000
      0.00736      1.63761      9.44716        -0.000905      0.001567      0.000000
     -1.39066      2.40869      0.00000         0.000905     -0.001567      0.000000
      0.01992      3.22309      4.72550         0.000905     -0.001567      0.000000
     -1.38330      4.04630      9.44716         0.000000      0.000000      0.000000
     -2.80519      4.85873      0.00000        -0.000905      0.001567      0.000000
     -1.39461      5.67313      4.72550        -0.000905      0.001567      0.000000
     -2.77396      6.45499      9.44716         0.000905     -0.001567      0.000000
     -1.38206      7.25860      0.00383         0.000905     -0.001567      0.000000
      4.22437      0.80558      4.72933         0.000905     -0.001567      0.000000
      2.82115      1.62879      9.45100         0.000000      0.000000      0.000000
      1.39926      2.44123      0.00383        -0.000905      0.001567      0.000000
      2.80984      3.25562      4.72933        -0.000905      0.001567      0.000000
      1.43049      4.03748      9.45100         0.000905     -0.001567      0.000000
      0.00860      4.84992      0.00383         0.000000      0.000000      0.000000
      1.41918      5.66431      4.72933         0.000000      0.000000      0.000000
      0.01596      6.48753      9.45100        -0.000905      0.001567      0.000000
      5.60371      0.02372      0.00766        -0.000905      0.001567      0.000000
      7.01429      0.83811      4.73316        -0.000905      0.001567      0.000000
      5.63495      1.61997      9.45483         0.000905     -0.001567      0.000000
      4.21305      2.43241      0.00766         0.000000      0.000000      0.000000
      5.62363      3.24680      4.73316         0.000000      0.000000      0.000000
      4.22041      4.07002      9.45483        -0.000905      0.001567      0.000000
      2.82240      4.84110      0.00766         0.000905     -0.001567      0.000000
      4.23297      5.65549      4.73316         0.000905     -0.001567      0.000000
      2.82975      6.47871      9.45483         0.000000      0.000000      0.000000
      0.04254      0.02456     10.40880        -0.012448     -0.007187     -0.004144
      4.19779      7.26855      3.77153         0.012448      0.007187      0.004144
      1.43444      0.82817      0.96546        -0.012448     -0.007187     -0.004144
      1.38671      0.80062      8.48553         0.012448      0.007187      0.004144
      0.00804      1.58878      5.68518        -0.003898      0.001846      0.008458
      0.04931      1.61261     13.20915         0.000350      0.004299     -0.008458
      7.00358      2.45938     10.41834        -0.000350     -0.004299      0.008458
     -1.39134      2.45752      3.76198         0.003898     -0.001846     -0.008458
     -0.02203      3.24809      0.96351        -0.000350     -0.004299      0.008458
      0.01924      3.27192      8.48748         0.003898     -0.001846     -0.008458
     -1.35944      4.06008      5.68713        -0.012448     -0.007187     -0.004144
     -1.40716      4.03252     13.20720         0.012448      0.007187      0.004144
      5.63167      4.83559     10.41834        -0.003898      0.001846      0.008458
     -2.76324      4.83373      3.76198         0.000350      0.004299     -0.008458
     -1.39393      5.62430      0.96351        -0.003898      0.001846      0.008458
     -1.35267      5.64812      8.48748         0.000350      0.004299     -0.008458
     -2.81590      6.48000      5.68518        -0.000350     -0.004299      0.008458
     -2.77464      6.50382     13.20915         0.003898     -0.001846     -0.008458
      2.79052      0.02697     10.41068        -0.000350     -0.004299      0.008458
      2.81311      0.04001      3.76582         0.003898     -0.001846     -0.008458
      4.18242      0.83058      0.96734        -0.000350     -0.004299      0.008458
      4.22369      0.85441      8.49131         0.003898     -0.001846     -0.008458
      2.84502      1.64257      5.69096        -0.012448     -0.007187     -0.004144
      2.79729      1.61502     13.21103         0.012448      0.007187      0.004144
[...]
      7.05623      0.81311      8.49514         0.000350      0.004299     -0.008458
      5.59300      1.64498      5.69284        -0.000350     -0.004299      0.008458
      5.63426      1.66880     13.21681         0.003898     -0.001846     -0.008458
      4.25559      2.45697     10.41646        -0.012448     -0.007187     -0.004144
      4.18919      2.41863      3.76770         0.012448      0.007187      0.004144
      5.64749      3.26058      0.97313        -0.012448     -0.007187     -0.004144
      5.59977      3.23303      8.49319         0.012448      0.007187      0.004144
      4.22109      4.02119      5.69284        -0.003898      0.001846      0.008458
      4.26236      4.04501     13.21681         0.000350      0.004299     -0.008458
      2.79912      4.87688     10.41451        -0.000350     -0.004299      0.008458
      2.82171      4.88993      3.76965         0.003898     -0.001846     -0.008458
      4.19103      5.68050      0.97117        -0.000350     -0.004299      0.008458
      4.23229      5.70432      8.49514         0.003898     -0.001846     -0.008458
      2.85362      6.49249      5.69479        -0.012448     -0.007187     -0.004144
      2.80589      6.46493     13.21486         0.012448      0.007187      0.004144
    total drift:                                0.000000      0.000000      0.000000

  FREE ENERGIE OF THE ION-ELECTRON SYSTEM (eV)
  free  energy   TOTEN  =      -556.3208415282 eV

  energy  without entropy=     -556.2606206046  energy(sigma->0) =     -556.29073107

 Quasi-Newton relaxation of ions (Broydens 2nd method)
  g(Force)  = 0.354E-03   g(Stress)= 0.144E-02

 Reset! Starting new Quasi-Newton update for ions

 reached required accuracy - stopping structural energy minimisation

volume of typ            1:     8.1 %

[...]

volume of typ            3:    10.1 %

total charge

# of ion       s       p       d       tot
    1        2.071   0.224   0.087   2.382
    2        2.071   0.224   0.087   2.382
    3        2.071   0.224   0.087   2.382
    4        2.071   0.224   0.087   2.382
    5        2.071   0.224   0.087   2.382
    6        2.071   0.224   0.087   2.382
    7        2.071   0.224   0.087   2.382
    8        2.071   0.224   0.087   2.382
    9        2.071   0.224   0.087   2.382
   10        0.290   0.400   7.836   8.526
   11        0.290   0.400   7.836   8.526
   12        0.291   0.401   7.835   8.527
   13        0.291   0.401   7.835   8.527
   14        0.291   0.401   7.835   8.527
   15        0.290   0.400   7.836   8.526
   16        0.291   0.401   7.835   8.527
   17        0.291   0.401   7.835   8.527
   18        0.291   0.401   7.835   8.527
   19        0.291   0.401   7.835   8.527
   20        0.291   0.401   7.835   8.527
   21        0.290   0.400   7.836   8.526
   22        0.291   0.401   7.835   8.527
   23        0.291   0.401   7.835   8.527
   24        0.291   0.401   7.835   8.527
   25        0.290   0.400   7.836   8.526
   26        0.290   0.400   7.836   8.526
   27        0.291   0.401   7.835   8.527
   28        0.291   0.401   7.835   8.527
   29        0.291   0.401   7.835   8.527
   30        0.291   0.401   7.835   8.527
   31        0.290   0.400   7.836   8.526
   32        0.290   0.400   7.836   8.526
   33        0.291   0.401   7.835   8.527
   34        0.291   0.401   7.835   8.527
   35        0.291   0.401   7.835   8.527
   36        0.290   0.400   7.836   8.526
   37        1.280   2.740   0.007   4.027
   38        1.280   2.740   0.007   4.027
   39        1.280   2.740   0.007   4.027
   40        1.280   2.740   0.007   4.027
   41        1.275   2.753   0.007   4.036
   42        1.275   2.753   0.007   4.036
   43        1.275   2.753   0.007   4.036
   44        1.275   2.753   0.007   4.036
   45        1.275   2.753   0.007   4.036
   46        1.275   2.753   0.007   4.036
   47        1.280   2.740   0.007   4.027
   48        1.280   2.740   0.007   4.027
   49        1.275   2.753   0.007   4.036
   50        1.275   2.753   0.007   4.036
   51        1.275   2.753   0.007   4.036
   52        1.275   2.753   0.007   4.036
   53        1.275   2.753   0.007   4.036
   54        1.275   2.753   0.007   4.036
   55        1.275   2.753   0.007   4.036
   56        1.275   2.753   0.007   4.036
   57        1.275   2.753   0.007   4.036
   58        1.275   2.753   0.007   4.036
   59        1.280   2.740   0.007   4.027
   60        1.280   2.740   0.007   4.027
[...]
   76        1.275   2.753   0.007   4.036
   77        1.275   2.753   0.007   4.036
   78        1.275   2.753   0.007   4.036
   79        1.280   2.740   0.007   4.027
   80        1.280   2.740   0.007   4.027
   81        1.280   2.740   0.007   4.027
   82        1.280   2.740   0.007   4.027
   83        1.275   2.753   0.007   4.036
   84        1.275   2.753   0.007   4.036
   85        1.275   2.753   0.007   4.036
   86        1.275   2.753   0.007   4.036
   87        1.275   2.753   0.007   4.036
   88        1.275   2.753   0.007   4.036
   89        1.280   2.740   0.007   4.027
   90        1.280   2.740   0.007   4.027
tot          95.40  161.26  212.74  469.40

magnetization (x)

# of ion       s       p       d       tot
    1        0.000   0.002  -0.000   0.002
    2        0.000   0.002  -0.000   0.002
    3        0.000   0.002  -0.000   0.002
    4        0.000   0.002  -0.000   0.002
    5        0.000   0.002  -0.000   0.002
    6        0.000   0.002  -0.000   0.002
    7        0.000   0.002  -0.000   0.002
    8        0.000   0.002  -0.000   0.002
    9        0.000   0.002  -0.000   0.002
   10        0.000  -0.000   0.059   0.059
   11        0.000  -0.000   0.059   0.059
   12       -0.000  -0.000   0.040   0.040
   13       -0.000  -0.000   0.040   0.040
   14       -0.000  -0.000   0.040   0.040
   15        0.000  -0.000   0.059   0.059
   16       -0.000  -0.000   0.040   0.040
   17       -0.000  -0.000   0.040   0.040
   18       -0.000  -0.000   0.040   0.040
   19       -0.000  -0.000   0.040   0.040
   20       -0.000  -0.000   0.040   0.040
   21        0.000  -0.000   0.059   0.059
   22       -0.000  -0.000   0.040   0.040
   23       -0.000  -0.000   0.040   0.040
   24       -0.000  -0.000   0.040   0.040
   25        0.000  -0.000   0.059   0.059
   26        0.000  -0.000   0.059   0.059
   27       -0.000  -0.000   0.040   0.040
   28       -0.000  -0.000   0.040   0.040
   29       -0.000  -0.000   0.040   0.040
   30       -0.000  -0.000   0.040   0.040
   31        0.000  -0.000   0.059   0.059
   32        0.000  -0.000   0.059   0.059
   33       -0.000  -0.000   0.040   0.040
   34       -0.000  -0.000   0.040   0.040
   35       -0.000  -0.000   0.040   0.040
   36        0.000  -0.000   0.059   0.059
   37        0.000   0.000   0.000   0.000
   38        0.000   0.000   0.000   0.000
   39        0.000   0.000   0.000   0.000
   40        0.000   0.000   0.000   0.000
   41        0.001   0.005   0.000   0.007
   42        0.001   0.005   0.000   0.007
   43        0.001   0.005   0.000   0.007
   44        0.001   0.005   0.000   0.007
   45        0.001   0.005   0.000   0.007
   46        0.001   0.005   0.000   0.007
   47        0.000   0.000   0.000   0.000
   48        0.000   0.000   0.000   0.000
   49        0.001   0.005   0.000   0.007
   50        0.001   0.005   0.000   0.007
   51        0.001   0.005   0.000   0.007
   52        0.001   0.005   0.000   0.007
   53        0.001   0.005   0.000   0.007
   54        0.001   0.005   0.000   0.007
   55        0.001   0.005   0.000   0.007
   56        0.001   0.005   0.000   0.007
   57        0.001   0.005   0.000   0.007
   58        0.001   0.005   0.000   0.007
   59        0.000   0.000   0.000   0.000
   60        0.000   0.000   0.000   0.000
[...]
   76        0.001   0.005   0.000   0.007
   77        0.001   0.005   0.000   0.007
   78        0.001   0.005   0.000   0.007
   79        0.000   0.000   0.000   0.000
   80        0.000   0.000   0.000   0.000
   81        0.000   0.000   0.000   0.000
   82        0.000   0.000   0.000   0.000
   83        0.001   0.005   0.000   0.007
   84        0.001   0.005   0.000   0.007
   85        0.001   0.005   0.000   0.007
   86        0.001   0.005   0.000   0.007
   87        0.001   0.005   0.000   0.007
   88        0.001   0.005   0.000   0.007
   89        0.000   0.000   0.000   0.000
   90        0.000   0.000   0.000   0.000
tot           0.06    0.21    1.24    1.51