 vasp.5.4.4.18Apr17-6-g9f103f2a35 (build May 12 2020 05:39:39) gamma-only

 MD_VERSION_INFO: Compiled 2020-05-12T12:39:39-UTC in devlin.sd.materialsdesign.
 com:/home/medea2/data/build/wwolf/vasp-gpu5.4.4/13047/x86_64/src/src/build/gam
 from svn 13047

 executed on                        Lin64 date 2023.01.19  21:42:21

 INCAR:
 POTCAR:    PAW_PBE Li_sv 10Sep2004
 POTCAR:    PAW_PBE Ni 02Aug2007
 POTCAR:    PAW_PBE O 08Apr2002

 POTCAR:    PAW_PBE Li_sv 10Sep2004

 POTCAR:    PAW_PBE Ni 02Aug2007

 POTCAR:    PAW_PBE O 08Apr2002

 Optimization of the real space projectors (new method)

 maximal supplied QI-value         = 22.11
 optimisation between [QCUT,QGAM] = [ 11.28, 22.77] = [ 35.61,145.23] Ry
 Optimized for a Real-space Cutoff    1.10 Angstroem

   l    n(q)    QCUT    max X(q) W(low)/X(q) W(high)/X(q)  e(spline)
   0      7    11.276    10.506    0.54E-04    0.58E-04    0.16E-07
   0      7    11.276     8.367    0.11E-03    0.14E-03    0.35E-07
   1      7    11.276     8.983    0.23E-03    0.43E-03    0.86E-07
 Optimization of the real space projectors (new method)

[...]

   l    n(q)    QCUT    max X(q) W(low)/X(q) W(high)/X(q)  e(spline)
   2      9    11.376    60.317    0.17E-03    0.16E-04    0.16E-06
   2      9    11.376    55.921    0.17E-03    0.16E-04    0.17E-06
   0     10    11.376    51.690    0.45E-04    0.60E-04    0.21E-06
   0     10    11.376    30.015    0.37E-04    0.55E-04    0.19E-06
   1     10    11.376    18.849    0.83E-04    0.11E-03    0.92E-07
   1     10    11.376    14.624    0.69E-04    0.92E-04    0.82E-07
 Optimization of the real space projectors (new method)

 maximal supplied QI-value         = 24.76
 optimisation between [QCUT,QGAM] = [ 11.39, 22.77] = [ 36.31,145.25] Ry
 Optimized for a Real-space Cutoff    1.10 Angstroem

   l    n(q)    QCUT    max X(q) W(low)/X(q) W(high)/X(q)  e(spline)
   0      7    11.387    20.381    0.22E-03    0.48E-03    0.18E-06
   0      7    11.387    15.268    0.22E-03    0.52E-03    0.19E-06
   1      7    11.387     5.964    0.22E-03    0.73E-03    0.24E-06
   1      7    11.387     5.382    0.19E-03    0.60E-03    0.21E-06

  PAW_PBE Li_sv 10Sep2004               :
  PAW_PBE Ni 02Aug2007                  :
  PAW_PBE O 08Apr2002                   :

 POSCAR: ce425828_1
  positions in direct lattice
 exchange correlation table for  LEXCH =       14
   RHO(1)=    0.500       N(1)  =     2000
   RHO(2)=  100.500       N(2)  =     4000

 ion  position               nearest neighbor table
   1  0.998  0.499  0.999-  81 2.09  46 2.10  82 2.10  69 2.11  33 2.11  34 2.11
   2  0.446  0.834  0.223-  60 2.09  41 2.10  59 2.10  54 2.11  36 2.11  35 2.11
   3  0.000  0.000  0.000-  80 1.86  83 1.86  47 1.86  68 1.87  32 1.87  35 1.89   6 2.79  15 2.79
                            21 2.79  12 2.79  27 2.79   9 2.79
   4  0.112  0.330  0.223-  49 1.86  55 1.86  52 1.87  46 1.87  34 1.87  31 1.87  16 2.78  13 2.78
                             7 2.79  10 2.79  28 2.80  22 2.80
   5  0.222  0.667  0.111-  54 1.86  36 1.86  69 1.86  33 1.86  30 1.87  39 1.87  14 2.78  23 2.78
                            11 2.79  29 2.79   8 2.79  17 2.79
   6  0.333  0.004  0.999-  74 1.86  68 1.86  71 1.87  41 1.87  35 1.87  38 1.87  21 2.78  24 2.78
                             3 2.79   9 2.79  18 2.80  15 2.80
   7  0.444  0.333  0.222-  61 1.86  58 1.86  40 1.86  55 1.87  37 1.87  34 1.89   4 2.79  22 2.79
                            25 2.79  16 2.79  19 2.79  10 2.79
   8  0.556  0.665  0.110-  45 1.86  75 1.86  42 1.86  36 1.87  60 1.87  39 1.87  11 2.78  26 2.78
                            23 2.78  20 2.79   5 2.79  17 2.80
   9  0.667  0.000  0.000-  80 1.86  47 1.86  77 1.86  74 1.87  44 1.87  41 1.89  24 2.78  12 2.78
                             6 2.79   3 2.79  18 2.79  27 2.79
  10  0.778  0.333  0.222-  61 1.86  40 1.86  64 1.86  49 1.87  43 1.87  46 1.89  13 2.78  25 2.78
                             4 2.79   7 2.79  28 2.79  19 2.79
  11  0.889  0.669  0.112-  42 1.86  48 1.86  45 1.86  33 1.87  81 1.87  30 1.87   8 2.78  20 2.78
                            14 2.78  26 2.79   5 2.79  29 2.80
  12  1.000  0.001  0.333-  32 1.86  44 1.86  65 1.86  50 1.86  47 1.87  53 1.87  18 2.78  15 2.78
                             9 2.78   3 2.79  24 2.79  21 2.79
  13  0.111  0.332  0.555-  67 1.86  49 1.86  73 1.86  64 1.86  70 1.86  52 1.86  22 2.78   4 2.78
                            19 2.78  10 2.78  25 2.79  16 2.79
  14  0.222  0.667  0.444-  48 1.86  57 1.86  72 1.86  51 1.86  54 1.90  33 1.90  11 2.78  17 2.78
                             5 2.78  20 2.79  26 2.79  23 2.80
  15  0.333  0.004  0.334-  56 1.86  32 1.86  53 1.87  59 1.87  35 1.87  38 1.87  12 2.78  24 2.78
                             3 2.79  27 2.79  18 2.80   6 2.80
  16  0.445  0.332  0.555-  55 1.86  79 1.86  76 1.86  73 1.86  58 1.87  52 1.87  28 2.78   4 2.78
                            19 2.78   7 2.79  13 2.79  25 2.79
  17  0.556  0.665  0.445-  63 1.86  57 1.86  78 1.86  54 1.87  60 1.87  39 1.87  29 2.78  26 2.78
                            14 2.78  20 2.79   5 2.79   8 2.80
  18  0.668  0.004  0.334-  44 1.86  62 1.86  65 1.86  38 1.87  41 1.87  59 1.87  12 2.78  21 2.78
                             9 2.79  27 2.79   6 2.80  15 2.80
  19  0.778  0.333  0.556-  61 1.86  58 1.86  64 1.86  67 1.87  79 1.87  82 1.89  13 2.78  16 2.78
                            22 2.79   7 2.79  28 2.79  10 2.79
  20  0.889  0.667  0.445-  51 1.86  48 1.86  66 1.86  45 1.87  63 1.87  60 1.90  29 2.78  11 2.78
                            14 2.79  23 2.79   8 2.79  17 2.79
  21  1.000  0.001  0.667-  68 1.86  62 1.86  65 1.86  50 1.86  83 1.87  71 1.87  18 2.78   6 2.78
                            27 2.78   3 2.79  24 2.79  12 2.79
  22  0.112  0.330  0.889-  67 1.86  37 1.86  70 1.87  82 1.87  34 1.87  31 1.87  25 2.78  13 2.78
                             7 2.79  19 2.79  28 2.80   4 2.80
  23  0.222  0.667  0.778-  66 1.86  75 1.86  72 1.86  51 1.86  36 1.90  69 1.90  29 2.78   8 2.78
                             5 2.78  20 2.79  26 2.79  14 2.80
  24  0.334  0.001  0.667-  56 1.86  74 1.86  50 1.86  77 1.86  71 1.86  53 1.86   6 2.78  15 2.78
                            27 2.78   9 2.78  12 2.79  21 2.79
  25  0.445  0.332  0.889-  37 1.86  43 1.86  76 1.86  73 1.86  40 1.87  70 1.87  28 2.78  22 2.78
                            10 2.78   7 2.79  13 2.79  16 2.79
  26  0.555  0.666  0.778-  72 1.86  75 1.86  57 1.86  78 1.87  42 1.87  81 1.90  17 2.78   8 2.78
                            23 2.79  14 2.79  11 2.79  29 2.79
  27  0.667  0.000  0.667-  80 1.86  83 1.86  77 1.86  56 1.87  62 1.87  59 1.89  24 2.78  21 2.78
                            15 2.79   3 2.79  18 2.79   9 2.79
  28  0.777  0.330  0.888-  79 1.86  43 1.86  76 1.86  31 1.87  46 1.87  82 1.87  25 2.78  16 2.78
                            10 2.79  19 2.79  22 2.80   4 2.80
  29  0.889  0.669  0.777-  78 1.86  66 1.86  63 1.86  69 1.87  81 1.87  30 1.87  17 2.78  20 2.78
                            23 2.78  26 2.79   5 2.79  11 2.80
  30  0.001  0.736  0.000-   5 1.87  11 1.87  29 1.87
  31  1.000  0.262  1.000-  28 1.87  22 1.87   4 1.87
  32  0.110  0.069  0.221-  15 1.86  12 1.86   3 1.87
  33  0.108  0.598  0.217-   5 1.86  11 1.87  14 1.90   1 2.11
  34  0.217  0.399  0.109-   4 1.87  22 1.87   7 1.89   1 2.11
  35  0.227  0.934  0.114-   6 1.87  15 1.87   3 1.89   2 2.11
  36  0.336  0.735  0.005-   5 1.86   8 1.87  23 1.90   2 2.11
  37  0.335  0.264  0.001-  22 1.86  25 1.86   7 1.87
  38  0.444  0.071  0.222-  18 1.87  15 1.87   6 1.87
  39  0.444  0.598  0.222-   5 1.87   8 1.87  17 1.87
  40  0.555  0.400  0.111-  10 1.86   7 1.86  25 1.87
  41  0.553  0.934  0.114-   6 1.87  18 1.87   9 1.89   2 2.10
  42  0.665  0.734  1.000-  11 1.86   8 1.86  26 1.87
  43  0.666  0.264  0.001-  28 1.86  25 1.86  10 1.87
  44  0.778  0.069  0.221-  18 1.86  12 1.86   9 1.87
  45  0.779  0.600  0.223-   8 1.86  11 1.86  20 1.87
  46  0.891  0.399  0.109-   4 1.87  28 1.87  10 1.89   1 2.10
  47  0.889  0.933  0.112-   9 1.86   3 1.86  12 1.87
  48  0.001  0.735  0.334-  11 1.86  14 1.86  20 1.86
  49  1.000  0.265  0.334-   4 1.86  13 1.86  10 1.87
  50  0.111  0.068  0.555-  24 1.86  21 1.86  12 1.86
  51  0.111  0.600  0.556-  20 1.86  23 1.86  14 1.86
  52  0.222  0.399  0.444-  13 1.86  16 1.87   4 1.87
  53  0.223  0.934  0.444-  24 1.86  12 1.87  15 1.87
  54  0.336  0.735  0.331-   5 1.86  17 1.87  14 1.90   2 2.11
  55  0.335  0.264  0.334-   4 1.86  16 1.86   7 1.87
  56  0.445  0.069  0.557-  15 1.86  24 1.86  27 1.87
  57  0.444  0.599  0.556-  17 1.86  14 1.86  26 1.86
  58  0.555  0.400  0.444-  19 1.86   7 1.86  16 1.87
  59  0.553  0.934  0.440-  15 1.87  18 1.87  27 1.89   2 2.10
  60  0.661  0.734  0.331-   8 1.87  17 1.87  20 1.90   2 2.09
  61  0.667  0.267  0.333-   7 1.86  10 1.86  19 1.86
  62  0.778  0.069  0.557-  18 1.86  21 1.86  27 1.87
  63  0.779  0.600  0.557-  17 1.86  29 1.86  20 1.87
  64  0.889  0.400  0.445-  13 1.86  19 1.86  10 1.86
  65  0.888  0.935  0.444-  12 1.86  21 1.86  18 1.86
  66  0.001  0.735  0.667-  29 1.86  23 1.86  20 1.86
  67  1.000  0.265  0.666-  22 1.86  13 1.86  19 1.87
  68  0.110  0.069  0.888-   6 1.86  21 1.86   3 1.87
  69  0.108  0.598  0.891-   5 1.86  29 1.87  23 1.90   1 2.11
  70  0.222  0.399  0.778-  13 1.86  25 1.87  22 1.87
  71  0.223  0.934  0.779-  24 1.86  21 1.87   6 1.87
  72  0.333  0.733  0.667-  26 1.86  23 1.86  14 1.86
  73  0.333  0.265  0.667-  13 1.86  16 1.86  25 1.86
  74  0.445  0.069  0.888-   6 1.86  24 1.86   9 1.87
  75  0.444  0.599  0.888-   8 1.86  23 1.86  26 1.86
  76  0.556  0.399  0.778-  25 1.86  16 1.86  28 1.86
  77  0.555  0.933  0.778-  24 1.86  27 1.86   9 1.86
  78  0.665  0.734  0.665-  29 1.86  17 1.86  26 1.87
  79  0.666  0.264  0.666-  28 1.86  16 1.86  19 1.87
  80  0.778  0.067  0.889-   3 1.86   9 1.86  27 1.86
  81  0.783  0.599  0.892-  11 1.87  29 1.87  26 1.90   1 2.09
  82  0.891  0.399  0.782-  22 1.87  28 1.87  19 1.89   1 2.10
  83  0.889  0.933  0.778-  27 1.86   3 1.86  21 1.87

  LATTYP: Found a base centered monoclinic cell.
 ALAT       =    14.4751649763
 B/A-ratio  =     0.5778143378
 C/A-ratio  =     2.2203478792
 COS(beta)  =    -0.7794460671

  Lattice vectors:

 A1 = (   4.1819788856,  -7.2375809962,  -0.0046471950)
 A2 = (  -4.1819789797,  -7.2375809962,  -0.0046471950)
 A3 = (   0.0000001881,  28.9415678386, -13.9770863346)

Analysis of symmetry for initial positions (statically):
 Subroutine PRICEL returns:
 Original cell was already a primitive cell.

 Routine SETGRP: Setting up the symmetry group for a
 base centered monoclinic supercell.

 Subroutine GETGRP returns: Found  4 space group operations
 (whereof  2 operations were pure point group operations)
 out of a pool of  4 trial point group operations.

The static configuration has the point symmetry C_1h.
 The point group associated with its full space group is C_2h.

Analysis of symmetry for dynamics (positions and initial velocities):
 Subroutine PRICEL returns:
 Original cell was already a primitive cell.

[...]

The dynamic configuration has the point symmetry C_1h.
[...]
   -.132E+01 -.741E+01 0.366E+03   0.105E+01 0.814E+01 -.395E+03   0.272E+00 -.739E+00 0.283E+02   0.107E-02 0.129E-01 0.113E-01
   -.731E+01 -.374E+01 -.368E+03   0.779E+01 0.429E+01 0.396E+03   -.481E+00 -.557E+00 -.283E+02   0.282E-02 0.546E-02 0.742E-03
   -.813E+01 0.319E+01 0.379E+03   0.860E+01 -.352E+01 -.407E+03   -.477E+00 0.400E+00 0.281E+02   0.741E-02 -.679E-01 0.233E-01
   -.143E+01 -.617E+00 -.380E+03   0.156E+01 0.528E+00 0.408E+03   -.130E+00 0.949E-01 -.280E+02   0.168E-03 -.741E-02 0.157E-01
   -.346E+02 -.206E+02 0.350E+03   0.370E+02 0.220E+02 -.373E+03   -.237E+01 -.142E+01 0.234E+02   0.112E-01 -.574E-03 -.303E-01
   0.177E-04 -.429E+02 -.345E+03   0.195E-04 0.458E+02 0.368E+03   -.191E-07 -.295E+01 -.229E+02   0.134E-07 -.861E-02 0.522E-02
[...]
   0.102E+02 -.442E+01 -.379E+03   -.101E+02 0.432E+01 0.407E+03   -.168E+00 0.881E-01 -.277E+02   -.375E-02 0.136E-01 0.367E-01
   0.102E+02 0.442E+01 0.379E+03   -.101E+02 -.432E+01 -.407E+03   -.168E+00 -.881E-01 0.277E+02   -.375E-02 -.136E-01 -.367E-01
   -.653E-04 0.189E+01 -.377E+03   -.223E-04 -.211E+01 0.404E+03   0.195E-08 0.284E+00 -.268E+02   -.291E-07 -.627E-01 -.564E-01
   -.181E-04 0.977E-02 0.365E+03   -.189E-04 -.907E-02 -.393E+03   -.178E-09 -.990E-02 0.281E+02   -.177E-07 0.108E-01 0.130E-01
   0.731E+01 -.374E+01 -.368E+03   -.779E+01 0.429E+01 0.396E+03   0.481E+00 -.557E+00 -.283E+02   -.282E-02 0.546E-02 0.742E-03
   0.813E+01 0.319E+01 0.379E+03   -.860E+01 -.352E+01 -.407E+03   0.477E+00 0.400E+00 0.281E+02   -.741E-02 -.679E-01 0.233E-01
   -.647E-04 0.109E+02 -.379E+03   -.312E-04 -.108E+02 0.407E+03   -.456E-09 -.877E-01 -.280E+02   0.214E-07 -.228E-01 0.220E-01
   -.306E-04 0.488E+00 0.382E+03   0.275E-05 -.492E+00 -.409E+03   -.118E-09 -.716E-03 0.278E+02   0.403E-07 0.371E-02 -.277E-01
   -.950E+01 0.277E+01 -.376E+03   0.971E+01 -.350E+01 0.404E+03   -.215E+00 0.744E+00 -.280E+02   0.867E-03 -.133E-01 0.953E-02
   0.604E+01 0.278E+01 0.369E+03   -.686E+01 -.283E+01 -.397E+03   0.829E+00 0.569E-01 0.281E+02   -.115E-01 -.137E-01 0.407E-02
   -.735E-04 0.251E+01 -.364E+03   -.121E-04 -.262E+01 0.393E+03   0.752E-09 0.982E-01 -.281E+02   0.289E-07 0.583E-02 -.108E-01
   -.181E-04 0.429E+02 0.345E+03   -.134E-04 -.458E+02 -.368E+03   0.191E-07 0.295E+01 0.229E+02   -.152E-07 0.861E-02 -.522E-02
   0.346E+02 0.206E+02 -.350E+03   -.370E+02 -.220E+02 0.373E+03   0.237E+01 0.142E+01 -.234E+02   -.112E-01 0.574E-03 0.303E-01
   0.143E+01 0.617E+00 0.380E+03   -.156E+01 -.528E+00 -.408E+03   0.130E+00 -.949E-01 0.280E+02   -.168E-03 0.741E-02 -.157E-01
   -.120E-02 0.326E-04 -.278E-03   0.104E-12 -.355E-12 0.000E+00   0.114E-14 0.555E-15 0.355E-14   -.166E-07 0.182E-06 -.748E-06

 POSITION                                       TOTAL-FORCE (eV/Angst)
      4.18172      7.23035      6.98831         0.000000      0.002300     -0.004040
     -0.00000      3.23703     11.68506        -0.000000     -0.002300      0.004040
      0.00000      0.00116      0.00571         0.000000      0.003566      0.008988
      1.39845      0.81019      4.61784        -0.003257     -0.001506     -0.003051
      0.00000      1.61485      9.33411        -0.000000      0.000000      0.000000
      6.96499      2.40979      0.05093         0.003257      0.001506      0.003051
      0.00000      3.21882      4.66306        -0.000000     -0.003566     -0.008988
     -1.39984      4.02843      9.30845         0.006571     -0.001672      0.004791
     -2.78748      4.82493      0.00898         0.003157     -0.000819      0.008051
     -1.39424      5.63273      4.66493        -0.003157      0.000819     -0.008051
     -2.78188      6.43895      9.36491        -0.006571      0.001672     -0.004791
     -1.39546      7.23663      0.02485         0.001148      0.000866      0.009274
      4.18172      0.80542      4.64887         0.000000      0.001991     -0.009877
      2.78235      1.61485      9.33411        -0.005292     -0.000000     -0.000000
      1.39845      2.40979      0.05093        -0.003257      0.001506      0.003051
      2.78626      3.22103      4.64907         0.001148     -0.000866     -0.009274
      1.39984      4.02843      9.30845        -0.006571     -0.001672      0.004791
     -0.00000      4.83097      0.05385        -0.000000     -0.003209      0.002505
      1.39424      5.63273      4.66493         0.003157      0.000819     -0.008051
     -0.00000      6.44105      9.34922        -0.000000     -0.006058      0.001096
      1.39546      7.23663      0.02485        -0.001148      0.000866      0.009274
      6.96499      0.81019      4.61784         0.003257     -0.001506     -0.003051
      5.58110      1.61485      9.33411         0.005292      0.000000      0.000000
      4.18172      2.41456      0.01990        -0.000000     -0.001991      0.009877
      5.57718      3.22103      4.64907        -0.001148     -0.000866     -0.009274
      4.18172      4.02633      9.32414         0.000000      0.006058     -0.001096
      2.78748      4.82493      0.00898        -0.003157     -0.000819      0.008051
      4.18172      5.62669      4.62006         0.000000      0.003209     -0.002505
      2.78188      6.43895      9.36491         0.006571      0.001672     -0.004791
      0.00000      0.01231     10.29813        -0.000000     -0.000963     -0.007453
      4.18172      7.24005      3.67733         0.000000      0.001502      0.001494
      1.39344      0.79422      0.96510         0.000543     -0.000035      0.006193
      1.36512      0.78908      8.37764         0.001396      0.002347      0.000769
      0.00000      1.57743      5.59238         0.000000      0.002098     -0.009639
     -0.00000      1.65227     13.07584        -0.000000     -0.002098      0.009639
     -1.36512      2.44062     10.29058        -0.001396     -0.002347     -0.000769
     -1.39344      2.42576      3.70367        -0.000543      0.000035     -0.006193
      0.00000      3.21760      0.99658        -0.000000     -0.001502     -0.001494
     -0.00000      3.21739      8.37009         0.000000      0.000963      0.007453
     -1.39631      4.02161      5.60055        -0.001196     -0.001639     -0.014052
     -1.36452      4.01484     13.07789        -0.004829      0.002489      0.009339
      5.58045      4.82041     10.27630         0.001663     -0.001492      0.000706
     -2.77984      4.82588      3.70296        -0.001087     -0.000462     -0.006783
     -1.40188      5.63178      0.97096         0.001087      0.000462      0.006783
     -1.39873      5.64697      8.39706        -0.001663      0.001492     -0.000706
     -2.81720      6.45254      5.59547         0.004829     -0.002489     -0.009339
     -2.78541      6.44576     13.07282         0.001196      0.001639      0.014052
      2.79159      0.01300     10.28371        -0.002913     -0.003159     -0.003741
     -1.38679      7.23663      3.70882         0.001098     -0.000179     -0.007664
      4.18172      0.80390      0.95881        -0.000000     -0.001598      0.006746
      4.18172      0.80886      8.40391         0.000000      0.000137      0.002392
      2.78260      1.60751      5.58545         0.001552     -0.000244     -0.010023
      2.78260      1.62219     13.08277         0.001552      0.000244      0.010023
      1.36512      2.44062     10.29058         0.001396     -0.002347     -0.000769
      1.39344      2.42576      3.70367         0.000543      0.000035     -0.006193
      2.79493      3.22103      0.96510         0.001098      0.000179      0.007664
      2.79159      3.21670      8.38451        -0.002913      0.003159      0.003741
      1.39631      4.02161      5.60055         0.001196     -0.001639     -0.014052
      1.36452      4.01484     13.07789         0.004829      0.002489      0.009339
     -0.00000      4.79314     10.28490         0.000000      0.002204      0.000083
[...]
      6.99832      0.78908      8.37764        -0.001396      0.002347      0.000769
      5.58084      1.60751      5.58545        -0.001552     -0.000244     -0.010023
      5.58084      1.62219     13.08277        -0.001552      0.000244      0.010023
      4.18172      2.42084     10.26431        -0.000000     -0.000137     -0.002392
      4.18172      2.41608      3.70996         0.000000      0.001598     -0.006746
      5.56851      3.22103      0.96510        -0.001098      0.000179      0.007664
      5.57185      3.21670      8.38451         0.002913      0.003159      0.003741
      4.18172      4.03018      5.58317        -0.000000     -0.001611     -0.009799
      4.18172      4.02776     13.06822        -0.000000     -0.000525      0.011724
      2.78299      4.82041     10.27630        -0.001663     -0.001492      0.000706
      2.77984      4.82588      3.70296         0.001087     -0.000462     -0.006783
      4.18172      5.62982      0.94073        -0.000000     -0.003053      0.011402
      4.18172      5.67423      8.38847        -0.000000     -0.002204     -0.000083
      2.81720      6.45254      5.59547        -0.004829     -0.002489     -0.009339
      2.78541      6.44576     13.07282        -0.001196      0.001639      0.014052
    total drift:                               -0.001202      0.000033     -0.000279

  FREE ENERGIE OF THE ION-ELECTRON SYSTEM (eV)
  free  energy   TOTEN  =      -518.0459577430 eV

  energy  without entropy=     -517.9921995572  energy(sigma->0) =     -518.01907865

 d Force = 0.4295446E-03[ 0.342E-04, 0.825E-03]  d Energy = 0.4463400E-03-0.168E-04
 d Force =-0.2853634E+01[-0.286E+01,-0.284E+01]  d Ewald  =-0.3351797E+01 0.498E+00

 Quasi-Newton relaxation of ions (Broydens 2nd method)
  g(Force)  = 0.254E-03   g(Stress)= 0.294E-03

 retain information from N=  1 steps
 eigenvalues of (default step * inverse Hessian matrix)
  average eigenvalue of G=   0.0833
 eigenvalue spectrum of G is  0.0833

 reached required accuracy - stopping structural energy minimisation

volume of typ            1:     1.8 %

[...]

volume of typ            3:    10.4 %

total charge

# of ion       s       p       d       tot
    1        2.071   0.231   0.092   2.393
    2        2.071   0.231   0.092   2.393
    3        0.300   0.419   7.818   8.536
    4        0.303   0.426   7.824   8.554
    5        0.305   0.430   7.830   8.565
    6        0.303   0.426   7.824   8.554
    7        0.300   0.419   7.818   8.536
    8        0.303   0.427   7.824   8.554
    9        0.299   0.418   7.819   8.536
   10        0.299   0.418   7.819   8.536
   11        0.303   0.427   7.824   8.554
   12        0.303   0.426   7.818   8.547
   13        0.303   0.426   7.818   8.548
   14        0.294   0.408   7.821   8.523
   15        0.303   0.426   7.824   8.554
   16        0.303   0.426   7.818   8.547
   17        0.303   0.427   7.824   8.554
   18        0.304   0.427   7.824   8.555
   19        0.299   0.418   7.819   8.536
   20        0.298   0.416   7.821   8.535
   21        0.303   0.426   7.818   8.547
   22        0.303   0.426   7.824   8.554
   23        0.294   0.408   7.821   8.523
   24        0.303   0.426   7.818   8.548
   25        0.303   0.426   7.818   8.547
   26        0.298   0.416   7.821   8.535
   27        0.299   0.418   7.819   8.536
   28        0.304   0.427   7.824   8.555
   29        0.303   0.427   7.824   8.554
   30        1.286   2.721   0.008   4.015
   31        1.287   2.719   0.008   4.014
   32        1.286   2.722   0.008   4.016
   33        1.275   2.754   0.007   4.037
   34        1.274   2.755   0.007   4.037
   35        1.274   2.755   0.007   4.037
   36        1.275   2.754   0.007   4.037
   37        1.286   2.722   0.008   4.016
   38        1.287   2.719   0.008   4.014
   39        1.286   2.721   0.008   4.015
   40        1.286   2.722   0.008   4.016
   41        1.275   2.755   0.007   4.037
   42        1.285   2.724   0.008   4.017
   43        1.286   2.721   0.008   4.016
   44        1.286   2.721   0.008   4.016
   45        1.285   2.724   0.008   4.017
   46        1.275   2.755   0.007   4.037
   47        1.286   2.722   0.008   4.016
   48        1.286   2.723   0.008   4.017
   49        1.286   2.722   0.008   4.017
   50        1.286   2.721   0.008   4.016
   51        1.289   2.715   0.008   4.013
   52        1.286   2.723   0.008   4.017
   53        1.286   2.723   0.008   4.017
   54        1.275   2.754   0.007   4.037
   55        1.286   2.722   0.008   4.016
   56        1.286   2.722   0.008   4.017
   57        1.286   2.723   0.008   4.017
   58        1.286   2.722   0.008   4.016
   59        1.275   2.755   0.007   4.037
   60        1.275   2.754   0.007   4.037
[...]
   69        1.275   2.754   0.007   4.037
   70        1.286   2.723   0.008   4.017
   71        1.286   2.723   0.008   4.017
   72        1.289   2.715   0.008   4.013
   73        1.286   2.721   0.008   4.016
   74        1.286   2.722   0.008   4.017
   75        1.286   2.723   0.008   4.017
   76        1.285   2.724   0.008   4.017
   77        1.286   2.721   0.008   4.016
   78        1.285   2.724   0.008   4.017
   79        1.286   2.721   0.008   4.016
   80        1.288   2.716   0.008   4.013
   81        1.275   2.754   0.007   4.037
   82        1.275   2.755   0.007   4.037
   83        1.286   2.722   0.008   4.016
tot          81.60  159.23  211.79  452.62

magnetization (x)

# of ion       s       p       d       tot
    1        0.004   0.002  -0.000   0.006
    2        0.004   0.002  -0.000   0.006
    3       -0.000  -0.000   0.036   0.035
    4       -0.000  -0.000   0.042   0.042
    5       -0.000  -0.000   0.064   0.064
    6       -0.000  -0.000   0.042   0.042
    7       -0.000  -0.000   0.036   0.035
    8       -0.000  -0.000   0.039   0.038
    9       -0.000  -0.000   0.057   0.057
   10       -0.000  -0.000   0.057   0.057
   11       -0.000  -0.000   0.039   0.038
   12       -0.000  -0.000   0.024   0.024
   13       -0.000  -0.000   0.024   0.024
   14       -0.000  -0.000   0.136   0.136
   15       -0.000  -0.000   0.042   0.042
   16       -0.000  -0.000   0.024   0.024
   17       -0.000  -0.000   0.039   0.038
   18       -0.000  -0.000   0.041   0.041
   19       -0.000  -0.000   0.057   0.057
   20       -0.000  -0.000   0.079   0.079
   21       -0.000  -0.000   0.024   0.024
   22       -0.000  -0.000   0.042   0.042
   23       -0.000  -0.000   0.136   0.136
   24       -0.000  -0.000   0.024   0.024
   25       -0.000  -0.000   0.024   0.024
   26       -0.000  -0.000   0.079   0.079
   27       -0.000  -0.000   0.057   0.057
   28       -0.000  -0.000   0.041   0.041
   29       -0.000  -0.000   0.039   0.038
   30        0.001   0.001   0.000   0.002
   31        0.001   0.005   0.000   0.006
   32        0.000   0.002   0.000   0.002
   33        0.002   0.009   0.000   0.011
   34        0.001   0.004   0.000   0.005
   35        0.001   0.004   0.000   0.005
   36        0.002   0.009   0.000   0.011
   37        0.000   0.002   0.000   0.002
   38        0.001   0.005   0.000   0.006
   39        0.001   0.001   0.000   0.002
   40        0.000   0.001   0.000   0.002
   41        0.002   0.005   0.000   0.007
   42        0.001   0.002   0.000   0.003
   43        0.001   0.006   0.000   0.007
   44        0.001   0.006   0.000   0.007
   45        0.001   0.002   0.000   0.003
   46        0.002   0.005   0.000   0.007
   47        0.000   0.001   0.000   0.002
   48        0.001   0.000   0.000   0.001
   49        0.001   0.001   0.000   0.002
   50        0.001   0.004   0.000   0.004
   51        0.005   0.050   0.000   0.054
   52        0.001   0.004   0.000   0.005
   53        0.001   0.004   0.000   0.005
   54        0.002   0.009   0.000   0.011
   55        0.000   0.002   0.000   0.002
   56        0.001   0.001   0.000   0.002
   57        0.001   0.000   0.000   0.001
   58        0.000   0.001   0.000   0.002
   59        0.002   0.005   0.000   0.007
   60        0.002   0.013   0.000   0.016
[...]
   69        0.002   0.009   0.000   0.011
   70        0.001   0.004   0.000   0.005
   71        0.001   0.004   0.000   0.005
   72        0.005   0.050   0.000   0.054
   73        0.001   0.004   0.000   0.004
   74        0.001   0.001   0.000   0.002
   75        0.001   0.000   0.000   0.001
   76        0.000   0.000   0.000   0.000
   77        0.001   0.003   0.000   0.004
   78        0.001   0.002   0.000   0.003
   79        0.001   0.006   0.000   0.007
   80        0.002   0.021   0.000   0.023
   81        0.002   0.013   0.000   0.016
   82        0.002   0.005   0.000   0.007
   83        0.000   0.001   0.000   0.002
tot           0.07    0.33    1.34    1.74