 vasp.5.4.4.18Apr17-6-g9f103f2a35 (build May 12 2020 05:39:39) gamma-only

 MD_VERSION_INFO: Compiled 2020-05-12T12:39:39-UTC in devlin.sd.materialsdesign.
 com:/home/medea2/data/build/wwolf/vasp-gpu5.4.4/13047/x86_64/src/src/build/gam
 from svn 13047

 executed on                        Lin64 date 2023.01.19  21:43:56

 INCAR:
 POTCAR:    PAW_PBE Li_sv 10Sep2004
 POTCAR:    PAW_PBE Ni 02Aug2007
 POTCAR:    PAW_PBE O 08Apr2002

 POTCAR:    PAW_PBE Li_sv 10Sep2004

 POTCAR:    PAW_PBE Ni 02Aug2007

 POTCAR:    PAW_PBE O 08Apr2002

 Optimization of the real space projectors (new method)

 maximal supplied QI-value         = 22.11
 optimisation between [QCUT,QGAM] = [ 11.28, 22.77] = [ 35.61,145.23] Ry
 Optimized for a Real-space Cutoff    1.10 Angstroem

   l    n(q)    QCUT    max X(q) W(low)/X(q) W(high)/X(q)  e(spline)
   0      7    11.276    10.506    0.54E-04    0.58E-04    0.16E-07
   0      7    11.276     8.367    0.11E-03    0.14E-03    0.35E-07
   1      7    11.276     8.983    0.23E-03    0.43E-03    0.86E-07
 Optimization of the real space projectors (new method)

[...]

   l    n(q)    QCUT    max X(q) W(low)/X(q) W(high)/X(q)  e(spline)
   2      9    11.376    60.317    0.17E-03    0.16E-04    0.16E-06
   2      9    11.376    55.921    0.17E-03    0.16E-04    0.17E-06
   0     10    11.376    51.690    0.45E-04    0.60E-04    0.21E-06
   0     10    11.376    30.015    0.37E-04    0.55E-04    0.19E-06
   1     10    11.376    18.849    0.83E-04    0.11E-03    0.92E-07
   1     10    11.376    14.624    0.69E-04    0.92E-04    0.82E-07
 Optimization of the real space projectors (new method)

 maximal supplied QI-value         = 24.76
 optimisation between [QCUT,QGAM] = [ 11.39, 22.77] = [ 36.31,145.25] Ry
 Optimized for a Real-space Cutoff    1.10 Angstroem

   l    n(q)    QCUT    max X(q) W(low)/X(q) W(high)/X(q)  e(spline)
   0      7    11.387    20.381    0.22E-03    0.48E-03    0.18E-06
   0      7    11.387    15.268    0.22E-03    0.52E-03    0.19E-06
   1      7    11.387     5.964    0.22E-03    0.73E-03    0.24E-06
   1      7    11.387     5.382    0.19E-03    0.60E-03    0.21E-06

  PAW_PBE Li_sv 10Sep2004               :
  PAW_PBE Ni 02Aug2007                  :
  PAW_PBE O 08Apr2002                   :

 POSCAR: ce425826_1
  positions in direct lattice
 exchange correlation table for  LEXCH =       14
   RHO(1)=    0.500       N(1)  =     2000
   RHO(2)=  100.500       N(2)  =     4000

 ion  position               nearest neighbor table
   1  0.998  0.500  0.998-  82 2.09  83 2.09  70 2.10  47 2.10  35 2.11  34 2.11
   2  0.447  0.833  0.222-  61 2.09  42 2.09  37 2.10  60 2.10  55 2.11  36 2.11
   3  0.222  0.167  0.447-  74 2.09  51 2.09  50 2.10  57 2.10  56 2.11  33 2.11
   4  0.000  0.000  0.000-  81 1.86  84 1.86  48 1.86  69 1.86  36 1.90  33 1.90   7 2.79  13 2.79
                            16 2.79  10 2.79  22 2.79  28 2.80
   5  0.111  0.333  0.222-  50 1.86  47 1.86  56 1.86  35 1.86  32 1.87  53 1.87   8 2.79  11 2.79
                            17 2.79  23 2.79  29 2.79  14 2.79
   6  0.222  0.667  0.111-  37 1.86  70 1.86  55 1.86  34 1.86  31 1.87  40 1.87  15 2.79  24 2.79
                            12 2.79  18 2.79  30 2.79   9 2.79
   7  0.333  0.002  0.999-  75 1.86  69 1.86  72 1.87  36 1.87  42 1.87  39 1.87  25 2.78  22 2.78
                             4 2.79  10 2.79  16 2.79  19 2.80
   8  0.444  0.333  0.222-  62 1.86  41 1.86  38 1.86  59 1.86  56 1.90  35 1.90  23 2.79  17 2.79
                             5 2.79  26 2.79  20 2.79  11 2.80
   9  0.556  0.664  0.110-  76 1.86  46 1.86  43 1.86  37 1.87  40 1.87  61 1.87  12 2.78  27 2.78
                            24 2.79  21 2.79   6 2.79  18 2.80
  10  0.667  0.999  1.000-  81 1.86  48 1.86  78 1.87  75 1.87  45 1.87  42 1.89  25 2.78  13 2.78
                            28 2.79   4 2.79  19 2.79   7 2.79
  11  0.778  0.333  0.222-  62 1.86  41 1.86  44 1.87  65 1.87  50 1.90  47 1.90  29 2.79  14 2.79
                             5 2.79  26 2.79  20 2.79   8 2.80
  12  0.889  0.669  0.112-  43 1.86  49 1.86  46 1.87  34 1.87  82 1.87  31 1.87   9 2.78  21 2.78
                            15 2.79  27 2.79   6 2.79  30 2.80
  13  0.999  0.998  0.333-  66 1.86  48 1.86  45 1.87  33 1.87  51 1.87  54 1.87  19 2.78  10 2.78
                             4 2.79  22 2.79  16 2.79  25 2.80
  14  0.110  0.336  0.556-  65 1.86  71 1.86  68 1.86  50 1.87  53 1.87  74 1.87  23 2.78  20 2.78
                            11 2.79  26 2.79   5 2.79  17 2.80
  15  0.222  0.667  0.444-  73 1.86  52 1.86  49 1.86  58 1.86  55 1.90  34 1.90  12 2.79  18 2.79
                             6 2.79  21 2.79  27 2.79  24 2.80
  16  0.333  0.000  0.333-  60 1.86  57 1.86  33 1.86  36 1.86  39 1.87  54 1.87   4 2.79  28 2.79
                            13 2.79   7 2.79  19 2.79  25 2.79
  17  0.445  0.336  0.556-  77 1.86  59 1.86  80 1.87  56 1.87  74 1.87  53 1.87  29 2.78  20 2.78
                             8 2.79  26 2.79   5 2.79  14 2.80
  18  0.556  0.664  0.445-  64 1.86  58 1.86  79 1.87  55 1.87  61 1.87  40 1.87  30 2.78  27 2.78
                            15 2.79  21 2.79   6 2.79   9 2.80
  19  0.668  0.002  0.334-  63 1.86  45 1.86  66 1.86  60 1.87  39 1.87  42 1.87  13 2.78  22 2.78
                            28 2.79  10 2.79  16 2.79   7 2.80
  20  0.778  0.334  0.555-  62 1.86  59 1.86  65 1.87  68 1.87  80 1.87  83 1.89  14 2.78  17 2.78
                            11 2.79   8 2.79  29 2.79  23 2.79
  21  0.889  0.668  0.445-  52 1.86  49 1.86  67 1.87  64 1.87  46 1.87  61 1.89  30 2.78  12 2.78
                            24 2.79  15 2.79   9 2.79  18 2.79
  22  1.000  0.001  0.667-  84 1.86  69 1.86  63 1.87  66 1.87  72 1.87  51 1.89  19 2.78   7 2.78
                            28 2.79   4 2.79  25 2.79  13 2.79
  23  0.112  0.331  0.889-  68 1.86  38 1.86  71 1.87  35 1.87  83 1.87  32 1.87  14 2.78  26 2.78
                             8 2.79  20 2.79   5 2.79  29 2.80
  24  0.222  0.667  0.778-  73 1.86  52 1.86  67 1.87  76 1.87  37 1.90  70 1.90  30 2.79   9 2.79
                             6 2.79  21 2.79  27 2.79  15 2.80
  25  0.334  0.998  0.668-  78 1.86  72 1.86  75 1.86  57 1.87  54 1.87  51 1.87   7 2.78  10 2.78
                            28 2.79  22 2.79  16 2.79  13 2.80
  26  0.445  0.332  0.889-  41 1.86  38 1.86  44 1.87  77 1.87  71 1.87  74 1.89  29 2.78  23 2.78
                            11 2.79   8 2.79  14 2.79  17 2.79
  27  0.555  0.666  0.778-  73 1.86  58 1.86  76 1.87  43 1.87  79 1.87  82 1.89   9 2.78  18 2.78
                            24 2.79  15 2.79  30 2.79  12 2.79
  28  0.666  0.000  0.666-  84 1.86  81 1.86  63 1.87  78 1.87  57 1.90  60 1.90  25 2.79  19 2.79
                            16 2.79  22 2.79  10 2.79   4 2.80
  29  0.777  0.331  0.889-  44 1.86  80 1.86  77 1.86  47 1.87  32 1.87  83 1.87  17 2.78  26 2.78
                            11 2.79  20 2.79   5 2.79  23 2.80
  30  0.889  0.669  0.777-  67 1.86  79 1.86  64 1.86  70 1.87  31 1.87  82 1.87  18 2.78  21 2.78
                            24 2.79  27 2.79   6 2.79  12 2.80
  31  0.001  0.736  0.000-  30 1.87  12 1.87   6 1.87
  32  0.000  0.264  0.001-  29 1.87  23 1.87   5 1.87
  33  0.113  0.068  0.227-  16 1.86  13 1.87   4 1.90   3 2.11
  34  0.108  0.599  0.218-   6 1.86  12 1.87  15 1.90   1 2.11
  35  0.218  0.401  0.108-   5 1.86  23 1.87   8 1.90   1 2.11
  36  0.227  0.932  0.113-  16 1.86   7 1.87   4 1.90   2 2.11
  37  0.337  0.734  0.004-   6 1.86   9 1.87  24 1.90   2 2.10
  38  0.335  0.265  0.001-  23 1.86  26 1.86   8 1.86
  39  0.444  0.069  0.223-  19 1.87   7 1.87  16 1.87
  40  0.444  0.598  0.222-   9 1.87  18 1.87   6 1.87
  41  0.555  0.400  0.111-  26 1.86  11 1.86   8 1.86
  42  0.553  0.933  0.114-   7 1.87  19 1.87  10 1.89   2 2.09
  43  0.665  0.733  1.000-  12 1.86   9 1.86  27 1.87
  44  0.667  0.265  0.001-  29 1.86  26 1.87  11 1.87
  45  0.779  0.067  0.222-  19 1.86  13 1.87  10 1.87
  46  0.780  0.599  0.222-   9 1.86  12 1.87  21 1.87
  47  0.890  0.401  0.108-   5 1.86  29 1.87  11 1.90   1 2.10
  48  0.889  0.932  0.110-  13 1.86  10 1.86   4 1.86
  49  0.001  0.735  0.335-  12 1.86  21 1.86  15 1.86
  50  0.004  0.266  0.337-   5 1.86  14 1.87  11 1.90   3 2.10
  51  0.114  0.067  0.553-  13 1.87  25 1.87  22 1.89   3 2.09
  52  0.111  0.600  0.555-  21 1.86  24 1.86  15 1.86
  53  0.222  0.402  0.444-  14 1.87  17 1.87   5 1.87
  54  0.223  0.931  0.444-  25 1.87  13 1.87  16 1.87
  55  0.337  0.734  0.332-   6 1.86  18 1.87  15 1.90   2 2.11
  56  0.332  0.266  0.337-   5 1.86  17 1.87   8 1.90   3 2.11
  57  0.440  0.068  0.554-  16 1.86  25 1.87  28 1.90   3 2.10
  58  0.443  0.599  0.556-  18 1.86  27 1.86  15 1.86
  59  0.556  0.401  0.443-  17 1.86  20 1.86   8 1.86
  60  0.554  0.932  0.440-  16 1.86  19 1.87  28 1.90   2 2.10
  61  0.662  0.734  0.331-  18 1.87   9 1.87  21 1.89   2 2.09
  62  0.667  0.267  0.334-  20 1.86  11 1.86   8 1.86
  63  0.778  0.068  0.557-  19 1.86  22 1.87  28 1.87
  64  0.780  0.600  0.557-  18 1.86  30 1.86  21 1.87
  65  0.888  0.402  0.444-  14 1.86  20 1.87  11 1.87
  66  0.887  0.933  0.445-  13 1.86  19 1.86  22 1.87
  67  0.001  0.735  0.667-  30 1.86  21 1.87  24 1.87
  68  1.000  0.267  0.665-  23 1.86  14 1.86  20 1.87
  69  0.110  0.068  0.889-   7 1.86  22 1.86   4 1.86
  70  0.108  0.599  0.890-   6 1.86  30 1.87  24 1.90   1 2.10
  71  0.222  0.401  0.780-  14 1.86  23 1.87  26 1.87
  72  0.222  0.933  0.779-  25 1.86   7 1.87  22 1.87
  73  0.334  0.733  0.667-  27 1.86  24 1.86  15 1.86
  74  0.331  0.266  0.662-  17 1.87  14 1.87  26 1.89   3 2.09
  75  0.445  0.067  0.887-   7 1.86  25 1.86  10 1.87
  76  0.444  0.598  0.888-   9 1.86  27 1.87  24 1.87
  77  0.557  0.400  0.780-  17 1.86  29 1.86  26 1.87
  78  0.557  0.932  0.778-  25 1.86  10 1.87  28 1.87
  79  0.665  0.734  0.665-  30 1.86  18 1.87  27 1.87
  80  0.665  0.266  0.665-  29 1.86  17 1.87  20 1.87
  81  0.778  0.066  0.889-  10 1.86  28 1.86   4 1.86
  82  0.783  0.600  0.891-  12 1.87  30 1.87  27 1.89   1 2.09
  83  0.891  0.400  0.783-  23 1.87  29 1.87  20 1.89   1 2.09
  84  0.889  0.934  0.778-  22 1.86  28 1.86   4 1.86

  LATTYP: Found a hexagonal cell.
 ALAT       =     8.3681453341
 C/A-ratio  =     1.6762617097

  Lattice vectors:

 A1 = (   4.1840726453,  -7.2470264545,   0.0000000000)
 A2 = (  -8.3681453848,   0.0000000000,   0.0000000000)
 A3 = (   0.0000000000,   0.0000000000, -14.0272016046)

Analysis of symmetry for initial positions (statically):
 Subroutine PRICEL returns:
 Original cell was already a primitive cell.

 Routine SETGRP: Setting up the symmetry group for a
 hexagonal supercell.

 Subroutine GETGRP returns: Found  6 space group operations
 (whereof  2 operations were pure point group operations)
 out of a pool of 24 trial point group operations.

The static configuration has the point symmetry C_2 .
 The point group associated with its full space group is D_3 .

Analysis of symmetry for dynamics (positions and initial velocities):
 Subroutine PRICEL returns:
 Original cell was already a primitive cell.

[...]

The dynamic configuration has the point symmetry C_2 .
[...]
   -.411E+02 0.153E+02 -.346E+03   0.442E+02 -.167E+02 0.370E+03   -.312E+01 0.133E+01 -.235E+02   -.820E-02 -.369E-02 0.137E-02
   0.338E+02 -.279E+02 0.346E+03   -.365E+02 0.300E+02 -.370E+03   0.271E+01 -.204E+01 0.235E+02   0.903E-03 -.895E-02 -.137E-02
   -.769E+01 -.450E+02 -.348E+03   0.812E+01 0.484E+02 0.371E+03   -.422E+00 -.342E+01 -.233E+02   -.122E-01 0.231E-01 -.152E-01
   -.742E+01 0.176E+01 0.376E+03   0.786E+01 -.221E+01 -.404E+03   -.449E+00 0.451E+00 0.280E+02   0.546E-02 -.390E-02 -.119E-02
   0.524E+01 -.555E+01 -.376E+03   -.584E+01 0.570E+01 0.404E+03   0.615E+00 -.163E+00 -.280E+02   -.611E-02 0.278E-02 0.119E-02
   -.351E+02 -.291E+02 0.348E+03   0.378E+02 0.312E+02 -.371E+03   -.275E+01 -.208E+01 0.233E+02   0.261E-01 0.988E-03 0.152E-01
[...]
   0.330E+01 -.880E+01 -.375E+03   -.268E+01 0.937E+01 0.403E+03   -.634E+00 -.571E+00 -.276E+02   0.365E-02 0.305E-02 0.103E-01
   0.330E+01 0.880E+01 0.375E+03   -.268E+01 -.937E+01 -.403E+03   -.634E+00 0.571E+00 0.276E+02   0.365E-02 -.305E-02 -.103E-01
   -.143E+01 0.433E-02 -.374E+03   0.141E+01 -.109E+00 0.401E+03   -.107E-01 0.118E+00 -.271E+02   0.233E-01 -.129E-01 -.113E-01
   -.364E+02 -.205E+02 0.343E+03   0.389E+02 0.220E+02 -.366E+03   -.251E+01 -.143E+01 0.229E+02   -.220E-02 0.310E-02 -.486E-02
   -.221E+01 -.894E+01 -.375E+03   0.163E+01 0.944E+01 0.403E+03   0.590E+00 -.513E+00 -.279E+02   -.231E-02 0.674E-02 0.441E-02
   0.677E+01 0.319E+01 0.378E+03   -.728E+01 -.370E+01 -.406E+03   0.520E+00 0.541E+00 0.278E+02   -.215E-02 -.287E-01 0.901E-02
   -.663E+01 0.639E+01 -.375E+03   0.736E+01 -.614E+01 0.403E+03   -.739E+00 -.255E+00 -.279E+02   0.699E-02 -.137E-02 0.441E-02
   -.621E+00 -.745E+01 0.378E+03   0.434E+00 0.815E+01 -.406E+03   0.209E+00 -.721E+00 0.278E+02   -.238E-01 0.162E-01 0.901E-02
   -.927E+01 0.154E+01 -.375E+03   0.945E+01 -.236E+01 0.403E+03   -.178E+00 0.835E+00 -.276E+02   0.819E-03 -.469E-02 0.103E-01
   0.597E+01 -.726E+01 0.375E+03   -.677E+01 0.700E+01 -.403E+03   0.812E+00 0.264E+00 0.276E+02   -.447E-02 -.163E-02 -.103E-01
   0.717E+00 0.123E+01 -.374E+03   -.801E+00 -.117E+01 0.401E+03   0.107E+00 -.496E-01 -.271E+02   -.228E-01 -.138E-01 -.113E-01
   0.388E+00 0.418E+02 0.343E+03   -.412E+00 -.447E+02 -.366E+03   0.196E-01 0.289E+01 0.229E+02   0.378E-02 0.355E-03 -.486E-02
   0.360E+02 0.212E+02 -.343E+03   -.385E+02 -.227E+02 0.366E+03   0.249E+01 0.146E+01 -.229E+02   -.158E-02 0.345E-02 0.486E-02
   0.709E+00 0.124E+01 0.374E+03   -.612E+00 -.128E+01 -.401E+03   -.966E-01 0.681E-01 0.271E+02   -.514E-03 -.266E-01 0.113E-01
   0.129E-03 -.112E-02 -.519E-03   -.659E-12 0.688E-13 0.909E-12   0.527E-15 -.144E-14 -.711E-14   -.108E-06 -.204E-06 0.647E-08

 POSITION                                       TOTAL-FORCE (eV/Angst)
      4.17428      7.23006      7.01858        -0.002283     -0.003955     -0.000000
     -0.00958      3.23733     11.69764        -0.002283      0.003955     -0.000000
      2.80840      1.61037      2.33953         0.004567     -0.000000     -0.000000
      0.00204      0.00354     -0.00000         0.002450      0.004244     -0.000000
      1.39478      0.80491      4.67906         0.000647     -0.001120     -0.000000
     -0.00032      1.61037      9.35811        -0.001293      0.000000     -0.000000
      6.96904      2.41107      0.03021         0.000110      0.001162     -0.008870
      0.00204      3.21720      4.67906         0.002450     -0.004244     -0.000000
     -1.40129      4.02746      9.32573        -0.000859      0.000658      0.009438
      5.57686      4.83213     14.02514         0.004084     -0.001750      0.001196
     -1.39609      5.63883      4.67906        -0.001669      0.002890     -0.000000
     -2.78333      6.44019      9.38832        -0.001061     -0.000486     -0.008870
     -1.39647      7.24090     14.00696         0.000951      0.000676      0.008870
      4.18853      0.80018      4.71143         0.000999     -0.000415     -0.009438
      2.78515      1.61037      9.35811        -0.004900      0.000000     -0.000000
      1.39478      2.41583     -0.00000         0.000647      0.001120     -0.000000
      2.78739      3.22649      4.70927         0.000951     -0.000676     -0.008870
      1.40052      4.02719      9.32790        -0.001061      0.000486      0.008870
      0.00200      4.83765      0.03238        -0.000140      0.001073     -0.009438
      1.39301      5.63525      4.69108         0.004084      0.001750     -0.001196
     -0.00009      6.44338      9.37014        -0.000526     -0.004412     -0.001196
      1.39632      7.24577      0.01202        -0.003558      0.002662     -0.001196
      6.96904      0.80966      4.64884         0.000110     -0.001162      0.008870
      5.58142      1.61037      9.35811         0.003337     -0.000000     -0.000000
      4.18853      2.42056     14.00479         0.000999      0.000415      0.009438
      5.58017      3.22161      4.66703        -0.003558     -0.002662      0.001196
      4.18377      4.02401      9.34609        -0.000526      0.004412      0.001196
      2.78777      4.82855     -0.00000        -0.001669     -0.002890     -0.000000
      4.18585      5.62973      4.64668        -0.000140     -0.001073      0.009438
      2.78257      6.43992      9.39049        -0.000859     -0.000658     -0.009438
     -0.00126      0.00619     10.32793        -0.000641     -0.001185     -0.007060
      0.00599      0.00201      3.70924        -0.000706     -0.001148      0.007060
      1.42744      0.81664      0.95135         0.000711      0.008460      0.007015
      1.36829      0.78249      8.40676        -0.007683      0.003614     -0.007015
     -0.00649      1.57622      5.63041         0.006971     -0.004846      0.007015
     -0.00649      1.64452     13.08581         0.006971      0.004846     -0.007015
     -1.36958      2.43837     10.30789         0.006124     -0.004595      0.007153
     -1.39139      2.42341      3.72706         0.000004     -0.008044      0.008598
      0.00599      3.21873      0.96982        -0.000706      0.001148     -0.007060
     -0.00126      3.21455      8.38829        -0.000641      0.001185      0.007060
     -1.39665      4.02458      5.60761        -0.000377      0.000052     -0.003261
     -1.36280      4.00839     13.09493         0.000124      0.000815     -0.011434
      5.58398      4.81834     10.29528        -0.001923      0.008706     -0.000314
     -2.78148      4.83011      3.72297        -0.003403      0.003783      0.009498
     -1.40243      5.64715      0.94254         0.006519     -0.004387      0.000241
     -1.40012      5.64848      8.41557         0.000540     -0.007839     -0.000241
     -2.82151      6.45174      5.62884         0.000917      0.007601      0.007153
     -2.79766      6.44033     13.08518         0.006964      0.004025      0.008598
      2.79443      0.00673     10.31010        -0.006968     -0.004019     -0.008598
      2.79648      0.03309      3.72927        -0.007041      0.003006     -0.007153
      4.15276      0.82397      0.94223         0.000644      0.000515      0.011434
      4.18371      0.80275      8.42956         0.000234     -0.000300      0.003261
      2.78451      1.60619      5.64887         0.001347      0.000038     -0.007060
      2.78451      1.61455     13.06735         0.001347     -0.000038      0.007060
      1.36829      2.43825     10.30947        -0.007683     -0.003614      0.007015
      1.42744      2.40409      3.72770         0.000711     -0.008460     -0.007015
      2.79648      3.18765      0.94978        -0.007041     -0.003006      0.007153
      2.79443      3.21401      8.40612        -0.006968      0.004019      0.008598
      1.38619      4.02705      5.63105         0.006964     -0.004025     -0.008598
      1.36234      4.01564     13.08738         0.000917     -0.007601     -0.007153
[...]
      6.99813      0.78237      8.40833         0.006124      0.004595     -0.007153
      5.59179      1.61170      5.62159        -0.007059     -0.003451      0.000241
      5.59179      1.60903     13.09463        -0.007059      0.003451     -0.000241
      4.18371      2.41798     10.28666         0.000234      0.000300     -0.003261
      4.15276      2.39676      3.73682         0.000644     -0.000515     -0.011434
      5.56468      3.22235      0.93717         0.008501     -0.002687     -0.000314
      5.57374      3.21452      8.40203         0.004977      0.001056      0.009498
      4.19215      4.03706      5.61622        -0.006578     -0.006018     -0.000314
      4.18084      4.03313     13.08108        -0.001574     -0.004838      0.009498
      2.78374      4.81891     10.30065         0.000540      0.007839      0.000241
      2.78143      4.82024      3.73652         0.006519      0.004387     -0.000241
      4.18603      5.63519      0.92855         0.000143     -0.000353     -0.003261
      4.18313      5.67261      8.41588        -0.000768     -0.000300     -0.011434
      2.82106      6.45900      5.62129         0.000124     -0.000815      0.011434
      2.78720      6.44281     13.10862        -0.000377     -0.000052      0.003261
    total drift:                                0.000129     -0.001120     -0.000519

  FREE ENERGIE OF THE ION-ELECTRON SYSTEM (eV)
  free  energy   TOTEN  =      -523.5281238707 eV

  energy  without entropy=     -523.4700985983  energy(sigma->0) =     -523.49911123

 d Force = 0.6257081E-03[ 0.165E-03, 0.109E-02]  d Energy = 0.1139541E-02-0.514E-03
 d Force =-0.1240564E+02[-0.124E+02,-0.124E+02]  d Ewald  =-0.5235840E+01-0.717E+01

 Quasi-Newton relaxation of ions (Broydens 2nd method)
  g(Force)  = 0.301E-03   g(Stress)= 0.264E-03

 retain information from N=  1 steps
 eigenvalues of (default step * inverse Hessian matrix)
  average eigenvalue of G=   0.3551
 eigenvalue spectrum of G is  0.3551

 reached required accuracy - stopping structural energy minimisation

volume of typ            1:     2.7 %

[...]

volume of typ            3:    10.3 %

total charge

# of ion       s       p       d       tot
    1        2.071   0.232   0.092   2.395
    2        2.071   0.232   0.092   2.395
    3        2.071   0.232   0.092   2.395
    4        0.294   0.407   7.822   8.523
    5        0.303   0.428   7.830   8.561
    6        0.303   0.428   7.830   8.561
    7        0.303   0.425   7.824   8.551
    8        0.294   0.407   7.821   8.523
    9        0.303   0.426   7.824   8.552
   10        0.298   0.415   7.820   8.533
   11        0.294   0.407   7.821   8.522
   12        0.303   0.425   7.824   8.551
   13        0.303   0.425   7.824   8.551
   14        0.303   0.426   7.824   8.552
   15        0.294   0.407   7.821   8.523
   16        0.303   0.428   7.830   8.561
   17        0.303   0.425   7.824   8.551
   18        0.303   0.425   7.824   8.551
   19        0.303   0.426   7.824   8.552
   20        0.298   0.415   7.820   8.533
   21        0.298   0.415   7.820   8.533
   22        0.298   0.415   7.820   8.533
   23        0.303   0.425   7.824   8.551
   24        0.294   0.407   7.821   8.522
   25        0.303   0.426   7.824   8.552
   26        0.298   0.415   7.820   8.533
   27        0.298   0.415   7.820   8.533
   28        0.294   0.407   7.821   8.522
   29        0.303   0.426   7.824   8.552
   30        0.303   0.426   7.824   8.552
   31        1.286   2.720   0.008   4.014
   32        1.286   2.720   0.008   4.014
   33        1.275   2.754   0.007   4.036
   34        1.275   2.754   0.007   4.036
   35        1.275   2.754   0.007   4.036
   36        1.275   2.754   0.007   4.036
   37        1.275   2.754   0.007   4.037
   38        1.286   2.723   0.008   4.017
   39        1.286   2.720   0.008   4.014
   40        1.286   2.720   0.008   4.014
   41        1.289   2.715   0.008   4.012
   42        1.275   2.754   0.007   4.037
   43        1.285   2.724   0.008   4.017
   44        1.286   2.722   0.008   4.016
   45        1.286   2.722   0.008   4.016
   46        1.286   2.722   0.008   4.016
   47        1.275   2.754   0.007   4.037
   48        1.286   2.723   0.008   4.017
   49        1.286   2.723   0.008   4.017
   50        1.275   2.754   0.007   4.037
   51        1.275   2.754   0.007   4.037
   52        1.289   2.715   0.008   4.012
   53        1.286   2.720   0.008   4.014
   54        1.286   2.720   0.008   4.014
   55        1.275   2.754   0.007   4.036
   56        1.275   2.754   0.007   4.036
   57        1.275   2.754   0.007   4.037
   58        1.286   2.723   0.008   4.017
   59        1.286   2.723   0.008   4.017
   60        1.275   2.754   0.007   4.037
[...]
   70        1.275   2.754   0.007   4.037
   71        1.286   2.722   0.008   4.016
   72        1.286   2.722   0.008   4.016
   73        1.289   2.715   0.008   4.012
   74        1.275   2.754   0.007   4.037
   75        1.285   2.724   0.008   4.017
   76        1.286   2.722   0.008   4.016
   77        1.285   2.724   0.008   4.017
   78        1.286   2.722   0.008   4.016
   79        1.286   2.722   0.008   4.016
   80        1.286   2.722   0.008   4.016
   81        1.289   2.715   0.008   4.012
   82        1.275   2.754   0.007   4.037
   83        1.275   2.754   0.007   4.037
   84        1.289   2.715   0.008   4.012
tot          83.57  159.54  211.93  455.04

magnetization (x)

# of ion       s       p       d       tot
    1        0.004   0.002  -0.000   0.007
    2        0.004   0.002  -0.000   0.007
    3        0.004   0.002  -0.000   0.007
    4       -0.000  -0.000   0.110   0.110
    5       -0.000  -0.000   0.079   0.078
    6       -0.000  -0.000   0.079   0.078
    7       -0.000  -0.000   0.052   0.052
    8       -0.000  -0.000   0.110   0.110
    9       -0.000  -0.000   0.051   0.051
   10       -0.000  -0.000   0.082   0.082
   11       -0.000  -0.000   0.133   0.132
   12       -0.000  -0.000   0.052   0.052
   13       -0.000  -0.000   0.052   0.052
   14       -0.000  -0.000   0.051   0.051
   15       -0.000  -0.000   0.110   0.110
   16       -0.000  -0.000   0.079   0.078
   17       -0.000  -0.000   0.052   0.052
   18       -0.000  -0.000   0.052   0.052
   19       -0.000  -0.000   0.051   0.051
   20       -0.000  -0.000   0.082   0.082
   21       -0.000  -0.000   0.082   0.082
   22       -0.000  -0.000   0.082   0.082
   23       -0.000  -0.000   0.052   0.052
   24       -0.000  -0.000   0.133   0.132
   25       -0.000  -0.000   0.051   0.051
   26       -0.000  -0.000   0.082   0.082
   27       -0.000  -0.000   0.082   0.082
   28       -0.000  -0.000   0.133   0.132
   29       -0.000  -0.000   0.051   0.051
   30       -0.000  -0.000   0.051   0.051
   31        0.001   0.006   0.000   0.007
   32        0.001   0.006   0.000   0.007
   33        0.002   0.008   0.000   0.010
   34        0.002   0.008   0.000   0.010
   35        0.002   0.008   0.000   0.010
   36        0.002   0.008   0.000   0.010
   37        0.002   0.007   0.000   0.010
   38        0.001  -0.000   0.000   0.001
   39        0.001   0.006   0.000   0.007
   40        0.001   0.006   0.000   0.007
   41        0.004   0.039   0.000   0.043
   42        0.002   0.011   0.000   0.013
   43        0.001   0.001   0.000   0.002
   44        0.001   0.004   0.000   0.005
   45        0.001   0.006   0.000   0.008
   46        0.001   0.006   0.000   0.008
   47        0.002   0.007   0.000   0.010
   48        0.001  -0.000   0.000   0.001
   49        0.001  -0.000   0.000   0.001
   50        0.002   0.007   0.000   0.010
   51        0.002   0.011   0.000   0.013
   52        0.004   0.039   0.000   0.043
   53        0.001   0.006   0.000   0.007
   54        0.001   0.006   0.000   0.007
   55        0.002   0.008   0.000   0.010
   56        0.002   0.008   0.000   0.010
   57        0.002   0.007   0.000   0.010
   58        0.001  -0.000   0.000   0.001
   59        0.001  -0.000   0.000   0.001
   60        0.002   0.007   0.000   0.010
[...]
   70        0.002   0.007   0.000   0.010
   71        0.001   0.006   0.000   0.008
   72        0.001   0.006   0.000   0.008
   73        0.004   0.039   0.000   0.043
   74        0.002   0.011   0.000   0.013
   75        0.001   0.001   0.000   0.002
   76        0.001   0.004   0.000   0.005
   77        0.001   0.001   0.000   0.002
   78        0.001   0.004   0.000   0.005
   79        0.001   0.006   0.000   0.008
   80        0.001   0.006   0.000   0.008
   81        0.004   0.039   0.000   0.043
   82        0.002   0.011   0.000   0.013
   83        0.002   0.011   0.000   0.013
   84        0.004   0.039   0.000   0.043
tot           0.11    0.50    2.08    2.68