 vasp.5.4.4.18Apr17-6-g9f103f2a35 (build May 12 2020 05:39:39) gamma-only

 MD_VERSION_INFO: Compiled 2020-05-12T12:39:39-UTC in devlin.sd.materialsdesign.
 com:/home/medea2/data/build/wwolf/vasp-gpu5.4.4/13047/x86_64/src/src/build/gam
 from svn 13047

 executed on                        Lin64 date 2023.01.20  02:13:07

 INCAR:
 POTCAR:    PAW_PBE Li_sv 10Sep2004
 POTCAR:    PAW_PBE Ni 02Aug2007
 POTCAR:    PAW_PBE O 08Apr2002

 POTCAR:    PAW_PBE Li_sv 10Sep2004

 POTCAR:    PAW_PBE Ni 02Aug2007

 POTCAR:    PAW_PBE O 08Apr2002

 Optimization of the real space projectors (new method)

 maximal supplied QI-value         = 22.11
 optimisation between [QCUT,QGAM] = [ 11.28, 22.77] = [ 35.61,145.23] Ry
 Optimized for a Real-space Cutoff    1.10 Angstroem

   l    n(q)    QCUT    max X(q) W(low)/X(q) W(high)/X(q)  e(spline)
   0      7    11.276    10.506    0.54E-04    0.58E-04    0.16E-07
   0      7    11.276     8.367    0.11E-03    0.14E-03    0.35E-07
   1      7    11.276     8.983    0.23E-03    0.43E-03    0.86E-07
 Optimization of the real space projectors (new method)

[...]

   l    n(q)    QCUT    max X(q) W(low)/X(q) W(high)/X(q)  e(spline)
   2      9    11.376    60.317    0.17E-03    0.16E-04    0.16E-06
   2      9    11.376    55.921    0.17E-03    0.16E-04    0.17E-06
   0     10    11.376    51.690    0.45E-04    0.60E-04    0.21E-06
   0     10    11.376    30.015    0.37E-04    0.55E-04    0.19E-06
   1     10    11.376    18.849    0.83E-04    0.11E-03    0.92E-07
   1     10    11.376    14.624    0.69E-04    0.92E-04    0.82E-07
 Optimization of the real space projectors (new method)

 maximal supplied QI-value         = 24.76
 optimisation between [QCUT,QGAM] = [ 11.39, 22.77] = [ 36.31,145.25] Ry
 Optimized for a Real-space Cutoff    1.10 Angstroem

   l    n(q)    QCUT    max X(q) W(low)/X(q) W(high)/X(q)  e(spline)
   0      7    11.387    20.381    0.22E-03    0.48E-03    0.18E-06
   0      7    11.387    15.268    0.22E-03    0.52E-03    0.19E-06
   1      7    11.387     5.964    0.22E-03    0.73E-03    0.24E-06
   1      7    11.387     5.382    0.19E-03    0.60E-03    0.21E-06

  PAW_PBE Li_sv 10Sep2004               :
  PAW_PBE Ni 02Aug2007                  :
  PAW_PBE O 08Apr2002                   :

 POSCAR: ce425586_1
  positions in direct lattice
 exchange correlation table for  LEXCH =       14
   RHO(1)=    0.500       N(1)  =     2000
   RHO(2)=  100.500       N(2)  =     4000

 ion  position               nearest neighbor table
   1  1.000  0.500  0.999-  51 2.10  39 2.10  86 2.11  74 2.11  38 2.12  87 2.12   9 2.84
   2  0.110  0.833  0.220-  35 2.10  40 2.11  52 2.11  58 2.12  53 2.13  59 2.13
   3  0.556  0.167  0.112-  48 2.10  42 2.10  49 2.11  43 2.11  79 2.12  66 2.12  30 2.84
   4  0.223  0.167  0.446-  78 2.09  61 2.10  55 2.10  37 2.12  54 2.12  60 2.12
   5  0.778  0.833  0.556-  83 2.11  71 2.11  64 2.11  70 2.11  65 2.14  88 2.14
   6  0.332  0.499  0.665-  57 2.09  62 2.10  56 2.10  80 2.12  75 2.12  81 2.12
   7  0.446  0.833  0.891-  46 2.10  41 2.11  47 2.11  77 2.12  76 2.13  82 2.13
   8  1.000  0.003  0.999-  73 1.87  85 1.87  40 1.88  52 1.88  88 1.90  37 1.90  11 2.79  14 2.79
                            26 2.79  32 2.79  20 2.81  17 2.81
   9  0.111  0.334  0.222-  39 1.87  51 1.87  54 1.87  60 1.87  36 1.87  57 1.90  12 2.79  15 2.79
                            27 2.80  33 2.80  21 2.81  18 2.81   1 2.84
  10  0.224  0.667  0.111-  59 1.87  44 1.87  74 1.87  38 1.88  35 1.88  41 1.89  28 2.78  13 2.79
                            22 2.79  34 2.80  19 2.81  16 2.82
  11  0.332  1.000  0.000-  76 1.87  73 1.87  43 1.87  79 1.88  46 1.88  40 1.89  20 2.78   8 2.79
                            26 2.79  23 2.80  29 2.81  14 2.82
  12  0.444  0.336  0.222-  63 1.86  66 1.87  45 1.87  42 1.88  39 1.89  60 1.90  21 2.79   9 2.79
                            27 2.79  24 2.80  30 2.80  15 2.81
  13  0.556  0.664  0.112-  44 1.87  50 1.87  47 1.88  41 1.88  65 1.90  80 1.90  16 2.79  10 2.79
                            22 2.79  25 2.79  31 2.81  28 2.81
  14  0.668  1.000  0.000-  82 1.87  85 1.87  49 1.87  79 1.88  46 1.88  52 1.89  17 2.78   8 2.79
                            32 2.79  23 2.80  29 2.81  11 2.82
  15  0.779  0.336  0.222-  69 1.86  66 1.87  45 1.87  48 1.88  51 1.89  54 1.90  18 2.79   9 2.79
                            33 2.79  24 2.80  30 2.80  12 2.81
  16  0.887  0.667  0.111-  53 1.87  50 1.87  86 1.87  38 1.88  35 1.88  47 1.89  31 2.78  13 2.79
                            25 2.79  34 2.80  19 2.81  10 2.82
  17  0.998  0.000  0.333-  55 1.87  52 1.87  58 1.88  37 1.88  49 1.89  70 1.90  14 2.78  23 2.78
                            26 2.79  29 2.80   8 2.81  20 2.83
  18  0.110  0.333  0.556-  72 1.86  69 1.86  54 1.87  75 1.87  78 1.88  57 1.88  24 2.79  27 2.79
                            15 2.79  30 2.81   9 2.81  21 2.82
  19  0.222  0.666  0.445-  56 1.87  62 1.87  53 1.87  59 1.87  77 1.91  38 1.91  25 2.79  22 2.79
                            28 2.80  31 2.80  16 2.81  10 2.81
  20  0.335  0.000  0.333-  61 1.87  40 1.87  58 1.88  37 1.88  43 1.89  64 1.90  11 2.78  23 2.78
                            32 2.79  29 2.80   8 2.81  17 2.83
  21  0.446  0.333  0.556-  84 1.86  63 1.86  60 1.87  81 1.87  78 1.88  57 1.88  24 2.79  33 2.79
                            12 2.79  30 2.81   9 2.81  18 2.82
  22  0.554  0.664  0.444-  44 1.86  65 1.87  68 1.87  83 1.88  62 1.89  59 1.90  10 2.79  31 2.79
                            19 2.79  13 2.79  34 2.80  25 2.81
  23  0.667  1.000  0.333-  64 1.86  70 1.86  49 1.87  43 1.87  67 1.87  46 1.91  17 2.78  20 2.78
                            32 2.80  26 2.80  14 2.80  11 2.80
  24  0.778  0.333  0.556-  84 1.87  72 1.87  63 1.87  69 1.87  66 1.89  87 1.89  18 2.79  21 2.79
                            33 2.80  27 2.80  15 2.80  12 2.80
  25  0.890  0.664  0.444-  50 1.86  65 1.87  68 1.87  71 1.88  56 1.89  53 1.90  16 2.79  28 2.79
                            19 2.79  13 2.79  34 2.80  22 2.81
  26  0.001  0.003  0.667-  73 1.86  88 1.87  67 1.87  70 1.88  55 1.89  76 1.90  11 2.79  17 2.79
                            29 2.79   8 2.79  23 2.80  32 2.81
  27  0.112  0.331  0.889-  72 1.86  87 1.87  36 1.87  39 1.88  42 1.89  75 1.90  18 2.79  30 2.79
                            12 2.79  24 2.80   9 2.80  33 2.81
  28  0.221  0.666  0.778-  56 1.87  41 1.87  77 1.88  80 1.88  74 1.89  71 1.90  10 2.78  34 2.78
                            25 2.79  19 2.80  13 2.81  31 2.83
  29  0.333  0.000  0.667-  61 1.87  55 1.87  76 1.87  82 1.87  58 1.91  79 1.91  26 2.79  32 2.79
                            20 2.80  17 2.80  11 2.81  14 2.81
  30  0.445  0.333  0.889-  42 1.87  48 1.87  75 1.87  81 1.87  45 1.87  78 1.90  27 2.79  33 2.79
                            12 2.80  15 2.80  21 2.81  18 2.81   3 2.84
  31  0.557  0.666  0.778-  62 1.87  47 1.87  77 1.88  80 1.88  86 1.89  83 1.90  16 2.78  34 2.78
                            22 2.79  19 2.80  13 2.81  28 2.83
  32  0.666  0.003  0.667-  85 1.86  88 1.87  67 1.87  64 1.88  61 1.89  82 1.90  14 2.79  20 2.79
                            29 2.79   8 2.79  23 2.80  26 2.81
  33  0.777  0.331  0.889-  84 1.86  87 1.87  36 1.87  51 1.88  48 1.89  81 1.90  21 2.79  30 2.79
                            15 2.79  24 2.80   9 2.80  27 2.81
  34  0.889  0.667  0.778-  71 1.86  83 1.86  86 1.87  74 1.87  68 1.87  35 1.91  31 2.78  28 2.78
                            25 2.80  22 2.80  16 2.80  10 2.80
  35  0.002  0.736  0.003-  16 1.88  10 1.88  34 1.91   2 2.10
  36  0.001  0.266  0.002-   9 1.87  27 1.87  33 1.87
  37  0.114  0.069  0.227-  17 1.88  20 1.88   8 1.90   4 2.12
  38  0.109  0.599  0.217-  10 1.88  16 1.88  19 1.91   1 2.12
  39  0.217  0.401  0.107-   9 1.87  27 1.88  12 1.89   1 2.10
  40  0.220  0.933  0.113-  20 1.87   8 1.88  11 1.89   2 2.11
  41  0.336  0.734  0.999-  28 1.87  13 1.88  10 1.89   7 2.11
  42  0.339  0.265  0.004-  30 1.87  12 1.88  27 1.89   3 2.10
  43  0.447  0.068  0.220-  23 1.87  11 1.87  20 1.89   3 2.11
  44  0.443  0.598  0.222-  22 1.86  13 1.87  10 1.87
  45  0.555  0.401  0.109-  30 1.87  15 1.87  12 1.87
  46  0.554  0.931  0.108-  14 1.88  11 1.88  23 1.91   7 2.10
  47  0.663  0.734  0.999-  31 1.87  13 1.88  16 1.89   7 2.11
  48  0.665  0.265  0.004-  30 1.87  15 1.88  33 1.89   3 2.10
  49  0.773  0.068  0.220-  23 1.87  14 1.87  17 1.89   3 2.11
  50  0.779  0.598  0.222-  25 1.86  13 1.87  16 1.87
  51  0.890  0.401  0.107-   9 1.87  33 1.88  15 1.89   1 2.10
  52  0.893  0.933  0.113-  17 1.87   8 1.88  14 1.89   2 2.11
  53  0.001  0.734  0.332-  16 1.87  19 1.87  25 1.90   2 2.13
  54  0.003  0.266  0.335-  18 1.87   9 1.87  15 1.90   4 2.12
  55  0.113  0.069  0.553-  17 1.87  29 1.87  26 1.89   4 2.10
  56  0.116  0.598  0.558-  28 1.87  19 1.87  25 1.89   6 2.10
  57  0.224  0.402  0.448-  18 1.88  21 1.88   9 1.90   6 2.09
  58  0.220  0.932  0.440-  20 1.88  17 1.88  29 1.91   2 2.12
  59  0.331  0.734  0.332-  10 1.87  19 1.87  22 1.90   2 2.13
  60  0.332  0.266  0.335-  21 1.87   9 1.87  12 1.90   4 2.12
  61  0.440  0.069  0.553-  20 1.87  29 1.87  32 1.89   4 2.10
  62  0.442  0.598  0.558-  31 1.87  19 1.87  22 1.89   6 2.10
  63  0.556  0.401  0.445-  21 1.86  12 1.86  24 1.87
  64  0.560  0.933  0.448-  23 1.86  32 1.88  20 1.90   5 2.11
  65  0.669  0.732  0.337-  25 1.87  22 1.87  13 1.90   5 2.14
  66  0.664  0.268  0.329-  15 1.87  12 1.87  24 1.89   3 2.12
  67  0.777  0.068  0.554-  23 1.87  32 1.87  26 1.87
  68  0.779  0.598  0.557-  34 1.87  25 1.87  22 1.87
  69  0.889  0.401  0.445-  18 1.86  15 1.86  24 1.87
  70  0.888  0.933  0.448-  23 1.86  26 1.88  17 1.90   5 2.11
  71  0.995  0.734  0.663-  34 1.86  25 1.88  28 1.90   5 2.11
  72  1.000  0.266  0.666-  18 1.86  27 1.86  24 1.87
  73  0.112  0.068  0.889-  26 1.86   8 1.87  11 1.87
  74  0.109  0.599  0.891-  34 1.87  10 1.87  28 1.89   1 2.11
  75  0.224  0.401  0.777-  18 1.87  30 1.87  27 1.90   6 2.12
  76  0.225  0.933  0.779-  11 1.87  29 1.87  26 1.90   7 2.13
  77  0.336  0.734  0.671-  28 1.88  31 1.88  19 1.91   7 2.12
  78  0.331  0.265  0.663-  21 1.88  18 1.88  30 1.90   4 2.09
  79  0.447  0.068  0.894-  11 1.88  14 1.88  29 1.91   3 2.12
  80  0.442  0.598  0.884-  28 1.88  31 1.88  13 1.90   6 2.12
  81  0.553  0.401  0.777-  21 1.87  30 1.87  33 1.90   6 2.12
  82  0.555  0.933  0.779-  14 1.87  29 1.87  32 1.90   7 2.13
  83  0.668  0.734  0.663-  34 1.86  22 1.88  31 1.90   5 2.11
  84  0.666  0.266  0.666-  21 1.86  33 1.86  24 1.87
  85  0.777  0.068  0.889-  32 1.86   8 1.87  14 1.87
  86  0.782  0.599  0.891-  34 1.87  16 1.87  31 1.89   1 2.11
  87  0.891  0.399  0.782-  33 1.87  27 1.87  24 1.89   1 2.12
  88  0.887  0.935  0.774-  32 1.87  26 1.87   8 1.90   5 2.14

  LATTYP: Found a base centered monoclinic cell.
 ALAT       =    14.5366562832
 B/A-ratio  =     0.5775053161
 C/A-ratio  =     2.2242875120
 COS(beta)  =    -0.7789280930

  Lattice vectors:

 A1 = (   4.1958073429,   7.2693038113,   0.0027473393)
 A2 = (   8.3933054288,  -0.0009762647,   0.0027473393)
 A3 = ( -25.1826942462, -14.5392350594, -14.1389853396)

[...]
   -.325E+02 0.179E+02 -.345E+03   0.358E+02 -.194E+02 0.367E+03   -.327E+01 0.149E+01 -.222E+02   -.884E-02 -.300E-03 0.242E-02
   -.285E+00 0.377E+02 0.344E+03   0.874E-02 -.412E+02 -.366E+03   0.281E+00 0.357E+01 0.226E+02   -.497E-02 -.478E-01 0.478E-02
   -.344E+02 0.199E+02 -.352E+03   0.369E+02 -.212E+02 0.375E+03   -.245E+01 0.128E+01 -.223E+02   -.253E-01 -.138E-01 0.347E-01
   -.404E-01 0.398E+02 0.352E+03   -.971E-01 -.425E+02 -.375E+03   0.115E+00 0.277E+01 0.223E+02   0.245E-01 0.150E-01 -.347E-01
   0.270E+02 0.156E+02 -.350E+03   -.297E+02 -.171E+02 0.372E+03   0.263E+01 0.152E+01 -.220E+02   -.101E-01 -.583E-02 0.692E-02
   -.264E+02 -.152E+02 0.354E+03   0.291E+02 0.168E+02 -.375E+03   -.264E+01 -.152E+01 0.212E+02   -.188E-01 -.109E-01 0.249E-01
   -.767E+00 -.371E+02 -.345E+03   0.111E+01 0.406E+02 0.367E+03   -.339E+00 -.358E+01 -.222E+02   -.468E-02 -.750E-02 0.242E-02
   0.325E+02 -.191E+02 0.344E+03   -.357E+02 0.206E+02 -.366E+03   0.324E+01 -.154E+01 0.226E+02   -.439E-01 0.196E-01 0.478E-02
[...]
   -.325E+02 0.191E+02 -.344E+03   0.357E+02 -.206E+02 0.366E+03   -.324E+01 0.154E+01 -.226E+02   0.439E-01 -.196E-01 -.478E-02
   0.766E+00 0.371E+02 0.345E+03   -.111E+01 -.406E+02 -.367E+03   0.339E+00 0.358E+01 0.222E+02   0.468E-02 0.750E-02 -.242E-02
   0.264E+02 0.152E+02 -.354E+03   -.291E+02 -.168E+02 0.375E+03   0.264E+01 0.152E+01 -.212E+02   0.188E-01 0.109E-01 -.249E-01
   -.270E+02 -.156E+02 0.350E+03   0.297E+02 0.171E+02 -.372E+03   -.263E+01 -.152E+01 0.220E+02   0.101E-01 0.583E-02 -.692E-02
   0.274E+02 0.158E+02 -.356E+03   -.302E+02 -.175E+02 0.378E+03   0.280E+01 0.162E+01 -.216E+02   0.132E-01 0.764E-02 0.434E-01
   -.347E+02 -.200E+02 0.359E+03   0.372E+02 0.215E+02 -.380E+03   -.248E+01 -.143E+01 0.214E+02   -.157E-01 -.909E-02 -.304E-01
   0.285E+00 -.377E+02 -.344E+03   -.872E-02 0.412E+02 0.366E+03   -.281E+00 -.357E+01 -.226E+02   0.497E-02 0.478E-01 -.478E-02
   0.325E+02 -.179E+02 0.345E+03   -.358E+02 0.194E+02 -.367E+03   0.327E+01 -.149E+01 0.222E+02   0.884E-02 0.300E-03 -.242E-02
   -.193E+02 0.188E+02 -.347E+03   0.215E+02 -.209E+02 0.369E+03   -.221E+01 0.211E+01 -.222E+02   0.272E-01 0.878E-02 -.169E-01
   0.692E+01 -.149E+02 0.373E+03   -.744E+01 0.152E+02 -.400E+03   0.510E+00 -.349E+00 0.269E+02   0.173E-01 0.274E-01 0.116E-01
   0.888E+01 -.548E+01 -.381E+03   -.864E+01 0.542E+01 0.408E+03   -.257E+00 0.576E-01 -.268E+02   0.145E-01 -.116E-02 0.614E-01
   0.337E+00 0.306E+02 0.353E+03   -.270E+00 -.336E+02 -.376E+03   -.612E-01 0.299E+01 0.225E+02   -.700E-02 -.959E-02 -.296E-01
   0.339E+02 0.196E+02 -.340E+03   -.363E+02 -.210E+02 0.362E+03   0.234E+01 0.135E+01 -.221E+02   0.247E-01 0.143E-01 -.330E-01
   -.248E+02 -.143E+02 0.339E+03   0.273E+02 0.158E+02 -.361E+03   -.253E+01 -.146E+01 0.216E+02   0.197E-02 0.114E-02 -.111E-01
   -.859E-03 -.470E-03 -.310E-02   -.501E-12 0.126E-12 -.341E-12   0.000E+00 0.444E-15 -.711E-14   -.611E-08 -.679E-07 -.141E-06

 POSITION                                       TOTAL-FORCE (eV/Angst)
      4.19187      7.26703      7.06086        -0.008190     -0.004728      0.005033
      1.38837      0.80158     11.77500        -0.008924     -0.005152      0.003235
     -1.39244      4.04293      2.36086         0.008190      0.004728     -0.005033
      2.80885      1.62169      2.36483         0.005157      0.002978      0.004154
      1.40195      5.65627     11.77486        -0.000000      0.000000      0.000000
      4.18808      2.41799      7.05688        -0.005157     -0.002978     -0.004154
      5.61303      3.24068     11.77472         0.008924      0.005152     -0.003235
      4.19021      7.26607      0.04124         0.001098      0.000634      0.009876
      1.39855      0.80746      4.71973         0.004837      0.002793      0.003354
     -0.00474      1.62711      9.42460         0.002997      0.010714     -0.013777
     -1.38716      2.41612     14.12236        -0.002997     -0.010714      0.013777
      0.00594      3.22666      4.74214        -0.001489      0.005253     -0.005286
     -1.39078      4.04389      9.38048        -0.001098     -0.000634     -0.009876
     -2.79866      4.86090     14.12236        -0.010778      0.002761      0.013777
     -1.40016      5.66210      4.74214         0.003805     -0.003916     -0.005286
     -2.79075      6.45262      9.42460         0.010778     -0.002761     -0.013777
     -1.39252      7.25864      0.00696         0.001717      0.002703      0.007760
      4.20422      0.79744      4.71086         0.006819     -0.011810      0.000000
      2.80127      1.61731      9.41634        -0.004384     -0.002531     -0.008837
      1.39241      2.43501      0.00696         0.003199      0.000136      0.007760
      2.79271      3.24224      4.71086        -0.006819      0.011810      0.000000
      1.40401      4.03237      9.38213        -0.007569      0.003139     -0.002952
      0.00448      4.84944     14.12406        -0.002606     -0.001505      0.008955
      1.39972      5.65498      4.71086        -0.000000      0.000000      0.000000
     -0.00335      6.47000      9.38213        -0.001066     -0.008124     -0.002952
      5.59292      0.00731      0.03958         0.007569     -0.003139      0.002952
      6.99099      0.81302      4.67957         0.001489     -0.005253      0.005286
      5.60453      1.60467      9.41476        -0.003199     -0.000136     -0.007760
      4.19566      2.42237      0.00537         0.004384      0.002531      0.008837
      5.59838      3.23222      4.70199        -0.004837     -0.002793     -0.003354
      4.19195      4.05132      9.41476        -0.001717     -0.002703     -0.007760
      2.80279      4.83996      0.03958         0.001066      0.008124      0.002952
      4.19959      5.64786      4.67957        -0.003805      0.003916      0.005286
      2.79942      6.46310      9.42566         0.002606      0.001505     -0.008955
      0.02352      0.01358     10.39434        -0.005254     -0.003034      0.003898
      0.01161      0.00670      3.75201        -0.005226     -0.003017      0.011173
      1.42979      0.82549      0.97277        -0.000434     -0.000250      0.014009
      1.36992      0.79092      8.46147        -0.002955     -0.001706     -0.014389
     -0.00790      1.57890      5.67180        -0.001318      0.003540      0.000895
      0.02748      1.59821     13.17861        -0.000982      0.006108     -0.000126
      6.97392      2.44405     10.37111         0.000982     -0.006108      0.000126
     -1.38848      2.46175      3.74717         0.001318     -0.003540     -0.000895
     -0.02630      3.24806      0.96313         0.000291      0.000896      0.010604
      0.00589      3.22366      8.45506         0.000062      0.000437      0.005021
     -1.40798      4.03395      5.66696         0.005226      0.003017     -0.011173
     -1.41543      4.02965     13.15262         0.005254      0.003034     -0.003898
      5.60357      4.81757     10.37111        -0.004799      0.003905      0.000126
     -2.75979      4.83695      3.74717        -0.002406      0.002911     -0.000895
     -1.39774      5.62347      0.96313         0.000922     -0.000196      0.010604
     -1.40278      5.66355      8.45506         0.000409     -0.000164      0.005021
     -2.83408      6.47399      5.67180         0.002406     -0.002911      0.000895
     -2.79967      6.49497     13.17861         0.004799     -0.003905     -0.000126
      2.78428      0.00887     10.37306        -0.003216      0.001366      0.002934
      2.79835      0.01987      3.75998        -0.000328      0.001008     -0.006982
      4.16705      0.82248      0.97397        -0.000379     -0.002183      0.006405
      4.20111      0.84215      8.44775         0.002080     -0.000763     -0.006405
      2.82260      1.62963      5.68034        -0.003886     -0.002244      0.007784
      2.77439      1.60180     13.17265        -0.001723     -0.000995     -0.002271
      1.39983      2.40682     10.37306        -0.000425     -0.003468      0.002934
      1.41638      2.41350      3.75998         0.000709     -0.000789     -0.006982
[...]
      7.02323      0.79162      8.45859        -0.000291     -0.000896     -0.010604
      5.58055      1.62618      5.66174        -0.000709      0.000789      0.006982
      5.60157      1.63544     13.17666         0.000425      0.003468     -0.002934
      4.22701      2.44046     10.37706         0.001723      0.000995      0.002271
      4.17433      2.41005      3.74137         0.003886      0.002244     -0.007784
      5.62701      3.24876      0.96025         0.002955      0.001706      0.014389
      5.56714      3.21419      8.44895         0.000434      0.000250     -0.014009
      4.19858      4.01981      5.66174         0.000328     -0.001008      0.006982
      4.21712      4.03339     13.17666         0.003216     -0.001366     -0.002934
      2.76713      4.85737     10.37358         0.002286     -0.001380      0.002200
      2.79245      4.84246      3.75831         0.003218     -0.001539      0.009855
      4.20221      5.64641      0.96666        -0.000409      0.000164     -0.005021
      4.19717      5.68649      8.45859        -0.000922      0.000196     -0.010604
      2.82610      6.47850      5.64156        -0.002705     -0.001562      0.009403
      2.77634      6.44977     13.20961        -0.005634     -0.003253     -0.010749
    total drift:                               -0.000859     -0.000470     -0.003102

  FREE ENERGIE OF THE ION-ELECTRON SYSTEM (eV)
  free  energy   TOTEN  =      -545.4212556780 eV

  energy  without entropy=     -545.3756130660  energy(sigma->0) =     -545.39843437

 Quasi-Newton relaxation of ions (Broydens 2nd method)
  g(Force)  = 0.356E-03   g(Stress)= 0.151E-02

 Reset! Starting new Quasi-Newton update for ions

 reached required accuracy - stopping structural energy minimisation

volume of typ            1:     6.3 %

[...]

volume of typ            3:    10.2 %

total charge

# of ion       s       p       d       tot
    1        2.070   0.226   0.089   2.385
    2        2.068   0.223   0.087   2.378
    3        2.070   0.226   0.089   2.386
    4        2.070   0.228   0.090   2.388
    5        2.068   0.218   0.085   2.371
    6        2.070   0.228   0.090   2.388
    7        2.068   0.223   0.087   2.378
    8        0.290   0.400   7.830   8.520
    9        0.297   0.413   7.833   8.543
   10        0.296   0.412   7.833   8.541
   11        0.296   0.412   7.833   8.541
   12        0.292   0.402   7.827   8.521
   13        0.290   0.400   7.830   8.520
   14        0.296   0.412   7.833   8.541
   15        0.292   0.402   7.827   8.521
   16        0.296   0.412   7.833   8.541
   17        0.292   0.403   7.834   8.529
   18        0.300   0.420   7.832   8.553
   19        0.290   0.400   7.836   8.527
   20        0.292   0.403   7.834   8.529
   21        0.300   0.420   7.832   8.553
   22        0.292   0.402   7.829   8.522
   23        0.297   0.413   7.833   8.543
   24        0.291   0.402   7.823   8.516
   25        0.292   0.402   7.829   8.522
   26        0.292   0.402   7.829   8.522
   27        0.292   0.402   7.827   8.521
   28        0.292   0.403   7.834   8.529
   29        0.290   0.400   7.836   8.527
   30        0.297   0.413   7.833   8.543
   31        0.292   0.403   7.834   8.529
   32        0.292   0.402   7.829   8.522
   33        0.292   0.402   7.827   8.521
   34        0.297   0.413   7.833   8.543
   35        1.275   2.750   0.007   4.033
   36        1.289   2.712   0.008   4.008
   37        1.279   2.742   0.007   4.028
   38        1.278   2.743   0.007   4.029
   39        1.275   2.752   0.007   4.035
   40        1.275   2.754   0.007   4.036
   41        1.275   2.754   0.007   4.036
   42        1.275   2.752   0.007   4.035
   43        1.275   2.753   0.007   4.036
   44        1.286   2.723   0.008   4.016
   45        1.289   2.712   0.008   4.008
   46        1.275   2.750   0.007   4.033
   47        1.275   2.754   0.007   4.036
   48        1.275   2.752   0.007   4.035
   49        1.275   2.753   0.007   4.036
   50        1.286   2.723   0.008   4.016
   51        1.275   2.752   0.007   4.035
   52        1.275   2.754   0.007   4.036
   53        1.275   2.752   0.007   4.034
   54        1.276   2.751   0.007   4.034
   55        1.275   2.754   0.007   4.037
   56        1.275   2.754   0.007   4.037
   57        1.275   2.751   0.007   4.033
   58        1.279   2.743   0.007   4.029
   59        1.275   2.752   0.007   4.034
   60        1.276   2.751   0.007   4.034
[...]
   74        1.275   2.753   0.007   4.036
   75        1.276   2.751   0.007   4.034
   76        1.275   2.752   0.007   4.034
   77        1.279   2.743   0.007   4.029
   78        1.275   2.751   0.007   4.033
   79        1.278   2.743   0.007   4.029
   80        1.279   2.742   0.007   4.028
   81        1.276   2.751   0.007   4.034
   82        1.275   2.752   0.007   4.034
   83        1.275   2.753   0.007   4.036
   84        1.286   2.721   0.008   4.015
   85        1.286   2.723   0.008   4.016
   86        1.275   2.753   0.007   4.036
   87        1.278   2.744   0.007   4.030
   88        1.278   2.745   0.007   4.031
tot          91.44  160.69  212.46  464.59

magnetization (x)

# of ion       s       p       d       tot
    1        0.003   0.004  -0.000   0.008
    2        0.003   0.004  -0.000   0.007
    3        0.003   0.004  -0.000   0.008
    4        0.003   0.004  -0.000   0.007
    5        0.003   0.005  -0.000   0.008
    6        0.003   0.004  -0.000   0.007
    7        0.003   0.004  -0.000   0.007
    8       -0.000  -0.000   0.179   0.178
    9       -0.000  -0.000   0.135   0.135
   10       -0.000  -0.000   0.124   0.123
   11       -0.000  -0.000   0.124   0.123
   12       -0.000  -0.000   0.091   0.091
   13       -0.000  -0.000   0.179   0.178
   14       -0.000  -0.000   0.124   0.123
   15       -0.000  -0.000   0.091   0.091
   16       -0.000  -0.000   0.124   0.123
   17       -0.000  -0.000   0.139   0.139
   18       -0.000  -0.000   0.085   0.085
   19       -0.000  -0.000   0.217   0.217
   20       -0.000  -0.000   0.139   0.139
   21       -0.000  -0.000   0.085   0.085
   22       -0.000  -0.000   0.136   0.136
   23       -0.000  -0.000   0.127   0.127
   24       -0.000  -0.000   0.114   0.114
   25       -0.000  -0.000   0.136   0.136
   26       -0.000  -0.000   0.136   0.136
   27       -0.000  -0.000   0.091   0.091
   28       -0.000  -0.000   0.139   0.139
   29       -0.000  -0.000   0.217   0.217
   30       -0.000  -0.000   0.135   0.135
   31       -0.000  -0.000   0.139   0.139
   32       -0.000  -0.000   0.136   0.136
   33       -0.000  -0.000   0.091   0.091
   34       -0.000  -0.000   0.127   0.127
   35        0.003   0.008   0.000   0.011
   36        0.002   0.010   0.000   0.012
   37        0.003   0.017   0.000   0.020
   38        0.004   0.024   0.000   0.028
   39        0.003   0.008   0.000   0.011
   40        0.004   0.011   0.000   0.015
   41        0.004   0.011   0.000   0.015
   42        0.003   0.008   0.000   0.011
   43        0.003   0.010   0.000   0.013
   44        0.003   0.015   0.000   0.018
   45        0.002   0.010   0.000   0.012
   46        0.003   0.008   0.000   0.011
   47        0.004   0.011   0.000   0.015
   48        0.003   0.008   0.000   0.011
   49        0.003   0.010   0.000   0.013
   50        0.003   0.015   0.000   0.018
   51        0.003   0.008   0.000   0.011
   52        0.004   0.011   0.000   0.015
   53        0.003   0.010   0.000   0.013
   54        0.003   0.008   0.000   0.011
   55        0.004   0.019   0.000   0.023
   56        0.004   0.019   0.000   0.023
   57        0.002   0.006   0.000   0.009
   58        0.004   0.022   0.000   0.026
   59        0.003   0.010   0.000   0.013
   60        0.003   0.008   0.000   0.011
[...]
   74        0.003   0.010   0.000   0.013
   75        0.003   0.008   0.000   0.011
   76        0.003   0.010   0.000   0.013
   77        0.004   0.022   0.000   0.026
   78        0.002   0.006   0.000   0.009
   79        0.004   0.024   0.000   0.028
   80        0.003   0.017   0.000   0.020
   81        0.003   0.008   0.000   0.011
   82        0.003   0.010   0.000   0.013
   83        0.003   0.006   0.000   0.010
   84        0.002   0.009   0.000   0.011
   85        0.003   0.015   0.000   0.018
   86        0.003   0.010   0.000   0.013
   87        0.002   0.009   0.000   0.011
   88        0.005   0.027   0.000   0.032
tot           0.19    0.68    3.56    4.43