 vasp.5.4.4.18Apr17-6-g9f103f2a35 (build May 12 2020 05:39:39) gamma-only

 MD_VERSION_INFO: Compiled 2020-05-12T12:39:39-UTC in devlin.sd.materialsdesign.
 com:/home/medea2/data/build/wwolf/vasp-gpu5.4.4/13047/x86_64/src/src/build/gam
 from svn 13047

 executed on                        Lin64 date 2023.01.20  03:01:25

 INCAR:
 POTCAR:    PAW_PBE Li_sv 10Sep2004
 POTCAR:    PAW_PBE Ni 02Aug2007
 POTCAR:    PAW_PBE O 08Apr2002

 POTCAR:    PAW_PBE Li_sv 10Sep2004

 POTCAR:    PAW_PBE Ni 02Aug2007

 POTCAR:    PAW_PBE O 08Apr2002

 Optimization of the real space projectors (new method)

 maximal supplied QI-value         = 22.11
 optimisation between [QCUT,QGAM] = [ 11.28, 22.77] = [ 35.61,145.23] Ry
 Optimized for a Real-space Cutoff    1.10 Angstroem

   l    n(q)    QCUT    max X(q) W(low)/X(q) W(high)/X(q)  e(spline)
   0      7    11.276    10.506    0.54E-04    0.58E-04    0.16E-07
   0      7    11.276     8.367    0.11E-03    0.14E-03    0.35E-07
   1      7    11.276     8.983    0.23E-03    0.43E-03    0.86E-07
 Optimization of the real space projectors (new method)

[...]

   l    n(q)    QCUT    max X(q) W(low)/X(q) W(high)/X(q)  e(spline)
   2      9    11.376    60.317    0.17E-03    0.16E-04    0.16E-06
   2      9    11.376    55.921    0.17E-03    0.16E-04    0.17E-06
   0     10    11.376    51.690    0.45E-04    0.60E-04    0.21E-06
   0     10    11.376    30.015    0.37E-04    0.55E-04    0.19E-06
   1     10    11.376    18.849    0.83E-04    0.11E-03    0.92E-07
   1     10    11.376    14.624    0.69E-04    0.92E-04    0.82E-07
 Optimization of the real space projectors (new method)

 maximal supplied QI-value         = 24.76
 optimisation between [QCUT,QGAM] = [ 11.39, 22.77] = [ 36.31,145.25] Ry
 Optimized for a Real-space Cutoff    1.10 Angstroem

   l    n(q)    QCUT    max X(q) W(low)/X(q) W(high)/X(q)  e(spline)
   0      7    11.387    20.381    0.22E-03    0.48E-03    0.18E-06
   0      7    11.387    15.268    0.22E-03    0.52E-03    0.19E-06
   1      7    11.387     5.964    0.22E-03    0.73E-03    0.24E-06
   1      7    11.387     5.382    0.19E-03    0.60E-03    0.21E-06

  PAW_PBE Li_sv 10Sep2004               :
  PAW_PBE Ni 02Aug2007                  :
  PAW_PBE O 08Apr2002                   :

 POSCAR: ce425593_1
  positions in direct lattice
 exchange correlation table for  LEXCH =       14
   RHO(1)=    0.500       N(1)  =     2000
   RHO(2)=  100.500       N(2)  =     4000

 ion  position               nearest neighbor table
   1  0.999  0.500  0.998-  73 2.11  85 2.11  50 2.11  38 2.11  86 2.12  37 2.12
   2  0.110  0.834  0.220-  34 2.09  51 2.10  39 2.10  57 2.12  52 2.12  58 2.12
   3  0.557  0.167  0.113-  42 2.11  48 2.11  47 2.11  41 2.11  65 2.12  78 2.12
   4  0.222  0.167  0.445-  36 2.10  77 2.10  60 2.11  54 2.11  59 2.12  53 2.12
   5  0.333  0.500  0.666-  79 2.10  56 2.10  61 2.11  55 2.11  74 2.12  80 2.12
   6  0.446  0.833  0.891-  45 2.09  40 2.10  46 2.10  76 2.12  75 2.12  81 2.12
   7  1.000  0.003  0.999-  84 1.86  72 1.86  87 1.87  51 1.88  39 1.88  36 1.90  13 2.78  10 2.78
                            31 2.79  25 2.79  16 2.81  19 2.81
   8  0.111  0.334  0.222-  50 1.87  38 1.87  53 1.87  59 1.87  35 1.87  56 1.90  11 2.79  14 2.79
                            32 2.80  26 2.80  20 2.80  17 2.80
   9  0.223  0.668  0.111-  58 1.86  43 1.87  73 1.87  37 1.87  34 1.88  40 1.88  27 2.78  12 2.78
                            21 2.79  18 2.80  33 2.81  15 2.82
  10  0.332  0.999  0.000-  75 1.86  72 1.87  42 1.87  78 1.87  45 1.88  39 1.88  19 2.78   7 2.78
                            25 2.79  28 2.80  22 2.81  13 2.82
  11  0.444  0.336  0.222-  62 1.87  65 1.87  44 1.87  41 1.88  38 1.89  59 1.90  20 2.79   8 2.79
                            26 2.79  23 2.80  29 2.80  14 2.81
  12  0.556  0.663  0.112-  49 1.86  43 1.86  64 1.87  46 1.88  40 1.88  79 1.90  15 2.78   9 2.78
                            24 2.79  21 2.79  30 2.81  27 2.81
  13  0.668  0.999  0.000-  81 1.86  84 1.87  48 1.87  78 1.87  45 1.88  51 1.88  16 2.78   7 2.78
                            31 2.79  28 2.80  22 2.81  10 2.82
  14  0.779  0.336  0.222-  68 1.87  65 1.87  44 1.87  47 1.88  50 1.89  53 1.90  17 2.79   8 2.79
                            32 2.79  23 2.80  29 2.80  11 2.81
  15  0.888  0.668  0.111-  52 1.86  49 1.87  85 1.87  37 1.87  34 1.88  46 1.88  30 2.78  12 2.78
                            24 2.79  18 2.80  33 2.81   9 2.82
  16  0.999  0.001  0.333-  54 1.86  69 1.87  51 1.87  57 1.87  36 1.88  48 1.88  13 2.78  22 2.78
                            25 2.79  28 2.80   7 2.81  19 2.82
  17  0.110  0.333  0.556-  71 1.86  68 1.86  53 1.87  74 1.87  77 1.88  56 1.88  23 2.78  26 2.79
                            14 2.79  29 2.80   8 2.80  20 2.82
  18  0.222  0.667  0.444-  58 1.87  52 1.87  61 1.87  55 1.87  76 1.91  37 1.91  24 2.79  21 2.79
                             9 2.80  15 2.80  27 2.80  30 2.80
  19  0.335  0.001  0.333-  60 1.86  63 1.87  39 1.87  57 1.87  36 1.88  42 1.88  10 2.78  22 2.78
                            31 2.79  28 2.80   7 2.81  16 2.82
  20  0.446  0.333  0.556-  83 1.86  62 1.86  59 1.87  80 1.87  77 1.88  56 1.88  23 2.78  11 2.79
                            32 2.79  29 2.80   8 2.80  17 2.82
  21  0.555  0.667  0.444-  67 1.86  64 1.87  43 1.87  82 1.87  58 1.90  61 1.90  30 2.79   9 2.79
                            18 2.79  33 2.79  12 2.79  24 2.80
  22  0.667  0.997  0.334-  63 1.86  69 1.86  66 1.86  48 1.88  42 1.88  45 1.90  16 2.78  19 2.78
                            31 2.79  25 2.79  13 2.81  10 2.81
  23  0.778  0.333  0.556-  83 1.87  71 1.87  68 1.87  62 1.87  65 1.89  86 1.89  17 2.78  20 2.78
                            32 2.80  26 2.80  14 2.80  11 2.80
  24  0.889  0.667  0.444-  67 1.86  64 1.87  49 1.87  70 1.87  52 1.90  55 1.90  27 2.79  15 2.79
                            18 2.79  33 2.79  12 2.79  21 2.80
  25  0.000  0.000  0.667-  66 1.86  87 1.87  72 1.87  69 1.87  75 1.90  54 1.90  16 2.79  10 2.79
                            28 2.79  22 2.79   7 2.79  31 2.80
  26  0.112  0.331  0.889-  71 1.87  86 1.87  35 1.87  38 1.88  41 1.89  74 1.90  17 2.79  29 2.79
                            11 2.79  23 2.80   8 2.80  32 2.81
  27  0.221  0.666  0.778-  55 1.86  70 1.87  40 1.87  76 1.87  79 1.88  73 1.88   9 2.78  33 2.78
                            24 2.79  18 2.80  12 2.81  30 2.82
  28  0.333  0.000  0.667-  75 1.87  81 1.87  60 1.87  54 1.87  57 1.91  78 1.91  25 2.79  31 2.79
                            10 2.80  13 2.80  16 2.80  19 2.80
  29  0.445  0.333  0.889-  41 1.87  47 1.87  74 1.87  80 1.87  44 1.87  77 1.90  26 2.79  32 2.79
                            11 2.80  14 2.80  20 2.80  17 2.80
  30  0.557  0.666  0.778-  61 1.86  82 1.87  46 1.87  76 1.87  79 1.88  85 1.88  15 2.78  33 2.78
                            21 2.79  18 2.80  12 2.81  27 2.82
  31  0.666  0.000  0.667-  66 1.86  87 1.87  84 1.87  63 1.87  81 1.90  60 1.90  19 2.79  13 2.79
                            28 2.79  22 2.79   7 2.79  25 2.80
  32  0.777  0.331  0.889-  83 1.87  86 1.87  35 1.87  50 1.88  47 1.89  80 1.90  20 2.79  29 2.79
                            14 2.79  23 2.80   8 2.80  26 2.81
  33  0.888  0.670  0.777-  70 1.86  82 1.86  67 1.86  73 1.88  85 1.88  34 1.90  27 2.78  30 2.78
                            24 2.79  21 2.79   9 2.81  15 2.81
  34  0.002  0.737  0.004-  15 1.88   9 1.88  33 1.90   2 2.09
  35  0.001  0.265  0.002-  32 1.87  26 1.87   8 1.87
  36  0.113  0.070  0.226-  16 1.88  19 1.88   7 1.90   4 2.10
  37  0.108  0.599  0.217-   9 1.87  15 1.87  18 1.91   1 2.12
  38  0.217  0.402  0.107-   8 1.87  26 1.88  11 1.89   1 2.11
  39  0.219  0.933  0.112-  19 1.87   7 1.88  10 1.88   2 2.10
  40  0.336  0.734  0.999-  27 1.87  12 1.88   9 1.88   6 2.10
  41  0.338  0.265  0.004-  29 1.87  11 1.88  26 1.89   3 2.11
  42  0.448  0.067  0.221-  10 1.87  22 1.88  19 1.88   3 2.11
  43  0.444  0.599  0.223-  12 1.86   9 1.87  21 1.87
  44  0.555  0.401  0.109-  14 1.87  11 1.87  29 1.87
  45  0.554  0.930  0.107-  13 1.88  10 1.88  22 1.90   6 2.09
  46  0.662  0.734  0.999-  30 1.87  12 1.88  15 1.88   6 2.10
  47  0.665  0.265  0.004-  29 1.87  14 1.88  32 1.89   3 2.11
  48  0.773  0.067  0.221-  13 1.87  22 1.88  16 1.88   3 2.11
  49  0.780  0.599  0.223-  12 1.86  15 1.87  24 1.87
  50  0.890  0.402  0.107-   8 1.87  32 1.88  14 1.89   1 2.11
  51  0.893  0.933  0.112-  16 1.87   7 1.88  13 1.88   2 2.10
  52  0.001  0.735  0.331-  15 1.86  18 1.87  24 1.90   2 2.12
  53  0.003  0.266  0.335-  17 1.87   8 1.87  14 1.90   4 2.12
  54  0.112  0.068  0.554-  16 1.86  28 1.87  25 1.90   4 2.11
  55  0.114  0.598  0.557-  27 1.86  18 1.87  24 1.90   5 2.11
  56  0.224  0.402  0.448-  17 1.88  20 1.88   8 1.90   5 2.10
  57  0.220  0.933  0.439-  16 1.87  19 1.87  28 1.91   2 2.12
  58  0.330  0.735  0.331-   9 1.86  18 1.87  21 1.90   2 2.12
  59  0.332  0.266  0.335-  20 1.87   8 1.87  11 1.90   4 2.12
  60  0.441  0.068  0.554-  19 1.86  28 1.87  31 1.90   4 2.11
  61  0.443  0.598  0.557-  30 1.86  18 1.87  21 1.90   5 2.11
  62  0.556  0.401  0.445-  20 1.86  11 1.87  23 1.87
  63  0.555  0.932  0.446-  22 1.86  19 1.87  31 1.87
  64  0.666  0.732  0.331-  12 1.87  21 1.87  24 1.87
  65  0.665  0.267  0.329-  14 1.87  11 1.87  23 1.89   3 2.12
  66  0.777  0.065  0.554-  25 1.86  31 1.86  22 1.86
  67  0.779  0.602  0.557-  21 1.86  24 1.86  33 1.86
  68  0.889  0.401  0.445-  17 1.86  14 1.87  23 1.87
  69  0.891  0.932  0.446-  22 1.86  16 1.87  25 1.87
  70  0.001  0.734  0.666-  33 1.86  27 1.87  24 1.87
  71  1.000  0.266  0.666-  17 1.86  26 1.87  23 1.87
  72  0.112  0.068  0.888-   7 1.86  10 1.87  25 1.87
  73  0.108  0.599  0.890-   9 1.87  33 1.88  27 1.88   1 2.11
  74  0.223  0.401  0.776-  17 1.87  29 1.87  26 1.90   5 2.12
  75  0.225  0.932  0.780-  10 1.86  28 1.87  25 1.90   6 2.12
  76  0.336  0.734  0.672-  27 1.87  30 1.87  18 1.91   6 2.12
  77  0.332  0.265  0.663-  20 1.88  17 1.88  29 1.90   4 2.10
  78  0.447  0.068  0.894-  10 1.87  13 1.87  28 1.91   3 2.12
  79  0.442  0.597  0.885-  30 1.88  27 1.88  12 1.90   5 2.10
  80  0.553  0.401  0.776-  20 1.87  29 1.87  32 1.90   5 2.12
  81  0.554  0.932  0.780-  13 1.86  28 1.87  31 1.90   6 2.12
  82  0.665  0.734  0.666-  33 1.86  30 1.87  21 1.87
  83  0.666  0.266  0.666-  20 1.86  32 1.87  23 1.87
  84  0.776  0.068  0.888-   7 1.86  13 1.87  31 1.87
  85  0.782  0.599  0.890-  15 1.87  33 1.88  30 1.88   1 2.11
  86  0.891  0.399  0.782-  32 1.87  26 1.87  23 1.89   1 2.12
  87  0.890  0.935  0.780-   7 1.87  25 1.87  31 1.87

  LATTYP: Found a base centered monoclinic cell.
 ALAT       =    14.5297325357
 B/A-ratio  =     0.5771168544
 C/A-ratio  =     1.3958910854
 COS(beta)  =    -0.6216501091

  Lattice vectors:

 A1 = (   4.1952172895,   7.2633959959,   0.0071723464)
 A2 = (   8.3878940269,   0.0014667962,   0.0071723464)
 A3 = ( -12.5949054493,  -7.2716721216, -14.1367459934)

Analysis of symmetry for initial positions (statically):
 Subroutine PRICEL returns:
 Original cell was already a primitive cell.

 Routine SETGRP: Setting up the symmetry group for a
 base centered monoclinic supercell.

[...]
   -.161E+01 0.379E+02 0.346E+03   0.131E+01 -.414E+02 -.369E+03   0.317E+00 0.353E+01 0.226E+02   -.182E-01 -.182E-02 0.367E-01
   -.408E+02 0.235E+02 -.348E+03   0.439E+02 -.249E+02 0.370E+03   -.306E+01 0.139E+01 -.225E+02   -.124E-01 0.213E-02 0.456E-01
   0.963E-01 0.471E+02 0.348E+03   -.432E+00 -.505E+02 -.370E+03   0.332E+00 0.335E+01 0.225E+02   0.437E-02 0.118E-01 -.456E-01
   0.271E+02 0.156E+02 -.353E+03   -.297E+02 -.172E+02 0.376E+03   0.266E+01 0.153E+01 -.221E+02   -.929E-02 -.536E-02 -.317E-01
   -.295E+02 -.170E+02 0.356E+03   0.325E+02 0.188E+02 -.378E+03   -.299E+01 -.172E+01 0.219E+02   -.495E-02 -.286E-02 0.161E-01
   -.181E+01 -.460E+02 -.349E+03   0.219E+01 0.493E+02 0.372E+03   -.381E+00 -.332E+01 -.227E+02   -.640E-02 -.104E-01 -.508E-02
   0.320E+02 -.203E+02 0.346E+03   -.352E+02 0.218E+02 -.369E+03   0.322E+01 -.149E+01 0.226E+02   -.107E-01 -.149E-01 0.367E-01
   -.965E-01 -.471E+02 -.348E+03   0.432E+00 0.505E+02 0.370E+03   -.332E+00 -.335E+01 -.225E+02   -.437E-02 -.118E-01 0.456E-01
[...]
   -.320E+02 0.203E+02 -.346E+03   0.352E+02 -.218E+02 0.369E+03   -.322E+01 0.149E+01 -.226E+02   0.107E-01 0.149E-01 -.367E-01
   0.181E+01 0.460E+02 0.349E+03   -.219E+01 -.493E+02 -.372E+03   0.381E+00 0.332E+01 0.227E+02   0.640E-02 0.104E-01 0.508E-02
   0.295E+02 0.170E+02 -.356E+03   -.325E+02 -.188E+02 0.378E+03   0.299E+01 0.172E+01 -.219E+02   0.495E-02 0.286E-02 -.161E-01
   -.271E+02 -.156E+02 0.353E+03   0.297E+02 0.172E+02 -.376E+03   -.266E+01 -.153E+01 0.221E+02   0.929E-02 0.536E-02 0.317E-01
   0.282E+02 0.163E+02 -.354E+03   -.311E+02 -.180E+02 0.376E+03   0.297E+01 0.171E+01 -.219E+02   0.692E-02 0.400E-02 0.408E-01
   -.344E+02 -.198E+02 0.355E+03   0.369E+02 0.213E+02 -.378E+03   -.256E+01 -.148E+01 0.221E+02   -.109E-02 -.627E-03 -.423E-01
   0.161E+01 -.379E+02 -.346E+03   -.131E+01 0.414E+02 0.369E+03   -.317E+00 -.353E+01 -.226E+02   0.182E-01 0.182E-02 -.367E-01
   0.407E+02 -.214E+02 0.349E+03   -.438E+02 0.228E+02 -.372E+03   0.307E+01 -.133E+01 0.227E+02   0.122E-01 0.339E-03 0.508E-02
   0.163E+02 -.194E+01 -.379E+03   -.165E+02 0.118E+01 0.406E+03   0.208E+00 0.752E+00 -.270E+02   0.134E-01 0.180E-02 0.426E-03
   0.781E+01 -.160E+02 0.378E+03   -.831E+01 0.164E+02 -.405E+03   0.454E+00 -.398E+00 0.270E+02   0.538E-01 -.203E-01 0.531E-02
   0.164E+02 -.223E+00 -.377E+03   -.166E+02 -.486E+00 0.404E+03   0.202E+00 0.707E+00 -.269E+02   0.174E-01 0.364E-02 0.508E-01
   0.828E+01 0.249E+02 0.348E+03   -.870E+01 -.272E+02 -.370E+03   0.410E+00 0.223E+01 0.226E+02   0.912E-02 -.107E-02 -.399E-01
   0.358E+02 0.207E+02 -.345E+03   -.383E+02 -.221E+02 0.367E+03   0.245E+01 0.141E+01 -.224E+02   0.541E-01 0.312E-01 -.972E-02
   0.110E+02 0.635E+01 0.371E+03   -.108E+02 -.624E+01 -.397E+03   -.189E+00 -.109E+00 0.268E+02   0.928E-02 0.536E-02 -.238E-02
   -.105E-02 0.973E-03 0.221E-02   -.592E-12 -.423E-12 -.114E-12   -.233E-14 -.257E-14 0.711E-14   -.244E-07 -.970E-07 -.859E-07

 POSITION                                       TOTAL-FORCE (eV/Angst)
      4.18631      7.25825      7.07014        -0.010094     -0.005828      0.003907
      1.39212      0.80374     11.77657        -0.006276     -0.003623      0.001089
     -1.38050      4.04425      2.35276         0.010094      0.005828     -0.003907
      2.80075      1.61701      2.36217         0.000527      0.000304     -0.000716
      4.19773      2.42356      7.06074        -0.000527     -0.000304      0.000716
      5.61816      3.24364     11.76874         0.006276      0.003623     -0.001089
      4.18961      7.26016      0.05191         0.003423      0.001976     -0.003482
      1.40057      0.80862      4.72019        -0.000424     -0.000245     -0.001054
      0.00162      1.62723      9.42771        -0.001001     -0.005366      0.000211
     -1.37924      2.41868     14.11042         0.001001      0.005366     -0.000211
      0.00890      3.22604      4.74019         0.000409     -0.000727     -0.007346
     -1.38380      4.04235      9.37099        -0.003423     -0.001976      0.003482
     -2.78765      4.85813     14.11042         0.005147     -0.001816     -0.000211
     -1.39439      5.65662      4.74019        -0.000425      0.000717     -0.007346
     -2.78264      6.44971      9.42771        -0.005147      0.001816      0.000211
     -1.39189      7.25238      0.01497        -0.003393      0.002682      0.001452
      4.20443      0.79886      4.71145        -0.005568      0.009644     -0.000000
      2.80349      1.61860      9.41812        -0.000678     -0.000392     -0.000359
      1.39213      2.43033      0.01497         0.000626     -0.004280      0.001452
      2.79405      3.24172      4.71145         0.005568     -0.009644     -0.000000
      1.40808      4.03638      9.41768         0.000582     -0.001422     -0.000332
      0.01934      4.85245     14.08008        -0.001799     -0.001039      0.004037
      1.40290      5.65125      4.71145         0.000000      0.000000     -0.000000
      0.00697      6.46318      9.41768        -0.000940      0.001215     -0.000332
      5.59040      0.00420      0.00522        -0.000582      0.001422      0.000332
      6.98958      0.81453      4.68271        -0.000409      0.000727      0.007346
      5.60635      1.61025      9.40793        -0.000626      0.004280     -0.001452
      4.19499      2.42198      0.00478         0.000678      0.000392      0.000359
      5.59791      3.23196      4.70271         0.000424      0.000245      0.001054
      4.19769      4.05012      9.40793         0.003393     -0.002682     -0.001452
      2.79883      4.83933      0.00522         0.000940     -0.001215      0.000332
      4.20020      5.64588      4.68271         0.000425     -0.000717      0.007346
      2.79825      6.45686      9.46522         0.001799      0.001039     -0.004037
      0.03243      0.01872     10.40342        -0.003325     -0.001920     -0.007679
      0.01442      0.00833      3.74947         0.002131      0.001230      0.011684
      1.42372      0.82198      0.98967        -0.002283     -0.001318     -0.007087
      1.37028      0.79113      8.46175        -0.001619     -0.000934     -0.001116
     -0.00651      1.57915      5.67164         0.000581      0.003406     -0.000095
      0.03576      1.59784     13.17542         0.002161      0.003843     -0.000242
      6.97451      2.44955     10.36988        -0.002161     -0.003843      0.000242
     -1.38291      2.45996      3.74409        -0.000581     -0.003406      0.000095
     -0.02289      3.25160      0.95031         0.000814     -0.003753      0.002124
      0.01934      3.22623      8.46249        -0.000719      0.002078      0.006072
     -1.40383      4.03078      5.66626        -0.002131     -0.001230     -0.011684
     -1.41005      4.02720     13.13471         0.003325      0.001920      0.007679
      5.60863      4.81533     10.36988        -0.004409      0.000050      0.000242
     -2.75375      4.83432      3.74409        -0.003240      0.001200      0.000095
     -1.38816      5.61630      0.95031        -0.002843      0.002582      0.002124
     -1.38901      5.66557      8.46249         0.001440     -0.001662      0.006072
     -2.82834      6.46672      5.67164         0.003240     -0.001200     -0.000095
     -2.79103      6.49398     13.17542         0.004409     -0.000050     -0.000242
      2.78249      0.01460     10.38085        -0.000268     -0.002252     -0.002555
      2.80057      0.02166      3.75910        -0.000309      0.001461      0.000751
      4.17303      0.81789      0.96870         0.001344     -0.001648     -0.003091
      4.20365      0.83557      8.45420         0.000755     -0.001988      0.003091
      2.82393      1.63040      5.68148        -0.002693     -0.001555     -0.004540
      2.77349      1.60128     13.17408        -0.003091     -0.001785     -0.001365
      1.40389      2.40240     10.38085        -0.002084      0.000894     -0.002555
      1.41904      2.41454      3.75910         0.001111     -0.000999      0.000751
      2.79483      3.20500      0.96870        -0.000755      0.001988     -0.003091
[...]
      7.02137      0.78898      8.47259        -0.000814      0.003753     -0.002124
      5.57944      1.62604      5.66380        -0.001111      0.000999     -0.000751
      5.60638      1.64498     13.16446         0.002084     -0.000894      0.002555
      4.23678      2.44611     10.37122         0.003091      0.001785      0.001365
      4.17455      2.41018      3.74143         0.002693      0.001555      0.004540
      5.62820      3.24944      0.96115         0.001619      0.000934      0.001116
      5.57477      3.21859      8.43323         0.002283      0.001318      0.007087
      4.19791      4.01891      5.66380         0.000309     -0.001461     -0.000751
      4.22779      4.03278     13.16446         0.000268      0.002252      0.002555
      2.80416      4.83321     10.37470        -0.001646      0.000609     -0.006098
      2.79500      4.84003      3.75844         0.003630      0.002015      0.006057
      4.19482      5.63694      0.96041        -0.001440      0.001662     -0.006072
      4.19396      5.68620      8.47259         0.002843     -0.002582     -0.002124
      2.82773      6.47388      5.64606        -0.002123     -0.001226      0.006766
      2.82001      6.46942     13.20733         0.002639      0.001524     -0.000058
    total drift:                               -0.001045      0.000973      0.002207

  FREE ENERGIE OF THE ION-ELECTRON SYSTEM (eV)
  free  energy   TOTEN  =      -539.9970925542 eV

  energy  without entropy=     -539.9784311997  energy(sigma->0) =     -539.98776188

 Quasi-Newton relaxation of ions (Broydens 2nd method)
  g(Force)  = 0.136E-03   g(Stress)= 0.406E-03

 Reset! Starting new Quasi-Newton update for ions

 reached required accuracy - stopping structural energy minimisation

volume of typ            1:     5.4 %

[...]

volume of typ            3:    10.2 %

total charge

# of ion       s       p       d       tot
    1        2.069   0.226   0.088   2.383
    2        2.069   0.228   0.089   2.387
    3        2.069   0.226   0.088   2.383
    4        2.069   0.227   0.089   2.386
    5        2.069   0.227   0.089   2.386
    6        2.069   0.228   0.089   2.387
    7        0.296   0.412   7.826   8.535
    8        0.297   0.413   7.832   8.541
    9        0.297   0.414   7.832   8.543
   10        0.297   0.414   7.832   8.543
   11        0.292   0.404   7.827   8.522
   12        0.296   0.412   7.826   8.535
   13        0.297   0.414   7.832   8.543
   14        0.292   0.404   7.827   8.522
   15        0.297   0.414   7.832   8.543
   16        0.297   0.414   7.832   8.543
   17        0.301   0.422   7.831   8.554
   18        0.290   0.399   7.837   8.526
   19        0.297   0.414   7.832   8.543
   20        0.301   0.422   7.831   8.554
   21        0.292   0.404   7.822   8.518
   22        0.296   0.412   7.827   8.534
   23        0.291   0.403   7.824   8.518
   24        0.292   0.404   7.822   8.518
   25        0.292   0.404   7.822   8.518
   26        0.292   0.404   7.827   8.522
   27        0.297   0.414   7.832   8.543
   28        0.290   0.399   7.837   8.526
   29        0.297   0.413   7.832   8.541
   30        0.297   0.414   7.832   8.543
   31        0.292   0.404   7.822   8.518
   32        0.292   0.404   7.827   8.522
   33        0.296   0.412   7.827   8.534
   34        1.275   2.750   0.007   4.033
   35        1.288   2.713   0.008   4.009
   36        1.276   2.749   0.007   4.032
   37        1.278   2.744   0.007   4.029
   38        1.275   2.753   0.007   4.035
   39        1.275   2.755   0.007   4.037
   40        1.275   2.755   0.007   4.037
   41        1.275   2.753   0.007   4.035
   42        1.275   2.754   0.007   4.036
   43        1.286   2.722   0.008   4.016
   44        1.288   2.713   0.008   4.009
   45        1.275   2.750   0.007   4.033
   46        1.275   2.755   0.007   4.037
   47        1.275   2.753   0.007   4.035
   48        1.275   2.754   0.007   4.036
   49        1.286   2.722   0.008   4.016
   50        1.275   2.753   0.007   4.035
   51        1.275   2.755   0.007   4.037
   52        1.275   2.752   0.007   4.035
   53        1.276   2.752   0.007   4.035
   54        1.275   2.752   0.007   4.035
   55        1.275   2.752   0.007   4.035
   56        1.275   2.750   0.007   4.033
   57        1.278   2.745   0.007   4.030
   58        1.275   2.752   0.007   4.035
   59        1.276   2.752   0.007   4.035
   60        1.275   2.752   0.007   4.035
[...]
   73        1.275   2.754   0.007   4.036
   74        1.276   2.752   0.007   4.035
   75        1.275   2.752   0.007   4.035
   76        1.278   2.745   0.007   4.030
   77        1.275   2.750   0.007   4.033
   78        1.278   2.744   0.007   4.029
   79        1.276   2.749   0.007   4.032
   80        1.276   2.752   0.007   4.035
   81        1.275   2.752   0.007   4.035
   82        1.286   2.721   0.008   4.015
   83        1.286   2.722   0.008   4.016
   84        1.286   2.722   0.008   4.016
   85        1.275   2.754   0.007   4.036
   86        1.277   2.746   0.007   4.031
   87        1.288   2.715   0.008   4.012
tot          89.46  160.41  212.32  462.20

magnetization (x)

# of ion       s       p       d       tot
    1        0.005   0.006  -0.000   0.011
    2        0.005   0.005  -0.000   0.010
    3        0.005   0.006  -0.000   0.011
    4        0.004   0.004  -0.000   0.008
    5        0.004   0.004  -0.000   0.008
    6        0.005   0.005  -0.000   0.010
    7       -0.000  -0.000   0.137   0.137
    8       -0.000  -0.000   0.165   0.164
    9       -0.000  -0.000   0.150   0.150
   10       -0.000  -0.000   0.150   0.150
   11       -0.000  -0.000   0.171   0.171
   12       -0.000  -0.000   0.137   0.137
   13       -0.000  -0.000   0.150   0.150
   14       -0.000  -0.000   0.171   0.171
   15       -0.000  -0.000   0.150   0.150
   16       -0.000  -0.000   0.149   0.148
   17       -0.000  -0.000   0.112   0.111
   18       -0.000  -0.000   0.275   0.275
   19       -0.000  -0.000   0.149   0.148
   20       -0.000  -0.000   0.112   0.111
   21       -0.000  -0.000   0.138   0.137
   22       -0.000  -0.000   0.132   0.132
   23       -0.000  -0.000   0.165   0.165
   24       -0.000  -0.000   0.138   0.137
   25       -0.000  -0.000   0.138   0.137
   26       -0.000  -0.000   0.171   0.171
   27       -0.000  -0.000   0.149   0.148
   28       -0.000  -0.000   0.275   0.275
   29       -0.000  -0.000   0.165   0.164
   30       -0.000  -0.000   0.149   0.148
   31       -0.000  -0.000   0.138   0.137
   32       -0.000  -0.000   0.171   0.171
   33       -0.000  -0.000   0.132   0.132
   34        0.003   0.011   0.000   0.015
   35        0.004   0.033   0.000   0.037
   36        0.003   0.010   0.000   0.014
   37        0.006   0.036   0.000   0.042
   38        0.004   0.011   0.000   0.015
   39        0.004   0.011   0.000   0.014
   40        0.004   0.011   0.000   0.014
   41        0.004   0.011   0.000   0.015
   42        0.004   0.008   0.000   0.012
   43        0.003   0.010   0.000   0.013
   44        0.004   0.033   0.000   0.037
   45        0.003   0.011   0.000   0.015
   46        0.004   0.011   0.000   0.014
   47        0.004   0.011   0.000   0.015
   48        0.004   0.008   0.000   0.012
   49        0.003   0.010   0.000   0.013
   50        0.004   0.011   0.000   0.015
   51        0.004   0.011   0.000   0.014
   52        0.004   0.014   0.000   0.018
   53        0.004   0.013   0.000   0.017
   54        0.004   0.018   0.000   0.022
   55        0.004   0.018   0.000   0.022
   56        0.003   0.009   0.000   0.012
   57        0.006   0.033   0.000   0.039
   58        0.004   0.014   0.000   0.018
   59        0.004   0.013   0.000   0.017
   60        0.004   0.018   0.000   0.022
[...]
   73        0.004   0.008   0.000   0.012
   74        0.004   0.013   0.000   0.017
   75        0.004   0.014   0.000   0.018
   76        0.006   0.033   0.000   0.039
   77        0.003   0.009   0.000   0.012
   78        0.006   0.036   0.000   0.042
   79        0.003   0.010   0.000   0.014
   80        0.004   0.013   0.000   0.017
   81        0.004   0.014   0.000   0.018
   82        0.003   0.011   0.000   0.013
   83        0.003   0.011   0.000   0.014
   84        0.003   0.010   0.000   0.013
   85        0.004   0.008   0.000   0.012
   86        0.005   0.028   0.000   0.034
   87        0.004   0.031   0.000   0.034
tot           0.22    0.88    4.24    5.34