 vasp.5.4.4.18Apr17-6-g9f103f2a35 (build May 12 2020 05:39:39) gamma-only

 MD_VERSION_INFO: Compiled 2020-05-12T12:39:39-UTC in devlin.sd.materialsdesign.
 com:/home/medea2/data/build/wwolf/vasp-gpu5.4.4/13047/x86_64/src/src/build/gam
 from svn 13047

 executed on                        Lin64 date 2023.01.19  13:18:34

 INCAR:
 POTCAR:    PAW_PBE Li_sv 10Sep2004
 POTCAR:    PAW_PBE Ni 02Aug2007
 POTCAR:    PAW_PBE O 08Apr2002

 POTCAR:    PAW_PBE Li_sv 10Sep2004

 POTCAR:    PAW_PBE Ni 02Aug2007

 POTCAR:    PAW_PBE O 08Apr2002

 Optimization of the real space projectors (new method)

 maximal supplied QI-value         = 22.11
 optimisation between [QCUT,QGAM] = [ 11.28, 22.77] = [ 35.61,145.23] Ry
 Optimized for a Real-space Cutoff    1.10 Angstroem

   l    n(q)    QCUT    max X(q) W(low)/X(q) W(high)/X(q)  e(spline)
   0      7    11.276    10.506    0.54E-04    0.58E-04    0.16E-07
   0      7    11.276     8.367    0.11E-03    0.14E-03    0.35E-07
   1      7    11.276     8.983    0.23E-03    0.43E-03    0.86E-07
 Optimization of the real space projectors (new method)

[...]

   l    n(q)    QCUT    max X(q) W(low)/X(q) W(high)/X(q)  e(spline)
   2      9    11.376    60.317    0.17E-03    0.16E-04    0.16E-06
   2      9    11.376    55.921    0.17E-03    0.16E-04    0.17E-06
   0     10    11.376    51.690    0.45E-04    0.60E-04    0.21E-06
   0     10    11.376    30.015    0.37E-04    0.55E-04    0.19E-06
   1     10    11.376    18.849    0.83E-04    0.11E-03    0.92E-07
   1     10    11.376    14.624    0.69E-04    0.92E-04    0.82E-07
 Optimization of the real space projectors (new method)

 maximal supplied QI-value         = 24.76
 optimisation between [QCUT,QGAM] = [ 11.39, 22.77] = [ 36.31,145.25] Ry
 Optimized for a Real-space Cutoff    1.10 Angstroem

   l    n(q)    QCUT    max X(q) W(low)/X(q) W(high)/X(q)  e(spline)
   0      7    11.387    20.381    0.22E-03    0.48E-03    0.18E-06
   0      7    11.387    15.268    0.22E-03    0.52E-03    0.19E-06
   1      7    11.387     5.964    0.22E-03    0.73E-03    0.24E-06
   1      7    11.387     5.382    0.19E-03    0.60E-03    0.21E-06

  PAW_PBE Li_sv 10Sep2004               :
  PAW_PBE Ni 02Aug2007                  :
  PAW_PBE O 08Apr2002                   :

 POSCAR: ce379243_1
  positions in direct lattice
 exchange correlation table for  LEXCH =       14
   RHO(1)=    0.500       N(1)  =     2000
   RHO(2)=  100.500       N(2)  =     4000

 ion  position               nearest neighbor table
   1  0.999  0.500  0.999-  45 2.08  92 2.08  44 2.10  93 2.11  80 2.12  57 2.13
   2  0.125  0.832  0.208-  46 1.95  65 2.04  41 2.04  58 2.23  64 2.23  59 2.23  16 2.72  14 2.83
                            26 2.83
   3  0.223  0.167  0.110-  48 2.09  49 2.10  79 2.10  42 2.10  66 2.10  43 2.13
   4  0.334  0.499  0.999-  86 2.06  45 2.07  81 2.11  51 2.11  80 2.12  50 2.12
   5  0.680  0.499  0.030-  56 1.96  51 2.03  57 2.04  86 2.19  92 2.22  87 2.28  21 2.77  19 2.81
                            22 2.84
   6  0.770  0.834  0.216-  53 2.06  52 2.07  71 2.13  58 2.13  76 2.15  59 2.16
   7  0.117  0.834  0.563-  83 2.06  82 2.07  77 2.13  64 2.13  76 2.15  59 2.16
   8  0.334  0.500  0.335-  45 2.08  68 2.08  44 2.10  69 2.11  50 2.12  63 2.13
   9  0.761  0.835  0.572-  89 1.96  94 2.04  70 2.04  77 2.23  71 2.23  38 2.72  40 2.81  28 2.81

  10  0.304  0.499  0.653-  62 1.96  81 2.03  63 2.04  86 2.19  68 2.22  87 2.28  24 2.77  34 2.81
                            25 2.84
  11  0.443  0.834  0.890-  83 2.10  53 2.10  82 2.10  52 2.10  47 2.12  88 2.15  17 2.83
  12  0.557  0.167  0.777-  85 2.10  90 2.10  54 2.10  84 2.10  91 2.11  67 2.11  27 2.83  39 2.83
                            36 2.83  38 2.83
  13  0.680  0.498  0.653-  74 1.97  93 2.04  69 2.04  92 2.21  68 2.21  87 2.24  30 2.77
  14  0.998  0.000  1.000-  79 1.87  46 1.87  43 1.88  91 1.90  94 1.90  58 1.91  20 2.79  38 2.81
                            23 2.82  32 2.82   2 2.83  26 2.83  17 2.84
  15  0.110  0.334  0.223-  66 1.87  42 1.87  60 1.88  57 1.90  63 1.90  45 1.96  21 2.81  24 2.81
                            39 2.81  27 2.81  18 2.84  33 2.84
  16  0.224  0.668  0.110-  44 1.87  41 1.88  65 1.88  47 1.88  50 1.88  80 1.88   2 2.72  34 2.78
                            19 2.78  40 2.81  28 2.81  22 2.83  25 2.83
  17  0.334  0.999  1.000-  79 1.87  49 1.87  82 1.90  52 1.90  46 1.95  85 1.96  32 2.81  29 2.81
                            11 2.83  35 2.83  20 2.83  14 2.84  26 2.84
  18  0.445  0.334  0.223-  48 1.87  72 1.87  66 1.88  69 1.90  51 1.91  45 1.94  21 2.81  27 2.81
                            30 2.81  36 2.82  33 2.83  15 2.84
  19  0.555  0.666  0.113-  53 1.87  56 1.88  47 1.88  50 1.90  71 1.92  86 1.93  16 2.78  28 2.80
                             5 2.81  31 2.81  34 2.82  37 2.83  22 2.84
  20  0.669  0.002  0.000-  85 1.87  91 1.87  52 1.88  55 1.88  88 1.89  58 1.90  14 2.79  23 2.81
                            29 2.82  38 2.82  17 2.83  35 2.83
  21  0.778  0.330  0.222-  72 1.86  60 1.87  75 1.87  54 1.91  57 1.93  51 1.93   5 2.77  15 2.81
                            30 2.81  18 2.81  36 2.82  24 2.82  39 2.82
  22  0.890  0.667  0.110-  56 1.88  41 1.88  59 1.91  92 1.91  44 1.94  53 1.95  40 2.80  25 2.82
                            37 2.82  31 2.82  16 2.83   5 2.84  19 2.84
  23  0.999  0.005  0.334-  55 1.87  61 1.87  64 1.89  58 1.89  43 1.90  76 1.91  20 2.81  35 2.81
                            29 2.81  32 2.81  26 2.82  14 2.82
  24  0.111  0.330  0.556-  78 1.86  60 1.87  75 1.87  84 1.91  63 1.93  81 1.93  10 2.77  15 2.81
                            30 2.81  33 2.81  36 2.82  21 2.82  27 2.82
  25  0.223  0.667  0.444-  62 1.88  65 1.88  59 1.91  68 1.91  44 1.94  83 1.95  28 2.80  22 2.82
                            37 2.82  31 2.82  16 2.83  10 2.84  34 2.84
  26  0.333  0.000  0.335-  49 1.87  46 1.87  43 1.88  67 1.90  70 1.90  64 1.91  35 2.79  38 2.81
                            23 2.82  29 2.82   2 2.83  14 2.83  17 2.84
  27  0.444  0.331  0.555-  84 1.87  90 1.87  69 1.88  63 1.88  66 1.91  87 1.93  15 2.81  18 2.81
                            24 2.82  30 2.82  36 2.82  39 2.83  12 2.83
  28  0.555  0.668  0.444-  74 1.87  89 1.87  65 1.90  71 1.91  50 1.92  68 1.92  19 2.80  25 2.80
                            16 2.81   9 2.81  37 2.83  40 2.83  31 2.83
  29  0.666  0.004  0.332-  55 1.87  73 1.87  70 1.88  49 1.90  52 1.94  76 1.94  17 2.81  23 2.81
                            20 2.82  38 2.82  26 2.82  32 2.84
  30  0.778  0.330  0.555-  75 1.86  78 1.87  72 1.87  90 1.90  69 1.94  93 1.94  13 2.77  24 2.81
                            21 2.81  33 2.81  18 2.81  39 2.82  27 2.82
  31  0.889  0.662  0.444-  62 1.89  56 1.89  71 1.89  77 1.89  74 1.93  59 1.99  19 2.81  34 2.81
                            25 2.82  22 2.82  28 2.83  40 2.83
  32  0.001  0.004  0.668-  61 1.87  73 1.87  94 1.88  79 1.90  82 1.94  76 1.94  17 2.81  23 2.81
                            35 2.82  38 2.82  14 2.82  29 2.84
  33  0.111  0.334  0.888-  48 1.87  78 1.87  42 1.88  93 1.90  81 1.91  45 1.94  24 2.81  39 2.81
                            30 2.81  36 2.82  18 2.83  15 2.84
  34  0.220  0.666  0.779-  83 1.87  62 1.88  47 1.88  80 1.90  77 1.92  86 1.93  16 2.78  40 2.80
                            10 2.81  31 2.81  19 2.82  37 2.83  25 2.84
  35  0.333  0.002  0.665-  85 1.87  67 1.87  82 1.88  61 1.88  88 1.89  64 1.90  26 2.79  23 2.81
                            32 2.82  38 2.82  17 2.83  20 2.83
  36  0.445  0.331  0.889-  84 1.87  54 1.87  81 1.88  51 1.88  48 1.92  87 1.95  24 2.82  21 2.82
                            33 2.82  18 2.82  27 2.82  39 2.82  12 2.83
  37  0.555  0.668  0.779-  53 1.92  83 1.92  89 1.92  92 1.94  68 1.94  86 1.97  22 2.82  25 2.82
                            19 2.83  34 2.83  40 2.83  28 2.83
  38  0.667  0.002  0.666-  94 1.87  70 1.87  73 1.88  91 1.88  67 1.88  88 1.91   9 2.72  14 2.81
                            26 2.81  32 2.82  29 2.82  20 2.82  35 2.82  12 2.83
  39  0.779  0.331  0.889-  54 1.87  90 1.87  93 1.88  57 1.88  42 1.91  87 1.93  15 2.81  33 2.81
                            21 2.82  30 2.82  36 2.82  27 2.83  12 2.83
  40  0.890  0.668  0.779-  74 1.87  89 1.87  41 1.90  77 1.91  80 1.92  92 1.92  34 2.80  22 2.80
                            16 2.81   9 2.81  37 2.83  28 2.83  31 2.83
  41  0.003  0.736  0.003-  16 1.88  22 1.88  40 1.90   2 2.04
  42  0.008  0.266  0.004-  15 1.87  33 1.88  39 1.91   3 2.10
  43  0.113  0.069  0.221-  26 1.88  14 1.88  23 1.90   3 2.13
  44  0.117  0.597  0.217-  16 1.87  22 1.94  25 1.94   8 2.10   1 2.10
  45  0.222  0.409  0.111-  18 1.94  33 1.94  15 1.96   4 2.07   1 2.08   8 2.08
  46  0.217  0.932  0.116-  14 1.87  26 1.87  17 1.95   2 1.95
  47  0.335  0.735  0.999-  16 1.88  34 1.88  19 1.88  11 2.12
  48  0.329  0.266  0.004-  33 1.87  18 1.87  36 1.92   3 2.09
  49  0.436  0.067  0.218-  17 1.87  26 1.87  29 1.90   3 2.10
  50  0.441  0.596  0.220-  16 1.88  19 1.90  28 1.92   8 2.12   4 2.12
  51  0.554  0.402  0.106-  36 1.88  18 1.91  21 1.93   5 2.03   4 2.11
  52  0.559  0.931  0.107-  20 1.88  17 1.90  29 1.94   6 2.07  11 2.10
  53  0.661  0.737  0.004-  19 1.87  37 1.92  22 1.95   6 2.06  11 2.10
  54  0.665  0.264  0.995-  36 1.87  39 1.87  21 1.91  12 2.10
  55  0.776  0.069  0.222-  29 1.87  23 1.87  20 1.88
  56  0.777  0.598  0.217-  22 1.88  19 1.88  31 1.89   5 1.96
  57  0.885  0.402  0.107-  39 1.88  15 1.90  21 1.93   5 2.04   1 2.13
  58  0.890  0.932  0.117-  23 1.89  20 1.90  14 1.91   6 2.13   2 2.23
  59  0.002  0.739  0.331-  25 1.91  22 1.91  31 1.99   6 2.16   7 2.16   2 2.23
  60  0.000  0.266  0.333-  21 1.87  24 1.87  15 1.88
  61  0.112  0.069  0.557-  32 1.87  23 1.87  35 1.88
  62  0.116  0.598  0.556-  25 1.88  34 1.88  31 1.89  10 1.96
  63  0.226  0.402  0.448-  27 1.88  15 1.90  24 1.93  10 2.04   8 2.13
  64  0.216  0.932  0.443-  23 1.89  35 1.90  26 1.91   7 2.13   2 2.23
  65  0.331  0.736  0.331-  16 1.88  25 1.88  28 1.90   2 2.04
  66  0.329  0.266  0.325-  15 1.87  18 1.88  27 1.91   3 2.10
  67  0.446  0.069  0.558-  35 1.87  38 1.88  26 1.90  12 2.11
  68  0.443  0.595  0.554-  25 1.91  28 1.92  37 1.94   8 2.08  13 2.21  10 2.22
  69  0.553  0.402  0.447-  27 1.88  18 1.90  30 1.94  13 2.04   8 2.11
  70  0.561  0.934  0.445-  38 1.87  29 1.88  26 1.90   9 2.04
  71  0.673  0.735  0.338-  31 1.89  28 1.91  19 1.92   6 2.13   9 2.23
  72  0.664  0.266  0.331-  21 1.86  30 1.87  18 1.87
  73  0.778  0.068  0.555-  32 1.87  29 1.87  38 1.88
  74  0.773  0.598  0.561-  28 1.87  40 1.87  31 1.93  13 1.97
  75  0.889  0.395  0.445-  30 1.86  24 1.87  21 1.87
  76  0.890  0.930  0.443-  23 1.91  29 1.94  32 1.94   7 2.15   6 2.15
  77  0.996  0.735  0.660-  31 1.89  40 1.91  34 1.92   7 2.13   9 2.23
  78  0.002  0.266  0.669-  24 1.86  30 1.87  33 1.87
  79  0.115  0.067  0.897-  17 1.87  14 1.87  32 1.90   3 2.10
  80  0.113  0.596  0.893-  16 1.88  34 1.90  40 1.92   1 2.12   4 2.12
  81  0.227  0.402  0.780-  36 1.88  33 1.91  24 1.93  10 2.03   4 2.11
  82  0.226  0.931  0.775-  35 1.88  17 1.90  32 1.94   7 2.07  11 2.10
[...]
   -.162E+02 0.148E+01 -.397E+03   0.162E+02 -.197E+01 0.423E+03   0.956E-02 0.479E+00 -.268E+02   0.623E-02 0.153E-01 -.161E-01
   -.423E+02 -.301E+02 0.336E+03   0.442E+02 0.318E+02 -.355E+03   -.185E+01 -.171E+01 0.194E+02   -.193E-01 -.394E-02 -.116E-01
   -.566E+02 -.130E+02 -.269E+03   0.595E+02 0.143E+02 0.285E+03   -.286E+01 -.129E+01 -.161E+02   0.146E-01 -.814E-02 0.600E-02
   0.327E+02 0.744E+01 0.288E+03   -.342E+02 -.715E+01 -.306E+03   0.156E+01 -.298E+00 0.186E+02   0.648E-02 0.121E-01 0.295E-01
   -.207E+02 0.120E+02 -.308E+03   0.227E+02 -.131E+02 0.321E+03   -.193E+01 0.111E+01 -.133E+02   -.159E-01 0.921E-02 0.292E-01
   -.107E+02 0.618E+01 0.400E+03   0.986E+01 -.569E+01 -.426E+03   0.798E+00 -.461E+00 0.257E+02   0.306E-01 -.177E-01 -.307E-01
[...]
   0.148E+02 0.533E+02 -.265E+03   -.149E+02 -.561E+02 0.281E+03   0.563E-01 0.288E+01 -.163E+02   0.153E-01 -.162E-01 -.222E-01
   -.383E+02 0.257E+02 0.278E+03   0.408E+02 -.276E+02 -.295E+03   -.245E+01 0.198E+01 0.168E+02   -.144E-01 -.133E-01 0.151E-01
   0.374E+02 -.179E+02 -.336E+03   -.410E+02 0.195E+02 0.350E+03   0.368E+01 -.160E+01 -.141E+02   -.960E-02 0.176E-01 0.158E-01
   -.612E+00 0.540E+02 0.384E+03   0.407E+00 -.574E+02 -.406E+03   0.183E+00 0.341E+01 0.223E+02   0.189E-01 -.187E-01 -.296E-01
   -.574E+02 0.332E+02 -.360E+03   0.634E+02 -.366E+02 0.380E+03   -.597E+01 0.345E+01 -.199E+02   -.634E-02 0.366E-02 -.450E-02
   0.226E+02 -.131E+02 0.285E+03   -.256E+02 0.148E+02 -.297E+03   0.296E+01 -.171E+01 0.116E+02   -.129E-01 0.746E-02 0.126E-02
   -.473E+01 0.273E+01 -.270E+03   0.535E+01 -.309E+01 0.284E+03   -.628E+00 0.363E+00 -.144E+02   0.734E-02 -.424E-02 0.135E-01
   0.360E+02 -.208E+02 0.325E+03   -.384E+02 0.222E+02 -.346E+03   0.235E+01 -.136E+01 0.215E+02   0.571E-02 -.330E-02 0.108E-01
   -.362E+02 0.209E+02 -.367E+03   0.407E+02 -.235E+02 0.385E+03   -.452E+01 0.261E+01 -.178E+02   0.219E-01 -.127E-01 0.204E-01
   0.490E+02 -.283E+02 0.387E+03   -.522E+02 0.301E+02 -.410E+03   0.326E+01 -.188E+01 0.224E+02   -.369E-01 0.213E-01 -.258E-01
   0.533E+01 -.396E+02 -.355E+03   -.556E+01 0.427E+02 0.378E+03   0.217E+00 -.311E+01 -.230E+02   0.933E-02 0.130E-01 -.118E-01
   0.951E+00 0.158E+02 0.279E+03   -.105E+01 -.183E+02 -.292E+03   0.910E-01 0.248E+01 0.137E+02   0.650E-02 -.991E-02 0.643E-02
   0.525E+02 -.152E+02 -.269E+03   -.548E+02 0.165E+02 0.285E+03   0.238E+01 -.136E+01 -.165E+02   -.356E-01 0.161E-01 -.203E-01
   -.250E+02 -.226E+02 0.309E+03   0.273E+02 0.253E+02 -.330E+03   -.228E+01 -.264E+01 0.207E+02   0.281E-02 0.104E-01 0.220E-01
   -.692E+00 0.398E+00 0.162E+01   -.686E-12 0.572E-12 0.171E-12   0.704E+00 -.406E+00 -.165E+01   -.185E-01 0.107E-01 0.417E-01

 POSITION                                       TOTAL-FORCE (eV/Angst)
      4.20742      7.31140      7.10556         0.008294     -0.000600     -0.000121
      1.20476      0.92807     11.81982         0.008879     -0.005126     -0.013487
     -0.01636      1.63309      2.37674         0.002666     -0.001539      0.004996
      7.01259      2.44586      7.07413         0.000711     -0.000411     -0.008902
     -2.64644      4.98803      7.10139         0.013555      0.000591      0.001566
     -1.46748      5.65349     11.85773        -0.002852      0.002624      0.000176
      4.23160      0.86886     11.83684        -0.003699      0.001158      0.000176
      1.39632      2.44244      7.10556         0.004666     -0.006883     -0.000121
      1.58765      5.57794     11.86348         0.004597     -0.002654     -0.002004
      4.21843      2.22260      7.08049         0.006265     -0.012035      0.001566
      5.61000      3.25564     11.83520        -0.003841      0.002218     -0.001473
      4.21091      4.06341      2.36328         0.003304     -0.001908      0.003173
      2.62799      4.97730      7.08347         0.008965     -0.005176      0.003968
      4.22597      7.29148      0.00314         0.001785      0.003862     -0.007254
      1.40296      0.81364      4.74945        -0.005014      0.002895      0.011886
     -0.04303      1.64848      9.49170        -0.000935      0.000540     -0.011472
      7.00169      2.45215     14.18236        -0.003177      0.001835     -0.005385
     -0.01393      3.26863      4.75102         0.001146      0.005517      0.007246
     -1.41444      4.07053      9.46596         0.004776     -0.005399     -0.005191
     -2.84130      4.89480      0.03969        -0.008047     -0.001115      0.000095
     -1.43060      5.69827      4.70323        -0.002269      0.002317      0.009626
     -2.85956      6.52259      9.50187        -0.004367      0.001459      0.002948
     -1.40336      7.30480      0.07972         0.001183     -0.000683     -0.003888
      4.21126      0.81453      4.68233        -0.003141      0.000806      0.009626
      2.78290      1.63989      9.48097        -0.003448      0.003052      0.002948
      1.42284      2.43633      0.00314        -0.002452     -0.003477     -0.007254
      2.80333      3.25602      4.70123        -0.000380      0.000214      0.011772
      1.38283      4.06222      9.48526         0.002294      0.001776     -0.004032
     -0.01891      4.85902      0.05225        -0.002211     -0.002263     -0.007381
      1.39319      5.69022      4.69863        -0.001647      0.000951      0.013833
     -0.04207      6.51886      9.40738         0.001857     -0.001072     -0.001296
      5.64392      0.01160      0.03135         0.000854      0.003046     -0.007381
      7.02372      0.80248      4.73012        -0.004205     -0.003751      0.007246
      5.62901      1.61441      9.44506         0.007064     -0.001437     -0.005191
      4.20173      2.43797      0.01879        -0.003058      0.007527      0.000095
      5.61842      3.25078      4.68734         0.006333     -0.003656      0.008643
      4.20690      4.06572      9.49851         0.006306     -0.003641      0.002817
      2.80001      4.87799      0.02103        -0.001895      0.001094     -0.004245
      4.20634      5.68610      4.70123        -0.000376      0.000222      0.011772
      2.79789      6.51318      9.48526        -0.000392     -0.002875     -0.004032
     -0.00312      0.03530     10.44179        -0.006134     -0.000259     -0.004147
     -0.01508      0.05916      3.78820        -0.007456     -0.002382      0.006217
      1.38261      0.82540      0.97556         0.003370     -0.001946     -0.005016
      1.29946      0.87340      8.45816        -0.005712      0.003298     -0.006591
     -0.01306      1.63118      5.80922         0.000998     -0.000576      0.005115
      0.06030      1.58883     13.24066         0.003418     -0.001973     -0.014842
      7.00082      2.45265     10.42002         0.008604     -0.004967     -0.008264
     -1.37190      2.41571      3.79038        -0.000527      0.000304      0.004308
     -0.00601      3.17555      0.95298         0.000907     -0.005284     -0.006373
     -0.02193      3.23021      8.47614         0.003865      0.004058     -0.011492
     -1.46001      4.06015      5.71431         0.005561     -0.001823      0.005744
     -1.51430      4.10013     13.25121        -0.011037      0.001506     -0.004778
     -2.78420      4.82379     10.48788         0.002651     -0.011306      0.001125
      5.58142      4.86182      3.74709        -0.000559      0.003065      0.003250
     -1.41350      5.67131      0.98178         0.004400     -0.004110     -0.001092
     -1.48648      5.70097      8.52608        -0.003637      0.005757     -0.000572
     -2.87339      6.47974      5.73180        -0.003543     -0.001624      0.012626
     -2.81631      6.53382     13.27075        -0.000311      0.000647     -0.003436
      2.72820      0.04852     10.51288        -0.009734      0.005620      0.009413
      2.79080      0.01238      3.78249        -0.013804      0.007970      0.006743
[...]
      7.05300      0.82862      8.45525        -0.001582     -0.005376     -0.011492
      5.61521      1.65907      5.69341         0.004359     -0.003905      0.005744
      5.55344      1.68609     13.23031        -0.006823      0.008805     -0.004778
      4.29178      2.42403     10.46699         0.011117      0.003357      0.001125
      4.20472      2.47730      3.74709        -0.002933     -0.001048      0.003250
      5.53738      3.29757      0.97994        -0.009098      0.005253      0.004398
      5.65566      3.22928      8.39468         0.008887     -0.005131     -0.008341
      4.20361      4.06762      5.75801         0.006384     -0.003686      0.010391
      4.19150      4.07461     13.25916        -0.009995      0.005771     -0.000883
      2.74579      4.90929     10.44271         0.002319     -0.001339      0.005142
      2.83280      4.85906      3.75031        -0.001564      0.000903      0.003215
      4.20872      5.66451      0.97151        -0.003518      0.006251     -0.002999
      4.20433      5.71067      8.45675         0.000630     -0.012801      0.004137
      2.82722      6.47065      5.71415        -0.000973     -0.006947      0.008892
      2.72707      6.50855     13.28037        -0.001346      0.007454     -0.010480
    total drift:                               -0.006737      0.002103      0.004743

  FREE ENERGIE OF THE ION-ELECTRON SYSTEM (eV)
  free  energy   TOTEN  =      -575.6088673613 eV

  energy  without entropy=     -575.5454480516  energy(sigma->0) =     -575.57715771

 d Force = 0.1935468E-03[ 0.182E-03, 0.205E-03]  d Energy = 0.1487945E-03 0.448E-04
 d Force =-0.1830611E+00[-0.184E+00,-0.182E+00]  d Ewald  = 0.1532592E+01-0.172E+01

 Quasi-Newton relaxation of ions (Broydens 2nd method)
  g(Force)  = 0.428E-03   g(Stress)= 0.226E-03

 retain information from N=  2 steps
 eigenvalues of (default step * inverse Hessian matrix)
  average eigenvalue of G=   1.4171
 eigenvalue spectrum of G is  1.4171  1.4171

 reached required accuracy - stopping structural energy minimisation

volume of typ            1:    11.5 %

[...]

volume of typ            3:    10.0 %

total charge

# of ion       s       p       d       tot
    1        2.080   0.257   0.098   2.436
    2        2.081   0.260   0.101   2.442
    3        2.068   0.233   0.087   2.389
    4        2.081   0.259   0.099   2.439
    5        2.079   0.255   0.097   2.431
    6        2.071   0.235   0.088   2.395
    7        2.071   0.235   0.088   2.395
    8        2.080   0.257   0.098   2.436
    9        2.076   0.248   0.094   2.418
   10        2.079   0.255   0.097   2.431
   11        2.076   0.246   0.094   2.417
   12        2.072   0.237   0.093   2.402
   13        2.082   0.264   0.101   2.446
   14        0.287   0.391   7.831   8.509
   15        0.283   0.381   7.842   8.506
   16        0.296   0.414   7.840   8.550
   17        0.273   0.360   7.844   8.477
   18        0.283   0.382   7.841   8.507
   19        0.283   0.386   7.846   8.515
   20        0.296   0.412   7.832   8.540
   21        0.283   0.381   7.830   8.494
   22        0.274   0.366   7.852   8.492
   23        0.286   0.391   7.832   8.509
   24        0.283   0.381   7.830   8.494
   25        0.274   0.366   7.852   8.492
   26        0.287   0.391   7.831   8.509
   27        0.288   0.396   7.842   8.526
   28        0.282   0.382   7.841   8.504
   29        0.280   0.376   7.834   8.489
   30        0.284   0.383   7.829   8.496
   31        0.270   0.356   7.848   8.474
   32        0.280   0.376   7.834   8.489
   33        0.283   0.382   7.841   8.507
   34        0.283   0.386   7.846   8.515
   35        0.296   0.412   7.832   8.540
   36        0.285   0.388   7.844   8.517
   37        0.256   0.329   7.855   8.440
   38        0.295   0.409   7.831   8.535
   39        0.288   0.396   7.842   8.526
   40        0.282   0.382   7.841   8.504
   41        1.271   2.762   0.007   4.040
   42        1.277   2.747   0.007   4.031
   43        1.280   2.737   0.007   4.024
   44        1.269   2.773   0.006   4.047
   45        1.259   2.792   0.005   4.056
   46        1.275   2.758   0.007   4.039
   47        1.272   2.756   0.007   4.036
   48        1.277   2.746   0.007   4.031
   49        1.275   2.749   0.007   4.032
   50        1.265   2.777   0.006   4.049
   51        1.264   2.782   0.006   4.052
   52        1.263   2.782   0.006   4.052
   53        1.266   2.777   0.006   4.049
   54        1.273   2.755   0.007   4.035
   55        1.284   2.722   0.008   4.014
   56        1.268   2.773   0.007   4.048
   57        1.264   2.781   0.006   4.052
   58        1.267   2.772   0.007   4.045
   59        1.261   2.782   0.005   4.048
   60        1.287   2.716   0.008   4.011
[...]
   80        1.265   2.777   0.006   4.049
   81        1.264   2.782   0.006   4.052
   82        1.263   2.782   0.006   4.052
   83        1.266   2.777   0.006   4.049
   84        1.273   2.755   0.007   4.035
   85        1.278   2.744   0.007   4.029
   86        1.263   2.781   0.005   4.048
   87        1.269   2.763   0.005   4.037
   88        1.275   2.747   0.007   4.029
   89        1.273   2.762   0.007   4.042
   90        1.274   2.753   0.007   4.034
   91        1.274   2.752   0.007   4.034
   92        1.261   2.784   0.006   4.051
   93        1.264   2.782   0.006   4.052
   94        1.272   2.760   0.007   4.039
tot         103.29  162.65  213.26  479.21

magnetization (x)

# of ion       s       p       d       tot
    1        0.006   0.011   0.001   0.018
    2        0.007   0.011   0.001   0.019
    3        0.005   0.016   0.001   0.022
    4        0.006   0.010   0.000   0.016
    5        0.006   0.010   0.000   0.016
    6        0.005   0.009   0.001   0.015
    7        0.005   0.009   0.001   0.015
    8        0.006   0.011   0.001   0.018
    9        0.006   0.013   0.001   0.019
   10        0.006   0.010   0.000   0.016
   11        0.006   0.011   0.001   0.017
   12        0.005   0.007   0.000   0.013
   13        0.006   0.014   0.001   0.021
   14       -0.000  -0.000   0.236   0.235
   15       -0.000  -0.000   0.366   0.365
   16       -0.000  -0.000   0.171   0.170
   17        0.001  -0.001   0.610   0.611
   18       -0.000  -0.000   0.356   0.355
   19       -0.000  -0.001   0.331   0.330
   20       -0.000  -0.000   0.118   0.117
   21       -0.000  -0.000   0.251   0.251
   22       -0.000  -0.001   0.537   0.536
   23       -0.000  -0.000   0.277   0.277
   24       -0.000  -0.000   0.251   0.251
   25       -0.000  -0.001   0.537   0.536
   26       -0.000  -0.000   0.236   0.235
   27       -0.000  -0.001   0.305   0.304
   28       -0.001  -0.001   0.314   0.312
   29       -0.000  -0.000   0.361   0.360
   30       -0.001  -0.000   0.237   0.236
   31        0.001  -0.000   0.634   0.635
   32       -0.000  -0.000   0.361   0.360
   33       -0.000  -0.000   0.356   0.355
   34       -0.000  -0.001   0.331   0.330
   35       -0.000  -0.000   0.118   0.117
   36       -0.000  -0.001   0.374   0.374
   37        0.000  -0.000   0.903   0.903
   38       -0.000  -0.000   0.117   0.116
   39       -0.000  -0.001   0.305   0.304
   40       -0.001  -0.001   0.314   0.312
   41        0.004   0.013   0.000   0.017
   42        0.009   0.052   0.000   0.061
   43        0.009   0.060   0.000   0.069
   44        0.014   0.097   0.000   0.111
   45        0.007   0.036   0.000   0.044
   46        0.011   0.091   0.000   0.102
   47        0.003   0.004   0.000   0.008
   48        0.010   0.066   0.000   0.076
   49        0.007   0.043   0.000   0.050
   50        0.005   0.007   0.000   0.012
   51        0.006   0.026   0.000   0.032
   52        0.005   0.025   0.000   0.030
   53        0.013   0.081   0.000   0.094
   54        0.004   0.019   0.000   0.023
   55        0.002   0.004   0.000   0.007
   56        0.006   0.019   0.000   0.025
   57        0.006   0.028   0.000   0.034
   58        0.004   0.007   0.000   0.010
   59        0.011   0.078   0.000   0.090
   60        0.006   0.042   0.000   0.048
[...]
   80        0.005   0.007   0.000   0.012
   81        0.006   0.026   0.000   0.032
   82        0.005   0.025   0.000   0.030
   83        0.013   0.081   0.000   0.094
   84        0.004   0.019   0.000   0.023
   85        0.009   0.087   0.000   0.097
   86        0.013   0.088   0.000   0.101
   87        0.012   0.074   0.000   0.086
   88        0.002   0.006   0.000   0.008
   89        0.011   0.082   0.000   0.093
   90        0.004   0.014   0.000   0.018
   91        0.002  -0.003   0.000  -0.000
   92        0.010   0.046   0.000   0.056
   93        0.005   0.021   0.000   0.026
   94        0.004   0.013   0.000   0.017
tot           0.44    2.26    9.32   12.03