 vasp.5.4.4.18Apr17-6-g9f103f2a35 (build May 12 2020 05:39:39) gamma-only

 MD_VERSION_INFO: Compiled 2020-05-12T12:39:39-UTC in devlin.sd.materialsdesign.
 com:/home/medea2/data/build/wwolf/vasp-gpu5.4.4/13047/x86_64/src/src/build/gam
 from svn 13047

 executed on                        Lin64 date 2023.01.20  06:43:56

 INCAR:
 POTCAR:    PAW_PBE Li_sv 10Sep2004
 POTCAR:    PAW_PBE Ni 02Aug2007
 POTCAR:    PAW_PBE O 08Apr2002

 POTCAR:    PAW_PBE Li_sv 10Sep2004

 POTCAR:    PAW_PBE Ni 02Aug2007

 POTCAR:    PAW_PBE O 08Apr2002

 Optimization of the real space projectors (new method)

 maximal supplied QI-value         = 22.11
 optimisation between [QCUT,QGAM] = [ 11.28, 22.77] = [ 35.61,145.23] Ry
 Optimized for a Real-space Cutoff    1.10 Angstroem

   l    n(q)    QCUT    max X(q) W(low)/X(q) W(high)/X(q)  e(spline)
   0      7    11.276    10.506    0.54E-04    0.58E-04    0.16E-07
   0      7    11.276     8.367    0.11E-03    0.14E-03    0.35E-07
   1      7    11.276     8.983    0.23E-03    0.43E-03    0.86E-07
 Optimization of the real space projectors (new method)

[...]

   l    n(q)    QCUT    max X(q) W(low)/X(q) W(high)/X(q)  e(spline)
   2      9    11.376    60.317    0.17E-03    0.16E-04    0.16E-06
   2      9    11.376    55.921    0.17E-03    0.16E-04    0.17E-06
   0     10    11.376    51.690    0.45E-04    0.60E-04    0.21E-06
   0     10    11.376    30.015    0.37E-04    0.55E-04    0.19E-06
   1     10    11.376    18.849    0.83E-04    0.11E-03    0.92E-07
   1     10    11.376    14.624    0.69E-04    0.92E-04    0.82E-07
 Optimization of the real space projectors (new method)

 maximal supplied QI-value         = 24.76
 optimisation between [QCUT,QGAM] = [ 11.39, 22.77] = [ 36.31,145.25] Ry
 Optimized for a Real-space Cutoff    1.10 Angstroem

   l    n(q)    QCUT    max X(q) W(low)/X(q) W(high)/X(q)  e(spline)
   0      7    11.387    20.381    0.22E-03    0.48E-03    0.18E-06
   0      7    11.387    15.268    0.22E-03    0.52E-03    0.19E-06
   1      7    11.387     5.964    0.22E-03    0.73E-03    0.24E-06
   1      7    11.387     5.382    0.19E-03    0.60E-03    0.21E-06

  PAW_PBE Li_sv 10Sep2004               :
  PAW_PBE Ni 02Aug2007                  :
  PAW_PBE O 08Apr2002                   :

 POSCAR: ce425580_1
  positions in direct lattice
 exchange correlation table for  LEXCH =       14
   RHO(1)=    0.500       N(1)  =     2000
   RHO(2)=  100.500       N(2)  =     4000

 ion  position               nearest neighbor table
   1  0.000  0.499  0.001-  37 2.10  50 2.10  38 2.10  85 2.12  73 2.12  86 2.14   8 2.84
   2  0.111  0.833  0.222-  51 2.10  39 2.10  57 2.11  34 2.11  58 2.11  52 2.11
   3  0.555  0.166  0.109-  47 2.10  41 2.10  48 2.11  42 2.11  65 2.12  78 2.13
   4  0.223  0.167  0.446-  60 2.10  54 2.10  53 2.11  59 2.11  36 2.12  77 2.13
   5  0.667  0.500  0.333-  68 2.10  62 2.10  44 2.11  67 2.11  49 2.11  43 2.11
   6  0.778  0.834  0.555-  64 2.10  63 2.10  69 2.10  70 2.12  82 2.12  87 2.14  22 2.84
   7  1.000  0.002  0.999-  84 1.87  72 1.87  51 1.88  39 1.88  87 1.90  36 1.90  13 2.79  10 2.79
                            31 2.79  25 2.79  19 2.81  16 2.81
   8  0.111  0.333  0.222-  59 1.86  53 1.86  50 1.86  38 1.86  35 1.88  56 1.88  14 2.78  11 2.78
                            20 2.80  17 2.80  32 2.80  26 2.80   1 2.84
   9  0.224  0.666  0.111-  73 1.86  40 1.87  58 1.87  34 1.87  37 1.88  43 1.88  21 2.78  12 2.78
                            27 2.79  33 2.80  18 2.81  15 2.82
  10  0.332  0.997  1.000-  75 1.86  78 1.87  72 1.87  42 1.88  45 1.88  39 1.88  25 2.79   7 2.79
                            19 2.79  28 2.79  22 2.80  13 2.81
  11  0.443  0.333  0.222-  62 1.87  41 1.87  44 1.87  65 1.88  59 1.89  38 1.90   8 2.78  20 2.79
                            26 2.79  23 2.81  29 2.81  14 2.82
  12  0.555  0.670  0.110-  46 1.86  40 1.86  79 1.86  49 1.88  43 1.88  64 1.90  15 2.78   9 2.78
                            30 2.79  27 2.79  24 2.81  21 2.81
  13  0.667  0.997  1.000-  81 1.86  78 1.87  84 1.87  48 1.88  45 1.88  51 1.88  31 2.79   7 2.79
                            16 2.79  28 2.79  22 2.80  10 2.81
  14  0.779  0.333  0.222-  68 1.87  47 1.87  44 1.87  65 1.88  53 1.89  50 1.90   8 2.78  17 2.79
                            32 2.79  23 2.81  29 2.81  11 2.82
  15  0.888  0.666  0.111-  85 1.86  46 1.87  52 1.87  34 1.87  37 1.88  49 1.88  24 2.78  12 2.78
                            30 2.79  33 2.80  18 2.81   9 2.82
  16  0.999  0.000  0.333-  51 1.87  54 1.87  57 1.87  36 1.88  48 1.89  69 1.90  22 2.78  13 2.79
                            25 2.79   7 2.81  28 2.81  19 2.82
  17  0.110  0.336  0.556-  74 1.86  77 1.87  71 1.87  53 1.88  56 1.88  68 1.88  26 2.79  23 2.79
                            14 2.79  29 2.79   8 2.80  20 2.81
  18  0.223  0.664  0.445-  61 1.86  55 1.86  76 1.86  52 1.88  58 1.88  37 1.90  24 2.78  21 2.78
                            30 2.79  27 2.79  15 2.81   9 2.81
  19  0.335  0.000  0.333-  39 1.87  60 1.87  57 1.87  36 1.88  42 1.89  63 1.90  22 2.78  10 2.79
                            31 2.79   7 2.81  28 2.81  16 2.82
  20  0.445  0.336  0.556-  80 1.86  77 1.87  83 1.87  59 1.88  56 1.88  62 1.88  32 2.79  23 2.79
                            11 2.79  29 2.79   8 2.80  17 2.81
  21  0.554  0.668  0.444-  82 1.86  61 1.87  43 1.87  67 1.87  64 1.88  58 1.88   9 2.78  18 2.78
                            30 2.79  33 2.80  12 2.81  24 2.82
  22  0.667  0.000  0.333-  48 1.86  42 1.86  69 1.86  63 1.86  66 1.88  45 1.88  16 2.78  19 2.78
                            13 2.80  10 2.80  25 2.80  31 2.80   6 2.84
  23  0.778  0.331  0.556-  71 1.87  83 1.87  68 1.88  62 1.88  86 1.90  65 1.90  17 2.79  20 2.79
                            26 2.79  32 2.79  11 2.81  14 2.81
  24  0.890  0.668  0.444-  70 1.86  55 1.87  49 1.87  67 1.87  64 1.88  52 1.88  15 2.78  18 2.78
                            27 2.79  33 2.80  12 2.81  21 2.82
  25  0.001  0.003  0.667-  72 1.86  87 1.87  75 1.87  66 1.88  69 1.88  54 1.88  10 2.79  28 2.79
                            16 2.79   7 2.79  22 2.80  31 2.81
  26  0.112  0.330  0.889-  71 1.86  86 1.87  74 1.87  35 1.88  38 1.88  41 1.88  17 2.79  29 2.79
                            11 2.79  23 2.79   8 2.80  32 2.81
  27  0.222  0.667  0.778-  79 1.87  76 1.87  40 1.87  55 1.87  70 1.90  73 1.90   9 2.79  24 2.79
                            33 2.79  12 2.79  18 2.79  30 2.80
  28  0.334  0.998  0.667-  75 1.87  81 1.87  54 1.88  60 1.88  78 1.90  57 1.90  25 2.79  31 2.79
                            10 2.79  13 2.79  16 2.81  19 2.81
  29  0.444  0.336  0.888-  74 1.87  80 1.87  41 1.88  47 1.88  77 1.90  44 1.90  26 2.79  32 2.79
                            17 2.79  20 2.79  11 2.81  14 2.81
  30  0.556  0.667  0.778-  76 1.87  79 1.87  46 1.87  61 1.87  82 1.90  85 1.90  15 2.79  21 2.79
                            33 2.79  12 2.79  18 2.79  27 2.80
  31  0.666  0.003  0.667-  84 1.86  87 1.87  81 1.87  66 1.88  63 1.88  60 1.88  13 2.79  28 2.79
                            19 2.79   7 2.79  22 2.80  25 2.81
  32  0.777  0.330  0.889-  83 1.86  86 1.87  80 1.87  35 1.88  50 1.88  47 1.88  20 2.79  29 2.79
                            14 2.79  23 2.79   8 2.80  26 2.81
  33  0.889  0.667  0.778-  82 1.87  70 1.87  73 1.87  85 1.87  34 1.91  67 1.91  30 2.79  27 2.79
                             9 2.80  15 2.80  21 2.80  24 2.80
  34  0.003  0.734  0.005-  15 1.87   9 1.87  33 1.91   2 2.11
  35  0.001  0.264  0.002-  32 1.88  26 1.88   8 1.88
  36  0.113  0.069  0.227-  19 1.88  16 1.88   7 1.90   4 2.12
  37  0.109  0.597  0.218-  15 1.88   9 1.88  18 1.90   1 2.10
  38  0.217  0.401  0.107-   8 1.86  26 1.88  11 1.90   1 2.10
  39  0.219  0.932  0.113-  19 1.87   7 1.88  10 1.88   2 2.10
  40  0.331  0.734  0.999-  12 1.86   9 1.87  27 1.87
  41  0.338  0.265  0.002-  11 1.87  29 1.88  26 1.88   3 2.10
  42  0.446  0.067  0.219-  22 1.86  10 1.88  19 1.89   3 2.11
  43  0.449  0.600  0.224-  21 1.87  12 1.88   9 1.88   5 2.11
  44  0.558  0.402  0.116-  14 1.87  11 1.87  29 1.90   5 2.11
  45  0.557  0.931  0.113-  10 1.88  13 1.88  22 1.88
  46  0.667  0.734  0.999-  12 1.86  15 1.87  30 1.87
  47  0.664  0.265  0.002-  14 1.87  29 1.88  32 1.88   3 2.10
  48  0.773  0.067  0.219-  22 1.86  13 1.88  16 1.89   3 2.11
  49  0.775  0.600  0.224-  24 1.87  12 1.88  15 1.88   5 2.11
  50  0.890  0.401  0.107-   8 1.86  32 1.88  14 1.90   1 2.10
  51  0.894  0.932  0.113-  16 1.87   7 1.88  13 1.88   2 2.10
  52  0.003  0.734  0.332-  15 1.87  18 1.88  24 1.88   2 2.11
  53  0.005  0.266  0.337-   8 1.86  17 1.88  14 1.89   4 2.11
  54  0.114  0.068  0.553-  16 1.87  28 1.88  25 1.88   4 2.10
  55  0.110  0.599  0.557-  18 1.86  24 1.87  27 1.87
  56  0.221  0.403  0.442-  20 1.88  17 1.88   8 1.88
  57  0.220  0.931  0.440-  19 1.87  16 1.87  28 1.90   2 2.11
  58  0.329  0.734  0.332-   9 1.87  18 1.88  21 1.88   2 2.11
  59  0.332  0.266  0.337-   8 1.86  20 1.88  11 1.89   4 2.11
  60  0.439  0.068  0.553-  19 1.87  28 1.88  31 1.88   4 2.10
  61  0.446  0.599  0.557-  18 1.86  21 1.87  30 1.87
  62  0.558  0.401  0.442-  11 1.87  23 1.88  20 1.88   5 2.10
  63  0.561  0.933  0.448-  22 1.86  31 1.88  19 1.90   6 2.10
  64  0.669  0.737  0.337-  24 1.88  21 1.88  12 1.90   6 2.10
  65  0.664  0.265  0.329-  14 1.88  11 1.88  23 1.90   3 2.12
  66  0.777  0.069  0.553-  25 1.88  31 1.88  22 1.88
  67  0.775  0.599  0.550-  21 1.87  24 1.87  33 1.91   5 2.11
  68  0.884  0.401  0.442-  14 1.87  23 1.88  17 1.88   5 2.10
  69  0.888  0.933  0.448-  22 1.86  25 1.88  16 1.90   6 2.10
  70  0.997  0.735  0.665-  24 1.86  33 1.87  27 1.90   6 2.12
  71  0.002  0.266  0.666-  26 1.86  23 1.87  17 1.87
  72  0.114  0.068  0.890-  25 1.86   7 1.87  10 1.87
  73  0.110  0.598  0.891-   9 1.86  33 1.87  27 1.90   1 2.12
  74  0.220  0.401  0.779-  17 1.86  29 1.87  26 1.87
  75  0.220  0.932  0.777-  10 1.86  28 1.87  25 1.87
  76  0.332  0.732  0.665-  18 1.86  30 1.87  27 1.87
  77  0.331  0.268  0.662-  20 1.87  17 1.87  29 1.90   4 2.13
  78  0.447  0.065  0.893-  10 1.87  13 1.87  28 1.90   3 2.13
  79  0.445  0.601  0.891-  12 1.86  27 1.87  30 1.87
  80  0.558  0.401  0.779-  20 1.86  29 1.87  32 1.87
  81  0.557  0.932  0.777-  13 1.86  28 1.87  31 1.87
  82  0.668  0.735  0.665-  21 1.86  33 1.87  30 1.90   6 2.12
  83  0.664  0.266  0.666-  32 1.86  23 1.87  20 1.87
  84  0.776  0.068  0.890-  31 1.86   7 1.87  13 1.87
  85  0.781  0.598  0.891-  15 1.86  33 1.87  30 1.90   1 2.12
  86  0.891  0.398  0.782-  32 1.87  26 1.87  23 1.90   1 2.14
  87  0.887  0.935  0.774-  25 1.87  31 1.87   7 1.90   6 2.14

  LATTYP: Found a base centered monoclinic cell.
 ALAT       =    14.5327001840
 B/A-ratio  =     0.5769245081
 C/A-ratio  =     1.3955610710
 COS(beta)  =    -0.6223821052

  Lattice vectors:

 A1 = (   4.1967695293,   7.2636670549,   0.0104601754)
 A2 = (   8.3889049984,   0.0026754680,   0.0104601754)
 A3 = ( -12.6027754114,  -7.2762157344, -14.1264530230)

Analysis of symmetry for initial positions (statically):
 Subroutine PRICEL returns:
 Original cell was already a primitive cell.

 Routine SETGRP: Setting up the symmetry group for a
[...]
   -.973E+01 -.137E+02 0.376E+03   0.105E+02 0.135E+02 -.403E+03   -.759E+00 0.185E+00 0.269E+02   0.689E-02 -.122E-01 -.172E-02
   -.112E+02 -.649E+01 -.383E+03   0.110E+02 0.637E+01 0.410E+03   0.202E+00 0.117E+00 -.266E+02   -.391E-02 -.226E-02 -.324E-02
   -.371E+02 -.214E+02 0.358E+03   0.397E+02 0.229E+02 -.380E+03   -.261E+01 -.151E+01 0.218E+02   0.723E-02 0.417E-02 0.106E-01
   -.674E+01 -.253E+02 -.347E+03   0.718E+01 0.275E+02 0.369E+03   -.441E+00 -.219E+01 -.226E+02   -.834E-02 0.212E-02 -.611E-03
   0.195E+02 -.212E+02 0.347E+03   -.216E+02 0.233E+02 -.369E+03   0.213E+01 -.208E+01 0.226E+02   -.353E-02 -.453E-02 0.428E-02
   -.906E+01 -.337E+02 -.349E+03   0.947E+01 0.359E+02 0.371E+03   -.415E+00 -.219E+01 -.225E+02   0.440E-02 -.425E-02 -.990E-02
[...]
   0.258E+01 -.379E+01 -.378E+03   -.171E+01 0.359E+01 0.404E+03   -.877E+00 0.189E+00 -.269E+02   0.365E-02 0.104E-01 -.554E-02
   0.199E+01 -.413E+01 0.378E+03   -.226E+01 0.327E+01 -.404E+03   0.275E+00 0.854E+00 0.269E+02   -.108E-01 0.202E-02 0.554E-02
   -.922E+01 -.532E+01 -.371E+03   0.898E+01 0.519E+01 0.398E+03   0.238E+00 0.137E+00 -.270E+02   0.106E-02 0.615E-03 0.868E-02
   -.301E+02 -.174E+02 0.342E+03   0.329E+02 0.190E+02 -.365E+03   -.275E+01 -.158E+01 0.225E+02   0.799E-02 0.462E-02 0.407E-02
   0.301E+02 0.174E+02 -.342E+03   -.329E+02 -.190E+02 0.365E+03   0.275E+01 0.158E+01 -.225E+02   -.799E-02 -.462E-02 -.407E-02
   0.922E+01 0.532E+01 0.371E+03   -.898E+01 -.519E+01 -.398E+03   -.238E+00 -.137E+00 0.270E+02   -.106E-02 -.615E-03 -.868E-02
   -.199E+01 0.413E+01 -.378E+03   0.226E+01 -.327E+01 0.404E+03   -.275E+00 -.854E+00 -.269E+02   0.108E-01 -.202E-02 -.554E-02
   -.258E+01 0.379E+01 0.378E+03   0.171E+01 -.359E+01 -.404E+03   0.877E+00 -.189E+00 0.269E+02   -.365E-02 -.104E-01 0.554E-02
   -.408E+02 0.203E+02 -.350E+03   0.438E+02 -.217E+02 0.372E+03   -.305E+01 0.141E+01 -.226E+02   -.461E-02 0.236E-01 -.149E-01
   -.135E+01 -.281E+01 0.375E+03   0.108E+01 0.199E+01 -.402E+03   0.268E+00 0.833E+00 0.269E+02   0.573E-02 -.174E-02 -.183E-02
   0.311E+01 -.234E+00 -.375E+03   -.226E+01 0.565E-01 0.402E+03   -.856E+00 0.184E+00 -.269E+02   -.136E-02 -.583E-02 0.183E-02
   0.284E+01 0.454E+02 0.350E+03   -.312E+01 -.488E+02 -.372E+03   0.306E+00 0.335E+01 0.226E+02   -.181E-01 0.158E-01 0.149E-01
   0.281E+02 0.162E+02 -.342E+03   -.308E+02 -.178E+02 0.365E+03   0.271E+01 0.156E+01 -.224E+02   0.704E-02 0.407E-02 0.514E-02
   -.281E+02 -.162E+02 0.342E+03   0.308E+02 0.178E+02 -.365E+03   -.271E+01 -.156E+01 0.224E+02   -.704E-02 -.407E-02 -.514E-02
   -.354E-02 0.101E-02 0.491E-02   0.487E-12 0.519E-12 0.171E-12   0.133E-14 -.178E-14 0.284E-13   -.783E-07 -.367E-07 -.658E-07

 POSITION                                       TOTAL-FORCE (eV/Angst)
      0.01192      0.00688      7.04752        -0.002651     -0.001531      0.001076
      1.41447      0.81665     11.76191         0.001596      0.000922      0.000136
     -1.40477      4.02929      2.34585        -0.005429     -0.003135      0.001586
      2.81100      1.62293      2.36577         0.005429      0.003135     -0.001586
      0.00975      4.84597      7.06623        -0.001596     -0.000922     -0.000136
      1.41230      5.65573     11.78062         0.002651      0.001531     -0.001076
      4.19351      7.26146      0.04349         0.005112      0.002951     -0.006403
      1.40445      0.81086      4.70736        -0.000474     -0.000274     -0.000298
      0.00820      1.63076      9.39925         0.007972      0.000117     -0.003407
      7.01196      2.42682     14.08481         0.006638      0.005256      0.004307
      0.01302      3.22199      4.70701         0.000750     -0.003356     -0.001201
     -1.39083      4.03734      9.45649         0.012708      0.007337     -0.004920
      5.60767      4.85912     14.08481         0.007871      0.003121      0.004307
     -1.39502      5.66079      4.70701        -0.002531      0.002328     -0.001201
     -2.77547      6.45223      9.39925         0.004088      0.006845     -0.003407
     -1.39061      7.25194      0.00460         0.002531     -0.002328      0.001201
      4.20556      0.80655      4.75432        -0.007871     -0.003121     -0.004307
      2.81506      1.62527      9.37164        -0.012708     -0.007337      0.004920
      1.39320      2.43023      0.00460        -0.000750      0.003356      0.001201
      2.80127      3.23885      4.75432        -0.006638     -0.005256     -0.004307
      1.41602      4.03185      9.42888        -0.007972     -0.000117      0.003407
      0.00177      4.84136      0.00425         0.000474      0.000274      0.000298
      1.40987      5.65433      4.67913        -0.005112     -0.002951      0.006403
      0.00784      6.47089      9.42888        -0.004088     -0.006845      0.003407
      5.59094      0.00928      0.04996        -0.008502     -0.004793     -0.003002
      6.99172      0.81803      4.67266         0.008402      0.004966      0.003002
      5.60691      1.61988      9.41957         0.004820     -0.008348     -0.000000
      4.21745      2.43494     14.09170        -0.005108     -0.002949      0.008156
      5.59578      3.23073      4.74744         0.005108      0.002949     -0.008156
      4.20631      4.04579      9.41957        -0.004820      0.008348      0.000000
      2.80351      4.83725      0.04996        -0.008402     -0.004966     -0.003002
      4.20430      5.64599      4.67266         0.008502      0.004793      0.003002
      2.81069      6.46309      9.41957        -0.000000     -0.000000      0.000000
      0.04665      0.02693     10.36430         0.000515      0.000298     -0.003216
      0.01821      0.01052      3.72880         0.000529      0.000305      0.012338
      1.42791      0.82441      0.97348         0.000728      0.000420     -0.003435
      1.38613      0.80028      8.42422         0.002080      0.001201      0.009286
     -0.00199      1.58130      5.65659        -0.001213     -0.000201     -0.004264
      0.04716      1.60257     13.15680         0.001706      0.002709      0.007314
      7.00332      2.41708     10.37635        -0.003255     -0.001953     -0.006801
     -1.39598      2.45995      3.74318         0.003032     -0.000547      0.006801
     -0.03419      3.23780      0.95240        -0.000759     -0.000995     -0.002031
      0.00581      3.26698      8.46572         0.003821      0.000701      0.004592
     -1.36041      4.05491      5.67533        -0.000267     -0.000154     -0.005832
     -1.36586      4.05176     13.14010         0.001104      0.000638      0.012855
      5.59491      4.85651     10.37635        -0.003319     -0.001842     -0.006801
     -2.75947      4.82158      3.74318         0.001042      0.002899      0.006801
     -1.40493      5.61200      0.95240        -0.001241     -0.000160     -0.002031
     -1.35966      5.63205      8.46572         0.002518      0.002959      0.004592
     -2.82341      6.46813      5.65659        -0.000780     -0.000950     -0.004264
     -2.78041      6.50006     13.15680         0.003199      0.000123      0.007314
      2.78389      0.03056     10.36241        -0.002518     -0.002959     -0.004592
      2.81115      0.04022      3.75922         0.001241      0.000160      0.002031
      4.16570      0.83065      0.96844        -0.001042     -0.002899     -0.006801
      4.21832      0.80916      8.46279         0.003319      0.001842      0.006801
      2.79008      1.61086      5.68803        -0.001104     -0.000638     -0.012855
      2.78463      1.60771     13.15281         0.000267      0.000154      0.005832
      1.41841      2.39564     10.36241        -0.003821     -0.000701     -0.004592
      1.44041      2.41442      3.75922         0.000759      0.000995      0.002031
      2.80221      3.19228      0.96844        -0.003032      0.000547     -0.006801
[...]
      7.02483      0.80675      8.45629         0.000469      0.000709      0.006434
      5.61408      1.60648      5.66793        -0.003459      0.001506     -0.009247
      5.61493      1.60697     13.17121         0.000425      0.003749      0.009247
      4.19631      2.42274     10.33772        -0.000371     -0.000214     -0.000698
      4.17244      2.40896      3.79703         0.001235      0.000713     -0.004006
      5.62279      3.24632      0.92559        -0.001235     -0.000713      0.004006
      5.61691      3.24293      8.50141         0.000371      0.000214      0.000698
      4.19830      4.05870      5.66793        -0.000425     -0.003749     -0.009247
      4.19915      4.05919     13.17121         0.003459     -0.001506      0.009247
      2.78840      4.85892     10.38284        -0.000469     -0.000709     -0.006434
      2.80706      4.82597      3.75901         0.001172      0.004132      0.008056
      4.21228      5.63728      0.96361        -0.004164      0.001051     -0.008056
      4.21108      5.68030      8.45629         0.000848      0.000051      0.006434
      2.83214      6.47548      5.62952         0.000646      0.000373      0.003225
      2.78923      6.45070     13.20961        -0.000646     -0.000373     -0.003225
    total drift:                               -0.003543      0.001008      0.004913

  FREE ENERGIE OF THE ION-ELECTRON SYSTEM (eV)
  free  energy   TOTEN  =      -539.9833657147 eV

  energy  without entropy=     -539.9535402859  energy(sigma->0) =     -539.96845300

 d Force = 0.3397876E-03[ 0.970E-04, 0.583E-03]  d Energy = 0.4882878E-03-0.149E-03
 d Force =-0.9132412E+01[-0.914E+01,-0.913E+01]  d Ewald  =-0.1309631E+02 0.396E+01

 Quasi-Newton relaxation of ions (Broydens 2nd method)
  g(Force)  = 0.247E-03   g(Stress)= 0.298E-03

 retain information from N=  1 steps
 eigenvalues of (default step * inverse Hessian matrix)
  average eigenvalue of G=   0.1285
 eigenvalue spectrum of G is  0.1285

 reached required accuracy - stopping structural energy minimisation

volume of typ            1:     5.4 %

[...]

volume of typ            3:    10.2 %

total charge

# of ion       s       p       d       tot
    1        2.069   0.226   0.089   2.384
    2        2.070   0.229   0.090   2.388
    3        2.069   0.226   0.088   2.384
    4        2.069   0.226   0.088   2.384
    5        2.070   0.229   0.090   2.388
    6        2.069   0.226   0.089   2.384
    7        0.290   0.400   7.828   8.519
    8        0.302   0.424   7.831   8.557
    9        0.297   0.414   7.832   8.543
   10        0.297   0.414   7.825   8.536
   11        0.292   0.404   7.833   8.530
   12        0.296   0.412   7.826   8.534
   13        0.297   0.414   7.825   8.536
   14        0.292   0.404   7.833   8.530
   15        0.297   0.414   7.832   8.543
   16        0.292   0.404   7.833   8.530
   17        0.297   0.414   7.825   8.536
   18        0.296   0.412   7.826   8.534
   19        0.292   0.404   7.833   8.530
   20        0.297   0.414   7.825   8.536
   21        0.297   0.414   7.832   8.543
   22        0.302   0.424   7.831   8.557
   23        0.290   0.400   7.828   8.519
   24        0.297   0.414   7.832   8.543
   25        0.297   0.413   7.825   8.535
   26        0.297   0.413   7.825   8.535
   27        0.292   0.404   7.821   8.517
   28        0.290   0.400   7.828   8.518
   29        0.290   0.400   7.828   8.518
   30        0.292   0.404   7.821   8.517
   31        0.297   0.413   7.825   8.535
   32        0.297   0.413   7.825   8.535
   33        0.290   0.399   7.836   8.525
   34        1.278   2.745   0.007   4.030
   35        1.286   2.718   0.008   4.012
   36        1.278   2.743   0.007   4.028
   37        1.276   2.749   0.007   4.032
   38        1.275   2.754   0.007   4.036
   39        1.275   2.754   0.007   4.036
   40        1.286   2.722   0.008   4.016
   41        1.275   2.754   0.007   4.036
   42        1.275   2.754   0.007   4.036
   43        1.275   2.754   0.007   4.036
   44        1.278   2.744   0.007   4.029
   45        1.286   2.718   0.008   4.012
   46        1.286   2.722   0.008   4.016
   47        1.275   2.754   0.007   4.036
   48        1.275   2.754   0.007   4.036
   49        1.275   2.754   0.007   4.036
   50        1.275   2.754   0.007   4.036
   51        1.275   2.754   0.007   4.036
   52        1.275   2.754   0.007   4.036
   53        1.275   2.754   0.007   4.036
   54        1.275   2.754   0.007   4.036
   55        1.286   2.722   0.008   4.016
   56        1.286   2.718   0.008   4.012
   57        1.278   2.744   0.007   4.029
   58        1.275   2.754   0.007   4.036
   59        1.275   2.754   0.007   4.036
   60        1.275   2.754   0.007   4.036
[...]
   73        1.275   2.752   0.007   4.035
   74        1.286   2.722   0.008   4.016
   75        1.286   2.722   0.008   4.016
   76        1.288   2.716   0.008   4.012
   77        1.277   2.747   0.007   4.032
   78        1.277   2.747   0.007   4.032
   79        1.288   2.716   0.008   4.012
   80        1.286   2.722   0.008   4.016
   81        1.286   2.722   0.008   4.016
   82        1.275   2.752   0.007   4.035
   83        1.286   2.722   0.008   4.016
   84        1.286   2.722   0.008   4.016
   85        1.275   2.752   0.007   4.035
   86        1.277   2.746   0.007   4.031
   87        1.277   2.746   0.007   4.031
tot          89.45  160.43  212.31  462.19

magnetization (x)

# of ion       s       p       d       tot
    1        0.005   0.005  -0.000   0.010
    2        0.005   0.006  -0.000   0.011
    3        0.005   0.006  -0.000   0.011
    4        0.005   0.006  -0.000   0.011
    5        0.005   0.006  -0.000   0.011
    6        0.005   0.005  -0.000   0.010
    7       -0.000  -0.000   0.211   0.210
    8       -0.000  -0.000   0.109   0.108
    9       -0.000  -0.000   0.147   0.147
   10       -0.000  -0.000   0.115   0.115
   11       -0.000  -0.000   0.208   0.208
   12       -0.000  -0.000   0.134   0.133
   13       -0.000  -0.000   0.115   0.115
   14       -0.000  -0.000   0.208   0.208
   15       -0.000  -0.000   0.147   0.147
   16       -0.000  -0.000   0.208   0.208
   17       -0.000  -0.000   0.115   0.115
   18       -0.000  -0.000   0.134   0.133
   19       -0.000  -0.000   0.208   0.208
   20       -0.000  -0.000   0.115   0.115
   21       -0.000  -0.000   0.147   0.147
   22       -0.000  -0.000   0.109   0.108
   23       -0.000  -0.000   0.211   0.210
   24       -0.000  -0.000   0.147   0.147
   25       -0.000  -0.000   0.123   0.122
   26       -0.000  -0.000   0.123   0.122
   27       -0.000  -0.000   0.137   0.137
   28       -0.000  -0.000   0.211   0.211
   29       -0.000  -0.000   0.211   0.211
   30       -0.000  -0.000   0.137   0.137
   31       -0.000  -0.000   0.123   0.122
   32       -0.000  -0.000   0.123   0.122
   33       -0.000  -0.000   0.275   0.274
   34        0.006   0.034   0.000   0.040
   35        0.002   0.007   0.000   0.009
   36        0.006   0.041   0.000   0.048
   37        0.003   0.012   0.000   0.016
   38        0.004   0.012   0.000   0.016
   39        0.003   0.010   0.000   0.013
   40        0.003   0.013   0.000   0.016
   41        0.004   0.011   0.000   0.015
   42        0.004   0.009   0.000   0.013
   43        0.004   0.009   0.000   0.012
   44        0.006   0.037   0.000   0.043
   45        0.002   0.009   0.000   0.011
   46        0.003   0.013   0.000   0.016
   47        0.004   0.011   0.000   0.015
   48        0.004   0.009   0.000   0.013
   49        0.004   0.009   0.000   0.012
   50        0.004   0.012   0.000   0.016
   51        0.003   0.010   0.000   0.013
   52        0.004   0.009   0.000   0.012
   53        0.004   0.009   0.000   0.013
   54        0.004   0.011   0.000   0.015
   55        0.003   0.013   0.000   0.016
   56        0.002   0.009   0.000   0.011
   57        0.006   0.037   0.000   0.043
   58        0.004   0.009   0.000   0.012
   59        0.004   0.009   0.000   0.013
   60        0.004   0.011   0.000   0.015
[...]
   73        0.004   0.015   0.000   0.019
   74        0.003   0.013   0.000   0.015
   75        0.003   0.013   0.000   0.015
   76        0.003   0.025   0.000   0.028
   77        0.005   0.025   0.000   0.030
   78        0.005   0.025   0.000   0.030
   79        0.003   0.025   0.000   0.028
   80        0.003   0.013   0.000   0.015
   81        0.003   0.013   0.000   0.015
   82        0.004   0.015   0.000   0.019
   83        0.003   0.014   0.000   0.017
   84        0.003   0.014   0.000   0.017
   85        0.004   0.015   0.000   0.019
   86        0.005   0.026   0.000   0.032
   87        0.005   0.026   0.000   0.032
tot           0.22    0.88    4.25    5.36