 vasp.5.4.4.18Apr17-6-g9f103f2a35 (build May 12 2020 05:39:39) gamma-only

 MD_VERSION_INFO: Compiled 2020-05-12T12:39:39-UTC in devlin.sd.materialsdesign.
 com:/home/medea2/data/build/wwolf/vasp-gpu5.4.4/13047/x86_64/src/src/build/gam
 from svn 13047

 executed on                        Lin64 date 2023.01.20  07:50:03

 INCAR:
 POTCAR:    PAW_PBE Li_sv 10Sep2004
 POTCAR:    PAW_PBE Ni 02Aug2007
 POTCAR:    PAW_PBE O 08Apr2002

 POTCAR:    PAW_PBE Li_sv 10Sep2004

 POTCAR:    PAW_PBE Ni 02Aug2007

 POTCAR:    PAW_PBE O 08Apr2002

 Optimization of the real space projectors (new method)

 maximal supplied QI-value         = 22.11
 optimisation between [QCUT,QGAM] = [ 11.28, 22.77] = [ 35.61,145.23] Ry
 Optimized for a Real-space Cutoff    1.10 Angstroem

   l    n(q)    QCUT    max X(q) W(low)/X(q) W(high)/X(q)  e(spline)
   0      7    11.276    10.506    0.54E-04    0.58E-04    0.16E-07
   0      7    11.276     8.367    0.11E-03    0.14E-03    0.35E-07
   1      7    11.276     8.983    0.23E-03    0.43E-03    0.86E-07
 Optimization of the real space projectors (new method)

[...]

   l    n(q)    QCUT    max X(q) W(low)/X(q) W(high)/X(q)  e(spline)
   2      9    11.376    60.317    0.17E-03    0.16E-04    0.16E-06
   2      9    11.376    55.921    0.17E-03    0.16E-04    0.17E-06
   0     10    11.376    51.690    0.45E-04    0.60E-04    0.21E-06
   0     10    11.376    30.015    0.37E-04    0.55E-04    0.19E-06
   1     10    11.376    18.849    0.83E-04    0.11E-03    0.92E-07
   1     10    11.376    14.624    0.69E-04    0.92E-04    0.82E-07
 Optimization of the real space projectors (new method)

 maximal supplied QI-value         = 24.76
 optimisation between [QCUT,QGAM] = [ 11.39, 22.77] = [ 36.31,145.25] Ry
 Optimized for a Real-space Cutoff    1.10 Angstroem

   l    n(q)    QCUT    max X(q) W(low)/X(q) W(high)/X(q)  e(spline)
   0      7    11.387    20.381    0.22E-03    0.48E-03    0.18E-06
   0      7    11.387    15.268    0.22E-03    0.52E-03    0.19E-06
   1      7    11.387     5.964    0.22E-03    0.73E-03    0.24E-06
   1      7    11.387     5.382    0.19E-03    0.60E-03    0.21E-06

  PAW_PBE Li_sv 10Sep2004               :
  PAW_PBE Ni 02Aug2007                  :
  PAW_PBE O 08Apr2002                   :

 POSCAR: ce283358_1
  positions in direct lattice
 exchange correlation table for  LEXCH =       14
   RHO(1)=    0.500       N(1)  =     2000
   RHO(2)=  100.500       N(2)  =     4000

 ion  position               nearest neighbor table
   1  0.975  0.499  0.976-  92 2.01  93 2.01  57 2.12  80 2.12  45 2.27  44 2.27  39 2.78  40 2.80

   2  0.111  0.834  0.222-  46 2.08  41 2.09  59 2.11  58 2.11  65 2.13  64 2.13
   3  0.201  0.166  0.090-  42 2.01  79 2.02  43 2.14  48 2.14  49 2.24  66 2.25  14 2.79  33 2.80

[...]

  13  0.759  0.832  0.868-  88 2.00  89 2.00  53 2.15  94 2.15  41 2.22  58 2.26  37 2.80  38 2.80

  14  0.001  1.000  0.001-  79 1.87  94 1.87  43 1.88  58 1.88  91 1.91  46 1.92   3 2.79  32 2.81
                            23 2.81  17 2.81  20 2.82  38 2.82  26 2.82
  15  0.114  0.333  0.225-  57 1.87  42 1.88  66 1.89  63 1.92  60 1.93  45 1.96  27 2.78  18 2.80
                            24 2.83  39 2.84  21 2.84  33 2.85
  16  0.221  0.666  0.112-  80 1.86  65 1.87  47 1.89  44 1.93  41 1.93  50 1.94  25 2.79  28 2.81
                            40 2.81  22 2.83  34 2.83  19 2.85
  17  0.334  1.000  1.000-  79 1.85  52 1.85  82 1.93  85 1.94  49 1.96  46 1.97  29 2.80  14 2.81
                            20 2.82  32 2.82  35 2.83  26 2.85
  18  0.444  0.333  0.221-  51 1.87  48 1.87  66 1.87  69 1.88  45 1.91  72 1.91  36 2.80  15 2.80
                            21 2.80  27 2.81  33 2.82  30 2.83
  19  0.556  0.666  0.108-  50 1.87  47 1.88  71 1.88  53 1.89  56 1.92  86 1.92  22 2.77  37 2.78
                             5 2.81  34 2.82  31 2.83  28 2.84  16 2.85
  20  0.668  0.998  0.001-  85 1.87  88 1.87  91 1.88  55 1.90  52 1.90  58 1.91  23 2.79  29 2.81
                            14 2.82  17 2.82  12 2.82  38 2.83  35 2.83
  21  0.775  0.333  0.220-  60 1.87  75 1.88  54 1.89  51 1.91  57 1.93  72 1.93  36 2.78  18 2.80
                            39 2.81  30 2.83  15 2.84  24 2.85
  22  0.887  0.667  0.114-  53 1.87  41 1.87  44 1.88  92 1.88  56 1.89  59 1.92  19 2.77  31 2.78
                            25 2.81  37 2.82  16 2.83  40 2.85
  23  0.998  0.001  0.331-  55 1.87  61 1.87  64 1.88  76 1.88  43 1.90  58 1.91  20 2.79  10 2.80
                            14 2.81  26 2.81  29 2.81  35 2.83  32 2.83
  24  0.111  0.334  0.558-  78 1.86  60 1.87  63 1.87  81 1.91  84 1.95  75 1.97  33 2.77  10 2.79
                            30 2.81  36 2.82  27 2.83  15 2.83  21 2.85
  25  0.224  0.667  0.444-  83 1.87  68 1.87  62 1.87  59 1.89  65 1.90  44 1.91  16 2.79  28 2.79
                            22 2.81  37 2.82  34 2.83  31 2.83
  26  0.333  1.000  0.337-  46 1.87  49 1.87  43 1.88  70 1.88  67 1.90  64 1.90  35 2.76  38 2.81
                            23 2.81  14 2.82  29 2.82  17 2.85
  27  0.444  0.334  0.554-  90 1.87  87 1.88  84 1.88  63 1.90  69 1.91  66 1.91  11 2.77  15 2.78
                            30 2.81  18 2.81  24 2.83  39 2.83  36 2.83
  28  0.554  0.668  0.444-  74 1.87  71 1.88  68 1.90  65 1.90  89 1.92  50 1.95   9 2.79  25 2.79
                            16 2.81  37 2.82  31 2.83  40 2.83  19 2.84
  29  0.665  1.000  0.332-  55 1.87  52 1.87  70 1.88  73 1.88  76 1.91  49 1.92   5 2.80  17 2.80
                            38 2.80  20 2.81  23 2.81  32 2.82  26 2.82
  30  0.777  0.334  0.556-  78 1.87  69 1.88  72 1.89  93 1.90  90 1.91  75 1.91   9 2.79  39 2.80
                            33 2.81  27 2.81  24 2.81  18 2.83  21 2.83
  31  0.890  0.669  0.445-  77 1.86  74 1.87  56 1.88  59 1.91  71 1.92  62 1.95  22 2.78  34 2.80
                            40 2.81  28 2.83  25 2.83  19 2.83
  32  0.998  0.002  0.667-  61 1.87  82 1.87  76 1.89  94 1.90  79 1.91  73 1.91  38 2.78  14 2.81
                             7 2.81  17 2.82  29 2.82  23 2.83  35 2.84
  33  0.111  0.333  0.886-  42 1.88  93 1.88  45 1.88  48 1.88  78 1.89  81 1.91  24 2.77   3 2.80
                            30 2.81  36 2.81  18 2.82  39 2.82  15 2.85
  34  0.220  0.666  0.777-  77 1.86  86 1.87  83 1.89  47 1.91  62 1.92  80 1.94   7 2.79  40 2.80
                            31 2.80  19 2.82  37 2.83  25 2.83  16 2.83
  35  0.334  1.000  0.665-  85 1.86  82 1.86  64 1.90  67 1.91  88 1.97  61 1.97  26 2.76  38 2.83
                            23 2.83  17 2.83  20 2.83  32 2.84
  36  0.446  0.333  0.891-  84 1.87  54 1.87  87 1.88  81 1.88  51 1.90  48 1.90  21 2.78  12 2.78
                            18 2.80  33 2.81  39 2.82  24 2.82  27 2.83
  37  0.556  0.666  0.778-  68 1.87  53 1.87  89 1.88  92 1.91  83 1.92  86 1.92  11 2.78  19 2.78
                            13 2.80  25 2.82  22 2.82  28 2.82  40 2.83  34 2.83
  38  0.669  0.999  0.666-  88 1.87  94 1.87  67 1.88  91 1.88  73 1.90  70 1.91  32 2.78  13 2.80
                            29 2.80  26 2.81  14 2.82  35 2.83  20 2.83
  39  0.779  0.332  0.889-  54 1.86  93 1.87  42 1.92  87 1.93  90 1.94  57 1.95   1 2.78  30 2.80
                            21 2.81  36 2.82  33 2.82  27 2.83  15 2.84
  40  0.890  0.667  0.778-  89 1.86  92 1.88  77 1.90  80 1.90  74 1.93  41 1.95  34 2.80   1 2.80
                            16 2.81  31 2.81  37 2.83  28 2.83  22 2.85
  41  0.997  0.737  0.007-  22 1.87  16 1.93  40 1.95   2 2.09  13 2.22
  42  0.007  0.266  0.003-  33 1.88  15 1.88  39 1.92   3 2.01
  43  0.113  0.068  0.221-  26 1.88  14 1.88  23 1.90   3 2.14
  44  0.104  0.597  0.222-  22 1.88  25 1.91  16 1.93   6 2.10   1 2.27
  45  0.222  0.403  0.103-  33 1.88  18 1.91  15 1.96   4 2.10   1 2.27
  46  0.224  0.929  0.122-  26 1.87  14 1.92  17 1.97   2 2.08   5 2.23
  47  0.335  0.732  0.003-  19 1.88  16 1.89  34 1.91   5 2.14
  48  0.332  0.265  0.001-  18 1.87  33 1.88  36 1.90   3 2.14
  49  0.442  0.070  0.230-  26 1.87  29 1.92  17 1.96   8 2.09   3 2.24
  50  0.448  0.596  0.217-  19 1.87  16 1.94  28 1.95   4 2.10   9 2.11
  51  0.552  0.403  0.111-  18 1.87  36 1.90  21 1.91   4 2.12   9 2.28
  52  0.551  0.933  0.111-  17 1.85  29 1.87  20 1.90   5 2.02
  53  0.667  0.734  0.998-  22 1.87  37 1.87  19 1.89  13 2.15
  54  0.667  0.266  0.997-  39 1.86  36 1.87  21 1.89  12 2.03
  55  0.777  0.067  0.224-  23 1.87  29 1.87  20 1.90  10 2.16
  56  0.782  0.598  0.229-  31 1.88  22 1.89  19 1.92   6 2.13   9 2.25
  57  0.899  0.403  0.117-  15 1.87  21 1.93  39 1.95   6 2.09   1 2.12
  58  0.892  0.930  0.110-  14 1.88  20 1.91  23 1.91   2 2.11  13 2.26
  59  0.006  0.738  0.338-  25 1.89  31 1.91  22 1.92   2 2.11   7 2.25
  60  0.996  0.267  0.338-  24 1.87  21 1.87  15 1.93  10 2.00
  61  0.100  0.069  0.550-  32 1.87  23 1.87  35 1.97  10 2.00
  62  0.115  0.597  0.551-  25 1.87  34 1.92  31 1.95   6 2.12  11 2.25
  63  0.221  0.403  0.450-  24 1.87  27 1.90  15 1.92  11 2.11   6 2.12
  64  0.216  0.931  0.443-  23 1.88  35 1.90  26 1.90   2 2.13   7 2.24
  65  0.331  0.736  0.328-  16 1.87  25 1.90  28 1.90   2 2.13   5 2.25
  66  0.336  0.264  0.331-  18 1.87  15 1.89  27 1.91   8 2.12   3 2.25
  67  0.452  0.069  0.559-  38 1.88  26 1.90  35 1.91   8 2.11  12 2.25
  68  0.444  0.600  0.558-  37 1.87  25 1.87  28 1.90  11 2.01
  69  0.556  0.401  0.440-  18 1.88  30 1.88  27 1.91   9 2.02
  70  0.553  0.932  0.441-  29 1.88  26 1.88  38 1.91   5 2.16
  71  0.660  0.734  0.328-  28 1.88  19 1.88  31 1.92   5 2.02
  72  0.667  0.264  0.338-  30 1.89  18 1.91  21 1.93   8 2.11  10 2.24
  73  0.774  0.070  0.550-  29 1.88  38 1.90  32 1.91   8 2.12  10 2.25
  74  0.774  0.601  0.548-  28 1.87  31 1.87  40 1.93   9 2.00
  75  0.880  0.404  0.436-  21 1.88  30 1.91  24 1.97   9 2.09   6 2.11
  76  0.891  0.933  0.446-  23 1.88  32 1.89  29 1.91   7 2.17
  77  0.003  0.734  0.666-  31 1.86  34 1.86  40 1.90   7 2.02
  78  0.996  0.267  0.662-  24 1.86  30 1.87  33 1.89  10 2.14
  79  0.116  0.066  0.895-  17 1.85  14 1.87  32 1.91   3 2.02
  80  0.111  0.597  0.896-  16 1.86  40 1.90  34 1.94   1 2.12   4 2.13
  81  0.229  0.403  0.782-  36 1.88  24 1.91  33 1.91   4 2.11  11 2.27
  82  0.218  0.934  0.769-  35 1.86  32 1.87  17 1.93   7 1.99
  83  0.330  0.734  0.663-  25 1.87  34 1.89  37 1.92   7 2.14
  84  0.342  0.266  0.672-  36 1.87  27 1.88  24 1.95  12 2.11
  85  0.450  0.066  0.883-  35 1.86  20 1.87  17 1.94  12 1.99
  86  0.437  0.596  0.883-  34 1.87  37 1.92  19 1.92   4 2.10  11 2.12
  87  0.552  0.400  0.776-  27 1.88  36 1.88  39 1.93  11 2.01
  88  0.567  0.931  0.782-  38 1.87  20 1.87  35 1.97  13 2.00
  89  0.671  0.734  0.673-  40 1.86  37 1.88  28 1.92  13 2.00
  90  0.659  0.264  0.660-  27 1.87  30 1.91  39 1.94   8 2.09  12 2.26
  91  0.776  0.066  0.888-  20 1.88  38 1.88  14 1.91  12 2.17
  92  0.783  0.600  0.893-  40 1.88  22 1.88  37 1.91   1 2.01
  93  0.891  0.400  0.782-  39 1.87  33 1.88  30 1.90   1 2.01
  94  0.889  0.933  0.780-  38 1.87  14 1.87  32 1.90  13 2.15

  LATTYP: Found a triclinic cell.
 ALAT       =     8.4487669871
 B/A-ratio  =     0.9994102489
 C/A-ratio  =     1.6872292607
[...]
   0.334E+02 0.201E+02 -.348E+03   -.354E+02 -.219E+02 0.370E+03   0.207E+01 0.175E+01 -.222E+02   -.391E-01 -.263E-02 -.106E-01
   0.156E+02 0.210E+02 0.312E+03   -.164E+02 -.230E+02 -.332E+03   0.795E+00 0.204E+01 0.192E+02   0.163E-02 0.600E-02 0.138E-01
   0.401E+01 0.397E+02 -.296E+03   -.345E+01 -.424E+02 0.310E+03   -.578E+00 0.272E+01 -.147E+02   0.617E-02 -.222E-01 0.280E-01
   -.215E+02 0.306E+02 0.320E+03   0.228E+02 -.324E+02 -.339E+03   -.129E+01 0.180E+01 0.188E+02   -.409E-01 -.227E-02 0.245E-02
   -.172E+02 0.358E+02 -.352E+03   0.179E+02 -.379E+02 0.370E+03   -.756E+00 0.209E+01 -.187E+02   -.157E-01 0.927E-02 0.119E-01
   0.351E+02 -.146E+02 0.361E+03   -.391E+02 0.157E+02 -.380E+03   0.397E+01 -.109E+01 0.184E+02   0.722E-02 -.148E-01 -.249E-01
[...]
   0.104E+02 0.357E+02 -.307E+03   -.114E+02 -.377E+02 0.326E+03   0.103E+01 0.198E+01 -.188E+02   0.819E-03 -.199E-02 0.288E-01
   -.358E+02 -.240E+02 0.333E+03   0.391E+02 0.260E+02 -.351E+03   -.326E+01 -.203E+01 0.186E+02   -.746E-02 0.142E-01 -.909E-02
   -.124E+02 -.534E+02 -.375E+03   0.128E+02 0.581E+02 0.395E+03   -.383E+00 -.478E+01 -.195E+02   -.279E-01 0.167E-01 0.262E-01
   -.231E+01 0.561E+02 0.375E+03   0.171E+01 -.621E+02 -.394E+03   0.604E+00 0.600E+01 0.196E+02   0.104E-02 0.468E-02 -.322E-01
   -.376E+02 0.241E+02 -.331E+03   0.413E+02 -.263E+02 0.350E+03   -.377E+01 0.221E+01 -.185E+02   -.190E-01 0.423E-02 -.389E-01
   0.118E+02 -.389E+02 0.302E+03   -.124E+02 0.413E+02 -.320E+03   0.521E+00 -.243E+01 0.172E+02   -.354E-02 0.116E-01 0.757E-02
   0.423E+01 -.619E+02 -.337E+03   -.423E+01 0.681E+02 0.355E+03   0.922E-02 -.624E+01 -.184E+02   -.187E-02 0.208E-01 0.243E-01
   -.805E+01 0.620E+02 0.350E+03   0.833E+01 -.690E+02 -.369E+03   -.302E+00 0.695E+01 0.188E+02   0.113E-01 -.132E-03 0.122E-02
   0.306E+02 0.172E+02 -.353E+03   -.332E+02 -.186E+02 0.371E+03   0.265E+01 0.134E+01 -.188E+02   -.124E-01 0.256E-02 -.627E-02
   -.202E+02 -.424E+02 0.337E+03   0.216E+02 0.450E+02 -.355E+03   -.140E+01 -.260E+01 0.176E+02   0.351E-02 0.946E-02 -.243E-01
   -.866E+01 -.363E+02 -.358E+03   0.876E+01 0.398E+02 0.379E+03   -.108E+00 -.350E+01 -.204E+02   0.117E-01 0.168E-01 -.500E-01
   0.162E+02 0.542E+02 0.336E+03   -.166E+02 -.593E+02 -.354E+03   0.429E+00 0.516E+01 0.176E+02   -.102E-01 0.130E-01 0.331E-01
   0.262E+02 0.233E+02 -.326E+03   -.288E+02 -.242E+02 0.347E+03   0.256E+01 0.982E+00 -.203E+02   0.184E-02 -.144E-01 0.230E-01
   0.355E+02 -.204E+02 0.347E+03   -.377E+02 0.221E+02 -.369E+03   0.216E+01 -.168E+01 0.224E+02   0.420E-01 0.904E-02 -.479E-02
   -.323E+00 -.224E+00 -.479E+00   0.341E-12 -.711E-14 0.568E-12   0.321E+00 0.228E+00 0.490E+00   -.649E-03 0.220E-02 0.153E-01

 POSITION                                       TOTAL-FORCE (eV/Angst)
      4.09691      7.12329      7.15564        -0.000774      0.002648      0.000761
      1.39282      0.79709     11.96885        -0.001781     -0.001441     -0.003702
     -0.09660      1.47202      2.37785         0.001049      0.009885     -0.001507
      6.99305      2.42914      7.17084         0.000148      0.008974     -0.004096
     -0.14084      3.37335     11.95786        -0.008606     -0.006345      0.002819
     -1.40455      7.31615      7.15218         0.001085     -0.007078      0.002304
      4.41010      0.81495     11.96786         0.009495     -0.000207     -0.000625
      1.39920      4.06564      2.38334         0.002441      0.001049     -0.000599
      0.23137      4.88128      7.18515         0.019021     -0.001218     -0.002382
     -0.11399      6.65868      2.40625        -0.014745     -0.003393      0.001255
      4.07445      2.61291      7.18258        -0.003688     -0.008515      0.001613
      4.40623      4.07262      2.38234         0.013912      0.007127      0.003336
      4.08700      5.56039     11.93115        -0.007391      0.005736     -0.001259
     -0.00881     -0.01347     14.36288         0.000393     -0.001401      0.000135
      1.40762      0.83961      4.77777        -0.001052      0.001474      0.001310
      0.00568      1.60840      9.54851        -0.001683     -0.001366     -0.004265
      6.98977      2.41760     14.35489        -0.001728     -0.002328      0.002626
     -0.00911      3.24956      4.77629         0.003320      0.003609      0.000862
     -1.43119      4.07033      9.54364         0.003966      0.000765     -0.004193
     -2.80859      4.88678     14.32363        -0.000459      0.003886     -0.001023
     -1.42051      5.67463      4.78909        -0.002294     -0.003541      0.006993
     -2.78723      6.50189      9.56826        -0.004281     -0.003827     -0.001738
     -1.41459      7.32772     -0.00355         0.000356      0.002561     -0.002009
      4.21708      0.79931      4.79203        -0.002304     -0.002927      0.003475
      2.78277      1.61749      9.57141        -0.001114     -0.003298     -0.002580
      1.42699      2.42008     14.35141        -0.000342     -0.002942     -0.000400
      2.79266      3.24657      4.79018         0.003557     -0.000619      0.002875
      1.39608      4.04561      9.57997        -0.000086      0.001130     -0.000738
     -0.01397      4.85618     14.34440        -0.003074      0.001414     -0.001382
      1.41211      5.69134      4.79843         0.002250      0.001154      0.003317
     -0.01213      6.51541      9.59502         0.001532     -0.000532     -0.000429
      1.40448      7.32842      0.01601        -0.000442      0.001164      0.001704
      6.97802      0.81181      4.77007         0.000251      0.004271     -0.001137
      5.60400      1.59824      9.54249         0.002710      0.000778     -0.004746
      4.17364      2.42065     14.35531         0.001553      0.002298      0.000997
      5.60538      3.26027      4.77052         0.000564     -0.002884      0.003537
      4.20137      4.05183      9.55425        -0.001293     -0.002803     -0.001701
      2.77907      4.88464     14.33844        -0.003060      0.002106      0.000372
      4.19775      5.71789      4.76741        -0.000050      0.003296      0.005243
      2.78781      6.52122      9.56584        -0.000776     -0.004885     -0.001465
     -4.15387      7.27574     10.57037        -0.004936     -0.013785     -0.001486
     -0.00014      0.09503      3.81458        -0.002041      0.010450     -0.002526
      1.38033      0.83808      0.95912         0.001012     -0.002316     -0.001463
      1.41636      0.74058      8.57259        -0.004912     -0.001607      0.000786
     -0.06843      1.62846      5.78560         0.002838      0.006036     -0.002148
      0.06768      1.63918     13.34191         0.000541     -0.007831     -0.000905
     -1.38578      2.45529     10.49334         0.003502      0.000294     -0.006602
     -1.39383      2.42874      3.81056        -0.001473      0.005550     -0.001381
      0.06785      3.22436      0.99935        -0.002486     -0.012349     -0.000395
     -0.05186      3.31309      8.53519         0.005434      0.010618     -0.004255
     -1.38226      4.03625      5.76970         0.002526     -0.002409      0.003009
     -1.38932      4.01441     13.40151        -0.003938      0.000501      0.001234
      5.57127      4.88153     10.50309         0.001350     -0.006131     -0.003324
      5.56717      4.88500      3.83331        -0.001167      0.000666      0.006272
     -1.38667      5.71427      0.93929        -0.001652      0.002007     -0.002961
     -1.37331      5.72198      8.58556        -0.001425      0.001670      0.000905
     -2.82753      6.61752      5.77863        -0.009841      0.000041      0.003370
     -2.83724      6.53364     13.35298        -0.001258      0.003295     -0.000414
      2.79795      0.03493     10.57780        -0.001557     -0.003403     -0.003394
     -1.35668      7.28703      3.84431        -0.003734     -0.004645      0.004592
[...]
      7.05015      0.80269      8.56572        -0.000923      0.000452     -0.001921
      5.59985      1.66870      5.76585         0.001697     -0.005214     -0.000120
      5.53459      1.56280     13.42878         0.001221      0.005235      0.005370
      4.20543      2.34962     10.52954         0.002936     -0.004147     -0.002338
      4.20066      2.53112      3.79995        -0.000392      0.000457      0.000467
      5.53072      3.30892      0.92598        -0.003776      0.002692     -0.000663
      5.59443      3.18296      8.54497         0.001133      0.002610     -0.004025
      4.19964      4.00026      5.75297         0.003746     -0.008050      0.006820
      4.17892      4.16403     13.35322        -0.002763      0.002115     -0.000533
      2.82213      4.90691     10.51029        -0.003306     -0.006676     -0.002080
      2.78826      4.83049      3.79531         0.007337      0.005974      0.006090
      4.20309      5.67422      0.94322         0.000416      0.003277     -0.001375
      4.19817      5.76417      8.59476        -0.003312     -0.002572     -0.002043
      2.83322      6.54567      5.71935         0.000553      0.005895      0.000494
      2.80720      6.49961     13.39668        -0.001756      0.002221      0.001112
    total drift:                               -0.002455      0.006853      0.025916

  FREE ENERGIE OF THE ION-ELECTRON SYSTEM (eV)
  free  energy   TOTEN  =      -576.7288326656 eV

  energy  without entropy=     -576.6835470625  energy(sigma->0) =     -576.70618986

 d Force = 0.2119588E-03[ 0.200E-03, 0.224E-03]  d Energy = 0.2129654E-03-0.101E-05
 d Force = 0.1357050E+00[ 0.135E+00, 0.136E+00]  d Ewald  =-0.3608611E+00 0.497E+00

 Quasi-Newton relaxation of ions (Broydens 2nd method)
  g(Force)  = 0.213E-03   g(Stress)= 0.283E-03

 retain information from N=  1 steps
 eigenvalues of (default step * inverse Hessian matrix)
  average eigenvalue of G=   0.0834
 eigenvalue spectrum of G is  0.0834

 reached required accuracy - stopping structural energy minimisation

volume of typ            1:    11.4 %

[...]

volume of typ            3:     9.9 %

total charge

# of ion       s       p       d       tot
    1        2.077   0.249   0.094   2.420
    2        2.072   0.236   0.089   2.396
    3        2.072   0.236   0.090   2.397
    4        2.074   0.239   0.090   2.403
    5        2.070   0.230   0.087   2.387
    6        2.071   0.231   0.087   2.389
    7        2.071   0.234   0.088   2.393
    8        2.071   0.236   0.089   2.396
    9        2.079   0.253   0.096   2.428
   10        2.072   0.235   0.089   2.396
   11        2.077   0.247   0.094   2.418
   12        2.071   0.235   0.088   2.394
   13        2.072   0.236   0.089   2.397
   14        0.285   0.389   7.839   8.513
   15        0.278   0.373   7.841   8.493
   16        0.276   0.369   7.851   8.496
   17        0.272   0.361   7.841   8.474
   18        0.290   0.399   7.842   8.531
   19        0.287   0.393   7.837   8.517
   20        0.287   0.393   7.830   8.511
   21        0.276   0.371   7.843   8.490
   22        0.293   0.406   7.838   8.537
   23        0.293   0.405   7.834   8.531
   24        0.275   0.364   7.852   8.491
   25        0.293   0.407   7.838   8.538
   26        0.293   0.405   7.837   8.535
   27        0.289   0.398   7.836   8.524
   28        0.280   0.378   7.834   8.492
   29        0.285   0.388   7.842   8.515
   30        0.285   0.390   7.837   8.512
   31        0.276   0.369   7.848   8.493
   32        0.287   0.393   7.831   8.512
   33        0.291   0.400   7.836   8.527
   34        0.285   0.390   7.838   8.513
   35        0.272   0.358   7.845   8.475
   36        0.294   0.407   7.835   8.535
   37        0.276   0.369   7.846   8.490
   38        0.293   0.405   7.833   8.531
   39        0.269   0.356   7.847   8.472
   40        0.279   0.376   7.836   8.491
   41        1.270   2.763   0.006   4.039
   42        1.274   2.756   0.007   4.036
   43        1.273   2.752   0.007   4.033
   44        1.267   2.770   0.007   4.043
   45        1.272   2.759   0.006   4.037
   46        1.270   2.761   0.006   4.037
   47        1.275   2.750   0.007   4.032
   48        1.274   2.751   0.007   4.032
   49        1.270   2.761   0.006   4.038
   50        1.269   2.765   0.006   4.040
   51        1.267   2.771   0.007   4.045
   52        1.269   2.767   0.007   4.043
   53        1.272   2.757   0.008   4.037
   54        1.269   2.769   0.008   4.046
   55        1.273   2.755   0.007   4.035
   56        1.266   2.773   0.007   4.046
   57        1.267   2.773   0.006   4.045
   58        1.267   2.770   0.007   4.044
   59        1.267   2.770   0.007   4.043
   60        1.272   2.761   0.007   4.040
[...]
   80        1.264   2.777   0.007   4.048
   81        1.266   2.773   0.007   4.046
   82        1.272   2.763   0.007   4.042
   83        1.277   2.745   0.007   4.029
   84        1.278   2.743   0.007   4.028
   85        1.273   2.761   0.007   4.041
   86        1.264   2.778   0.006   4.048
   87        1.275   2.754   0.007   4.035
   88        1.276   2.751   0.007   4.033
   89        1.273   2.756   0.007   4.037
   90        1.269   2.763   0.006   4.039
   91        1.278   2.740   0.007   4.025
   92        1.275   2.756   0.007   4.037
   93        1.269   2.769   0.007   4.045
   94        1.273   2.755   0.007   4.035
tot         103.22  162.65  213.21  479.08

magnetization (x)

# of ion       s       p       d       tot
    1        0.007   0.013   0.001   0.020
    2        0.005   0.010   0.000   0.016
    3        0.005   0.010   0.001   0.016
    4        0.006   0.009   0.000   0.015
    5        0.006   0.011   0.001   0.017
    6        0.006   0.009   0.001   0.015
    7        0.006   0.012   0.001   0.019
    8        0.005   0.011   0.001   0.018
    9        0.007   0.013   0.001   0.021
   10        0.006   0.012   0.001   0.019
   11        0.006   0.010   0.001   0.017
   12        0.006   0.013   0.001   0.020
   13        0.006   0.012   0.001   0.019
   14        0.000  -0.000   0.341   0.341
   15       -0.000  -0.001   0.426   0.425
   16        0.000  -0.001   0.573   0.573
   17       -0.000  -0.001   0.566   0.565
   18       -0.000  -0.001   0.278   0.277
   19       -0.001  -0.001   0.234   0.232
   20       -0.001  -0.001   0.207   0.206
   21       -0.000  -0.001   0.469   0.468
   22       -0.001  -0.001   0.175   0.174
   23       -0.000  -0.000   0.163   0.162
   24        0.001  -0.000   0.598   0.599
   25       -0.001  -0.000   0.169   0.168
   26       -0.001  -0.000   0.184   0.183
   27       -0.001  -0.001   0.213   0.212
   28       -0.001  -0.001   0.340   0.339
   29        0.000  -0.000   0.347   0.347
   30       -0.001  -0.001   0.274   0.273
   31        0.001  -0.000   0.556   0.557
   32       -0.001  -0.001   0.206   0.205
   33       -0.000  -0.000   0.184   0.184
   34       -0.001  -0.001   0.268   0.267
   35        0.001  -0.001   0.658   0.659
   36       -0.001  -0.000   0.139   0.138
   37        0.000  -0.001   0.530   0.530
   38       -0.000  -0.000   0.159   0.158
   39        0.000  -0.001   0.649   0.648
   40       -0.001  -0.001   0.372   0.371
   41        0.012   0.087   0.000   0.098
   42        0.010   0.082   0.000   0.092
   43        0.003   0.010   0.000   0.013
   44        0.005   0.017   0.000   0.023
   45        0.010   0.056   0.000   0.066
   46        0.011   0.083   0.000   0.095
   47        0.008   0.062   0.000   0.070
   48        0.003   0.005   0.000   0.008
   49        0.011   0.078   0.000   0.089
   50        0.011   0.077   0.000   0.088
   51        0.004   0.003   0.000   0.008
   52        0.004   0.008   0.000   0.012
   53        0.003   0.001   0.000   0.005
   54        0.004   0.005   0.000   0.009
   55        0.003   0.006   0.000   0.010
   56        0.004   0.004   0.000   0.008
   57        0.012   0.085   0.000   0.097
   58        0.004   0.009   0.000   0.013
   59        0.004   0.013   0.000   0.017
   60        0.010   0.078   0.000   0.088
[...]
   80        0.004   0.005   0.000   0.010
   81        0.004   0.010   0.000   0.014
   82        0.009   0.070   0.000   0.080
   83        0.010   0.076   0.000   0.086
   84        0.010   0.084   0.000   0.094
   85        0.010   0.073   0.000   0.083
   86        0.005   0.020   0.000   0.026
   87        0.010   0.078   0.000   0.088
   88        0.010   0.087   0.000   0.097
   89        0.009   0.066   0.000   0.075
   90        0.008   0.043   0.000   0.052
   91        0.008   0.052   0.000   0.060
   92        0.011   0.084   0.000   0.095
   93        0.004   0.010   0.000   0.015
   94        0.003   0.006   0.000   0.009
tot           0.44    2.29    9.30   12.03