 vasp.5.4.4.18Apr17-6-g9f103f2a35 (build May 12 2020 05:39:39) gamma-only

 MD_VERSION_INFO: Compiled 2020-05-12T12:39:39-UTC in devlin.sd.materialsdesign.
 com:/home/medea2/data/build/wwolf/vasp-gpu5.4.4/13047/x86_64/src/src/build/gam
 from svn 13047

 executed on                        Lin64 date 2023.01.20  11:09:41

 INCAR:
 POTCAR:    PAW_PBE Li_sv 10Sep2004
 POTCAR:    PAW_PBE Ni 02Aug2007
 POTCAR:    PAW_PBE O 08Apr2002

 POTCAR:    PAW_PBE Li_sv 10Sep2004

 POTCAR:    PAW_PBE Ni 02Aug2007

 POTCAR:    PAW_PBE O 08Apr2002

 Optimization of the real space projectors (new method)

 maximal supplied QI-value         = 22.11
 optimisation between [QCUT,QGAM] = [ 11.28, 22.77] = [ 35.61,145.23] Ry
 Optimized for a Real-space Cutoff    1.10 Angstroem

   l    n(q)    QCUT    max X(q) W(low)/X(q) W(high)/X(q)  e(spline)
   0      7    11.276    10.506    0.54E-04    0.58E-04    0.16E-07
   0      7    11.276     8.367    0.11E-03    0.14E-03    0.35E-07
   1      7    11.276     8.983    0.23E-03    0.43E-03    0.86E-07
 Optimization of the real space projectors (new method)

[...]

   l    n(q)    QCUT    max X(q) W(low)/X(q) W(high)/X(q)  e(spline)
   2      9    11.376    60.317    0.17E-03    0.16E-04    0.16E-06
   2      9    11.376    55.921    0.17E-03    0.16E-04    0.17E-06
   0     10    11.376    51.690    0.45E-04    0.60E-04    0.21E-06
   0     10    11.376    30.015    0.37E-04    0.55E-04    0.19E-06
   1     10    11.376    18.849    0.83E-04    0.11E-03    0.92E-07
   1     10    11.376    14.624    0.69E-04    0.92E-04    0.82E-07
 Optimization of the real space projectors (new method)

 maximal supplied QI-value         = 24.76
 optimisation between [QCUT,QGAM] = [ 11.39, 22.77] = [ 36.31,145.25] Ry
 Optimized for a Real-space Cutoff    1.10 Angstroem

   l    n(q)    QCUT    max X(q) W(low)/X(q) W(high)/X(q)  e(spline)
   0      7    11.387    20.381    0.22E-03    0.48E-03    0.18E-06
   0      7    11.387    15.268    0.22E-03    0.52E-03    0.19E-06
   1      7    11.387     5.964    0.22E-03    0.73E-03    0.24E-06
   1      7    11.387     5.382    0.19E-03    0.60E-03    0.21E-06

  PAW_PBE Li_sv 10Sep2004               :
  PAW_PBE Ni 02Aug2007                  :
  PAW_PBE O 08Apr2002                   :

 POSCAR: ce288685_1
  positions in direct lattice
 exchange correlation table for  LEXCH =       14
   RHO(1)=    0.500       N(1)  =     2000
   RHO(2)=  100.500       N(2)  =     4000

 ion  position               nearest neighbor table
   1  0.999  0.500  0.998-  90 2.09  91 2.09  42 2.10  43 2.11  78 2.12  55 2.12
   2  0.091  0.833  0.223-  57 2.01  56 2.02  62 2.13  39 2.13  63 2.22  44 2.24  21 2.79  20 2.80

   3  0.222  0.167  0.111-  40 2.11  47 2.11  64 2.12  77 2.12  46 2.13  41 2.13
   4  0.353  0.500  0.999-  84 2.01  49 2.02  79 2.13  48 2.13  78 2.22  43 2.24  34 2.79  17 2.80

[...]

  10  0.555  0.166  0.777-  65 2.11  82 2.11  83 2.12  89 2.12  88 2.12  52 2.13
  11  0.646  0.500  0.646-  67 2.01  66 2.02  72 2.14  85 2.14  90 2.23  91 2.23  26 2.79  25 2.80

  12  0.999  1.000  0.999-  56 1.87  77 1.87  41 1.89  92 1.90  89 1.91  44 1.93  30 2.80  18 2.81
                            36 2.81  15 2.81  21 2.82  24 2.83
  13  0.112  0.332  0.223-  64 1.87  61 1.87  40 1.88  55 1.88  58 1.92  43 1.93  25 2.79  37 2.80
                            16 2.81  19 2.81  22 2.82  31 2.83
  14  0.222  0.667  0.111-  63 1.87  78 1.87  39 1.88  48 1.88  45 1.92  42 1.92  38 2.80  26 2.80
                            23 2.80  32 2.80  20 2.82  17 2.82
  15  0.333  0.001  1.000-  77 1.87  80 1.87  47 1.88  50 1.88  83 1.92  44 1.93  30 2.79  27 2.80
                            12 2.81  18 2.81  33 2.82  24 2.83
  16  0.445  0.334  0.223-  49 1.87  64 1.87  46 1.89  67 1.90  70 1.91  43 1.93  25 2.80  19 2.81
                            28 2.81  13 2.81  34 2.82  31 2.83
  17  0.558  0.666  0.114-  51 1.88  45 1.88  48 1.88  84 1.88  54 1.89  69 1.91  29 2.78  20 2.78
                             4 2.80  26 2.80  35 2.82  14 2.82  32 2.83
  18  0.668  0.999  0.002-  89 1.87  86 1.88  83 1.88  56 1.89  53 1.90  50 1.91  27 2.79  21 2.79
                            12 2.81  15 2.81  36 2.83  33 2.83
  19  0.777  0.334  0.220-  70 1.87  73 1.88  58 1.88  49 1.89  52 1.90  55 1.91  37 2.79  34 2.79
                            16 2.81  13 2.81  28 2.83  22 2.83
  20  0.886  0.667  0.109-  54 1.88  42 1.88  39 1.88  57 1.88  51 1.89  90 1.91  35 2.78  17 2.78
                             2 2.80  38 2.80  29 2.82  14 2.82  23 2.83
  21  1.000  0.001  0.333-  53 1.87  62 1.87  59 1.87  56 1.88  41 1.91  74 1.92   2 2.79  18 2.79
                            33 2.80  27 2.81  12 2.82  24 2.82  30 2.82
  22  0.113  0.333  0.557-  76 1.87  61 1.87  58 1.88  73 1.88  79 1.90  82 1.90  31 2.79  34 2.80
                            25 2.80   6 2.81  28 2.82  13 2.82  19 2.83
  23  0.223  0.667  0.444-  60 1.87  57 1.88  66 1.90  63 1.91  81 1.92  42 1.94  26 2.79  14 2.80
                            35 2.81  29 2.83  32 2.83  20 2.83
  24  0.335  0.001  0.336-  62 1.87  47 1.88  41 1.88  44 1.88  65 1.89  68 1.91  36 2.78  33 2.79
                            27 2.81  21 2.82  15 2.83  12 2.83
  25  0.443  0.332  0.554-  82 1.88  88 1.88  67 1.88  85 1.88  64 1.90  61 1.90  13 2.79  22 2.80
                            16 2.80  11 2.80  28 2.82  34 2.82  37 2.83
  26  0.554  0.666  0.443-  66 1.87  87 1.88  72 1.88  69 1.88  48 1.90  63 1.91  23 2.79  11 2.79
                            14 2.80  17 2.80  35 2.81  29 2.82  38 2.83
  27  0.666  0.001  0.332-  53 1.86  68 1.88  71 1.88  74 1.88  47 1.90  50 1.91  18 2.79  15 2.80
                            24 2.81  21 2.81  36 2.82  30 2.83
  28  0.778  0.334  0.556-  67 1.87  76 1.87  70 1.88  91 1.92  88 1.92  73 1.92  31 2.78  16 2.81
                            22 2.82  25 2.82  37 2.82  19 2.83
  29  0.888  0.668  0.444-  60 1.87  75 1.87  54 1.87  69 1.91  57 1.92  72 1.92  17 2.78   6 2.80
                            32 2.81  38 2.81  26 2.82  20 2.82  23 2.83
  30  0.002  0.001  0.668-  59 1.88  71 1.88  92 1.88  74 1.88  77 1.90  80 1.90  15 2.79  33 2.80
                            12 2.80   7 2.80  36 2.82  21 2.82  27 2.83
  31  0.109  0.332  0.886-  79 1.87  40 1.88  46 1.88  43 1.88  76 1.89  91 1.91  28 2.78  22 2.79
                            37 2.81  34 2.82  13 2.83  16 2.83
  32  0.221  0.666  0.778-  81 1.87  84 1.88  75 1.90  78 1.91  60 1.92  45 1.94  38 2.79  14 2.80
                            29 2.81  35 2.83  23 2.83  17 2.83
  33  0.332  0.001  0.665-  65 1.87  80 1.87  83 1.88  86 1.88  62 1.90  59 1.90  24 2.79  21 2.80
                            30 2.80   9 2.81  36 2.82  15 2.82  18 2.83
  34  0.445  0.332  0.889-  52 1.87  79 1.87  82 1.87  49 1.88  46 1.91  85 1.92   4 2.79  19 2.79
                            22 2.80  37 2.81  16 2.82  31 2.82  25 2.82
  35  0.556  0.665  0.778-  81 1.87  66 1.87  51 1.87  90 1.91  84 1.92  87 1.92  20 2.78   9 2.80
                            23 2.81  26 2.81  38 2.82  17 2.82  32 2.83
  36  0.666  1.000  0.666-  92 1.87  65 1.87  89 1.88  68 1.92  71 1.92  86 1.92  24 2.78  12 2.81
                            33 2.82  30 2.82  27 2.82  18 2.83
  37  0.778  0.332  0.891-  52 1.86  91 1.88  88 1.88  85 1.88  40 1.90  55 1.91  19 2.79  13 2.80
                            31 2.81  34 2.81  28 2.82  25 2.83
  38  0.891  0.667  0.779-  75 1.87  72 1.88  87 1.88  90 1.88  39 1.90  78 1.91  32 2.79   7 2.79
                            14 2.80  20 2.80  29 2.81  35 2.82  26 2.83
  39  0.002  0.735  0.004-  14 1.88  20 1.88  38 1.90   2 2.13
  40  0.004  0.265  0.002-  31 1.88  13 1.88  37 1.90   3 2.11
  41  0.113  0.068  0.221-  24 1.88  12 1.89  21 1.91   3 2.13
  42  0.104  0.596  0.217-  20 1.88  14 1.92  23 1.94   1 2.10   6 2.22
  43  0.218  0.403  0.104-  31 1.88  13 1.93  16 1.93   1 2.11   4 2.24
  44  0.227  0.930  0.118-  24 1.88  15 1.93  12 1.93   5 2.11   2 2.24
  45  0.341  0.737  0.006-  17 1.88  14 1.92  32 1.94   5 2.10   9 2.22
  46  0.331  0.265  0.002-  31 1.88  16 1.89  34 1.91   3 2.13
  47  0.440  0.068  0.221-  24 1.88  15 1.88  27 1.90   3 2.11
  48  0.443  0.599  0.218-  14 1.88  17 1.88  26 1.90   4 2.13
  49  0.552  0.401  0.109-  16 1.87  34 1.88  19 1.89   4 2.02
  50  0.551  0.930  0.109-  15 1.88  18 1.91  27 1.91   5 2.12   9 2.23
  51  0.662  0.734  0.998-  35 1.87  17 1.88  20 1.89   9 2.13
  52  0.665  0.265  0.997-  37 1.86  34 1.87  19 1.90  10 2.13
  53  0.779  0.068  0.225-  27 1.86  21 1.87  18 1.90   8 2.13
  54  0.782  0.599  0.225-  29 1.87  20 1.88  17 1.89   6 2.13
  55  0.894  0.403  0.114-  13 1.88  19 1.91  37 1.91   1 2.12   6 2.23
  56  0.893  0.933  0.113-  12 1.87  21 1.88  18 1.89   2 2.02
  57  0.002  0.735  0.330-  20 1.88  23 1.88  29 1.92   2 2.01
  58  0.997  0.265  0.335-  19 1.88  22 1.88  13 1.92   8 2.12
  59  0.107  0.069  0.554-  21 1.87  30 1.88  33 1.90   8 2.11
  60  0.108  0.600  0.549-  29 1.87  23 1.87  32 1.92   6 2.01
  61  0.218  0.400  0.443-  13 1.87  22 1.87  25 1.90   6 2.14
  62  0.220  0.933  0.440-  21 1.87  24 1.87  33 1.90   2 2.13
  63  0.330  0.737  0.328-  14 1.87  23 1.91  26 1.91   5 2.12   2 2.22
  64  0.332  0.266  0.329-  13 1.87  16 1.87  25 1.90   3 2.12
  65  0.447  0.068  0.560-  36 1.87  33 1.87  24 1.89  10 2.11
  66  0.448  0.599  0.557-  26 1.87  35 1.87  23 1.90  11 2.02
  67  0.558  0.400  0.449-  28 1.87  25 1.88  16 1.90  11 2.01
  68  0.558  0.930  0.440-  27 1.88  24 1.91  36 1.92   5 2.09   7 2.23
  69  0.664  0.737  0.336-  26 1.88  29 1.91  17 1.91   5 2.09   7 2.23
  70  0.672  0.266  0.335-  19 1.87  28 1.88  16 1.91   8 2.12
  71  0.780  0.068  0.553-  30 1.88  27 1.88  36 1.92   8 2.12
  72  0.776  0.599  0.558-  38 1.88  26 1.88  29 1.92  11 2.14
  73  0.891  0.401  0.442-  19 1.88  22 1.88  28 1.92   6 2.02
  74  0.887  0.933  0.447-  30 1.88  27 1.88  21 1.92   7 2.14
  75  0.996  0.734  0.665-  38 1.87  29 1.87  32 1.90   7 2.02
  76  0.997  0.266  0.662-  28 1.87  22 1.87  31 1.89   8 2.11
  77  0.112  0.068  0.894-  15 1.87  12 1.87  30 1.90   3 2.12
  78  0.114  0.597  0.894-  14 1.87  32 1.91  38 1.91   1 2.12   4 2.22
  79  0.224  0.400  0.782-  34 1.87  31 1.87  22 1.90   4 2.13
  80  0.226  0.933  0.779-  15 1.87  33 1.87  30 1.90   9 2.14
  81  0.336  0.733  0.673-  35 1.87  32 1.87  23 1.92   9 2.01
  82  0.337  0.265  0.668-  34 1.87  25 1.88  22 1.90  10 2.11
  83  0.447  0.068  0.887-  18 1.88  33 1.88  15 1.92  10 2.12
  84  0.443  0.599  0.892-  17 1.88  32 1.88  35 1.92   4 2.01
  85  0.557  0.400  0.775-  25 1.88  37 1.88  34 1.92  11 2.14
  86  0.553  0.932  0.781-  18 1.88  33 1.88  36 1.92   9 2.02
  87  0.668  0.734  0.664-  26 1.88  38 1.88  35 1.92   7 2.14
  88  0.664  0.265  0.669-  25 1.88  37 1.88  28 1.92  10 2.12
  89  0.773  0.067  0.887-  18 1.87  36 1.88  12 1.91  10 2.12
  90  0.781  0.596  0.886-  38 1.88  35 1.91  20 1.91   1 2.09  11 2.23
  91  0.886  0.403  0.782-  37 1.88  31 1.91  28 1.92   1 2.09  11 2.23
  92  0.887  0.933  0.773-  36 1.87  30 1.88  12 1.90   7 2.01

  LATTYP: Found a triclinic cell.
 ALAT       =     8.4366297049
 B/A-ratio  =     0.9983956239
 C/A-ratio  =     1.6826489605
[...]
   -.119E+02 0.341E+02 -.311E+03   0.121E+02 -.368E+02 0.329E+03   -.216E+00 0.265E+01 -.181E+02   0.546E-02 0.277E-01 -.425E-01
   0.198E+01 0.309E+02 0.331E+03   -.223E+01 -.339E+02 -.352E+03   0.229E+00 0.307E+01 0.205E+02   0.205E-01 -.527E-03 0.216E-01
   -.350E+02 0.134E+02 -.351E+03   0.382E+02 -.150E+02 0.371E+03   -.315E+01 0.161E+01 -.195E+02   -.231E-02 0.843E-02 0.885E-02
   0.251E+02 -.135E+02 0.359E+03   -.278E+02 0.149E+02 -.380E+03   0.278E+01 -.141E+01 0.210E+02   -.170E-01 0.209E-01 0.538E-02
   0.718E-01 -.301E+02 -.351E+03   -.406E-01 0.330E+02 0.372E+03   -.278E-01 -.297E+01 -.215E+02   -.173E-02 0.111E-01 0.102E-01
   -.283E+02 -.186E+02 0.342E+03   0.312E+02 0.206E+02 -.362E+03   -.284E+01 -.199E+01 0.195E+02   -.400E-02 0.201E-01 -.102E-01
[...]
   0.323E+02 0.107E+02 -.335E+03   -.344E+02 -.123E+02 0.357E+03   0.217E+01 0.155E+01 -.215E+02   -.317E-02 -.146E-02 -.384E-01
   0.826E+01 0.332E+02 0.336E+03   -.816E+01 -.360E+02 -.357E+03   -.121E+00 0.277E+01 0.216E+02   0.106E-01 0.185E-01 0.465E-01
   0.283E+02 0.186E+02 -.342E+03   -.312E+02 -.206E+02 0.362E+03   0.284E+01 0.199E+01 -.195E+02   0.400E-02 -.201E-01 0.102E-01
   -.720E-01 0.301E+02 0.351E+03   0.406E-01 -.330E+02 -.372E+03   0.278E-01 0.297E+01 0.215E+02   0.173E-02 -.111E-01 -.102E-01
   -.251E+02 0.135E+02 -.359E+03   0.278E+02 -.149E+02 0.380E+03   -.278E+01 0.141E+01 -.210E+02   0.170E-01 -.209E-01 -.538E-02
   0.350E+02 -.134E+02 0.351E+03   -.382E+02 0.150E+02 -.371E+03   0.315E+01 -.161E+01 0.195E+02   0.231E-02 -.843E-02 -.885E-02
   -.278E+02 0.249E+02 -.341E+03   0.306E+02 -.263E+02 0.362E+03   -.278E+01 0.140E+01 -.207E+02   0.781E-02 -.115E-01 -.275E-01
   0.293E+02 -.179E+02 0.339E+03   -.323E+02 0.198E+02 -.359E+03   0.303E+01 -.192E+01 0.197E+02   0.104E-01 -.214E-01 0.282E-01
   -.356E+02 0.157E+02 -.353E+03   0.383E+02 -.175E+02 0.373E+03   -.280E+01 0.176E+01 -.203E+02   0.124E-01 -.988E-02 0.400E-01
   0.311E+02 -.152E+02 0.360E+03   -.341E+02 0.170E+02 -.381E+03   0.294E+01 -.181E+01 0.209E+02   0.524E-02 -.485E-02 -.192E-01
   -.984E+00 -.309E+02 -.350E+03   0.107E+01 0.340E+02 0.371E+03   -.973E-01 -.304E+01 -.209E+02   0.820E-02 -.124E-01 0.297E-01
   -.223E+02 0.284E+02 0.320E+03   0.243E+02 -.301E+02 -.338E+03   -.202E+01 0.167E+01 0.175E+02   0.294E-01 -.107E-02 -.283E-01
   0.355E+02 -.702E+01 -.310E+03   -.379E+02 0.804E+01 0.328E+03   0.242E+01 -.104E+01 -.179E+02   0.476E-02 0.191E-01 -.328E-01
   -.290E+02 -.159E+02 0.331E+03   0.319E+02 0.176E+02 -.352E+03   -.290E+01 -.165E+01 0.204E+02   -.123E-01 0.840E-02 0.203E-01
   -.143E-02 0.119E-02 0.352E-02   0.451E-12 -.227E-12 -.853E-12   -.178E-14 0.111E-14 0.355E-14   0.194E-06 0.253E-07 -.786E-06

 POSITION                                       TOTAL-FORCE (eV/Angst)
      4.19157      7.28508      7.09384        -0.000055     -0.002004      0.002056
      1.47759      0.67137     11.83970        -0.000354     -0.004707      0.000163
     -0.00459      1.62272      2.36795        -0.000000      0.000000      0.000000
      6.92507      2.57880      7.08364         0.000354      0.004707     -0.000163
     -0.01042      3.26221     11.84160         0.000055      0.002004     -0.002056
      2.96686      0.00498      7.09663         0.001070     -0.001099     -0.000631
      1.47457      5.83615     11.84001         0.002418      0.004935     -0.005635
     -0.00418      6.48994      2.37475         0.003196      0.001267     -0.001997
      5.43581      3.24520     11.82671        -0.001070      0.001099      0.000631
      4.20546      4.04624      2.36093        -0.003196     -0.001267      0.001997
      2.70658      4.71115      7.09543        -0.002418     -0.004935      0.005635
      4.18620      7.29415     14.19316        -0.002830     -0.003845     -0.000355
      1.40191      0.81448      4.71739        -0.000364      0.002510     -0.003229
     -0.01465      1.62828      9.46783        -0.000000      0.000000      0.000000
      7.02090      2.42457      0.00619         0.000364     -0.002510      0.003229
     -0.00505      3.25314      4.74228         0.002830      0.003845      0.000355
     -1.41748      4.07859      9.46638        -0.013439     -0.000626      0.002324
     -2.82382      4.88296     14.19941        -0.006948      0.003883     -0.000476
     -1.42701      5.67072      4.74835         0.006948     -0.003883      0.000476
     -2.83335      6.47509      9.48138         0.013439      0.000626     -0.002324
     -1.40849      7.29331      0.02055         0.000218     -0.004644     -0.001298
      4.21553      0.82198      4.71806         0.009794     -0.006590     -0.002057
      2.79293      1.63248      9.46501         0.006196     -0.000360     -0.000886
      1.41654      2.44361      0.01650         0.004470      0.002613      0.002248
      2.79256      3.22944      4.71989        -0.006912      0.002879      0.000212
      1.38758      4.04462      9.46227        -0.006962     -0.002820      0.001768
     -0.01110      4.85825      0.02032         0.008302      0.002589      0.001326
      1.39782      5.67529      4.74327        -0.002709     -0.000379     -0.001951
     -0.01641      6.48944      9.48955         0.001298     -0.001000     -0.002353
      5.63025      0.00962      0.00369         0.006912     -0.002879     -0.000212
      7.00626      0.79545      4.70708        -0.004470     -0.002613     -0.002248
      5.60974      1.61770      9.45834        -0.006196      0.000360      0.000886
      4.20728      2.41708      0.00553        -0.009794      0.006590      0.002057
      5.60978      3.24287      4.71513        -0.000218      0.004644      0.001298
      4.19756      4.05786      9.44590        -0.001298      0.001000      0.002353
      2.78333      4.87200     14.19217         0.002709      0.000379      0.001951
      4.21238      5.67792      4.71536        -0.008302     -0.002589     -0.001326
      2.79357      6.50267      9.47317         0.006962      0.002820     -0.001768
      0.01299      0.01984     10.42970         0.009872      0.002860      0.004816
     -0.00868      0.03024      3.76179        -0.001100      0.000357     -0.006147
      1.37594      0.82008      0.96171         0.002061     -0.001947      0.008529
      1.39543      0.77053      8.46717         0.016460     -0.001697     -0.009128
     -0.04342      1.59792      5.72217         0.001469     -0.005428      0.005537
      0.01411      1.65865     13.21349        -0.001469      0.005428     -0.005537
     -1.42474      2.48603     10.46849        -0.016460      0.001697      0.009128
     -1.38511      2.42537      3.77418        -0.002061      0.001947     -0.008529
     -0.00049      3.21521      0.97410         0.001100     -0.000357      0.006147
     -0.04230      3.23673      8.50596        -0.009872     -0.002860     -0.004816
     -1.41836      4.03424      5.69400        -0.002958      0.001697      0.005826
     -1.42970      4.03118     13.21678         0.001045      0.002750     -0.008611
      5.59922      4.83474     10.41675        -0.007162      0.000114      0.004200
      5.58650      4.85390      3.76230        -0.005586      0.003245     -0.007437
     -1.38521      5.68227      0.97338         0.005586     -0.003245      0.007437
     -1.41807      5.71255      8.51869         0.007162     -0.000114     -0.004200
     -2.82114      6.52250      5.73097        -0.001045     -0.002750      0.008611
     -2.83247      6.51944     13.25375         0.002958     -0.001697     -0.005826
      2.76941      0.02256     10.42793         0.015561      0.001500      0.008199
     -1.38849      7.27580      3.77668         0.000698      0.001017     -0.005340
      4.22005      0.77914      0.96892         0.001727     -0.000123      0.010197
      4.17508      0.80061      8.51339         0.004620     -0.005321     -0.008343
[...]
      7.03971      0.83808      8.46369         0.004073      0.000132     -0.007034
      5.63676      1.63350      5.67423         0.001004      0.003351      0.004434
      5.59698      1.65587     13.24200        -0.001984      0.004759     -0.007984
      4.22759      2.44957     10.40996        -0.004620      0.005321      0.008343
      4.20276      2.45992      3.75466        -0.001727      0.000123     -0.010197
      5.58978      3.26037      0.95900        -0.000698     -0.001017      0.005340
      5.63325      3.22762      8.49542        -0.015561     -0.001500     -0.008199
      4.17614      4.06503      5.68202        -0.003499     -0.002301      0.007581
      4.21474      4.04234     13.23482        -0.003693     -0.001821     -0.006392
      2.77011      4.87906     10.42139        -0.000846      0.001244      0.007477
      2.81931      4.84670      3.76548        -0.006445     -0.003314     -0.005597
      4.21518      5.63366      0.94742         0.001374     -0.001978      0.004775
      4.16250      5.69730      8.46524         0.004036      0.005770     -0.007489
      2.83303      6.46124      5.72133        -0.002386      0.003335      0.006885
      2.76084      6.48452     13.24383         0.002138      0.004841     -0.008413
    total drift:                               -0.001427      0.001187      0.003516

  FREE ENERGIE OF THE ION-ELECTRON SYSTEM (eV)
  free  energy   TOTEN  =      -566.5048044916 eV

  energy  without entropy=     -566.4645961516  energy(sigma->0) =     -566.48470032

 d Force = 0.4919969E-03[ 0.372E-03, 0.612E-03]  d Energy = 0.4984156E-03-0.642E-05
 d Force = 0.4219473E+01[ 0.421E+01, 0.422E+01]  d Ewald  = 0.1362533E+02-0.941E+01

 Quasi-Newton relaxation of ions (Broydens 2nd method)
  g(Force)  = 0.329E-03   g(Stress)= 0.508E-04

 retain information from N=  3 steps
 eigenvalues of (default step * inverse Hessian matrix)
  average eigenvalue of G=   1.4590
 eigenvalue spectrum of G is  0.4907  2.0121  1.8742

 reached required accuracy - stopping structural energy minimisation

volume of typ            1:     9.8 %

[...]

volume of typ            3:    10.1 %

total charge

# of ion       s       p       d       tot
    1        2.076   0.240   0.091   2.408
    2        2.073   0.232   0.089   2.395
    3        2.069   0.222   0.086   2.376
    4        2.073   0.232   0.089   2.395
    5        2.076   0.240   0.091   2.408
    6        2.073   0.231   0.088   2.392
    7        2.073   0.232   0.089   2.395
    8        2.070   0.221   0.085   2.376
    9        2.073   0.231   0.088   2.392
   10        2.070   0.221   0.085   2.376
   11        2.073   0.232   0.089   2.395
   12        0.284   0.387   7.839   8.509
   13        0.287   0.395   7.841   8.523
   14        0.286   0.393   7.851   8.530
   15        0.287   0.395   7.841   8.524
   16        0.284   0.387   7.839   8.509
   17        0.289   0.397   7.842   8.528
   18        0.286   0.390   7.836   8.512
   19        0.286   0.390   7.836   8.512
   20        0.289   0.397   7.842   8.528
   21        0.288   0.395   7.838   8.521
   22        0.289   0.398   7.836   8.523
   23        0.280   0.380   7.839   8.499
   24        0.288   0.396   7.841   8.525
   25        0.290   0.399   7.835   8.524
   26        0.288   0.396   7.844   8.528
   27        0.289   0.397   7.841   8.527
   28        0.284   0.388   7.838   8.510
   29        0.283   0.386   7.841   8.510
   30        0.290   0.399   7.836   8.524
   31        0.288   0.396   7.841   8.525
   32        0.280   0.380   7.839   8.499
   33        0.289   0.398   7.836   8.523
   34        0.288   0.395   7.838   8.521
   35        0.283   0.386   7.841   8.510
   36        0.284   0.388   7.838   8.510
   37        0.289   0.397   7.841   8.527
   38        0.288   0.396   7.844   8.528
   39        1.275   2.752   0.007   4.034
   40        1.275   2.750   0.007   4.033
   41        1.279   2.741   0.007   4.027
   42        1.273   2.757   0.006   4.036
   43        1.273   2.756   0.006   4.036
   44        1.273   2.756   0.006   4.036
   45        1.273   2.757   0.006   4.036
   46        1.279   2.741   0.007   4.027
   47        1.275   2.750   0.007   4.033
   48        1.275   2.752   0.007   4.034
   49        1.273   2.761   0.007   4.041
   50        1.270   2.767   0.006   4.043
   51        1.275   2.753   0.007   4.035
   52        1.276   2.751   0.007   4.034
   53        1.276   2.751   0.007   4.034
   54        1.275   2.753   0.007   4.035
   55        1.270   2.767   0.006   4.043
   56        1.273   2.761   0.007   4.041
   57        1.276   2.750   0.007   4.033
   58        1.279   2.741   0.007   4.026
   59        1.276   2.750   0.007   4.033
   60        1.277   2.751   0.007   4.035
[...]
   78        1.269   2.768   0.007   4.044
   79        1.275   2.752   0.007   4.035
   80        1.275   2.752   0.007   4.034
   81        1.277   2.751   0.007   4.035
   82        1.276   2.750   0.007   4.033
   83        1.279   2.741   0.007   4.026
   84        1.276   2.750   0.007   4.033
   85        1.279   2.741   0.007   4.026
   86        1.277   2.747   0.007   4.031
   87        1.279   2.741   0.007   4.027
   88        1.279   2.739   0.007   4.025
   89        1.279   2.742   0.007   4.028
   90        1.270   2.767   0.006   4.044
   91        1.269   2.769   0.006   4.044
   92        1.273   2.762   0.007   4.042
tot          99.38  161.78  213.02  474.19

magnetization (x)

# of ion       s       p       d       tot
    1        0.001   0.001   0.000   0.003
    2       -0.002   0.000  -0.000  -0.002
    3        0.000   0.002   0.000   0.002
    4       -0.002   0.000  -0.000  -0.002
    5        0.001   0.001   0.000   0.003
    6        0.000   0.001   0.000   0.002
    7        0.001  -0.000  -0.000   0.001
    8        0.000   0.001  -0.000   0.001
    9        0.000   0.001   0.000   0.002
   10        0.000   0.001  -0.000   0.001
   11        0.001  -0.000  -0.000   0.001
   12        0.000  -0.000   0.139   0.139
   13       -0.000   0.000  -0.042  -0.042
   14        0.000  -0.000   0.178   0.178
   15       -0.000   0.000  -0.042  -0.042
   16        0.000  -0.000   0.139   0.139
   17        0.000   0.000  -0.001  -0.001
   18       -0.000   0.000  -0.004  -0.004
   19       -0.000   0.000  -0.004  -0.004
   20        0.000   0.000  -0.001  -0.001
   21       -0.000  -0.000   0.100   0.100
   22        0.000   0.000  -0.006  -0.006
   23        0.000  -0.000   0.086   0.086
   24       -0.000  -0.000   0.071   0.071
   25       -0.000   0.000  -0.016  -0.016
   26        0.000   0.000  -0.076  -0.076
   27        0.000   0.000  -0.029  -0.029
   28       -0.000  -0.000  -0.010  -0.010
   29        0.000   0.000  -0.106  -0.106
   30       -0.000   0.000  -0.016  -0.016
   31       -0.000  -0.000   0.071   0.071
   32        0.000  -0.000   0.086   0.086
   33        0.000   0.000  -0.006  -0.006
   34       -0.000  -0.000   0.100   0.100
   35        0.000   0.000  -0.106  -0.106
   36       -0.000  -0.000  -0.010  -0.010
   37        0.000   0.000  -0.029  -0.029
   38        0.000   0.000  -0.076  -0.076
   39        0.001   0.004  -0.000   0.005
   40       -0.000  -0.005  -0.000  -0.005
   41        0.004   0.026   0.000   0.030
   42        0.004   0.023   0.000   0.027
   43        0.001   0.009   0.000   0.010
   44        0.001   0.009   0.000   0.010
   45        0.004   0.023   0.000   0.027
   46        0.004   0.026   0.000   0.030
   47       -0.000  -0.005  -0.000  -0.005
   48        0.001   0.004  -0.000   0.005
   49        0.002   0.010   0.000   0.012
   50       -0.001  -0.005  -0.000  -0.006
   51       -0.000  -0.002   0.000  -0.002
   52        0.000  -0.000   0.000   0.000
   53        0.000  -0.000   0.000   0.000
   54       -0.000  -0.002   0.000  -0.002
   55       -0.001  -0.005  -0.000  -0.006
   56        0.002   0.010   0.000   0.012
   57       -0.002  -0.018  -0.000  -0.021
   58       -0.001  -0.007   0.000  -0.008
   59        0.001   0.006   0.000   0.007
   60        0.001   0.012   0.000   0.013
[...]
   78        0.001   0.007   0.000   0.008
   79        0.001   0.006  -0.000   0.007
   80       -0.001  -0.007  -0.000  -0.007
   81        0.001   0.012   0.000   0.013
   82        0.001   0.006   0.000   0.007
   83       -0.001  -0.007   0.000  -0.008
   84       -0.002  -0.018  -0.000  -0.021
   85        0.000   0.004   0.000   0.004
   86       -0.001  -0.010  -0.000  -0.011
   87       -0.003  -0.028  -0.000  -0.031
   88       -0.002  -0.014  -0.000  -0.016
   89        0.002   0.012   0.000   0.013
   90       -0.001  -0.008  -0.000  -0.009
   91        0.001   0.004   0.000   0.005
   92        0.001   0.010   0.000   0.012
tot           0.02    0.06    0.38    0.46