 vasp.5.4.4.18Apr17-6-g9f103f2a35 (build May 12 2020 05:39:39) gamma-only

 MD_VERSION_INFO: Compiled 2020-05-12T12:39:39-UTC in devlin.sd.materialsdesign.
 com:/home/medea2/data/build/wwolf/vasp-gpu5.4.4/13047/x86_64/src/src/build/gam
 from svn 13047

 executed on                        Lin64 date 2023.01.19  13:36:13

 INCAR:
 POTCAR:    PAW_PBE Li_sv 10Sep2004
 POTCAR:    PAW_PBE Ni 02Aug2007
 POTCAR:    PAW_PBE O 08Apr2002

 POTCAR:    PAW_PBE Li_sv 10Sep2004

 POTCAR:    PAW_PBE Ni 02Aug2007

 POTCAR:    PAW_PBE O 08Apr2002

 Optimization of the real space projectors (new method)

 maximal supplied QI-value         = 22.11
 optimisation between [QCUT,QGAM] = [ 11.28, 22.77] = [ 35.61,145.23] Ry
 Optimized for a Real-space Cutoff    1.10 Angstroem

   l    n(q)    QCUT    max X(q) W(low)/X(q) W(high)/X(q)  e(spline)
   0      7    11.276    10.506    0.54E-04    0.58E-04    0.16E-07
   0      7    11.276     8.367    0.11E-03    0.14E-03    0.35E-07
   1      7    11.276     8.983    0.23E-03    0.43E-03    0.86E-07
 Optimization of the real space projectors (new method)

[...]

   l    n(q)    QCUT    max X(q) W(low)/X(q) W(high)/X(q)  e(spline)
   2      9    11.376    60.317    0.17E-03    0.16E-04    0.16E-06
   2      9    11.376    55.921    0.17E-03    0.16E-04    0.17E-06
   0     10    11.376    51.690    0.45E-04    0.60E-04    0.21E-06
   0     10    11.376    30.015    0.37E-04    0.55E-04    0.19E-06
   1     10    11.376    18.849    0.83E-04    0.11E-03    0.92E-07
   1     10    11.376    14.624    0.69E-04    0.92E-04    0.82E-07
 Optimization of the real space projectors (new method)

 maximal supplied QI-value         = 24.76
 optimisation between [QCUT,QGAM] = [ 11.39, 22.77] = [ 36.31,145.25] Ry
 Optimized for a Real-space Cutoff    1.10 Angstroem

   l    n(q)    QCUT    max X(q) W(low)/X(q) W(high)/X(q)  e(spline)
   0      7    11.387    20.381    0.22E-03    0.48E-03    0.18E-06
   0      7    11.387    15.268    0.22E-03    0.52E-03    0.19E-06
   1      7    11.387     5.964    0.22E-03    0.73E-03    0.24E-06
   1      7    11.387     5.382    0.19E-03    0.60E-03    0.21E-06

  PAW_PBE Li_sv 10Sep2004               :
  PAW_PBE Ni 02Aug2007                  :
  PAW_PBE O 08Apr2002                   :

 POSCAR: ce309319_1
  positions in direct lattice
 exchange correlation table for  LEXCH =       14
   RHO(1)=    0.500       N(1)  =     2000
   RHO(2)=  100.500       N(2)  =     4000

 ion  position               nearest neighbor table
   1  0.012  0.501  0.017-  45 2.03  46 2.04  58 2.05  81 2.14  93 2.15  94 2.23  16 2.77  17 2.83

   2  0.111  0.834  0.206-  47 1.99  42 1.99  59 2.10  66 2.11  65 2.21  60 2.23  17 2.78  15 2.78

   3  0.215  0.167  0.110-  43 2.05  44 2.06  67 2.12  80 2.13  50 2.15  49 2.15  15 2.84
   4  0.325  0.501  0.997-  46 2.06  81 2.07  82 2.12  87 2.13  51 2.13  52 2.15  35 2.83  34 2.83
                            19 2.84
   5  0.564  0.165  0.121-  56 2.06  73 2.06  50 2.11  55 2.12  49 2.16  86 2.18  22 2.84
   6  0.675  0.500  0.007-  58 2.05  57 2.07  93 2.09  52 2.11  88 2.16  87 2.16  23 2.83  22 2.83

   7  0.902  0.167  0.131-  61 2.02  44 2.02  43 2.11  56 2.12  55 2.14  92 2.27  24 2.76  22 2.83
                            16 2.84
   8  0.110  0.833  0.573-  83 2.00  78 2.00  77 2.09  84 2.10  60 2.22  65 2.24  35 2.78  33 2.78

   9  0.575  0.165  0.457-  74 2.03  73 2.04  91 2.05  68 2.15  50 2.16  67 2.25  31 2.77  39 2.84

  10  0.685  0.500  0.347-  76 2.02  75 2.02  57 2.10  70 2.11  52 2.17  51 2.24  32 2.78  31 2.84
                            22 2.84
  11  0.192  0.167  0.748-  79 1.96  62 1.96  85 2.09  80 2.14  49 2.28  25 2.74  33 2.75
  12  0.304  0.499  0.637-  64 1.96  63 1.97  82 2.08  69 2.16  88 2.27  26 2.74  25 2.74
  13  0.554  0.166  0.770-  91 2.06  68 2.06  85 2.11  92 2.12  86 2.12  55 2.15  28 2.83  36 2.84
                            40 2.85
  14  0.667  0.501  0.658-  70 2.06  75 2.07  69 2.10  94 2.11  88 2.17  93 2.18
  15  0.999  1.000  0.998-  95 1.86  47 1.87  59 1.89  44 1.89  92 1.90  80 1.92   2 2.78  39 2.79
                            33 2.81  18 2.83  21 2.83  27 2.84   3 2.84  24 2.85
  16  0.113  0.336  0.224-  43 1.87  64 1.88  61 1.89  67 1.91  58 1.91  46 1.94   1 2.77  28 2.79
                            19 2.81  25 2.81  22 2.83  40 2.83   7 2.84  34 2.85
  17  0.223  0.668  0.113-  42 1.87  66 1.87  48 1.88  81 1.88  45 1.89  51 1.90   2 2.78  29 2.79
                            20 2.81  41 2.82  26 2.82   1 2.83  35 2.83  23 2.84
  18  0.334  0.995  0.001-  53 1.85  80 1.88  83 1.92  47 1.92  50 1.97  86 1.98  30 2.80  21 2.81
                            33 2.82  15 2.83  36 2.85  27 2.85
  19  0.443  0.336  0.222-  67 1.87  73 1.87  46 1.90  52 1.92  70 1.92  49 1.94  16 2.81  34 2.82
                            37 2.82  28 2.83  22 2.83  31 2.83   4 2.84
  20  0.554  0.671  0.109-  72 1.87  48 1.87  54 1.87  51 1.88  57 1.89  87 1.92  35 2.80  38 2.81
                            32 2.81  17 2.81  23 2.82  29 2.83
  21  0.665  0.995  0.999-  89 1.87  53 1.88  56 1.89  59 1.89  92 1.90  86 1.90  36 2.80  18 2.81
                            39 2.82  24 2.83  15 2.83  30 2.83
  22  0.778  0.333  0.223-  61 1.86  76 1.86  52 1.92  55 1.93  58 1.98  73 1.98  25 2.80  37 2.80
                             7 2.83  19 2.83  16 2.83  31 2.83   6 2.83  40 2.84  10 2.84   5 2.84
  23  0.888  0.668  0.113-  42 1.87  54 1.88  45 1.89  60 1.90  57 1.91  93 1.91  32 2.80  38 2.81
                            26 2.82  20 2.82   6 2.83  17 2.84  41 2.85
  24  1.000  0.002  0.333-  65 1.87  77 1.88  59 1.89  56 1.90  62 1.91  44 1.92   7 2.76  27 2.82
                            36 2.82  30 2.82  21 2.83  33 2.83  15 2.85
  25  0.110  0.333  0.554-  79 1.88  64 1.88  61 1.90  76 1.90  82 1.92  85 1.92  12 2.74  11 2.74
                            22 2.80  31 2.81  16 2.81  28 2.82  34 2.82  37 2.84
  26  0.223  0.666  0.445-  84 1.88  66 1.88  63 1.88  60 1.88  45 1.90  69 1.91  12 2.74  29 2.81
                            23 2.82  38 2.82  17 2.82  32 2.83  35 2.84
  27  0.333  0.000  0.335-  47 1.87  71 1.88  65 1.90  50 1.91  68 1.91  44 1.93  36 2.80  24 2.82
                            39 2.82  30 2.83  15 2.84  18 2.85
  28  0.442  0.333  0.554-  64 1.87  91 1.88  67 1.91  88 1.93  85 1.95  70 1.96  16 2.79  25 2.82
                            40 2.82  19 2.83  13 2.83  37 2.84  31 2.84
  29  0.555  0.670  0.443-  75 1.87  90 1.88  72 1.88  66 1.89  51 1.93  69 1.94  17 2.79  26 2.81
                            32 2.83  41 2.83  20 2.83  38 2.84
  30  0.666  0.995  0.333-  53 1.87  71 1.88  74 1.89  77 1.91  56 1.94  50 1.95  18 2.80  33 2.82
                            24 2.82  39 2.83  27 2.83  21 2.83
  31  0.779  0.331  0.557-  70 1.87  79 1.88  76 1.88  73 1.92  94 1.92  91 1.93   9 2.77  34 2.79
                            25 2.81  40 2.82  22 2.83  19 2.83  10 2.84  28 2.84
  32  0.888  0.666  0.442-  78 1.87  72 1.88  75 1.90  60 1.91  57 1.91  63 1.92  10 2.78  23 2.80
                            20 2.81  35 2.82  29 2.83  26 2.83  41 2.84
  33  0.000  1.000  0.668-  77 1.87  83 1.87  95 1.88  62 1.89  74 1.89  80 1.91  11 2.75   8 2.78
                            15 2.81  39 2.81  18 2.82  30 2.82  24 2.83  36 2.84
  34  0.110  0.334  0.886-  79 1.87  46 1.88  94 1.90  49 1.92  82 1.96  43 1.97  31 2.79  40 2.82
                            25 2.82  19 2.82  37 2.83   4 2.83  16 2.85
  35  0.221  0.667  0.778-  78 1.86  84 1.88  48 1.88  63 1.89  87 1.91  81 1.91   8 2.78  41 2.80
                            20 2.80  32 2.82   4 2.83  17 2.83  26 2.84  38 2.84
  36  0.335  0.999  0.666-  83 1.87  89 1.87  62 1.89  65 1.90  86 1.91  68 1.91  21 2.80  27 2.80
                            39 2.81  24 2.82  33 2.84  13 2.84  18 2.85
  37  0.446  0.333  0.890-  82 1.88  85 1.88  49 1.92  88 1.92  55 1.93  52 1.93  22 2.80  40 2.82
                            19 2.82  34 2.83  28 2.84  25 2.84
  38  0.557  0.671  0.780-  54 1.86  69 1.88  90 1.89  84 1.91  93 1.94  87 1.96  23 2.81  20 2.81
                            26 2.82  41 2.83  35 2.84  29 2.84
  39  0.668  0.995  0.668-  95 1.87  89 1.87  71 1.87  74 1.88  68 1.89  92 1.91  15 2.79  36 2.81
                            33 2.81  27 2.82  21 2.82  30 2.83   9 2.84
  40  0.778  0.331  0.888-  94 1.87  58 1.88  91 1.91  43 1.91  55 1.92  88 1.93  37 2.82  31 2.82
                            34 2.82  28 2.82  16 2.83  22 2.84  13 2.85
  41  0.890  0.671  0.778-  90 1.85  78 1.91  81 1.91  42 1.94  93 1.96  75 1.98  35 2.80  17 2.82
                            38 2.83  29 2.83  32 2.84  23 2.85
  42  0.004  0.736  0.010-  17 1.87  23 1.87  41 1.94   2 1.99
  43  0.004  0.263  0.011-  16 1.87  40 1.91  34 1.97   3 2.05   7 2.11
  44  0.107  0.072  0.215-  15 1.89  24 1.92  27 1.93   7 2.02   3 2.06
  45  0.111  0.599  0.220-  17 1.89  23 1.89  26 1.90   1 2.03
  46  0.220  0.405  0.104-  34 1.88  19 1.90  16 1.94   1 2.04   4 2.06
  47  0.219  0.932  0.117-  27 1.87  15 1.87  18 1.92   2 1.99
  48  0.330  0.735  0.998-  20 1.87  35 1.88  17 1.88
  49  0.333  0.261  0.999-  37 1.92  34 1.92  19 1.94   3 2.15   5 2.16  11 2.28
  50  0.444  0.071  0.225-  27 1.91  30 1.95  18 1.97   5 2.11   3 2.15   9 2.16
  51  0.446  0.599  0.218-  20 1.88  17 1.90  29 1.93   4 2.13  10 2.24
  52  0.556  0.407  0.112-  19 1.92  22 1.92  37 1.93   6 2.11   4 2.15  10 2.17
  53  0.554  0.930  0.111-  18 1.85  30 1.87  21 1.88
  54  0.667  0.736  1.000-  38 1.86  20 1.87  23 1.88
  55  0.668  0.259  0.002-  40 1.92  37 1.93  22 1.93   5 2.12   7 2.14  13 2.15
  56  0.773  0.068  0.216-  21 1.89  24 1.90  30 1.94   5 2.06   7 2.12
  57  0.771  0.598  0.218-  20 1.89  32 1.91  23 1.91   6 2.07  10 2.10
  58  0.887  0.405  0.101-  40 1.88  16 1.91  22 1.98   1 2.05   6 2.05
  59  0.894  0.932  0.114-  15 1.89  24 1.89  21 1.89   2 2.10
  60  0.004  0.736  0.336-  26 1.88  23 1.90  32 1.91   8 2.22   2 2.23
  61  0.998  0.267  0.329-  22 1.86  16 1.89  25 1.90   7 2.02
  62  0.115  0.068  0.561-  36 1.89  33 1.89  24 1.91  11 1.96
  63  0.115  0.598  0.557-  26 1.88  35 1.89  32 1.92  12 1.97
  64  0.223  0.401  0.448-  28 1.87  25 1.88  16 1.88  12 1.96
  65  0.217  0.932  0.442-  24 1.87  36 1.90  27 1.90   2 2.21   8 2.24
  66  0.329  0.736  0.333-  17 1.87  26 1.88  29 1.89   2 2.11
  67  0.335  0.265  0.329-  19 1.87  28 1.91  16 1.91   3 2.12   9 2.25
  68  0.451  0.069  0.559-  39 1.89  27 1.91  36 1.91  13 2.06   9 2.15
  69  0.450  0.599  0.563-  38 1.88  26 1.91  29 1.94  14 2.10  12 2.16
  70  0.566  0.404  0.448-  31 1.87  19 1.92  28 1.96  14 2.06  10 2.11
  71  0.553  0.931  0.444-  39 1.87  30 1.88  27 1.88
  72  0.667  0.735  0.331-  20 1.87  29 1.88  32 1.88
  73  0.656  0.262  0.332-  19 1.87  31 1.92  22 1.98   9 2.04   5 2.06
  74  0.773  0.064  0.554-  39 1.88  30 1.89  33 1.89   9 2.03
  75  0.769  0.598  0.547-  29 1.87  32 1.90  41 1.98  10 2.02  14 2.07
  76  0.883  0.400  0.442-  22 1.86  31 1.88  25 1.90  10 2.02
  77  0.897  0.932  0.448-  33 1.87  24 1.88  30 1.91   8 2.09
  78  0.001  0.734  0.660-  35 1.86  32 1.87  41 1.91   8 2.00
  79  0.004  0.266  0.668-  34 1.87  25 1.88  31 1.88  11 1.96
[...]
   -.546E+01 -.115E+02 0.310E+03   0.554E+01 0.117E+02 -.324E+03   -.727E-01 -.168E+00 0.146E+02   -.673E-02 0.267E-02 -.365E-02
   -.417E+02 -.997E+01 -.259E+03   0.443E+02 0.972E+01 0.276E+03   -.264E+01 0.246E+00 -.164E+02   0.405E-03 0.121E-01 -.301E-02
   -.575E+01 -.391E+02 0.263E+03   0.530E+01 0.415E+02 -.280E+03   0.473E+00 -.243E+01 0.173E+02   -.150E-01 -.761E-02 -.171E-01
   -.439E+02 -.246E+02 -.319E+03   0.470E+02 0.251E+02 0.333E+03   -.301E+01 -.500E+00 -.135E+02   -.908E-02 0.120E-02 -.188E-01
   -.148E+01 0.392E+02 0.375E+03   0.219E+01 -.413E+02 -.394E+03   -.721E+00 0.212E+01 0.192E+02   0.562E-02 0.984E-02 0.165E-01
   -.158E+02 0.433E+02 -.349E+03   0.177E+02 -.464E+02 0.367E+03   -.189E+01 0.302E+01 -.179E+02   -.168E-01 0.116E-01 0.299E-01
[...]
   0.152E+02 0.638E+02 -.321E+03   -.154E+02 -.670E+02 0.335E+03   0.163E+00 0.320E+01 -.140E+02   0.398E-02 -.256E-02 -.171E-01
   -.422E+02 -.210E+02 0.373E+03   0.457E+02 0.238E+02 -.393E+03   -.344E+01 -.274E+01 0.196E+02   -.740E-02 0.787E-03 0.143E-01
   -.273E+01 -.513E+02 -.373E+03   0.261E+01 0.557E+02 0.392E+03   0.118E+00 -.440E+01 -.195E+02   -.174E-02 0.311E-02 0.194E-01
   0.467E+02 0.420E+02 0.322E+03   -.493E+02 -.435E+02 -.336E+03   0.262E+01 0.156E+01 0.142E+02   -.906E-03 0.138E-02 -.706E-02
   -.123E+02 0.843E+01 -.241E+03   0.141E+02 -.969E+01 0.255E+03   -.175E+01 0.126E+01 -.138E+02   -.661E-02 -.543E-02 -.161E-02
   0.160E+02 -.317E+01 0.239E+03   -.179E+02 0.394E+01 -.254E+03   0.185E+01 -.768E+00 0.149E+02   -.302E-02 -.303E-03 -.460E-02
   0.222E+02 0.676E+01 -.310E+03   -.232E+02 -.717E+01 0.323E+03   0.925E+00 0.404E+00 -.132E+02   -.328E-02 0.705E-02 -.194E-01
   0.313E+01 -.751E+01 0.411E+03   -.336E+01 0.705E+01 -.438E+03   0.232E+00 0.470E+00 0.266E+02   -.526E-02 -.677E-02 0.117E-01
   0.269E+01 -.149E+01 -.405E+03   -.280E+01 0.146E+01 0.430E+03   0.109E+00 0.275E-01 -.255E+02   0.480E-02 0.882E-04 0.161E-01
   0.121E+02 -.382E+02 0.326E+03   -.122E+02 0.410E+02 -.342E+03   0.144E+00 -.286E+01 0.158E+02   -.152E-02 0.529E-02 0.868E-03
   0.331E+02 -.168E+02 -.266E+03   -.341E+02 0.175E+02 0.285E+03   0.104E+01 -.725E+00 -.182E+02   -.203E-02 0.220E-02 0.772E-03
   0.169E+02 0.118E+02 0.234E+03   -.187E+02 -.130E+02 -.245E+03   0.175E+01 0.123E+01 0.117E+02   -.381E-02 0.254E-02 -.640E-02
   0.432E+02 -.226E+02 -.318E+03   -.451E+02 0.243E+02 0.335E+03   0.187E+01 -.170E+01 -.168E+02   0.579E-03 -.328E-02 -.242E-01
   0.494E+01 0.585E+01 0.397E+03   -.510E+01 -.527E+01 -.424E+03   0.162E+00 -.571E+00 0.268E+02   0.124E-02 -.526E-04 0.111E-01
   -.226E+00 0.153E+00 0.490E+00   0.139E-11 0.429E-12 0.125E-11   0.240E+00 -.159E+00 -.483E+00   -.376E-02 0.365E-02 -.235E-01

 POSITION                                       TOTAL-FORCE (eV/Angst)
      0.13450      0.08039      7.10996         0.009974      0.001898     -0.000133
      1.30252      0.80336     11.83860        -0.005517     -0.009652      0.000997
      0.03015      1.58181      2.36779         0.002190      0.004078      0.004382
      7.07032      2.36318      7.12499        -0.002702     -0.001114     -0.000069
     -1.35535      4.11761      2.33836        -0.002708      0.001394      0.002282
     -2.80493      4.95055      7.10518         0.000055      0.001942      0.000161
     -2.70787      6.61352      2.37055         0.002785      0.004346      0.003038
      4.40746      0.80032     11.82701         0.003561     -0.006876      0.000103
      1.41837      4.22991      2.34257        -0.005531      0.012831      0.001505
      0.05637      5.02782      7.09484         0.002282      0.007774     -0.005853
      5.51804      1.40182      2.39025        -0.004913     -0.002617      0.002020
      4.12269      2.20799      7.09099        -0.003845     -0.013437     -0.001149
      4.18090      4.03353      2.35524        -0.000486     -0.004636      0.000131
      2.76012      4.87969      7.11188         0.006881     -0.005891     -0.010240
      4.23562      7.31048     14.20527        -0.000471      0.004132      0.007306
      1.42224      0.82414      4.77267        -0.000915     -0.000857     -0.000828
      0.02548      1.64507      9.48310        -0.001260      0.001577     -0.003824
     -1.38084      2.46217     14.11857        -0.001346      0.002499      0.006862
     -0.00072      3.24222      4.77657        -0.001518      0.000301      0.000126
     -1.40302      4.06072      9.51076        -0.000158      0.001221     -0.006297
      5.66756      4.86424     14.12952        -0.000144      0.001614      0.005363
     -1.41514      5.68917      4.72767        -0.000643      0.002648     -0.000517
     -2.80003      6.51368      9.47340        -0.001177      0.004750     -0.005746
     -1.42091      7.31743      0.03747        -0.001798      0.001189      0.003664
      4.24377      0.80314      4.74107         0.002213      0.001404     -0.001012
      2.83545      1.62926      9.45707         0.002336     -0.005356     -0.000455
      1.42746      2.43536      0.01269        -0.000949      0.004633      0.004552
      2.82846      3.23032      4.72282        -0.000981     -0.002063     -0.004273
      1.43288      4.04628      9.50118         0.003030     -0.002462     -0.010906
      0.01958      4.89192     14.12333        -0.000133      0.004171      0.008022
      1.42090      5.69437      4.69544        -0.001292     -0.001241     -0.000759
      0.00039      6.49287      9.44867         0.003838     -0.004649     -0.005918
      5.68864      0.00098     14.19671        -0.000890      0.002255      0.005168
      7.05514      0.79139      4.76198         0.000347     -0.001765      0.004182
      5.67690      1.60287      9.46914        -0.000993     -0.004661     -0.003450
      4.25161      2.44695     14.18184        -0.001570     -0.001655      0.004322
      5.66774      3.26919      4.74497         0.000101      0.000928      0.002124
      4.26131      4.06530      9.53519         0.000496     -0.004204     -0.004228
      2.85164      4.88956     14.13352         0.000760      0.002852      0.005973
      4.23056      5.67417      4.69512        -0.000383     -0.002040     -0.000528
      2.83294      6.50858      9.50027         0.003645     -0.003282     -0.013245
      0.08477      0.04470     10.43481        -0.001679      0.003002     -0.007760
      0.08008      0.03461      3.72761        -0.000456     -0.002973      0.006285
      1.36279      0.77026      1.02375        -0.003226      0.001028      0.002472
      1.40672      0.81238      8.50660         0.003862      0.003786      0.001472
     -0.04870      1.59558      5.75127        -0.001184     -0.002592     -0.002400
      0.09870      1.61301     13.23954         0.000277      0.003446      0.009296
      7.07376      2.41375     10.43627        -0.003634      0.000879     -0.006740
      7.05417      2.43674      3.72975         0.003634      0.001906      0.007856
      0.02130      3.26601      1.02813         0.000339      0.009338      0.003331
     -0.01994      3.26981      8.50098         0.000231     -0.000571     -0.002667
     -1.39857      4.07294      5.77309        -0.001788      0.001445     -0.000368
     -1.37841      4.06514     13.20996         0.001490      0.001109      0.008983
      5.65625      4.88219     10.43544        -0.002109      0.003853     -0.008275
     -2.82263      4.89792      3.67946        -0.000485      0.000846      0.001997
     -1.47501      5.67588      0.96777        -0.002110      0.002579      0.000284
     -1.39216      5.64781      8.48635         0.001412      0.000634     -0.001772
     -2.90356      6.49657      5.73364         0.000753     -0.000676     -0.004842
     -2.80718      6.56536     13.22888         0.000103      0.003814      0.009101
      2.82233      0.04952     10.44635        -0.005203      0.001604     -0.002637
[...]
      7.12969      0.81690      8.50336         0.000480      0.002249     -0.000218
      5.64628      1.70476      5.76050         0.000887      0.001913     -0.001039
      5.62166      1.60131     13.23011        -0.002860     -0.002825      0.006829
      4.26255      2.34237     10.43615        -0.000742     -0.014168     -0.002332
      4.32731      2.46670      3.72790         0.004162     -0.000278      0.002712
      5.60816      3.25096      1.01225        -0.001068     -0.003203      0.001066
      5.67999      3.23099      8.47969        -0.001530     -0.002267      0.002892
      4.25330      4.04964      5.76311        -0.001541      0.002064     -0.005126
      4.25782      4.05075     13.21930         0.001593     -0.000828      0.008687
      2.83084      4.90222     10.40967         0.001120     -0.002471     -0.012159
      2.82717      4.80936      3.71764        -0.001076     -0.003247      0.002345
      4.25031      5.65078      0.96271        -0.000053      0.001685      0.001480
      4.26959      5.74960      8.44459         0.001643      0.010176     -0.007751
      2.87341      6.44840      5.70145        -0.000512     -0.004011     -0.004414
      2.84625      6.52878     13.23958         0.002037      0.002369      0.009064
    total drift:                                0.010075     -0.001487     -0.017200

  FREE ENERGIE OF THE ION-ELECTRON SYSTEM (eV)
  free  energy   TOTEN  =      -580.6429264787 eV

  energy  without entropy=     -580.6006711286  energy(sigma->0) =     -580.62179880

 d Force =-0.1648266E-03[-0.157E-03,-0.173E-03]  d Energy =-0.1270700E-03-0.378E-04
 d Force = 0.1238261E+01[ 0.124E+01, 0.124E+01]  d Ewald  =-0.1990120E+01 0.323E+01

 Quasi-Newton relaxation of ions (Broydens 2nd method)
  g(Force)  = 0.251E-03   g(Stress)= 0.972E-04

 retain information from N=  1 steps
 eigenvalues of (default step * inverse Hessian matrix)
  average eigenvalue of G=   0.3248
 eigenvalue spectrum of G is  0.3248

 reached required accuracy - stopping structural energy minimisation

volume of typ            1:    12.4 %

[...]

volume of typ            3:    10.0 %

total charge

# of ion       s       p       d       tot
    1        2.083   0.264   0.101   2.447
    2        2.075   0.247   0.094   2.416
    3        2.077   0.249   0.094   2.420
    4        2.079   0.253   0.097   2.428
    5        2.076   0.247   0.093   2.417
    6        2.076   0.248   0.094   2.419
    7        2.082   0.262   0.100   2.444
    8        2.074   0.245   0.093   2.412
    9        2.080   0.256   0.097   2.433
   10        2.082   0.262   0.100   2.443
   11        2.082   0.263   0.101   2.445
   12        2.081   0.260   0.100   2.441
   13        2.079   0.254   0.097   2.429
   14        2.076   0.247   0.093   2.417
   15        0.289   0.395   7.836   8.520
   16        0.279   0.377   7.842   8.498
   17        0.295   0.409   7.834   8.539
   18        0.270   0.357   7.842   8.469
   19        0.277   0.373   7.852   8.502
   20        0.292   0.400   7.831   8.522
   21        0.285   0.388   7.833   8.506
   22        0.273   0.362   7.858   8.492
   23        0.285   0.389   7.837   8.512
   24        0.284   0.385   7.838   8.507
   25        0.270   0.358   7.847   8.475
   26        0.292   0.402   7.834   8.528
   27        0.278   0.372   7.841   8.492
   28        0.270   0.359   7.854   8.483
   29        0.285   0.387   7.830   8.502
   30        0.278   0.371   7.836   8.485
   31        0.279   0.376   7.842   8.497
   32        0.275   0.366   7.842   8.483
   33        0.291   0.399   7.830   8.521
   34        0.270   0.359   7.854   8.483
   35        0.289   0.396   7.836   8.521
   36        0.286   0.391   7.836   8.512
   37        0.281   0.381   7.853   8.515
   38        0.273   0.360   7.843   8.477
   39        0.292   0.401   7.828   8.521
   40        0.277   0.372   7.852   8.501
   41        0.267   0.351   7.840   8.458
   42        1.277   2.750   0.007   4.034
   43        1.267   2.772   0.006   4.045
   44        1.263   2.782   0.006   4.051
   45        1.272   2.758   0.007   4.037
   46        1.262   2.786   0.006   4.054
   47        1.274   2.756   0.007   4.037
   48        1.284   2.721   0.008   4.013
   49        1.264   2.778   0.006   4.047
   50        1.262   2.783   0.005   4.050
   51        1.268   2.766   0.006   4.041
   52        1.258   2.793   0.006   4.057
   53        1.282   2.727   0.008   4.018
   54        1.283   2.725   0.008   4.016
   55        1.258   2.793   0.006   4.057
   56        1.263   2.780   0.006   4.049
   57        1.263   2.780   0.006   4.050
   58        1.267   2.776   0.006   4.048
   59        1.278   2.744   0.007   4.029
   60        1.272   2.759   0.007   4.038
[...]
   81        1.264   2.778   0.006   4.049
   82        1.267   2.773   0.006   4.046
   83        1.276   2.752   0.007   4.034
   84        1.278   2.744   0.007   4.029
   85        1.267   2.773   0.006   4.046
   86        1.265   2.776   0.005   4.046
   87        1.262   2.782   0.006   4.050
   88        1.264   2.777   0.006   4.046
   89        1.284   2.721   0.008   4.013
   90        1.285   2.720   0.008   4.013
   91        1.262   2.785   0.006   4.054
   92        1.268   2.767   0.006   4.042
   93        1.262   2.785   0.005   4.052
   94        1.268   2.769   0.007   4.044
   95        1.284   2.724   0.008   4.015
tot         105.28  162.98  213.42  481.68

magnetization (x)

# of ion       s       p       d       tot
    1        0.007   0.013   0.001   0.021
    2        0.006   0.015   0.001   0.022
    3        0.006   0.012   0.001   0.019
    4        0.005   0.008   0.000   0.014
    5        0.006   0.010   0.001   0.017
    6        0.005   0.009   0.000   0.015
    7        0.007   0.011   0.001   0.019
    8        0.006   0.015   0.001   0.022
    9        0.006   0.012   0.001   0.019
   10        0.007   0.013   0.001   0.022
   11        0.007   0.011   0.000   0.018
   12        0.006   0.009   0.000   0.016
   13        0.006   0.010   0.001   0.016
   14        0.006   0.013   0.001   0.021
   15       -0.000  -0.000   0.235   0.235
   16       -0.001  -0.001   0.354   0.352
   17       -0.000  -0.000   0.147   0.146
   18       -0.000  -0.000   0.602   0.601
   19       -0.000  -0.001   0.472   0.471
   20       -0.000  -0.000   0.144   0.144
   21       -0.000  -0.000   0.275   0.274
   22       -0.000  -0.000   0.589   0.589
   23       -0.001  -0.001   0.271   0.270
   24       -0.000  -0.001   0.345   0.344
   25       -0.000  -0.001   0.559   0.558
   26       -0.000  -0.000   0.196   0.195
   27       -0.001  -0.001   0.422   0.421
   28       -0.000  -0.001   0.603   0.602
   29       -0.001  -0.000   0.197   0.196
   30       -0.000  -0.000   0.389   0.388
   31       -0.001  -0.001   0.370   0.369
   32       -0.000  -0.001   0.498   0.497
   33       -0.000  -0.000   0.164   0.164
   34       -0.000  -0.001   0.603   0.602
   35       -0.000  -0.000   0.193   0.192
   36       -0.000  -0.000   0.266   0.265
   37       -0.001  -0.001   0.406   0.404
   38        0.000   0.000   0.551   0.551
   39       -0.000  -0.000   0.133   0.133
   40       -0.000  -0.001   0.481   0.480
   41       -0.000  -0.001   0.623   0.622
   42        0.011   0.080   0.000   0.091
   43        0.012   0.079   0.000   0.091
   44        0.006   0.030   0.000   0.036
   45        0.003   0.007   0.000   0.011
   46        0.006   0.013   0.000   0.019
   47        0.009   0.059   0.000   0.068
   48        0.003   0.011   0.000   0.013
   49        0.012   0.065   0.000   0.077
   50        0.014   0.105   0.000   0.119
   51        0.003   0.004   0.000   0.007
   52        0.006   0.007   0.000   0.013
   53        0.002  -0.007   0.000  -0.005
   54        0.003   0.004   0.000   0.007
   55        0.006   0.008   0.000   0.014
   56        0.005   0.022   0.000   0.027
   57        0.004   0.009   0.000   0.013
   58        0.013   0.091   0.000   0.105
   59        0.010   0.082   0.000   0.093
   60        0.010   0.051   0.000   0.061
[...]
   81        0.004   0.005   0.000   0.008
   82        0.013   0.092   0.000   0.106
   83        0.009   0.067   0.000   0.076
   84        0.011   0.079   0.000   0.090
   85        0.013   0.092   0.000   0.105
   86        0.011   0.072   0.000   0.083
   87        0.005   0.026   0.000   0.031
   88        0.012   0.062   0.000   0.074
   89        0.003   0.007   0.000   0.009
   90        0.005   0.056   0.000   0.061
   91        0.006   0.015   0.000   0.022
   92        0.004   0.011   0.000   0.015
   93        0.013   0.095   0.000   0.108
   94        0.010   0.051   0.000   0.061
   95        0.002  -0.001   0.000   0.001
tot           0.47    2.41   10.11   12.99