 vasp.5.4.4.18Apr17-6-g9f103f2a35 (build May 12 2020 04:58:55) complex

 MD_VERSION_INFO: Compiled 2020-05-12T11:58:55-UTC in devlin.sd.materialsdesign.
 com:/home/medea2/data/build/wwolf/vasp-gpu5.4.4/13047/x86_64/src/src/build/std
 from svn 13047

 executed on                        Lin64 date 2023.03.23  16:42:57

 INCAR:
 POTCAR:    PAW_PBE Ni 02Aug2007
 POTCAR:    PAW_PBE O 08Apr2002

 POTCAR:    PAW_PBE Ni 02Aug2007

 POTCAR:    PAW_PBE O 08Apr2002

 Optimization of the real space projectors (new method)

 maximal supplied QI-value         = 16.25
 optimisation between [QCUT,QGAM] = [ 11.38, 22.75] = [ 36.24,144.96] Ry
 Optimized for a Real-space Cutoff    1.47 Angstroem

   l    n(q)    QCUT    max X(q) W(low)/X(q) W(high)/X(q)  e(spline)
   2      9    11.376    60.317    0.17E-03    0.16E-04    0.16E-06
   2      9    11.376    55.921    0.17E-03    0.16E-04    0.17E-06
   0     10    11.376    51.690    0.45E-04    0.60E-04    0.21E-06
   0     10    11.376    30.015    0.37E-04    0.55E-04    0.19E-06
   1     10    11.376    18.849    0.83E-04    0.11E-03    0.92E-07
   1     10    11.376    14.624    0.69E-04    0.92E-04    0.82E-07
 Optimization of the real space projectors (new method)

 maximal supplied QI-value         = 24.76
 optimisation between [QCUT,QGAM] = [ 11.39, 22.77] = [ 36.31,145.25] Ry
 Optimized for a Real-space Cutoff    1.10 Angstroem

   l    n(q)    QCUT    max X(q) W(low)/X(q) W(high)/X(q)  e(spline)
   0      7    11.387    20.381    0.22E-03    0.48E-03    0.18E-06
   0      7    11.387    15.268    0.22E-03    0.52E-03    0.19E-06
   1      7    11.387     5.964    0.22E-03    0.73E-03    0.24E-06
   1      7    11.387     5.382    0.19E-03    0.60E-03    0.21E-06

  PAW_PBE Ni 02Aug2007                  :
  PAW_PBE O 08Apr2002                   :

 POSCAR: NiO_Fm-3m_scale_1_050_disp_0_20_round_1
  positions in direct lattice
 exchange correlation table for  LEXCH =       14
   RHO(1)=    0.500       N(1)  =     2000
   RHO(2)=  100.500       N(2)  =     4000

 ion  position               nearest neighbor table
   1  0.033  0.005  0.997-  34 1.86  35 2.01  36 2.14  43 2.39  40 2.46   3 2.67   4 2.69   7 2.84
                            12 2.87
   2  0.003  0.252  0.294-  39 1.45  33 1.78  44 2.29  36 2.49   8 2.55   5 2.67  24 2.72  13 2.76
                            11 2.89
   3  0.194  0.944  0.253-  36 1.62  38 1.92  41 1.97  34 2.04   1 2.67  12 2.77  26 2.83   5 2.94
                            16 2.98  10 3.01
   4  0.243  0.234  0.018-  35 1.89  33 2.14  34 2.22  51 2.24  42 2.31   1 2.69  17 2.76  25 2.90
                            22 2.95  18 2.98  11 3.06
   5  0.013  0.045  0.524-  40 1.69  38 1.91  39 2.02   6 2.56   2 2.67   7 2.68   8 2.73  24 2.90
                             3 2.94
   6  0.013  0.261  0.727-  37 1.79  48 2.04  40 2.08  35 2.15  39 2.32  15 2.36  13 2.50   5 2.56
                             9 2.93
   7  0.217  0.938  0.733-  45 1.81  40 2.15  37 2.38  38 2.43  14 2.67   5 2.68   1 2.84  12 3.07

   8  0.250  0.244  0.455-  33 1.71  38 2.00  46 2.00  39 2.34  37 2.35  55 2.51   2 2.55  18 2.62
                            15 2.67  11 2.70   5 2.73  13 2.97
   9  0.991  0.493  0.973-  42 1.99  43 2.06  48 2.14  35 2.24  44 2.32  58 2.41  10 2.61  12 2.80
                            14 2.82   6 2.93  28 2.99
  10  0.976  0.674  0.216-  44 1.45  43 1.97  47 2.12  41 2.31  57 2.42   9 2.61  12 2.70  11 2.78
                            28 2.78   3 3.01  27 3.03
  11  0.236  0.490  0.264-  46 1.74  60 1.89  44 1.95  41 2.03  33 2.05  42 2.41  16 2.47   8 2.70
                            26 2.77  10 2.78   2 2.89  29 2.94  12 2.94  13 3.06   4 3.06
  12  0.212  0.726  0.018-  43 1.77  42 1.98  59 2.12  34 2.19  41 2.44  26 2.55  10 2.70   3 2.77
                             9 2.80   1 2.87  11 2.94  14 3.05  17 3.07   7 3.07
  13  0.001  0.471  0.527-  48 1.72  39 1.85  46 1.92  47 2.12  62 2.20  15 2.25   6 2.50  44 2.50
                             2 2.76  14 2.82  16 2.93   8 2.97  11 3.06
  14  0.998  0.720  0.737-  48 1.93  45 2.12  43 2.25  47 2.47  61 2.48   7 2.67  13 2.82   9 2.82
                            15 3.00  12 3.05
  15  0.208  0.449  0.684-  46 1.91  48 1.97  37 2.06  64 2.19  13 2.25   6 2.36  45 2.47   8 2.67
                            16 2.77  22 2.95  14 3.00
  16  0.258  0.685  0.473-  41 1.55  46 1.87  47 1.97  63 1.99  45 2.05  11 2.47  15 2.77  26 2.81
                            13 2.93  29 2.95   3 2.98
  17  0.449  0.991  0.007-  34 1.78  52 2.12  56 2.20  51 2.29  50 2.36   4 2.76  18 2.77  26 2.82
                            20 2.95  22 2.99  19 3.03  12 3.07
  18  0.477  0.179  0.266-  52 1.49  55 1.91  49 1.91  60 2.36  21 2.41  33 2.42  51 2.48  19 2.57
                             8 2.62  24 2.64  17 2.77   4 2.98  29 3.05  20 3.07
  19  0.719  0.009  0.230-  52 1.92  49 2.12  50 2.23  54 2.31  24 2.46  36 2.51  18 2.57  20 2.70
                            21 2.76  17 3.03
  20  0.705  0.217  0.996-  51 1.79  49 1.96  50 2.06  58 2.51  19 2.70  25 2.75  17 2.95  22 2.98
                            18 3.07
  21  0.501  0.981  0.461-  54 1.80  52 1.86  55 2.15  18 2.41  38 2.42  63 2.43  24 2.74  19 2.76
                            32 2.76  23 2.78
  22  0.458  0.226  0.753-  51 2.08  56 2.09  37 2.12  64 2.15  53 2.40  55 2.52  31 2.91   4 2.95
                            15 2.95  20 2.98  17 2.99  23 3.00  25 3.04
  23  0.702  0.982  0.712-  56 1.72  54 1.88  53 1.95  61 2.16  50 2.26  40 2.45  21 2.78  30 2.92
                            32 2.95  22 3.00  24 3.03
  24  0.728  0.202  0.439-  55 1.67  54 1.73  53 1.97  49 2.00  39 2.25  19 2.46  18 2.64   2 2.72
                            21 2.74   5 2.90  27 2.97  29 2.98  23 3.03
  25  0.495  0.456  0.018-  51 1.79  60 1.93  58 1.96  59 1.96  42 2.42  27 2.65  20 2.75  31 2.89
                             4 2.90  26 2.93  28 3.02  22 3.04
  26  0.440  0.732  0.207-  59 1.74  41 2.03  57 2.24  63 2.40  60 2.46  52 2.46  12 2.55  11 2.77
                            16 2.81  17 2.82   3 2.83  25 2.93  27 2.96  29 3.00  28 3.00
  27  0.678  0.492  0.262-  62 1.81  57 1.82  29 1.94  60 2.02  49 2.11  58 2.11  25 2.65  32 2.80
                            28 2.93  26 2.96  24 2.97  10 3.03
  28  0.728  0.717  0.014-  57 1.65  58 1.82  50 2.31  59 2.40  43 2.42  10 2.78  27 2.93   9 2.99
                            26 3.00  25 3.02  30 3.04
  29  0.532  0.486  0.433-  60 1.86  63 1.93  27 1.94  62 1.96  55 2.27  64 2.45  32 2.63  11 2.94
                            16 2.95  24 2.98  26 3.00  31 3.01  18 3.05
  30  0.518  0.699  0.731-  61 1.71  64 2.04  63 2.20  45 2.42  31 2.43  59 2.50  56 2.51  32 2.73
                            23 2.92  28 3.04
  31  0.687  0.474  0.745-  64 1.98  61 2.27  58 2.41  30 2.43  53 2.45  25 2.89  22 2.91  29 3.01

  32  0.704  0.734  0.477-  63 1.88  61 1.98  62 2.10  54 2.39  57 2.41  29 2.63  30 2.73  21 2.76
                            27 2.80  23 2.95
  33  0.207  0.254  0.263-   8 1.71   2 1.78  11 2.05   4 2.14  18 2.42
  34  0.244  0.978  0.024-  17 1.78   1 1.86   3 2.04  12 2.19   4 2.22
  35  0.028  0.237  0.974-   4 1.89   1 2.01   6 2.15   9 2.24
  36  0.008  0.968  0.241-   3 1.62   1 2.14   2 2.49  19 2.51
  37  0.215  0.214  0.724-   6 1.79  15 2.06  22 2.12   8 2.35   7 2.38
  38  0.223  0.014  0.462-   5 1.91   3 1.92   8 2.00  21 2.42   7 2.43
  39  0.979  0.268  0.460-   2 1.45  13 1.85   5 2.02  24 2.25   6 2.32   8 2.34
  40  0.983  0.022  0.717-   5 1.69   6 2.08   7 2.15  23 2.45   1 2.46
  41  0.224  0.722  0.301-  16 1.55   3 1.97  11 2.03  26 2.03  10 2.31  12 2.44
  42  0.220  0.499  0.985-  12 1.98   9 1.99   4 2.31  11 2.41  25 2.42
  43  0.008  0.730  0.997-  12 1.77  10 1.97   9 2.06  14 2.25   1 2.39  28 2.42
  44  0.012  0.512  0.241-  10 1.45  11 1.95   2 2.29   9 2.32  13 2.50
  45  0.241  0.732  0.705-   7 1.81  16 2.05  14 2.12  30 2.42  15 2.47
  46  0.214  0.473  0.464-  11 1.74  16 1.87  15 1.91  13 1.92   8 2.00
  47  0.031  0.703  0.453-  16 1.97  13 2.12  10 2.12  14 2.47
  48  0.989  0.497  0.725-  13 1.72  14 1.93  15 1.97   6 2.04   9 2.14
  49  0.681  0.251  0.219-  18 1.91  20 1.96  24 2.00  27 2.11  19 2.12
  50  0.721  0.981  0.973-  20 2.06  19 2.23  23 2.26  28 2.31  17 2.36
  51  0.500  0.251  0.989-  25 1.79  20 1.79  22 2.08   4 2.24  17 2.29  18 2.48
  52  0.498  0.008  0.248-  18 1.49  21 1.86  19 1.92  17 2.12  26 2.46
  53  0.722  0.203  0.668-  23 1.95  24 1.97  22 2.40  31 2.45
  54  0.705  0.011  0.497-  24 1.73  21 1.80  23 1.88  19 2.31  32 2.39
  55  0.539  0.226  0.473-  24 1.67  18 1.91  21 2.15  29 2.27   8 2.51  22 2.52
  56  0.509  0.989  0.759-  23 1.72  22 2.09  17 2.20  30 2.51
  57  0.697  0.693  0.201-  28 1.65  27 1.82  26 2.24  32 2.41  10 2.42
  58  0.716  0.507  0.021-  28 1.82  25 1.96  27 2.11   9 2.41  31 2.41  20 2.51
  59  0.453  0.679  0.013-  26 1.74  25 1.96  12 2.12  28 2.40  30 2.50
  60  0.449  0.449  0.237-  29 1.86  11 1.89  25 1.93  27 2.02  18 2.36  26 2.46
  61  0.712  0.733  0.707-  30 1.71  32 1.98  23 2.16  31 2.27  14 2.48
  62  0.757  0.497  0.457-  27 1.81  29 1.96  32 2.10  13 2.20
  63  0.488  0.700  0.478-  32 1.88  29 1.93  16 1.99  30 2.20  26 2.40  21 2.43
  64  0.460  0.471  0.708-  31 1.98  30 2.04  22 2.15  15 2.19  29 2.45

  LATTYP: Found a simple cubic cell.
 ALAT       =     8.6308845000

  Lattice vectors:

 A1 = (   8.6308845000,   0.0000000000,   0.0000000000)
 A2 = (   0.0000000000,   8.6308845000,   0.0000000000)
 A3 = (   0.0000000000,   0.0000000000,   8.6308845000)

Analysis of symmetry for initial positions (statically):
 Subroutine PRICEL returns:
 Original cell was already a primitive cell.

 Routine SETGRP: Setting up the symmetry group for a
 simple cubic supercell.

 Subroutine GETGRP returns: Found  1 space group operations
 (whereof  1 operations were pure point group operations)
 out of a pool of 48 trial point group operations.

The static configuration has the point symmetry C_1 .

Analysis of symmetry for dynamics (positions and initial velocities):
 Subroutine PRICEL returns:
 Original cell was already a primitive cell.

[...]

The dynamic configuration has the point symmetry C_1 .

Analysis of structural, dynamic, and magnetic symmetry:
 Subroutine PRICEL returns:
 Original cell was already a primitive cell.

 Routine SETGRP: Setting up the symmetry group for a
 simple cubic supercell.

 Subroutine GETGRP returns: Found  1 space group operations
 (whereof  1 operations were pure point group operations)
 out of a pool of 48 trial point group operations.

The magnetic configuration has the point symmetry C_1 .

 Subroutine INISYM returns: Found  1 space group operations
 (whereof  1 operations are pure point group operations),
 and found     1 'primitive' translations

 KPOINTS: Automatic mesh

Automatic generation of k-mesh.
Space group operators:
 irot       det(A)        alpha          n_x          n_y          n_z        tau_x        tau_y        tau_z
    1     1.000000     0.000000     1.000000     0.000000     0.000000     0.000000     0.000000     0.000000

 Subroutine IBZKPT returns following result:

 Found     14 irreducible k-points:

[...]
   -.135E+03 -.206E+03 -.229E+01   0.136E+03 0.206E+03 -.845E+00   -.584E-01 0.982E+00 0.501E+01   -.150E+00 0.347E-01 -.152E+00
   -.307E+03 0.330E+02 0.161E+03   0.315E+03 -.324E+02 -.168E+03   -.394E+01 -.200E+01 0.116E+01   0.824E-01 -.490E-01 -.187E+00
   -.124E+03 -.288E+03 0.320E+03   0.123E+03 0.288E+03 -.320E+03   0.138E+01 0.263E+01 -.397E+01   -.132E-02 0.417E-01 -.718E-01
   0.601E+02 0.499E+02 -.342E+03   -.653E+02 -.494E+02 0.348E+03   0.208E+01 -.141E+01 -.119E+01   -.171E+00 -.308E-01 0.970E-01
   0.156E+03 -.135E+03 -.194E+03   -.157E+03 0.133E+03 0.194E+03   -.244E+01 0.151E+01 0.626E+00   -.862E-01 -.389E-01 0.117E+00
   -.195E+03 0.780E+02 -.898E+02   0.191E+03 -.797E+02 0.895E+02   0.386E+01 0.953E+00 0.146E+00   -.422E-02 0.112E-01 0.828E-01
   -.317E+03 -.196E+03 0.938E+00   0.316E+03 0.194E+03 0.159E+01   0.185E+01 0.228E+01 -.264E+01   0.113E+00 0.614E-01 0.742E-01
   -.166E+02 0.106E+03 0.212E+03   0.237E+02 -.110E+03 -.227E+03   -.611E+01 0.455E+01 0.115E+02   0.421E-01 0.446E-01 -.351E-01
   0.144E+02 0.779E+01 0.126E+03   -.140E+02 -.830E+01 -.128E+03   -.811E+00 0.316E-02 0.294E+01   -.437E-01 -.241E-01 -.779E-01
   0.203E+03 0.441E+01 -.114E+02   -.213E+03 -.896E+00 0.126E+02   0.871E+01 -.327E+01 -.128E+01   0.265E-01 -.854E-01 -.196E-01
   0.298E+03 0.150E+02 0.377E+01   -.319E+03 -.146E+02 -.754E-02   0.153E+02 0.564E+00 -.471E+01   -.314E-01 -.644E-02 -.771E-01
   -.116E+03 0.128E+03 -.981E+02   0.122E+03 -.139E+03 0.101E+03   -.331E+01 0.109E+02 -.328E+01   -.428E-01 0.730E-02 0.269E-01
   -.667E+02 0.125E+03 -.125E+03   0.751E+02 -.131E+03 0.131E+03   -.699E+01 0.666E+01 -.575E+01   -.637E-01 0.404E-02 0.586E-01
   0.160E+03 0.579E+02 -.165E+03   -.167E+03 -.561E+02 0.195E+03   0.343E+01 -.150E+01 -.156E+02   0.486E-01 0.513E-01 0.798E-01
   0.133E+03 0.135E+03 -.192E+03   -.141E+03 -.138E+03 0.209E+03   0.759E+01 0.244E+01 -.146E+02   0.987E-01 -.987E-03 0.319E-01
   0.569E+02 -.153E+03 0.114E+03   -.709E+02 0.158E+03 -.133E+03   0.155E+02 -.297E+01 0.103E+02   -.478E-01 -.779E-01 -.463E-01
   -.490E+02 0.522E+02 0.136E+03   0.564E+02 -.562E+02 -.141E+03   -.782E+01 0.378E+01 0.529E+01   0.628E-01 0.472E-01 0.777E-02
   0.180E+03 -.144E+03 0.137E+03   -.192E+03 0.153E+03 -.143E+03   0.105E+02 -.821E+01 0.485E+01   0.112E+00 0.690E-01 -.200E-03
   0.154E+03 0.204E+03 0.640E+02   -.155E+03 -.237E+03 -.562E+02   0.444E+01 0.183E+02 -.666E+01   0.108E+00 0.390E-01 0.368E-01
   -.638E+02 -.194E+01 -.109E+03   0.700E+02 -.875E+01 0.114E+03   -.616E+01 0.100E+02 -.569E+01   -.299E-01 0.971E-02 0.548E-01
   -.785E+02 0.162E+02 -.110E+03   0.813E+02 -.191E+02 0.113E+03   -.202E+01 -.308E-01 -.145E+01   -.122E+00 0.212E-01 0.685E-02
   0.229E+03 -.226E+03 -.105E+03   -.235E+03 0.233E+03 0.106E+03   0.479E+01 -.821E+01 0.123E+01   0.335E-01 -.548E-01 0.183E-01
   0.194E+03 -.598E+02 -.188E+03   -.203E+03 0.622E+02 0.201E+03   0.913E+01 -.210E+01 -.915E+01   0.655E-01 -.472E-02 -.956E-01
   -.222E+03 -.287E+02 0.128E+03   0.226E+03 0.374E+02 -.132E+03   -.152E+01 -.831E+01 0.394E+01   -.803E-01 -.143E+00 -.535E-01
   -.132E+03 0.729E+02 0.610E+02   0.134E+03 -.775E+02 -.658E+02   -.248E+01 0.431E+01 0.532E+01   0.966E-02 0.214E-01 0.539E-01
   0.410E+02 0.727E+02 0.110E+03   -.479E+02 -.799E+02 -.106E+03   0.488E+01 0.634E+01 -.456E+01   -.456E-01 0.321E-01 0.447E-01
   0.268E+02 0.277E+03 0.117E+03   -.310E+02 -.307E+03 -.125E+03   0.551E+01 0.177E+02 0.663E+01   -.216E-01 0.149E+00 -.122E+00
   -.782E+02 -.976E+02 -.206E+03   0.785E+02 0.103E+03 0.210E+03   0.292E+00 -.374E+01 -.180E+01   0.481E-01 0.674E-01 0.301E-01
   -.204E+03 0.213E+03 -.292E+02   0.216E+03 -.223E+03 0.305E+02   -.109E+02 0.534E+01 -.188E+01   0.903E-01 0.184E-01 -.639E-01
   0.134E+03 -.711E+02 -.232E+03   -.148E+03 0.781E+02 0.248E+03   0.911E+01 -.537E+01 -.150E+02   -.422E-01 -.446E-01 -.571E-01
   0.129E+03 0.784E+02 -.438E+02   -.142E+03 -.828E+02 0.457E+02   0.910E+01 0.496E+01 -.130E+01   -.126E+00 -.204E-01 0.101E+00
   -.940E+02 -.218E+03 -.802E+02   0.930E+02 0.226E+03 0.945E+02   0.987E-01 -.645E+01 -.954E+01   0.249E-01 0.131E+00 -.403E-01
   -.163E+03 0.103E+03 0.156E+03   0.170E+03 -.111E+03 -.156E+03   -.632E+01 0.726E+01 -.153E+01   -.613E-01 -.522E-01 -.117E+00
   -.353E+02 -.968E+02 0.257E+03   0.386E+02 0.984E+02 -.274E+03   -.396E+01 -.168E+01 0.143E+02   -.897E-01 -.310E-01 -.529E-01
   0.316E+02 0.444E+02 0.812E+02   -.328E+02 -.493E+02 -.836E+02   0.719E+00 0.422E+01 0.283E+01   -.190E+00 -.708E-01 -.200E+00
   -.211E+03 -.501E+02 -.109E+03   0.228E+03 0.519E+02 0.113E+03   -.140E+02 -.107E+01 -.388E+01   -.531E-02 -.618E-01 0.336E-01
   -.153E+03 -.139E+02 -.166E+03   0.165E+03 0.101E+02 0.176E+03   -.119E+02 0.436E+01 -.897E+01   0.216E+00 0.520E-02 0.145E+00
   0.145E+02 -.140E+03 -.877E+02   -.193E+02 0.145E+03 0.900E+02   0.385E+01 -.458E+01 -.271E+01   -.788E-01 0.708E-01 0.733E-01
   0.325E+02 0.118E+02 -.650E+02   -.402E+02 -.121E+02 0.629E+02   0.822E+01 0.373E-01 0.197E+01   -.524E-01 0.301E-01 0.119E+00
   -.419E+02 -.711E+02 0.631E+02   0.102E-11 0.263E-12 0.284E-13   0.423E+02 0.708E+02 -.626E+02   -.430E+00 0.252E+00 -.477E+00

 POSITION                                       TOTAL-FORCE (eV/Angst)
      0.28097      0.04422      8.60182        -1.465095      0.221676     -0.043803
      0.02464      2.17618      2.53953         0.373155     -1.790462    -14.953678
      1.67165      8.14638      2.18423         4.633672     -0.649202      0.289056
      2.09527      2.02363      0.15441         0.355307      0.309511     -0.118174
      0.11200      0.39161      4.52265         0.328743     -0.616738     -2.565321
      0.11620      2.25517      6.27247        -2.836128     -1.436660      1.601192
      1.87016      8.09858      6.32227        -0.309706      1.053251     -0.309318
      2.15454      2.10688      3.93129         0.900705     -1.222239      3.621670
      8.55113      4.25811      8.39878        -0.091995     -0.874952      0.588806
      8.42148      5.81414      1.86049        -3.392451     14.695375     -0.854172
      2.03827      4.23209      2.27559        -0.593866     -0.320044     -4.701535
      1.83265      6.26880      0.15839         3.102521     -0.746030     -1.260589
      0.00629      4.06139      4.55150        -2.402794      1.737322     -3.874964
      8.60981      6.21684      6.36518         0.433933      0.350971     -0.277651
      1.79721      3.87434      5.90511         2.682600      0.627939      1.987728
      2.22389      5.91213      4.08143         0.365860      1.596598      9.241585
      3.87941      8.55103      0.05997         2.344152     -0.136502     -0.727961
      4.11828      1.54458      2.29567        -3.305937     12.778270      0.287609
      6.20967      0.07964      1.98382         1.235150     -0.767339     -0.886673
      6.08083      1.87437      8.59545         1.657884     -0.720598     -0.213388
      4.32617      8.46309      3.98053        -2.141610     -1.051931      1.341437
      3.95715      1.95282      6.50102         0.410652      0.136104     -0.338361
      6.05902      8.47788      6.14938         3.689282      0.183742      1.096645
      6.28283      1.73986      3.79322         4.395916      3.229692      0.640553
      4.27631      3.93500      0.15898        -1.205381      2.181600     -0.846333
      3.79634      6.32146      1.78361         0.381750      0.809068      1.723558
      5.85553      4.24529      2.26471         3.953150     -1.453112     -5.390803
      6.28674      6.18631      0.11837         0.503726      2.197045     -4.037694
      4.59260      4.19496      3.73749        -3.304522     -0.976828      5.703172
      4.47405      6.03574      6.31205        -4.091624     -0.471162      0.453642
      5.93049      4.09292      6.43125        -0.178569     -0.792906     -0.120485
      6.07335      6.33547      4.11941         1.318264      0.172071     -0.038091
      1.78345      2.19532      2.26564         1.047367      0.366069     -3.729587
      2.10895      8.43671      0.20958        -0.436525     -0.526674      0.074604
      0.24384      2.04464      8.40923        -0.767731      0.161916     -0.136430
      0.06626      8.35853      2.07773        -5.820995      0.906241     -1.014799
      1.85982      1.84752      6.24627         2.894792     -0.070356     -0.465826
      1.92124      0.12057      3.98699         1.287122      0.686177     -0.016954
      8.45321      2.31322      3.97039        -3.549257      0.311645     14.077580
      8.48318      0.19008      6.18469        -0.436887     -0.803897      2.784680
      1.93692      6.23301      2.59437         1.489060      1.938907     -9.116539
      1.90270      4.30831      8.50292        -0.280665     -0.171845      0.635909
      0.07157      6.29896      8.60787        -1.488238      0.358175     -0.689311
      0.10635      4.41509      2.07833         3.269863    -14.410754      1.180988
      2.07813      6.32117      6.08067         0.026724     -0.653975     -0.241316
      1.85099      4.08626      4.00388         0.630785     -2.883170      2.202970
      0.26358      6.06707      3.91367        -1.349942     -0.491301      1.614579
      8.53256      4.28837      6.25669        -0.729887      0.299638      3.556564
      5.87726      2.17022      1.88673         1.851253      0.278620      0.138683
      6.22400      8.46389      8.39980        -0.171501     -0.276564      0.574570
      4.31669      2.16525      8.53364        -2.085571     -0.853705     -1.318348
      4.29718      0.07229      2.13721         1.340598    -12.186159     -2.102876
      6.23218      1.75484      5.76609         0.665275      1.668676      1.785736
      6.08093      0.09327      4.28756         1.300785     -4.635922     -0.728409
      4.65287      1.95053      4.08291        -4.771229      1.538904      0.541267
      4.39204      8.53753      6.55165        -4.005541      0.472712      0.687846
      6.01412      5.97829      1.73476        -0.894942      1.887963      4.723053
      6.18225      4.37268      0.18130         0.918216     -1.583098     -1.443700
      3.90800      5.86215      0.10800        -0.669381     -0.117252     -1.846560
      3.87746      3.87862      2.04723        -0.651516     -0.791532      0.216311
      6.14688      6.32396      6.10245         3.252518      0.746773      0.138361
      6.53600      4.29298      3.94230         0.890753      0.522429      1.253234
      4.21263      6.04450      4.12613        -1.036001      0.342343     -0.328826
      3.97305      4.06620      6.10720         0.533954     -0.284512     -0.025112
    total drift:                                0.000435     -0.007174      0.002687

  FREE ENERGIE OF THE ION-ELECTRON SYSTEM (eV)
  free  energy   TOTEN  =      -364.4287341458 eV

  energy  without entropy=     -364.3505136904  energy(sigma->0) =     -364.38962392

volume of typ            1:    31.7 %

volume of typ            2:     8.1 %

total charge

# of ion       s       p       d       tot
    1        0.186   0.176   7.981   8.343
    2        0.335   0.374   8.125   8.834
    3        0.273   0.314   7.975   8.562
    4        0.185   0.168   7.971   8.324
    5        0.251   0.261   7.987   8.498
    6        0.215   0.231   7.976   8.422
    7        0.201   0.170   7.962   8.333
    8        0.239   0.250   8.031   8.521
    9        0.182   0.168   7.962   8.312
   10        0.305   0.357   8.082   8.744
   11        0.245   0.302   7.978   8.525
   12        0.229   0.230   7.984   8.443
   13        0.257   0.325   7.987   8.569
   14        0.167   0.145   7.976   8.287
   15        0.203   0.221   8.000   8.424
   16        0.293   0.389   8.012   8.693
   17        0.199   0.189   7.989   8.377
   18        0.315   0.393   8.079   8.787
   19        0.179   0.159   8.027   8.365
   20        0.207   0.202   7.969   8.377
   21        0.213   0.219   8.034   8.466
   22        0.179   0.163   7.920   8.261
   23        0.245   0.272   7.925   8.441
   24        0.284   0.355   7.989   8.628
   25        0.233   0.270   7.947   8.449
   26        0.233   0.217   8.007   8.457
   27        0.276   0.320   8.017   8.613
   28        0.247   0.245   8.022   8.514
   29        0.249   0.274   8.021   8.545
   30        0.223   0.219   7.961   8.403
   31        0.168   0.131   7.996   8.295
   32        0.191   0.183   7.977   8.352
   33        1.272   2.792   0.013   4.076
   34        1.259   2.773   0.011   4.043
   35        1.269   2.718   0.005   3.992
   36        1.278   2.743   0.010   4.031
   37        1.269   2.735   0.007   4.011
   38        1.273   2.733   0.007   4.012
   39        1.279   2.853   0.027   4.159
   40        1.276   2.735   0.009   4.019
   41        1.291   2.803   0.019   4.114
   42        1.280   2.692   0.004   3.976
   43        1.268   2.753   0.009   4.031
   44        1.291   2.818   0.022   4.131
   45        1.268   2.731   0.006   4.005
   46        1.268   2.823   0.015   4.106
   47        1.291   2.677   0.004   3.972
   48        1.257   2.794   0.013   4.064
   49        1.276   2.750   0.008   4.034
   50        1.275   2.677   0.003   3.955
   51        1.265   2.781   0.011   4.056
   52        1.275   2.841   0.025   4.141
   53        1.292   2.678   0.004   3.974
   54        1.277   2.785   0.014   4.075
   55        1.289   2.753   0.012   4.054
   56        1.275   2.734   0.007   4.016
   57        1.279   2.769   0.012   4.061
   58        1.281   2.725   0.007   4.013
   59        1.276   2.737   0.008   4.022
   60        1.268   2.783   0.010   4.061
   61        1.263   2.758   0.009   4.031
   62        1.274   2.736   0.008   4.018
   63        1.266   2.756   0.008   4.029
   64        1.270   2.708   0.005   3.983
tot          48.19   96.04  256.20  400.43

magnetization (x)

# of ion       s       p       d       tot
    1        0.004   0.001   0.243   0.248
    2        0.002   0.002   0.144   0.149
    3        0.003   0.020   0.997   1.020
    4        0.010   0.005   1.049   1.065
    5        0.009   0.018   0.995   1.022
    6       -0.003  -0.007  -0.933  -0.943
    7        0.013   0.008   1.143   1.164
    8        0.003  -0.001  -0.066  -0.064
    9        0.002   0.002   1.062   1.065
   10        0.005   0.000   0.323   0.327
   11        0.001  -0.001  -0.504  -0.504
   12        0.004   0.002   0.407   0.413
   13        0.003   0.006   0.652   0.662
   14       -0.001   0.002   1.186   1.186
   15        0.003   0.005   1.059   1.067
   16        0.004   0.008   0.364   0.376
   17        0.005   0.001   0.872   0.879
   18        0.004   0.006   0.357   0.367
   19        0.004   0.005   0.889   0.899
   20        0.003   0.013   1.106   1.121
   21        0.005   0.005   0.536   0.546
   22       -0.001   0.000   1.218   1.217
   23       -0.002  -0.006  -0.666  -0.674
   24       -0.000  -0.007  -0.348  -0.355
   25        0.001  -0.003  -0.551  -0.553
   26        0.005   0.006   0.823   0.835
   27       -0.001   0.003   0.306   0.308
   28        0.001  -0.002  -0.231  -0.232
   29        0.000   0.008   0.974   0.983
   30       -0.009  -0.009  -0.969  -0.986
   31        0.004   0.004   1.024   1.031
   32        0.001   0.006   1.086   1.093
   33       -0.001   0.005  -0.000   0.004
   34        0.013   0.139   0.000   0.152
   35        0.001  -0.018   0.000  -0.016
   36        0.011   0.227   0.001   0.238
   37        0.004   0.097  -0.000   0.101
   38        0.008   0.170   0.000   0.178
   39        0.005   0.049   0.000   0.054
   40        0.004   0.153   0.000   0.157
   41        0.003   0.119  -0.000   0.122
   42        0.004   0.066   0.000   0.071
   43        0.007   0.091   0.000   0.098
   44        0.003   0.116   0.000   0.119
   45        0.008   0.196   0.000   0.203
   46        0.006   0.085  -0.000   0.091
   47        0.003   0.123   0.000   0.126
   48        0.010   0.152   0.000   0.163
   49        0.008   0.104   0.000   0.112
   50        0.004   0.101   0.000   0.106
   51        0.012   0.178   0.000   0.190
   52        0.007   0.106  -0.000   0.113
   53       -0.004  -0.009  -0.000  -0.013
   54       -0.002   0.001  -0.000  -0.001
   55        0.004   0.098   0.000   0.102
   56       -0.000   0.062  -0.000   0.062
   57        0.001   0.031  -0.000   0.032
   58       -0.004   0.014  -0.000   0.010
   59        0.002   0.056   0.000   0.059
   60       -0.002  -0.003   0.000  -0.005
   61        0.002   0.019  -0.000   0.021
   62        0.007   0.166  -0.000   0.173
   63        0.010   0.094   0.000   0.104
   64        0.005   0.088   0.000   0.092
tot           0.22    2.98   14.55   17.75