 vasp.5.4.4.18Apr17-6-g9f103f2a35 (build May 12 2020 04:58:55) complex

 MD_VERSION_INFO: Compiled 2020-05-12T11:58:55-UTC in devlin.sd.materialsdesign.
 com:/home/medea2/data/build/wwolf/vasp-gpu5.4.4/13047/x86_64/src/src/build/std
 from svn 13047

 executed on                        Lin64 date 2023.03.23  17:30:44

 INCAR:
 POTCAR:    PAW_PBE Ni 02Aug2007
 POTCAR:    PAW_PBE O 08Apr2002

 POTCAR:    PAW_PBE Ni 02Aug2007

 POTCAR:    PAW_PBE O 08Apr2002

 Optimization of the real space projectors (new method)

 maximal supplied QI-value         = 16.25
 optimisation between [QCUT,QGAM] = [ 11.38, 22.75] = [ 36.24,144.96] Ry
 Optimized for a Real-space Cutoff    1.47 Angstroem

   l    n(q)    QCUT    max X(q) W(low)/X(q) W(high)/X(q)  e(spline)
   2      9    11.376    60.317    0.17E-03    0.16E-04    0.16E-06
   2      9    11.376    55.921    0.17E-03    0.16E-04    0.17E-06
   0     10    11.376    51.690    0.45E-04    0.60E-04    0.21E-06
   0     10    11.376    30.015    0.37E-04    0.55E-04    0.19E-06
   1     10    11.376    18.849    0.83E-04    0.11E-03    0.92E-07
   1     10    11.376    14.624    0.69E-04    0.92E-04    0.82E-07
 Optimization of the real space projectors (new method)

 maximal supplied QI-value         = 24.76
 optimisation between [QCUT,QGAM] = [ 11.39, 22.77] = [ 36.31,145.25] Ry
 Optimized for a Real-space Cutoff    1.10 Angstroem

   l    n(q)    QCUT    max X(q) W(low)/X(q) W(high)/X(q)  e(spline)
   0      7    11.387    20.381    0.22E-03    0.48E-03    0.18E-06
   0      7    11.387    15.268    0.22E-03    0.52E-03    0.19E-06
   1      7    11.387     5.964    0.22E-03    0.73E-03    0.24E-06
   1      7    11.387     5.382    0.19E-03    0.60E-03    0.21E-06

  PAW_PBE Ni 02Aug2007                  :
  PAW_PBE O 08Apr2002                   :

 POSCAR: NiO_Fm-3m_scale_1_050_disp_0_15_round_1
  positions in direct lattice
 exchange correlation table for  LEXCH =       14
   RHO(1)=    0.500       N(1)  =     2000
   RHO(2)=  100.500       N(2)  =     4000

 ion  position               nearest neighbor table
   1  0.004  0.987  0.973-  35 2.15  40 2.20  34 2.33  43 2.38  36 2.49  50 2.52   7 2.89   2 2.98
                            12 3.04
   2  0.992  0.232  0.216-  35 1.86  33 2.02  36 2.04  39 2.06  44 2.13   5 2.78   9 2.82   3 2.87
                            11 2.93   4 2.93   1 2.98  20 3.02
   3  0.243  0.017  0.246-  33 1.85  38 1.89  34 2.04  52 2.08  36 2.30  41 2.37   8 2.67   5 2.83
                             2 2.87  21 2.88  18 2.92   4 2.99
   4  0.246  0.251  0.991-  51 2.05  42 2.07  33 2.11  37 2.31  35 2.34  34 2.50  25 2.88   2 2.93
                            17 2.98   3 2.99  18 3.00  11 3.00
   5  0.997  0.025  0.462-  36 1.77  39 1.97  38 2.01  40 2.21  54 2.50   2 2.78   6 2.83   3 2.83
                             8 2.84   7 2.90
   6  0.995  0.255  0.696-  48 1.88  39 2.09  40 2.18  37 2.25  53 2.33  13 2.78   5 2.83   7 2.85
                             8 2.99  24 3.08
   7  0.217  0.011  0.715-  40 1.89  37 2.05  38 2.16  56 2.22   8 2.73   6 2.85   1 2.89   5 2.90
                            21 2.90  22 3.02
   8  0.263  0.218  0.480-  38 1.88  37 2.12  55 2.14  33 2.15  46 2.27  39 2.38  21 2.56   3 2.67
                            22 2.70   7 2.73  29 2.74   5 2.84  18 2.98   6 2.99
   9  0.975  0.496  0.024-  43 1.92  58 2.05  44 2.07  42 2.24  35 2.27  10 2.62   2 2.82  11 2.83
                            14 2.98  12 3.02
  10  0.998  0.710  0.239-  43 1.83  47 2.02  44 2.04  57 2.14  41 2.32  36 2.52   9 2.62  11 2.70
                            16 2.78  13 2.79  12 3.00
  11  0.215  0.486  0.247-  44 1.86  46 2.05  42 2.17  33 2.20  60 2.29  41 2.30  10 2.70  16 2.71
                            13 2.71   9 2.83   2 2.93   4 3.00  12 3.03  29 3.07
  12  0.238  0.724  0.989-  41 1.90  42 2.02  34 2.10  43 2.17  59 2.30  45 2.40  14 2.88  10 3.00
                             9 3.02  11 3.03   1 3.04  15 3.04  26 3.06
  13  0.998  0.488  0.474-  44 1.83  48 1.90  47 2.02  39 2.04  46 2.07  11 2.71   6 2.78  10 2.79
                            16 2.79  15 3.00  14 3.02  27 3.05
  14  0.006  0.702  0.749-  45 1.93  48 2.06  47 2.39  43 2.41  15 2.71  12 2.88   9 2.98  13 3.02

  15  0.251  0.509  0.711-  45 1.67  46 1.99  48 2.01  64 2.11  37 2.28  42 2.47  14 2.71  30 2.75
                            29 2.78  16 2.78  13 3.00  12 3.04
  16  0.229  0.713  0.462-  47 1.89  46 2.02  63 2.07  45 2.17  41 2.23  38 2.51  11 2.71  10 2.78
                            15 2.78  13 2.79  26 2.80
  17  0.502  0.020  0.994-  51 1.76  52 1.80  50 1.88  34 2.07  56 2.38  20 2.50  19 2.57  18 2.76
                            28 2.94   4 2.98  23 3.03
  18  0.499  0.238  0.229-  49 1.64  60 1.89  55 2.14  52 2.25  51 2.29  33 2.36  19 2.56  20 2.73
                            25 2.75  17 2.76  27 2.86  24 2.88  29 2.90   3 2.92   8 2.98   4 3.00
  19  0.693  0.014  0.223-  50 1.84  52 1.91  49 1.98  54 2.16  36 2.48  18 2.56  17 2.57  20 2.59
                            24 2.99  26 3.02  21 3.03
  20  0.717  0.214  0.001-  50 1.99  51 2.06  49 2.07  35 2.24  58 2.45  17 2.50  19 2.59  18 2.73
                            25 2.91  23 2.93   2 3.02
  21  0.469  0.005  0.492-  56 2.00  54 2.07  38 2.09  55 2.21  63 2.26   8 2.56  22 2.65  24 2.77
                            23 2.83   3 2.88   7 2.90  19 3.03  18 3.04  26 3.08
  22  0.487  0.232  0.698-  56 1.67  55 1.93  37 2.02  53 2.06  64 2.28  51 2.31  24 2.54  23 2.58
                            29 2.64  21 2.65   8 2.70  31 2.72   7 3.02
  23  0.710  0.035  0.713-  53 1.77  56 2.06  54 2.08  40 2.50  24 2.51  22 2.58  21 2.83  20 2.93
                            17 3.03
  24  0.700  0.228  0.495-  55 1.69  53 1.77  62 1.89  54 1.90  49 2.23  23 2.51  22 2.54  31 2.73
                            29 2.75  21 2.77  18 2.88  19 2.99  27 2.99   6 3.08
  25  0.497  0.470  0.011-  60 1.96  58 2.09  51 2.19  59 2.21  42 2.29  64 2.44  28 2.71  18 2.75
                             4 2.88  27 2.89  20 2.91
  26  0.475  0.741  0.252-  41 1.88  63 2.03  52 2.12  59 2.13  60 2.47  57 2.48  28 2.76  16 2.80
                            32 2.83  27 2.96  19 3.02  12 3.06  21 3.08
  27  0.709  0.491  0.270-  62 1.78  60 2.04  49 2.16  57 2.17  58 2.32  44 2.52  32 2.67  29 2.77
                            18 2.86  25 2.89  26 2.96  24 2.99  13 3.05  28 3.08
  28  0.677  0.727  0.004-  59 1.49  57 1.73  58 2.06  50 2.24  61 2.34  25 2.71  26 2.76  17 2.94
                            30 3.08  27 3.08
  29  0.475  0.453  0.486-  55 1.72  62 1.83  46 2.07  64 2.13  60 2.16  63 2.50  31 2.60  22 2.64
                             8 2.74  24 2.75  27 2.77  15 2.78  30 2.78  18 2.90  32 2.97  11 3.07
  30  0.506  0.699  0.692-  61 1.73  64 1.79  63 1.84  45 2.42  32 2.45  31 2.52  15 2.75  29 2.78
                            28 3.08
  31  0.691  0.473  0.696-  64 1.73  62 1.97  53 2.04  61 2.18  30 2.52  29 2.60  22 2.72  24 2.73
                            32 2.74
  32  0.702  0.711  0.487-  63 2.06  61 2.14  62 2.31  30 2.45  27 2.67  31 2.74  26 2.83  29 2.97

  33  0.226  0.231  0.234-   3 1.85   2 2.02   4 2.11   8 2.15  11 2.20  18 2.36
  34  0.270  0.964  0.018-   3 2.04  17 2.07  12 2.10   1 2.33   4 2.50
  35  0.975  0.233  0.001-   2 1.86   1 2.15  20 2.24   9 2.27   4 2.34
  36  0.977  1.000  0.260-   5 1.77   2 2.04   3 2.30  19 2.48   1 2.49  10 2.52
  37  0.254  0.245  0.724-  22 2.02   7 2.05   8 2.12   6 2.25  15 2.28   4 2.31
  38  0.229  0.004  0.465-   8 1.88   3 1.89   5 2.01  21 2.09   7 2.16  16 2.51
  39  0.991  0.253  0.454-   5 1.97  13 2.04   2 2.06   6 2.09   8 2.38
  40  0.998  0.004  0.718-   7 1.89   6 2.18   1 2.20   5 2.21  23 2.50
  41  0.262  0.745  0.208-  26 1.88  12 1.90  16 2.23  11 2.30  10 2.32   3 2.37
  42  0.233  0.491  0.996-  12 2.02   4 2.07  11 2.17   9 2.24  25 2.29  15 2.47
  43  0.990  0.718  0.028-  10 1.83   9 1.92  12 2.17   1 2.38  14 2.41
  44  1.000  0.475  0.262-  13 1.83  11 1.86  10 2.04   9 2.07   2 2.13  27 2.52
  45  0.227  0.700  0.713-  15 1.67  14 1.93  16 2.17  12 2.40  30 2.42
  46  0.237  0.480  0.483-  15 1.99  16 2.02  11 2.05  13 2.07  29 2.07   8 2.27
  47  0.010  0.722  0.473-  16 1.89  10 2.02  13 2.02  14 2.39
  48  0.021  0.472  0.692-   6 1.88  13 1.90  15 2.01  14 2.06
  49  0.689  0.243  0.238-  18 1.64  19 1.98  20 2.07  27 2.16  24 2.23
  50  0.716  0.984  0.014-  19 1.84  17 1.88  20 1.99  28 2.24   1 2.52
  51  0.480  0.221  0.966-  17 1.76   4 2.05  20 2.06  25 2.19  18 2.29  22 2.31
  52  0.476  0.980  0.198-  17 1.80  19 1.91   3 2.08  26 2.12  18 2.25
  53  0.726  0.239  0.698-  24 1.77  23 1.77  31 2.04  22 2.06   6 2.33
  54  0.707  0.009  0.473-  24 1.90  21 2.07  23 2.08  19 2.16   5 2.50
  55  0.508  0.257  0.477-  24 1.69  29 1.72  22 1.93   8 2.14  18 2.14  21 2.21
  56  0.472  0.041  0.721-  22 1.67  21 2.00  23 2.06   7 2.22  17 2.38
  57  0.755  0.724  0.189-  28 1.73  10 2.14  27 2.17  26 2.48
  58  0.738  0.497  0.002-   9 2.05  28 2.06  25 2.09  27 2.32  20 2.45
  59  0.504  0.726  0.007-  28 1.49  26 2.13  25 2.21  12 2.30
  60  0.478  0.455  0.236-  18 1.89  25 1.96  27 2.04  29 2.16  11 2.29  26 2.47
  61  0.701  0.722  0.734-  30 1.73  32 2.14  31 2.18  28 2.34
  62  0.687  0.444  0.469-  27 1.78  29 1.83  24 1.89  31 1.97  32 2.31
  63  0.466  0.743  0.487-  30 1.84  26 2.03  32 2.06  16 2.07  21 2.26  29 2.50
  64  0.494  0.495  0.729-  31 1.73  30 1.79  15 2.11  29 2.13  22 2.28  25 2.44

  LATTYP: Found a simple cubic cell.
 ALAT       =     8.6308845000

  Lattice vectors:

 A1 = (   8.6308845000,   0.0000000000,   0.0000000000)
 A2 = (   0.0000000000,   8.6308845000,   0.0000000000)
 A3 = (   0.0000000000,   0.0000000000,   8.6308845000)

Analysis of symmetry for initial positions (statically):
 Subroutine PRICEL returns:
 Original cell was already a primitive cell.

 Routine SETGRP: Setting up the symmetry group for a
 simple cubic supercell.

 Subroutine GETGRP returns: Found  1 space group operations
 (whereof  1 operations were pure point group operations)
 out of a pool of 48 trial point group operations.

The static configuration has the point symmetry C_1 .

Analysis of symmetry for dynamics (positions and initial velocities):
 Subroutine PRICEL returns:
 Original cell was already a primitive cell.

[...]

The dynamic configuration has the point symmetry C_1 .

Analysis of structural, dynamic, and magnetic symmetry:
 Subroutine PRICEL returns:
 Original cell was already a primitive cell.

 Routine SETGRP: Setting up the symmetry group for a
 simple cubic supercell.

 Subroutine GETGRP returns: Found  1 space group operations
 (whereof  1 operations were pure point group operations)
 out of a pool of 48 trial point group operations.

The magnetic configuration has the point symmetry C_1 .

 Subroutine INISYM returns: Found  1 space group operations
 (whereof  1 operations are pure point group operations),
 and found     1 'primitive' translations

 KPOINTS: Automatic mesh

Automatic generation of k-mesh.
Space group operators:
 irot       det(A)        alpha          n_x          n_y          n_z        tau_x        tau_y        tau_z
[...]
   -.118E+03 -.363E+01 -.948E+01   0.114E+03 0.569E+01 0.808E+01   0.404E+01 -.160E+01 0.310E+00   0.244E+00 -.305E+00 0.522E+00
   -.234E+03 -.166E+03 0.160E+03   0.234E+03 0.169E+03 -.162E+03   0.158E+01 -.819E+00 -.587E+00   -.397E+00 -.517E+00 0.222E+00
   -.329E+03 -.108E+03 0.292E+03   0.341E+03 0.107E+03 -.292E+03   -.886E-01 0.995E+00 -.201E+01   0.218E+00 -.927E-01 0.122E+00
   0.140E+03 -.292E+03 0.172E+02   -.142E+03 0.294E+03 -.193E+02   -.214E+00 0.222E+01 0.174E+01   -.429E-01 -.198E+00 -.293E+00
   0.938E+02 -.347E+03 -.249E+03   -.925E+02 0.348E+03 0.250E+03   -.294E+01 0.214E+00 0.381E-01   -.294E+00 -.229E+00 -.411E+00
   -.446E+03 -.139E+03 -.310E+03   0.449E+03 0.140E+03 0.312E+03   0.161E+01 -.589E+00 -.101E+01   -.251E+00 -.141E+00 -.392E+00
   -.326E+03 -.238E+03 0.240E+01   0.325E+03 0.239E+03 -.134E+01   0.127E+01 -.724E+00 -.961E+00   -.419E-01 -.101E+00 -.145E+00
   0.281E+02 -.364E+02 0.799E+02   -.274E+02 0.445E+02 -.791E+02   -.203E+00 -.713E+01 -.114E+01   0.326E+00 0.207E+00 -.997E-01
   0.113E+03 0.369E+02 0.170E+03   -.112E+03 -.376E+02 -.172E+03   -.216E+01 0.554E+00 0.115E+01   -.327E+00 0.426E+00 -.155E+00
   0.266E+02 0.995E+01 0.195E+03   -.271E+02 -.771E+01 -.207E+03   0.137E+00 -.207E+01 0.115E+02   0.415E-02 -.221E+00 0.984E-03
   0.926E+02 0.165E+03 0.128E+03   -.975E+02 -.174E+03 -.140E+03   0.517E+01 0.929E+01 0.961E+01   -.252E+00 0.643E-01 0.231E+00
   0.127E+03 -.141E+02 -.162E+03   -.130E+03 0.188E+02 0.167E+03   0.233E+01 -.426E+01 -.494E+01   0.135E+00 0.115E+00 0.484E-01
   0.729E+02 0.207E+03 -.885E+02   -.744E+02 -.220E+03 0.927E+02   0.233E+01 0.121E+02 -.395E+01   -.254E+00 -.905E-01 0.203E+00
   0.745E+02 0.191E+02 -.366E+02   -.761E+02 -.155E+02 0.339E+02   0.142E+01 -.305E+01 0.341E+01   -.162E+00 -.179E+00 -.127E+00
   0.142E+03 0.147E+03 -.782E+02   -.153E+03 -.153E+03 0.778E+02   0.100E+02 0.648E+01 0.820E+00   0.118E+00 -.166E+00 -.456E-01
   0.846E+02 -.570E+02 0.144E+02   -.900E+02 0.622E+02 -.142E+02   0.445E+01 -.549E+01 0.452E+00   0.313E-01 -.974E-01 0.535E+00
   0.376E+02 -.562E+01 0.115E+03   -.377E+02 0.521E+01 -.119E+03   -.215E+00 0.825E+00 0.453E+01   0.970E-01 -.484E+00 -.854E-01
   0.856E+02 -.150E+03 0.189E+03   -.921E+02 0.159E+03 -.196E+03   0.761E+01 -.878E+01 0.566E+01   -.215E+00 0.153E+00 -.120E+00
   0.143E+03 0.738E+01 0.756E+02   -.152E+03 -.127E+02 -.793E+02   0.861E+01 0.578E+01 0.270E+01   -.662E-01 -.119E+00 0.173E+00
   0.248E+01 -.267E+03 -.111E+03   0.266E+01 0.287E+03 0.111E+03   -.532E+01 -.154E+02 0.577E+00   0.341E-01 -.278E+00 -.413E+00
   0.335E+02 0.967E+00 -.151E+02   -.369E+02 -.636E+01 0.157E+02   0.445E+01 0.488E+01 -.159E+01   0.303E+00 0.138E+00 0.142E+00
   0.194E+03 -.188E+03 -.118E+03   -.203E+03 0.198E+03 0.125E+03   0.868E+01 -.108E+02 -.762E+01   0.142E+00 0.570E-01 0.145E+00
   0.153E+03 -.451E+02 -.202E+03   -.156E+03 0.468E+02 0.210E+03   0.268E+01 -.119E+01 -.770E+01   0.300E+00 0.274E+00 -.145E+00
   -.280E+03 -.231E+02 0.481E+02   0.301E+03 0.290E+02 -.435E+02   -.158E+02 -.553E+01 -.458E+01   -.521E+00 -.225E-01 0.179E+00
   -.246E+03 0.150E+03 0.192E+03   0.259E+03 -.162E+03 -.202E+03   -.120E+02 0.108E+02 0.813E+01   0.379E+00 0.250E+00 0.268E+00
   0.377E+02 -.882E+02 0.103E+03   -.404E+02 0.970E+02 -.111E+03   0.236E+01 -.597E+01 0.712E+01   -.465E-01 0.391E+00 0.340E+00
   0.398E+02 0.112E+03 -.601E+02   -.491E+02 -.118E+03 0.658E+02   0.884E+01 0.479E+01 -.339E+01   0.357E+00 0.445E+00 0.366E+00
   -.234E+03 -.435E+02 -.255E+03   0.243E+03 0.527E+02 0.270E+03   -.826E+01 -.699E+01 -.118E+02   -.153E+00 -.440E-01 -.312E+00
   -.183E+03 0.265E+03 -.582E+01   0.190E+03 -.277E+03 0.190E+01   -.830E+01 0.110E+02 0.395E+01   0.146E+00 0.275E+00 -.247E+00
   0.952E+02 0.102E+03 0.533E+02   -.104E+03 -.111E+03 -.620E+02   0.398E+01 0.492E+01 0.843E+01   0.227E+00 0.410E+00 -.410E+00
   0.487E+02 0.312E+03 -.162E+03   -.542E+02 -.330E+03 0.173E+03   0.532E+01 0.133E+02 -.102E+02   -.118E+00 0.400E-01 -.167E+00
   -.102E+03 -.104E+03 -.982E+02   0.109E+03 0.109E+03 0.107E+03   -.654E+01 -.497E+01 -.608E+01   -.116E-01 0.208E-02 0.280E+00
   -.107E+03 0.243E+02 0.142E+03   0.110E+03 -.268E+02 -.146E+03   -.276E+01 0.212E+01 0.402E+01   -.683E-01 -.275E+00 0.196E+00
   0.182E+03 -.464E+02 0.148E+03   -.213E+03 0.510E+02 -.152E+03   0.182E+02 -.525E+01 0.485E+01   0.217E-01 -.207E+00 0.535E-02
   0.683E+02 -.142E+03 0.642E+02   -.740E+02 0.150E+03 -.612E+02   0.486E+01 -.636E+01 -.338E+01   0.163E+00 -.544E+00 0.305E+00
   -.270E+03 -.160E+03 -.107E+03   0.287E+03 0.167E+03 0.117E+03   -.140E+02 -.633E+01 -.886E+01   0.351E-01 0.616E-01 -.186E+00
   -.243E+03 -.149E+03 -.310E+02   0.253E+03 0.150E+03 0.340E+02   -.781E+01 0.688E-01 -.165E+01   -.406E+00 -.269E+00 -.308E+00
   -.210E+01 -.103E+03 -.226E+01   -.172E+01 0.107E+03 -.106E+01   0.364E+01 -.311E+01 0.165E+01   -.117E+00 -.295E+00 0.671E-01
   0.755E+02 -.883E+01 -.222E+03   -.859E+02 0.138E+01 0.234E+03   0.733E+01 0.543E+01 -.985E+01   -.416E+00 -.746E-01 -.325E+00
   -.405E+02 0.186E+02 0.974E+01   -.122E-11 0.455E-12 0.568E-13   0.407E+02 -.184E+02 -.101E+02   -.145E+00 -.224E+00 0.339E+00

 POSITION                                       TOTAL-FORCE (eV/Angst)
      0.03658      8.51879      8.39671         0.116265      0.346441     -0.354409
      8.56125      2.00216      1.86275        -0.167385     -0.277884      1.077235
      2.09837      0.14700      2.12666        -0.208204     -2.548641     -1.528841
      2.12260      2.16784      8.55430        -0.169852     -0.093500     -0.440493
      8.60294      0.21449      3.99128        -0.396255     -0.692724      1.898607
      8.58622      2.19926      6.00435         0.049928     -0.858952      0.608826
      1.87415      0.09660      6.17346         0.478349     -0.048518      0.403296
      2.26775      1.88353      4.14232        -0.967875      1.359691     -0.042013
      8.41129      4.27915      0.21095        -0.369967     -0.302191     -1.179570
      8.61044      6.12618      2.06462        -0.818009      1.270174      0.743098
      1.85450      4.19056      2.12784         1.718735     -0.399513     -0.703072
      2.05480      6.24820      8.53886         0.401307      0.835148     -0.223796
      8.61085      4.21121      4.08910        -0.522152     -0.458475      1.031439
      0.05488      6.06304      6.46797        -0.534794      0.127238      0.022087
      2.16459      4.38945      6.13374        -0.103803     -5.066503      1.038111
      1.97976      6.15633      3.99078         0.382422      0.713128      0.450638
      4.33301      0.17245      8.58308        -1.675724     -2.826861     -2.002638
      4.30760      2.05141      1.97876        -5.729720     -0.516488     -0.427869
      5.98057      0.12046      1.92573         1.831215     -1.140253      2.072361
      6.18487      1.85111      0.00789         1.199582      0.967045     -0.468824
      4.04506      0.04147      4.24969         0.161285     -1.315724     -0.103724
      4.20306      2.00591      6.02698        -0.961119      4.595673      2.205028
      6.13043      0.29842      6.15106         0.328299     -2.909410      0.650184
      6.04411      1.96447      4.27311         5.670674     -0.722244     -3.505240
      4.29221      4.05646      0.09068        -0.306267      0.536556     -0.730134
      4.09984      6.39777      2.17370         0.428147      0.159237     -0.569245
      6.11987      4.23517      2.32838         0.878065      0.905353     -2.430197
      5.83978      6.27864      0.03567        12.283574     -0.257515     -2.221954
      4.10217      3.91204      4.19672        -2.502782      3.980211     -0.637735
      4.36754      6.03543      5.97308        -2.011214      1.628303      0.382152
      5.96207      4.07863      6.00514         3.631792      0.307827      0.868017
      6.06241      6.13953      4.20222         0.382573      0.374066     -0.044208
      1.94911      1.99132      2.02015         0.842182      1.232727     -0.444506
      2.32724      8.31667      0.15539        -1.315706      0.298567     -0.828568
      8.41576      2.01324      0.00893        -0.295849     -0.062411     -0.528459
      8.43464      8.63069      2.24413        -0.006408     -0.135415     -1.993662
      2.19381      2.11605      6.24857        -0.238773      0.521832     -0.036104
      1.97317      0.03100      4.01319         0.552027     -0.749806      0.513895
      8.55160      2.18080      3.91491        -0.370793      0.402560      0.551526
      8.61634      0.03173      6.19777        -0.223769      0.410156      0.334786
      2.25804      6.43266      1.79196        -0.960293     -0.361088      1.135299
      2.00768      4.23393      8.59850        -0.184159     -0.068141      0.443419
      8.54121      6.19419      0.23898         0.868420      0.099686     -1.602964
      8.63060      4.09717      2.26386        -0.692429      0.376035     -0.832646
      1.95536      6.04280      6.15350        -0.149190      4.288736      0.647369
      2.04540      4.14133      4.16633         1.427395     -0.378460     -0.872786
      0.08930      6.23285      4.08111        -0.567914     -0.633808     -0.571010
      0.18535      4.06990      5.97209        -0.359933      0.767297     -0.045052
      5.94251      2.09595      2.05250         5.046480      0.311849      0.189192
      6.17615      8.49130      0.11840         1.144741     -0.034329     -1.030624
      4.14536      1.90699      8.33348        -0.369330      3.196008     -0.657005
      4.10682      8.46169      1.70477        -0.075471     -0.120403      2.712639
      6.26223      2.06021      6.02750         0.929265      2.168942      2.488110
      6.10475      0.07762      4.07858        -0.522425     -0.742823     -0.220230
      4.38307      2.22144      4.11368        -4.963519     -3.537431     -0.676265
      4.07561      0.35160      6.22420        -0.228831     -4.548920      0.101502
      6.51344      6.25124      1.63348         0.318270     -0.005405      3.405711
      6.37190      4.29096      0.01863        -0.006435     -0.673280      0.314955
      4.34610      6.26813      0.05732       -12.355670     -0.930667      0.599410
      4.12468      3.93124      2.03683        -0.693015      0.825022     -0.091288
      6.05175      6.23120      6.33906         2.753960      0.417613      0.147396
      5.92812      3.83432      4.04901         1.986820      1.379203      1.082629
      4.02427      6.40887      4.20301        -0.296092      0.709443     -1.604756
      4.26556      4.27271      6.28990        -3.490648     -2.093983      1.530969
    total drift:                                0.022690     -0.009709     -0.015624

  FREE ENERGIE OF THE ION-ELECTRON SYSTEM (eV)
  free  energy   TOTEN  =      -374.7949600555 eV

  energy  without entropy=     -374.7225835290  energy(sigma->0) =     -374.75877179

volume of typ            1:    31.7 %

volume of typ            2:     8.1 %

total charge

# of ion       s       p       d       tot
    1        0.149   0.111   7.939   8.200
    2        0.221   0.228   7.926   8.375
    3        0.221   0.240   7.961   8.422
    4        0.171   0.153   7.936   8.261
    5        0.220   0.225   7.932   8.378
    6        0.189   0.173   7.952   8.315
    7        0.194   0.172   7.952   8.318
    8        0.199   0.203   7.993   8.395
    9        0.187   0.179   7.969   8.336
   10        0.209   0.219   7.952   8.379
   11        0.200   0.203   7.964   8.368
   12        0.195   0.189   7.949   8.333
   13        0.233   0.263   7.950   8.446
   14        0.168   0.138   7.967   8.273
   15        0.246   0.272   7.958   8.476
   16        0.204   0.203   7.947   8.354
   17        0.260   0.309   7.963   8.533
   18        0.257   0.285   8.024   8.565
   19        0.221   0.238   7.963   8.422
   20        0.183   0.175   7.977   8.336
   21        0.191   0.182   7.995   8.367
   22        0.255   0.298   8.019   8.572
   23        0.200   0.195   8.005   8.399
   24        0.286   0.361   7.995   8.643
   25        0.181   0.168   7.953   8.302
   26        0.197   0.192   7.969   8.358
   27        0.214   0.215   7.970   8.398
   28        0.323   0.392   8.016   8.732
   29        0.246   0.291   8.001   8.538
   30        0.269   0.307   7.985   8.560
   31        0.215   0.233   8.048   8.496
   32        0.160   0.131   8.023   8.314
   33        1.266   2.751   0.007   4.024
   34        1.283   2.685   0.004   3.971
   35        1.265   2.720   0.005   3.990
   36        1.273   2.723   0.006   4.003
   37        1.272   2.719   0.005   3.996
   38        1.260   2.772   0.009   4.041
   39        1.265   2.743   0.006   4.014
   40        1.262   2.717   0.005   3.984
   41        1.280   2.722   0.007   4.009
   42        1.268   2.715   0.004   3.987
   43        1.270   2.733   0.007   4.010
   44        1.267   2.774   0.010   4.051
   45        1.268   2.769   0.011   4.048
   46        1.271   2.754   0.007   4.033
   47        1.268   2.725   0.006   3.999
   48        1.260   2.763   0.007   4.030
   49        1.276   2.780   0.013   4.069
   50        1.271   2.750   0.009   4.030
   51        1.268   2.763   0.009   4.040
   52        1.281   2.751   0.010   4.041
   53        1.262   2.798   0.013   4.073
   54        1.268   2.732   0.006   4.006
   55        1.279   2.826   0.019   4.124
   56        1.266   2.778   0.011   4.056
   57        1.284   2.712   0.007   4.004
   58        1.278   2.691   0.004   3.973
   59        1.282   2.801   0.018   4.100
   60        1.273   2.744   0.007   4.024
   61        1.271   2.729   0.008   4.008
   62        1.267   2.809   0.013   4.089
   63        1.259   2.763   0.008   4.029
   64        1.264   2.796   0.013   4.073
tot          47.51   95.15  255.43  398.09

magnetization (x)

# of ion       s       p       d       tot
    1        0.005   0.004   1.260   1.269
    2        0.008   0.009   1.184   1.201
    3       -0.002   0.001  -0.047  -0.047
    4        0.006   0.006   1.276   1.288
    5        0.010   0.014   1.108   1.132
    6        0.010   0.006   1.217   1.233
    7        0.011   0.008   1.189   1.208
    8        0.005   0.006   1.127   1.139
    9        0.005   0.002  -0.155  -0.148
   10       -0.004   0.001  -0.787  -0.790
   11       -0.001  -0.001  -0.995  -0.997
   12        0.004   0.004   0.395   0.403
   13        0.008   0.005   0.429   0.442
   14        0.007   0.008   1.254   1.268
   15        0.007   0.010   0.747   0.764
   16        0.007   0.008   1.036   1.051
   17        0.002   0.019   0.968   0.989
   18        0.001  -0.003  -0.256  -0.258
   19        0.004   0.009   0.810   0.822
   20        0.002   0.002   1.123   1.127
   21        0.004   0.005   1.019   1.028
   22       -0.002  -0.003  -0.448  -0.452
   23        0.008   0.010   1.096   1.114
   24       -0.001  -0.008  -0.682  -0.691
   25        0.001   0.002   1.168   1.171
   26        0.002   0.006   1.024   1.033
   27        0.005   0.004   0.790   0.799
   28       -0.007  -0.005  -0.116  -0.128
   29       -0.002  -0.007  -0.852  -0.861
   30        0.005   0.022   1.146   1.173
   31        0.007   0.008   0.551   0.566
   32        0.003   0.001   1.034   1.039
   33        0.012   0.125   0.000   0.138
   34        0.004   0.108   0.000   0.112
   35        0.011   0.183   0.000   0.194
   36        0.008   0.140   0.000   0.148
   37        0.010   0.122   0.000   0.132
   38        0.016   0.166   0.000   0.182
   39        0.015   0.149   0.000   0.164
   40        0.013   0.174   0.000   0.188
   41        0.004   0.019   0.000   0.023
   42        0.004   0.038   0.000   0.042
   43        0.003   0.085  -0.000   0.088
   44        0.002  -0.059   0.000  -0.057
   45        0.012   0.163   0.000   0.175
   46        0.009   0.114   0.000   0.124
   47        0.006   0.096   0.000   0.102
   48        0.014   0.152   0.000   0.166
   49        0.004   0.066  -0.000   0.071
   50        0.008   0.159   0.000   0.167
   51        0.014   0.203   0.000   0.217
   52        0.007   0.110   0.000   0.117
   53        0.003   0.051  -0.000   0.054
   54        0.006   0.086   0.000   0.093
   55       -0.008  -0.071  -0.000  -0.079
   56        0.010   0.117   0.000   0.127
   57        0.002   0.097  -0.000   0.098
   58        0.000   0.041  -0.000   0.041
   59        0.007   0.118   0.000   0.125
   60        0.002   0.050  -0.000   0.052
   61        0.009   0.185   0.000   0.194
   62       -0.001   0.016  -0.000   0.015
   63        0.015   0.185   0.000   0.200
   64        0.010   0.072   0.000   0.082
tot           0.35    3.41   18.62   22.38