 vasp.5.4.4.18Apr17-6-g9f103f2a35 (build May 12 2020 04:58:55) complex

 MD_VERSION_INFO: Compiled 2020-05-12T11:58:55-UTC in devlin.sd.materialsdesign.
 com:/home/medea2/data/build/wwolf/vasp-gpu5.4.4/13047/x86_64/src/src/build/std
 from svn 13047

 executed on                        Lin64 date 2023.03.23  17:53:15

 INCAR:
 POTCAR:    PAW_PBE Ni 02Aug2007
 POTCAR:    PAW_PBE O 08Apr2002

 POTCAR:    PAW_PBE Ni 02Aug2007

 POTCAR:    PAW_PBE O 08Apr2002

 Optimization of the real space projectors (new method)

 maximal supplied QI-value         = 16.25
 optimisation between [QCUT,QGAM] = [ 11.38, 22.75] = [ 36.24,144.96] Ry
 Optimized for a Real-space Cutoff    1.47 Angstroem

   l    n(q)    QCUT    max X(q) W(low)/X(q) W(high)/X(q)  e(spline)
   2      9    11.376    60.317    0.17E-03    0.16E-04    0.16E-06
   2      9    11.376    55.921    0.17E-03    0.16E-04    0.17E-06
   0     10    11.376    51.690    0.45E-04    0.60E-04    0.21E-06
   0     10    11.376    30.015    0.37E-04    0.55E-04    0.19E-06
   1     10    11.376    18.849    0.83E-04    0.11E-03    0.92E-07
   1     10    11.376    14.624    0.69E-04    0.92E-04    0.82E-07
 Optimization of the real space projectors (new method)

 maximal supplied QI-value         = 24.76
 optimisation between [QCUT,QGAM] = [ 11.39, 22.77] = [ 36.31,145.25] Ry
 Optimized for a Real-space Cutoff    1.10 Angstroem

   l    n(q)    QCUT    max X(q) W(low)/X(q) W(high)/X(q)  e(spline)
   0      7    11.387    20.381    0.22E-03    0.48E-03    0.18E-06
   0      7    11.387    15.268    0.22E-03    0.52E-03    0.19E-06
   1      7    11.387     5.964    0.22E-03    0.73E-03    0.24E-06
   1      7    11.387     5.382    0.19E-03    0.60E-03    0.21E-06

  PAW_PBE Ni 02Aug2007                  :
  PAW_PBE O 08Apr2002                   :

 POSCAR: NiO_Fm-3m_scale_1_050_disp_0_10_round_2
  positions in direct lattice
 exchange correlation table for  LEXCH =       14
   RHO(1)=    0.500       N(1)  =     2000
   RHO(2)=  100.500       N(2)  =     4000

 ion  position               nearest neighbor table
   1  0.999  0.008  0.004-  36 1.82  35 2.01  34 2.07  50 2.44  40 2.47   4 2.84   3 2.98   2 3.01
                             6 3.07  20 3.08
   2  0.985  0.256  0.250-  44 1.94  39 2.16  35 2.19  33 2.24  36 2.25  49 2.32  13 2.70  11 2.88
                             8 2.91   9 2.92   4 2.92   5 2.99   1 3.01  24 3.03  27 3.08
   3  0.241  0.995  0.249-  34 1.97  38 2.00  52 2.08  33 2.10  36 2.19  41 2.46  17 2.85  18 2.86
                             4 2.96   1 2.98   8 2.98   5 3.00  21 3.00
   4  0.229  0.244  0.014-  33 1.93  35 1.94  42 1.94  34 1.97  51 2.15   9 2.66  18 2.82   1 2.84
                            25 2.86  11 2.88   2 2.92  17 2.94   3 2.96
   5  0.992  0.007  0.490-  39 1.79  40 1.97  38 2.16  36 2.39  54 2.45   8 2.75   6 2.84   7 2.90
                             2 2.99   3 3.00  24 3.07
   6  0.980  0.234  0.729-  40 1.93  39 2.03  48 2.06  37 2.16  53 2.21  35 2.32   5 2.84   8 2.86
                            13 2.86   9 2.98   7 3.01   1 3.07
   7  0.238  0.998  0.719-  56 1.91  38 2.06  40 2.10  37 2.25  45 2.36   8 2.82   5 2.90  21 2.93
                            22 2.95   6 3.01
   8  0.214  0.235  0.495-  39 1.89  37 1.91  38 2.04  46 2.11  33 2.24  55 2.39  13 2.74   5 2.75
                             7 2.82  15 2.83   6 2.86   2 2.91  18 2.96   3 2.98  29 2.99
   9  0.015  0.464  0.984-  35 1.93  42 1.94  44 2.09  43 2.14  48 2.34   4 2.66  11 2.80   2 2.92
                             6 2.98  12 3.04  10 3.06
  10  0.996  0.715  0.233-  41 2.01  47 2.03  44 2.06  43 2.11  36 2.43  57 2.45  11 2.70  12 2.94
                            16 2.96   9 3.06
  11  0.218  0.495  0.235-  44 1.83  41 1.86  42 1.94  46 1.98  33 2.23  60 2.34  12 2.68  26 2.70
                            10 2.70   9 2.80  16 2.83   4 2.88   2 2.88  18 2.95  13 2.96  25 2.96
  12  0.261  0.713  0.018-  59 1.84  41 1.97  42 2.12  43 2.29  26 2.47  11 2.68  25 2.77  10 2.94
                             9 3.04
  13  0.989  0.459  0.487-  48 1.96  39 2.12  47 2.24  46 2.26  44 2.26  62 2.35   2 2.70   8 2.74
                            14 2.76   6 2.86  16 2.95  11 2.96  24 2.99
  14  0.025  0.694  0.701-  45 1.92  48 1.94  47 2.03  43 2.49  16 2.55  13 2.76  15 2.86
  15  0.264  0.466  0.724-  37 1.82  64 1.85  45 2.24  46 2.27  48 2.28  42 2.50  22 2.74  29 2.75
                             8 2.83  14 2.86  30 2.91  16 2.93  25 3.01
  16  0.226  0.705  0.486-  47 1.76  46 2.01  45 2.03  41 2.10  63 2.16  14 2.55  11 2.83  29 2.86
                            15 2.93  13 2.95  10 2.96  30 2.97  26 3.02
  17  0.471  0.005  0.013-  52 1.86  51 1.89  34 2.01  50 2.12  59 2.32  19 2.81   3 2.85  20 2.93
                            18 2.94   4 2.94
  18  0.454  0.248  0.251-  33 1.82  55 1.86  52 1.98  60 2.06  51 2.26  49 2.26  29 2.76  27 2.82
                             4 2.82   3 2.86  25 2.87  19 2.94  17 2.94  11 2.95   8 2.96  24 3.04
  19  0.711  0.026  0.232-  49 1.90  52 2.00  50 2.00  54 2.31  36 2.43  20 2.73  17 2.81  24 2.83
                            18 2.94  21 2.96
  20  0.722  0.232  0.993-  50 1.87  58 1.96  51 2.13  49 2.29  53 2.39  35 2.44  19 2.73  17 2.93
                            25 2.99  22 3.03  27 3.06   1 3.08  23 3.08
  21  0.490  0.989  0.491-  54 1.90  56 1.92  55 2.02  38 2.14  52 2.30  63 2.31  23 2.75  32 2.89
                             7 2.93  24 2.94  19 2.96   3 3.00  22 3.00  30 3.01  18 3.07
  22  0.483  0.237  0.735-  53 2.10  64 2.15  56 2.17  37 2.21  51 2.22  55 2.36  15 2.74  31 2.76
                            23 2.84   7 2.95  21 3.00  24 3.01  20 3.03  29 3.05  25 3.08
  23  0.701  0.991  0.730-  54 2.02  56 2.10  53 2.24  50 2.34  61 2.44  21 2.75  22 2.84  30 2.99
                            24 3.04  20 3.08
  24  0.722  0.238  0.481-  49 1.93  55 2.02  53 2.03  62 2.03  54 2.21  39 2.38  27 2.77  19 2.83
                            31 2.84  21 2.94  13 2.99  22 3.01  29 3.02   2 3.03  23 3.04  18 3.04
  25  0.471  0.471  0.005-  60 1.98  42 2.02  58 2.02  51 2.15  59 2.28  26 2.71  12 2.77   4 2.86
                            18 2.87  28 2.91  27 2.92  11 2.96  20 2.99  15 3.01  22 3.08
  26  0.458  0.695  0.224-  60 1.85  59 1.91  41 1.99  57 2.20  63 2.28  12 2.47  11 2.70  25 2.71
                            28 2.85  27 2.86  29 2.88  16 3.02  32 3.08
  27  0.697  0.467  0.257-  62 1.72  60 1.81  49 1.93  57 2.17  58 2.31  29 2.76  24 2.77  18 2.82
                            26 2.86  25 2.92  32 3.00  28 3.04  20 3.06   2 3.08
  28  0.705  0.714  0.005-  57 2.00  59 2.02  58 2.21  43 2.53  26 2.85  25 2.91  27 3.04
  29  0.464  0.475  0.475-  46 1.86  64 2.04  60 2.11  63 2.13  55 2.20  62 2.21  31 2.75  15 2.75
                            18 2.76  27 2.76  16 2.86  26 2.88  32 2.91  11 2.97  30 2.98   8 2.99
  30  0.483  0.722  0.715-  61 1.94  63 1.98  64 2.05  45 2.06  56 2.30  59 2.52  32 2.64  31 2.74
                            15 2.91  16 2.97  29 2.98  23 2.99  21 3.01
  31  0.688  0.480  0.701-  64 1.83  61 1.99  53 2.03  62 2.14  58 2.50  30 2.74  29 2.75  22 2.76
                            32 2.76  24 2.84
  32  0.692  0.723  0.492-  63 1.87  61 1.87  62 2.20  57 2.21  54 2.25  30 2.64  31 2.76  21 2.89
                            29 2.91  27 3.00  26 3.08
  33  0.244  0.237  0.238-  18 1.82   4 1.93   3 2.10  11 2.23   8 2.24   2 2.24
  34  0.239  0.017  0.022-   4 1.97   3 1.97  17 2.01   1 2.07
  35  0.005  0.240  0.996-   9 1.93   4 1.94   1 2.01   2 2.19   6 2.32  20 2.44
  36  0.990  0.997  0.214-   1 1.82   3 2.19   2 2.25   5 2.39  19 2.43  10 2.43
  37  0.229  0.258  0.715-  15 1.82   8 1.91   6 2.16  22 2.21   7 2.25
  38  0.242  0.001  0.480-   3 2.00   8 2.04   7 2.06  21 2.14   5 2.16
  39  0.997  0.214  0.496-   5 1.79   8 1.89   6 2.03  13 2.12   2 2.16  24 2.38
  40  0.995  0.011  0.718-   6 1.93   5 1.97   7 2.10   1 2.47
  41  0.228  0.710  0.243-  11 1.86  12 1.97  26 1.99  10 2.01  16 2.10   3 2.46
  42  0.237  0.469  0.012-  11 1.94   9 1.94   4 1.94  25 2.02  12 2.12  15 2.50
  43  0.998  0.711  0.988-  10 2.11   9 2.14  12 2.29  14 2.49  28 2.53
  44  0.007  0.478  0.226-  11 1.83   2 1.94  10 2.06   9 2.09  13 2.26
  45  0.245  0.725  0.720-  14 1.92  16 2.03  30 2.06  15 2.24   7 2.36
  46  0.249  0.475  0.461-  29 1.86  11 1.98  16 2.01   8 2.11  13 2.26  15 2.27
  47  0.023  0.715  0.467-  16 1.76  14 2.03  10 2.03  13 2.24
  48  0.000  0.471  0.714-  14 1.94  13 1.96   6 2.06  15 2.28   9 2.34
  49  0.716  0.245  0.257-  19 1.90  27 1.93  24 1.93  18 2.26  20 2.29   2 2.32
  50  0.717  0.015  1.000-  20 1.87  19 2.00  17 2.12  23 2.34   1 2.44
  51  0.476  0.223  0.991-  17 1.89  20 2.13  25 2.15   4 2.15  22 2.22  18 2.26
  52  0.480  0.021  0.228-  17 1.86  18 1.98  19 2.00   3 2.08  21 2.30
  53  0.725  0.248  0.716-  31 2.03  24 2.03  22 2.10   6 2.21  23 2.24  20 2.39
  54  0.710  0.983  0.496-  21 1.90  23 2.02  24 2.21  32 2.25  19 2.31   5 2.45
  55  0.489  0.222  0.462-  18 1.86  24 2.02  21 2.02  29 2.20  22 2.36   8 2.39
  56  0.459  0.988  0.712-   7 1.91  21 1.92  23 2.10  22 2.17  30 2.30
  57  0.711  0.717  0.237-  28 2.00  27 2.17  26 2.20  32 2.21  10 2.45
  58  0.704  0.458  0.989-  20 1.96  25 2.02  28 2.21  27 2.31  31 2.50
  59  0.472  0.735  0.007-  12 1.84  26 1.91  28 2.02  25 2.28  17 2.32  30 2.52
  60  0.489  0.483  0.233-  27 1.81  26 1.85  25 1.98  18 2.06  29 2.11  11 2.34
  61  0.707  0.710  0.708-  32 1.87  30 1.94  31 1.99  23 2.44
  62  0.719  0.472  0.455-  27 1.72  24 2.03  31 2.14  32 2.20  29 2.21  13 2.35
  63  0.476  0.722  0.486-  32 1.87  30 1.98  29 2.13  16 2.16  26 2.28  21 2.31
  64  0.477  0.485  0.711-  31 1.83  15 1.85  29 2.04  30 2.05  22 2.15

  LATTYP: Found a simple cubic cell.
 ALAT       =     8.6308845000

  Lattice vectors:

 A1 = (   8.6308845000,   0.0000000000,   0.0000000000)
 A2 = (   0.0000000000,   8.6308845000,   0.0000000000)
 A3 = (   0.0000000000,   0.0000000000,   8.6308845000)

Analysis of symmetry for initial positions (statically):
 Subroutine PRICEL returns:
 Original cell was already a primitive cell.

 Routine SETGRP: Setting up the symmetry group for a
 simple cubic supercell.

 Subroutine GETGRP returns: Found  1 space group operations
 (whereof  1 operations were pure point group operations)
 out of a pool of 48 trial point group operations.

The static configuration has the point symmetry C_1 .

Analysis of symmetry for dynamics (positions and initial velocities):
 Subroutine PRICEL returns:
 Original cell was already a primitive cell.

[...]

The dynamic configuration has the point symmetry C_1 .

Analysis of structural, dynamic, and magnetic symmetry:
 Subroutine PRICEL returns:
 Original cell was already a primitive cell.

 Routine SETGRP: Setting up the symmetry group for a
 simple cubic supercell.

 Subroutine GETGRP returns: Found  1 space group operations
 (whereof  1 operations were pure point group operations)
 out of a pool of 48 trial point group operations.

The magnetic configuration has the point symmetry C_1 .

 Subroutine INISYM returns: Found  1 space group operations
 (whereof  1 operations are pure point group operations),
[...]
   -.154E+03 -.332E+03 -.347E+02   0.157E+03 0.334E+03 0.344E+02   -.168E+01 0.123E+01 0.110E+01   0.409E+00 -.120E+01 0.283E+00
   -.330E+03 -.166E+03 0.210E+03   0.331E+03 0.167E+03 -.213E+03   0.159E+01 -.467E+00 -.160E+01   0.342E+00 0.788E-01 0.318E+00
   -.297E+03 -.164E+03 0.201E+03   0.296E+03 0.163E+03 -.197E+03   0.100E+01 0.173E+01 -.419E+01   0.104E+01 -.137E+01 0.194E+00
   -.978E+02 -.345E+02 -.741E+02   0.953E+02 0.351E+02 0.748E+02   0.319E+01 -.122E+00 -.762E+00   0.647E+00 -.487E+00 0.232E+00
   -.280E+02 -.188E+03 -.275E+03   0.275E+02 0.190E+03 0.275E+03   -.457E+00 0.161E+00 0.200E+01   0.290E+00 -.115E+01 -.482E+00
   -.325E+03 -.896E+02 -.226E+03   0.326E+03 0.900E+02 0.228E+03   0.153E+01 -.153E+00 -.889E+00   0.310E+00 -.375E+00 -.298E+00
   -.370E+03 -.178E+03 0.664E+02   0.369E+03 0.179E+03 -.660E+02   0.266E+01 -.469E+00 -.152E+01   0.583E+00 -.602E+00 -.210E+00
   0.113E+03 0.543E+02 -.258E+02   -.120E+03 -.541E+02 0.298E+02   0.600E+01 0.994E-01 -.338E+01   -.427E+00 0.210E+00 0.319E+00
   0.745E+02 0.183E+03 0.169E+03   -.737E+02 -.189E+03 -.175E+03   0.149E+01 0.561E+01 0.522E+01   -.224E+01 0.750E-01 0.258E-01
   0.163E+03 0.607E+02 0.937E+02   -.170E+03 -.636E+02 -.952E+02   0.637E+01 0.253E+01 0.156E+01   -.189E+00 0.247E+00 -.139E+00
   0.122E+03 0.145E+03 -.484E+02   -.126E+03 -.149E+03 0.563E+02   0.332E+01 0.389E+01 -.615E+01   -.190E+00 -.113E+00 0.860E-01
   0.302E+02 0.103E+03 -.148E+03   -.327E+02 -.111E+03 0.156E+03   0.308E+01 0.565E+01 -.705E+01   -.211E+00 0.547E+00 -.211E+00
   0.411E+02 0.146E+03 -.232E+02   -.396E+02 -.152E+03 0.241E+02   -.828E+00 0.598E+01 -.124E+01   -.321E+00 0.203E+00 0.118E+00
   0.137E+03 0.189E+02 0.149E+01   -.144E+03 -.144E+02 -.159E+01   0.567E+01 -.252E+01 -.829E+00   -.337E+00 0.823E-02 0.144E+00
   0.116E+03 0.227E+03 -.152E+03   -.121E+03 -.237E+03 0.159E+03   0.538E+01 0.913E+01 -.610E+01   -.170E+00 0.159E+00 -.256E+00
   0.709E+02 -.225E+03 0.216E+01   -.726E+02 0.236E+03 0.341E+01   0.237E+01 -.964E+01 -.495E+01   -.515E+00 0.252E-01 -.182E+00
   0.308E+02 -.795E+02 0.179E+03   -.286E+02 0.821E+02 -.185E+03   -.135E+01 -.233E+01 0.589E+01   -.406E-01 0.188E+00 -.525E+00
   0.142E+03 -.140E+03 0.141E+03   -.145E+03 0.145E+03 -.147E+03   0.361E+01 -.534E+01 0.665E+01   -.978E-01 -.268E+00 0.126E+00
   0.235E+03 -.821E+02 0.342E+02   -.245E+03 0.855E+02 -.346E+02   0.958E+01 -.356E+01 0.952E+00   -.697E+00 0.165E+00 -.585E-01
   0.547E+02 -.123E+03 -.170E+03   -.505E+02 0.128E+03 0.179E+03   -.320E+01 -.506E+01 -.842E+01   -.502E+00 -.493E+00 0.133E+00
   0.906E+02 -.935E+01 -.634E+02   -.966E+02 0.740E+01 0.648E+02   0.475E+01 0.179E+01 -.198E+01   0.130E-01 -.276E+00 0.513E+00
   0.257E+03 -.149E+03 -.253E+02   -.270E+03 0.154E+03 0.224E+02   0.118E+02 -.467E+01 0.313E+01   -.496E+00 -.109E+00 -.147E+00
   0.140E+03 -.758E+02 -.142E+03   -.144E+03 0.733E+02 0.148E+03   0.386E+01 0.254E+01 -.633E+01   -.892E-01 -.155E+00 -.718E-02
   -.124E+03 0.453E+02 0.944E+02   0.124E+03 -.454E+02 -.100E+03   0.110E+00 -.326E+00 0.522E+01   0.359E+00 0.635E+00 0.522E+00
   -.138E+03 0.216E+03 0.117E+03   0.141E+03 -.227E+03 -.122E+03   -.479E+01 0.994E+01 0.422E+01   0.198E+01 0.860E-01 -.543E-01
   -.480E+02 0.583E+01 0.113E+03   0.490E+02 -.529E+01 -.113E+03   -.144E+01 -.218E+01 -.269E+00   0.158E+00 0.266E+01 -.401E+00
   -.552E+02 0.195E+03 -.380E+02   0.545E+02 -.200E+03 0.421E+02   0.400E+00 0.399E+01 -.514E+01   0.265E+00 0.233E+00 0.250E+01
   -.101E+03 0.503E+02 -.119E+03   0.105E+03 -.529E+02 0.125E+03   -.481E+01 0.197E+01 -.607E+01   0.196E+00 0.461E+00 -.460E+00
   -.194E+03 0.120E+03 0.193E+02   0.204E+03 -.123E+03 -.234E+02   -.964E+01 0.300E+01 0.418E+01   0.345E+00 0.293E+00 0.120E-01
   -.250E+00 0.524E+02 -.116E+03   -.230E+01 -.535E+02 0.121E+03   0.198E+01 0.120E+01 -.436E+01   0.419E+00 0.345E+00 0.390E+00
   -.328E+02 0.805E+02 -.158E+03   0.337E+02 -.840E+02 0.166E+03   -.120E+00 0.332E+01 -.611E+01   0.661E-01 0.340E+00 -.129E+01
   -.164E+03 -.154E+03 0.136E+02   0.167E+03 0.160E+03 -.952E+01   -.419E+01 -.585E+01 -.387E+01   0.513E+00 -.625E+00 0.140E+00
   -.182E+03 -.106E+03 0.996E+02   0.190E+03 0.110E+03 -.104E+03   -.794E+01 -.339E+01 0.436E+01   0.440E-01 0.225E+00 0.540E-01
   -.107E+03 -.130E+03 0.173E+03   0.113E+03 0.138E+03 -.183E+03   -.499E+01 -.474E+01 0.896E+01   -.251E-02 -.189E+01 0.182E-01
   -.231E+02 -.214E+02 0.394E+02   0.165E+02 0.176E+02 -.387E+02   0.375E+01 0.256E+01 -.302E+00   0.663E+00 -.591E-01 -.253E-01
   -.255E+03 -.122E+03 -.196E+03   0.267E+03 0.127E+03 0.206E+03   -.127E+02 -.510E+01 -.993E+01   0.574E+00 -.545E+00 -.178E+00
   -.162E+03 -.108E+03 -.102E+03   0.167E+03 0.112E+03 0.111E+03   -.485E+01 -.372E+01 -.605E+01   0.610E-01 -.241E+00 -.980E-01
   0.963E+01 -.133E+03 0.422E+02   -.164E+02 0.137E+03 -.470E+02   0.474E+01 -.374E+01 0.424E+01   0.322E+00 -.334E+00 -.217E+00
   -.384E+02 -.316E+02 -.143E+03   0.380E+02 0.334E+02 0.148E+03   -.431E+00 -.165E+01 -.478E+01   0.133E+00 -.472E+00 -.594E-01
   -.296E+02 -.544E+01 0.624E+02   0.249E-12 -.711E-14 0.227E-12   0.302E+02 0.259E+01 -.636E+02   -.636E+00 0.282E+01 0.114E+01

 POSITION                                       TOTAL-FORCE (eV/Angst)
      8.62544      0.06743      0.03466        -0.175718     -0.603606     -1.361205
      8.50085      2.20682      2.15395        -0.382136     -1.163530     -0.380043
      2.08274      8.58603      2.15117        -0.772055     -0.196092      0.132277
      1.97221      2.10844      0.12284         0.812478     -0.848672     -1.121648
      8.55987      0.06216      4.23209        -0.219128     -2.362070     -0.235640
      8.45924      2.01539      6.29230        -0.272301      0.520198      0.660790
      2.05401      8.61708      6.20933        -0.927698     -0.373025      0.318591
      1.85027      2.03237      4.27274         1.326900     -0.098762     -0.940405
      0.12571      4.00188      8.49593        -1.371802      1.484161     -0.460159
      8.59369      6.17512      2.00679        -1.038797      0.573887     -0.527345
      1.88118      4.26934      2.02484         1.739478     -1.871217      0.563477
      2.24962      6.15700      0.15129        -2.059127      0.353183     -1.360767
      8.53629      3.96466      4.20344        -0.352633      0.593564     -0.328416
      0.21442      5.99100      6.05150        -0.800660      0.228899      0.775228
      2.27780      4.02178      6.24659        -1.884369      1.491570      0.464805
      1.95396      6.08784      4.19591         2.338991      1.107677     -0.050354
      4.06652      0.03997      0.11319         0.259727     -1.313023     -1.518233
      3.92134      2.14019      2.16483         1.727761     -0.323312     -1.308576
      6.13599      0.22112      1.99821         0.534962     -1.459399     -0.035543
      6.23266      2.00371      8.56638         0.189925      0.843846     -0.311382
      4.23029      8.53818      4.24202        -1.226428     -0.118857     -1.211998
      4.16835      2.04524      6.34327        -0.160519     -0.391776      0.330804
      6.05071      8.55081      6.30393         0.514773      0.012689      0.302463
      6.22849      2.05652      4.14793         0.238398     -0.642629      0.804481
      4.06400      4.06437      0.04058         0.824265     -0.316326     -0.896207
      3.95498      5.99881      1.93486         1.113269      1.911589      1.080300
      6.01591      4.03035      2.21752         2.385147      1.113031     -3.868830
      6.08793      6.16091      0.04665         0.701667     -0.402579      0.084962
      4.00126      4.09975      4.10143         1.344356     -0.012262      0.164863
      4.16988      6.23444      6.17479        -0.733460      0.570760      0.902955
      5.93565      4.14065      6.04942         2.279844     -0.076819      0.938764
      5.97440      6.23937      4.25015         1.634802      0.584201     -1.319124
      2.10693      2.04864      2.05149        -1.786784      0.416080      0.926725
      2.05953      0.14480      0.18935         0.097756     -0.306538     -0.637315
      0.04030      2.07422      8.60052        -0.782485     -0.170136     -0.082784
      8.54491      8.60415      1.84806         0.003720      0.079091      1.836713
      1.97566      2.23088      6.17097         0.421887     -1.578628      0.776197
      2.09073      0.00666      4.14620         0.332617      0.010864     -0.247914
      8.60077      1.84969      4.27773        -1.027141      2.076227     -0.778696
      8.58944      0.09605      6.19921         0.433618     -0.333413      0.558674
      1.97154      6.12432      2.09753         0.168655      1.550464      0.445075
      2.04907      4.04665      0.10675         0.739714      0.418104     -0.358148
      8.60975      6.13515      8.52489         0.406815     -0.388277      0.533365
      0.05689      4.12295      1.95160        -1.431536     -0.048218      0.472342
      2.11302      6.26046      6.21291         0.453418     -0.098708      0.062360
      2.14787      4.09915      3.98063        -1.220949     -0.442181     -0.057802
      0.20058      6.17310      4.02759        -1.990512      0.048941      0.098629
      0.00336      4.06608      6.16178         0.310393     -0.137000      0.147645
      6.18158      2.11119      2.22141         0.614016      0.216629     -0.049274
      6.18605      0.13276      8.62851        -0.097659     -0.503850     -0.514359
      4.10498      1.92043      8.55420        -0.243628      1.020898     -0.471067
      4.13990      0.17980      1.96454        -0.050383     -0.421631      1.473263
      6.26014      2.14190      6.17853        -0.169824     -0.199177     -0.436076
      6.12410      8.48377      4.28149         0.460770      0.096585      0.113983
      4.22411      1.91296      3.98326        -0.150049      0.474926      1.658333
      3.95766      8.52525      6.14306         0.765152      0.115783      0.851910
      6.13928      6.18732      2.04348        -0.024072     -0.465051      0.330639
      6.07901      3.95480      8.53984        -0.561038      0.343895      0.436365
      4.07648      6.34677      0.05926         0.938719      0.809496     -0.874257
      4.22211      4.17286      2.00783        -2.212398     -1.279184      0.342945
      6.10093      6.12362      6.10831         0.051366     -0.049652      0.668992
      6.20652      4.07736      3.92931         0.366723      0.152512      3.077912
      4.10953      6.22914      4.19453        -1.689502      0.148830     -0.769106
      4.11278      4.18682      6.13921        -0.717293     -0.372983      0.175845
    total drift:                                0.017288     -0.035304     -0.033941

  FREE ENERGIE OF THE ION-ELECTRON SYSTEM (eV)
  free  energy   TOTEN  =      -383.1410719625 eV

  energy  without entropy=     -383.0788241711  energy(sigma->0) =     -383.10994807

volume of typ            1:    31.7 %

volume of typ            2:     8.1 %

total charge

# of ion       s       p       d       tot
    1        0.197   0.184   7.918   8.300
    2        0.186   0.173   7.957   8.316
    3        0.199   0.199   7.922   8.320
    4        0.224   0.251   7.945   8.419
    5        0.201   0.194   7.954   8.348
    6        0.201   0.199   7.918   8.317
    7        0.186   0.174   7.940   8.301
    8        0.216   0.233   7.955   8.404
    9        0.197   0.196   7.919   8.312
   10        0.183   0.173   7.917   8.273
   11        0.245   0.290   7.979   8.514
   12        0.203   0.199   7.967   8.368
   13        0.181   0.166   7.971   8.318
   14        0.190   0.182   7.946   8.318
   15        0.217   0.221   7.983   8.421
   16        0.228   0.248   7.975   8.450
   17        0.215   0.223   8.043   8.482
   18        0.236   0.270   7.952   8.459
   19        0.192   0.187   7.937   8.316
   20        0.209   0.196   7.933   8.338
   21        0.214   0.223   7.932   8.370
   22        0.172   0.157   7.959   8.288
   23        0.166   0.137   7.944   8.247
   24        0.207   0.217   7.953   8.377
   25        0.198   0.193   7.951   8.343
   26        0.217   0.237   7.985   8.440
   27        0.251   0.289   7.957   8.498
   28        0.165   0.138   7.926   8.230
   29        0.207   0.222   7.969   8.398
   30        0.204   0.206   7.962   8.372
   31        0.207   0.210   7.967   8.383
   32        0.211   0.211   7.950   8.372
   33        1.271   2.765   0.008   4.044
   34        1.267   2.746   0.006   4.019
   35        1.260   2.758   0.007   4.025
   36        1.265   2.727   0.005   3.996
   37        1.266   2.758   0.008   4.032
   38        1.266   2.738   0.006   4.010
   39        1.259   2.786   0.010   4.056
   40        1.262   2.728   0.005   3.995
   41        1.263   2.774   0.010   4.047
   42        1.256   2.788   0.009   4.053
   43        1.272   2.676   0.002   3.950
   44        1.261   2.772   0.008   4.041
   45        1.266   2.732   0.006   4.003
   46        1.268   2.766   0.008   4.042
   47        1.262   2.752   0.008   4.022
   48        1.259   2.743   0.006   4.008
   49        1.265   2.762   0.008   4.036
   50        1.261   2.740   0.006   4.007
   51        1.273   2.732   0.006   4.011
   52        1.266   2.767   0.008   4.041
   53        1.267   2.721   0.005   3.993
   54        1.268   2.724   0.006   3.997
   55        1.274   2.740   0.007   4.021
   56        1.263   2.752   0.007   4.021
   57        1.269   2.700   0.004   3.972
   58        1.264   2.719   0.004   3.986
   59        1.260   2.762   0.008   4.030
   60        1.264   2.802   0.012   4.078
   61        1.262   2.745   0.007   4.014
   62        1.271   2.759   0.010   4.039
   63        1.266   2.752   0.007   4.025
   64        1.259   2.788   0.011   4.058
tot          47.00   94.57  254.71  396.29

magnetization (x)

# of ion       s       p       d       tot
    1        0.008   0.012   1.197   1.217
    2        0.007   0.004   1.227   1.237
    3        0.006   0.000   1.233   1.239
    4       -0.000  -0.001  -1.000  -1.001
    5        0.008   0.012   1.074   1.095
    6        0.007   0.006   1.251   1.264
    7       -0.004   0.001  -1.155  -1.158
    8        0.001   0.010   1.057   1.068
    9        0.010   0.011   1.246   1.267
   10        0.007   0.008   1.157   1.172
   11       -0.001  -0.005  -0.858  -0.864
   12        0.009   0.006   1.059   1.075
   13        0.007   0.004   1.141   1.152
   14        0.008   0.014   1.208   1.231
   15        0.008   0.002   0.666   0.676
   16        0.007   0.012   0.610   0.629
   17        0.002  -0.001  -0.556  -0.555
   18       -0.001  -0.008  -1.080  -1.089
   19        0.007   0.011   1.271   1.288
   20        0.018   0.003   1.094   1.115
   21        0.003   0.003   0.572   0.577
   22       -0.001  -0.001  -1.215  -1.216
   23        0.005   0.005   1.324   1.334
   24        0.004   0.006   0.283   0.293
   25        0.007   0.004   1.143   1.154
   26        0.004   0.014   1.051   1.069
   27        0.003   0.012   0.499   0.514
   28        0.010   0.009   1.336   1.355
   29        0.000   0.001  -1.017  -1.016
   30        0.006   0.006   1.146   1.158
   31        0.008   0.008   0.864   0.881
   32        0.007   0.013   1.094   1.114
   33       -0.002  -0.037  -0.000  -0.040
   34        0.002   0.018   0.000   0.021
   35        0.015   0.116   0.000   0.132
   36        0.018   0.205   0.000   0.223
   37        0.005   0.050   0.000   0.055
   38        0.007   0.084   0.000   0.091
   39        0.024   0.191   0.000   0.216
   40        0.010   0.106   0.000   0.117
   41        0.012   0.063   0.000   0.075
   42        0.011   0.090   0.000   0.100
   43        0.010   0.153   0.000   0.163
   44        0.013   0.091   0.000   0.104
   45        0.009   0.069   0.000   0.077
   46        0.005   0.071  -0.000   0.075
   47        0.014   0.135   0.000   0.149
   48        0.017   0.174   0.000   0.191
   49        0.008   0.086   0.000   0.094
   50        0.011   0.136   0.000   0.147
   51       -0.003  -0.052  -0.000  -0.055
   52        0.005   0.009   0.000   0.015
   53        0.006   0.060   0.000   0.066
   54        0.011   0.140   0.000   0.152
   55       -0.001  -0.033   0.000  -0.034
   56        0.002   0.022   0.000   0.024
   57        0.011   0.154   0.000   0.166
   58        0.012   0.154   0.000   0.166
   59        0.014   0.161   0.000   0.174
   60        0.009   0.136   0.000   0.145
   61        0.011   0.166   0.000   0.177
   62        0.006   0.081   0.000   0.087
   63        0.013   0.096   0.000   0.109
   64        0.008   0.021   0.000   0.029
tot           0.46    3.09   18.93   22.48