 vasp.5.4.4.18Apr17-6-g9f103f2a35 (build May 12 2020 04:58:55) complex

 MD_VERSION_INFO: Compiled 2020-05-12T11:58:55-UTC in devlin.sd.materialsdesign.
 com:/home/medea2/data/build/wwolf/vasp-gpu5.4.4/13047/x86_64/src/src/build/std
 from svn 13047

 executed on                        Lin64 date 2023.03.23  16:45:29

 INCAR:
 POTCAR:    PAW_PBE Ni 02Aug2007
 POTCAR:    PAW_PBE O 08Apr2002

 POTCAR:    PAW_PBE Ni 02Aug2007

 POTCAR:    PAW_PBE O 08Apr2002

 Optimization of the real space projectors (new method)

 maximal supplied QI-value         = 16.25
 optimisation between [QCUT,QGAM] = [ 11.38, 22.75] = [ 36.24,144.96] Ry
 Optimized for a Real-space Cutoff    1.47 Angstroem

   l    n(q)    QCUT    max X(q) W(low)/X(q) W(high)/X(q)  e(spline)
   2      9    11.376    60.317    0.17E-03    0.16E-04    0.16E-06
   2      9    11.376    55.921    0.17E-03    0.16E-04    0.17E-06
   0     10    11.376    51.690    0.45E-04    0.60E-04    0.21E-06
   0     10    11.376    30.015    0.37E-04    0.55E-04    0.19E-06
   1     10    11.376    18.849    0.83E-04    0.11E-03    0.92E-07
   1     10    11.376    14.624    0.69E-04    0.92E-04    0.82E-07
 Optimization of the real space projectors (new method)

 maximal supplied QI-value         = 24.76
 optimisation between [QCUT,QGAM] = [ 11.39, 22.77] = [ 36.31,145.25] Ry
 Optimized for a Real-space Cutoff    1.10 Angstroem

   l    n(q)    QCUT    max X(q) W(low)/X(q) W(high)/X(q)  e(spline)
   0      7    11.387    20.381    0.22E-03    0.48E-03    0.18E-06
   0      7    11.387    15.268    0.22E-03    0.52E-03    0.19E-06
   1      7    11.387     5.964    0.22E-03    0.73E-03    0.24E-06
   1      7    11.387     5.382    0.19E-03    0.60E-03    0.21E-06

  PAW_PBE Ni 02Aug2007                  :
  PAW_PBE O 08Apr2002                   :

 POSCAR: NiO_Fm-3m_scale_1_050_disp_0_05_round_2
  positions in direct lattice
 exchange correlation table for  LEXCH =       14
   RHO(1)=    0.500       N(1)  =     2000
   RHO(2)=  100.500       N(2)  =     4000

 ion  position               nearest neighbor table
   1  0.004  0.009  0.997-  34 2.02  35 2.03  36 2.19  40 2.45   4 2.82   2 2.82   3 2.84   6 3.09

   2  0.007  0.235  0.234-  33 1.92  36 2.01  35 2.06  44 2.09  39 2.14  49 2.39   1 2.82   3 2.83
                             8 2.85   9 2.87   4 2.89   5 2.95  11 2.98  13 3.06
   3  0.236  0.001  0.230-  34 1.89  33 2.04  36 2.08  52 2.15  38 2.18  41 2.38   2 2.83   1 2.84
                             4 2.88  18 2.88   5 2.92  17 2.94  21 2.95   8 3.00
   4  0.239  0.235  0.992-  51 2.02  33 2.05  34 2.06  42 2.11  35 2.15  37 2.42   1 2.82   3 2.88
                             2 2.89   9 2.94  17 2.95  25 2.96  11 3.01  18 3.02
   5  0.001  0.991  0.473-  36 1.92  38 2.07  40 2.07  39 2.12  47 2.33  54 2.48   7 2.87   6 2.90
                             3 2.92   2 2.95   8 2.97
   6  0.994  0.225  0.713-  40 1.98  39 2.00  37 2.04  48 2.17  35 2.45  53 2.50   7 2.77   5 2.90
                             8 2.90  13 2.92  23 2.98  15 3.00   1 3.09
   7  0.232  0.011  0.711-  37 1.86  40 1.94  38 1.97  56 2.07   6 2.77  22 2.86   5 2.87   8 2.88
                            21 2.94
   8  0.232  0.246  0.476-  46 1.90  39 1.98  37 2.05  55 2.06  38 2.08  33 2.13  15 2.81  13 2.85
                             2 2.85  22 2.87  29 2.87   7 2.88   6 2.90  18 2.91  11 2.92   5 2.97
   9  0.996  0.473  0.002-  35 1.98  43 2.04  44 2.10  42 2.10  58 2.47   2 2.87  12 2.90  10 2.91
                             4 2.94  11 2.94
  10  0.999  0.711  0.241-  47 1.98  44 2.03  41 2.07  43 2.14  36 2.52  57 2.53  12 2.85  11 2.89
                            16 2.90   9 2.91  13 2.94
  11  0.245  0.485  0.235-  41 2.08  46 2.09  42 2.11  60 2.12  44 2.13  33 2.15  12 2.84  29 2.87
                            26 2.88  16 2.89  10 2.89  25 2.90   8 2.92   9 2.94   2 2.98  18 2.99
  12  0.227  0.717  0.002-  43 1.98  41 2.04  42 2.06  59 2.17  45 2.41  34 2.42  11 2.84  10 2.85
                             9 2.90  26 2.92  25 2.99
  13  0.999  0.480  0.490-  48 1.86  47 2.09  39 2.10  44 2.11  46 2.16  62 2.43  15 2.78  14 2.81
                             8 2.85   6 2.92  10 2.94  16 2.94  11 3.06   2 3.06
  14  0.006  0.719  0.710-  45 2.02  47 2.08  48 2.09  40 2.39  61 2.41  43 2.44  13 2.81  16 2.88
                            15 2.90
  15  0.236  0.474  0.708-  46 2.00  45 2.03  48 2.05  64 2.10  37 2.14  42 2.44  13 2.78   8 2.81
                            29 2.88  22 2.89  14 2.90  16 2.92  30 2.98   6 3.00
  16  0.241  0.719  0.474-  41 2.04  63 2.09  47 2.12  45 2.15  46 2.18  38 2.47  14 2.88  11 2.89
                            10 2.90  15 2.92  29 2.93  13 2.94  26 2.94  30 2.95
  17  0.485  0.997  0.997-  50 1.92  51 2.15  34 2.15  52 2.15  59 2.42  56 2.44  20 2.87   3 2.94
                            18 2.95  19 2.95   4 2.95  28 3.07
  18  0.479  0.229  0.247-  52 1.92  55 2.08  60 2.16  33 2.16  49 2.17  51 2.28  21 2.83  29 2.88
                             3 2.88  19 2.89   8 2.91  24 2.91  20 2.93  17 2.95  27 2.96  11 2.99
  19  0.721  0.997  0.244-  54 2.00  49 2.01  52 2.04  50 2.05  36 2.38  57 2.41  18 2.89  21 2.90
                            17 2.95  24 2.99  20 2.99
  20  0.710  0.241  0.999-  49 2.05  51 2.06  58 2.07  50 2.09  53 2.39  35 2.41  27 2.83  25 2.87
                            17 2.87  18 2.93  19 2.99
  21  0.475  0.991  0.474-  52 1.97  38 2.03  54 2.06  56 2.08  55 2.11  63 2.43  18 2.83  19 2.90
                            22 2.91   7 2.94   3 2.95  23 3.00  24 3.01   8 3.04
  22  0.473  0.237  0.704-  55 1.86  53 2.01  56 2.07  37 2.10  64 2.13  51 2.42  24 2.80  29 2.83
                             7 2.86   8 2.87  31 2.89  15 2.89  21 2.91  23 2.93
  23  0.724  0.010  0.716-  53 1.93  54 2.07  56 2.18  40 2.45  50 2.51  24 2.82  22 2.93   6 2.98
                            21 3.00
  24  0.715  0.243  0.487-  62 2.02  53 2.03  54 2.10  55 2.13  49 2.18  39 2.48  31 2.78  22 2.80
                            23 2.82  29 2.88  18 2.91  27 2.96  19 2.99  21 3.01
  25  0.479  0.480  0.994-  58 1.99  51 2.04  59 2.04  42 2.07  60 2.14  64 2.43  28 2.83  20 2.87
                            11 2.90  26 2.92  27 2.92   4 2.96  12 2.99  18 3.08
  26  0.478  0.723  0.229-  57 1.97  59 2.02  41 2.07  60 2.12  63 2.13  52 2.45  28 2.69  11 2.88
                            25 2.92  12 2.92  16 2.94  32 2.95  27 3.01  29 3.03
  27  0.720  0.472  0.232-  60 1.98  58 2.03  49 2.10  57 2.12  62 2.13  44 2.41  28 2.83  20 2.83
                            25 2.92  18 2.96  24 2.96  29 2.97  32 2.98  26 3.01
  28  0.705  0.718  0.016-  57 1.93  59 1.97  58 2.05  50 2.43  26 2.69  27 2.83  25 2.83  17 3.07

  29  0.475  0.473  0.475-  46 1.96  60 2.02  63 2.04  64 2.06  55 2.06  62 2.09  22 2.83  32 2.87
                            11 2.87   8 2.87  24 2.88  15 2.88  18 2.88  31 2.92  16 2.93  27 2.97
  30  0.474  0.724  0.724-  45 2.03  64 2.08  63 2.15  61 2.19  59 2.34  56 2.36  32 2.89  16 2.95
                            15 2.98  31 3.01  29 3.05
  31  0.713  0.471  0.715-  64 2.01  62 2.04  53 2.06  61 2.09  58 2.44  48 2.47  24 2.78  32 2.89
                            22 2.89  29 2.92  30 3.01
  32  0.707  0.710  0.483-  63 1.94  61 2.00  62 2.01  57 2.11  47 2.49  54 2.51  29 2.87  31 2.89
                            30 2.89  26 2.95  27 2.98
  33  0.229  0.236  0.230-   2 1.92   3 2.04   4 2.05   8 2.13  11 2.15  18 2.16
  34  0.237  0.997  0.011-   3 1.89   1 2.02   4 2.06  17 2.15  12 2.42
  35  0.990  0.243  0.996-   9 1.98   1 2.03   2 2.06   4 2.15  20 2.41   6 2.45
  36  0.996  0.003  0.251-   5 1.92   2 2.01   3 2.08   1 2.19  19 2.38  10 2.52
  37  0.231  0.226  0.713-   7 1.86   6 2.04   8 2.05  22 2.10  15 2.14   4 2.42
  38  0.240  0.005  0.483-   7 1.97  21 2.03   5 2.07   8 2.08   3 2.18  16 2.47
  39  0.002  0.236  0.482-   8 1.98   6 2.00  13 2.10   5 2.12   2 2.14  24 2.48
  40  0.007  0.996  0.713-   7 1.94   6 1.98   5 2.07  14 2.39  23 2.45   1 2.45
  41  0.238  0.725  0.238-  16 2.04  12 2.04  26 2.07  10 2.07  11 2.08   3 2.38
  42  0.239  0.479  0.990-  12 2.06  25 2.07   9 2.10   4 2.11  11 2.11  15 2.44
  43  0.998  0.709  0.993-  12 1.98   9 2.04  10 2.14  14 2.44
  44  0.998  0.476  0.245-  10 2.03   2 2.09   9 2.10  13 2.11  11 2.13  27 2.41
  45  0.239  0.710  0.723-  14 2.02  30 2.03  15 2.03  16 2.15  12 2.41
  46  0.248  0.466  0.477-   8 1.90  29 1.96  15 2.00  11 2.09  13 2.16  16 2.18
  47  0.995  0.721  0.469-  10 1.98  14 2.08  13 2.09  16 2.12   5 2.33  32 2.49
  48  0.999  0.476  0.706-  13 1.86  15 2.05  14 2.09   6 2.17  31 2.47
  49  0.730  0.229  0.236-  19 2.01  20 2.05  27 2.10  18 2.17  24 2.18   2 2.39
  50  0.708  0.999  0.007-  17 1.92  19 2.05  20 2.09  28 2.43  23 2.51
  51  0.473  0.245  0.984-   4 2.02  25 2.04  20 2.06  17 2.15  18 2.28  22 2.42
  52  0.485  0.007  0.246-  18 1.92  21 1.97  19 2.04  17 2.15   3 2.15  26 2.45
  53  0.705  0.233  0.722-  23 1.93  22 2.01  24 2.03  31 2.06  20 2.39   6 2.50
  54  0.713  0.000  0.476-  19 2.00  21 2.06  23 2.07  24 2.10   5 2.48  32 2.51
  55  0.469  0.235  0.488-  22 1.86   8 2.06  29 2.06  18 2.08  21 2.11  24 2.13
  56  0.472  0.998  0.715-  22 2.07   7 2.07  21 2.08  23 2.18  30 2.36  17 2.44
  57  0.706  0.717  0.239-  28 1.93  26 1.97  32 2.11  27 2.12  19 2.41  10 2.53
  58  0.710  0.481  0.998-  25 1.99  27 2.03  28 2.05  20 2.07  31 2.44   9 2.47
  59  0.478  0.717  0.995-  28 1.97  26 2.02  25 2.04  12 2.17  30 2.34  17 2.42
  60  0.490  0.478  0.242-  27 1.98  29 2.02  26 2.12  11 2.12  25 2.14  18 2.16
  61  0.727  0.713  0.713-  32 2.00  31 2.09  30 2.19  14 2.41
  62  0.717  0.477  0.479-  32 2.01  24 2.02  31 2.04  29 2.09  27 2.13  13 2.43
  63  0.483  0.709  0.475-  32 1.94  29 2.04  16 2.09  26 2.13  30 2.15  21 2.43
  64  0.480  0.484  0.713-  31 2.01  29 2.06  30 2.08  15 2.10  22 2.13  25 2.43

  LATTYP: Found a simple cubic cell.
 ALAT       =     8.6308845000

  Lattice vectors:

 A1 = (   8.6308845000,   0.0000000000,   0.0000000000)
 A2 = (   0.0000000000,   8.6308845000,   0.0000000000)
 A3 = (   0.0000000000,   0.0000000000,   8.6308845000)

Analysis of symmetry for initial positions (statically):
 Subroutine PRICEL returns:
 Original cell was already a primitive cell.

 Routine SETGRP: Setting up the symmetry group for a
 simple cubic supercell.

 Subroutine GETGRP returns: Found  1 space group operations
 (whereof  1 operations were pure point group operations)
 out of a pool of 48 trial point group operations.

The static configuration has the point symmetry C_1 .

Analysis of symmetry for dynamics (positions and initial velocities):
 Subroutine PRICEL returns:
 Original cell was already a primitive cell.

[...]

The dynamic configuration has the point symmetry C_1 .

Analysis of structural, dynamic, and magnetic symmetry:
 Subroutine PRICEL returns:
 Original cell was already a primitive cell.

 Routine SETGRP: Setting up the symmetry group for a
 simple cubic supercell.

 Subroutine GETGRP returns: Found  1 space group operations
 (whereof  1 operations were pure point group operations)
 out of a pool of 48 trial point group operations.

The magnetic configuration has the point symmetry C_1 .
[...]
   -.185E+02 -.190E+03 0.442E+02   0.187E+02 0.187E+03 -.459E+02   -.102E+01 0.107E+01 0.259E+00   0.781E+00 0.168E+01 0.181E+01
   -.228E+03 -.495E+02 0.437E+02   0.230E+03 0.487E+02 -.453E+02   0.199E+01 -.534E-01 0.768E+00   -.270E+01 0.111E+01 0.108E+01
   -.276E+03 -.202E+03 0.269E+03   0.277E+03 0.201E+03 -.267E+03   0.223E+01 0.173E+01 -.241E+01   -.218E+01 0.155E+00 0.229E+00
   -.894E+02 -.862E+02 -.444E+02   0.904E+02 0.883E+02 0.442E+02   0.196E+00 -.110E+01 0.470E-01   -.318E+00 -.330E+00 0.371E+00
   -.903E+02 -.205E+03 -.178E+03   0.901E+02 0.203E+03 0.179E+03   0.674E+00 0.151E+01 0.735E+00   0.447E-01 0.817E+00 -.173E+01
   -.227E+03 -.970E+02 -.233E+03   0.227E+03 0.987E+02 0.233E+03   0.200E+01 -.161E+01 0.150E+01   -.136E+01 0.641E+00 -.127E+01
   -.232E+03 -.221E+03 -.610E+02   0.233E+03 0.219E+03 0.637E+02   0.224E+01 0.176E+01 -.214E+01   -.239E+01 0.115E+01 -.225E+00
   -.853E+01 0.735E+01 0.479E+02   0.784E+01 -.407E+01 -.488E+02   -.234E+01 -.158E+01 -.781E-02   0.426E+01 -.135E+01 0.119E+01
   0.133E+02 0.141E+03 0.165E+03   -.121E+02 -.147E+03 -.174E+03   -.280E+01 0.602E+01 0.803E+01   0.184E+01 -.189E+00 0.451E+00
   0.124E+03 0.306E+02 0.134E+03   -.129E+03 -.306E+02 -.137E+03   0.521E+01 -.473E+00 0.506E+01   -.478E-01 0.304E+00 -.216E+01
   0.134E+03 0.153E+03 0.791E+02   -.140E+03 -.157E+03 -.845E+02   0.546E+01 0.595E+01 0.260E+01   0.587E+00 -.241E+01 0.213E+01
   0.308E+02 -.147E+02 -.165E+03   -.319E+02 0.185E+02 0.171E+03   -.238E-02 -.347E+01 -.449E+01   0.154E+01 0.130E+01 -.126E+01
   0.289E+02 0.150E+03 -.169E+01   -.327E+02 -.153E+03 0.160E+00   0.890E+00 0.300E+01 0.114E+01   0.334E+01 -.290E-01 -.775E+00
   0.164E+03 0.318E+02 -.632E+01   -.171E+03 -.328E+02 0.160E+01   0.638E+01 0.904E+00 0.252E+01   0.626E+00 0.413E+00 0.185E+01
   0.158E+03 0.164E+03 -.142E+03   -.164E+03 -.171E+03 0.148E+03   0.638E+01 0.741E+01 -.470E+01   -.412E+00 -.390E+00 -.170E+01
   0.403E+02 -.121E+03 0.374E+02   -.428E+02 0.125E+03 -.379E+02   0.114E+01 -.559E+01 -.986E-01   0.201E+01 0.150E+01 0.779E+00
   0.421E+02 -.301E+02 0.123E+03   -.439E+02 0.294E+02 -.127E+03   0.477E+00 0.378E+00 0.570E+01   0.153E+01 -.604E-01 -.171E+01
   0.160E+03 -.138E+03 0.122E+03   -.168E+03 0.144E+03 -.127E+03   0.825E+01 -.585E+01 0.610E+01   -.415E+00 -.877E-01 -.327E+00
   0.121E+03 -.369E+02 0.304E+02   -.124E+03 0.335E+02 -.307E+02   0.370E+01 0.126E+01 -.153E+01   -.683E+00 0.189E+01 0.199E+01
   0.315E+02 -.137E+03 -.121E+03   -.322E+02 0.143E+03 0.127E+03   -.659E+00 -.504E+01 -.548E+01   0.155E+01 -.101E+01 -.690E+00
   0.634E+02 -.922E+02 -.930E+01   -.664E+02 0.968E+02 0.526E+01   0.229E+01 -.346E+01 0.154E+01   0.472E+00 -.431E+00 0.202E+01
   0.129E+03 -.111E+03 -.447E+02   -.134E+03 0.116E+03 0.456E+02   0.621E+01 -.407E+01 -.108E+01   -.480E+00 -.485E+00 0.411E+00
   0.139E+03 -.395E+02 -.192E+03   -.146E+03 0.386E+02 0.204E+03   0.627E+01 0.601E+00 -.970E+01   0.124E+01 0.606E-01 -.226E+01
   -.113E+03 0.206E+02 0.264E+02   0.122E+03 -.202E+02 -.255E+02   -.555E+01 0.139E+00 -.128E+01   -.325E+01 -.763E-01 0.646E+00
   -.165E+03 0.127E+03 0.140E+03   0.176E+03 -.131E+03 -.145E+03   -.797E+01 0.434E+01 0.499E+01   -.185E+01 -.462E+00 -.462E+00
   -.327E+02 0.457E+02 0.924E+02   0.331E+02 -.467E+02 -.962E+02   -.478E+00 0.108E+01 0.329E+01   0.687E-01 -.686E-01 0.386E+00
   -.209E+02 0.139E+03 0.647E+02   0.212E+02 -.146E+03 -.716E+02   -.236E-01 0.700E+01 0.349E+01   -.951E+00 -.928E-01 0.348E+01
   -.138E+03 0.246E+02 -.148E+03   0.143E+03 -.218E+02 0.156E+03   -.350E+01 -.143E+01 -.720E+01   -.136E+01 -.826E+00 -.513E+00
   -.127E+03 0.136E+03 -.563E+02   0.136E+03 -.140E+03 0.570E+02   -.497E+01 0.495E+01 -.115E+01   -.360E+01 -.922E+00 0.557E+00
   -.531E+02 0.541E+02 0.108E+02   0.541E+02 -.536E+02 -.138E+02   -.375E+00 0.258E+01 0.257E+01   -.598E+00 -.283E+01 -.813E+00
   -.584E+02 0.149E+03 -.139E+03   0.598E+02 -.152E+03 0.148E+03   -.219E+01 0.372E+01 -.543E+01   0.580E+00 -.254E+00 -.312E+01
   -.168E+03 -.116E+03 0.187E+01   0.177E+03 0.119E+03 0.255E+01   -.730E+01 -.324E+01 -.471E+01   -.191E+01 0.322E+00 0.842E+00
   -.155E+03 -.454E+02 0.144E+03   0.163E+03 0.456E+02 -.150E+03   -.631E+01 -.939E+00 0.655E+01   -.159E+01 0.480E+00 -.822E-02
   -.505E+00 -.127E+03 0.145E+03   -.448E+01 0.132E+03 -.153E+03   0.399E+01 -.433E+01 0.718E+01   0.488E+00 0.284E-01 0.414E+00
   -.214E+02 -.182E+02 0.603E+02   0.205E+02 0.190E+02 -.629E+02   -.540E+00 -.164E+01 0.178E+01   0.502E+00 -.714E-01 0.813E+00
   -.117E+03 -.137E+03 -.159E+03   0.123E+03 0.141E+03 0.168E+03   -.497E+01 -.473E+01 -.803E+01   -.131E+01 0.741E+00 -.908E+00
   -.142E+03 -.438E+02 -.124E+02   0.147E+03 0.440E+02 0.102E+02   -.509E+01 -.145E+01 0.196E+01   -.570E+00 0.755E+00 -.116E+00
   -.145E+02 -.137E+03 -.481E+02   0.117E+02 0.139E+03 0.486E+02   0.147E+01 -.336E+01 -.544E+00   0.403E+00 0.181E+01 -.273E+00
   -.272E+02 -.572E+02 -.147E+03   0.278E+02 0.583E+02 0.153E+03   0.380E+00 -.147E+01 -.492E+01   -.156E+01 0.754E-01 -.828E+00
   -.702E+01 0.924E+01 -.721E+01   0.913E-12 0.391E-12 -.114E-12   0.506E+01 -.495E+01 0.698E+01   0.198E+01 -.420E+01 0.334E+00

 POSITION                                       TOTAL-FORCE (eV/Angst)
      0.03382      0.07605      8.60529        -0.231066     -0.407559     -0.190462
      0.05751      2.02544      2.01653        -1.691397      0.114121      0.189294
      2.03822      0.00465      1.98609        -0.119855     -0.744444      0.863330
      2.06637      2.02546      8.56604        -0.217249      0.119911     -0.447322
      0.00784      8.54987      4.08515        -0.476119     -0.458566      0.545921
      8.57978      1.94512      6.15229        -0.476713      0.449179      0.762543
      2.00185      0.09214      6.13898         0.440732     -1.712320      0.716728
      2.00020      2.12573      4.10578         0.128668     -1.483863     -0.130538
      8.59619      4.07870      0.01973        -0.258407      0.612638     -0.457422
      8.61867      6.13787      2.07574        -0.350428      0.386600     -0.622368
      2.11340      4.18234      2.02912        -0.449458     -0.116052     -0.360062
      1.95961      6.18540      0.01592         0.008112      0.386786     -0.750243
      8.62222      4.13854      4.23089        -0.754155      0.080355     -1.529292
      0.05253      6.20256      6.13057        -0.710174      0.250079      0.570023
      2.03804      4.09461      6.10770        -0.214140      0.392149      1.300736
      2.07830      6.20600      4.08775        -0.342861      0.408811      0.503436
      4.18687      8.60309      8.60758        -0.460943     -0.177328     -0.445499
      4.13318      1.97591      2.13483         0.309896      0.713048     -0.628532
      6.22092      8.60299      2.11023         0.613225     -0.381482     -0.491902
      6.13126      2.08347      8.62391         0.538990     -0.471209     -0.139402
      4.09897      8.55514      4.08961         0.352116     -0.292585      0.645528
      4.08340      2.04875      6.07292         0.013232     -0.157539      2.336770
      6.25034      0.08461      6.18097         0.040501     -0.925604      0.171455
      6.17505      2.09800      4.20560         0.649143     -0.612781     -0.472871
      4.13828      4.14513      8.57810        -0.369679     -0.048090     -0.482142
      4.12400      6.24135      1.97401        -0.086920      0.251058      0.348464
      6.21146      4.07534      2.00566         0.816566      0.239508      0.217674
      6.08370      6.19802      0.13454         0.792477      0.340778     -0.911598
      4.09698      4.08276      4.09818         0.909814      0.582296      0.180219
      4.09393      6.25126      6.24558         0.512666      0.348581      0.186956
      6.15058      4.06084      6.17531         0.759327      0.761245      0.601327
      6.10226      6.13015      4.16535         1.051631      0.641767      0.248691
      1.97507      2.04010      1.98239         1.226579      0.350736      0.359886
      2.04498      8.60325      0.09792         0.217250      0.022964     -0.437325
      8.54564      2.10064      8.59629         0.116446     -0.227647     -0.185554
      8.59731      0.02723      2.16684        -0.022138     -0.070208     -0.721202
      1.98981      1.95286      6.15248         0.444335      1.589486      0.420641
      2.07026      0.04718      4.16801         0.390786     -0.101081     -1.167428
      0.01919      2.03974      4.15734        -0.317737      0.315175     -0.352232
      0.06134      8.59435      6.15630        -0.364948     -0.129856     -0.084214
      2.05497      6.25747      2.05183         0.622402      0.096259      0.161534
      2.06384      4.13232      8.54773         0.230856     -0.316852      0.196065
      8.61651      6.11780      8.56840         0.066030     -0.202819      0.501151
      8.61614      4.10815      2.11828         0.010502     -0.207395      0.202818
      2.06327      6.12515      6.23944         0.144100     -0.115117     -0.399545
      2.14264      4.02249      4.11342        -0.307847      0.770277     -0.488628
      8.58565      6.21906      4.04951         0.310966      0.145546      0.189673
      8.62083      4.11136      6.08996         0.258628     -0.277687      0.898177
      6.30009      1.97587      2.03457        -0.161218      0.487785      0.297289
      6.10776      8.62619      0.05912         0.311125      0.073830      0.100703
      4.08021      2.11151      8.49286        -0.075607     -0.062686     -0.090704
      4.18728      0.05655      2.12432        -0.672716     -0.224271      0.047842
      6.08433      2.00693      6.23312         0.267344      0.550727      0.000317
      6.15680      0.00334      4.11136        -0.311740      0.185033      0.047957
      4.05128      2.02571      4.21251        -0.004968      0.269858     -1.287633
      4.07242      8.61268      6.16925        -0.187570     -0.346941     -0.263656
      6.09257      6.19208      2.06015         0.066775      0.154647      0.547748
      6.12430      4.15160      8.61431         0.321288     -0.291873     -0.111327
      4.12516      6.18585      8.58462        -0.515326      0.126505      0.027804
      4.23179      4.12945      2.08542        -0.869761     -0.893759     -0.019293
      6.27703      6.15177      6.15314        -0.414336     -0.158348     -0.249380
      6.18993      4.11884      4.13415        -0.041021     -0.474286     -0.280553
      4.16811      6.12115      4.09812        -0.894481      0.167692     -0.294160
      4.14065      4.17663      6.15197        -0.571529     -0.295182      0.103788
    total drift:                                0.023158      0.093209      0.105200

  FREE ENERGIE OF THE ION-ELECTRON SYSTEM (eV)
  free  energy   TOTEN  =      -387.2030460454 eV

  energy  without entropy=     -387.1374154678  energy(sigma->0) =     -387.17023076

volume of typ            1:    31.7 %

volume of typ            2:     8.1 %

total charge

# of ion       s       p       d       tot
    1        0.164   0.142   7.946   8.251
    2        0.205   0.214   8.066   8.485
    3        0.200   0.204   7.958   8.362
    4        0.194   0.191   7.940   8.324
    5        0.194   0.185   7.865   8.244
    6        0.192   0.180   7.973   8.345
    7        0.214   0.218   7.986   8.418
    8        0.220   0.247   7.931   8.397
    9        0.191   0.175   7.906   8.272
   10        0.188   0.174   7.968   8.329
   11        0.190   0.192   8.021   8.402
   12        0.188   0.178   7.949   8.314
   13        0.204   0.208   7.849   8.261
   14        0.170   0.151   7.950   8.271
   15        0.194   0.195   7.909   8.299
   16        0.183   0.172   7.982   8.337
   17        0.186   0.166   7.909   8.261
   18        0.192   0.194   7.941   8.327
   19        0.194   0.189   7.955   8.338
   20        0.184   0.173   7.935   8.292
   21        0.197   0.201   7.779   8.177
   22        0.207   0.222   7.933   8.363
   23        0.171   0.147   7.947   8.265
   24        0.191   0.186   7.966   8.344
   25        0.200   0.204   7.889   8.293
   26        0.198   0.199   7.933   8.330
   27        0.195   0.195   7.953   8.343
   28        0.186   0.175   7.929   8.291
   29        0.214   0.238   7.905   8.357
   30        0.178   0.159   7.902   8.239
   31        0.186   0.176   7.966   8.329
   32        0.198   0.194   7.911   8.303
   33        1.270   2.752   0.008   4.030
   34        1.260   2.747   0.006   4.014
   35        1.260   2.748   0.005   4.014
   36        1.263   2.741   0.006   4.010
   37        1.266   2.762   0.008   4.036
   38        1.267   2.747   0.006   4.020
   39        1.268   2.749   0.006   4.023
   40        1.261   2.738   0.005   4.005
   41        1.262   2.750   0.006   4.018
   42        1.266   2.741   0.005   4.012
   43        1.264   2.720   0.004   3.988
   44        1.266   2.744   0.005   4.015
   45        1.260   2.734   0.005   3.999
   46        1.265   2.777   0.009   4.050
   47        1.261   2.738   0.005   4.004
   48        1.263   2.747   0.006   4.016
   49        1.265   2.734   0.005   4.005
   50        1.263   2.728   0.005   3.996
   51        1.265   2.742   0.005   4.012
   52        1.269   2.750   0.007   4.026
   53        1.259   2.760   0.006   4.025
   54        1.264   2.737   0.005   4.006
   55        1.270   2.766   0.009   4.045
   56        1.269   2.729   0.004   4.002
   57        1.261   2.742   0.006   4.010
   58        1.261   2.744   0.006   4.010
   59        1.260   2.742   0.006   4.008
   60        1.267   2.753   0.007   4.027
   61        1.266   2.705   0.004   3.974
   62        1.261   2.755   0.006   4.022
   63        1.265   2.746   0.006   4.017
   64        1.265   2.747   0.006   4.018
tot          46.62   93.86  254.14  394.62

magnetization (x)

# of ion       s       p       d       tot
    1        0.010   0.009   1.373   1.393
    2        0.003   0.008   0.706   0.717
    3        0.005   0.007   0.374   0.385
    4        0.005   0.005   1.045   1.054
    5        0.007   0.003   1.303   1.314
    6        0.006   0.007   1.118   1.130
    7        0.007   0.009   0.756   0.771
    8       -0.000   0.004  -1.102  -1.098
    9        0.008   0.004   1.363   1.374
   10        0.009   0.007   1.080   1.096
   11        0.005   0.006   0.767   0.778
   12        0.008   0.010   1.183   1.202
   13       -0.003   0.002  -1.165  -1.167
   14        0.009   0.009   1.328   1.346
   15        0.006   0.009   0.715   0.729
   16        0.008   0.005   1.140   1.153
   17        0.008   0.004   1.274   1.286
   18        0.002   0.002   0.223   0.227
   19        0.007   0.008   0.935   0.950
   20        0.008   0.009   1.128   1.145
   21        0.006   0.005  -0.051  -0.040
   22        0.002   0.002  -1.077  -1.073
   23        0.010   0.008   1.192   1.210
   24        0.008   0.005   1.088   1.101
   25       -0.002   0.003  -1.150  -1.149
   26        0.006   0.004   0.315   0.325
   27        0.007   0.010   1.098   1.114
   28        0.008   0.012   1.258   1.278
   29       -0.003  -0.004   0.712   0.705
   30        0.004   0.002   1.324   1.330
   31        0.009   0.009   1.133   1.151
   32        0.008   0.013   1.187   1.208
   33        0.008   0.075   0.000   0.083
   34        0.015   0.141   0.000   0.156
   35        0.016   0.167   0.000   0.184
   36        0.014   0.133   0.000   0.148
   37        0.005   0.028   0.000   0.033
   38        0.007   0.052   0.000   0.059
   39        0.004   0.034   0.000   0.039
   40        0.014   0.147   0.000   0.161
   41        0.017   0.124   0.000   0.141
   42        0.012   0.123   0.000   0.135
   43        0.013   0.167   0.000   0.180
   44        0.012   0.122   0.000   0.135
   45        0.017   0.166   0.000   0.184
   46        0.005   0.040   0.000   0.045
   47        0.012   0.109   0.000   0.122
   48        0.009   0.061   0.000   0.070
   49        0.017   0.131   0.000   0.148
   50        0.013   0.151   0.000   0.165
   51        0.009   0.090   0.000   0.099
   52        0.008   0.053   0.000   0.061
   53        0.012   0.085   0.000   0.097
   54        0.011   0.102   0.000   0.114
   55        0.004   0.023   0.000   0.027
   56        0.003   0.037   0.000   0.040
   57        0.016   0.125   0.000   0.141
   58        0.011   0.098   0.000   0.109
   59        0.010   0.068   0.000   0.077
   60        0.010   0.075   0.000   0.085
   61        0.013   0.162   0.000   0.175
   62        0.017   0.124   0.001   0.142
   63        0.016   0.124   0.000   0.140
   64        0.009   0.069   0.000   0.078
tot           0.54    3.40   22.58   26.52