 vasp.5.4.4.18Apr17-6-g9f103f2a35 (build May 12 2020 04:58:55) complex

 MD_VERSION_INFO: Compiled 2020-05-12T11:58:55-UTC in devlin.sd.materialsdesign.
 com:/home/medea2/data/build/wwolf/vasp-gpu5.4.4/13047/x86_64/src/src/build/std
 from svn 13047

 executed on                        Lin64 date 2023.03.23  16:45:23

 INCAR:
 POTCAR:    PAW_PBE Ni 02Aug2007
 POTCAR:    PAW_PBE O 08Apr2002

 POTCAR:    PAW_PBE Ni 02Aug2007

 POTCAR:    PAW_PBE O 08Apr2002

 Optimization of the real space projectors (new method)

 maximal supplied QI-value         = 16.25
 optimisation between [QCUT,QGAM] = [ 11.38, 22.75] = [ 36.24,144.96] Ry
 Optimized for a Real-space Cutoff    1.47 Angstroem

   l    n(q)    QCUT    max X(q) W(low)/X(q) W(high)/X(q)  e(spline)
   2      9    11.376    60.317    0.17E-03    0.16E-04    0.16E-06
   2      9    11.376    55.921    0.17E-03    0.16E-04    0.17E-06
   0     10    11.376    51.690    0.45E-04    0.60E-04    0.21E-06
   0     10    11.376    30.015    0.37E-04    0.55E-04    0.19E-06
   1     10    11.376    18.849    0.83E-04    0.11E-03    0.92E-07
   1     10    11.376    14.624    0.69E-04    0.92E-04    0.82E-07
 Optimization of the real space projectors (new method)

 maximal supplied QI-value         = 24.76
 optimisation between [QCUT,QGAM] = [ 11.39, 22.77] = [ 36.31,145.25] Ry
 Optimized for a Real-space Cutoff    1.10 Angstroem

   l    n(q)    QCUT    max X(q) W(low)/X(q) W(high)/X(q)  e(spline)
   0      7    11.387    20.381    0.22E-03    0.48E-03    0.18E-06
   0      7    11.387    15.268    0.22E-03    0.52E-03    0.19E-06
   1      7    11.387     5.964    0.22E-03    0.73E-03    0.24E-06
   1      7    11.387     5.382    0.19E-03    0.60E-03    0.21E-06

  PAW_PBE Ni 02Aug2007                  :
  PAW_PBE O 08Apr2002                   :

 POSCAR: NiO_Fm-3m_scale_1_025_disp_0_20_round_2
  positions in direct lattice
 exchange correlation table for  LEXCH =       14
   RHO(1)=    0.500       N(1)  =     2000
   RHO(2)=  100.500       N(2)  =     4000

 ion  position               nearest neighbor table
   1  0.990  0.992  0.002-  35 1.99  40 2.02  36 2.04  50 2.09  34 2.09  43 2.44   3 2.78   2 2.81
                            10 3.00   4 3.04   7 3.05
   2  0.981  0.239  0.226-  36 1.68  49 1.88  33 2.06  44 2.08  35 2.09  39 2.15   3 2.63   9 2.72
                             1 2.81  24 2.86  27 2.89  13 2.90   5 2.91   4 2.92   8 3.08
   3  0.225  0.044  0.227-  33 1.55  36 1.59  52 1.86  34 2.04  38 2.21   4 2.61   2 2.63   8 2.69
                             1 2.78   5 2.84  18 2.98  17 3.00  21 3.07
   4  0.242  0.251  0.997-  51 1.95  42 1.98  35 2.17  33 2.34  34 2.47  37 2.47   9 2.57   3 2.61
                            18 2.71  15 2.72   7 2.82  25 2.87   2 2.92  22 3.01   1 3.04   6 3.06
   5  0.997  0.995  0.470-  38 1.87  36 2.06  54 2.19  47 2.27  39 2.42  40 2.47  16 2.69   3 2.84
                            24 2.86   8 2.89   2 2.91  19 2.92
   6  0.001  0.258  0.725-  48 1.76  37 2.08  39 2.11  35 2.15  13 2.33  40 2.34  53 2.40  15 2.88
                             8 2.89   7 2.98  24 3.01   9 3.01   4 3.06  31 3.08
   7  0.256  0.016  0.758-  37 1.74  56 2.10  34 2.12  40 2.28  38 2.32  45 2.35  17 2.40  22 2.79
                             4 2.82  21 2.87   8 2.96   6 2.98   1 3.05
   8  0.242  0.234  0.483-  33 1.78  55 1.79  37 1.89  38 1.98  46 2.09  39 2.21   3 2.69  21 2.70
                            13 2.84   5 2.89   6 2.89  22 2.90  15 2.94   7 2.96  29 3.07   2 3.08
   9  0.033  0.473  0.009-  43 1.97  44 1.98  35 2.12  42 2.24  48 2.46  10 2.49  11 2.57   4 2.57
                             2 2.72  12 2.82  20 2.98  28 3.00   6 3.01  15 3.01
  10  0.014  0.698  0.200-  43 1.75  44 1.88  11 2.12  41 2.34  47 2.38   9 2.49  28 2.68  12 2.69
                            27 2.98   1 3.00  16 3.07
  11  0.207  0.545  0.249-  41 1.55  44 1.59  10 2.12  60 2.20  42 2.33  26 2.39   9 2.57  12 2.71
                            16 2.80
  12  0.250  0.727  0.988-  59 1.77  34 1.96  42 2.13  45 2.14  43 2.19  41 2.24  17 2.45  10 2.69
                            11 2.71  26 2.75   9 2.82  25 2.98  15 3.05  30 3.06
  13  0.970  0.430  0.512-  39 1.29  62 1.76  48 1.79   6 2.33  44 2.34  47 2.51  24 2.54   8 2.84
                            31 2.87   2 2.90  14 3.00  27 3.02
  14  0.964  0.718  0.721-  47 2.04  48 2.14  61 2.14  40 2.27  43 2.32  45 2.41  16 2.63  31 2.71
                            28 2.96  13 3.00  32 3.06
  15  0.279  0.455  0.750-  46 1.70  64 1.90  37 2.07  42 2.10  22 2.37  48 2.39  45 2.40  29 2.71
                             4 2.72  25 2.81   6 2.88  30 2.88   8 2.94   9 3.01  12 3.05
  16  0.195  0.748  0.513-  47 1.79  45 1.92  38 2.15  41 2.37  46 2.42  63 2.46  14 2.63   5 2.69
                            11 2.80  30 3.01  10 3.07
  17  0.441  0.944  0.962-  34 1.76  56 1.98  59 2.15  52 2.39   7 2.40  12 2.45  30 2.84   3 3.00

  18  0.489  0.277  0.200-  51 1.58  60 1.96  49 2.32  25 2.37  33 2.39  55 2.48   4 2.71  20 2.71
                            27 2.72   3 2.98
  19  0.724  0.959  0.258-  54 1.87  50 2.03  57 2.10  49 2.35  52 2.43  32 2.57  24 2.91   5 2.92
                            21 2.95  28 3.04
  20  0.719  0.313  0.978-  58 1.35  51 2.15  49 2.28  25 2.31  35 2.36  31 2.54  27 2.64  18 2.71
                            22 2.94   9 2.98
  21  0.471  0.010  0.494-  55 1.97  56 2.10  38 2.13  52 2.15  54 2.25  63 2.35   8 2.70  23 2.84
                             7 2.87  22 2.90  19 2.95  24 2.98  32 3.02  30 3.05   3 3.07
  22  0.479  0.260  0.730-  64 1.84  37 2.03  55 2.04  53 2.06  56 2.25  15 2.37  51 2.40  29 2.72
                             7 2.79  23 2.84  21 2.90   8 2.90  25 2.91  31 2.91  20 2.94   4 3.01
  23  0.716  0.020  0.726-  56 1.81  53 1.92  61 1.96  54 2.12  40 2.33  50 2.51  24 2.77  22 2.84
                            21 2.84
  24  0.750  0.228  0.474-  53 1.80  54 1.99  49 2.02  39 2.02  62 2.08  55 2.50  13 2.54  23 2.77
                             5 2.86   2 2.86  27 2.88  19 2.91  21 2.98   6 3.01
  25  0.499  0.475  0.000-  42 1.69  51 1.84  59 1.87  58 1.97  60 2.06  20 2.31  18 2.37  64 2.39
                            15 2.81  26 2.86  27 2.87   4 2.87  22 2.91  31 2.92  28 2.92  12 2.98
  26  0.444  0.700  0.249-  41 1.33  60 1.66  57 2.03  59 2.09  52 2.38  11 2.39  63 2.43  12 2.75
                            29 2.83  25 2.86  32 2.88
  27  0.738  0.480  0.243-  58 1.71  57 2.02  49 2.07  62 2.29  60 2.31  44 2.46  20 2.64  18 2.72
                            28 2.73  25 2.87  24 2.88   2 2.89  32 2.90  10 2.98  13 3.02  29 3.08
  28  0.760  0.702  0.007-  43 1.95  58 2.07  57 2.17  50 2.28  10 2.68  27 2.73  31 2.82  25 2.92
                            14 2.96   9 3.00  19 3.04
  29  0.491  0.498  0.513-  64 1.73  46 1.95  63 2.00  55 2.18  60 2.30  62 2.32  30 2.54  15 2.71
                            22 2.72  32 2.74  31 2.77  26 2.83   8 3.07  27 3.08
  30  0.489  0.722  0.714-  63 1.53  61 2.01  45 2.04  64 2.07  56 2.31  59 2.45  29 2.54  31 2.76
                            32 2.76  17 2.84  15 2.88  16 3.01  21 3.05  12 3.06
  31  0.728  0.500  0.742-  64 1.94  62 1.96  53 2.21  48 2.29  61 2.43  20 2.54  14 2.71  30 2.76
                            29 2.77  28 2.82  13 2.87  22 2.91  25 2.92  32 3.07   6 3.08
  32  0.705  0.739  0.467-  57 1.83  63 1.92  61 2.13  54 2.15  62 2.35  47 2.38  19 2.57  29 2.74
                            30 2.76  26 2.88  27 2.90  21 3.02  14 3.06  31 3.07
  33  0.221  0.222  0.272-   3 1.55   8 1.78   2 2.06   4 2.34  18 2.39
  34  0.236  0.958  0.001-  17 1.76  12 1.96   3 2.04   1 2.09   7 2.12   4 2.47
  35  0.986  0.227  0.978-   1 1.99   2 2.09   9 2.12   6 2.15   4 2.17  20 2.36
  36  0.036  0.047  0.234-   3 1.59   2 1.68   1 2.04   5 2.06
  37  0.243  0.216  0.706-   7 1.74   8 1.89  22 2.03  15 2.07   6 2.08   4 2.47
  38  0.218  0.000  0.486-   5 1.87   8 1.98  21 2.13  16 2.15   3 2.21   7 2.32
  39  0.984  0.282  0.477-  13 1.29  24 2.02   6 2.11   2 2.15   8 2.21   5 2.42
  40  0.988  0.984  0.762-   1 2.02  14 2.27   7 2.28  23 2.33   6 2.34   5 2.47
  41  0.287  0.710  0.250-  26 1.33  11 1.55  12 2.24  10 2.34  16 2.37
  42  0.298  0.479  0.997-  25 1.69   4 1.98  15 2.10  12 2.13   9 2.24  11 2.33
  43  0.991  0.703  0.994-  10 1.75  28 1.95   9 1.97  12 2.19  14 2.32   1 2.44
  44  0.030  0.480  0.245-  11 1.59  10 1.88   9 1.98   2 2.08  13 2.34  27 2.46
  45  0.248  0.738  0.734-  16 1.92  30 2.04  12 2.14   7 2.35  15 2.40  14 2.41
  46  0.265  0.472  0.549-  15 1.70  29 1.95   8 2.09  16 2.42
  47  0.986  0.726  0.480-  16 1.79  14 2.04   5 2.27  32 2.38  10 2.38  13 2.51
  48  0.996  0.467  0.720-   6 1.76  13 1.79  14 2.14  31 2.29  15 2.39   9 2.46
  49  0.759  0.235  0.235-   2 1.88  24 2.02  27 2.07  20 2.28  18 2.32  19 2.35
  50  0.744  0.971  0.018-  19 2.03   1 2.09  28 2.28  23 2.51
  51  0.473  0.258  0.015-  18 1.58  25 1.84   4 1.95  20 2.15  22 2.40
  52  0.437  0.982  0.243-   3 1.86  21 2.15  26 2.38  17 2.39  19 2.43
  53  0.719  0.244  0.684-  24 1.80  23 1.92  22 2.06  31 2.21   6 2.40
  54  0.737  0.992  0.477-  19 1.87  24 1.99  23 2.12  32 2.15   5 2.19  21 2.25
  55  0.453  0.243  0.490-   8 1.79  21 1.97  22 2.04  29 2.18  18 2.48  24 2.50
  56  0.504  0.994  0.741-  23 1.81  17 1.98   7 2.10  21 2.10  22 2.25  30 2.31
  57  0.685  0.713  0.253-  32 1.83  27 2.02  26 2.03  19 2.10  28 2.17
  58  0.729  0.461  0.041-  20 1.35  27 1.71  25 1.97  28 2.07
  59  0.457  0.693  0.002-  12 1.77  25 1.87  26 2.09  17 2.15  30 2.45
  60  0.464  0.505  0.241-  26 1.66  18 1.96  25 2.06  11 2.20  29 2.30  27 2.31
  61  0.719  0.787  0.716-  23 1.96  30 2.01  32 2.13  14 2.14  31 2.43
  62  0.765  0.470  0.513-  13 1.76  31 1.96  24 2.08  27 2.29  29 2.32  32 2.35
  63  0.486  0.735  0.533-  30 1.53  32 1.92  29 2.00  21 2.35  26 2.43  16 2.46
  64  0.501  0.476  0.716-  29 1.73  22 1.84  15 1.90  31 1.94  30 2.07  25 2.39

  LATTYP: Found a simple cubic cell.
 ALAT       =     8.4253872500

  Lattice vectors:

 A1 = (   8.4253872500,   0.0000000000,   0.0000000000)
 A2 = (   0.0000000000,   8.4253872500,   0.0000000000)
 A3 = (   0.0000000000,   0.0000000000,   8.4253872500)

Analysis of symmetry for initial positions (statically):
 Subroutine PRICEL returns:
 Original cell was already a primitive cell.

 Routine SETGRP: Setting up the symmetry group for a
 simple cubic supercell.

 Subroutine GETGRP returns: Found  1 space group operations
 (whereof  1 operations were pure point group operations)
 out of a pool of 48 trial point group operations.

The static configuration has the point symmetry C_1 .

Analysis of symmetry for dynamics (positions and initial velocities):
 Subroutine PRICEL returns:
 Original cell was already a primitive cell.

[...]

The dynamic configuration has the point symmetry C_1 .

Analysis of structural, dynamic, and magnetic symmetry:
 Subroutine PRICEL returns:
 Original cell was already a primitive cell.

 Routine SETGRP: Setting up the symmetry group for a
 simple cubic supercell.

 Subroutine GETGRP returns: Found  1 space group operations
 (whereof  1 operations were pure point group operations)
[...]
   -.348E+03 -.348E+03 -.904E+02   0.387E+03 0.352E+03 0.898E+02   -.623E+01 0.128E+01 0.115E+01   -.134E+00 -.187E+00 -.732E-01
   -.910E+02 -.804E+02 -.189E+03   0.902E+02 0.817E+02 0.193E+03   0.892E+00 -.119E+01 -.375E+00   0.797E-01 -.256E+00 -.418E-01
   0.351E+02 -.260E+03 0.117E+03   -.333E+02 0.264E+03 -.117E+03   -.222E+01 -.323E+01 0.164E-01   0.101E-01 -.143E+00 -.781E-01
   -.102E+03 0.351E+01 0.255E+03   0.991E+02 -.489E+01 -.258E+03   0.263E+01 0.125E+01 -.735E+00   0.749E-01 -.134E+00 -.187E+00
   -.515E+02 -.156E+03 -.277E+03   0.513E+02 0.159E+03 0.286E+03   0.526E-01 -.242E+01 0.164E+01   0.135E+00 -.258E+00 0.136E-01
   -.168E+03 -.140E+03 -.144E+03   0.168E+03 0.138E+03 0.142E+03   -.123E+00 0.105E+01 0.246E+01   0.137E+00 0.338E-01 0.243E-01
   -.218E+03 -.755E+02 -.517E+01   0.218E+03 0.765E+02 0.585E+01   0.895E+00 -.430E+00 0.901E+00   0.477E-02 -.171E+00 -.282E-01
   -.764E+02 -.172E+03 0.418E+02   0.794E+02 0.200E+03 -.448E+02   -.221E+01 -.187E+02 0.452E+01   -.290E+00 0.131E+00 -.200E+00
   0.927E+02 -.987E+01 0.944E+01   -.102E+03 0.129E+02 -.721E+01   0.722E+01 -.306E+01 -.264E+01   0.820E-02 -.317E-03 0.373E+00
   0.113E+03 0.588E+02 0.860E+02   -.120E+03 -.604E+02 -.905E+02   0.767E+01 0.216E+01 0.385E+01   -.350E-01 0.233E+00 0.486E+00
   0.223E+03 0.253E+03 0.140E+02   -.240E+03 -.269E+03 -.116E+02   0.107E+02 0.108E+02 -.224E+01   -.119E+00 0.564E+00 -.477E-01
   0.762E+02 0.424E+02 -.848E+02   -.798E+02 -.370E+02 0.863E+02   0.281E+01 -.365E+01 -.103E+01   0.916E-01 0.373E+00 -.339E-01
   -.123E+02 0.148E+03 -.401E+02   0.179E+02 -.152E+03 0.406E+02   -.529E+01 0.326E+01 0.679E+00   0.664E-01 -.748E-01 -.330E+00
   -.287E+02 0.300E+03 0.603E+02   0.375E+02 -.361E+03 -.766E+02   -.410E+01 0.224E+02 0.746E+01   -.279E+00 -.885E-02 -.492E+00
   0.679E+02 0.550E+02 0.145E+02   -.677E+02 -.560E+02 -.182E+02   -.224E+00 0.146E+01 0.340E+01   -.264E+00 -.249E+00 0.959E-02
   0.214E+03 -.305E+03 -.895E+02   -.256E+03 0.336E+03 0.912E+02   0.147E+02 -.212E+02 -.972E+00   0.203E+00 -.204E+00 0.210E-01
   0.151E+03 -.174E+02 0.319E+02   -.160E+03 0.221E+02 -.257E+02   0.493E+01 -.514E+01 -.865E+01   -.772E-01 -.485E-01 0.213E+00
   0.598E+02 -.143E+03 0.167E+03   -.581E+02 0.151E+03 -.183E+03   -.146E+01 -.745E+01 0.132E+02   -.134E+00 -.200E+00 -.145E+00
   0.172E+03 0.443E+02 -.814E+02   -.190E+03 -.561E+02 0.916E+02   0.123E+02 0.870E+01 -.102E+02   0.523E-01 -.329E+00 -.110E+00
   0.111E+03 -.537E+02 -.345E+02   -.115E+03 0.537E+02 0.398E+02   0.428E+01 0.501E+00 -.485E+01   -.168E+00 -.238E+00 -.760E-01
   0.123E+03 -.115E+03 0.142E+03   -.132E+03 0.119E+03 -.156E+03   0.819E+01 -.455E+01 0.108E+02   0.680E-01 0.119E+00 -.208E+00
   0.121E+03 -.386E+02 0.548E+02   -.134E+03 0.347E+02 -.614E+02   0.110E+02 0.432E+01 0.616E+01   0.949E-01 -.142E+00 0.187E+00
   -.465E+00 -.170E+03 -.159E+03   0.546E+01 0.183E+03 0.170E+03   -.475E+01 -.104E+02 -.818E+01   -.159E+00 0.329E+00 0.956E-01
   0.977E+02 0.166E+03 0.622E+02   -.106E+03 -.173E+03 -.700E+02   0.729E+01 0.677E+01 0.906E+01   0.357E+00 0.179E-01 0.158E+00
   0.631E+02 -.289E+02 0.558E+02   -.683E+02 0.330E+02 -.618E+02   0.573E+01 -.508E+01 0.654E+01   -.352E-01 -.102E-01 0.896E-01
   -.776E+02 0.299E+03 0.134E+03   0.781E+02 -.317E+03 -.154E+03   -.121E+01 0.150E+02 0.132E+02   -.156E-01 0.757E-01 0.190E+00
   -.174E+03 0.213E+02 0.424E+02   0.182E+03 -.239E+02 -.451E+02   -.749E+01 0.266E+01 0.309E+01   0.186E-01 -.192E-01 0.225E-02
   -.585E+02 0.565E+02 -.147E+03   0.613E+02 -.486E+02 0.155E+03   -.255E+01 -.883E+01 -.549E+01   -.379E-01 0.152E+00 -.265E+00
   -.393E+02 0.608E+02 -.121E+02   0.399E+02 -.650E+02 0.203E+02   -.246E+00 0.439E+01 -.850E+01   -.330E-01 0.352E+00 -.888E-01
   -.159E+03 0.251E+02 0.127E+03   0.169E+03 -.205E+02 -.132E+03   -.779E+01 -.503E+01 0.435E+01   0.254E+00 0.128E+00 -.155E+00
   -.376E+02 0.303E+02 -.668E+02   0.341E+02 -.347E+02 0.649E+02   0.159E+01 0.506E+01 0.178E+01   0.277E+00 0.175E-01 -.176E-01
   -.955E+02 -.121E+03 0.734E+02   0.955E+02 0.122E+03 -.814E+02   -.211E+00 -.575E+00 0.748E+01   -.140E+00 -.708E-01 -.241E+00
   -.143E+03 -.211E+03 0.422E+02   0.152E+03 0.251E+03 -.344E+02   -.815E+01 -.139E+02 -.314E-01   0.106E+00 0.823E-01 0.254E-01
   -.203E+03 -.170E+03 0.783E+02   0.214E+03 0.174E+03 -.779E+02   -.803E+01 -.226E+01 -.209E+01   0.941E-01 -.105E+00 0.209E+00
   -.480E+02 0.108E+03 -.120E+03   0.515E+02 -.121E+03 0.121E+03   -.250E+01 0.697E+01 0.734E+00   -.931E-01 0.106E+00 0.134E-01
   -.110E+03 -.330E+02 -.111E+03   0.113E+03 0.341E+02 0.114E+03   -.199E+01 -.180E+01 -.380E+01   0.220E+00 -.181E+00 0.163E+00
   0.709E+02 -.119E+03 0.590E+02   -.806E+02 0.125E+03 -.612E+02   0.653E+01 -.399E+01 0.364E+00   -.729E-01 -.251E+00 0.182E-01
   0.587E+02 -.137E+03 0.173E+03   -.678E+02 0.146E+03 -.197E+03   0.864E+01 -.716E+01 0.146E+02   -.124E+00 -.163E+00 -.121E+00
   -.859E+02 -.636E+02 -.104E+03   0.888E+02 0.684E+02 0.117E+03   -.176E+01 -.412E+01 -.952E+01   0.186E+00 -.115E-01 -.717E-01
   -.615E+02 0.456E+02 -.608E+02   0.853E-13 -.199E-12 -.426E-13   0.613E+02 -.460E+02 0.615E+02   0.198E+00 0.464E+00 -.640E+00

 POSITION                                       TOTAL-FORCE (eV/Angst)
      8.34244      8.35871      0.01622        -1.177324     -0.356242     -0.673955
      8.26718      2.01125      1.90233        -0.478076      3.864999     -0.208495
      1.89955      0.36987      1.91385         7.120457     -9.432903     -2.802871
      2.03776      2.11256      8.39911        -0.518825     -0.312735     -0.000690
      8.39848      8.38347      3.95657        -1.256907     -0.993769      0.336436
      0.00799      2.17733      6.11215        -0.207254     -3.064756      1.584859
      2.15843      0.13734      6.38501        -0.999451     -3.052177     -0.068017
      2.03655      1.97164      4.06598        -1.547704      0.458677      0.899085
      0.28008      3.98536      0.07732        -0.537452     -0.508993     -1.218187
      0.11381      5.87958      1.68880        -2.429055      2.235429      2.021166
      1.74404      4.59255      2.10103         3.264933     -5.771333      1.014346
      2.10642      6.12138      8.32198        -2.781090     -0.287657     -0.744592
      8.16933      3.62586      4.31046        -1.117018     37.868270      6.818813
      8.11954      6.05180      6.07755        -0.173102      0.839314      0.059694
      2.34768      3.83584      6.31809        -2.027639      1.077055      3.364347
      1.64275      6.30174      4.32179         1.136598     -0.030770      0.022214
      3.71490      7.95751      8.10424         3.195385      0.496105      0.043883
      4.12266      2.33641      1.68895         0.580696     -0.868454      8.237262
      6.10173      8.08397      2.17262        -0.305942      0.371640     -1.862742
      6.06114      2.63515      8.24332         0.100762    -25.432381    -11.135307
      3.97023      0.08428      4.16543         0.186525     -0.747814     -0.808119
      4.03966      2.18844      6.15424         1.212640     -1.893421      0.024506
      6.03316      0.16564      6.11646         2.330938     -1.252526      0.916095
      6.31746      1.91771      3.99198        -1.503116     -0.212517     -1.378892
      4.20269      4.00004      0.00170         2.742430      1.261089     -0.689201
      3.74472      5.90007      2.09639        31.810614      5.066964      0.453003
      6.21438      4.04223      2.04484         0.175531     -0.075952      3.280612
      6.40614      5.91170      0.06088        -0.420111      1.146466     -0.131191
      4.14102      4.19381      4.31812        -0.076474     -0.256777     -4.131840
      4.11995      6.08336      6.01215        -0.035273      0.536992     11.144323
      6.13073      4.21320      6.24824         0.644935     -0.210966      0.375901
      5.93645      6.22322      3.93855         1.140167      0.336523      1.549516
      1.85842      1.87121      2.29486         0.522758      9.773069      1.225994
      1.98670      8.07367      0.01022        -2.067560     -0.038177     -0.033124
      8.31100      1.91486      8.23837         0.825773      0.804830     -0.142542
      0.30690      0.39549      1.96795        -6.692008     -4.277615      0.148902
      2.05142      1.81690      5.94780        -0.681648      2.103181      0.417208
      1.83999      0.00288      4.09211         0.467964     -0.680878      0.813721
      8.29034      2.37290      4.02045         4.481564    -38.357106     -9.309425
      8.32126      8.28666      6.41866        -0.296852      0.216136     -0.300300
      2.41762      5.98597      2.10781       -27.308689      9.320923      0.787558
      2.51305      4.03420      8.40116        -4.755647     -0.479071     -2.198409
      8.35161      5.92197      8.37814         0.137283      0.091796     -2.262028
      0.25232      4.04418      2.06074        -6.219194     -3.403295     -0.131086
      2.09103      6.21863      6.18674         0.336064      0.273646      0.402984
      2.23188      3.97306      4.62347        -0.606611      0.358142     -3.159700
      8.30767      6.11831      4.04600        -1.360749      0.265415     -0.287558
      8.39533      3.93326      6.06348         0.087271      3.155981      3.173276
      6.39370      1.98178      1.97825        -0.308187     -0.110656      1.447898
      6.26719      8.18201      0.15156         0.456986     -0.995606      0.578707
      3.98537      2.17306      0.12731        -0.780150     -2.322480     -6.866877
      3.68400      8.27718      2.04351         0.910132      0.052592      0.422629
      6.05888      2.05345      5.76520         0.133664     -0.819097      1.827497
      6.20799      8.35736      4.01967         0.382129      0.456402     -0.379233
      3.82090      2.04928      4.13241         2.191329     -0.292090     -0.660484
      4.24520      8.37621      6.24443        -1.606994      0.698362     -0.117779
      5.76977      6.00880      2.13078        -0.283880      0.073415     -0.767627
      6.13905      3.88141      0.34182         1.446481     25.614615      7.819753
      3.85394      5.84208      0.01374         3.607638      1.530175     -1.530679
      3.91188      4.25267      2.02926         0.877946     -5.865637      2.028566
      6.05558      6.63056      6.02876         0.531638     -0.855579     -0.166948
      6.44600      3.96387      4.32624        -3.225524      1.201497     -1.792558
      4.09383      6.19018      4.48846        -0.521304      1.020112    -10.071549
      4.21746      4.01233      6.03488         1.267583      0.689615      2.791253
    total drift:                                0.020133     -0.008020     -0.006687

  FREE ENERGIE OF THE ION-ELECTRON SYSTEM (eV)
  free  energy   TOTEN  =      -358.0222240227 eV

  energy  without entropy=     -357.9421420644  energy(sigma->0) =     -357.98218304

volume of typ            1:    34.1 %

volume of typ            2:     8.7 %

total charge

# of ion       s       p       d       tot
    1        0.200   0.203   7.924   8.327
    2        0.258   0.307   7.985   8.550
    3        0.361   0.478   8.057   8.896
    4        0.200   0.185   8.023   8.408
    5        0.190   0.177   7.995   8.362
    6        0.211   0.222   8.031   8.463
    7        0.218   0.231   7.996   8.446
    8        0.265   0.335   7.967   8.567
    9        0.196   0.189   8.038   8.423
   10        0.244   0.250   8.088   8.582
   11        0.356   0.459   8.134   8.948
   12        0.227   0.253   7.985   8.465
   13        0.442   0.611   8.222   9.275
   14        0.171   0.156   7.933   8.260
   15        0.244   0.281   8.019   8.544
   16        0.221   0.220   7.960   8.402
   17        0.213   0.220   7.997   8.430
   18        0.252   0.275   8.077   8.604
   19        0.199   0.186   7.958   8.344
   20        0.349   0.410   8.235   8.994
   21        0.184   0.178   7.960   8.322
   22        0.215   0.236   7.998   8.449
   23        0.222   0.243   7.930   8.395
   24        0.235   0.257   7.979   8.471
   25        0.283   0.368   8.038   8.688
   26        0.403   0.564   8.193   9.160
   27        0.220   0.233   8.045   8.498
   28        0.179   0.164   7.977   8.319
   29        0.230   0.262   8.009   8.501
   30        0.284   0.333   8.047   8.664
   31        0.198   0.190   8.010   8.398
   32        0.216   0.228   7.974   8.418
   33        1.278   2.838   0.019   4.135
   34        1.267   2.782   0.011   4.059
   35        1.278   2.715   0.006   3.999
   36        1.271   2.852   0.019   4.142
   37        1.274   2.787   0.012   4.073
   38        1.275   2.745   0.007   4.028
   39        1.306   2.914   0.042   4.262
   40        1.276   2.683   0.003   3.962
   41        1.302   2.960   0.048   4.309
   42        1.282   2.779   0.011   4.073
   43        1.260   2.775   0.011   4.046
   44        1.274   2.817   0.018   4.109
   45        1.275   2.718   0.005   3.998
   46        1.283   2.754   0.010   4.047
   47        1.269   2.731   0.007   4.007
   48        1.268   2.777   0.011   4.057
   49        1.278   2.730   0.007   4.015
   50        1.274   2.679   0.003   3.955
   51        1.270   2.823   0.019   4.111
   52        1.274   2.713   0.004   3.991
   53        1.272   2.759   0.008   4.039
   54        1.268   2.748   0.008   4.024
   55        1.276   2.752   0.008   4.037
   56        1.270   2.758   0.009   4.036
   57        1.260   2.773   0.008   4.040
   58        1.280   2.928   0.041   4.249
   59        1.273   2.779   0.009   4.061
   60        1.278   2.797   0.012   4.088
   61        1.275   2.717   0.005   3.997
   62        1.279   2.760   0.009   4.048
   63        1.278   2.817   0.019   4.114
   64        1.271   2.817   0.017   4.105
tot          48.70   97.88  257.21  403.79

magnetization (x)

# of ion       s       p       d       tot
    1        0.002   0.005   0.964   0.970
    2       -0.001   0.001  -0.223  -0.223
    3        0.004  -0.002   0.098   0.100
    4        0.005   0.002   0.903   0.909
    5        0.008   0.005   0.870   0.884
    6        0.004   0.004   0.468   0.476
    7       -0.005  -0.004  -0.855  -0.865
    8       -0.002   0.001  -0.338  -0.339
    9        0.007   0.005   0.743   0.755
   10        0.005   0.006   0.506   0.517
   11        0.001  -0.003   0.136   0.135
   12       -0.003  -0.002  -0.953  -0.958
   13       -0.000  -0.004  -0.009  -0.013
   14        0.003   0.003   1.181   1.186
   15        0.001  -0.002  -0.080  -0.081
   16        0.002   0.008   1.077   1.087
   17       -0.001  -0.004  -1.058  -1.063
   18        0.013   0.009   0.533   0.555
   19        0.006  -0.002   0.912   0.917
   20       -0.006  -0.006  -0.015  -0.026
   21        0.002   0.004   1.069   1.075
   22        0.004   0.005   0.902   0.911
   23       -0.007  -0.003  -0.725  -0.735
   24        0.000  -0.000   0.351   0.351
   25       -0.001  -0.000   0.009   0.008
   26        0.002   0.001   0.007   0.010
   27        0.000  -0.000  -0.451  -0.451
   28       -0.003   0.001   1.059   1.057
   29        0.003   0.005   0.094   0.102
   30       -0.002  -0.000  -0.340  -0.342
   31       -0.001  -0.001   0.888   0.887
   32       -0.003  -0.004  -0.874  -0.880
   33        0.000   0.027  -0.000   0.027
   34       -0.003  -0.115  -0.000  -0.118
   35        0.006   0.080   0.000   0.086
   36        0.005   0.041  -0.000   0.046
   37        0.002   0.027  -0.000   0.029
   38        0.005   0.052   0.000   0.056
   39        0.002   0.028  -0.000   0.029
   40        0.003   0.048   0.000   0.052
   41       -0.001   0.011  -0.000   0.011
   42        0.001   0.041  -0.000   0.042
   43        0.009   0.129   0.000   0.139
   44        0.004   0.053   0.000   0.057
   45        0.001   0.040   0.000   0.041
   46       -0.001   0.018  -0.000   0.017
   47        0.008   0.196   0.000   0.204
   48        0.004   0.036   0.000   0.041
   49       -0.001  -0.004   0.000  -0.005
   50        0.004   0.077   0.000   0.081
   51        0.009   0.094   0.000   0.104
   52        0.003   0.053   0.000   0.056
   53        0.005   0.066  -0.000   0.071
   54        0.001   0.030   0.000   0.031
   55        0.005   0.117   0.000   0.123
   56       -0.002  -0.084   0.000  -0.086
   57        0.003   0.034  -0.000   0.037
   58        0.001   0.010  -0.000   0.011
   59       -0.005  -0.076  -0.000  -0.082
   60        0.004  -0.010   0.000  -0.006
   61       -0.002   0.026  -0.000   0.024
   62        0.004   0.012   0.000   0.017
   63       -0.003  -0.071  -0.000  -0.074
   64        0.003   0.044  -0.000   0.047
tot           0.11    1.06    6.85    8.02