 vasp.5.4.4.18Apr17-6-g9f103f2a35 (build May 12 2020 04:58:55) complex

 MD_VERSION_INFO: Compiled 2020-05-12T11:58:55-UTC in devlin.sd.materialsdesign.
 com:/home/medea2/data/build/wwolf/vasp-gpu5.4.4/13047/x86_64/src/src/build/std
 from svn 13047

 executed on                        Lin64 date 2023.03.23  17:55:38

 INCAR:
 POTCAR:    PAW_PBE Ni 02Aug2007
 POTCAR:    PAW_PBE O 08Apr2002

 POTCAR:    PAW_PBE Ni 02Aug2007

 POTCAR:    PAW_PBE O 08Apr2002

 Optimization of the real space projectors (new method)

 maximal supplied QI-value         = 16.25
 optimisation between [QCUT,QGAM] = [ 11.38, 22.75] = [ 36.24,144.96] Ry
 Optimized for a Real-space Cutoff    1.47 Angstroem

   l    n(q)    QCUT    max X(q) W(low)/X(q) W(high)/X(q)  e(spline)
   2      9    11.376    60.317    0.17E-03    0.16E-04    0.16E-06
   2      9    11.376    55.921    0.17E-03    0.16E-04    0.17E-06
   0     10    11.376    51.690    0.45E-04    0.60E-04    0.21E-06
   0     10    11.376    30.015    0.37E-04    0.55E-04    0.19E-06
   1     10    11.376    18.849    0.83E-04    0.11E-03    0.92E-07
   1     10    11.376    14.624    0.69E-04    0.92E-04    0.82E-07
 Optimization of the real space projectors (new method)

 maximal supplied QI-value         = 24.76
 optimisation between [QCUT,QGAM] = [ 11.39, 22.77] = [ 36.31,145.25] Ry
 Optimized for a Real-space Cutoff    1.10 Angstroem

   l    n(q)    QCUT    max X(q) W(low)/X(q) W(high)/X(q)  e(spline)
   0      7    11.387    20.381    0.22E-03    0.48E-03    0.18E-06
   0      7    11.387    15.268    0.22E-03    0.52E-03    0.19E-06
   1      7    11.387     5.964    0.22E-03    0.73E-03    0.24E-06
   1      7    11.387     5.382    0.19E-03    0.60E-03    0.21E-06

  PAW_PBE Ni 02Aug2007                  :
  PAW_PBE O 08Apr2002                   :

 POSCAR: NiO_Fm-3m_scale_1_025_disp_0_10_round_2
  positions in direct lattice
 exchange correlation table for  LEXCH =       14
   RHO(1)=    0.500       N(1)  =     2000
   RHO(2)=  100.500       N(2)  =     4000

 ion  position               nearest neighbor table
   1  0.995  0.008  0.023-  34 1.99  35 1.99  36 2.01  40 2.19  50 2.35  43 2.37   2 2.81   4 2.82
                             3 2.92  12 2.94  19 3.00
   2  0.975  0.252  0.249-  44 1.90  49 2.02  39 2.02  33 2.13  35 2.17  36 2.19  27 2.69   1 2.81
                            13 2.91  24 2.91   9 2.92   8 2.97  20 2.99  19 3.03   4 3.07
   3  0.253  0.010  0.254-  38 1.80  36 1.96  33 2.04  52 2.09  34 2.10  41 2.24  17 2.75  21 2.75
                             8 2.85   1 2.92   4 2.95  18 2.95  26 3.01   5 3.03
   4  0.233  0.242  0.993-  35 1.75  34 2.01  42 2.10  33 2.22  37 2.25  51 2.33   1 2.82  25 2.89
                            11 2.91  17 2.92   3 2.95  18 2.98  22 3.00   6 3.01   9 3.03   2 3.07
   5  0.004  0.989  0.513-  39 2.03  47 2.07  38 2.10  40 2.11  36 2.14  54 2.35   7 2.74   6 2.81
                            14 2.93   8 2.96  16 2.98  23 2.99   3 3.03  32 3.07
   6  0.997  0.247  0.724-  48 2.02  39 2.03  37 2.14  40 2.23  35 2.31  53 2.34   5 2.81   8 2.83
                            13 2.90  31 2.97  24 3.00   4 3.01  23 3.04  15 3.06   9 3.07   7 3.07
   7  0.263  0.999  0.710-  56 1.83  37 2.03  38 2.05  40 2.36  45 2.40  34 2.50  21 2.72   5 2.74
                            22 2.77   8 2.86  16 2.88  30 2.89  12 3.04   6 3.07
   8  0.235  0.254  0.487-  39 1.85  33 1.95  46 2.00  37 2.02  55 2.03  38 2.09  15 2.65   6 2.83
                             3 2.85   7 2.86  29 2.89  13 2.94   5 2.96   2 2.97  21 3.02  11 3.02
   9  0.971  0.489  0.995-  43 2.02  58 2.06  44 2.08  35 2.13  42 2.40  48 2.46  20 2.74  10 2.78
                            27 2.88  28 2.89   2 2.92  14 2.93  31 2.97   4 3.03  11 3.06   6 3.07
  10  0.986  0.704  0.245-  44 1.94  43 2.04  41 2.15  57 2.18  47 2.27  36 2.49  13 2.70   9 2.78
                            11 2.84  27 2.87  28 2.91  32 2.92  16 3.06
  11  0.252  0.498  0.225-  42 1.90  44 2.05  60 2.07  41 2.10  33 2.10  46 2.29  25 2.71  26 2.75
                            18 2.80  10 2.84   4 2.91  29 2.99   8 3.02  16 3.03  12 3.04   9 3.06
  12  0.238  0.762  0.980-  59 2.05  34 2.06  45 2.10  43 2.14  41 2.23  42 2.30  14 2.84  17 2.90
                             1 2.94  30 3.00  26 3.01   7 3.04  11 3.04
  13  0.985  0.499  0.491-  48 1.81  46 2.07  47 2.08  44 2.14  62 2.22  39 2.29  10 2.70  32 2.78
                            15 2.87   6 2.90   2 2.91  27 2.93  31 2.93  16 2.94   8 2.94  14 2.96
  14  0.992  0.736  0.750-  47 2.03  45 2.08  40 2.11  48 2.14  43 2.14  61 2.19  12 2.84   5 2.93
                             9 2.93  13 2.96  32 2.97  16 3.02  31 3.03
  15  0.262  0.493  0.690-  46 1.66  45 1.93  64 1.99  37 2.17  48 2.24  29 2.55  16 2.58   8 2.65
                            30 2.79  13 2.87  22 2.95   6 3.06
  16  0.246  0.731  0.498-  47 1.95  63 1.99  45 2.00  46 2.03  41 2.14  38 2.34  15 2.58  30 2.76
                             7 2.88  26 2.90  29 2.92  13 2.94   5 2.98  14 3.02  11 3.03  10 3.06
  17  0.481  0.002  0.020-  52 1.86  50 2.01  51 2.12  34 2.12  59 2.31  56 2.45  19 2.68   3 2.75
                            18 2.86  12 2.90   4 2.92  26 2.95  22 3.02
  18  0.491  0.266  0.233-  51 1.86  60 1.94  55 2.03  49 2.06  52 2.23  33 2.24  25 2.65  27 2.71
                            11 2.80  29 2.84  20 2.86  17 2.86  19 2.88   3 2.95  24 2.96   4 2.98
  19  0.713  0.006  0.239-  52 1.78  50 2.08  49 2.12  54 2.16  57 2.40  17 2.68  21 2.77  18 2.88
                            24 2.93  28 2.98   1 3.00   2 3.03  20 3.04  26 3.04
  20  0.730  0.270  0.993-  51 1.88  58 1.91  49 2.03  53 2.16  50 2.25  35 2.49  27 2.72   9 2.74
                            25 2.74  31 2.85  18 2.86  22 2.91   2 2.99  19 3.04
  21  0.489  0.002  0.479-  55 1.96  54 2.01  52 2.02  38 2.03  56 2.11  63 2.27   7 2.72   3 2.75
                            19 2.77  24 2.87  23 2.90  22 2.98   8 3.02  26 3.02  30 3.04  18 3.04
  22  0.491  0.234  0.747-  53 1.94  37 2.03  56 2.03  64 2.11  51 2.26  55 2.32  23 2.73   7 2.77
                            20 2.91  24 2.94  15 2.95  31 2.96  25 2.97  21 2.98   4 3.00  17 3.02
  23  0.725  0.009  0.730-  54 1.98  53 2.03  56 2.06  50 2.20  40 2.25  61 2.35  22 2.73  24 2.83
                            21 2.90   5 2.99   6 3.04  30 3.07  32 3.08
  24  0.728  0.245  0.491-  54 2.03  53 2.08  62 2.12  55 2.14  49 2.17  39 2.44  27 2.79  23 2.83
                            29 2.85  31 2.87  21 2.87   2 2.91  19 2.93  22 2.94  18 2.96   6 3.00
  25  0.481  0.478  0.000-  42 1.90  51 1.93  58 2.07  59 2.11  60 2.20  64 2.28  18 2.65  11 2.71
                            20 2.74   4 2.89  26 2.96  22 2.97  28 3.01  27 3.01
  26  0.477  0.733  0.244-  63 2.00  41 2.02  60 2.02  59 2.06  57 2.15  52 2.28  11 2.75  28 2.88
                            16 2.90  29 2.95  17 2.95  25 2.96   3 3.01  12 3.01  21 3.02  19 3.04
  27  0.740  0.469  0.247-  49 1.79  62 1.87  60 2.08  57 2.16  58 2.16  44 2.28   2 2.69  18 2.71
                            20 2.72  24 2.79  10 2.87   9 2.88  13 2.93  29 2.95  28 2.97  25 3.01
  28  0.731  0.733  0.014-  57 1.68  58 2.00  59 2.14  43 2.16  50 2.28  26 2.88   9 2.89  10 2.91
                            27 2.97  19 2.98  25 3.01
  29  0.489  0.484  0.490-  60 1.93  62 1.99  64 2.02  63 2.09  55 2.12  46 2.17  15 2.55  18 2.84
                            24 2.85   8 2.89  30 2.90  31 2.92  16 2.92  27 2.95  26 2.95  11 2.99
  30  0.483  0.737  0.723-  63 2.04  45 2.08  61 2.13  64 2.14  56 2.16  59 2.33  16 2.76  15 2.79
                             7 2.89  29 2.90  32 2.95  12 3.00  31 3.01  21 3.04  23 3.07
  31  0.736  0.485  0.732-  53 1.98  64 2.03  61 2.09  58 2.20  48 2.21  62 2.24  20 2.85  24 2.87
                            32 2.87  29 2.92  13 2.93  22 2.96   9 2.97   6 2.97  30 3.01  14 3.03
  32  0.749  0.730  0.496-  61 1.81  62 1.99  47 2.25  63 2.26  54 2.32  57 2.39  13 2.78  31 2.87
                            10 2.92  30 2.95  14 2.97  29 3.01  27 3.04   5 3.07  23 3.08
  33  0.227  0.252  0.256-   8 1.95   3 2.04  11 2.10   2 2.13   4 2.22  18 2.24
  34  0.230  0.005  0.005-   1 1.99   4 2.01  12 2.06   3 2.10  17 2.12   7 2.50
  35  0.025  0.242  0.997-   4 1.75   1 1.99   9 2.13   2 2.17   6 2.31  20 2.49
  36  0.020  0.997  0.260-   3 1.96   1 2.01   5 2.14   2 2.19  10 2.49
  37  0.250  0.239  0.726-   8 2.02   7 2.03  22 2.03   6 2.14  15 2.17   4 2.25
  38  0.249  0.007  0.467-   3 1.80  21 2.03   7 2.05   8 2.09   5 2.10  16 2.34
  39  0.016  0.229  0.485-   8 1.85   2 2.02   6 2.03   5 2.03  13 2.29  24 2.44
  40  0.989  0.986  0.763-  14 2.11   5 2.11   1 2.19   6 2.23  23 2.25   7 2.36
  41  0.238  0.746  0.244-  26 2.02  11 2.10  16 2.14  10 2.15  12 2.23   3 2.24
  42  0.256  0.490  0.999-  25 1.90  11 1.90   4 2.10  12 2.30   9 2.40
  43  0.988  0.728  0.004-   9 2.02  10 2.04  12 2.14  14 2.14  28 2.16   1 2.37
  44  0.010  0.475  0.239-   2 1.90  10 1.94  11 2.05   9 2.08  13 2.14  27 2.28
  45  0.238  0.717  0.734-  15 1.93  16 2.00  30 2.08  14 2.08  12 2.10   7 2.40
  46  0.231  0.491  0.496-  15 1.66   8 2.00  16 2.03  13 2.07  29 2.17  11 2.29
  47  0.015  0.743  0.510-  16 1.95  14 2.03   5 2.07  13 2.08  32 2.25  10 2.27
  48  0.996  0.486  0.704-  13 1.81   6 2.02  14 2.14  31 2.21  15 2.24   9 2.46
  49  0.735  0.257  0.233-  27 1.79   2 2.02  20 2.03  18 2.06  19 2.12  24 2.17
  50  0.718  0.003  0.992-  17 2.01  19 2.08  23 2.20  20 2.25  28 2.28   1 2.35
  51  0.509  0.252  0.014-  18 1.86  20 1.88  25 1.93  17 2.12  22 2.26   4 2.33
  52  0.501  0.002  0.240-  19 1.78  17 1.86  21 2.02   3 2.09  18 2.23  26 2.28
  53  0.720  0.250  0.737-  22 1.94  31 1.98  23 2.03  24 2.08  20 2.16   6 2.34
  54  0.727  0.004  0.495-  23 1.98  21 2.01  24 2.03  19 2.16  32 2.32   5 2.35
  55  0.474  0.234  0.471-  21 1.96  18 2.03   8 2.03  29 2.12  24 2.14  22 2.32
  56  0.480  0.993  0.729-   7 1.83  22 2.03  23 2.06  21 2.11  30 2.16  17 2.45
  57  0.731  0.723  0.213-  28 1.68  26 2.15  27 2.16  10 2.18  32 2.39  19 2.40
  58  0.726  0.497  0.993-  20 1.91  28 2.00   9 2.06  25 2.07  27 2.16  31 2.20
  59  0.478  0.729  0.999-  12 2.05  26 2.06  25 2.11  28 2.14  17 2.31  30 2.33
  60  0.495  0.494  0.261-  29 1.93  18 1.94  26 2.02  11 2.07  27 2.08  25 2.20
  61  0.736  0.732  0.711-  32 1.81  31 2.09  30 2.13  14 2.19  23 2.35
  62  0.723  0.496  0.467-  27 1.87  29 1.99  32 1.99  24 2.12  13 2.22  31 2.24
  63  0.481  0.732  0.481-  16 1.99  26 2.00  30 2.04  29 2.09  32 2.26  21 2.27
  64  0.495  0.483  0.730-  15 1.99  29 2.02  31 2.03  22 2.11  30 2.14  25 2.28

  LATTYP: Found a simple cubic cell.
 ALAT       =     8.4253872500

  Lattice vectors:

 A1 = (   8.4253872500,   0.0000000000,   0.0000000000)
 A2 = (   0.0000000000,   8.4253872500,   0.0000000000)
 A3 = (   0.0000000000,   0.0000000000,   8.4253872500)

Analysis of symmetry for initial positions (statically):
 Subroutine PRICEL returns:
 Original cell was already a primitive cell.

 Routine SETGRP: Setting up the symmetry group for a
 simple cubic supercell.

 Subroutine GETGRP returns: Found  1 space group operations
 (whereof  1 operations were pure point group operations)
[...]
   -.560E+02 -.120E+03 0.521E+02   0.555E+02 0.119E+03 -.523E+02   0.114E+01 0.122E+01 -.363E-01   -.964E-02 0.223E-01 -.462E-01
   -.107E+03 -.151E+03 0.488E+02   0.105E+03 0.153E+03 -.472E+02   0.160E+01 0.567E+00 -.260E+01   0.128E+00 0.955E-01 -.592E-01
   -.604E+02 -.183E+03 0.248E+03   0.600E+02 0.183E+03 -.248E+03   0.406E+00 0.676E+00 -.509E+01   0.708E-01 0.555E-02 -.190E-01
   -.336E+02 -.322E+02 -.667E+02   0.360E+02 0.326E+02 0.661E+02   -.232E+01 -.448E+00 0.988E+00   -.276E-01 0.258E+00 -.166E+00
   -.919E+02 -.973E+02 -.177E+03   0.931E+02 0.975E+02 0.177E+03   -.525E+00 0.127E+00 0.592E+00   -.166E-02 0.133E-01 0.472E-01
   -.100E+03 -.764E+02 -.779E+02   0.990E+02 0.770E+02 0.784E+02   0.113E+01 0.362E-01 -.379E+00   0.308E+00 0.308E+00 0.495E-01
   -.666E+02 -.184E+03 0.871E+02   0.659E+02 0.183E+03 -.839E+02   0.667E+00 0.123E+01 -.460E+01   0.692E-01 -.128E-01 0.280E-01
   0.256E+02 0.958E+01 0.755E+02   -.280E+02 -.890E+01 -.788E+02   0.317E+01 -.612E+00 0.273E+01   -.758E-01 0.142E-01 -.518E-01
   0.140E+02 0.600E+02 0.949E+02   -.142E+02 -.609E+02 -.100E+03   0.128E+01 0.660E+00 0.542E+01   -.784E-01 -.684E-01 0.602E-01
   0.116E+03 0.884E+01 0.877E+02   -.125E+03 -.761E+01 -.896E+02   0.577E+01 -.591E+00 0.176E+01   -.339E-01 0.116E-01 -.727E-02
   0.138E+03 0.102E+03 0.573E+01   -.141E+03 -.107E+03 -.124E+01   0.196E+01 0.477E+01 -.453E+01   0.169E-02 -.320E-01 -.643E-01
   0.517E+02 0.749E+01 -.123E+03   -.539E+02 -.494E+01 0.128E+03   0.289E+01 -.257E+01 -.436E+01   -.398E+00 0.399E-01 0.219E-01
   0.519E+02 0.845E+02 -.559E+02   -.553E+02 -.863E+02 0.593E+02   0.375E+01 0.152E+01 -.116E+01   -.436E-01 -.956E-01 -.852E-01
   0.132E+03 0.390E+02 -.264E+02   -.137E+03 -.387E+02 0.239E+02   0.378E+01 -.443E+00 0.303E+01   -.397E-01 0.676E-01 0.237E-01
   0.355E+02 0.147E+02 -.726E+02   -.352E+02 -.146E+02 0.785E+02   -.342E+00 0.276E+00 -.639E+01   -.179E-01 -.981E-01 0.517E-01
   0.719E+02 -.623E+02 0.498E+02   -.765E+02 0.671E+02 -.512E+02   0.491E+01 -.495E+01 0.130E+01   -.761E-02 -.183E-01 -.179E-01
   0.106E+03 -.561E+02 0.143E+03   -.114E+03 0.600E+02 -.153E+03   0.698E+01 -.433E+01 0.928E+01   -.119E+00 0.818E-01 0.561E-01
   0.102E+02 -.936E+02 0.520E+02   -.977E+01 0.994E+02 -.528E+02   -.352E+00 -.570E+01 0.460E+00   -.250E-01 -.110E-01 -.699E-01
   0.367E+01 -.360E+02 0.285E+02   -.129E+00 0.349E+02 -.287E+02   -.383E+01 0.178E+01 0.701E+00   -.881E-02 0.427E-01 -.375E-02
   0.366E+02 -.821E+02 -.126E+03   -.395E+02 0.857E+02 0.130E+03   0.336E+01 -.254E+01 -.344E+01   -.558E-01 0.162E-01 0.202E-01
   0.434E+02 -.238E+02 0.110E+03   -.467E+02 0.238E+02 -.128E+03   0.299E+01 -.405E+00 0.121E+02   -.137E+00 0.103E+00 -.464E-01
   0.849E+02 -.829E+02 0.312E+02   -.867E+02 0.847E+02 -.331E+02   0.117E+01 -.109E+01 0.129E+01   0.582E-02 -.734E-01 0.830E-01
   0.209E+02 -.136E+02 -.167E+03   -.176E+02 0.158E+02 0.176E+03   -.404E+01 -.255E+01 -.716E+01   0.420E-02 0.815E-01 0.628E-02
   -.730E+02 0.137E+03 0.416E+00   0.717E+02 -.146E+03 0.170E+00   0.154E+01 0.708E+01 -.869E-01   0.808E-01 0.275E-01 -.396E-01
   -.112E+03 0.684E+02 0.816E+02   0.117E+03 -.690E+02 -.868E+02   -.390E+01 0.534E+00 0.518E+01   0.778E-01 -.106E+00 0.509E-01
   0.573E+02 0.824E+02 0.119E+03   -.612E+02 -.883E+02 -.125E+03   0.236E+01 0.566E+01 0.528E+01   0.260E-01 -.225E-01 0.207E+00
   0.140E+02 0.741E+02 -.172E+01   -.197E+02 -.751E+02 0.580E+01   0.331E+01 0.907E+00 -.301E+01   -.799E-02 -.869E-01 -.343E-01
   -.112E+03 0.446E+02 -.446E+02   0.116E+03 -.451E+02 0.463E+02   -.482E+01 0.532E+00 -.167E+01   0.422E+00 0.108E-01 0.320E-01
   -.118E+03 0.950E+02 0.190E+02   0.123E+03 -.998E+02 -.214E+02   -.475E+01 0.476E+01 0.170E+01   0.573E-01 -.863E-01 -.428E-01
   -.327E+02 0.136E+02 -.543E+02   0.328E+02 -.129E+02 0.576E+02   0.125E+00 0.181E+00 -.315E+01   -.149E-01 -.259E-01 -.211E+00
   -.632E+02 0.813E+02 -.109E+03   0.692E+02 -.855E+02 0.114E+03   -.497E+01 0.455E+01 -.539E+01   0.142E-01 -.443E+00 0.442E-02
   -.544E+02 -.111E+03 -.103E+03   0.537E+02 0.112E+03 0.117E+03   0.587E+00 -.119E+01 -.929E+01   0.170E-01 -.808E-02 -.674E-01
   -.376E+02 -.809E+02 0.848E+02   0.355E+02 0.861E+02 -.861E+02   0.219E+01 -.512E+01 0.112E+01   0.119E+00 0.112E+00 0.591E-01
   -.238E+02 -.626E+02 0.970E+02   0.250E+02 0.633E+02 -.101E+03   -.127E+01 -.671E+00 0.418E+01   0.255E-01 0.400E-01 -.133E-01
   -.329E+01 -.741E+02 0.390E+02   0.654E+01 0.787E+02 -.410E+02   -.368E+01 -.448E+01 0.163E+01   0.211E-05 0.103E+00 -.392E-01
   -.270E+02 -.887E+02 -.145E+03   0.274E+02 0.926E+02 0.155E+03   -.736E+00 -.426E+01 -.800E+01   0.457E-01 0.175E-01 0.105E+00
   -.664E+02 -.319E+02 -.719E+02   0.669E+02 0.323E+02 0.754E+02   0.407E-01 -.902E+00 -.222E+01   0.127E+00 0.667E-01 -.685E-01
   -.793E+02 -.815E+02 -.110E+02   0.843E+02 0.836E+02 0.106E+02   -.494E+01 -.163E+01 0.193E+00   -.295E-01 0.264E-01 0.394E-01
   -.258E+02 -.337E+02 -.106E+03   0.280E+02 0.337E+02 0.112E+03   -.200E+01 -.586E+00 -.640E+01   -.142E-01 0.429E+00 0.708E-02
   -.213E+02 0.214E+02 0.166E+02   0.398E-12 0.142E-12 0.199E-12   0.214E+02 -.216E+02 -.166E+02   -.732E-01 0.213E+00 -.825E-01

 POSITION                                       TOTAL-FORCE (eV/Angst)
      8.38364      0.07060      0.19160        -0.677358     -0.610337     -0.909688
      8.21121      2.12688      2.10168         0.946755     -1.538460     -0.301757
      2.13164      0.08820      2.13585        -0.887773     -0.829351     -2.147217
      1.96026      2.04207      8.36230         2.354947      0.467917     -0.399833
      0.03432      8.33582      4.32177        -0.374928     -0.169978     -0.732122
      8.39678      2.07930      6.10302        -0.120349     -0.333951      0.803164
      2.21876      8.41958      5.98122        -1.961819     -0.186362      0.678186
      1.97712      2.13829      4.10552         1.335029     -0.572030     -0.328488
      8.17827      4.11721      8.38463         0.890426     -0.133648     -0.403134
      8.31088      5.93257      2.06341         0.059070      1.596682      0.130935
      2.12606      4.19273      1.89567        -0.874528     -0.126031      0.951461
      2.00417      6.42003      8.25679        -0.158744     -0.893362      0.331060
      8.30257      4.20238      4.13321        -0.018703     -0.210188     -1.771151
      8.36089      6.19810      6.32290        -0.344849      0.414682      0.198708
      2.20553      4.15605      5.81438        -0.133990     -0.544735      6.396697
      2.07278      6.16113      4.19306        -0.331447      0.835817     -0.911267
      4.05400      0.01971      0.17114        -0.192397     -0.344022     -2.072086
      4.13534      2.24311      1.96393        -0.657850     -1.470780      1.484293
      6.00403      0.05295      2.01100         3.023203     -0.347110      0.186126
      6.15378      2.27482      8.36782         1.120708     -1.778638     -0.744162
      4.11921      0.01725      4.03758        -0.025780     -0.793203      0.493938
      4.13318      1.96926      6.29056        -0.505555      0.270949     -0.049564
      6.10476      0.07960      6.15234         0.922710     -0.821234      1.034703
      6.13213      2.06480      4.13682         0.295064     -0.222856      0.236509
      4.05252      4.03115      0.00315         0.309743      1.490715     -0.984334
      4.02179      6.17225      2.05189         0.607550      0.465186     -0.283205
      6.23235      3.95092      2.08205         0.098293      3.207194     -1.064850
      6.16170      6.17941      0.11784         0.061941      1.100209     -4.659558
      4.11710      4.08043      4.12905         0.070052      0.240075      0.218894
      4.07091      6.21004      6.09305         0.732226      0.398657      0.876167
      6.20103      4.08388      6.17023         0.417118      0.953546      0.182981
      6.31000      6.14684      4.17894         0.040669      0.626108     -1.419629
      1.91113      2.12019      2.15347         0.666207      0.089361     -0.613999
      1.94053      0.03868      0.04266         0.946493     -0.321971      0.167817
      0.21065      2.03519      8.40055        -3.009342      0.650896     -0.140377
      0.17138      8.39803      2.18972        -0.955179      0.272344     -0.103887
      2.11041      2.01413      6.11851         0.256382      0.019272      0.364714
      2.09677      0.05745      3.93528         0.324102     -0.332834      2.089190
      0.13823      1.92864      4.08421        -1.542102     -0.028688      0.574105
      8.32866      8.30472      6.43178        -0.109639      0.279668     -0.463006
      2.00713      6.28287      2.05428         0.305467     -0.108761     -0.047725
      2.15374      4.13202      8.41923        -0.536594     -0.339915     -0.508729
      8.32156      6.13506      0.03745         0.037746      0.134640     -0.440069
      0.08480      4.00041      2.01370        -0.302977      0.701678      0.408873
      2.00278      6.04081      6.18830         0.464908      1.010569      0.541666
      1.94670      4.13431      4.17680        -0.481427     -0.253920     -5.409840
      0.12970      6.26398      4.29903        -0.625292      0.604468     -0.461050
      8.39363      4.09302      5.93384        -0.711118     -0.233957      1.956518
      6.19352      2.16506      1.96673         0.272935     -2.202175      0.460329
      6.04642      0.02398      8.35430         0.551468     -0.152202      0.070123
      4.28436      2.12266      0.11484        -1.478044     -0.306329     -1.085384
      4.22081      0.01830      2.02073        -2.347917     -0.123819      1.032737
      6.06308      2.10478      6.21223         0.301835     -0.012673      0.056530
      6.12194      0.03635      4.17038         0.341479     -0.119064     -0.693744
      3.99656      1.97256      3.97054         0.227633      0.910521     -0.054802
      4.04491      8.37038      6.14285         1.074366     -0.160058      0.236405
      6.15674      6.08944      1.79445        -0.082337     -0.111444      4.746244
      6.11480      4.18697      8.36225         0.154075      0.245538     -0.110345
      4.02750      6.14011      8.41682         0.020461      0.045723     -0.029149
      4.16952      4.16488      2.19954        -0.419620      0.221806     -0.381223
      6.19778      6.16650      5.98933        -0.286253     -0.311088      1.862922
      6.09128      4.17862      3.93768         0.650972     -0.502192      1.196677
      4.05483      6.16862      4.05300         0.093891      0.490912     -0.178806
      4.16837      4.07341      6.14784         0.177987     -0.197763     -0.064490
    total drift:                               -0.010473      0.002667     -0.041088

  FREE ENERGIE OF THE ION-ELECTRON SYSTEM (eV)
  free  energy   TOTEN  =      -389.0014300651 eV

  energy  without entropy=     -388.9553117830  energy(sigma->0) =     -388.97837092

volume of typ            1:    34.1 %

volume of typ            2:     8.7 %

total charge

# of ion       s       p       d       tot
    1        0.192   0.189   7.919   8.300
    2        0.207   0.225   7.947   8.379
    3        0.222   0.255   7.936   8.413
    4        0.219   0.231   7.952   8.402
    5        0.191   0.186   7.935   8.312
    6        0.182   0.170   7.950   8.302
    7        0.203   0.203   7.963   8.369
    8        0.234   0.279   7.941   8.454
    9        0.182   0.175   7.968   8.325
   10        0.187   0.182   7.965   8.334
   11        0.207   0.222   7.942   8.371
   12        0.182   0.179   7.932   8.293
   13        0.211   0.224   7.979   8.414
   14        0.189   0.187   7.913   8.290
   15        0.252   0.294   7.989   8.535
   16        0.214   0.230   7.951   8.395
   17        0.200   0.206   7.963   8.369
   18        0.221   0.248   7.978   8.447
   19        0.200   0.204   7.968   8.372
   20        0.208   0.222   7.977   8.407
   21        0.207   0.227   7.953   8.388
   22        0.200   0.204   7.995   8.399
   23        0.186   0.185   7.918   8.289
   24        0.185   0.178   7.978   8.341
   25        0.211   0.228   7.963   8.402
   26        0.202   0.210   7.950   8.361
   27        0.229   0.262   7.977   8.468
   28        0.229   0.242   7.957   8.428
   29        0.213   0.235   7.971   8.419
   30        0.182   0.177   7.951   8.310
   31        0.193   0.193   7.944   8.331
   32        0.201   0.199   7.956   8.356
   33        1.274   2.743   0.006   4.023
   34        1.259   2.759   0.006   4.025
   35        1.264   2.768   0.008   4.040
   36        1.272   2.718   0.005   3.996
   37        1.265   2.753   0.006   4.024
   38        1.267   2.778   0.009   4.054
   39        1.269   2.759   0.008   4.036
   40        1.264   2.713   0.004   3.981
   41        1.271   2.727   0.005   4.002
   42        1.267   2.747   0.006   4.021
   43        1.262   2.739   0.005   4.007
   44        1.260   2.773   0.008   4.041
   45        1.261   2.765   0.007   4.033
   46        1.265   2.809   0.013   4.087
   47        1.262   2.752   0.006   4.021
   48        1.264   2.759   0.007   4.031
   49        1.260   2.794   0.010   4.064
   50        1.264   2.725   0.004   3.993
   51        1.259   2.793   0.010   4.061
   52        1.259   2.805   0.011   4.075
   53        1.255   2.774   0.007   4.036
   54        1.257   2.758   0.006   4.020
   55        1.266   2.760   0.007   4.032
   56        1.256   2.776   0.008   4.040
   57        1.267   2.769   0.009   4.045
   58        1.263   2.767   0.008   4.038
   59        1.268   2.726   0.005   3.999
   60        1.268   2.776   0.009   4.053
   61        1.259   2.755   0.006   4.020
   62        1.264   2.772   0.008   4.044
   63        1.262   2.758   0.006   4.026
   64        1.266   2.753   0.007   4.026
tot          46.98   95.17  254.82  396.97

magnetization (x)

# of ion       s       p       d       tot
    1        0.004   0.007   1.181   1.192
    2        0.003   0.003   0.820   0.826
    3        0.001   0.004  -1.041  -1.037
    4        0.004   0.007   1.123   1.133
    5        0.005   0.003   0.999   1.007
    6        0.007   0.005   1.138   1.150
    7        0.005   0.008   1.257   1.269
    8        0.001   0.006  -0.969  -0.962
    9        0.002   0.001  -1.132  -1.130
   10        0.007   0.007   0.941   0.955
   11       -0.003  -0.001   1.178   1.174
   12        0.002   0.003  -1.202  -1.197
   13        0.006   0.004   0.908   0.918
   14        0.006   0.007   1.200   1.214
   15       -0.002  -0.012  -1.066  -1.080
   16        0.004   0.002   1.151   1.157
   17        0.005   0.008   1.156   1.170
   18       -0.000   0.003  -0.910  -0.908
   19        0.004   0.008   1.264   1.276
   20        0.006   0.012   1.014   1.033
   21        0.002   0.003  -1.059  -1.054
   22        0.008   0.003   0.230   0.241
   23        0.009   0.009   1.410   1.428
   24        0.007   0.004   1.195   1.206
   25        0.007   0.004   0.932   0.943
   26        0.004   0.004   0.689   0.696
   27       -0.002   0.000  -1.039  -1.040
   28        0.006   0.012   1.013   1.031
   29        0.004   0.004   0.816   0.823
   30        0.006   0.004   1.070   1.080
   31        0.005   0.000   1.221   1.225
   32        0.010   0.014   1.216   1.241
   33       -0.001  -0.008  -0.000  -0.009
   34        0.007   0.048   0.000   0.055
   35        0.015   0.144   0.000   0.159
   36        0.004   0.047   0.000   0.051
   37        0.004   0.079   0.000   0.083
   38       -0.001   0.034  -0.000   0.033
   39        0.007   0.089   0.000   0.096
   40        0.017   0.165   0.000   0.183
   41        0.005   0.046   0.000   0.051
   42        0.007   0.102   0.000   0.109
   43        0.006   0.034   0.000   0.041
   44        0.006   0.010   0.000   0.016
   45        0.007   0.027   0.000   0.034
   46        0.004  -0.017  -0.000  -0.014
   47        0.019   0.164   0.000   0.184
   48        0.011   0.075   0.000   0.086
   49        0.007   0.063   0.000   0.069
   50        0.017   0.181   0.000   0.198
   51        0.017   0.136   0.000   0.154
   52        0.004   0.075   0.000   0.079
   53        0.019   0.153   0.000   0.172
   54        0.015   0.126   0.000   0.141
   55        0.000   0.022  -0.000   0.022
   56        0.011   0.086   0.000   0.097
   57        0.010   0.105   0.000   0.115
   58        0.007   0.025   0.000   0.033
   59        0.008   0.080   0.000   0.088
   60        0.005   0.019   0.000   0.024
   61        0.018   0.184   0.000   0.203
   62        0.012   0.100   0.000   0.112
   63        0.014   0.116   0.000   0.130
   64        0.007   0.046   0.000   0.053
tot           0.42    2.70   16.71   19.83