 vasp.5.4.4.18Apr17-6-g9f103f2a35 (build May 12 2020 04:58:55) complex

 MD_VERSION_INFO: Compiled 2020-05-12T11:58:55-UTC in devlin.sd.materialsdesign.
 com:/home/medea2/data/build/wwolf/vasp-gpu5.4.4/13047/x86_64/src/src/build/std
 from svn 13047

 executed on                        Lin64 date 2023.03.23  18:02:33

 INCAR:
 POTCAR:    PAW_PBE Ni 02Aug2007
 POTCAR:    PAW_PBE O 08Apr2002

 POTCAR:    PAW_PBE Ni 02Aug2007

 POTCAR:    PAW_PBE O 08Apr2002

 Optimization of the real space projectors (new method)

 maximal supplied QI-value         = 16.25
 optimisation between [QCUT,QGAM] = [ 11.38, 22.75] = [ 36.24,144.96] Ry
 Optimized for a Real-space Cutoff    1.47 Angstroem

   l    n(q)    QCUT    max X(q) W(low)/X(q) W(high)/X(q)  e(spline)
   2      9    11.376    60.317    0.17E-03    0.16E-04    0.16E-06
   2      9    11.376    55.921    0.17E-03    0.16E-04    0.17E-06
   0     10    11.376    51.690    0.45E-04    0.60E-04    0.21E-06
   0     10    11.376    30.015    0.37E-04    0.55E-04    0.19E-06
   1     10    11.376    18.849    0.83E-04    0.11E-03    0.92E-07
   1     10    11.376    14.624    0.69E-04    0.92E-04    0.82E-07
 Optimization of the real space projectors (new method)

 maximal supplied QI-value         = 24.76
 optimisation between [QCUT,QGAM] = [ 11.39, 22.77] = [ 36.31,145.25] Ry
 Optimized for a Real-space Cutoff    1.10 Angstroem

   l    n(q)    QCUT    max X(q) W(low)/X(q) W(high)/X(q)  e(spline)
   0      7    11.387    20.381    0.22E-03    0.48E-03    0.18E-06
   0      7    11.387    15.268    0.22E-03    0.52E-03    0.19E-06
   1      7    11.387     5.964    0.22E-03    0.73E-03    0.24E-06
   1      7    11.387     5.382    0.19E-03    0.60E-03    0.21E-06

  PAW_PBE Ni 02Aug2007                  :
  PAW_PBE O 08Apr2002                   :

 POSCAR: NiO_Fm-3m_scale_1_025_disp_0_10_round_1
  positions in direct lattice
 exchange correlation table for  LEXCH =       14
   RHO(1)=    0.500       N(1)  =     2000
   RHO(2)=  100.500       N(2)  =     4000

 ion  position               nearest neighbor table
   1  0.003  0.012  0.990-  34 1.91  35 1.94  36 2.23  40 2.24  50 2.26  43 2.31   6 2.74   3 2.76
                             2 2.82   4 2.82   7 2.89  20 3.06
   2  0.993  0.233  0.241-  36 1.69  35 1.81  49 2.06  39 2.12  44 2.12  33 2.33   3 2.72   1 2.82
                            24 2.99  20 3.00   4 3.01   8 3.02   5 3.03   9 3.04  19 3.06  11 3.07
   3  0.237  0.022  0.220-  33 1.77  34 1.96  38 2.08  52 2.11  36 2.27  41 2.47   4 2.59  18 2.70
                             2 2.72  17 2.74   1 2.76   8 2.99  12 3.01
   4  0.254  0.233  0.997-  34 1.86  51 1.91  42 2.03  35 2.05  33 2.09  37 2.21   3 2.59  17 2.73
                             1 2.82  22 2.84  25 2.87  18 2.90  11 2.92   6 2.98   7 2.99   2 3.01
   5  0.981  0.977  0.494-  40 1.96  54 1.98  38 2.04  47 2.08  36 2.10  39 2.19  14 2.80  19 2.87
                            32 2.90  10 2.90  23 2.91  16 2.94   2 3.03  24 3.07
   6  0.997  0.238  0.755-  48 2.01  40 2.04  37 2.11  39 2.22  35 2.30  53 2.34   1 2.74  31 2.96
                             4 2.98  23 3.01   7 3.04   8 3.07
   7  0.247  0.978  0.751-  56 1.95  34 2.02  45 2.09  40 2.15  37 2.18  38 2.42  30 2.74  17 2.88
                             1 2.89  14 2.98   4 2.99  16 3.03   6 3.04  12 3.05  21 3.06
   8  0.249  0.249  0.493-  37 2.04  39 2.07  33 2.10  38 2.11  55 2.12  46 2.13  29 2.57  18 2.84
                            11 2.92  13 2.93  15 2.99   3 2.99   2 3.02  21 3.04  22 3.06   6 3.07
   9  0.001  0.512  0.013-  44 1.76  43 1.91  42 2.10  35 2.30  58 2.32  48 2.44  12 2.77  10 2.77
                            28 2.80  11 2.88  27 2.96   2 3.04  14 3.08
  10  0.020  0.724  0.263-  47 1.79  41 1.99  44 2.07  43 2.17  57 2.36  16 2.60  13 2.68   9 2.77
                            12 2.84  11 2.86   5 2.90  27 3.07
  11  0.258  0.483  0.237-  60 1.85  42 1.97  46 2.06  41 2.07  33 2.15  44 2.24  26 2.80  12 2.80
                            25 2.81  29 2.84  10 2.86   9 2.88  18 2.91   8 2.92   4 2.92  16 2.99
  12  0.247  0.729  0.014-  41 1.77  59 2.03  43 2.04  42 2.15  45 2.30  34 2.42   9 2.77  11 2.80
                            10 2.84  26 2.88  25 2.93  30 2.97  17 2.98  15 3.01   3 3.01   7 3.05
  13  0.009  0.501  0.490-  46 1.90  47 1.96  48 2.00  39 2.24  44 2.29  62 2.49  10 2.68  16 2.74
                            14 2.82  15 2.83  31 2.91   8 2.93  11 2.99
  14  0.989  0.738  0.725-  45 2.02  47 2.14  40 2.19  48 2.22  61 2.25  43 2.37   5 2.80  13 2.82
                            32 2.85  31 2.85  15 2.87  16 2.90   7 2.98  28 3.05   9 3.08
  15  0.243  0.511  0.731-  45 1.86  64 1.92  48 2.02  46 2.12  37 2.32  42 2.32  30 2.67  16 2.82
                            13 2.83  29 2.85  14 2.87  22 2.96   8 2.99  12 3.01  25 3.08
  16  0.234  0.737  0.485-  46 1.99  63 2.11  47 2.16  45 2.17  41 2.20  38 2.24  10 2.60  13 2.74
                            26 2.79  15 2.82  30 2.88  14 2.90   5 2.94  11 2.99   7 3.03
  17  0.477  0.997  0.002-  52 2.04  51 2.06  34 2.10  59 2.18  50 2.18  56 2.35   4 2.73   3 2.74
                            18 2.84   7 2.88  20 2.95  12 2.98  22 3.04  19 3.07
  18  0.484  0.223  0.253-  33 1.81  52 1.87  60 2.04  55 2.19  51 2.20  49 2.24   3 2.70  29 2.79
                            21 2.81   8 2.84  17 2.84  24 2.87   4 2.90  11 2.91  20 2.91  19 2.99
  19  0.737  0.975  0.256-  54 1.80  36 2.02  57 2.09  52 2.13  49 2.27  50 2.31  21 2.82   5 2.87
                            32 2.89  24 2.97  18 2.99  26 3.00   2 3.06  17 3.07
  20  0.725  0.244  0.007-  58 1.96  49 1.98  50 2.00  51 2.06  35 2.43  53 2.52  25 2.80  22 2.85
                            18 2.91  27 2.92  17 2.95   2 3.00   1 3.06
  21  0.503  0.994  0.494-  56 1.95  63 2.02  54 2.08  55 2.10  52 2.11  38 2.39  23 2.74  18 2.81
                            19 2.82  32 2.85  24 2.87  26 2.97  30 2.98   8 3.04   7 3.06
  22  0.492  0.265  0.762-  51 1.96  53 2.00  64 2.08  37 2.10  55 2.11  56 2.22  25 2.69  29 2.76
                             4 2.84  20 2.85  31 2.94  15 2.96  23 2.99  17 3.04   8 3.06
  23  0.729  0.002  0.728-  53 2.01  56 2.14  61 2.15  50 2.16  54 2.19  40 2.24  21 2.74  32 2.87
                            24 2.90   5 2.91  22 2.99   6 3.01
  24  0.734  0.244  0.484-  62 1.87  53 1.89  55 1.99  49 2.06  54 2.14  39 2.27  29 2.79  21 2.87
                            18 2.87  23 2.90  31 2.91  19 2.97  27 2.99   2 2.99   5 3.07
  25  0.490  0.480  0.998-  60 1.95  51 2.01  58 2.01  42 2.04  59 2.19  64 2.48  22 2.69  20 2.80
                            11 2.81   4 2.87  27 2.89  28 2.93  12 2.93  18 3.05  26 3.06  15 3.08
  26  0.481  0.728  0.264-  63 1.85  41 1.96  59 2.22  57 2.24  60 2.24  52 2.32  16 2.79  11 2.80
                            27 2.86  12 2.88  32 2.94  21 2.97  19 3.00  29 3.02  25 3.06
  27  0.733  0.501  0.239-  62 1.92  57 1.93  58 1.97  49 2.17  60 2.19  44 2.20  28 2.78  26 2.86
                            25 2.89  20 2.92   9 2.96  24 2.99  32 3.05  10 3.07  29 3.07
  28  0.742  0.718  0.990-  57 1.93  61 2.03  58 2.04  59 2.16  43 2.23  50 2.44  27 2.78   9 2.80
                            25 2.93  31 2.95  14 3.05
  29  0.476  0.452  0.492-  55 1.79  64 1.85  62 2.04  46 2.08  60 2.22   8 2.57  22 2.76  24 2.79
                            18 2.79  11 2.84  15 2.85  26 3.02  27 3.07  31 3.08
  30  0.465  0.738  0.736-  64 1.99  45 2.00  63 2.15  61 2.18  59 2.23  56 2.25  15 2.67   7 2.74
                            16 2.88  32 2.94  12 2.97  21 2.98
  31  0.756  0.491  0.724-  48 2.11  53 2.14  61 2.19  62 2.23  58 2.39  64 2.42  32 2.80  14 2.85
                            13 2.91  24 2.91  22 2.94  28 2.95   6 2.96  29 3.08
  32  0.729  0.743  0.508-  61 2.05  63 2.09  47 2.12  54 2.13  62 2.37  57 2.45  31 2.80  14 2.85
                            21 2.85  23 2.87  19 2.89   5 2.90  26 2.94  30 2.94  27 3.05
  33  0.269  0.228  0.245-   3 1.77  18 1.81   4 2.09   8 2.10  11 2.15   2 2.33
  34  0.229  0.014  0.988-   4 1.86   1 1.91   3 1.96   7 2.02  17 2.10  12 2.42
  35  0.013  0.239  0.027-   2 1.81   1 1.94   4 2.05   6 2.30   9 2.30  20 2.43
  36  0.969  0.034  0.252-   2 1.69  19 2.02   5 2.10   1 2.23   3 2.27
  37  0.246  0.236  0.735-   8 2.04  22 2.10   6 2.11   7 2.18   4 2.21  15 2.32
  38  0.221  0.001  0.465-   5 2.04   3 2.08   8 2.11  16 2.24  21 2.39   7 2.42
  39  0.003  0.236  0.492-   8 2.07   2 2.12   5 2.19   6 2.22  13 2.24  24 2.27
  40  0.994  0.997  0.725-   5 1.96   6 2.04   7 2.15  14 2.19  23 2.24   1 2.24
  41  0.253  0.729  0.225-  12 1.77  26 1.96  10 1.99  11 2.07  16 2.20   3 2.47
  42  0.248  0.474  0.004-  11 1.97   4 2.03  25 2.04   9 2.10  12 2.15  15 2.32
  43  0.006  0.739  0.006-   9 1.91  12 2.04  10 2.17  28 2.23   1 2.31  14 2.37
  44  0.993  0.484  0.219-   9 1.76  10 2.07   2 2.12  27 2.20  11 2.24  13 2.29
  45  0.228  0.731  0.742-  15 1.86  30 2.00  14 2.02   7 2.09  16 2.17  12 2.30
  46  0.235  0.500  0.480-  13 1.90  16 1.99  11 2.06  29 2.08  15 2.12   8 2.13
  47  0.978  0.731  0.472-  10 1.79  13 1.96   5 2.08  32 2.12  14 2.14  16 2.16
  48  0.006  0.474  0.725-  13 2.00   6 2.01  15 2.02  31 2.11  14 2.22   9 2.44
  49  0.749  0.244  0.240-  20 1.98  24 2.06   2 2.06  27 2.17  18 2.24  19 2.27
  50  0.734  0.008  0.984-  20 2.00  23 2.16  17 2.18   1 2.26  19 2.31  28 2.44
  51  0.481  0.242  0.992-   4 1.91  22 1.96  25 2.01  20 2.06  17 2.06  18 2.20
  52  0.485  0.002  0.244-  18 1.87  17 2.04  21 2.11   3 2.11  19 2.13  26 2.32
  53  0.722  0.240  0.708-  24 1.89  22 2.00  23 2.01  31 2.14   6 2.34  20 2.52
  54  0.749  0.991  0.469-  19 1.80   5 1.98  21 2.08  32 2.13  24 2.14  23 2.19
  55  0.499  0.242  0.512-  29 1.79  24 1.99  21 2.10  22 2.11   8 2.12  18 2.19
  56  0.475  0.005  0.723-  21 1.95   7 1.95  23 2.14  22 2.22  30 2.25  17 2.35
  57  0.743  0.730  0.218-  28 1.93  27 1.93  19 2.09  26 2.24  10 2.36  32 2.45
  58  0.728  0.477  0.006-  20 1.96  27 1.97  25 2.01  28 2.04   9 2.32  31 2.39
  59  0.487  0.739  0.000-  12 2.03  28 2.16  17 2.18  25 2.19  26 2.22  30 2.23
  60  0.476  0.464  0.229-  11 1.85  25 1.95  18 2.04  27 2.19  29 2.22  26 2.24
  61  0.723  0.748  0.752-  28 2.03  32 2.05  23 2.15  30 2.18  31 2.19  14 2.25
  62  0.716  0.465  0.463-  24 1.87  27 1.92  29 2.04  31 2.23  32 2.37  13 2.49
  63  0.483  0.755  0.482-  26 1.85  21 2.02  32 2.09  16 2.11  30 2.15
  64  0.469  0.504  0.706-  29 1.85  15 1.92  30 1.99  22 2.08  31 2.42  25 2.48

  LATTYP: Found a simple cubic cell.
 ALAT       =     8.4253872500

  Lattice vectors:

 A1 = (   8.4253872500,   0.0000000000,   0.0000000000)
 A2 = (   0.0000000000,   8.4253872500,   0.0000000000)
 A3 = (   0.0000000000,   0.0000000000,   8.4253872500)

Analysis of symmetry for initial positions (statically):
 Subroutine PRICEL returns:
 Original cell was already a primitive cell.

 Routine SETGRP: Setting up the symmetry group for a
 simple cubic supercell.

 Subroutine GETGRP returns: Found  1 space group operations
 (whereof  1 operations were pure point group operations)
 out of a pool of 48 trial point group operations.

The static configuration has the point symmetry C_1 .

[...]
   -.119E+03 -.606E+02 0.588E+02   0.120E+03 0.614E+02 -.586E+02   0.883E+00 -.498E+00 -.179E+01   0.453E-01 -.323E-01 0.565E-01
   -.557E+02 -.483E+02 -.241E+02   0.564E+02 0.483E+02 0.253E+02   -.402E+00 -.132E+01 -.114E+01   0.748E-01 0.995E-02 -.647E-02
   -.479E+02 -.132E+03 0.104E+03   0.468E+02 0.133E+03 -.103E+03   0.897E+00 0.551E+00 -.134E+01   0.111E+00 -.912E-01 0.520E-01
   -.682E+02 -.188E+03 0.199E+02   0.707E+02 0.189E+03 -.184E+02   -.209E+01 0.139E+01 -.288E+01   0.131E-01 -.920E-05 -.362E-01
   -.123E+03 -.679E+02 -.767E+02   0.125E+03 0.672E+02 0.773E+02   -.763E+00 0.140E+01 -.251E+00   0.376E-01 -.959E-01 -.678E-01
   -.240E+02 -.474E+02 -.910E+02   0.254E+02 0.471E+02 0.903E+02   -.136E+01 0.185E+00 0.788E+00   0.542E-01 0.108E-01 0.427E-02
   -.113E+02 0.770E+02 -.108E+02   0.107E+02 -.772E+02 0.123E+02   0.619E+00 -.204E+00 -.191E+01   -.151E-01 -.869E-02 -.394E-01
   0.930E+02 -.575E+02 -.419E+02   -.100E+03 0.667E+02 0.434E+02   0.592E+01 -.667E+01 -.118E+01   0.246E-02 0.245E-01 0.509E-01
   0.137E+02 0.142E+03 0.673E+02   -.122E+02 -.150E+03 -.712E+02   -.666E+00 0.674E+01 0.371E+01   -.825E-01 -.178E-01 0.111E+00
   0.992E+02 -.687E+02 0.137E+03   -.101E+03 0.767E+02 -.143E+03   0.236E+01 -.776E+01 0.485E+01   -.373E-01 0.105E+00 0.409E-01
   0.155E+02 0.173E+03 0.343E+02   -.157E+02 -.187E+03 -.341E+02   0.708E+00 0.996E+01 -.302E+00   -.262E-01 0.135E-01 -.631E-02
   0.469E+02 0.736E+01 -.105E+02   -.473E+02 -.815E+01 0.112E+02   0.360E+00 0.827E+00 -.492E+00   0.172E-01 0.160E+00 -.505E-01
   -.179E+02 0.504E+02 -.552E+02   0.206E+02 -.504E+02 0.569E+02   -.265E+01 -.743E+00 -.155E+01   0.570E-01 0.175E-01 -.782E-01
   0.424E+02 -.137E+02 -.549E+02   -.444E+02 0.121E+02 0.580E+02   0.154E+01 0.199E+01 -.371E+01   -.131E-01 0.631E-01 -.480E-01
   0.396E+02 0.308E+02 -.672E+02   -.402E+02 -.309E+02 0.694E+02   0.768E+00 -.319E+00 -.160E+01   -.121E+00 -.275E-01 -.143E-02
   0.830E+01 -.103E+03 -.417E+02   -.763E+01 0.108E+03 0.487E+02   -.784E+00 -.477E+01 -.542E+01   -.136E-02 -.344E-01 -.297E-01
   0.497E+02 -.277E+02 0.118E+03   -.522E+02 0.272E+02 -.124E+03   0.309E+01 0.485E-01 0.547E+01   -.137E+00 0.577E-01 -.182E-01
   0.843E+02 -.113E+03 0.691E+02   -.879E+02 0.123E+03 -.709E+02   0.382E+01 -.842E+01 0.158E+01   -.144E-01 -.127E+00 0.331E-02
   0.549E+02 0.204E+02 -.711E+02   -.575E+02 -.242E+02 0.801E+02   0.271E+01 0.287E+01 -.623E+01   -.567E-01 0.380E-02 -.821E-01
   0.378E+02 -.766E+02 -.566E+02   -.410E+02 0.817E+02 0.597E+02   0.322E+01 -.355E+01 -.286E+01   -.390E-01 -.197E+00 0.826E-02
   0.254E+01 0.270E+01 -.169E+02   0.658E-01 -.331E+01 0.169E+02   -.206E+01 0.514E+00 -.461E+00   -.257E-01 -.590E-02 0.309E-01
   0.747E+02 -.335E+02 -.553E+02   -.790E+02 0.356E+02 0.603E+02   0.352E+01 -.151E+01 -.301E+01   -.251E-01 -.709E-01 0.107E-01
   0.711E+02 0.120E+01 -.920E+02   -.712E+02 -.219E+01 0.964E+02   -.466E+00 0.133E+01 -.394E+01   0.382E-01 0.587E-01 0.299E-01
   -.123E+02 0.120E+02 0.172E+02   0.133E+02 -.129E+02 -.163E+02   -.206E+01 0.115E+01 -.360E+00   -.855E-03 0.649E-01 0.235E-01
   -.452E+02 0.969E+02 0.285E+02   0.465E+02 -.103E+03 -.278E+02   -.121E+01 0.610E+01 -.586E+00   0.744E-01 -.118E-01 -.152E-03
   -.823E+02 0.294E+02 0.347E+02   0.852E+02 -.304E+02 -.301E+02   -.236E+01 0.630E+00 -.473E+01   0.391E-01 0.628E-01 0.149E-01
   -.421E+02 0.135E+03 0.809E+01   0.414E+02 -.143E+03 -.724E+01   0.108E+01 0.750E+01 -.721E+00   0.260E-01 0.110E-01 0.155E+00
   -.963E+02 -.151E+02 -.117E+03   0.992E+02 0.158E+02 0.121E+03   -.219E+01 -.192E+00 -.290E+01   -.146E-01 0.366E-02 -.372E-01
   -.150E+02 0.235E+02 -.672E+02   0.158E+02 -.215E+02 0.729E+02   -.815E+00 -.187E+01 -.365E+01   -.847E-01 0.115E-01 -.464E-03
   0.363E+01 0.923E+02 -.400E+02   -.358E+01 -.101E+03 0.450E+02   -.746E+00 0.634E+01 -.539E+01   0.231E-01 -.502E-01 -.307E-01
   -.362E+02 0.375E+02 -.641E+02   0.387E+02 -.342E+02 0.682E+02   -.212E+01 -.408E+01 -.355E+01   0.150E+00 0.230E-01 -.150E+00
   -.302E+02 -.700E+02 -.123E+02   0.339E+02 0.739E+02 0.167E+02   -.399E+01 -.342E+01 -.356E+01   0.773E-02 -.845E-01 -.519E-02
   -.744E+02 -.216E+02 0.124E+03   0.787E+02 0.211E+02 -.128E+03   -.475E+01 0.674E+00 0.401E+01   0.131E+00 0.360E-01 0.786E-01
   -.744E+02 -.443E+02 0.457E+02   0.786E+02 0.457E+02 -.455E+02   -.477E+01 -.143E+01 -.430E+00   0.142E-01 -.664E-01 0.369E-01
   -.100E+03 -.607E+02 -.247E+02   0.107E+03 0.617E+02 0.267E+02   -.526E+01 -.939E+00 -.113E+01   0.532E-01 0.403E-02 0.728E-01
   -.165E+02 -.884E+01 -.530E+02   0.140E+02 0.111E+02 0.561E+02   0.269E+01 -.259E+01 -.342E+01   0.384E-01 -.119E-01 0.945E-03
   -.771E+02 -.114E+03 -.539E+02   0.799E+02 0.120E+03 0.565E+02   -.257E+01 -.481E+01 -.155E+01   0.229E-01 0.298E-02 -.747E-01
   -.261E+02 0.214E+02 -.563E+02   0.255E+02 -.256E+02 0.623E+02   0.922E+00 0.452E+01 -.473E+01   0.287E-01 0.350E-01 -.348E-01
   -.110E+03 -.500E+02 -.922E+02   0.118E+03 0.517E+02 0.973E+02   -.710E+01 -.163E+01 -.358E+01   -.476E-01 -.722E-02 -.268E-01
   0.263E+02 0.437E+01 0.860E+02   -.213E-12 -.711E-13 0.853E-13   -.262E+02 -.436E+01 -.860E+02   -.932E-01 -.149E-01 0.596E-01

 POSITION                                       TOTAL-FORCE (eV/Angst)
      0.02283      0.10269      8.34143        -1.703798     -1.289146     -0.140747
      8.36627      1.95928      2.03274        -0.219346      4.087934      1.860277
      1.99298      0.18379      1.84965        -0.811577     -3.608959      1.610083
      2.14183      1.96290      8.40216        -1.406457      2.310151     -0.717395
      8.26762      8.22776      4.16328         1.016415      1.412072     -0.879975
      8.39630      2.00362      6.36318        -0.047077      0.210509     -0.597935
      2.07757      8.24140      6.32568        -0.582439      0.742701     -0.829116
      2.09380      2.09495      4.15049        -0.537485     -1.039496      0.545528
      0.01034      4.31179      0.10942        -0.075139     -0.592616     -2.803286
      0.16624      6.10217      2.21709        -0.521488      0.331566     -2.123194
      2.17279      4.07246      2.00054        -1.901467     -0.062038      0.351000
      2.08375      6.14434      0.11900        -0.341136      0.370682     -2.672398
      0.07689      4.22283      4.12664        -1.223008     -1.335379      0.055603
      8.32866      6.21412      6.10983        -0.367176      0.298799      0.956821
      2.04650      4.30670      6.15865        -0.560057     -2.061747      0.540938
      1.96986      6.20757      4.08219         0.631963      1.009271      0.229991
      4.01830      8.40417      0.01928         1.110967     -0.904322     -0.436764
      4.07768      1.88221      2.13138         2.455848      1.453219     -0.257142
      6.20945      8.21183      2.15701        -0.018510      0.165651     -2.630044
      6.10618      2.05978      0.05602         0.614744     -0.728209     -0.437661
      4.24027      8.37144      4.16294        -1.150948      0.058292     -0.153672
      4.14822      2.23503      6.41628        -0.248986     -0.951407     -0.811715
      6.14042      0.02087      6.13483         0.134521     -0.499130      1.347712
      6.18022      2.05807      4.07745         1.106311     -1.051053     -0.919431
      4.12636      4.04262      8.40852         0.100959      0.775773     -0.506157
      4.05576      6.12967      2.22385         1.072075      0.255646     -1.527500
      6.17415      4.22205      2.00985         0.284334     -1.345386      0.055804
      6.25212      6.05070      8.33942        -0.079584      1.150342     -0.371366
      4.00985      3.80496      4.14942         0.408231      2.697089     -1.356251
      3.91521      6.21825      6.20283         1.276992      0.568315      0.295832
      6.36892      4.14067      6.09800         0.043965     -0.048114      0.155476
      6.14526      6.25720      4.28267        -0.010705     -0.400783     -0.378182
      2.27027      1.92151      2.06261        -1.420909      2.555855      0.348138
      1.93036      0.12023      8.32039         0.729449     -1.193670     -0.053975
      0.10566      2.01300      0.22948         0.104319      0.425654     -1.897368
      8.16594      0.28228      2.12306         0.468769     -4.038289     -0.141849
      2.07667      1.99163      6.18958        -0.093044      0.194906      0.181923
      1.86102      0.01141      3.92141         0.195203     -0.700814      0.109016
      0.02431      1.98442      4.14641        -0.437267      0.472977     -0.683155
      8.37509      8.40281      6.10836         0.073662     -0.481819      0.607214
      2.12787      6.14271      1.89270        -0.114851      0.250293      1.577310
      2.08623      3.99390      0.03136         0.393918     -0.395075     -0.438364
      0.04720      6.22270      0.05054         0.210964      0.763065     -0.207713
      8.36274      4.07531      1.84838         0.027045     -0.982531      2.750720
      1.91718      6.15540      6.24828        -0.074424      1.373139      0.333754
      1.97650      4.21456      4.04537         0.522110     -0.102921     -0.488671
      8.23623      6.15518      3.97406        -0.776481      0.546827      1.932734
      0.04983      3.99521      6.11127        -0.486572      0.401484      0.470509
      6.30734      2.05465      2.02520        -1.122539      0.306878      0.607936
      6.18819      0.06720      8.29076         0.173107      0.245712      0.048721
      4.04977      2.03805      8.35955         0.615078     -0.289106     -0.150021
      4.09034      0.01776      2.05820         0.386180     -1.132941      0.281085
      6.08719      2.02123      5.96287         0.666065      0.512370      1.100389
      6.30689      8.35120      3.95395        -0.106441      0.198119      1.986723
      4.20657      2.03674      4.31270        -0.675279     -2.555423     -0.390809
      4.00091      0.04300      6.09182         0.452435     -0.716168      0.429278
      6.25799      6.14712      1.83913        -0.310184      0.467321      0.765230
      6.13599      4.01947      0.04876        -0.269321      0.230704     -0.533108
      4.10575      6.22986      0.00191        -0.494267     -0.044952     -0.143955
      4.01216      3.91266      1.92836         1.575123      0.077349      0.901160
      6.08741      6.30159      6.33430         0.223061     -0.394771     -0.398344
      6.03664      3.91672      3.90360         0.206932      1.590659      0.905063
      4.07039      6.35748      4.05957         0.306364      0.360608      1.252206
      3.95411      4.24795      5.94798         0.600850      0.074332      1.483091
    total drift:                                0.005145     -0.007330      0.018441

  FREE ENERGIE OF THE ION-ELECTRON SYSTEM (eV)
  free  energy   TOTEN  =      -388.9863337416 eV

  energy  without entropy=     -388.9468219233  energy(sigma->0) =     -388.96657783

volume of typ            1:    34.1 %

volume of typ            2:     8.7 %

total charge

# of ion       s       p       d       tot
    1        0.198   0.195   7.955   8.348
    2        0.260   0.303   7.956   8.519
    3        0.220   0.243   7.981   8.444
    4        0.226   0.263   7.958   8.448
    5        0.209   0.230   7.925   8.363
    6        0.183   0.173   7.933   8.290
    7        0.193   0.194   7.955   8.342
    8        0.195   0.204   7.929   8.329
    9        0.222   0.232   7.971   8.424
   10        0.215   0.225   7.980   8.420
   11        0.219   0.242   7.962   8.423
   12        0.217   0.226   7.987   8.431
   13        0.203   0.213   7.962   8.378
   14        0.171   0.161   7.971   8.303
   15        0.214   0.232   7.965   8.412
   16        0.183   0.183   7.980   8.346
   17        0.181   0.176   7.978   8.335
   18        0.230   0.260   7.974   8.464
   19        0.212   0.223   7.929   8.363
   20        0.205   0.203   7.939   8.348
   21        0.200   0.209   7.956   8.366
   22        0.208   0.222   7.924   8.355
   23        0.182   0.176   7.929   8.287
   24        0.225   0.256   7.935   8.417
   25        0.203   0.214   7.980   8.396
   26        0.203   0.208   7.953   8.364
   27        0.215   0.235   7.924   8.374
   28        0.194   0.198   7.922   8.314
   29        0.234   0.266   7.979   8.479
   30        0.186   0.190   7.950   8.326
   31        0.167   0.145   7.966   8.278
   32        0.173   0.166   8.006   8.345
   33        1.267   2.802   0.012   4.081
   34        1.258   2.795   0.010   4.064
   35        1.269   2.761   0.008   4.037
   36        1.273   2.769   0.010   4.052
   37        1.268   2.730   0.005   4.002
   38        1.271   2.716   0.004   3.992
   39        1.274   2.713   0.004   3.991
   40        1.262   2.743   0.006   4.011
   41        1.260   2.791   0.010   4.061
   42        1.269   2.750   0.007   4.025
   43        1.266   2.732   0.006   4.003
   44        1.265   2.769   0.008   4.042
   45        1.257   2.773   0.008   4.039
   46        1.253   2.790   0.008   4.052
   47        1.255   2.792   0.010   4.057
   48        1.257   2.754   0.006   4.017
   49        1.272   2.739   0.006   4.017
   50        1.263   2.720   0.004   3.987
   51        1.262   2.781   0.009   4.053
   52        1.265   2.760   0.007   4.033
   53        1.261   2.761   0.007   4.029
   54        1.258   2.787   0.009   4.055
   55        1.269   2.777   0.010   4.056
   56        1.266   2.741   0.006   4.013
   57        1.265   2.748   0.006   4.019
   58        1.258   2.765   0.007   4.030
   59        1.269   2.719   0.005   3.993
   60        1.267   2.770   0.008   4.045
   61        1.259   2.737   0.005   4.002
   62        1.269   2.752   0.007   4.028
   63        1.262   2.759   0.007   4.028
   64        1.264   2.772   0.009   4.044
tot          47.00   95.13  254.85  396.99

magnetization (x)

# of ion       s       p       d       tot
    1        0.005   0.005   0.967   0.976
    2        0.007   0.008   0.401   0.416
    3        0.000  -0.004  -1.034  -1.038
    4       -0.001   0.004  -0.938  -0.934
    5       -0.001   0.004  -0.984  -0.980
    6        0.008   0.006   1.281   1.295
    7        0.005   0.005   0.918   0.929
    8       -0.000  -0.002   1.226   1.223
    9        0.007   0.013   0.943   0.963
   10        0.011   0.010   1.165   1.186
   11        0.001   0.003   1.178   1.181
   12        0.007   0.003   0.285   0.295
   13        0.002   0.008   1.186   1.195
   14        0.005   0.002   1.288   1.296
   15        0.009   0.008   0.862   0.878
   16        0.004   0.002   1.183   1.189
   17        0.007   0.006   0.937   0.950
   18       -0.003   0.001  -0.909  -0.910
   19        0.003   0.004   1.232   1.239
   20        0.007   0.006   1.244   1.256
   21        0.005   0.006   0.669   0.679
   22        0.002   0.001   1.246   1.248
   23        0.008   0.007   1.292   1.306
   24       -0.001   0.003  -0.899  -0.897
   25        0.005   0.006   0.580   0.591
   26        0.004   0.003   1.196   1.204
   27       -0.002   0.003  -1.031  -1.030
   28        0.007   0.004   1.198   1.208
   29        0.005   0.013   0.902   0.921
   30        0.002   0.003  -1.174  -1.169
   31        0.007   0.003   1.237   1.247
   32        0.004   0.001   0.029   0.033
   33       -0.003  -0.069  -0.000  -0.072
   34        0.007   0.047   0.000   0.055
   35        0.006   0.072   0.000   0.078
   36        0.003   0.061   0.000   0.064
   37        0.011   0.113   0.000   0.124
   38        0.003   0.063   0.000   0.066
   39        0.003   0.041   0.000   0.044
   40        0.011   0.115   0.000   0.126
   41        0.014   0.145   0.000   0.159
   42        0.011   0.121   0.000   0.132
   43        0.012   0.134   0.000   0.146
   44        0.011   0.092   0.000   0.103
   45        0.010   0.069   0.000   0.079
   46        0.026   0.207   0.000   0.233
   47        0.012   0.116   0.000   0.128
   48        0.019   0.176   0.000   0.195
   49        0.006   0.105   0.000   0.111
   50        0.016   0.177   0.000   0.194
   51        0.007   0.074   0.000   0.082
   52        0.003   0.022   0.000   0.025
   53        0.012   0.131   0.000   0.143
   54        0.012   0.132   0.000   0.145
   55        0.005   0.017   0.000   0.022
   56        0.011   0.100   0.000   0.112
   57        0.006   0.105   0.000   0.110
   58        0.011   0.090   0.000   0.102
   59        0.007   0.033   0.000   0.040
   60        0.008   0.079   0.000   0.087
   61        0.007   0.055   0.000   0.063
   62        0.001   0.060  -0.000   0.061
   63        0.005   0.065   0.000   0.070
   64        0.009   0.100   0.000   0.110
tot           0.41    2.99   17.68   21.09