 vasp.5.4.4.18Apr17-6-g9f103f2a35 (build May 12 2020 04:58:55) complex

 MD_VERSION_INFO: Compiled 2020-05-12T11:58:55-UTC in devlin.sd.materialsdesign.
 com:/home/medea2/data/build/wwolf/vasp-gpu5.4.4/13047/x86_64/src/src/build/std
 from svn 13047

 executed on                        Lin64 date 2023.03.23  18:16:46

 INCAR:
 POTCAR:    PAW_PBE Ni 02Aug2007
 POTCAR:    PAW_PBE O 08Apr2002

 POTCAR:    PAW_PBE Ni 02Aug2007

 POTCAR:    PAW_PBE O 08Apr2002

 Optimization of the real space projectors (new method)

 maximal supplied QI-value         = 16.25
 optimisation between [QCUT,QGAM] = [ 11.38, 22.75] = [ 36.24,144.96] Ry
 Optimized for a Real-space Cutoff    1.47 Angstroem

   l    n(q)    QCUT    max X(q) W(low)/X(q) W(high)/X(q)  e(spline)
   2      9    11.376    60.317    0.17E-03    0.16E-04    0.16E-06
   2      9    11.376    55.921    0.17E-03    0.16E-04    0.17E-06
   0     10    11.376    51.690    0.45E-04    0.60E-04    0.21E-06
   0     10    11.376    30.015    0.37E-04    0.55E-04    0.19E-06
   1     10    11.376    18.849    0.83E-04    0.11E-03    0.92E-07
   1     10    11.376    14.624    0.69E-04    0.92E-04    0.82E-07
 Optimization of the real space projectors (new method)

 maximal supplied QI-value         = 24.76
 optimisation between [QCUT,QGAM] = [ 11.39, 22.77] = [ 36.31,145.25] Ry
 Optimized for a Real-space Cutoff    1.10 Angstroem

   l    n(q)    QCUT    max X(q) W(low)/X(q) W(high)/X(q)  e(spline)
   0      7    11.387    20.381    0.22E-03    0.48E-03    0.18E-06
   0      7    11.387    15.268    0.22E-03    0.52E-03    0.19E-06
   1      7    11.387     5.964    0.22E-03    0.73E-03    0.24E-06
   1      7    11.387     5.382    0.19E-03    0.60E-03    0.21E-06

  PAW_PBE Ni 02Aug2007                  :
  PAW_PBE O 08Apr2002                   :

 POSCAR: NiO_Fm-3m_scale_1_000_disp_0_20_round_1
  positions in direct lattice
 exchange correlation table for  LEXCH =       14
   RHO(1)=    0.500       N(1)  =     2000
   RHO(2)=  100.500       N(2)  =     4000

 ion  position               nearest neighbor table
   1  0.005  0.992  0.986-  34 1.81  40 1.86  43 2.03  50 2.10  35 2.11  36 2.46   4 2.50  12 2.74
                            23 2.75  14 2.89   2 2.92   6 2.97  10 3.03  28 3.05
   2  0.990  0.235  0.244-  36 1.69  35 1.91  44 2.03  33 2.14  39 2.20  49 2.24   4 2.69  27 2.82
                             1 2.92   8 2.94   3 2.97  11 2.99  24 3.00
   3  0.275  0.014  0.256-  33 1.75  38 1.94  36 2.01  52 2.12  41 2.23  18 2.26  34 2.34  21 2.38
                            17 2.53  16 2.62   4 2.67   8 2.73  12 2.91   2 2.97  26 3.02   5 3.05
   4  0.214  0.212  0.006-  34 1.46  35 1.68  33 2.05  51 2.41  37 2.43   1 2.50   3 2.67   2 2.69
                             7 2.77  17 2.79  15 2.89  18 2.96   6 2.97   9 3.06
   5  0.022  0.980  0.524-  47 1.86  40 1.98  38 2.00  36 2.06  39 2.22  54 2.34  16 2.60  14 2.73
                             8 2.75   7 2.86   6 2.90  10 2.94   3 3.05  24 3.08
   6  0.975  0.254  0.740-  39 1.91  53 1.94  40 2.06  48 2.11  35 2.27  37 2.38  24 2.45  31 2.53
                            20 2.60  15 2.72  23 2.86   5 2.90   8 2.92   4 2.97   1 2.97   9 2.98
   7  0.298  0.047  0.725-  56 1.55  37 1.86  38 1.96  34 2.17  22 2.18  21 2.32  45 2.43   8 2.45
                             4 2.77   5 2.86  17 2.91  30 2.91  16 3.04
   8  0.238  0.234  0.501-  38 1.75  37 1.84  39 1.87  33 2.05  55 2.09  46 2.10  21 2.44   7 2.45
                            22 2.60  18 2.71   3 2.73   5 2.75  15 2.85   6 2.92   2 2.94  29 3.08
   9  0.001  0.517  0.988-  48 1.88  43 1.88  44 1.93  42 2.18  35 2.24  58 2.37  31 2.58  12 2.61
                            14 2.66  15 2.69  11 2.71  28 2.74  10 2.89  20 2.98   6 2.98  27 3.02
  10  0.999  0.743  0.257-  57 1.91  41 2.03  43 2.12  47 2.14  44 2.18  36 2.44  11 2.47  12 2.57
                            13 2.68  16 2.80   9 2.89  19 2.93   5 2.94  28 2.99   1 3.03  27 3.03
  11  0.207  0.528  0.245-  41 1.80  42 1.88  44 1.89  46 1.91  12 2.45  10 2.47  33 2.51  29 2.63
                             9 2.71  16 2.82  13 2.84  26 2.99   2 2.99
  12  0.220  0.742  0.038-  43 1.68  41 1.73  42 1.77  59 2.14  45 2.15  11 2.45  34 2.48  10 2.57
                             9 2.61   1 2.74   3 2.91  26 2.91  14 2.99  17 2.99  30 3.02
  13  0.981  0.532  0.506-  47 1.84  46 1.97  48 2.11  62 2.17  39 2.34  44 2.39  31 2.48  14 2.59
                            10 2.68  11 2.84  27 2.91  24 2.93  15 2.98   6 2.99  16 3.08
  14  0.002  0.733  0.747-  48 1.86  47 1.89  43 2.09  45 2.21  40 2.24  61 2.27  31 2.48  13 2.59
                             9 2.66   5 2.73   1 2.89  15 2.91  28 2.96  12 2.99
  15  0.230  0.464  0.761-  37 1.65  48 1.84  64 2.09  42 2.24  46 2.37  45 2.44  22 2.67   9 2.69
                             6 2.72   8 2.85  30 2.86   4 2.89  14 2.91  13 2.98
  16  0.261  0.780  0.471-  41 1.87  63 1.92  38 2.00  47 2.23  46 2.44  21 2.56   5 2.60   3 2.62
                            26 2.79  29 2.79  10 2.80  11 2.82  30 2.84   7 3.04  13 3.08
  17  0.478  0.999  0.026-  51 1.76  52 1.93  59 2.14  34 2.17  56 2.29  50 2.29   3 2.53  18 2.63
                            19 2.72   4 2.79  26 2.85  23 2.90   7 2.91  12 2.99
  18  0.466  0.212  0.264-  51 1.78  33 1.78  52 1.96  55 2.00  49 2.09   3 2.26  21 2.39  60 2.51
                            17 2.63   8 2.71  29 2.84  19 2.91   4 2.96
  19  0.724  0.970  0.244-  52 1.60  50 1.85  57 1.99  49 2.04  54 2.28  32 2.58  26 2.65  17 2.72
                            28 2.83  18 2.91  10 2.93  21 3.05
  20  0.744  0.264  0.955-  53 1.55  58 1.74  51 2.17  35 2.26  49 2.33  23 2.54   6 2.60  25 2.63
                            31 2.68   9 2.98  27 2.98  22 2.99
  21  0.450  0.027  0.487-  38 1.57  55 1.97  63 1.98  52 2.06  56 2.17   7 2.32   3 2.38  18 2.39
                            54 2.41   8 2.44  16 2.56  22 2.63  32 2.69  19 3.05
  22  0.470  0.249  0.717-  37 1.70  55 1.79  56 1.88  64 2.15   7 2.18  53 2.28   8 2.60  21 2.63
                            15 2.67  24 2.87  20 2.99  23 3.03
  23  0.737  0.005  0.787-  53 1.93  50 1.97  40 2.03  56 2.11  61 2.13  54 2.19  20 2.54   1 2.75
                            28 2.86   6 2.86  17 2.90  24 2.93  22 3.03
  24  0.764  0.251  0.529-  62 1.87  53 1.98  39 2.04  54 2.24  55 2.26   6 2.45  49 2.47  31 2.78
                            22 2.87  13 2.93  23 2.93  27 2.96   2 3.00   5 3.08
  25  0.523  0.490  0.011-  58 1.61  60 1.96  59 2.08  42 2.16  51 2.33  64 2.44  20 2.63  28 2.68
                            27 2.68  26 2.76  30 2.94
  26  0.508  0.731  0.244-  60 1.91  59 1.94  52 2.08  63 2.11  57 2.12  41 2.17  29 2.32  32 2.38
                            19 2.65  25 2.76  28 2.79  16 2.79  17 2.85  27 2.86  12 2.91  11 2.99
  27  0.745  0.476  0.249-  60 1.59  44 1.97  62 2.02  57 2.11  49 2.14  58 2.20  25 2.68  29 2.70
                             2 2.82  26 2.86  13 2.91  28 2.93  24 2.96  20 2.98   9 3.02  10 3.03
  28  0.743  0.729  0.999-  61 1.79  50 1.91  57 2.03  58 2.13  59 2.17  43 2.27  25 2.68   9 2.74
                            26 2.79  31 2.80  19 2.83  23 2.86  27 2.93  14 2.96  10 2.99   1 3.05
  29  0.472  0.517  0.425-  60 1.62  46 2.16  62 2.19  55 2.19  63 2.32  26 2.32  64 2.41  11 2.63
                            27 2.70  32 2.70  16 2.79  18 2.84   8 3.08
  30  0.454  0.730  0.755-  45 1.56  64 1.84  59 2.11  63 2.23  61 2.27  56 2.42  32 2.84  16 2.84
                            15 2.86   7 2.91  25 2.94  12 3.02
  31  0.801  0.508  0.747-  48 1.73  61 2.07  58 2.09  62 2.19  53 2.27  13 2.48  14 2.48   6 2.53
                             9 2.58  20 2.68  24 2.78  28 2.80
  32  0.663  0.778  0.484-  63 1.40  54 1.80  57 2.19  26 2.38  61 2.52  19 2.58  21 2.69  29 2.70
                            30 2.84
  33  0.250  0.225  0.253-   3 1.75  18 1.78   4 2.05   8 2.05   2 2.14  11 2.51
  34  0.221  0.038  0.977-   4 1.46   1 1.81   7 2.17  17 2.17   3 2.34  12 2.48
  35  0.013  0.246  0.013-   4 1.68   2 1.91   1 2.11   9 2.24  20 2.26   6 2.27
  36  0.033  0.038  0.281-   2 1.69   3 2.01   5 2.06  10 2.44   1 2.46
  37  0.263  0.271  0.721-  15 1.65  22 1.70   8 1.84   7 1.86   6 2.38   4 2.43
  38  0.259  0.023  0.491-  21 1.57   8 1.75   3 1.94   7 1.96   5 2.00  16 2.00
  39  0.011  0.249  0.510-   8 1.87   6 1.91  24 2.04   2 2.20   5 2.22  13 2.34
  40  0.983  0.005  0.761-   1 1.86   5 1.98  23 2.03   6 2.06  14 2.24
  41  0.245  0.744  0.247-  12 1.73  11 1.80  16 1.87  10 2.03  26 2.17   3 2.23
  42  0.264  0.532  0.023-  12 1.77  11 1.88  25 2.16   9 2.18  15 2.24
  43  0.019  0.745  1.000-  12 1.68   9 1.88   1 2.03  14 2.09  10 2.12  28 2.27
  44  0.984  0.482  0.220-  11 1.89   9 1.93  27 1.97   2 2.03  10 2.18  13 2.39
  45  0.268  0.758  0.780-  30 1.56  12 2.15  14 2.21   7 2.43  15 2.44
  46  0.215  0.487  0.474-  11 1.91  13 1.97   8 2.10  29 2.16  15 2.37  16 2.44
  47  0.995  0.755  0.518-  13 1.84   5 1.86  14 1.89  10 2.14  16 2.23
  48  0.011  0.508  0.760-  31 1.73  15 1.84  14 1.86   9 1.88  13 2.11   6 2.11
  49  0.718  0.218  0.234-  19 2.04  18 2.09  27 2.14   2 2.24  20 2.33  24 2.47
  50  0.754  0.960  0.021-  19 1.85  28 1.91  23 1.97   1 2.10  17 2.29
  51  0.504  0.210  0.051-  17 1.76  18 1.78  20 2.17  25 2.33   4 2.41
  52  0.531  0.983  0.254-  19 1.60  17 1.93  18 1.96  21 2.06  26 2.08   3 2.12
  53  0.742  0.239  0.769-  20 1.55  23 1.93   6 1.94  24 1.98  31 2.27  22 2.28
  54  0.737  0.980  0.521-  32 1.80  23 2.19  24 2.24  19 2.28   5 2.34  21 2.41
  55  0.491  0.263  0.501-  22 1.79  21 1.97  18 2.00   8 2.09  29 2.19  24 2.26
  56  0.484  0.023  0.749-   7 1.55  22 1.88  23 2.11  21 2.17  17 2.29  30 2.42
  57  0.767  0.731  0.244-  10 1.91  19 1.99  28 2.03  27 2.11  26 2.12  32 2.19
  58  0.717  0.472  0.983-  25 1.61  20 1.74  31 2.09  28 2.13  27 2.20   9 2.37
  59  0.479  0.739  0.010-  26 1.94  25 2.08  30 2.11  17 2.14  12 2.14  28 2.17
  60  0.553  0.504  0.246-  27 1.59  29 1.62  26 1.91  25 1.96  18 2.51
  61  0.728  0.746  0.782-  28 1.79  31 2.07  23 2.13  30 2.27  14 2.27  32 2.52
  62  0.725  0.473  0.493-  24 1.87  27 2.02  13 2.17  29 2.19  31 2.19
  63  0.493  0.790  0.493-  32 1.40  16 1.92  21 1.98  26 2.11  30 2.23  29 2.32
  64  0.476  0.510  0.718-  30 1.84  15 2.09  22 2.15  29 2.41  25 2.44

  LATTYP: Found a simple cubic cell.
 ALAT       =     8.2198900000

  Lattice vectors:

 A1 = (   8.2198900000,   0.0000000000,   0.0000000000)
 A2 = (   0.0000000000,   8.2198900000,   0.0000000000)
 A3 = (   0.0000000000,   0.0000000000,   8.2198900000)

Analysis of symmetry for initial positions (statically):
 Subroutine PRICEL returns:
 Original cell was already a primitive cell.

 Routine SETGRP: Setting up the symmetry group for a
 simple cubic supercell.

 Subroutine GETGRP returns: Found  1 space group operations
 (whereof  1 operations were pure point group operations)
 out of a pool of 48 trial point group operations.

The static configuration has the point symmetry C_1 .

Analysis of symmetry for dynamics (positions and initial velocities):
 Subroutine PRICEL returns:
 Original cell was already a primitive cell.

[...]

[...]
   0.132E+02 0.193E+02 0.570E+02   -.134E+02 -.191E+02 -.605E+02   0.258E+00 0.702E+00 0.357E+01   0.174E-01 -.821E-01 -.628E+00
   -.200E+03 0.947E+02 -.599E+02   0.208E+03 -.970E+02 0.635E+02   -.539E+00 0.105E+01 -.272E+01   0.308E-01 0.165E-01 -.510E+00
   -.129E+02 0.142E+02 0.405E+02   0.121E+02 -.105E+02 -.419E+02   0.102E+01 -.396E+01 0.261E+01   -.113E-01 -.215E+00 0.872E-01
   0.600E+02 0.475E+02 -.282E+03   -.627E+02 -.510E+02 0.289E+03   0.279E+00 0.229E+01 -.749E+00   0.814E-01 0.786E-01 -.240E+00
   -.195E+03 0.240E+02 0.296E+02   0.201E+03 -.284E+02 -.292E+02   0.249E+01 0.424E+01 -.163E+01   0.869E-02 -.279E+00 0.578E+00
   0.286E+03 -.646E+02 0.128E+03   -.292E+03 0.678E+02 -.130E+03   0.148E+01 -.255E+01 0.973E+00   0.223E+00 -.341E-01 0.448E+00
   -.415E+03 0.179E+03 -.202E+03   0.437E+03 -.179E+03 0.205E+03   -.268E+01 -.330E+01 -.232E+01   0.217E+00 -.519E-01 -.224E+00
   0.883E+02 -.235E+03 0.567E+02   -.993E+02 0.251E+03 -.578E+02   0.103E+02 -.126E+02 0.212E+01   -.311E+00 0.249E-01 -.277E+00
   -.508E+02 0.218E+03 0.796E+02   0.590E+02 -.253E+03 -.880E+02   -.652E+01 0.191E+02 0.537E+01   -.370E-01 -.374E-01 0.121E+00
   0.132E+03 -.532E+02 0.218E+02   -.147E+03 0.589E+02 -.251E+02   0.118E+02 -.500E+01 0.265E+01   -.733E-01 0.152E+00 0.826E-01
   0.165E+03 0.133E+03 0.103E+02   -.166E+03 -.145E+03 -.960E+01   0.805E+00 0.766E+01 -.737E+00   -.129E+00 0.159E+00 -.305E+00
   0.898E+02 -.590E+02 -.126E+03   -.103E+03 0.542E+02 0.133E+03   0.104E+02 0.190E+01 -.647E+01   -.782E-01 0.310E+00 0.288E+00
   0.202E+03 0.123E+03 -.511E+02   -.224E+03 -.131E+03 0.491E+02   0.134E+02 0.469E+01 0.244E+01   -.195E-01 0.370E-01 -.541E-01
   0.106E+03 -.319E+02 0.730E+02   -.108E+03 0.340E+02 -.800E+02   0.352E+00 -.241E+01 0.629E+01   -.487E-01 0.146E+00 -.819E-01
   -.902E+01 0.587E+02 0.501E+02   0.121E+02 -.595E+02 -.536E+02   -.301E+01 0.667E+00 0.226E+01   -.784E-01 -.316E-01 0.309E+00
   -.133E+02 -.544E+02 -.473E+02   0.196E+02 0.621E+02 0.527E+02   -.613E+01 -.548E+01 -.233E+01   0.426E-01 0.121E+00 -.455E+00
   -.103E+03 0.177E+03 0.969E+02   0.110E+03 -.188E+03 -.105E+03   -.632E+01 0.743E+01 0.822E+01   0.590E-01 0.541E-01 -.322E+00
   0.121E+03 -.811E+02 0.381E+02   -.135E+03 0.867E+02 -.400E+02   0.101E+02 -.442E+01 0.122E+01   0.131E+00 -.213E+00 -.219E-01
   0.606E+02 0.499E+02 -.683E+02   -.637E+02 -.507E+02 0.720E+02   0.178E+01 -.103E+00 -.338E+01   -.124E+00 -.854E-01 -.354E+00
   0.131E+03 -.193E+02 0.335E+02   -.152E+03 0.247E+02 -.311E+02   0.131E+02 -.418E+01 -.199E+01   -.341E+00 -.179E+00 0.373E+00
   -.286E+02 -.423E+02 -.759E+02   0.316E+02 0.413E+02 0.840E+02   -.251E+01 0.127E+01 -.833E+01   -.206E+00 -.256E-01 0.233E+00
   0.975E+02 -.192E+02 0.168E+02   -.104E+03 0.219E+02 -.209E+02   0.704E+01 -.249E+01 0.321E+01   -.722E-01 -.232E+00 0.623E-01
   -.588E+02 0.137E+02 0.515E+02   0.664E+02 -.180E+02 -.556E+02   -.569E+01 0.356E+01 0.394E+01   0.150E+00 0.283E-01 0.312E+00
   -.976E+02 -.163E+02 -.319E+02   0.970E+02 0.163E+02 0.308E+02   0.140E+01 0.519E+00 0.201E+01   0.229E+00 -.347E-02 -.283E+00
   -.344E+02 -.674E+02 0.278E+02   0.336E+02 0.728E+02 -.287E+02   0.152E+01 -.534E+01 -.504E-01   -.901E-02 0.105E+00 0.148E-01
   -.231E+02 -.155E+03 0.156E+03   0.281E+02 0.167E+03 -.165E+03   -.643E+01 -.982E+01 0.732E+01   0.895E-01 0.144E+00 -.299E+00
   -.139E+02 0.259E+02 0.165E+01   0.351E+01 -.277E+02 0.443E+01   0.370E+01 0.430E+00 -.576E+01   0.831E-01 -.228E+00 -.358E+00
   0.978E+02 -.142E+02 0.121E+03   -.108E+03 0.154E+02 -.140E+03   0.886E+01 -.243E+01 0.102E+02   0.119E-01 0.521E-01 0.333E+00
   -.112E+03 -.582E+02 -.303E+02   0.116E+03 0.663E+02 0.322E+02   -.381E+01 -.601E+01 -.165E+01   0.639E-01 0.481E-01 0.204E-02
   -.164E+03 -.154E+03 0.233E+02   0.173E+03 0.166E+03 -.284E+02   -.848E+01 -.107E+02 0.248E+01   0.414E-01 0.433E-01 0.140E+00
   -.223E+03 0.143E+03 -.109E+03   0.248E+03 -.156E+03 0.113E+03   -.155E+02 0.105E+02 -.152E+01   0.169E+00 0.100E+00 0.326E+00
   -.793E+02 0.138E+02 -.634E+02   0.788E+02 -.185E+02 0.675E+02   0.830E+00 0.449E+01 -.458E+01   0.731E-03 0.459E-02 -.187E+00
   -.679E+02 -.378E+02 0.352E+02   0.831E+02 0.450E+02 -.343E+02   -.963E+01 -.475E+01 -.852E+00   -.310E+00 -.735E-01 0.649E-01
   -.715E+01 -.137E+02 0.116E+03   0.481E+01 0.133E+02 -.123E+03   0.237E+01 0.210E+01 0.614E+01   -.575E-01 -.283E+00 0.243E+00
   0.861E+02 0.101E+03 0.674E+02   -.971E+02 -.109E+03 -.788E+02   0.658E+01 0.788E+01 0.763E+01   -.610E-01 0.171E+00 -.671E+00
   0.486E+02 -.151E+02 0.151E+03   -.521E+02 0.185E+02 -.164E+03   0.289E+01 -.308E+01 0.111E+02   0.181E+00 -.372E-01 0.173E+00
   0.178E+02 -.779E+02 -.683E+02   -.253E+02 0.851E+02 0.710E+02   0.887E+01 -.631E+01 -.243E+01   0.158E+00 0.395E-01 0.221E-01
   0.105E+03 0.936E+02 -.149E+03   -.137E+03 -.933E+02 0.157E+03   0.120E+02 0.704E+00 -.550E+01   -.201E-01 -.290E-01 -.201E+00
   -.958E+02 0.156E+02 0.170E+02   0.103E+03 -.211E+02 -.223E+02   -.773E+01 0.487E+01 0.516E+01   -.513E-01 -.223E+00 0.435E+00
   -.569E+02 0.114E+02 -.590E+02   0.109E-11 -.330E-12 0.295E-12   0.577E+02 -.117E+02 0.600E+02   -.809E+00 0.228E+00 -.979E+00

 POSITION                                       TOTAL-FORCE (eV/Angst)
      0.04420      8.15180      8.10434        -1.564834     -0.724456      1.661303
      8.13908      1.93431      2.00620        -1.332392      3.980577      0.938061
      2.26204      0.11615      2.10546        -1.819552     -3.942908     -1.512371
      1.76246      1.74530      0.05305         3.815768     15.472407      2.184032
      0.18172      8.05171      4.31106        -1.766365      1.376639     -0.466771
      8.01513      2.09133      6.08158         0.176840     -0.320294      0.998086
      2.45065      0.38349      5.95872        -9.737991     -2.650850      0.992837
      1.95831      1.92596      4.12201        -0.636382      5.273111     -2.497956
      0.00790      4.25317      8.12355        -0.301093     -2.050569      0.590832
      8.20939      6.11046      2.11657        -0.677355      0.872060      0.770480
      1.70284      4.33999      2.01143         1.383459     -3.018275      1.432032
      1.81086      6.09619      0.30975         5.152791      3.175773     -4.221666
      8.06687      4.37543      4.15916        -0.302998     -1.819067     -0.727394
      0.01357      6.02870      6.14064         0.436817      2.253964      0.275872
      1.88959      3.81347      6.25537         1.165932      4.832366      0.971079
      2.14661      6.41172      3.87541        -0.659822     -1.254023      1.569732
      3.92927      8.20972      0.21068         0.196749     -2.666809     -1.497902
      3.83201      1.73954      2.16872         3.610086      3.287327      0.678147
      5.95384      7.97359      2.00619         8.106150      1.098510      0.802270
      6.11771      2.17224      7.85200        -0.029041     -1.856527      9.283128
      3.69675      0.21963      4.00717         9.591512     -0.844562      0.578730
      3.85955      2.04333      5.89484         4.795566      3.055752      2.745839
      6.05903      0.04116      6.46512        -0.388249     -1.127098     -1.570489
      6.27985      2.06339      4.35136        -0.851524     -0.900186     -1.363119
      4.30071      4.02429      0.08842        -7.584940      0.195226     -0.617281
      4.17893      6.01074      2.00310         0.002807      0.808188     -0.544132
      6.12678      3.91495      2.04499         6.929006     -1.223037      0.404663
      6.11041      5.99625      8.20876         0.175027     -0.513577      1.318187
      3.87740      4.25239      3.49194        -2.366982     -1.201470      5.777559
      3.72922      6.00073      6.20336         8.458623     -0.411896     -0.632553
      6.58562      4.17261      6.13712        -3.756396      0.671866     -1.027986
      5.45147      6.39660      3.98159        19.747012     -2.782415     -0.403605
      2.05479      1.85177      2.07737        -0.914648      3.199347      0.712923
      1.81658      0.31111      8.03323         1.613347    -15.161286     -2.935907
      0.10531      2.02498      0.10456        -3.844396      0.822338     -0.570850
      0.26843      0.31170      2.30617        -0.311348     -4.551428     -0.338150
      2.16456      2.22400      5.92348        -2.896752     -2.572558      0.281304
      2.12994      0.18847      4.03969        -8.158799     -2.654244      0.434780
      0.09195      2.04527      4.19304        -1.247493     -0.148851     -0.821968
      8.07951      0.03709      6.25859        -0.040325     -0.214134     -0.894790
      2.01338      6.11658      2.03005         0.247138      2.318483      2.569521
      2.16716      4.37171      0.18965         1.056351     -3.709927     -0.697242
      0.15840      6.12682      8.21844        -4.390719      0.917968     -0.705981
      8.08481      3.95836      1.80452        -1.416052     -1.031698      0.006830
      2.19959      6.22746      6.41422        -8.341792      1.005843      0.791453
      1.76633      4.00388      3.89216         0.281728      0.245861     -0.009235
      8.17611      6.20565      4.25858         0.391730      0.021928     -0.833113
      0.08835      4.17594      6.24559         2.002014     -0.690584      0.123042
      5.90549      1.79319      1.92240         1.019260      0.552679      0.614600
      6.19999      7.89090      0.17065         0.687045      0.140821     -0.874742
      4.14407      1.72288      0.41989        -1.262502      2.172033     -2.250937
      4.36422      8.07810      2.09021        -6.567320     -1.589201     -0.037652
      6.09807      1.96081      6.31818        -0.997282     -1.226048     -8.354363
      6.06034      8.05901      4.28283         0.990743      2.114237      0.228108
      4.03704      2.16082      4.11592         0.610870      0.457944     -2.549091
      3.98045      0.18979      6.15425         9.353585     -2.532368      2.876907
      6.30322      6.01240      2.00480         0.401974     -0.158599     -0.722899
      5.89073      3.88252      8.08202         5.189809      2.374093      0.057517
      3.94029      6.07589      0.08180        -0.023915      1.445879     -0.044595
      4.54846      4.14106      2.02445        -4.434114      0.149152     -4.415049
      5.98221      6.13261      6.42781        -0.448397      0.273609     -1.168496
      5.95717      3.88403      4.05607         1.465998      0.878549      0.251799
      4.05246      6.49593      4.05625       -19.682960      0.982772      2.060341
      3.91345      4.19559      5.90355        -0.301008     -0.878358      0.326292
    total drift:                                0.031650     -0.015397      0.024981

  FREE ENERGIE OF THE ION-ELECTRON SYSTEM (eV)
  free  energy   TOTEN  =      -366.2866474366 eV

  energy  without entropy=     -366.2193018403  energy(sigma->0) =     -366.25297464

volume of typ            1:    36.7 %

volume of typ            2:     9.4 %

total charge

# of ion       s       p       d       tot
    1        0.225   0.259   7.989   8.473
    2        0.245   0.283   7.981   8.508
    3        0.243   0.289   8.092   8.624
    4        0.358   0.425   8.147   8.930
    5        0.208   0.233   7.987   8.427
    6        0.208   0.230   8.053   8.491
    7        0.287   0.376   8.149   8.812
    8        0.260   0.341   8.031   8.632
    9        0.224   0.253   8.031   8.508
   10        0.195   0.206   8.028   8.429
   11        0.255   0.312   8.035   8.602
   12        0.296   0.388   8.022   8.705
   13        0.210   0.223   7.995   8.428
   14        0.207   0.232   8.021   8.460
   15        0.248   0.285   8.036   8.569
   16        0.194   0.215   8.085   8.494
   17        0.227   0.248   8.016   8.490
   18        0.270   0.338   8.036   8.644
   19        0.271   0.334   8.014   8.620
   20        0.292   0.362   8.082   8.736
   21        0.287   0.375   8.138   8.799
   22        0.264   0.332   8.054   8.650
   23        0.208   0.233   7.952   8.393
   24        0.201   0.214   7.988   8.403
   25        0.244   0.284   8.031   8.558
   26        0.225   0.260   8.036   8.522
   27        0.262   0.326   8.014   8.602
   28        0.236   0.265   7.985   8.487
   29        0.247   0.276   8.062   8.585
   30        0.282   0.327   8.012   8.621
   31        0.221   0.253   8.061   8.534
   32        0.353   0.433   8.164   8.951
   33        1.281   2.793   0.014   4.088
   34        1.284   2.858   0.026   4.168
   35        1.277   2.785   0.012   4.074
   36        1.276   2.769   0.009   4.054
   37        1.269   2.872   0.023   4.165
   38        1.265   2.888   0.028   4.181
   39        1.270   2.764   0.008   4.042
   40        1.266   2.769   0.008   4.043
   41        1.259   2.835   0.016   4.111
   42        1.269   2.777   0.010   4.056
   43        1.266   2.818   0.014   4.098
   44        1.257   2.793   0.009   4.058
   45        1.281   2.784   0.013   4.078
   46        1.273   2.741   0.006   4.020
   47        1.258   2.794   0.011   4.062
   48        1.253   2.844   0.019   4.117
   49        1.284   2.702   0.005   3.991
   50        1.271   2.772   0.009   4.052
   51        1.281   2.768   0.011   4.060
   52        1.280   2.832   0.019   4.131
   53        1.265   2.847   0.021   4.134
   54        1.273   2.737   0.006   4.015
   55        1.273   2.780   0.010   4.063
   56        1.271   2.829   0.019   4.119
   57        1.269   2.770   0.008   4.048
   58        1.270   2.836   0.018   4.124
   59        1.278   2.743   0.007   4.028
   60        1.271   2.878   0.025   4.174
   61        1.272   2.745   0.007   4.024
   62        1.279   2.725   0.007   4.011
   63        1.284   2.879   0.032   4.194
   64        1.278   2.719   0.006   4.002
tot          48.65   98.85  257.76  405.27

magnetization (x)

# of ion       s       p       d       tot
    1        0.000  -0.002  -0.909  -0.911
    2        0.000   0.000   0.040   0.040
    3       -0.001  -0.000   0.203   0.202
    4        0.002  -0.002   0.123   0.123
    5       -0.002  -0.001   0.980   0.977
    6        0.002   0.004   0.685   0.691
    7        0.001  -0.009  -0.325  -0.332
    8        0.001   0.000  -0.452  -0.451
    9        0.000  -0.001   0.694   0.693
   10       -0.000   0.002  -0.839  -0.838
   11        0.001   0.002  -0.015  -0.011
   12        0.001  -0.008  -0.548  -0.555
   13       -0.001  -0.003  -0.988  -0.992
   14        0.001  -0.000   0.317   0.318
   15        0.001   0.004   0.594   0.598
   16       -0.003   0.002   0.746   0.744
   17        0.003   0.001   0.534   0.538
   18       -0.000   0.002  -0.231  -0.230
   19        0.000  -0.005  -0.608  -0.613
   20        0.005   0.001   0.174   0.179
   21        0.002  -0.002  -0.167  -0.167
   22        0.002   0.012   0.647   0.662
   23       -0.000  -0.001   1.011   1.010
   24        0.002   0.002   0.916   0.920
   25        0.001  -0.001  -0.136  -0.136
   26        0.002  -0.001   0.700   0.701
   27        0.003   0.002   0.510   0.516
   28        0.006   0.002   0.593   0.601
   29        0.001   0.000   0.130   0.130
   30       -0.003  -0.005  -0.559  -0.567
   31        0.002  -0.003  -0.693  -0.694
   32       -0.000  -0.011  -0.284  -0.294
   33        0.001  -0.013   0.000  -0.012
   34       -0.002  -0.002   0.000  -0.004
   35       -0.000   0.001  -0.000   0.001
   36        0.002   0.002   0.000   0.004
   37        0.004   0.054   0.000   0.057
   38        0.005   0.018  -0.000   0.023
   39        0.002   0.038  -0.000   0.040
   40        0.004   0.061   0.000   0.065
   41        0.002   0.027  -0.000   0.029
   42       -0.003  -0.000  -0.000  -0.003
   43       -0.000  -0.029  -0.000  -0.029
   44       -0.001  -0.021   0.000  -0.022
   45       -0.003  -0.063  -0.000  -0.066
   46       -0.004  -0.025  -0.000  -0.029
   47        0.001   0.014   0.000   0.015
   48       -0.000  -0.025   0.000  -0.025
   49        0.001   0.037  -0.000   0.037
   50        0.003   0.028  -0.000   0.031
   51        0.001   0.027   0.000   0.028
   52       -0.002  -0.012  -0.000  -0.013
   53        0.012   0.108  -0.000   0.120
   54        0.000   0.024  -0.000   0.025
   55        0.003   0.059   0.000   0.063
   56        0.004   0.007  -0.000   0.011
   57        0.003   0.008   0.000   0.010
   58        0.003  -0.004   0.000  -0.001
   59        0.002   0.041   0.000   0.043
   60        0.004   0.062  -0.000   0.066
   61        0.002   0.014   0.000   0.016
   62        0.003   0.028   0.000   0.032
   63        0.002  -0.033  -0.001  -0.032
   64        0.001  -0.003  -0.000  -0.003
tot           0.08    0.41    2.84    3.33