 vasp.5.4.4.18Apr17-6-g9f103f2a35 (build May 12 2020 04:58:55) complex

 MD_VERSION_INFO: Compiled 2020-05-12T11:58:55-UTC in devlin.sd.materialsdesign.
 com:/home/medea2/data/build/wwolf/vasp-gpu5.4.4/13047/x86_64/src/src/build/std
 from svn 13047

 executed on                        Lin64 date 2023.03.23  18:18:03

 INCAR:
 POTCAR:    PAW_PBE Ni 02Aug2007
 POTCAR:    PAW_PBE O 08Apr2002

 POTCAR:    PAW_PBE Ni 02Aug2007

 POTCAR:    PAW_PBE O 08Apr2002

 Optimization of the real space projectors (new method)

 maximal supplied QI-value         = 16.25
 optimisation between [QCUT,QGAM] = [ 11.38, 22.75] = [ 36.24,144.96] Ry
 Optimized for a Real-space Cutoff    1.47 Angstroem

   l    n(q)    QCUT    max X(q) W(low)/X(q) W(high)/X(q)  e(spline)
   2      9    11.376    60.317    0.17E-03    0.16E-04    0.16E-06
   2      9    11.376    55.921    0.17E-03    0.16E-04    0.17E-06
   0     10    11.376    51.690    0.45E-04    0.60E-04    0.21E-06
   0     10    11.376    30.015    0.37E-04    0.55E-04    0.19E-06
   1     10    11.376    18.849    0.83E-04    0.11E-03    0.92E-07
   1     10    11.376    14.624    0.69E-04    0.92E-04    0.82E-07
 Optimization of the real space projectors (new method)

 maximal supplied QI-value         = 24.76
 optimisation between [QCUT,QGAM] = [ 11.39, 22.77] = [ 36.31,145.25] Ry
 Optimized for a Real-space Cutoff    1.10 Angstroem

   l    n(q)    QCUT    max X(q) W(low)/X(q) W(high)/X(q)  e(spline)
   0      7    11.387    20.381    0.22E-03    0.48E-03    0.18E-06
   0      7    11.387    15.268    0.22E-03    0.52E-03    0.19E-06
   1      7    11.387     5.964    0.22E-03    0.73E-03    0.24E-06
   1      7    11.387     5.382    0.19E-03    0.60E-03    0.21E-06

  PAW_PBE Ni 02Aug2007                  :
  PAW_PBE O 08Apr2002                   :

 POSCAR: NiO_Fm-3m_scale_1_000_disp_0_15_round_2
  positions in direct lattice
 exchange correlation table for  LEXCH =       14
   RHO(1)=    0.500       N(1)  =     2000
   RHO(2)=  100.500       N(2)  =     4000

 ion  position               nearest neighbor table
   1  0.998  0.973  0.020-  43 1.77  50 1.90  36 1.96  35 2.07  40 2.16  34 2.25  28 2.42  19 2.69
                            10 2.77  14 2.79   2 2.81   3 2.97  12 2.98   4 3.03   6 3.06
   2  0.996  0.241  0.232-  35 1.65  49 1.70  36 2.10  39 2.16  33 2.19  44 2.25   9 2.71  19 2.74
                             4 2.79   1 2.81  20 2.82   5 2.95  24 3.01   8 3.01  11 3.02
   3  0.267  0.980  0.261-  38 1.91  34 2.01  41 2.09  52 2.11  33 2.35  36 2.43  26 2.54  16 2.71
                            17 2.79   8 2.85   5 2.88  10 2.91   1 2.97  12 2.98  21 3.00  18 3.03
   4  0.240  0.251  0.996-  35 1.79  42 1.81  51 1.91  33 1.94  34 1.97  37 2.04   6 2.77   2 2.79
                            15 2.79  11 2.82  18 2.84   9 2.89  17 2.95   1 3.03  25 3.08
   5  0.019  0.011  0.507-  38 1.74  54 2.06  36 2.11  40 2.11  39 2.30   8 2.63   6 2.69  24 2.75
                            14 2.79  16 2.86   3 2.88  32 2.89   2 2.95  10 3.04  19 3.04   7 3.04
   6  0.010  0.230  0.750-  37 1.99  48 2.17  40 2.19  39 2.21  35 2.34  53 2.34   5 2.69   4 2.77
                            15 2.79   8 2.86  20 2.91  13 2.96  24 2.96  31 2.99  23 3.00   9 3.03
   7  0.296  0.955  0.746-  56 1.56  45 1.84  38 2.23  34 2.31  30 2.36  37 2.42  16 2.45  40 2.51
                            17 2.77  14 2.79  21 2.80  12 2.89   5 3.04
   8  0.248  0.234  0.498-  38 1.84  55 1.97  37 2.07  33 2.21  39 2.25  46 2.32   5 2.63  22 2.75
                             3 2.85   6 2.86  18 2.90  29 2.95  15 2.99  21 3.00   2 3.01  11 3.07
   9  0.981  0.487  0.014-  58 1.74  44 1.98  48 2.04  35 2.21  43 2.24  28 2.61  20 2.68   2 2.71
                            31 2.75  27 2.82   4 2.89  10 2.89  11 2.91  15 2.94  12 2.99   6 3.03
  10  0.010  0.737  0.260-  44 1.83  47 1.92  57 1.94  41 1.99  36 2.09  43 2.10  32 2.70   1 2.77
                            27 2.78  28 2.79  11 2.84  13 2.87   9 2.89   3 2.91  12 2.92  16 2.99
  11  0.258  0.498  0.233-  41 1.89  33 1.92  42 1.95  44 1.99  46 2.02  60 2.28  18 2.59  12 2.62
                            25 2.76  26 2.81   4 2.82  10 2.84   9 2.91  29 3.00   2 3.02   8 3.07
  12  0.259  0.722  0.007-  41 1.84  59 2.00  45 2.06  42 2.15  43 2.20  34 2.40  11 2.62  26 2.68
                            30 2.71  15 2.83   7 2.89  25 2.90  10 2.92   3 2.98   1 2.98  14 2.99
  13  0.975  0.495  0.510-  62 1.54  39 1.71  47 1.71  48 2.12  44 2.17  46 2.33  32 2.65  31 2.67
                            27 2.77  10 2.87  15 2.90   6 2.96  24 2.98  14 3.01
  14  0.010  0.771  0.747-  40 1.60  45 1.81  61 2.02  43 2.14  47 2.19  48 2.29  28 2.61   7 2.79
                             1 2.79   5 2.79  32 2.80  16 2.86  23 2.89  15 2.93  12 2.99  13 3.01
  15  0.228  0.490  0.755-  48 1.87  37 2.02  45 2.07  42 2.11  46 2.30   6 2.79   4 2.79  12 2.83
                            22 2.87  13 2.90  14 2.93   9 2.94   8 2.99  30 3.01  16 3.04
  16  0.268  0.768  0.514-  63 2.02  38 2.03  45 2.06  46 2.10  47 2.19  41 2.36   7 2.45   3 2.71
                            30 2.81  26 2.83  14 2.86   5 2.86  21 2.94  10 2.99  15 3.04  29 3.06
  17  0.496  0.000  0.013-  59 1.86  34 1.87  52 1.96  51 2.03  56 2.05  50 2.26  26 2.77   7 2.77
                             3 2.79  30 2.88  19 2.88  23 2.91  18 2.94   4 2.95  20 2.98  12 3.01
  18  0.484  0.277  0.238-  33 1.84  60 1.89  51 1.97  55 2.35  52 2.43  25 2.48  11 2.59  29 2.74
                             4 2.84   8 2.90  17 2.94  27 2.97  20 3.00   3 3.03
  19  0.761  0.004  0.242-  36 1.73  50 1.83  49 1.89  52 1.96  57 2.03  54 2.09   1 2.69  24 2.73
                             2 2.74  21 2.87  17 2.88  20 2.92  32 2.94  28 2.96  10 3.01   5 3.04
  20  0.752  0.256  0.991-  50 2.04  53 2.07  49 2.16  58 2.27  51 2.30  35 2.31   9 2.68  25 2.70
                            31 2.77   2 2.82   6 2.91  19 2.92  23 2.94  17 2.98  18 3.00  22 3.08
  21  0.534  0.007  0.508-  54 1.94  52 2.14  63 2.16  56 2.16  55 2.17  24 2.44  38 2.51  23 2.60
                            22 2.78   7 2.80  19 2.87  32 2.92  16 2.94   3 3.00   8 3.00  26 3.02
  22  0.499  0.272  0.716-  55 1.58  53 1.97  64 1.99  37 2.06  56 2.20  51 2.36  29 2.48   8 2.75
                            24 2.76  21 2.78  15 2.87  31 2.90  23 3.04  20 3.08
  23  0.735  0.990  0.752-  61 2.05  40 2.12  54 2.13  56 2.13  50 2.22  21 2.60  24 2.75  28 2.82
                            30 2.85  14 2.89  32 2.90  17 2.91  20 2.94   6 3.00  22 3.04
  24  0.750  0.211  0.502-  54 1.83  39 2.00  49 2.10  53 2.14  55 2.24  62 2.25  21 2.44  19 2.73
                            23 2.75   5 2.75  22 2.76   6 2.96  13 2.98  29 3.00   2 3.01
  25  0.525  0.491  0.029-  60 1.91  42 1.91  51 2.08  58 2.14  59 2.37  18 2.48  64 2.51  27 2.66
                            20 2.70  11 2.76  26 2.83  12 2.90  31 2.97  30 2.98   4 3.08
  26  0.480  0.757  0.244-  41 1.91  52 1.91  59 2.10  60 2.15  57 2.42  63 2.43   3 2.54  12 2.68
                            17 2.77  11 2.81  16 2.83  25 2.83  27 2.92  21 3.02  19 3.08
  27  0.748  0.523  0.263-  60 1.76  57 1.95  62 2.05  44 2.22  58 2.37  49 2.42  25 2.66  32 2.70
                            13 2.77  10 2.78  29 2.80   9 2.82  26 2.92  18 2.97  28 2.97
  28  0.806  0.752  0.989-  43 1.55  58 1.84  57 2.12  50 2.15  61 2.15   1 2.42  14 2.61   9 2.61
                            10 2.79  23 2.82  31 2.84  19 2.96  27 2.97
  29  0.506  0.483  0.500-  55 1.81  64 1.88  60 1.99  46 2.08  63 2.19  62 2.31  22 2.48  18 2.74
                            27 2.80   8 2.95  24 3.00  11 3.00  31 3.01  16 3.06
  30  0.490  0.745  0.773-  59 1.79  63 1.94  64 2.01  45 2.17  56 2.17  61 2.30   7 2.36  12 2.71
                            16 2.81  23 2.85  17 2.88  25 2.98  15 3.01  31 3.04  21 3.08
  31  0.765  0.499  0.758-  53 1.64  58 1.81  64 1.89  48 1.94  61 2.02  62 2.09  13 2.67   9 2.75
                            20 2.77  28 2.84  22 2.90  25 2.97   6 2.99  32 3.00  29 3.01  14 3.01
  32  0.781  0.752  0.496-  61 1.94  47 1.94  54 1.95  57 2.06  62 2.22  63 2.25  13 2.65  10 2.70
                            27 2.70  14 2.80   5 2.89  23 2.90  21 2.92  19 2.94  31 3.00
  33  0.261  0.264  0.231-  18 1.84  11 1.92   4 1.94   2 2.19   8 2.21   3 2.35
  34  0.269  0.014  0.019-  17 1.87   4 1.97   3 2.01   1 2.25   7 2.31  12 2.40
  35  0.028  0.223  0.034-   2 1.65   4 1.79   1 2.07   9 2.21  20 2.31   6 2.34
  36  0.971  0.988  0.256-  19 1.73   1 1.96  10 2.09   2 2.10   5 2.11   3 2.43
  37  0.252  0.245  0.749-   6 1.99  15 2.02   4 2.04  22 2.06   8 2.07   7 2.42
  38  0.230  0.011  0.488-   5 1.74   8 1.84   3 1.91  16 2.03   7 2.23  21 2.51
  39  0.980  0.288  0.490-  13 1.71  24 2.00   2 2.16   6 2.21   8 2.25   5 2.30
  40  0.991  0.965  0.757-  14 1.60   5 2.11  23 2.12   1 2.16   6 2.19   7 2.51
  41  0.250  0.728  0.231-  12 1.84  11 1.89  26 1.91  10 1.99   3 2.09  16 2.36
  42  0.296  0.463  0.002-   4 1.81  25 1.91  11 1.95  15 2.11  12 2.15
  43  0.994  0.759  0.006-  28 1.55   1 1.77  10 2.10  14 2.14  12 2.20   9 2.24
  44  0.017  0.514  0.250-  10 1.83   9 1.98  11 1.99  13 2.17  27 2.22   2 2.25
  45  0.227  0.742  0.760-  14 1.81   7 1.84  12 2.06  16 2.06  15 2.07  30 2.17
  46  0.256  0.516  0.478-  11 2.02  29 2.08  16 2.10  15 2.30   8 2.32  13 2.33
  47  0.011  0.699  0.491-  13 1.71  10 1.92  32 1.94  14 2.19  16 2.19
  48  0.001  0.494  0.766-  15 1.87  31 1.94   9 2.04  13 2.12   6 2.17  14 2.29
  49  0.790  0.232  0.250-   2 1.70  19 1.89  24 2.10  20 2.16  27 2.42
  50  0.771  0.009  0.020-  19 1.83   1 1.90  20 2.04  28 2.15  23 2.22  17 2.26
  51  0.472  0.246  0.001-   4 1.91  18 1.97  17 2.03  25 2.08  20 2.30  22 2.36
  52  0.523  0.985  0.249-  26 1.91  17 1.96  19 1.96   3 2.11  21 2.14  18 2.43
  53  0.734  0.302  0.745-  31 1.64  22 1.97  20 2.07  24 2.14   6 2.34
  54  0.769  0.990  0.496-  24 1.83  21 1.94  32 1.95   5 2.06  19 2.09  23 2.13
  55  0.484  0.265  0.524-  22 1.58  29 1.81   8 1.97  21 2.17  24 2.24  18 2.35
  56  0.477  0.009  0.764-   7 1.56  17 2.05  23 2.13  21 2.16  30 2.17  22 2.20
  57  0.775  0.758  0.245-  10 1.94  27 1.95  19 2.03  32 2.06  28 2.12  26 2.42
  58  0.777  0.530  0.976-   9 1.74  31 1.81  28 1.84  25 2.14  20 2.27  27 2.37
  59  0.496  0.775  0.989-  30 1.79  17 1.86  12 2.00  26 2.10  25 2.37
  60  0.534  0.501  0.261-  27 1.76  18 1.89  25 1.91  29 1.99  26 2.15  11 2.28
  61  0.767  0.743  0.730-  32 1.94  31 2.02  14 2.02  23 2.05  28 2.15  30 2.30
  62  0.787  0.482  0.506-  13 1.54  27 2.05  31 2.09  32 2.22  24 2.25  29 2.31
  63  0.511  0.747  0.538-  30 1.94  16 2.02  21 2.16  29 2.19  32 2.25  26 2.43
  64  0.539  0.511  0.725-  29 1.88  31 1.89  22 1.99  30 2.01  25 2.51

  LATTYP: Found a simple cubic cell.
 ALAT       =     8.2198900000

  Lattice vectors:

 A1 = (   8.2198900000,   0.0000000000,   0.0000000000)
 A2 = (   0.0000000000,   8.2198900000,   0.0000000000)
 A3 = (   0.0000000000,   0.0000000000,   8.2198900000)

Analysis of symmetry for initial positions (statically):
 Subroutine PRICEL returns:
 Original cell was already a primitive cell.

 Routine SETGRP: Setting up the symmetry group for a
[...]
   -.120E+03 0.397E+02 -.990E+02   0.122E+03 -.386E+02 0.999E+02   0.683E-01 -.266E+01 -.843E-01   -.645E+00 0.118E+01 -.261E+00
   0.141E+02 0.908E+02 0.410E+02   -.127E+02 -.908E+02 -.390E+02   0.216E+01 -.167E+01 -.131E+01   -.145E+01 0.697E+00 -.666E+00
   0.340E+03 -.481E+02 0.257E+02   -.349E+03 0.465E+02 -.259E+02   -.551E+00 0.174E+01 -.579E+00   -.948E+00 0.388E+00 0.229E-01
   0.230E+02 -.123E+03 0.587E+02   -.249E+02 0.126E+03 -.567E+02   0.217E+01 -.166E+01 -.200E+01   -.365E+00 0.137E+01 -.764E+00
   -.623E+02 0.759E+02 0.195E+02   0.653E+02 -.798E+02 -.226E+02   -.190E+01 0.290E+01 0.478E+00   0.498E-01 0.168E+00 0.665E+00
   0.415E+02 -.587E+02 0.127E+02   -.429E+02 0.626E+02 -.151E+02   0.148E+01 0.120E+01 -.101E+01   0.367E-03 0.301E+00 0.631E+00
   0.163E+03 -.201E+02 0.168E+02   -.163E+03 0.201E+02 -.153E+02   -.607E+00 -.987E+00 -.154E+01   -.112E+01 0.879E+00 -.809E-01
   0.413E+02 0.842E+02 -.103E+03   -.483E+02 -.905E+02 0.105E+03   0.507E+01 0.680E+01 -.100E+01   0.242E+00 -.896E+00 0.288E+00
   0.676E+02 0.259E+02 0.387E+02   -.742E+02 -.277E+02 -.445E+02   0.434E+01 0.210E+01 0.518E+01   0.383E+00 -.915E+00 0.119E+01
   0.521E+02 0.130E+02 0.151E+03   -.581E+02 -.161E+02 -.164E+03   0.472E+01 0.258E+01 0.855E+01   -.356E+00 -.305E+00 -.162E+00
   -.137E+03 -.538E+01 -.692E+02   0.147E+03 0.512E+01 0.739E+02   -.714E+01 -.803E+00 -.384E+01   0.209E+00 0.192E+00 0.184E-01
   0.320E+01 0.499E+02 0.114E+02   0.124E+01 -.568E+02 -.110E+02   -.446E+01 0.767E+01 -.251E+00   -.526E+00 -.275E+00 -.182E+00
   -.848E+02 0.194E+01 -.190E+02   0.945E+02 -.360E+01 0.242E+02   -.839E+01 0.122E+01 -.469E+01   0.339E+00 -.434E+00 -.110E+01
   -.792E+02 0.101E+03 -.763E+01   0.808E+02 -.109E+03 0.495E+01   -.229E+00 0.553E+01 0.238E+01   -.385E-01 -.698E+00 0.186E+00
   -.240E+02 -.196E+03 -.510E+01   0.246E+02 0.214E+03 0.871E+01   -.126E+01 -.996E+01 -.330E+01   -.855E-01 -.259E-01 -.567E-02
   -.104E+02 -.461E+02 -.797E+02   0.302E+01 0.469E+02 0.883E+02   0.398E+01 -.165E+01 -.794E+01   0.296E+01 0.138E+01 -.630E-02
   0.104E+02 -.697E+02 0.971E+02   -.100E+02 0.723E+02 -.103E+03   -.193E+01 -.396E+00 0.499E+01   0.532E+00 0.816E+00 0.216E+00
   -.181E+03 0.641E+02 0.129E+02   0.205E+03 -.733E+02 -.126E+02   -.140E+02 0.751E+01 0.155E+01   0.139E+00 0.200E+00 -.318E+00
   0.916E+00 0.953E+02 -.174E+02   -.110E+01 -.103E+03 0.252E+02   -.145E+01 0.721E+01 -.842E+01   0.451E+00 -.223E+00 -.323E+00
   -.382E+02 0.803E+02 -.272E+01   0.406E+02 -.885E+02 0.390E+01   -.219E+01 0.671E+01 -.823E+00   0.155E+00 0.121E+00 0.160E+00
   -.746E+00 0.223E+02 -.523E+02   -.366E+01 -.227E+02 0.541E+02   0.404E+01 -.929E+00 -.130E+01   0.340E+00 0.574E+00 -.218E+00
   -.102E+03 -.979E+02 -.401E+02   0.110E+03 0.107E+03 0.431E+02   -.870E+01 -.590E+01 -.312E+01   0.641E+00 0.540E+00 0.420E+00
   -.528E+02 0.250E+02 -.484E+01   0.518E+02 -.231E+02 0.374E+01   0.961E+00 -.200E+01 0.157E+01   -.350E+00 0.766E-01 0.316E+00
   0.166E+03 -.101E+03 -.263E+01   -.178E+03 0.110E+03 0.501E+01   0.843E+01 -.748E+01 -.274E+01   -.431E+00 -.862E+00 -.100E+00
   0.113E+03 -.440E+02 0.117E+03   -.118E+03 0.448E+02 -.123E+03   0.381E+01 -.371E+00 0.423E+01   -.401E+00 -.105E+00 0.337E+00
   -.104E+03 0.285E+02 0.820E+02   0.106E+03 -.288E+02 -.898E+02   -.760E-01 -.458E+00 0.663E+01   0.417E+00 -.170E+00 0.542E+00
   0.863E+01 -.637E+02 -.587E+02   -.749E+01 0.727E+02 0.624E+02   -.242E+00 -.600E+01 -.280E+01   -.930E+00 -.239E+01 -.149E+00
   -.238E+02 0.184E+03 -.304E+02   0.244E+02 -.197E+03 0.268E+02   -.832E+00 0.739E+01 0.409E+01   0.616E+00 0.535E-01 0.286E+00
   -.472E+01 0.287E+02 -.280E+02   0.104E+02 -.355E+02 0.274E+02   -.473E+01 0.581E+01 0.896E+00   -.247E+00 0.331E+00 -.341E+00
   0.832E+01 0.773E+02 0.159E+03   -.862E+01 -.840E+02 -.178E+03   -.148E+00 0.512E+01 0.119E+02   -.527E-01 -.552E+00 -.953E+00
   -.134E+03 -.887E+02 -.520E+01   0.150E+03 0.992E+02 0.779E+01   -.822E+01 -.696E+01 -.232E+01   0.294E+00 -.662E+00 0.215E+00
   0.144E+03 -.648E+01 0.336E+01   -.149E+03 0.917E+01 -.632E+01   0.577E+01 -.371E+01 0.409E+01   -.197E+01 0.110E+01 -.490E+00
   0.137E+03 0.479E+02 -.701E+02   -.148E+03 -.499E+02 0.754E+02   0.712E+01 0.103E+01 -.336E+01   -.394E+00 0.804E-01 -.468E+00
   -.969E+02 0.613E+02 -.422E+02   0.105E+03 -.651E+02 0.457E+02   -.696E+01 0.272E+01 -.432E+01   -.280E+00 -.987E-01 0.215E+01
   0.235E+02 -.487E+02 -.455E+02   -.295E+02 0.529E+02 0.506E+02   0.564E+01 -.525E+01 -.384E+01   -.112E+01 0.191E+01 -.640E+00
   0.920E+02 -.246E+02 -.120E+02   -.982E+02 0.233E+02 0.129E+02   0.711E+01 0.126E+01 -.100E+01   -.218E+00 0.791E-01 0.490E+00
   0.198E+03 0.320E+02 0.274E+02   -.223E+03 -.374E+02 -.266E+02   0.148E+02 0.593E+01 -.154E+01   -.349E+00 -.315E+00 0.666E+00
   -.272E+02 0.949E+01 0.772E+02   0.338E+02 -.131E+02 -.791E+02   -.632E+01 0.342E+01 0.258E+01   -.551E+00 0.473E+00 -.141E+01
   0.997E+02 -.431E+02 -.765E+02   -.104E+03 0.459E+02 0.818E+02   0.305E+01 -.279E+01 -.435E+01   0.312E+00 0.740E+00 0.524E+00
   -.975E+01 -.341E+02 0.541E+01   0.128E-11 -.249E-12 0.185E-12   0.912E+01 0.339E+02 -.620E+01   0.654E+00 0.288E+00 0.798E+00

 POSITION                                       TOTAL-FORCE (eV/Angst)
      8.20610      8.00039      0.16227         2.382169      2.966929     -1.166686
      8.18399      1.98130      1.90463         3.704440      1.478180      5.645033
      2.19280      8.05435      2.14895        -0.349607      0.730280     -0.369483
      1.97075      2.05930      8.18527         2.195240     -2.141310     -0.651227
      0.15701      0.09437      4.16440        -2.436049     -0.190252      0.356666
      0.08336      1.89169      6.16847        -0.420751     -0.194324     -0.274386
      2.42985      7.84639      6.12969        -7.052767     -1.101292     -0.355915
      2.04034      1.92199      4.08944        -0.485733      1.709679     -0.197521
      8.06266      4.00586      0.11180         3.210359     -0.652489      0.248506
      0.08054      6.05501      2.13833         0.608966      1.621758     -0.460448
      2.11982      4.08957      1.91381        -0.436152     -0.358992      1.171878
      2.12769      5.93499      0.06075        -0.403066      0.380719     -1.327881
      8.01348      4.06921      4.19128        11.247901     -0.190179     -0.527534
      0.08033      6.33892      6.14017        -0.976540     -7.395485     -0.953855
      1.87806      4.02815      6.20549         1.511681      0.085421     -0.389340
      2.20201      6.31595      4.22727         0.151773     -1.036942     -0.482134
      4.07743      0.00257      0.10346         1.171867      1.421038     -0.963589
      3.97747      2.27956      1.95799         1.663336     -1.348236      0.600302
      6.25559      0.03224      1.99143        -3.137337     -1.139605      1.829754
      6.18058      2.10171      8.14983        -0.266098     -0.236767     -0.092199
      4.39195      0.05760      4.17493        -0.512148     -0.533577     -0.103967
      4.10042      2.23333      5.88425         0.038283     -0.773122      9.271941
      6.04266      8.13500      6.18414         0.137567      0.267008      0.177585
      6.16537      1.73532      4.12659         0.120314      1.671757      0.146722
      4.31820      4.03903      0.23822         0.645411      0.402975     -1.517188
      3.94696      6.21891      2.00558         1.228995     -0.456449      0.517330
      6.14477      4.29836      2.15949         2.060448     -0.985343      0.019141
      6.62623      6.17824      8.13264       -10.254831      0.539019     -0.696106
      4.16250      3.97110      4.11150        -0.035490      2.674133     -0.701366
      4.03029      6.12765      6.35384         1.125483     -0.836378     -1.998733
      6.29067      4.10065      6.23224         0.079950      5.322033     -2.720729
      6.41955      6.18543      4.07413        -1.654402     -0.166674     -0.077356
      2.14314      2.16782      1.89620        -1.737279     -0.409382      1.521912
      2.21337      0.11216      0.15970        -1.915385     -0.568225      0.537359
      0.22802      1.83168      0.27900        -1.661317     -0.759315     -5.177918
      7.98010      8.12298      2.10557         3.585027     -0.870244      0.904656
      2.07027      2.01733      6.15310        -0.542718      0.492315     -0.056476
      1.89220      0.08924      4.01411         1.701370     -0.869963     -0.537730
      8.05371      2.37089      4.02484         1.289591     -3.471415     -0.109308
      8.14790      7.93141      6.22486        -0.766555      7.707849      0.302953
      2.05690      5.98016      1.89701        -0.486339      0.493066      0.681299
      2.43241      3.80409      0.01417        -1.026866      2.927631     -0.544048
      8.17267      6.23846      0.05325         9.524190     -1.542166      1.565013
      0.14261      4.22400      2.05670        -1.188708     -1.154551     -0.925310
      1.86768      6.10134      6.24781         0.412010     -1.383471      0.521961
      2.10441      4.23941      3.92584        -0.024269     -0.684703      0.309881
      0.09373      5.74949      4.03612         0.300211      3.429156      0.300432
      0.01037      4.05744      6.29532        -0.395319     -0.045405      0.793393
      6.49500      1.90291      2.05515        -4.138507      1.014373     -0.460902
      6.33416      0.07620      0.16193        -1.753561      0.326088     -2.055632
      3.88007      2.01985      0.00583         1.772454     -0.917514     -0.669098
      4.29871      8.09669      2.04665        -0.028627      0.621581      0.679575
      6.03693      2.47906      6.12421         0.399860     -6.086512      0.773072
      6.32374      8.13666      4.07320         0.650697     -0.753430     -0.069786
      3.98198      2.18222      4.30879        -0.500633     -2.095659     -7.991293
      3.92013      0.07765      6.28216         8.368840      2.812530      0.477583
      6.36773      6.22826      2.01328        -0.816335      0.076675      0.640449
      6.38795      4.35476      8.02319        -3.864009     -0.877272      1.497597
      4.07885      6.36950      8.13111         0.659776     -1.183864      1.330591
      4.39126      4.11649      2.14449        -1.390292      0.910554      0.699393
      6.30075      6.10455      6.00381         0.703405     -0.020431      0.366948
      6.47313      3.96602      4.15795       -10.553379      0.239241     -0.075233
      4.20029      6.14140      4.42049        -0.254999      0.325669     -0.726024
      4.42719      4.19887      5.95684        -1.185545      0.783282      1.537480
    total drift:                                0.025061      0.057875     -0.000051

  FREE ENERGIE OF THE ION-ELECTRON SYSTEM (eV)
  free  energy   TOTEN  =      -379.2986169580 eV

  energy  without entropy=     -379.2326654627  energy(sigma->0) =     -379.26564121

volume of typ            1:    36.7 %

volume of typ            2:     9.4 %

total charge

# of ion       s       p       d       tot
    1        0.238   0.286   8.003   8.526
    2        0.285   0.340   8.035   8.660
    3        0.197   0.205   8.008   8.409
    4        0.270   0.359   7.962   8.591
    5        0.226   0.235   8.031   8.493
    6        0.174   0.161   8.007   8.342
    7        0.286   0.336   8.086   8.709
    8        0.202   0.218   8.007   8.427
    9        0.231   0.249   8.028   8.508
   10        0.240   0.290   8.009   8.539
   11        0.233   0.279   7.998   8.510
   12        0.213   0.227   8.006   8.446
   13        0.346   0.472   8.050   8.868
   14        0.283   0.342   8.044   8.669
   15        0.197   0.205   7.999   8.400
   16        0.196   0.207   7.977   8.380
   17        0.234   0.277   7.967   8.479
   18        0.215   0.233   8.028   8.476
   19        0.271   0.352   7.966   8.589
   20        0.186   0.169   7.992   8.347
   21        0.184   0.190   8.052   8.426
   22        0.273   0.330   8.055   8.658
   23        0.182   0.171   8.008   8.361
   24        0.215   0.237   7.994   8.446
   25        0.202   0.217   8.012   8.431
   26        0.197   0.208   7.941   8.346
   27        0.218   0.237   8.078   8.533
   28        0.281   0.348   8.076   8.706
   29        0.228   0.266   7.993   8.487
   30        0.230   0.263   8.004   8.496
   31        0.292   0.393   7.972   8.657
   32        0.214   0.238   7.995   8.447
   33        1.276   2.772   0.009   4.057
   34        1.275   2.749   0.007   4.031
   35        1.266   2.824   0.015   4.104
   36        1.279   2.783   0.011   4.073
   37        1.270   2.755   0.007   4.032
   38        1.258   2.807   0.014   4.079
   39        1.275   2.778   0.010   4.063
   40        1.268   2.799   0.014   4.081
   41        1.262   2.796   0.012   4.070
   42        1.268   2.789   0.010   4.068
   43        1.276   2.847   0.022   4.145
   44        1.280   2.763   0.009   4.051
   45        1.256   2.814   0.012   4.082
   46        1.276   2.718   0.005   3.999
   47        1.271   2.804   0.012   4.087
   48        1.267   2.779   0.008   4.055
   49        1.273   2.785   0.011   4.069
   50        1.269   2.780   0.009   4.058
   51        1.277   2.752   0.008   4.037
   52        1.263   2.764   0.008   4.035
   53        1.274   2.797   0.012   4.084
   54        1.257   2.802   0.012   4.071
   55        1.267   2.837   0.019   4.124
   56        1.273   2.811   0.017   4.101
   57        1.275   2.761   0.008   4.043
   58        1.265   2.824   0.014   4.103
   59        1.261   2.788   0.010   4.059
   60        1.258   2.812   0.014   4.084
   61        1.270   2.766   0.008   4.044
   62        1.283   2.816   0.017   4.117
   63        1.273   2.730   0.006   4.008
   64        1.276   2.770   0.009   4.054
tot          48.08   97.71  256.74  402.53

magnetization (x)

# of ion       s       p       d       tot
    1        0.000  -0.000  -0.843  -0.843
    2        0.001  -0.003  -0.273  -0.275
    3        0.000   0.001  -0.036  -0.035
    4       -0.000   0.003  -0.379  -0.376
    5        0.009   0.004   0.701   0.713
    6       -0.002  -0.001   1.059   1.056
    7        0.016   0.017   0.834   0.866
    8        0.001   0.001   0.116   0.118
    9        0.002   0.006   0.897   0.904
   10        0.000   0.000   0.034   0.035
   11        0.004   0.003   0.418   0.424
   12        0.006   0.004   1.017   1.027
   13       -0.005   0.000  -0.274  -0.279
   14        0.002  -0.002  -0.109  -0.108
   15        0.004   0.006   1.065   1.075
   16        0.003   0.004   1.098   1.105
   17        0.000   0.001   0.722   0.723
   18       -0.000   0.008   1.000   1.008
   19       -0.000  -0.001  -0.284  -0.285
   20        0.004   0.001   1.090   1.094
   21        0.005   0.005   0.699   0.710
   22       -0.001  -0.004  -0.504  -0.509
   23        0.002   0.001   1.095   1.097
   24        0.005   0.005   0.938   0.948
   25        0.001  -0.003  -0.922  -0.924
   26        0.001   0.002  -0.040  -0.038
   27        0.003   0.003   0.264   0.271
   28       -0.002  -0.011  -0.723  -0.736
   29        0.002   0.002   0.765   0.769
   30        0.004  -0.002   0.505   0.508
   31        0.001   0.004  -0.344  -0.338
   32        0.003   0.004   0.881   0.888
   33        0.002   0.037   0.000   0.039
   34        0.003   0.048   0.000   0.052
   35       -0.001   0.047  -0.000   0.046
   36       -0.001  -0.033  -0.000  -0.035
   37        0.003   0.081   0.000   0.084
   38        0.007   0.102  -0.000   0.109
   39        0.006   0.101  -0.000   0.106
   40        0.004   0.063  -0.000   0.067
   41        0.007   0.073   0.000   0.080
   42        0.003   0.037  -0.000   0.040
   43       -0.001  -0.048  -0.000  -0.049
   44        0.004   0.042   0.000   0.046
   45        0.017   0.134   0.000   0.151
   46        0.007   0.118   0.000   0.125
   47        0.006   0.068   0.000   0.074
   48        0.004   0.046   0.000   0.051
   49        0.002   0.049  -0.000   0.051
   50       -0.002   0.000  -0.000  -0.002
   51        0.002   0.046   0.000   0.048
   52        0.003   0.029   0.000   0.032
   53       -0.000   0.056  -0.000   0.055
   54        0.013   0.129   0.000   0.142
   55        0.005   0.044  -0.000   0.049
   56        0.011   0.125   0.001   0.136
   57        0.001  -0.011   0.000  -0.010
   58        0.002   0.006  -0.000   0.008
   59        0.005   0.047   0.000   0.052
   60        0.004   0.038  -0.000   0.042
   61        0.005   0.038   0.000   0.043
   62        0.002   0.036   0.000   0.038
   63        0.009   0.101   0.000   0.110
   64        0.000  -0.001  -0.000  -0.001
tot           0.20    1.70   10.47   12.37