 vasp.5.4.4.18Apr17-6-g9f103f2a35 (build May 12 2020 04:58:55) complex

 MD_VERSION_INFO: Compiled 2020-05-12T11:58:55-UTC in devlin.sd.materialsdesign.
 com:/home/medea2/data/build/wwolf/vasp-gpu5.4.4/13047/x86_64/src/src/build/std
 from svn 13047

 executed on                        Lin64 date 2023.03.23  19:17:44

 INCAR:
 POTCAR:    PAW_PBE Ni 02Aug2007
 POTCAR:    PAW_PBE O 08Apr2002

 POTCAR:    PAW_PBE Ni 02Aug2007

 POTCAR:    PAW_PBE O 08Apr2002

 Optimization of the real space projectors (new method)

 maximal supplied QI-value         = 16.25
 optimisation between [QCUT,QGAM] = [ 11.38, 22.75] = [ 36.24,144.96] Ry
 Optimized for a Real-space Cutoff    1.47 Angstroem

   l    n(q)    QCUT    max X(q) W(low)/X(q) W(high)/X(q)  e(spline)
   2      9    11.376    60.317    0.17E-03    0.16E-04    0.16E-06
   2      9    11.376    55.921    0.17E-03    0.16E-04    0.17E-06
   0     10    11.376    51.690    0.45E-04    0.60E-04    0.21E-06
   0     10    11.376    30.015    0.37E-04    0.55E-04    0.19E-06
   1     10    11.376    18.849    0.83E-04    0.11E-03    0.92E-07
   1     10    11.376    14.624    0.69E-04    0.92E-04    0.82E-07
 Optimization of the real space projectors (new method)

 maximal supplied QI-value         = 24.76
 optimisation between [QCUT,QGAM] = [ 11.39, 22.77] = [ 36.31,145.25] Ry
 Optimized for a Real-space Cutoff    1.10 Angstroem

   l    n(q)    QCUT    max X(q) W(low)/X(q) W(high)/X(q)  e(spline)
   0      7    11.387    20.381    0.22E-03    0.48E-03    0.18E-06
   0      7    11.387    15.268    0.22E-03    0.52E-03    0.19E-06
   1      7    11.387     5.964    0.22E-03    0.73E-03    0.24E-06
   1      7    11.387     5.382    0.19E-03    0.60E-03    0.21E-06

  PAW_PBE Ni 02Aug2007                  :
  PAW_PBE O 08Apr2002                   :

 POSCAR: NiO_Fm-3m_scale_1_000_disp_0_05_round_2
  positions in direct lattice
 exchange correlation table for  LEXCH =       14
   RHO(1)=    0.500       N(1)  =     2000
   RHO(2)=  100.500       N(2)  =     4000

 ion  position               nearest neighbor table
   1  0.005  0.001  0.002-  40 2.01  34 2.02  43 2.05  50 2.05  35 2.07  36 2.11   7 2.82  28 2.87
                             2 2.87   4 2.89  23 2.90  19 2.91   3 2.91  14 2.92  10 2.93  12 2.99
   2  0.986  0.243  0.253-  36 1.95  49 2.04  39 2.07  35 2.10  44 2.11  33 2.13  24 2.70  19 2.79
                            27 2.84   5 2.85  20 2.87   1 2.87  13 2.87   8 2.99   9 3.00   3 3.02
   3  0.256  0.994  0.253-  41 2.00  34 2.00  38 2.05  52 2.05  33 2.07  36 2.26  26 2.76   8 2.83
                            16 2.88  17 2.89   1 2.91  18 2.92  21 2.92   5 2.93  12 2.97   4 2.99
   4  0.252  0.252  0.997-  37 2.02  33 2.02  35 2.02  51 2.07  34 2.08  42 2.10  17 2.85  22 2.87
                            15 2.89   1 2.89  25 2.90   7 2.91   9 2.92   6 2.92  11 2.96  18 2.98
   5  0.999  0.999  0.499-  36 1.99  38 2.01  54 2.03  47 2.07  40 2.13  39 2.14  32 2.77  24 2.83
                            23 2.84   6 2.85   2 2.85  19 2.89  10 2.92   7 2.92   3 2.93  14 2.93
   6  0.009  0.251  0.737-  39 1.92  48 1.97  37 2.01  40 2.05  35 2.15  53 2.21  13 2.85   5 2.85
                            24 2.86   7 2.87  15 2.89   8 2.91   4 2.92  23 2.95  31 2.96   1 2.99
   7  0.245  0.993  0.756-  45 1.93  40 1.98  37 2.03  38 2.09  34 2.09  56 2.12  30 2.79   1 2.82
                            17 2.84  12 2.86  14 2.86   6 2.87  16 2.87   4 2.91  22 2.91   5 2.92
   8  0.263  0.244  0.490-  55 1.97  38 2.03  33 2.04  46 2.06  37 2.15  39 2.19  18 2.77  21 2.83
                             3 2.83  22 2.88   6 2.91  29 2.93  11 2.95   5 2.96   2 2.99   7 3.01
   9  0.007  0.508  0.003-  42 2.00  43 2.01  44 2.02  58 2.07  35 2.10  48 2.18  12 2.82  10 2.83
                            27 2.84  14 2.85  11 2.87  15 2.90   4 2.92  28 2.96  31 2.97   2 3.00
  10  0.984  0.747  0.250-  57 1.90  47 1.99  44 2.02  43 2.04  36 2.14  41 2.15  32 2.75  27 2.78
                            19 2.81  28 2.81   9 2.83  13 2.87   5 2.92   1 2.93  11 2.97   3 3.02
  11  0.255  0.509  0.249-  46 1.97  41 1.99  60 2.02  42 2.09  44 2.17  33 2.17  25 2.80  26 2.82
                            12 2.83   9 2.87  16 2.89  13 2.94   8 2.95   4 2.96  10 2.97  18 2.98
  12  0.259  0.741  0.995-  42 1.92  59 1.99  43 2.03  45 2.04  41 2.13  34 2.13  30 2.76  25 2.78
                            15 2.81   9 2.82  11 2.83   7 2.86  26 2.88  17 2.89  14 2.93   3 2.97
  13  0.995  0.497  0.494-  39 1.95  48 2.01  44 2.02  47 2.07  62 2.08  46 2.16  24 2.79   6 2.85
                            10 2.87   2 2.87  31 2.88  27 2.89  32 2.92  11 2.94  14 2.97  15 3.00
  14  0.997  0.749  0.753-  61 2.03  45 2.06  43 2.07  40 2.09  48 2.13  47 2.15  23 2.81  31 2.85
                            28 2.85   9 2.85   7 2.86  32 2.87   1 2.92  15 2.92   5 2.93  12 2.93
  15  0.254  0.503  0.750-  42 2.00  64 2.02  45 2.10  46 2.15  37 2.16  48 2.16  12 2.81  30 2.86
                            16 2.87   6 2.89   4 2.89   9 2.90  29 2.92  14 2.92  25 2.95  22 2.96
  16  0.256  0.751  0.505-  63 1.97  45 2.00  38 2.03  47 2.05  41 2.07  46 2.11  30 2.80  26 2.83
                            21 2.86  15 2.87   7 2.87   3 2.88  11 2.89   5 2.94  29 2.95  14 2.95
  17  0.494  0.003  0.994-  51 1.96  34 1.99  59 2.02  56 2.06  52 2.13  50 2.16  22 2.79  30 2.83
                             7 2.84   4 2.85  20 2.88   3 2.89  12 2.89  28 2.91  18 2.94  26 2.95
  18  0.505  0.247  0.257-  49 1.92  55 2.02  52 2.05  51 2.08  60 2.09  33 2.14   8 2.77  20 2.83
                            24 2.87  19 2.88  29 2.91  27 2.92   3 2.92  21 2.92  25 2.92  17 2.94
  19  0.751  0.998  0.249-  36 1.89  50 1.97  49 1.99  52 2.02  57 2.07  54 2.16   2 2.79  10 2.81
                            32 2.82  28 2.83  18 2.88  24 2.89  20 2.89   5 2.89  26 2.90   1 2.91
  20  0.740  0.251  0.005-  51 1.94  53 2.05  49 2.07  58 2.09  50 2.10  35 2.19  27 2.80  18 2.83
                            25 2.87   2 2.87  17 2.88  22 2.89  19 2.89  31 2.96  23 2.98   1 2.99
  21  0.502  0.997  0.510-  56 1.93  54 2.05  63 2.07  55 2.08  52 2.11  38 2.13  30 2.79  22 2.80
                             8 2.83  16 2.86  32 2.86  26 2.88  23 2.89  18 2.92   3 2.92   7 2.92
  22  0.499  0.239  0.749-  53 1.99  37 2.02  56 2.02  55 2.03  64 2.07  51 2.09  17 2.79  21 2.80
                             4 2.87   8 2.88  20 2.89   7 2.91  29 2.93  23 2.94  15 2.96  31 3.01
  23  0.759  0.994  0.749-  54 1.96  61 1.99  40 2.01  53 2.08  56 2.11  50 2.13  28 2.80  14 2.81
                            32 2.81   5 2.84  21 2.89   1 2.90  30 2.93  22 2.94   6 2.95  17 2.97
  24  0.762  0.250  0.493-  39 1.93  49 1.96  54 2.02  62 2.06  55 2.14  53 2.16   2 2.70  13 2.79
                             5 2.83   6 2.86  18 2.87  19 2.89  29 2.91  27 2.93  31 2.95  23 2.98
  25  0.500  0.504  0.011-  60 1.84  42 2.05  59 2.09  58 2.10  51 2.15  64 2.16  12 2.78  27 2.80
                            11 2.80  20 2.87  26 2.89   4 2.90  18 2.92  15 2.95  28 2.96  30 2.99
  26  0.493  0.756  0.255-  52 1.99  41 2.04  63 2.07  59 2.08  60 2.11  57 2.14   3 2.76  11 2.82
                            16 2.83  12 2.88  21 2.88  25 2.89  19 2.90  17 2.95  32 2.96  29 2.96
  27  0.754  0.500  0.238-  44 1.95  58 1.97  57 2.03  60 2.08  49 2.15  62 2.20  10 2.78  25 2.80
                            20 2.80   2 2.84   9 2.84  13 2.89  18 2.92  28 2.92  24 2.93  29 2.97
  28  0.752  0.761  0.998-  50 1.93  61 1.97  59 2.06  58 2.11  57 2.14  43 2.14  23 2.80  10 2.81
                            19 2.83  14 2.85   1 2.87  17 2.91  27 2.92  30 2.95   9 2.96  31 2.96
  29  0.511  0.499  0.505-  62 1.89  64 2.00  63 2.03  55 2.04  46 2.10  60 2.23  31 2.81  24 2.91
                            18 2.91  15 2.92   8 2.93  22 2.93  30 2.95  16 2.95  26 2.96  27 2.97
  30  0.491  0.759  0.752-  56 1.93  45 2.00  63 2.02  59 2.06  61 2.14  64 2.20  12 2.76  21 2.79
                             7 2.79  16 2.80  17 2.83  15 2.86  23 2.93  29 2.95  28 2.95  25 2.99
  31  0.753  0.503  0.747-  48 1.97  62 1.99  61 2.06  58 2.07  64 2.08  53 2.11  29 2.81  14 2.85
                            13 2.88  24 2.95   6 2.96  32 2.96  20 2.96  28 2.96   9 2.97  25 3.00
  32  0.759  0.762  0.498-  57 1.98  54 2.00  47 2.04  61 2.15  62 2.16  63 2.17  10 2.75   5 2.77
                            23 2.81  19 2.82  21 2.86  14 2.87  13 2.92  26 2.96  31 2.96  29 2.97
  33  0.245  0.245  0.242-   4 2.02   8 2.04   3 2.07   2 2.13  18 2.14  11 2.17
  34  0.251  1.000  0.010-  17 1.99   3 2.00   1 2.02   4 2.08   7 2.09  12 2.13
  35  0.006  0.252  0.999-   4 2.02   1 2.07   2 2.10   9 2.10   6 2.15  20 2.19
  36  0.981  0.007  0.258-  19 1.89   2 1.95   5 1.99   1 2.11  10 2.14   3 2.26
  37  0.253  0.241  0.752-   6 2.01   4 2.02  22 2.02   7 2.03   8 2.15  15 2.16
  38  0.243  0.998  0.502-   5 2.01   8 2.03  16 2.03   3 2.05   7 2.09  21 2.13
  39  0.996  0.259  0.504-   6 1.92  24 1.93  13 1.95   2 2.07   5 2.14   8 2.19
  40  0.004  0.003  0.758-   7 1.98   1 2.01  23 2.01   6 2.05  14 2.09   5 2.13
  41  0.245  0.751  0.253-  11 1.99   3 2.00  26 2.04  16 2.07  12 2.13  10 2.15
  42  0.251  0.508  0.994-  12 1.92  15 2.00   9 2.00  25 2.05  11 2.09   4 2.10
  43  0.013  0.752  0.004-   9 2.01  12 2.03  10 2.04   1 2.05  14 2.07  28 2.14
  44  0.991  0.501  0.249-  27 1.95  13 2.02  10 2.02   9 2.02   2 2.11  11 2.17
  45  0.248  0.759  0.748-   7 1.93  30 2.00  16 2.00  12 2.04  14 2.06  15 2.10
  46  0.257  0.494  0.488-  11 1.97   8 2.06  29 2.10  16 2.11  15 2.15  13 2.16
  47  0.007  0.748  0.491-  10 1.99  32 2.04  16 2.05  13 2.07   5 2.07  14 2.15
  48  0.991  0.490  0.739-  31 1.97   6 1.97  13 2.01  14 2.13  15 2.16   9 2.18
  49  0.738  0.239  0.257-  18 1.92  24 1.96  19 1.99   2 2.04  20 2.07  27 2.15
  50  0.756  0.996  0.009-  28 1.93  19 1.97   1 2.05  20 2.10  23 2.13  17 2.16
  51  0.505  0.242  0.004-  20 1.94  17 1.96   4 2.07  18 2.08  22 2.09  25 2.15
  52  0.505  0.998  0.253-  26 1.99  19 2.02  18 2.05   3 2.05  21 2.11  17 2.13
  53  0.741  0.247  0.755-  22 1.99  20 2.05  23 2.08  31 2.11  24 2.16   6 2.21
  54  0.752  0.005  0.511-  23 1.96  32 2.00  24 2.02   5 2.03  21 2.05  19 2.16
  55  0.502  0.251  0.502-   8 1.97  18 2.02  22 2.03  29 2.04  21 2.08  24 2.14
  56  0.503  0.993  0.744-  21 1.93  30 1.93  22 2.02  17 2.06  23 2.11   7 2.12
  57  0.753  0.746  0.258-  10 1.90  32 1.98  27 2.03  19 2.07  26 2.14  28 2.14
  58  0.755  0.504  0.999-  27 1.97  31 2.07   9 2.07  20 2.09  25 2.10  28 2.11
  59  0.501  0.757  0.002-  12 1.99  17 2.02  30 2.06  28 2.06  26 2.08  25 2.09
  60  0.500  0.501  0.235-  25 1.84  11 2.02  27 2.08  18 2.09  26 2.11  29 2.23
  61  0.751  0.753  0.758-  28 1.97  23 1.99  14 2.03  31 2.06  30 2.14  32 2.15
  62  0.742  0.500  0.506-  29 1.89  31 1.99  24 2.06  13 2.08  32 2.16  27 2.20
  63  0.495  0.746  0.506-  16 1.97  30 2.02  29 2.03  21 2.07  26 2.07  32 2.17
  64  0.499  0.491  0.748-  29 2.00  15 2.02  22 2.07  31 2.08  25 2.16  30 2.20

  LATTYP: Found a simple cubic cell.
 ALAT       =     8.2198900000

  Lattice vectors:

 A1 = (   8.2198900000,   0.0000000000,   0.0000000000)
[...]
   -.269E+02 0.353E+02 -.113E+02   0.268E+02 -.375E+02 0.120E+02   0.375E+00 -.816E+00 -.961E-02   0.226E+00 0.242E+01 -.775E+00
   0.380E+02 0.179E+02 -.326E+02   -.378E+02 -.170E+02 0.314E+02   -.972E+00 -.120E+01 0.152E+01   0.786E-01 0.217E+00 0.473E+00
   0.862E+01 0.581E+02 -.782E+01   -.708E+01 -.606E+02 0.618E+01   0.710E+00 -.129E+01 0.148E+01   -.247E+01 0.265E+01 0.517E+00
   0.409E+02 -.630E+01 0.346E+02   -.392E+02 0.693E+01 -.327E+02   -.101E+01 -.160E+00 -.190E+01   -.171E+01 -.387E+00 -.298E+00
   -.536E+02 0.943E+02 -.952E+01   0.549E+02 -.973E+02 0.836E+01   -.229E-01 -.973E+00 0.440E+00   -.313E+00 0.282E+01 0.926E+00
   0.231E+02 0.102E+02 -.414E+02   -.226E+02 -.109E+02 0.420E+02   -.625E+00 0.258E+00 0.279E+00   -.405E+00 0.113E+00 -.525E+00
   0.375E+02 0.585E+02 -.412E+02   -.364E+02 -.594E+02 0.411E+02   -.549E+00 -.369E+00 0.116E+01   -.108E+01 0.473E+00 -.473E+00
   0.186E+02 -.258E+02 -.195E+01   -.210E+02 0.286E+02 -.248E+01   0.270E+01 -.173E+01 0.114E+01   -.592E-02 -.112E+01 0.328E+01
   0.144E+02 -.525E+01 -.123E+02   -.192E+02 0.486E+01 0.126E+02   0.125E+01 0.505E+00 -.625E+00   0.358E+01 -.394E+00 -.562E-01
   0.244E+02 -.218E+02 0.139E+02   -.259E+02 0.238E+02 -.158E+02   0.205E+01 -.120E+01 0.134E+01   -.729E+00 -.640E+00 0.576E+00
   -.796E+02 0.162E+02 0.225E+02   0.851E+02 -.201E+02 -.238E+02   -.422E+01 0.241E+01 0.166E+01   -.273E+00 0.938E+00 -.563E+00
   0.237E+01 -.365E+02 0.207E+02   -.361E+01 0.386E+02 -.201E+02   0.193E+00 -.122E+01 0.235E+01   0.134E+01 -.749E+00 -.301E+01
   0.601E+00 -.195E+02 0.693E+01   -.158E+01 0.169E+02 -.557E+01   -.216E+00 0.767E+00 -.132E+01   0.140E+01 0.223E+01 -.154E+00
   -.672E+02 0.573E+01 0.121E+02   0.699E+02 -.874E+01 -.131E+02   -.510E+01 0.155E+01 0.108E+01   0.306E+01 0.129E+01 -.737E+00
   0.953E+01 -.139E+02 0.480E+01   -.101E+02 0.135E+02 -.605E+01   0.387E+00 -.214E+00 0.288E+00   0.838E-01 0.469E+00 0.485E+00
   0.309E+02 -.142E+01 0.154E+01   -.365E+02 0.734E+00 -.287E+01   0.365E+01 -.253E+00 0.762E+00   0.154E+01 0.114E+01 0.574E+00
   0.408E+01 0.542E+02 -.155E+01   -.398E+01 -.587E+02 0.286E+01   -.309E+00 0.329E+01 -.100E+01   0.180E+00 0.406E+00 -.255E+00
   0.388E+01 -.286E+01 0.397E+01   -.351E+01 0.376E+01 -.395E+01   -.739E+00 -.153E+01 -.167E-01   0.457E-02 0.666E+00 -.644E-01
   -.519E+02 0.346E+02 -.230E+00   0.565E+02 -.356E+02 -.135E+01   -.408E+01 0.170E+01 0.519E+00   -.112E+00 -.111E+01 0.139E+01
   0.273E+02 0.468E+02 0.715E+01   -.309E+02 -.498E+02 -.675E+01   0.169E+01 0.153E+01 0.257E+00   0.146E+01 0.694E+00 -.561E+00
   0.166E+02 0.111E+02 -.247E+02   -.169E+02 -.876E+01 0.262E+02   0.116E+01 -.407E+00 -.133E+01   -.877E+00 -.220E+01 0.531E+00
   -.243E+02 0.225E+02 -.296E+02   0.267E+02 -.215E+02 0.313E+02   -.279E+01 -.217E+00 -.138E+01   0.275E+00 -.129E+01 0.176E+00
   -.304E+02 -.117E+02 -.269E+02   0.312E+02 0.132E+02 0.305E+02   -.120E+01 -.406E+00 -.194E+01   0.118E+01 -.443E+00 -.155E+01
   -.855E+01 -.368E+02 0.249E+02   0.908E+01 0.388E+02 -.257E+02   -.330E+00 -.459E+00 0.113E+01   0.163E+00 -.110E+01 -.828E+00
   0.952E+01 -.378E+02 0.322E+02   -.703E+01 0.415E+02 -.341E+02   0.338E+00 -.337E+01 0.106E+01   -.310E+01 0.168E+00 0.209E+00
   0.231E+02 -.359E+02 0.870E+01   -.257E+02 0.434E+02 -.761E+01   0.136E+01 -.344E+01 -.152E+00   0.494E+00 -.411E+01 -.978E+00
   0.107E+02 -.708E+01 0.220E+01   -.101E+02 0.927E+01 -.602E+00   -.422E+00 -.119E+01 0.108E+01   -.268E-01 -.728E+00 -.254E+01
   -.318E+02 -.153E+02 -.121E+02   0.351E+02 0.178E+02 0.104E+02   -.165E+01 -.897E+00 0.830E+00   -.131E+01 -.170E+01 0.743E+00
   0.161E+02 -.683E+01 0.746E+01   -.168E+02 0.968E+01 -.970E+01   0.196E+01 -.217E+01 0.171E+01   -.114E+01 -.878E+00 -.147E+00
   -.450E+01 -.137E+02 -.730E+01   0.118E+02 0.149E+02 0.802E+01   -.358E+01 -.585E+00 -.155E+01   -.353E+01 -.830E+00 0.747E+00
   -.114E+02 -.245E+02 -.226E+02   0.129E+02 0.257E+02 0.215E+02   -.142E+01 -.104E+01 -.116E+01   -.233E+00 0.492E+00 0.277E+01
   0.600E+02 0.173E+02 0.123E+02   -.643E+02 -.191E+02 -.142E+02   0.532E+01 0.130E+01 0.119E+01   -.172E+01 0.965E+00 0.308E+00
   -.212E+01 0.704E+01 0.402E+02   0.284E+01 -.652E+01 -.445E+02   -.475E+00 -.367E+00 0.289E+01   -.213E+00 -.759E-02 0.983E+00
   -.286E+02 0.176E+02 -.562E+01   0.316E+02 -.225E+02 0.665E+01   -.290E+01 0.130E+01 -.115E+01   0.140E-01 0.387E+01 0.141E+00
   -.454E+01 0.309E+01 -.625E+02   0.521E+01 -.388E+01 0.690E+02   -.691E+00 -.740E-01 -.546E+01   0.289E+00 0.738E+00 0.299E+00
   0.222E+02 0.384E+02 0.208E+02   -.244E+02 -.426E+02 -.225E+02   0.359E+01 0.246E+01 0.120E+01   -.143E+01 0.169E+01 -.942E-01
   -.124E+02 -.225E+02 0.191E+02   0.140E+02 0.236E+02 -.207E+02   -.179E+01 -.166E+01 0.230E+01   0.889E+00 0.744E+00 -.112E+01
   -.348E+02 0.252E+02 0.151E+02   0.386E+02 -.273E+02 -.155E+02   -.296E+01 0.130E+01 0.363E+00   -.360E+00 0.823E+00 -.222E+00
   -.708E+01 -.549E+01 -.307E+02   0.947E+01 0.572E+01 0.339E+02   -.135E+01 0.435E+00 -.208E+01   -.104E+01 -.499E+00 -.364E+00
   0.195E+02 0.755E+01 -.909E+01   -.211E-12 -.721E-12 -.249E-12   -.193E+02 -.768E+01 0.902E+01   -.226E+00 0.169E+00 0.406E-02

 POSITION                                       TOTAL-FORCE (eV/Angst)
      0.04419      0.00979      0.01788        -0.053518      0.243132      0.272955
      8.10273      2.00073      2.08296         0.964341      0.724922     -0.476697
      2.10195      8.17097      2.08013        -0.468572      0.502040     -0.108990
      2.07529      2.07115      8.19522        -0.178147      0.094125      0.310586
      8.20772      8.21339      4.10449         0.244760      0.081365      0.275054
      0.07781      2.06141      6.06157        -0.712569     -0.266023      1.253235
      2.01070      8.16466      6.21156         0.405220      0.844127     -0.158915
      2.15796      2.00823      4.02930        -0.614538      0.325534      0.271891
      0.06023      4.17753      0.02467        -0.416175     -0.740981     -0.480504
      8.08467      6.13716      2.05505         1.870115      0.339519     -0.174703
      2.09783      4.18400      2.04399        -0.305788     -0.741487     -0.059282
      2.13014      6.09080      8.17708        -0.504132      1.154600      0.547839
      8.17715      4.08429      4.06183         0.525054      0.609617      0.040852
      8.19577      6.15294      6.18790         0.235036     -0.194847     -0.186257
      2.08729      4.13432      6.16683        -0.247011     -0.266015     -0.484865
      2.10445      6.17210      4.14746        -0.763928     -0.394558     -0.541408
      4.05714      0.02771      8.17239         0.681381     -0.275284      0.479037
      4.15284      2.02837      2.11126        -1.066895      0.276434     -0.242096
      6.17585      8.20025      2.04354        -1.159270     -0.255072      0.472342
      6.08610      2.06326      0.03944         1.086527      0.154328     -0.576207
      4.12442      8.19638      4.19024         0.023986      0.178867     -0.857303
      4.10226      1.96566      6.15933         0.054969      0.650524      0.049280
      6.24180      8.16831      6.15963        -0.374445      0.857894      0.603056
      6.26541      2.05553      4.05547        -1.012003      0.149733      0.962346
      4.11101      4.13967      0.09136         0.368927     -0.168683     -1.909091
      4.05562      6.21784      2.09233         0.483416     -0.587055     -0.065396
      6.19541      4.10608      1.95791        -0.678148     -0.114103      0.783903
      6.18199      6.25806      8.20513        -0.223503     -1.146070      0.354094
      4.20245      4.10115      4.15512        -0.983682      0.086116     -0.383909
      4.03269      6.23699      6.17836         0.923632     -1.201755      0.206244
      6.18637      4.13176      6.14300        -0.508615     -0.341502      0.425077
      6.23594      6.26269      4.09037        -0.613335     -0.823693      0.593558
      2.01537      2.01285      1.99100         0.307914      0.027156     -0.011468
      2.06726      8.21768      0.07838         0.090450     -0.281591     -0.327532
      0.05256      2.07529      8.21146        -0.238028      0.086531     -0.021709
      8.06040      0.05601      2.12161         1.091571     -0.497436     -0.178775
      2.08133      1.97742      6.18140         0.289819      0.135324     -0.006785
      1.99815      8.20297      4.12599         0.198797      0.430906     -0.107305
      8.18977      2.13221      4.14230         0.718113     -0.158253     -0.613854
      0.02966      0.02190      6.23281        -0.123503     -0.087104     -0.472133
      2.01354      6.17062      2.08136        -0.385894      0.205609      0.010707
      2.06276      4.17502      8.17015        -0.031290     -0.830683      0.050933
      0.10473      6.18289      0.03455        -0.360195      0.032471     -0.063025
      8.14560      4.11488      2.04356         0.439578     -0.430132      0.329172
      2.03449      6.23729      6.14469        -0.436291     -0.710965      0.097782
      2.11242      4.06300      4.01487        -0.026721     -0.277326      0.705660
      0.05477      6.14824      4.03785        -0.137324     -0.504856      0.517336
      8.14906      4.02847      6.07415         0.778219      0.622120      0.159862
      6.06682      1.96237      2.10957         0.364760      0.478574     -0.531981
      6.21165      8.18430      0.07215        -0.266006      0.513782     -0.594908
      4.14756      1.98823      0.03383        -0.786277     -0.015447     -0.033333
      4.15150      8.20164      2.07981         0.125008      0.275285      0.141742
      6.08919      2.02698      6.20700         0.274145     -0.176140     -0.071533
      6.17750      0.04126      4.20106         0.092264     -0.193390     -0.676596
      4.12685      2.06043      4.12737         0.219876     -0.200088     -0.081829
      4.13240      8.16415      6.11876        -0.126173      0.687781      0.585370
      6.18883      6.12916      2.11684        -0.672596      0.401684     -0.383157
      6.20694      4.14615      8.21088         0.036992      0.144416     -0.358257
      4.11757      6.22641      0.01360         0.103914      0.224769      0.028513
      4.11370      4.11429      1.92920         0.266959     -0.124154      1.380602
      6.17095      6.18562      6.23324        -0.023065     -0.049592     -0.619141
      6.09676      4.11073      4.15518         0.783057      0.259497     -0.451637
      4.06960      6.12960      4.16259         0.459128      0.083357     -0.299537
      4.10527      4.03800      6.14935        -0.010293      0.172143      0.701088
    total drift:                                0.009416      0.032545     -0.069368

  FREE ENERGIE OF THE ION-ELECTRON SYSTEM (eV)
  free  energy   TOTEN  =      -396.2663843058 eV

  energy  without entropy=     -396.2178542018  energy(sigma->0) =     -396.24211925

volume of typ            1:    36.7 %

volume of typ            2:     9.4 %

total charge

# of ion       s       p       d       tot
    1        0.203   0.221   7.952   8.375
    2        0.199   0.217   7.983   8.399
    3        0.203   0.218   7.955   8.376
    4        0.204   0.223   8.010   8.437
    5        0.201   0.218   8.023   8.442
    6        0.210   0.232   7.965   8.407
    7        0.208   0.236   7.982   8.427
    8        0.197   0.211   7.838   8.245
    9        0.199   0.217   7.957   8.374
   10        0.213   0.240   8.031   8.484
   11        0.200   0.217   7.991   8.408
   12        0.211   0.240   7.984   8.434
   13        0.205   0.227   7.922   8.353
   14        0.192   0.203   8.021   8.416
   15        0.190   0.198   7.999   8.387
   16        0.207   0.232   7.943   8.382
   17        0.202   0.223   7.843   8.269
   18        0.207   0.230   8.011   8.448
   19        0.220   0.256   7.946   8.422
   20        0.198   0.214   7.970   8.381
   21        0.199   0.218   8.018   8.435
   22        0.207   0.231   7.938   8.376
   23        0.209   0.232   7.945   8.386
   24        0.211   0.237   7.996   8.444
   25        0.211   0.228   7.973   8.412
   26        0.197   0.212   7.964   8.372
   27        0.207   0.226   7.965   8.397
   28        0.208   0.227   7.963   8.397
   29        0.210   0.233   7.970   8.414
   30        0.206   0.228   7.963   8.397
   31        0.207   0.229   7.997   8.432
   32        0.196   0.212   7.953   8.361
   33        1.261   2.765   0.006   4.033
   34        1.262   2.773   0.008   4.043
   35        1.264   2.760   0.006   4.029
   36        1.262   2.784   0.009   4.055
   37        1.261   2.781   0.007   4.049
   38        1.263   2.775   0.008   4.046
   39        1.257   2.798   0.009   4.064
   40        1.259   2.787   0.008   4.054
   41        1.258   2.784   0.007   4.050
   42        1.257   2.796   0.009   4.062
   43        1.261   2.777   0.008   4.045
   44        1.261   2.780   0.008   4.049
   45        1.257   2.801   0.009   4.067
   46        1.264   2.764   0.006   4.035
   47        1.263   2.770   0.007   4.040
   48        1.263   2.775   0.007   4.045
   49        1.259   2.801   0.009   4.069
   50        1.259   2.784   0.008   4.051
   51        1.263   2.778   0.008   4.049
   52        1.263   2.771   0.008   4.042
   53        1.261   2.769   0.006   4.037
   54        1.261   2.786   0.008   4.056
   55        1.263   2.774   0.008   4.045
   56        1.261   2.790   0.009   4.060
   57        1.261   2.789   0.009   4.059
   58        1.257   2.782   0.007   4.045
   59        1.257   2.782   0.008   4.047
   60        1.256   2.795   0.008   4.059
   61        1.255   2.791   0.008   4.054
   62        1.261   2.781   0.008   4.050
   63        1.257   2.786   0.008   4.051
   64        1.261   2.774   0.006   4.041
tot          46.87   96.19  255.21  398.27

magnetization (x)

# of ion       s       p       d       tot
    1       -0.000  -0.001   1.047   1.046
    2        0.003   0.003   0.878   0.884
    3        0.003   0.000   1.266   1.269
    4        0.003   0.003   0.711   0.717
    5        0.006   0.005   0.713   0.724
    6       -0.000  -0.000   1.142   1.141
    7        0.004   0.006  -1.158  -1.147
    8        0.007   0.006   0.482   0.495
    9        0.004   0.005  -1.130  -1.121
   10        0.003   0.002   0.187   0.192
   11        0.009   0.010   1.220   1.239
   12        0.004   0.005  -1.138  -1.129
   13        0.002   0.002   0.274   0.278
   14        0.006   0.005  -1.020  -1.009
   15        0.006   0.004   0.972   0.982
   16       -0.004  -0.005   1.110   1.101
   17        0.005   0.005  -0.235  -0.224
   18        0.002   0.001   0.057   0.060
   19        0.002   0.005  -1.127  -1.119
   20        0.008   0.008   1.053   1.069
   21        0.005   0.004   0.470   0.479
   22        0.003   0.006  -1.084  -1.075
   23        0.001   0.000   1.237   1.239
   24        0.004   0.004   1.071   1.079
   25        0.003   0.003   1.119   1.126
   26        0.003   0.003   1.094   1.099
   27        0.006   0.006   1.169   1.181
   28        0.002   0.001   1.256   1.259
   29        0.006   0.006   0.958   0.970
   30        0.000   0.000   1.248   1.249
   31        0.008   0.009   1.047   1.065
   32        0.005   0.005  -1.214  -1.205
   33        0.015   0.109   0.000   0.124
   34        0.005   0.024   0.000   0.029
   35        0.009   0.077   0.000   0.087
   36        0.007   0.043   0.000   0.050
   37        0.006   0.046   0.000   0.052
   38        0.006   0.029   0.000   0.035
   39        0.018   0.119   0.000   0.137
   40        0.006   0.030   0.000   0.037
   41        0.013   0.095   0.000   0.108
   42        0.007   0.037   0.000   0.044
   43        0.000  -0.014   0.000  -0.013
   44        0.010   0.060   0.000   0.070
   45        0.001   0.007   0.000   0.009
   46        0.011   0.076   0.000   0.087
   47        0.003   0.002   0.000   0.005
   48        0.008   0.044   0.000   0.052
   49        0.010   0.057   0.000   0.066
   50        0.010   0.068   0.000   0.079
   51        0.008   0.043   0.000   0.051
   52        0.005   0.042   0.000   0.046
   53        0.013   0.113   0.000   0.127
   54        0.006   0.030   0.000   0.036
   55        0.011   0.068   0.000   0.080
   56        0.004   0.022   0.000   0.026
   57        0.004   0.008   0.000   0.011
   58        0.017   0.123   0.001   0.140
   59        0.012   0.085   0.000   0.098
   60        0.019   0.135   0.001   0.154
   61        0.013   0.086   0.000   0.099
   62        0.012   0.074   0.000   0.085
   63        0.015   0.097   0.001   0.113
   64        0.013   0.086   0.000   0.099
tot           0.42    2.04   13.68   16.14