 vasp.5.4.4.18Apr17-6-g9f103f2a35 (build May 12 2020 04:58:55) complex

 MD_VERSION_INFO: Compiled 2020-05-12T11:58:55-UTC in devlin.sd.materialsdesign.
 com:/home/medea2/data/build/wwolf/vasp-gpu5.4.4/13047/x86_64/src/src/build/std
 from svn 13047

 executed on                        Lin64 date 2023.03.23  19:35:58

 INCAR:
 POTCAR:    PAW_PBE Ni 02Aug2007
 POTCAR:    PAW_PBE O 08Apr2002

 POTCAR:    PAW_PBE Ni 02Aug2007

 POTCAR:    PAW_PBE O 08Apr2002

 Optimization of the real space projectors (new method)

 maximal supplied QI-value         = 16.25
 optimisation between [QCUT,QGAM] = [ 11.38, 22.75] = [ 36.24,144.96] Ry
 Optimized for a Real-space Cutoff    1.47 Angstroem

   l    n(q)    QCUT    max X(q) W(low)/X(q) W(high)/X(q)  e(spline)
   2      9    11.376    60.317    0.17E-03    0.16E-04    0.16E-06
   2      9    11.376    55.921    0.17E-03    0.16E-04    0.17E-06
   0     10    11.376    51.690    0.45E-04    0.60E-04    0.21E-06
   0     10    11.376    30.015    0.37E-04    0.55E-04    0.19E-06
   1     10    11.376    18.849    0.83E-04    0.11E-03    0.92E-07
   1     10    11.376    14.624    0.69E-04    0.92E-04    0.82E-07
 Optimization of the real space projectors (new method)

 maximal supplied QI-value         = 24.76
 optimisation between [QCUT,QGAM] = [ 11.39, 22.77] = [ 36.31,145.25] Ry
 Optimized for a Real-space Cutoff    1.10 Angstroem

   l    n(q)    QCUT    max X(q) W(low)/X(q) W(high)/X(q)  e(spline)
   0      7    11.387    20.381    0.22E-03    0.48E-03    0.18E-06
   0      7    11.387    15.268    0.22E-03    0.52E-03    0.19E-06
   1      7    11.387     5.964    0.22E-03    0.73E-03    0.24E-06
   1      7    11.387     5.382    0.19E-03    0.60E-03    0.21E-06

  PAW_PBE Ni 02Aug2007                  :
  PAW_PBE O 08Apr2002                   :

 POSCAR: NiO_Fm-3m_scale_0_975_disp_0_20_round_2
  positions in direct lattice
 exchange correlation table for  LEXCH =       14
   RHO(1)=    0.500       N(1)  =     2000
   RHO(2)=  100.500       N(2)  =     4000

 ion  position               nearest neighbor table
   1  0.992  0.008  0.996-  50 1.47  43 1.69  36 1.86  40 1.91  35 2.00  34 2.27  20 2.36  10 2.38
                            14 2.60  19 2.61  23 2.64  28 2.64   2 2.67   7 2.77   6 2.79   3 2.79
   2  0.987  0.262  0.212-  49 1.37  35 1.74  20 2.04  36 2.08  44 2.09  33 2.31  39 2.38  24 2.47
                            27 2.49  19 2.58   4 2.63   1 2.67   9 2.69   8 2.94   3 3.04
   3  0.229  0.973  0.249-  34 1.72  41 1.95  38 2.05  36 2.05  10 2.20  33 2.38  12 2.46   5 2.59
                             1 2.79  17 2.81  16 2.86  26 2.91   4 2.95  18 2.98  21 3.01   2 3.04
   4  0.245  0.251  0.009-  35 1.83  33 1.89  34 2.07  37 2.08  51 2.12  42 2.25   6 2.38   2 2.63
                            15 2.78  18 2.79   1 2.81  25 2.81  17 2.82  22 2.84   3 2.95  11 3.05
   5  0.009  0.954  0.484-  54 1.72  47 1.81  36 2.10  32 2.20  40 2.26  39 2.31  10 2.37  38 2.45
                             7 2.58   3 2.59  16 2.65  14 2.86  19 2.87  23 2.88   8 2.97
   6  0.036  0.294  0.801-  35 1.61  48 1.76  37 1.86  53 2.23   4 2.38  39 2.41  15 2.56  20 2.66
                             1 2.79   8 2.82  31 2.85   9 2.91  13 2.98   7 3.05
   7  0.211  0.963  0.733-  45 1.29  40 1.44  38 2.15  37 2.29  56 2.37  16 2.48  34 2.52  14 2.56
                             5 2.58  12 2.76   1 2.77  21 2.97   8 3.04  30 3.04   6 3.05
   8  0.214  0.262  0.501-  39 1.48  37 2.03  38 2.12  33 2.12  55 2.25  46 2.26  13 2.55   6 2.82
                             2 2.94   5 2.97   7 3.04  11 3.04  22 3.05  21 3.07  15 3.07   3 3.08
   9  0.992  0.556  0.049-  44 1.29  58 1.92  43 1.98  42 2.12  48 2.26  35 2.44  10 2.51  27 2.53
                            28 2.54  11 2.63   2 2.69  14 2.71  12 2.81   6 2.91  20 2.97  15 3.06
  10  0.005  0.817  0.222-  36 1.51  43 1.73  57 1.84  41 2.18   3 2.20   5 2.37   1 2.38  28 2.46
                            44 2.50   9 2.51  19 2.56  32 2.61  12 2.67  11 2.95
  11  0.252  0.545  0.250-  41 1.50  44 1.63  60 2.03  33 2.24  46 2.26  42 2.36  12 2.63   9 2.63
                            26 2.66  16 2.68  13 2.74  29 2.85  10 2.95   8 3.04   4 3.05  25 3.06
  12  0.265  0.775  0.017-  34 1.78  59 1.84  41 1.87  45 2.01  42 2.05  43 2.30   3 2.46  17 2.51
                            11 2.63  10 2.67   7 2.76  15 2.80   9 2.81   1 2.88  26 2.97  14 3.03
  13  0.025  0.518  0.504-  46 1.67  47 1.84  62 1.94  39 2.23  48 2.25   8 2.55  16 2.62  32 2.70
                            11 2.74  27 2.74  24 2.82  31 2.85  15 2.96   6 2.98  14 3.03
  14  0.967  0.765  0.784-  40 1.82  43 1.82  47 1.88  61 2.08  48 2.15  23 2.44  45 2.46   7 2.56
                             1 2.60  28 2.61  31 2.63   9 2.71  32 2.80   5 2.86  13 3.03  12 3.03
  15  0.265  0.515  0.784-  42 1.40  46 2.06  64 2.15  37 2.19  45 2.43  25 2.45  48 2.47   6 2.56
                            22 2.77   4 2.78  12 2.80  16 2.80  30 2.90  13 2.96   9 3.06   8 3.07
  16  0.261  0.743  0.520-  46 1.63  45 2.09  63 2.14  41 2.19  47 2.22  38 2.22   7 2.48  13 2.62
                             5 2.65  29 2.65  11 2.68  26 2.72  30 2.73  15 2.80   3 2.86  21 2.87
  17  0.487  0.995  0.012-  34 1.74  51 2.03  56 2.04  52 2.16  12 2.51  59 2.52  18 2.60   3 2.81
                             4 2.82  28 2.84  19 2.86  22 2.94  30 2.99  26 3.00
  18  0.503  0.224  0.241-  52 1.80  33 1.87  55 1.89  51 1.97  60 2.23  17 2.60  19 2.64  21 2.74
                            24 2.79   4 2.79  20 2.95   3 2.98  25 3.00  27 3.04
  19  0.767  0.028  0.231-  52 1.59  36 1.69  50 1.79  49 2.14  54 2.21  57 2.29  20 2.30  28 2.55
                            10 2.56   2 2.58  24 2.58   1 2.61  18 2.64  17 2.86  32 2.86   5 2.87
  20  0.807  0.235  0.035-  50 1.66  35 1.72  49 1.80   2 2.04  53 2.21  19 2.30   1 2.36  51 2.41
                            58 2.48   6 2.66  27 2.76  18 2.95  23 2.97   9 2.97
  21  0.501  0.008  0.506-  38 1.56  52 1.99  63 2.01  56 2.04  55 2.13  54 2.41  26 2.70  30 2.72
                            18 2.74  22 2.85  16 2.87  23 2.94   7 2.97   3 3.01  19 3.07   8 3.07
  22  0.495  0.259  0.757-  37 1.92  51 1.92  53 2.15  56 2.20  64 2.28  55 2.29  25 2.48  15 2.77
                             4 2.84  21 2.85  17 2.94  31 2.95   8 3.05  23 3.06
  23  0.772  0.997  0.752-  61 1.78  54 2.01  53 2.04  40 2.11  50 2.12  56 2.15  14 2.44   1 2.64
                            30 2.76  32 2.88   5 2.88  28 2.91  21 2.94  20 2.97  22 3.06
  24  0.782  0.271  0.442-  49 1.57  62 1.80  39 2.07  27 2.21  54 2.21  55 2.32   2 2.47  19 2.58
                            18 2.79  13 2.82  29 3.03  31 3.08
  25  0.505  0.483  0.971-  59 1.62  64 1.84  51 1.91  58 2.09  42 2.17  15 2.45  22 2.48  31 2.76
                             4 2.81  30 2.92  18 3.00  12 3.05  11 3.06
  26  0.512  0.748  0.292-  63 1.78  41 2.03  60 2.06  52 2.18  57 2.26  29 2.33  11 2.66  21 2.70
                            16 2.72  32 2.78  28 2.87   3 2.91  12 2.97  17 3.00  27 3.00  19 3.08
  27  0.778  0.485  0.269-  49 1.62  62 1.77  57 2.10  24 2.21  58 2.21  60 2.31  44 2.37   2 2.49
                             9 2.53  13 2.74  20 2.76  29 2.77  32 2.83  28 2.97  26 3.00  18 3.04
  28  0.764  0.775  0.038-  43 1.76  57 1.88  58 1.92  61 2.05  50 2.08  10 2.46  59 2.48   9 2.54
                            19 2.55  14 2.61   1 2.64  17 2.84  26 2.87  23 2.91  27 2.97
  29  0.516  0.535  0.489-  60 1.48  63 1.81  64 2.10  55 2.11  62 2.19  46 2.31  26 2.33  30 2.62
                            16 2.65  27 2.77  31 2.83  11 2.85  32 2.99  24 3.03
  30  0.529  0.755  0.730-  61 1.53  64 1.73  63 1.74  56 1.86  59 2.16  45 2.17  29 2.62  31 2.70
                            21 2.72  16 2.73  23 2.76  15 2.90  25 2.92  17 2.99  32 3.02   7 3.04
  31  0.761  0.511  0.742-  48 1.60  64 1.87  62 2.03  58 2.07  53 2.09  61 2.29  14 2.63  30 2.70
                            25 2.76  29 2.83   6 2.85  13 2.85  22 2.95  32 3.01  24 3.08
  32  0.805  0.770  0.474-  47 1.60  57 1.66  54 1.87   5 2.20  63 2.25  62 2.26  10 2.61  13 2.70
                            26 2.78  14 2.80  27 2.83  19 2.86  23 2.88  29 2.99  31 3.01  30 3.02
  33  0.274  0.267  0.242-  18 1.87   4 1.89   8 2.12  11 2.24   2 2.31   3 2.38
  34  0.271  0.996  0.040-   3 1.72  17 1.74  12 1.78   4 2.07   1 2.27   7 2.52
  35  0.017  0.257  0.998-   6 1.61  20 1.72   2 1.74   4 1.83   1 2.00   9 2.44
  36  0.975  0.003  0.228-  10 1.51  19 1.69   1 1.86   3 2.05   2 2.08   5 2.10
  37  0.256  0.244  0.749-   6 1.86  22 1.92   8 2.03   4 2.08  15 2.19   7 2.29
  38  0.308  0.015  0.488-  21 1.56   3 2.05   8 2.12   7 2.15  16 2.22   5 2.45
  39  0.030  0.240  0.506-   8 1.48  24 2.07  13 2.23   5 2.31   2 2.38   6 2.41
  40  0.035  0.980  0.763-   7 1.44  14 1.82   1 1.91  23 2.11   5 2.26
  41  0.263  0.732  0.247-  11 1.50  12 1.87   3 1.95  26 2.03  10 2.18  16 2.19
  42  0.238  0.527  0.957-  15 1.40  12 2.05   9 2.12  25 2.17   4 2.25  11 2.36
  43  0.979  0.799  0.009-   1 1.69  10 1.73  28 1.76  14 1.82   9 1.98  12 2.30
  44  0.061  0.512  0.189-   9 1.29  11 1.63   2 2.09  27 2.37  10 2.50
  45  0.269  0.817  0.770-   7 1.29  12 2.01  16 2.09  30 2.17  15 2.43  14 2.46
  46  0.230  0.542  0.531-  16 1.63  13 1.67  15 2.06  11 2.26   8 2.26  29 2.31
  47  0.986  0.739  0.551-  32 1.60   5 1.81  13 1.84  14 1.88  16 2.22
  48  0.958  0.497  0.776-  31 1.60   6 1.76  14 2.15  13 2.25   9 2.26  15 2.47
  49  0.824  0.289  0.252-   2 1.37  24 1.57  27 1.62  20 1.80  19 2.14
  50  0.811  0.029  0.012-   1 1.47  20 1.66  19 1.79  28 2.08  23 2.12
  51  0.508  0.247  0.997-  25 1.91  22 1.92  18 1.97  17 2.03   4 2.12  20 2.41
  52  0.572  0.013  0.267-  19 1.59  18 1.80  21 1.99  17 2.16  26 2.18
  53  0.763  0.252  0.763-  23 2.04  31 2.09  22 2.15  20 2.21   6 2.23
  54  0.801  0.002  0.502-   5 1.72  32 1.87  23 2.01  19 2.21  24 2.21  21 2.41
  55  0.494  0.272  0.472-  18 1.89  29 2.11  21 2.13   8 2.25  22 2.29  24 2.32
  56  0.505  0.985  0.759-  30 1.86  17 2.04  21 2.04  23 2.15  22 2.20   7 2.37
  57  0.792  0.746  0.269-  32 1.66  10 1.84  28 1.88  27 2.10  26 2.26  19 2.29
  58  0.759  0.538  0.999-   9 1.92  28 1.92  31 2.07  25 2.09  27 2.21  20 2.48
  59  0.473  0.683  0.983-  25 1.62  12 1.84  30 2.16  28 2.48  17 2.52
  60  0.492  0.493  0.311-  29 1.48  11 2.03  26 2.06  18 2.23  27 2.31
  61  0.708  0.788  0.789-  30 1.53  23 1.78  28 2.05  14 2.08  31 2.29
  62  0.785  0.490  0.490-  27 1.77  24 1.80  13 1.94  31 2.03  29 2.19  32 2.26
  63  0.527  0.759  0.513-  30 1.74  26 1.78  29 1.81  21 2.01  16 2.14  32 2.25
  64  0.530  0.541  0.750-  30 1.73  25 1.84  31 1.87  29 2.10  15 2.15  22 2.28

  LATTYP: Found a simple cubic cell.
 ALAT       =     8.0143927500

  Lattice vectors:

 A1 = (   8.0143927500,   0.0000000000,   0.0000000000)
 A2 = (   0.0000000000,   8.0143927500,   0.0000000000)
 A3 = (   0.0000000000,   0.0000000000,   8.0143927500)

Analysis of symmetry for initial positions (statically):
 Subroutine PRICEL returns:
 Original cell was already a primitive cell.

 Routine SETGRP: Setting up the symmetry group for a
 simple cubic supercell.

[...]
   -.498E+02 -.391E+02 0.216E+03   0.502E+02 0.405E+02 -.220E+03   0.227E+00 -.853E+00 0.404E+00   0.301E-01 -.148E-01 -.401E-01
   0.251E+03 -.185E+03 0.873E+02   -.255E+03 0.197E+03 -.899E+02   0.257E+01 -.490E+01 -.711E+00   -.170E-02 -.423E-02 0.304E-02
   0.454E+03 0.965E+02 0.356E+02   -.463E+03 -.101E+03 -.371E+02   0.239E+01 0.412E+01 0.544E+00   -.157E-01 -.385E-01 0.461E-02
   0.348E+01 0.223E+03 -.208E+03   -.258E+01 -.227E+03 0.220E+03   0.237E+00 0.283E+01 0.107E+01   0.315E-01 -.252E-01 -.267E-01
   0.134E+03 -.342E+02 -.250E+02   -.142E+03 0.355E+02 0.274E+02   -.221E+01 -.135E+00 -.142E+01   0.397E-01 -.148E-01 0.246E-01
   0.141E+03 0.149E+03 0.755E+02   -.145E+03 -.152E+03 -.749E+02   -.569E+00 0.276E+01 -.593E+00   0.974E-02 0.116E-01 0.562E-02
   0.280E+03 0.918E+02 -.129E+03   -.288E+03 -.923E+02 0.130E+03   0.936E+00 -.135E+00 0.212E+01   -.911E-02 -.265E-01 -.104E-01
   -.309E+02 -.238E+02 -.940E+02   0.278E+02 0.253E+02 0.102E+03   0.149E+01 -.824E+00 -.703E+01   -.702E-02 0.114E-01 -.860E-02
   -.731E+02 -.131E+03 0.875E+02   0.661E+02 0.142E+03 -.996E+02   0.479E+01 -.874E+01 0.102E+02   0.761E-02 0.605E-02 0.219E-02
   -.891E+02 -.789E+02 0.817E+02   0.944E+02 0.842E+02 -.793E+02   -.187E+01 -.657E+01 -.150E+01   0.195E-01 0.230E-01 0.445E-01
   -.119E+03 -.189E+03 -.183E+03   0.125E+03 0.214E+03 0.192E+03   -.445E+01 -.138E+02 -.552E+01   -.222E-01 0.166E-01 0.122E-01
   -.964E+02 0.431E+02 0.862E+02   0.100E+03 -.492E+02 -.900E+02   -.313E+01 0.524E+01 0.334E+01   0.178E-01 0.130E-02 0.333E-03
   0.811E+02 -.947E+02 0.410E+01   -.995E+02 0.100E+03 -.379E+01   0.978E+01 -.640E+01 -.181E+01   0.203E-01 0.965E-02 -.750E-02
   0.126E+03 0.422E+02 -.940E+02   -.154E+03 -.509E+02 0.987E+02   0.165E+02 0.710E+01 -.402E+01   -.361E-01 0.201E-01 -.269E-01
   0.124E+03 -.203E+03 0.114E+03   -.154E+03 0.218E+03 -.116E+03   0.132E+02 -.123E+02 0.407E+01   -.242E-01 -.253E-01 -.793E-02
   -.945E+02 -.843E+02 -.764E+02   0.952E+02 0.104E+03 0.822E+02   0.810E+00 -.848E+01 -.507E+01   0.124E-01 -.132E-01 -.958E-02
   -.168E+02 0.499E+02 -.147E+03   0.108E+02 -.488E+02 0.187E+03   0.259E+01 -.176E-01 -.211E+02   0.518E-02 -.302E-02 0.282E-01
   -.879E+02 0.144E+03 0.113E+03   0.977E+02 -.153E+03 -.119E+03   -.734E+01 0.612E+01 0.253E+01   -.595E-01 -.433E-01 -.139E-01
   -.646E+02 0.105E+03 -.261E+03   0.761E+02 -.124E+03 0.310E+03   0.106E+01 0.872E+01 -.170E+02   -.198E-01 -.865E-02 0.448E-02
   -.137E+03 0.242E+03 -.331E+02   0.162E+03 -.298E+03 0.488E+02   -.104E+02 0.201E+02 -.635E+01   -.137E-01 -.106E-01 0.145E-01
   -.112E+03 0.181E+03 -.369E+02   0.127E+03 -.197E+03 0.372E+02   -.115E+02 0.119E+02 0.187E+01   -.133E-01 -.857E-02 -.159E-01
   -.110E+03 0.874E+02 -.498E+02   0.127E+03 -.936E+02 0.565E+02   -.113E+02 0.472E+01 -.304E+01   -.396E-02 -.287E-01 0.198E-01
   -.836E+02 0.479E+01 0.481E+02   0.995E+02 0.108E+01 -.465E+02   -.109E+02 -.356E+01 -.968E+00   -.229E-01 0.387E-01 -.414E-02
   0.257E+03 -.249E+02 -.493E+02   -.295E+03 0.213E+02 0.465E+02   0.156E+02 0.551E+01 0.382E+01   0.104E-01 0.192E-01 0.544E-01
   0.366E+03 0.106E+02 0.182E+03   -.399E+03 -.186E+02 -.192E+03   0.158E+02 0.501E+01 0.814E+01   -.376E-01 -.571E-01 0.973E-02
   -.591E+02 -.602E+01 0.204E+02   0.650E+02 0.280E+01 -.201E+02   -.590E+01 0.341E+01 0.338E-01   -.714E-02 0.264E-01 0.503E-02
   0.168E+03 0.592E+02 -.328E+02   -.183E+03 -.693E+02 0.363E+02   0.849E+01 0.822E+01 -.325E+01   0.163E-01 -.737E-02 0.608E-02
   0.845E+02 0.722E+01 0.114E+03   -.831E+02 -.571E+01 -.117E+03   -.246E+01 -.228E+01 0.241E+01   -.122E-01 0.102E-01 -.267E-01
   0.171E+03 -.187E+03 -.101E+03   -.184E+03 0.200E+03 0.101E+03   0.886E+01 -.105E+02 0.174E+00   -.193E-01 0.351E-01 -.794E-02
   -.447E+00 -.155E+01 -.134E+03   -.101E+01 0.389E+01 0.138E+03   0.141E+01 -.290E+01 -.182E+01   0.278E-01 0.334E-02 -.658E-02
   0.410E+01 -.173E+03 -.958E+01   -.789E+01 0.179E+03 0.118E+02   0.382E+01 -.398E+01 -.218E+01   0.159E-01 0.166E-01 0.112E-03
   0.181E+03 0.113E+03 0.637E+01   -.188E+03 -.116E+03 -.124E+02   0.489E+01 0.839E+00 0.211E+01   -.244E-01 -.217E-01 -.551E-01
   0.152E+03 0.108E+03 0.521E+01   -.157E+03 -.113E+03 -.731E+01   0.425E+01 0.463E+01 0.267E+01   -.999E-02 0.504E-01 0.207E-01
   -.967E+02 -.939E+02 -.102E+03   0.104E+03 0.108E+03 0.103E+03   -.553E+01 -.830E+01 0.113E+01   0.353E-01 -.187E-01 0.330E-01
   -.159E+01 0.120E+03 0.219E+03   0.205E+00 -.136E+03 -.249E+03   -.390E+00 0.140E+02 0.154E+02   0.200E-01 0.855E-03 -.169E-01
   -.339E+02 0.258E+02 -.186E+02   0.493E+02 -.315E+02 0.259E+02   -.542E+01 0.532E+01 -.361E+01   0.453E-01 -.899E-02 0.504E-01
   0.747E+02 0.338E+01 -.140E+03   -.796E+02 0.558E+01 0.152E+03   0.561E+01 -.663E+01 -.870E+01   0.652E-02 -.359E-01 -.220E-01
   -.344E+02 -.614E+02 0.122E+02   0.392E+02 0.692E+02 -.116E+02   -.424E+01 -.585E+01 -.153E+01   0.992E-02 -.961E-03 -.354E-01
   0.251E+02 0.172E+03 0.779E+02   -.298E+02 -.180E+03 -.808E+02   0.492E+01 0.448E+01 -.297E+00   0.212E-01 -.250E-01 0.229E-01
   -.532E+02 -.143E+02 0.357E+02   -.113E-11 -.114E-12 0.853E-13   0.533E+02 0.144E+02 -.359E+02   -.974E-01 -.981E-01 0.161E+00

 POSITION                                       TOTAL-FORCE (eV/Angst)
      7.95193      0.06786      7.98321        18.140132      2.797892     -3.295348
      7.91403      2.10209      1.70225        27.474510     -3.070283      0.191178
      1.83580      7.79684      1.99394         1.673751      1.731928      4.246410
      1.96022      2.01485      0.07104         2.210789      0.190486     -0.052714
      0.06980      7.64269      3.87651         4.971125      2.286710     -0.269498
      0.28498      2.35429      6.42290        -0.462442     -0.016164     -6.985062
      1.69262      7.71473      5.87489         3.381469     35.467495    -12.366347
      1.71619      2.10043      4.01200        14.006255      1.369491     -0.856603
      7.95273      4.45588      0.39565       -15.719683      8.986494    -32.619942
      0.04394      6.54388      1.78135         3.441783    -11.505095      3.873301
      2.01671      4.36740      2.00560         4.367611    -13.438090      1.741289
      2.12348      6.20946      0.13632         0.068889     -2.148256     -1.879963
      0.19830      4.14839      4.03939        -2.757759     -1.976526     -0.345199
      7.74649      6.12718      6.28423        -0.318207     -3.547779     -1.341024
      2.12306      4.12663      6.28612         2.176792     -1.355757    -20.647156
      2.08876      5.95714      4.16699         0.498934      5.369408     -0.678417
      3.90035      7.97710      0.09951         2.687081     -0.224656     -0.707287
      4.02904      1.79815      1.93212        -0.393358      2.245393     -0.028156
      6.14334      0.22672      1.84772         0.574084     -0.894369      2.711087
      6.46719      1.88132      0.27845        -7.800868      5.611833     -4.607554
      4.01480      0.06568      4.05338         9.326300      0.990364      0.953435
      3.96590      2.07266      6.07041         1.383583     -0.910586     -1.353092
      6.19091      7.99303      6.02406        -1.100534      3.252948     -0.884560
      6.26835      2.17114      3.54559        -2.332233     -4.571633      8.937750
      4.04623      3.87378      7.77982         0.678673     -4.813565      2.077107
      4.09948      5.99568      2.33787         0.662062      0.478543     -3.472344
      6.23209      3.88737      2.15759        -1.939198      6.799272     -3.308733
      6.11925      6.21167      0.30832        -6.025932     -0.508294     -0.958985
      4.13333      4.28379      3.91955         1.159191     -1.217824     13.181252
      4.24111      6.05411      5.85059       -10.032004      1.175193      0.952574
      6.09993      4.09908      5.94780        -5.018785     -0.698006      0.013185
      6.45091      6.17505      3.80064        -6.930889     -0.658902      2.576640
      2.19288      2.13709      1.94198        -1.673343      0.682998      0.556538
      2.17485      7.98181      0.32004        -2.157366      1.945088     -1.791046
      0.13633      2.05795      7.99684         3.429801     -1.184680      0.927229
      7.81797      0.02434      1.82749         1.640891     11.745367      2.667705
      2.05487      1.95692      6.00628         0.891746     -0.935267     -0.407372
      2.46475      0.12064      3.91030        -8.557522     -0.598483     -1.503302
      0.24301      1.92147      4.05544       -12.054136     -1.577126      0.598452
      0.28335      7.85787      6.11485       -16.528086      3.556154      2.116905
      2.10526      5.86855      1.97761         1.522791     11.106050      0.698476
      1.90824      4.22714      7.66723        -3.421548      1.029722     19.150304
      7.84905      6.40168      0.07101         2.491823     -3.776884     -4.038209
      0.48857      4.10256      1.51263        12.560132    -10.311335     31.666565
      2.15545      6.55169      6.17458        13.831060    -36.726704      9.326073
      1.84462      4.34326      4.25704         2.779795     -4.771764      2.191561
      7.90177      5.92232      4.41957         5.357651     -1.541585      3.631440
      7.67482      3.98359      6.22219         4.917187      2.348654      0.620059
      6.59994      2.31478      2.01736       -22.428499      1.882907      1.082631
      6.49872      0.23091      0.09636       -17.041774     -3.011255     -2.595950
      4.07434      1.97774      7.98838         0.020201      0.214078      0.308729
      4.58187      0.10340      2.14324        -6.533764     -1.908225      0.278516
      6.11499      2.01955      6.11365        -1.020214     -0.753586     -0.227513
      6.41922      0.01620      4.02636        -4.018234      2.290070      0.513484
      3.95656      2.18129      3.78466        -0.018667     -0.565332      2.577437
      4.04714      7.89130      6.08512         0.044830      2.158673      0.024849
      6.34865      5.98220      2.15546        -2.608678     -2.644590     -3.936717
      6.07930      4.31455      8.00795        -0.805544     -0.968491      0.579535
      3.79108      5.47167      7.87882         1.398754      5.936761      1.599605
      3.94429      3.95212      2.48970        -1.752084     -1.240498    -14.235963
      5.67397      6.31719      6.32315        10.073377     -0.337428      3.828047
      6.29267      3.92541      3.92955         0.728693      2.298568      3.140474
      4.22742      6.08264      4.11096         0.553892      1.905107     -0.941820
      4.24596      4.33453      6.01143         0.325713     -3.444626     -3.203946
    total drift:                                0.001132     -0.005809     -0.025481

  FREE ENERGIE OF THE ION-ELECTRON SYSTEM (eV)
  free  energy   TOTEN  =      -331.3838731757 eV

  energy  without entropy=     -331.3209380260  energy(sigma->0) =     -331.35240560

volume of typ            1:    39.6 %

volume of typ            2:    10.1 %

total charge

# of ion       s       p       d       tot
    1        0.366   0.524   8.212   9.101
    2        0.375   0.532   8.313   9.220
    3        0.250   0.296   8.093   8.639
    4        0.225   0.262   8.048   8.535
    5        0.259   0.313   8.112   8.685
    6        0.290   0.367   8.085   8.742
    7        0.533   0.731   8.325   9.589
    8        0.295   0.360   8.065   8.720
    9        0.428   0.569   8.264   9.261
   10        0.341   0.484   8.214   9.038
   11        0.344   0.439   8.133   8.916
   12        0.259   0.326   8.062   8.647
   13        0.264   0.312   8.073   8.648
   14        0.245   0.294   8.110   8.650
   15        0.335   0.419   8.186   8.940
   16        0.246   0.282   8.120   8.648
   17        0.217   0.240   8.044   8.501
   18        0.250   0.301   8.000   8.550
   19        0.333   0.463   8.152   8.948
   20        0.280   0.404   8.183   8.866
   21        0.276   0.332   8.047   8.655
   22        0.199   0.211   7.988   8.397
   23        0.226   0.262   8.011   8.499
   24        0.270   0.347   8.122   8.739
   25        0.272   0.351   8.049   8.672
   26        0.206   0.233   8.077   8.517
   27        0.271   0.337   8.139   8.747
   28        0.249   0.309   8.062   8.620
   29        0.320   0.409   8.134   8.863
   30        0.350   0.501   8.072   8.924
   31        0.268   0.346   8.030   8.644
   32        0.317   0.422   8.124   8.864
   33        1.275   2.762   0.008   4.044
   34        1.261   2.862   0.018   4.142
   35        1.263   2.930   0.030   4.223
   36        1.273   2.937   0.032   4.242
   37        1.266   2.784   0.009   4.059
   38        1.281   2.812   0.016   4.110
   39        1.286   2.817   0.020   4.123
   40        1.282   2.909   0.029   4.220
   41        1.270   2.881   0.025   4.176
   42        1.305   2.855   0.029   4.190
   43        1.265   2.917   0.026   4.208
   44        1.307   2.974   0.049   4.331
   45        1.313   2.928   0.041   4.282
   46        1.265   2.861   0.019   4.145
   47        1.270   2.867   0.022   4.159
   48        1.281   2.825   0.017   4.123
   49        1.283   3.038   0.063   4.384
   50        1.277   2.946   0.036   4.259
   51        1.258   2.794   0.009   4.061
   52        1.266   2.852   0.018   4.135
   53        1.279   2.715   0.004   3.998
   54        1.271   2.798   0.012   4.082
   55        1.283   2.726   0.006   4.016
   56        1.279   2.762   0.008   4.048
   57        1.270   2.845   0.017   4.133
   58        1.281   2.757   0.008   4.046
   59        1.289   2.794   0.014   4.097
   60        1.286   2.833   0.021   4.141
   61        1.282   2.858   0.022   4.161
   62        1.266   2.828   0.014   4.108
   63        1.263   2.856   0.018   4.137
   64        1.265   2.843   0.014   4.123
tot          50.22  103.14  260.33  413.69

magnetization (x)

# of ion       s       p       d       tot
    1        0.000   0.002   0.003   0.005
    2        0.004   0.006   0.016   0.026
    3        0.007   0.005   0.474   0.486
    4       -0.000  -0.001   0.612   0.612
    5        0.001   0.001   0.234   0.236
    6       -0.000   0.005   0.344   0.349
    7        0.000  -0.002  -0.026  -0.028
    8       -0.003  -0.003  -0.477  -0.483
    9        0.001   0.001   0.060   0.062
   10       -0.000   0.000   0.199   0.199
   11        0.002  -0.001  -0.050  -0.049
   12        0.002  -0.000  -0.093  -0.092
   13        0.001   0.000   0.025   0.027
   14        0.002   0.001   0.028   0.030
   15        0.002  -0.000   0.020   0.021
   16        0.001   0.003   0.193   0.196
   17        0.001   0.008   0.877   0.886
   18       -0.001   0.007   0.810   0.817
   19        0.002   0.001   0.028   0.031
   20        0.002   0.000  -0.020  -0.018
   21       -0.003  -0.006  -0.582  -0.592
   22       -0.001   0.001  -0.873  -0.873
   23        0.005   0.002   0.770   0.776
   24       -0.000   0.001   0.102   0.103
   25       -0.002   0.002  -0.262  -0.262
   26        0.001  -0.004  -0.788  -0.791
   27        0.000   0.001   0.047   0.049
   28        0.001   0.004   0.170   0.175
   29       -0.006  -0.001  -0.055  -0.062
   30        0.000   0.001   0.324   0.324
   31       -0.002   0.000  -0.184  -0.186
   32        0.002   0.009   0.291   0.302
   33        0.007   0.085   0.000   0.092
   34        0.008   0.101   0.000   0.109
   35        0.005   0.026   0.000   0.032
   36        0.002   0.016   0.000   0.018
   37       -0.002  -0.005  -0.000  -0.007
   38       -0.001  -0.046  -0.000  -0.048
   39       -0.002  -0.054  -0.000  -0.056
   40        0.002   0.013  -0.000   0.015
   41        0.000  -0.023  -0.000  -0.023
   42        0.000   0.002   0.000   0.002
   43        0.005   0.029   0.000   0.035
   44        0.001   0.018   0.000   0.019
   45       -0.000   0.000  -0.000  -0.000
   46        0.000   0.005   0.000   0.006
   47        0.003   0.032   0.000   0.035
   48        0.001   0.017  -0.000   0.018
   49        0.001   0.016   0.000   0.017
   50        0.003   0.017   0.000   0.020
   51        0.004   0.032   0.000   0.036
   52       -0.001   0.036  -0.000   0.035
   53       -0.001  -0.003   0.000  -0.003
   54        0.003   0.056   0.000   0.059
   55        0.002  -0.009   0.000  -0.007
   56        0.002   0.046   0.000   0.048
   57        0.004   0.021   0.000   0.026
   58        0.000  -0.003   0.000  -0.003
   59       -0.001  -0.014  -0.000  -0.015
   60       -0.001  -0.059  -0.000  -0.060
   61        0.003   0.054   0.000   0.057
   62        0.000   0.001   0.000   0.001
   63       -0.003  -0.019   0.000  -0.022
   64       -0.002  -0.024   0.000  -0.026
tot           0.06    0.41    2.22    2.69