 vasp.5.4.4.18Apr17-6-g9f103f2a35 (build May 12 2020 04:58:55) complex

 MD_VERSION_INFO: Compiled 2020-05-12T11:58:55-UTC in devlin.sd.materialsdesign.
 com:/home/medea2/data/build/wwolf/vasp-gpu5.4.4/13047/x86_64/src/src/build/std
 from svn 13047

 executed on                        Lin64 date 2023.03.24  01:22:48

 INCAR:
 POTCAR:    PAW_PBE Ni 02Aug2007
 POTCAR:    PAW_PBE O 08Apr2002

 POTCAR:    PAW_PBE Ni 02Aug2007

 POTCAR:    PAW_PBE O 08Apr2002

 Optimization of the real space projectors (new method)

 maximal supplied QI-value         = 16.25
 optimisation between [QCUT,QGAM] = [ 11.38, 22.75] = [ 36.24,144.96] Ry
 Optimized for a Real-space Cutoff    1.47 Angstroem

   l    n(q)    QCUT    max X(q) W(low)/X(q) W(high)/X(q)  e(spline)
   2      9    11.376    60.317    0.17E-03    0.16E-04    0.16E-06
   2      9    11.376    55.921    0.17E-03    0.16E-04    0.17E-06
   0     10    11.376    51.690    0.45E-04    0.60E-04    0.21E-06
   0     10    11.376    30.015    0.37E-04    0.55E-04    0.19E-06
   1     10    11.376    18.849    0.83E-04    0.11E-03    0.92E-07
   1     10    11.376    14.624    0.69E-04    0.92E-04    0.82E-07
 Optimization of the real space projectors (new method)

 maximal supplied QI-value         = 24.76
 optimisation between [QCUT,QGAM] = [ 11.39, 22.77] = [ 36.31,145.25] Ry
 Optimized for a Real-space Cutoff    1.10 Angstroem

   l    n(q)    QCUT    max X(q) W(low)/X(q) W(high)/X(q)  e(spline)
   0      7    11.387    20.381    0.22E-03    0.48E-03    0.18E-06
   0      7    11.387    15.268    0.22E-03    0.52E-03    0.19E-06
   1      7    11.387     5.964    0.22E-03    0.73E-03    0.24E-06
   1      7    11.387     5.382    0.19E-03    0.60E-03    0.21E-06

  PAW_PBE Ni 02Aug2007                  :
  PAW_PBE O 08Apr2002                   :

 POSCAR: NiO_Cmmm_scale_1_050_disp_0_10_round_2
  positions in direct lattice
 exchange correlation table for  LEXCH =       14
   RHO(1)=    0.500       N(1)  =     2000
   RHO(2)=  100.500       N(2)  =     4000

 ion  position               nearest neighbor table
   1  0.004  0.008  0.003-  28 1.79  30 2.08  13 2.70  10 2.76   7 3.04
   2  0.000  0.994  0.326-  28 1.74  29 1.75  11 2.81  14 2.99
   3  0.005  0.999  0.635-  29 1.60  30 1.92  12 2.85  15 3.02
   4  0.958  0.320  0.997-  31 1.55  33 2.06  19 2.91  22 3.09
   5  0.949  0.325  0.329-  32 1.73  31 2.05   8 2.68  23 2.76  20 3.07
   6  0.951  0.316  0.639-  32 1.65  33 1.85   9 2.79  24 2.82  21 2.94
   7  0.955  0.657  0.001-  34 1.76  36 2.30  25 2.90   1 3.04
   8  0.936  0.609  0.333-  35 1.62  34 1.87  23 2.61   5 2.68  26 3.05
   9  0.959  0.621  0.622-  35 1.57  36 1.82   6 2.79  24 2.96  27 3.08
  10  0.309  0.020  0.997-  37 1.95  39 2.33  13 2.63  22 2.76   1 2.76
  11  0.306  0.995  0.321-  37 1.64  38 1.79  14 2.74   2 2.81  20 3.01
  12  0.313  0.996  0.625-  38 1.51  39 1.73   3 2.85  24 2.90  15 3.00  21 3.08
  13  0.298  0.299  0.009-  40 1.55  42 2.47  10 2.63   1 2.70  22 2.91  16 2.93  25 3.04
  14  0.336  0.306  0.325-  41 1.76  40 1.92  11 2.74  26 2.77  23 2.80   2 2.99
  15  0.330  0.329  0.639-  42 1.55  41 1.70  27 2.82  24 3.00  12 3.00   3 3.02  18 3.08
  16  0.340  0.636  0.992-  43 1.81  45 2.22  25 2.68  13 2.93
  17  0.315  0.640  0.328-  44 1.72  43 1.84  26 2.82  20 3.03
  18  0.328  0.663  0.630-  44 1.57  45 1.74  27 2.94  21 2.95  15 3.08
  19  0.640  0.007  0.015-  46 1.55  48 2.23  22 2.88   4 2.91
  20  0.626  0.983  0.310-  46 1.67  47 1.74  11 3.01  17 3.03   5 3.07  23 3.07
  21  0.642  0.988  0.647-  48 1.77  47 1.96  24 2.90   6 2.94  18 2.95  12 3.08
  22  0.618  0.307  0.013-  49 1.63  51 2.40  10 2.76  19 2.88  13 2.91  25 2.92   4 3.09
  23  0.651  0.328  0.319-  49 1.70  50 1.90   8 2.61   5 2.76  14 2.80  26 2.92  20 3.07
  24  0.638  0.300  0.623-  50 1.43  51 1.85   6 2.82  21 2.90  12 2.90   9 2.96  15 3.00
  25  0.627  0.629  0.004-  52 1.57  54 2.37  16 2.68   7 2.90  22 2.92  13 3.04
  26  0.614  0.625  0.332-  53 1.61  52 2.01  14 2.77  17 2.82  23 2.92   8 3.05
  27  0.634  0.638  0.634-  54 1.65  53 1.66  15 2.82  18 2.94   9 3.08
  28  0.995  0.019  0.168-   2 1.74   1 1.79
  29  0.994  0.007  0.488-   3 1.60   2 1.75
  30  0.010  0.018  0.811-   3 1.92   1 2.08
  31  0.941  0.314  0.140-   4 1.55   5 2.05
  32  0.931  0.312  0.488-   6 1.65   5 1.73
  33  0.929  0.315  0.809-   6 1.85   4 2.06
  34  0.957  0.636  0.162-   7 1.76   8 1.87
  35  0.954  0.647  0.479-   9 1.57   8 1.62
  36  0.949  0.636  0.789-   9 1.82   7 2.30
  37  0.338  0.999  0.173-  11 1.64  10 1.95
  38  0.313  0.992  0.486-  12 1.51  11 1.79
  39  0.324  0.002  0.784-  12 1.73  10 2.33
  40  0.330  0.296  0.148-  13 1.55  14 1.92
  41  0.302  0.308  0.484-  15 1.70  14 1.76
  42  0.327  0.316  0.782-  15 1.55  13 2.47
  43  0.315  0.629  0.158-  16 1.81  17 1.84
  44  0.302  0.646  0.486-  18 1.57  17 1.72
  45  0.322  0.628  0.788-  18 1.74  16 2.22
  46  0.646  0.017  0.159-  19 1.55  20 1.67
  47  0.649  0.023  0.468-  20 1.74  21 1.96
  48  0.641  0.999  0.810-  21 1.77  19 2.23
  49  0.642  0.318  0.162-  22 1.63  23 1.70
  50  0.621  0.299  0.492-  24 1.43  23 1.90
  51  0.612  0.304  0.792-  24 1.85  22 2.40
  52  0.608  0.614  0.148-  25 1.57  26 2.01
  53  0.626  0.634  0.480-  26 1.61  27 1.66
  54  0.616  0.615  0.785-  27 1.65  25 2.37

  LATTYP: Found a hexagonal cell.
 ALAT       =     9.2132460023
 C/A-ratio  =     1.1769065427

  Lattice vectors:

 A1 = (   9.2132460000,   0.0000000000,   0.0000000000)
 A2 = (  -4.6066230000,   7.9789050900,   0.0000000000)
 A3 = (   0.0000000000,   0.0000000000,  10.8431295000)

Analysis of symmetry for initial positions (statically):
 Subroutine PRICEL returns:
 Original cell was already a primitive cell.

 Routine SETGRP: Setting up the symmetry group for a
 hexagonal supercell.

 Subroutine GETGRP returns: Found  1 space group operations
 (whereof  1 operations were pure point group operations)
 out of a pool of 24 trial point group operations.

The static configuration has the point symmetry C_1 .

Analysis of symmetry for dynamics (positions and initial velocities):
 Subroutine PRICEL returns:
 Original cell was already a primitive cell.

[...]

The dynamic configuration has the point symmetry C_1 .

Analysis of structural, dynamic, and magnetic symmetry:
 Subroutine PRICEL returns:
 Original cell was already a primitive cell.

 Routine SETGRP: Setting up the symmetry group for a
 hexagonal supercell.

 Subroutine GETGRP returns: Found  1 space group operations
 (whereof  1 operations were pure point group operations)
 out of a pool of 24 trial point group operations.

The magnetic configuration has the point symmetry C_1 .

 Subroutine INISYM returns: Found  1 space group operations
 (whereof  1 operations are pure point group operations),
 and found     1 'primitive' translations

 KPOINTS: Automatic mesh

Automatic generation of k-mesh.
Space group operators:
 irot       det(A)        alpha          n_x          n_y          n_z        tau_x        tau_y        tau_z
    1     1.000000     0.000000     1.000000     0.000000     0.000000     0.000000     0.000000     0.000000

 Subroutine IBZKPT returns following result:

 Found     26 irreducible k-points:

 Following reciprocal coordinates:
            Coordinates               Weight
  0.000000  0.000000  0.000000      1.000000
  0.250000 -0.000000  0.000000      2.000000
  0.500000 -0.000000  0.000000      1.000000
  0.000000  0.250000  0.000000      2.000000
  0.250000  0.250000  0.000000      2.000000
  0.500000  0.250000  0.000000      2.000000
 -0.250000  0.250000  0.000000      2.000000
  0.000000  0.500000  0.000000      1.000000
  0.250000  0.500000  0.000000      2.000000
  0.500000  0.500000  0.000000      1.000000
  0.000000  0.000000  0.333333      2.000000
  0.250000 -0.000000  0.333333      2.000000
  0.500000 -0.000000  0.333333      2.000000
 -0.250000  0.000000  0.333333      2.000000
  0.000000  0.250000  0.333333      2.000000
  0.250000  0.250000  0.333333      2.000000
  0.500000  0.250000  0.333333      2.000000
 -0.250000  0.250000  0.333333      2.000000
  0.000000  0.500000  0.333333      2.000000
  0.250000  0.500000  0.333333      2.000000
  0.500000  0.500000  0.333333      2.000000
 -0.250000  0.500000  0.333333      2.000000
  0.000000 -0.250000  0.333333      2.000000
  0.250000 -0.250000  0.333333      2.000000
  0.500000 -0.250000  0.333333      2.000000
 -0.250000 -0.250000  0.333333      2.000000

 Following cartesian coordinates:
            Coordinates               Weight
  0.000000  0.000000  0.000000      1.000000
  0.027135  0.015666  0.000000      2.000000
  0.054270  0.031333  0.000000      1.000000
  0.000000  0.031333  0.000000      2.000000
  0.027135  0.046999  0.000000      2.000000
  0.054270  0.062665  0.000000      2.000000
 -0.027135  0.015666  0.000000      2.000000
  0.000000  0.062665  0.000000      1.000000
  0.027135  0.078332  0.000000      2.000000
  0.054270  0.093998  0.000000      1.000000
  0.000000  0.000000  0.030741      2.000000
  0.027135  0.015666  0.030741      2.000000
  0.054270  0.031333  0.030741      2.000000
 -0.027135 -0.015666  0.030741      2.000000
  0.000000  0.031333  0.030741      2.000000
  0.027135  0.046999  0.030741      2.000000
  0.054270  0.062665  0.030741      2.000000
 -0.027135  0.015666  0.030741      2.000000
  0.000000  0.062665  0.030741      2.000000
  0.027135  0.078332  0.030741      2.000000
  0.054270  0.093998  0.030741      2.000000
 -0.027135  0.046999  0.030741      2.000000
  0.000000 -0.031333  0.030741      2.000000
  0.027135 -0.015666  0.030741      2.000000
  0.054270  0.000000  0.030741      2.000000
 -0.027135 -0.046999  0.030741      2.000000

 SYSTEM =  unknown system
 POSCAR =  NiO_Cmmm_scale_1_050_disp_0_10_round_2

 Startparameter for this run:
   NWRITE =      1    write-flag & timer
   PREC   = accura    normal or accurate (medium, high low for compatibility)
   ISTART =      0    job   : 0-new  1-cont  2-samecut
   ICHARG =      2    charge: 1-file 2-atom 10-const
   ISPIN  =      2    spin polarized calculation?
   LNONCOLLINEAR =      F non collinear calculations
   LSORBIT =      F    spin-orbit coupling
   INIWAV =      1    electr: 0-lowe 1-rand  2-diag
   LASPH  =      F    aspherical Exc in radial PAW
   METAGGA=      F    non-selfconsistent MetaGGA calc.

 Electronic Relaxation 1
   ENCUT  =  500.0 eV  36.75 Ry    6.06 a.u.  16.80 16.80 19.77*2*pi/ulx,y,z
   ENINI  =  500.0     initial cutoff
   ENAUG  =  605.4 eV  augmentation charge cutoff
   NELM   =     80;   NELMIN=  2; NELMDL= -5     # of ELM steps
   EDIFF  = 0.1E-04   stopping-criterion for ELM
   LREAL  =      T    real-space projection
   NLSPLINE    = F    spline interpolate recip. space projectors
   LCOMPAT=      F    compatible to vasp.4.4
   GGA_COMPAT  = T    GGA compatible to vasp.4.4-vasp.4.6
   LMAXPAW     = -100 max onsite density
   LMAXMIX     =    2 max onsite mixed and CHGCAR
   VOSKOWN=      1    Vosko Wilk Nusair interpolation
   ROPT   =   -0.00025  -0.00025
 Ionic relaxation
   EDIFFG = 0.1E-03   stopping-criterion for IOM
   NSW    =      0    number of steps for IOM
[...]
   0.830E+02 0.961E+02 -.261E+03   -.827E+02 -.955E+02 0.266E+03   -.252E+00 -.144E+00 0.124E+00   -.149E+00 0.143E+00 -.190E+00
   -.113E+03 -.828E+02 0.282E+03   0.112E+03 0.826E+02 -.287E+03   0.199E+00 0.111E+00 -.225E+01   -.732E-01 -.733E-01 -.367E-01
   -.218E+03 0.909E+01 0.153E+03   0.215E+03 -.799E+01 -.152E+03   0.146E+01 -.774E+00 -.260E+01   0.800E-01 -.126E+00 0.146E+00
   -.193E+03 -.156E+01 -.238E+03   0.191E+03 0.180E+01 0.243E+03   0.330E+00 0.750E-01 -.155E+01   -.180E-01 -.123E+00 -.159E+00
   -.878E+02 -.107E+03 0.242E+03   0.869E+02 0.107E+03 -.237E+03   0.520E+00 0.398E+00 -.520E+01   0.419E-01 -.850E-01 0.238E-01
   -.743E+02 -.158E+03 0.177E+03   0.739E+02 0.157E+03 -.182E+03   0.130E+00 0.127E+01 0.265E+00   0.172E+00 -.217E+00 0.343E-01
   -.826E+02 -.107E+03 -.279E+03   0.820E+02 0.106E+03 0.288E+03   0.441E-02 0.391E+00 -.213E+01   0.768E-01 -.128E+00 -.504E-01
   -.873E+01 0.250E+03 0.212E+03   0.842E+01 -.249E+03 -.209E+03   0.792E+00 -.148E+01 -.313E+01   0.130E+00 0.146E-02 0.290E-01
   0.518E+02 0.200E+03 0.235E+02   -.523E+02 -.199E+03 -.228E+02   0.650E+00 -.609E+00 0.182E+01   0.374E-01 0.110E+00 -.192E-01
   0.302E+02 0.165E+03 -.254E+03   -.305E+02 -.165E+03 0.265E+03   0.490E+00 -.207E+00 -.190E+01   0.880E-01 0.854E-01 0.647E-01
   0.182E+03 -.704E+02 0.342E+03   -.181E+03 0.694E+02 -.343E+03   -.813E+00 0.893E+00 -.521E+01   -.561E-01 0.367E-01 0.690E-01
   0.159E+03 -.315E+02 0.889E+02   -.158E+03 0.314E+02 -.872E+02   -.371E+00 -.653E-01 -.263E+01   -.153E+00 -.768E-01 0.158E+00
   0.136E+03 -.341E+02 -.846E+02   -.136E+03 0.340E+02 0.818E+02   -.482E+00 -.254E+00 -.107E+01   -.107E+00 -.105E-01 -.203E+00
   0.141E+03 -.851E+02 0.203E+03   -.141E+03 0.842E+02 -.199E+03   -.838E+00 0.429E+00 -.422E+01   -.400E-01 0.417E-01 -.872E-01
   0.766E+02 -.113E+02 0.122E+03   -.755E+02 0.114E+02 -.124E+03   -.752E+00 -.942E-01 0.519E+00   -.989E-01 -.139E+00 0.171E+00
   0.647E+02 -.578E+02 -.222E+03   -.638E+02 0.577E+02 0.229E+03   -.462E+00 -.412E+00 -.204E+01   0.326E-01 -.373E-01 -.221E-01
   -.653E+02 0.167E+03 0.338E+03   0.647E+02 -.167E+03 -.341E+03   0.422E+00 -.340E+00 -.345E+01   0.325E-01 0.741E-01 -.728E-01
   -.105E+03 0.183E+03 0.167E+02   0.104E+03 -.182E+03 -.133E+02   0.415E-01 0.249E+00 -.172E+01   0.575E-01 0.200E+00 0.943E-01
   -.113E+03 0.135E+03 -.105E+03   0.112E+03 -.135E+03 0.107E+03   0.362E+00 -.123E-01 -.311E+01   0.167E-01 0.116E+00 0.590E-01
   -.504E+02 -.462E+02 0.353E+03   0.500E+02 0.458E+02 -.352E+03   0.590E-01 0.331E+00 -.473E+01   0.148E+00 -.643E-01 0.721E-01
   -.161E+02 -.108E+02 0.400E+00   0.159E+02 0.117E+02 0.429E-01   -.284E+00 -.804E+00 0.130E+01   0.154E+00 -.183E+00 0.183E+00
   -.602E+02 -.240E+02 -.333E+03   0.610E+02 0.244E+02 0.352E+03   -.471E+00 -.605E-01 -.236E+01   0.141E+00 -.127E+00 -.163E+00
   -.538E+02 -.197E+03 0.325E+03   0.534E+02 0.196E+03 -.324E+03   0.476E+00 0.441E+00 -.558E+01   0.179E-01 0.488E-01 -.375E-01
   0.303E+01 -.193E+03 0.184E+03   -.359E+01 0.192E+03 -.186E+03   0.448E+00 0.615E+00 -.267E+01   -.119E+00 -.873E-01 0.712E-01
   -.489E+02 -.199E+03 -.155E+03   0.482E+02 0.198E+03 0.158E+03   0.184E+00 -.285E-01 -.269E+01   -.101E+00 0.183E-01 -.152E-01
   0.703E+02 0.409E+02 0.638E+02   -.731E+02 -.381E+02 -.655E+02   0.316E+01 -.376E+01 0.710E+00   -.490E-01 0.743E-01 0.302E+00
   0.872E+02 0.233E+02 0.285E+02   -.900E+02 -.214E+02 -.358E+02   0.297E+01 -.281E+01 0.406E+01   -.705E-01 0.129E+00 -.721E-01
   0.502E+02 0.487E+02 -.777E+02   -.509E+02 -.470E+02 0.802E+02   0.934E+00 -.241E+01 -.231E+01   -.817E-01 0.465E-01 -.184E+00
   -.738E+02 -.257E+02 -.743E+02   0.712E+02 0.247E+02 0.926E+02   0.295E+01 0.123E+01 -.126E+02   -.114E-01 -.400E-01 0.365E+00
   -.882E+02 0.184E+02 0.712E+01   0.852E+02 -.215E+02 -.109E+02   0.402E+01 0.319E+01 0.235E+01   0.400E-01 -.594E-01 -.307E+00
   -.426E+02 -.219E+02 -.111E+03   0.392E+02 0.215E+02 0.115E+03   0.476E+01 0.527E+00 -.389E+01   -.149E-01 -.779E-01 -.105E+00
   -.644E+02 -.893E+02 0.626E+02   0.664E+02 0.894E+02 -.595E+02   -.221E+01 -.239E-01 -.288E+01   0.533E-01 -.560E-01 -.804E-03
   -.508E+01 -.142E+03 -.785E+01   0.235E+01 0.150E+03 0.516E+01   0.284E+01 -.757E+01 0.776E+00   0.545E-01 -.629E-01 0.737E-01
   -.251E+02 -.708E+02 -.183E+03   0.241E+02 0.710E+02 0.192E+03   0.152E+01 -.154E+00 -.878E+01   0.404E-01 -.356E-01 -.461E-01
   -.218E+02 0.146E+03 0.164E+03   0.279E+02 -.147E+03 -.175E+03   -.720E+01 0.572E+00 0.734E+01   0.784E-01 0.150E-01 0.187E+00
   0.302E+01 0.102E+03 0.781E+02   -.190E+01 -.102E+03 -.935E+02   -.164E+01 0.211E+00 0.716E+01   0.169E-01 0.721E-01 -.112E+00
   -.126E+01 0.113E+03 -.216E+03   0.294E+01 -.112E+03 0.229E+03   -.228E+01 -.277E+00 -.125E+02   0.980E-01 0.148E-02 -.446E-01
   0.601E+02 -.153E+02 -.637E+02   -.548E+02 0.147E+02 0.800E+02   -.483E+01 0.946E+00 -.104E+02   -.341E-01 -.723E-02 0.290E+00
   0.131E+03 -.167E+01 0.451E+01   -.136E+03 -.562E+00 -.633E+01   0.550E+01 0.287E+01 0.968E+00   -.650E-01 -.102E-01 -.104E+00
   0.701E+02 0.100E+02 -.276E+03   -.686E+02 -.116E+02 0.299E+03   -.150E+01 0.156E+01 -.187E+02   -.557E-01 0.685E-03 -.174E+00
   0.830E+02 -.158E+02 0.664E+02   -.848E+02 0.146E+02 -.658E+02   0.184E+01 0.149E+01 -.878E+00   -.570E-01 -.338E-01 0.267E+00
   0.613E+02 0.681E+01 0.405E+02   -.650E+02 -.829E+01 -.487E+02   0.357E+01 0.176E+01 0.359E+01   0.857E-02 -.851E-01 -.474E-01
   0.665E+02 -.561E+01 -.197E+03   -.663E+02 0.280E+01 0.207E+03   -.257E+00 0.361E+01 -.934E+01   -.174E-01 0.198E-01 -.177E+00
   -.644E+02 0.622E+02 0.272E+02   0.644E+02 -.577E+02 -.193E+02   0.125E+00 -.538E+01 -.430E+01   0.361E-01 0.696E-01 0.475E-01
   -.656E+02 0.628E+02 -.732E+02   0.653E+02 -.578E+02 0.795E+02   0.470E+00 -.695E+01 -.493E+01   0.574E-01 0.116E+00 0.316E-01
   -.369E+02 0.667E+02 -.157E+03   0.363E+02 -.651E+02 0.166E+03   0.732E+00 -.196E+01 -.848E+01   0.792E-02 0.252E-01 -.141E+00
   -.416E+02 -.282E+02 0.601E+02   0.438E+02 0.282E+02 -.570E+02   -.214E+01 0.282E+00 -.185E+01   0.904E-01 -.571E-01 0.135E+00
   0.345E+02 0.423E+01 0.128E+03   -.396E+02 -.686E+01 -.156E+03   0.427E+01 0.321E+01 0.122E+02   0.784E-01 -.580E-01 0.153E-01
   -.181E+02 -.228E+02 -.185E+03   0.166E+02 0.231E+02 0.194E+03   0.227E+01 -.245E+00 -.965E+01   0.929E-01 -.749E-01 -.157E+00
   0.140E+01 -.101E+03 -.589E+02   -.336E+01 0.987E+02 0.754E+02   0.205E+01 0.312E+01 -.113E+02   -.144E-01 -.174E-01 0.979E-02
   -.134E+01 -.110E+03 -.379E+02   0.173E+01 0.111E+03 0.412E+02   -.508E-01 -.568E+00 -.198E+01   -.551E-01 -.240E-01 0.151E+00
   -.215E+02 -.824E+02 -.237E+03   0.208E+02 0.796E+02 0.252E+03   0.112E+01 0.348E+01 -.141E+02   -.495E-01 0.311E-01 -.391E-01
   -.230E+02 0.524E+01 0.156E+03   -.853E-13 0.156E-12 -.568E-12   0.227E+02 -.482E+01 -.157E+03   0.253E+00 -.407E+00 0.507E+00

 POSITION                                       TOTAL-FORCE (eV/Angst)
     -0.00545      0.06743      0.03466         0.256223      0.496678     -1.091386
     -4.57885      7.93405      3.53843        -0.107976      0.951267      0.259592
     -4.55466      7.97257      6.88108        -0.085698      0.625060      5.024346
      7.35242      2.55220     10.81276        -0.351669     -0.136045     -6.436755
      7.24110      2.59512      3.56438        -0.839377      0.197240     -1.256218
      7.31115      2.51916      6.92898        -1.498894      0.190473      3.374935
      5.77036      5.24190      0.00605        -0.299064     -0.444960     -0.269698
      5.81955      4.86072      3.61001        -0.129042      0.008298     -4.090174
      5.97538      4.95794      6.74961        -0.509112     -0.155875      6.414079
      2.75102      0.15939     10.81300         0.607976      0.004613      0.467721
     -1.76524      7.93831      3.48478         0.215113      0.365358      2.453537
     -1.70295      7.94914      6.77857         0.265267      0.125968      8.973802
      1.36781      2.38768      0.09349        -0.448665     -0.044319     -5.484551
      1.68524      2.44479      3.52390        -0.144103     -0.218108     -0.722843
      1.52045      2.62851      6.93255        -0.422483     -0.404806     -4.140845
      0.20054      5.07418     10.76077         0.021126     -0.428165     -0.096933
     -0.04347      5.10597      3.55542         0.179933     -0.181863     -1.168920
     -0.02897      5.28711      6.82780         0.481316     -0.516878      5.300144
      5.86637      0.05622      0.16643        -0.143289      0.072857     -6.730471
      1.23812      7.84436      3.36554        -0.084904      1.057106      1.765498
      1.36343      7.88620      7.01663        -0.497008      0.839124     -0.599690
      4.27309      2.45289      0.13902        -0.190683     -0.111227     -2.932329
      4.48253      2.61989      3.45584        -0.295426     -0.146573      1.928286
      4.50147      2.39095      6.75788         0.422547      0.188378     16.425380
      2.87891      5.02043      0.04058         0.104917     -0.277070     -4.667932
      2.77584      4.98640      3.60477        -0.237171     -0.775823     -4.218999
      2.89922      5.08840      6.87307        -0.559216     -0.608006      0.675106
      9.08321      0.15185      1.82015         0.293768     -0.888397     -0.703827
      9.13049      0.05347      5.28623         0.177728     -0.751168     -3.310281
      0.00456      0.14480      8.79497         0.106533     -0.635114      0.094093
      7.22614      2.50623      1.51425         0.305040      0.201145      6.102431
      7.14047      2.49338      5.29077         1.051607      0.044560     -1.744158
      7.10741      2.51035      8.76842         1.321941      0.100687     -0.084732
      5.88543      5.07265      1.75742        -0.119572      0.035912      0.221188
      5.80822      5.16205      5.19769         0.164739      0.128979     -1.838551
      5.81247      5.07620      8.55744         0.531743      0.015570     -0.490157
     -1.48717      7.97099      1.87246        -0.932304     -0.147448     -3.231306
     -1.68772      7.91561      5.27014        -0.495930     -0.364435     -8.306945
      2.98170      0.01301      8.50225        -0.503661     -0.045685     -0.239534
      1.67683      2.35904      1.60775         0.426308      0.331130      6.185632
      1.36140      2.45588      5.24936         0.624103      0.622031     -0.956945
      1.55530      2.52217      8.47631        -0.093189     -0.027455      4.865094
      0.00331      5.02213      1.71803         0.015547      0.317196      0.026183
     -0.18864      5.15121      5.27325        -0.078532      0.197619     -4.656191
      0.06770      5.01473      8.54112        -0.105647      0.812766      0.647401
      5.87084      0.13276      1.71879         0.210430     -0.850557      3.675948
      5.87967      0.17980      5.07296         0.293993     -1.778080      1.453318
      1.30149      7.96917      8.78397         0.156707     -0.356794      0.251880
      4.45088      2.53451      1.75915         0.109798      0.197681      1.312595
      4.34649      2.38584      5.33494        -0.761277      0.523737    -15.349381
      4.23502      2.42733      8.58377         0.841154     -0.072806     -1.138994
      2.76989      4.89989      1.60106         0.069741      0.419640      5.125750
      2.84786      5.06199      5.21005         0.284894      0.600348      1.477935
      2.83894      4.91085      8.51458         0.393700      0.696236      1.456873
    total drift:                               -0.011110      0.010304     -0.008523

  FREE ENERGIE OF THE ION-ELECTRON SYSTEM (eV)
  free  energy   TOTEN  =      -294.1811550634 eV

  energy  without entropy=     -294.1134321724  energy(sigma->0) =     -294.14729362

volume of typ            1:    21.6 %

volume of typ            2:     5.5 %

total charge

# of ion       s       p       d       tot
    1        0.233   0.168   7.901   8.302
    2        0.265   0.243   7.925   8.433
    3        0.284   0.262   7.904   8.450
    4        0.299   0.266   7.920   8.485
    5        0.226   0.177   7.953   8.357
    6        0.276   0.263   7.898   8.437
    7        0.217   0.143   7.921   8.282
    8        0.287   0.277   7.937   8.500
    9        0.299   0.310   7.927   8.535
   10        0.190   0.115   7.951   8.256
   11        0.287   0.286   7.925   8.499
   12        0.355   0.399   7.911   8.665
   13        0.296   0.247   7.968   8.511
   14        0.238   0.202   7.929   8.369
   15        0.329   0.380   7.911   8.620
   16        0.212   0.139   7.923   8.275
   17        0.254   0.222   7.923   8.399
   18        0.323   0.344   7.906   8.573
   19        0.283   0.237   7.962   8.482
   20        0.282   0.280   7.926   8.488
   21        0.231   0.187   7.898   8.316
   22        0.247   0.197   7.957   8.401
   23        0.251   0.233   7.948   8.432
   24        0.355   0.419   7.960   8.733
   25        0.288   0.229   7.952   8.469
   26        0.274   0.243   7.955   8.471
   27        0.312   0.330   7.904   8.545
   28        1.266   2.728   0.007   4.002
   29        1.270   2.766   0.012   4.048
   30        1.276   2.646   0.002   3.923
   31        1.278   2.740   0.011   4.029
   32        1.271   2.757   0.011   4.039
   33        1.275   2.662   0.003   3.939
   34        1.269   2.704   0.006   3.978
   35        1.275   2.809   0.018   4.101
   36        1.282   2.638   0.003   3.923
   37        1.273   2.723   0.008   4.005
   38        1.275   2.802   0.015   4.093
   39        1.284   2.654   0.004   3.943
   40        1.280   2.745   0.012   4.038
   41        1.268   2.750   0.008   4.026
   42        1.293   2.701   0.010   4.004
   43        1.268   2.700   0.005   3.973
   44        1.272   2.783   0.014   4.069
   45        1.278   2.666   0.004   3.948
   46        1.274   2.798   0.017   4.088
   47        1.272   2.702   0.006   3.979
   48        1.280   2.647   0.004   3.931
   49        1.273   2.762   0.012   4.048
   50        1.285   2.809   0.020   4.114
   51        1.289   2.624   0.003   3.915
   52        1.277   2.734   0.010   4.021
   53        1.270   2.791   0.014   4.074
   54        1.285   2.675   0.006   3.966
tot          41.85   80.31  214.34  336.51

magnetization (x)

# of ion       s       p       d       tot
    1        0.006  -0.005   1.042   1.044
    2        0.003   0.001   0.200   0.204
    3       -0.011  -0.004  -0.682  -0.697
    4        0.022   0.005   1.113   1.140
    5       -0.000   0.002  -0.137  -0.136
    6        0.016  -0.003   0.792   0.805
    7        0.001  -0.002   1.097   1.096
    8       -0.007  -0.001  -0.373  -0.380
    9        0.004  -0.006   0.342   0.340
   10       -0.001  -0.003   0.996   0.992
   11        0.010   0.002   0.535   0.547
   12       -0.012   0.001  -0.517  -0.529
   13        0.008   0.004   1.011   1.022
   14       -0.005   0.001  -0.359  -0.362
   15        0.026   0.002   0.700   0.729
   16        0.001  -0.003   1.089   1.087
   17       -0.003   0.000  -0.164  -0.167
   18        0.002  -0.003  -0.098  -0.099
   19        0.013   0.004   0.792   0.809
   20        0.001   0.003  -0.058  -0.054
   21       -0.005   0.001  -0.246  -0.250
   22        0.004   0.001   0.986   0.992
   23        0.000   0.005   0.135   0.140
   24        0.020  -0.004   0.477   0.493
   25        0.009   0.003   1.052   1.064
   26       -0.005  -0.000  -0.537  -0.542
   27        0.017  -0.003   0.582   0.596
   28        0.009   0.324  -0.000   0.333
   29       -0.006  -0.236   0.000  -0.242
   30        0.005   0.217  -0.000   0.223
   31        0.010   0.427   0.001   0.437
   32        0.002   0.087   0.000   0.089
   33        0.010   0.421   0.000   0.432
   34        0.008   0.330  -0.000   0.338
   35       -0.003  -0.111   0.001  -0.113
   36        0.011   0.491  -0.000   0.503
   37        0.010   0.364  -0.000   0.374
   38       -0.003  -0.123  -0.000  -0.127
   39       -0.000  -0.054  -0.000  -0.055
   40        0.010   0.422   0.000   0.432
   41       -0.003  -0.107   0.000  -0.109
   42        0.009   0.445   0.000   0.455
   43        0.009   0.344  -0.000   0.353
   44       -0.004  -0.150   0.000  -0.154
   45        0.006   0.255  -0.000   0.261
   46        0.006   0.246  -0.000   0.252
   47       -0.006  -0.200   0.000  -0.206
   48        0.001   0.082  -0.000   0.083
   49        0.010   0.370  -0.000   0.379
   50        0.000   0.042   0.001   0.044
   51        0.011   0.483  -0.000   0.494
   52        0.010   0.416   0.001   0.426
   53       -0.004  -0.136   0.000  -0.140
   54        0.010   0.434   0.000   0.444
tot           0.23    5.08    9.78   15.09