 vasp.5.4.4.18Apr17-6-g9f103f2a35 (build May 12 2020 04:58:55) complex

 MD_VERSION_INFO: Compiled 2020-05-12T11:58:55-UTC in devlin.sd.materialsdesign.
 com:/home/medea2/data/build/wwolf/vasp-gpu5.4.4/13047/x86_64/src/src/build/std
 from svn 13047

 executed on                        Lin64 date 2023.03.24  01:49:58

 INCAR:
 POTCAR:    PAW_PBE Ni 02Aug2007
 POTCAR:    PAW_PBE O 08Apr2002

 POTCAR:    PAW_PBE Ni 02Aug2007

 POTCAR:    PAW_PBE O 08Apr2002

 Optimization of the real space projectors (new method)

 maximal supplied QI-value         = 16.25
 optimisation between [QCUT,QGAM] = [ 11.38, 22.75] = [ 36.24,144.96] Ry
 Optimized for a Real-space Cutoff    1.47 Angstroem

   l    n(q)    QCUT    max X(q) W(low)/X(q) W(high)/X(q)  e(spline)
   2      9    11.376    60.317    0.17E-03    0.16E-04    0.16E-06
   2      9    11.376    55.921    0.17E-03    0.16E-04    0.17E-06
   0     10    11.376    51.690    0.45E-04    0.60E-04    0.21E-06
   0     10    11.376    30.015    0.37E-04    0.55E-04    0.19E-06
   1     10    11.376    18.849    0.83E-04    0.11E-03    0.92E-07
   1     10    11.376    14.624    0.69E-04    0.92E-04    0.82E-07
 Optimization of the real space projectors (new method)

 maximal supplied QI-value         = 24.76
 optimisation between [QCUT,QGAM] = [ 11.39, 22.77] = [ 36.31,145.25] Ry
 Optimized for a Real-space Cutoff    1.10 Angstroem

   l    n(q)    QCUT    max X(q) W(low)/X(q) W(high)/X(q)  e(spline)
   0      7    11.387    20.381    0.22E-03    0.48E-03    0.18E-06
   0      7    11.387    15.268    0.22E-03    0.52E-03    0.19E-06
   1      7    11.387     5.964    0.22E-03    0.73E-03    0.24E-06
   1      7    11.387     5.382    0.19E-03    0.60E-03    0.21E-06

  PAW_PBE Ni 02Aug2007                  :
  PAW_PBE O 08Apr2002                   :

 POSCAR: NiO_Cmmm_scale_1_050_disp_0_10_round_1
  positions in direct lattice
 exchange correlation table for  LEXCH =       14
   RHO(1)=    0.500       N(1)  =     2000
   RHO(2)=  100.500       N(2)  =     4000

 ion  position               nearest neighbor table
   1  0.986  0.980  0.986-  28 1.91  30 2.01  10 2.93   7 3.04
   2  0.011  0.025  0.317-  29 1.68  28 1.70  14 2.82   5 3.03  11 3.06
   3  0.006  0.013  0.625-  29 1.68  30 1.94  15 2.87  12 3.02
   4  0.944  0.322  0.014-  31 1.63  33 2.32  22 2.80   7 2.86  19 2.87
   5  0.944  0.315  0.306-  31 1.58  32 1.80   8 2.87  20 2.88  23 2.93   2 3.03
   6  0.929  0.302  0.651-  33 1.63  32 1.96  21 2.64  24 2.89
   7  0.941  0.630  0.989-  34 1.98  36 2.16  22 2.72   4 2.86  25 2.94   1 3.04
   8  0.947  0.627  0.307-  34 1.46  35 1.83   5 2.87  23 3.03  26 3.06
   9  0.954  0.654  0.625-  35 1.65  36 1.80  27 2.83  24 3.01
  10  0.317  0.009  0.006-  37 1.60  39 2.49  13 2.88  19 2.90   1 2.93  22 3.02
  11  0.325  0.992  0.321-  38 1.77  37 1.85  23 2.77  20 2.87   2 3.06
  12  0.327  0.999  0.625-  38 1.60  39 1.65  15 2.79  24 2.91  21 2.99   3 3.02
  13  0.321  0.323  0.004-  40 1.70  42 2.18  25 2.68  10 2.88  22 2.95  16 2.99
  14  0.320  0.328  0.326-  41 1.52  40 1.81  26 2.64   2 2.82  17 2.88  23 2.91
  15  0.333  0.304  0.649-  42 1.71  41 2.01  24 2.64  12 2.79   3 2.87  27 2.91
  16  0.316  0.645  0.992-  43 1.83  45 2.25  25 2.92  13 2.99
  17  0.328  0.644  0.343-  44 1.44  43 1.99  26 2.75  14 2.88
  18  0.320  0.639  0.630-  44 1.66  45 1.70  27 2.96
  19  0.632  0.011  0.003-  46 1.60  48 2.19   4 2.87  10 2.90  22 2.91
  20  0.637  0.996  0.302-  46 1.65  47 1.83  11 2.87   5 2.88  23 2.89
  21  0.656  0.009  0.614-  47 1.61  48 2.06   6 2.64  12 2.99  24 3.06
  22  0.647  0.334  0.006-  49 1.62  51 2.49  25 2.72   7 2.72   4 2.80  19 2.91  13 2.95  10 3.02

  23  0.620  0.299  0.330-  50 1.68  49 1.91  11 2.77  20 2.89  14 2.91   5 2.93  26 2.94   8 3.03

[...]

  25  0.614  0.612  0.004-  52 1.72  54 2.31  13 2.68  22 2.72  16 2.92   7 2.94
  26  0.609  0.613  0.333-  53 1.59  52 1.87  14 2.64  17 2.75  23 2.94   8 3.06
  27  0.636  0.629  0.622-  53 1.56  54 1.85  24 2.76   9 2.83  15 2.91  18 2.96
  28  0.992  0.997  0.161-   2 1.70   1 1.91
  29  0.003  0.997  0.470-   3 1.68   2 1.68
  30  0.970  0.988  0.801-   3 1.94   1 2.01
  31  0.947  0.292  0.162-   5 1.58   4 1.63
  32  0.960  0.328  0.472-   5 1.80   6 1.96
  33  0.946  0.308  0.801-   6 1.63   4 2.32
  34  0.956  0.635  0.172-   8 1.46   7 1.98
  35  0.952  0.624  0.475-   9 1.65   8 1.83
  36  0.934  0.635  0.790-   9 1.80   7 2.16
  37  0.334  0.022  0.152-  10 1.60  11 1.85
  38  0.283  0.992  0.481-  12 1.60  11 1.77
  39  0.338  0.020  0.776-  12 1.65  10 2.49
  40  0.303  0.321  0.160-  13 1.70  14 1.81
  41  0.323  0.337  0.466-  14 1.52  15 2.01
  42  0.309  0.325  0.802-  15 1.71  13 2.18
  43  0.314  0.638  0.161-  16 1.83  17 1.99
  44  0.328  0.637  0.476-  17 1.44  18 1.66
  45  0.338  0.639  0.785-  18 1.70  16 2.25
  46  0.622  0.988  0.150-  19 1.60  20 1.65
  47  0.624  0.967  0.469-  21 1.61  20 1.83
  48  0.621  0.988  0.802-  21 2.06  19 2.19
  49  0.634  0.303  0.154-  22 1.62  23 1.91
  50  0.627  0.293  0.485-  24 1.59  23 1.68
  51  0.614  0.302  0.778-  24 1.63  22 2.49
  52  0.622  0.631  0.161-  25 1.72  26 1.87
  53  0.608  0.623  0.480-  27 1.56  26 1.59
  54  0.651  0.642  0.793-  27 1.85  25 2.31

  LATTYP: Found a hexagonal cell.
 ALAT       =     9.2132460023
 C/A-ratio  =     1.1769065427

  Lattice vectors:

 A1 = (   9.2132460000,   0.0000000000,   0.0000000000)
 A2 = (  -4.6066230000,   7.9789050900,   0.0000000000)
 A3 = (   0.0000000000,   0.0000000000,  10.8431295000)

Analysis of symmetry for initial positions (statically):
 Subroutine PRICEL returns:
 Original cell was already a primitive cell.

 Routine SETGRP: Setting up the symmetry group for a
 hexagonal supercell.

 Subroutine GETGRP returns: Found  1 space group operations
 (whereof  1 operations were pure point group operations)
 out of a pool of 24 trial point group operations.

The static configuration has the point symmetry C_1 .

Analysis of symmetry for dynamics (positions and initial velocities):
 Subroutine PRICEL returns:
 Original cell was already a primitive cell.

[...]

The dynamic configuration has the point symmetry C_1 .

Analysis of structural, dynamic, and magnetic symmetry:
 Subroutine PRICEL returns:
 Original cell was already a primitive cell.

 Routine SETGRP: Setting up the symmetry group for a
 hexagonal supercell.

 Subroutine GETGRP returns: Found  1 space group operations
 (whereof  1 operations were pure point group operations)
 out of a pool of 24 trial point group operations.

The magnetic configuration has the point symmetry C_1 .

 Subroutine INISYM returns: Found  1 space group operations
 (whereof  1 operations are pure point group operations),
 and found     1 'primitive' translations

 KPOINTS: Automatic mesh

Automatic generation of k-mesh.
Space group operators:
 irot       det(A)        alpha          n_x          n_y          n_z        tau_x        tau_y        tau_z
    1     1.000000     0.000000     1.000000     0.000000     0.000000     0.000000     0.000000     0.000000

 Subroutine IBZKPT returns following result:

 Found     26 irreducible k-points:

 Following reciprocal coordinates:
            Coordinates               Weight
  0.000000  0.000000  0.000000      1.000000
  0.250000 -0.000000  0.000000      2.000000
  0.500000 -0.000000  0.000000      1.000000
  0.000000  0.250000  0.000000      2.000000
  0.250000  0.250000  0.000000      2.000000
  0.500000  0.250000  0.000000      2.000000
 -0.250000  0.250000  0.000000      2.000000
  0.000000  0.500000  0.000000      1.000000
  0.250000  0.500000  0.000000      2.000000
  0.500000  0.500000  0.000000      1.000000
  0.000000  0.000000  0.333333      2.000000
  0.250000 -0.000000  0.333333      2.000000
  0.500000 -0.000000  0.333333      2.000000
 -0.250000  0.000000  0.333333      2.000000
  0.000000  0.250000  0.333333      2.000000
  0.250000  0.250000  0.333333      2.000000
  0.500000  0.250000  0.333333      2.000000
 -0.250000  0.250000  0.333333      2.000000
  0.000000  0.500000  0.333333      2.000000
  0.250000  0.500000  0.333333      2.000000
  0.500000  0.500000  0.333333      2.000000
 -0.250000  0.500000  0.333333      2.000000
  0.000000 -0.250000  0.333333      2.000000
  0.250000 -0.250000  0.333333      2.000000
  0.500000 -0.250000  0.333333      2.000000
 -0.250000 -0.250000  0.333333      2.000000

 Following cartesian coordinates:
            Coordinates               Weight
  0.000000  0.000000  0.000000      1.000000
  0.027135  0.015666  0.000000      2.000000
  0.054270  0.031333  0.000000      1.000000
  0.000000  0.031333  0.000000      2.000000
  0.027135  0.046999  0.000000      2.000000
  0.054270  0.062665  0.000000      2.000000
 -0.027135  0.015666  0.000000      2.000000
  0.000000  0.062665  0.000000      1.000000
  0.027135  0.078332  0.000000      2.000000
  0.054270  0.093998  0.000000      1.000000
  0.000000  0.000000  0.030741      2.000000
  0.027135  0.015666  0.030741      2.000000
  0.054270  0.031333  0.030741      2.000000
 -0.027135 -0.015666  0.030741      2.000000
  0.000000  0.031333  0.030741      2.000000
  0.027135  0.046999  0.030741      2.000000
  0.054270  0.062665  0.030741      2.000000
 -0.027135  0.015666  0.030741      2.000000
  0.000000  0.062665  0.030741      2.000000
  0.027135  0.078332  0.030741      2.000000
  0.054270  0.093998  0.030741      2.000000
 -0.027135  0.046999  0.030741      2.000000
  0.000000 -0.031333  0.030741      2.000000
  0.027135 -0.015666  0.030741      2.000000
  0.054270  0.000000  0.030741      2.000000
 -0.027135 -0.046999  0.030741      2.000000

 SYSTEM =  unknown system
 POSCAR =  NiO_Cmmm_scale_1_050_disp_0_10_round_1

 Startparameter for this run:
   NWRITE =      1    write-flag & timer
   PREC   = accura    normal or accurate (medium, high low for compatibility)
   ISTART =      0    job   : 0-new  1-cont  2-samecut
   ICHARG =      2    charge: 1-file 2-atom 10-const
   ISPIN  =      2    spin polarized calculation?
   LNONCOLLINEAR =      F non collinear calculations
   LSORBIT =      F    spin-orbit coupling
   INIWAV =      1    electr: 0-lowe 1-rand  2-diag
   LASPH  =      F    aspherical Exc in radial PAW
   METAGGA=      F    non-selfconsistent MetaGGA calc.

 Electronic Relaxation 1
   ENCUT  =  500.0 eV  36.75 Ry    6.06 a.u.  16.80 16.80 19.77*2*pi/ulx,y,z
   ENINI  =  500.0     initial cutoff
   ENAUG  =  605.4 eV  augmentation charge cutoff
   NELM   =     80;   NELMIN=  2; NELMDL= -5     # of ELM steps
   EDIFF  = 0.1E-04   stopping-criterion for ELM
   LREAL  =      T    real-space projection
   NLSPLINE    = F    spline interpolate recip. space projectors
   LCOMPAT=      F    compatible to vasp.4.4
   GGA_COMPAT  = T    GGA compatible to vasp.4.4-vasp.4.6
   LMAXPAW     = -100 max onsite density
   LMAXMIX     =    2 max onsite mixed and CHGCAR
   VOSKOWN=      1    Vosko Wilk Nusair interpolation
   ROPT   =   -0.00025  -0.00025
 Ionic relaxation
   EDIFFG = 0.1E-03   stopping-criterion for IOM
   NSW    =      0    number of steps for IOM
   NBLOCK =      1;   KBLOCK =      1    inner block; outer block
[...]
   0.761E+02 0.310E+02 -.231E+03   -.763E+02 -.314E+02 0.234E+03   -.157E+00 -.132E-02 0.399E+00   -.557E-01 -.115E-01 -.104E+00
   -.136E+03 -.567E+02 0.343E+03   0.135E+03 0.566E+02 -.342E+03   0.967E+00 0.963E-01 -.406E+01   -.403E-02 -.870E-02 0.211E-01
   -.890E+02 -.476E+02 -.629E+02   0.880E+02 0.475E+02 0.704E+02   0.697E+00 0.167E-01 -.238E+01   0.568E-01 -.469E-01 0.539E-01
   -.128E+03 -.477E+02 -.627E+02   0.128E+03 0.469E+02 0.622E+02   0.206E+00 0.892E+00 -.255E+01   0.468E-01 -.422E-01 -.548E-01
   -.120E+03 -.159E+03 0.166E+03   0.119E+03 0.157E+03 -.166E+03   0.679E+00 0.132E+01 -.171E+00   -.214E-01 -.757E-02 0.130E-01
   -.493E+02 -.147E+03 -.780E+02   0.487E+02 0.146E+03 0.903E+02   0.486E+00 0.531E-01 -.117E+00   0.273E-02 0.423E-01 0.348E-01
   -.128E+03 -.137E+03 -.203E+03   0.127E+03 0.136E+03 0.206E+03   0.940E-01 0.527E+00 0.151E+00   -.566E-01 0.284E-01 -.402E-01
   0.640E+02 0.207E+03 0.355E+03   -.641E+02 -.206E+03 -.351E+03   0.391E-01 -.577E+00 -.646E+01   0.636E-02 0.457E-01 0.800E-01
   0.339E+02 0.211E+03 0.870E+02   -.342E+02 -.209E+03 -.861E+02   -.187E+00 -.832E+00 -.146E+01   -.378E-01 0.234E-01 -.377E-01
   -.242E+02 0.230E+03 -.192E+03   0.243E+02 -.229E+03 0.196E+03   -.482E+00 -.130E+00 -.116E+01   -.191E-01 -.167E-01 -.519E-01
   0.129E+03 0.357E+02 0.269E+03   -.128E+03 -.352E+02 -.266E+03   -.565E+00 -.333E+00 -.410E+01   0.434E-01 -.136E-01 0.535E-01
   0.112E+03 0.672E+02 0.173E+03   -.111E+03 -.676E+02 -.180E+03   -.563E+00 0.335E+00 -.342E+00   -.412E-01 -.513E-01 0.416E-01
   0.164E+03 0.270E+02 -.104E+03   -.165E+03 -.266E+02 0.108E+03   0.337E+00 -.509E-01 -.450E+01   -.520E-01 0.504E-01 -.854E-01
   0.121E+03 -.604E+02 0.226E+03   -.120E+03 0.597E+02 -.221E+03   -.456E+00 0.425E+00 -.488E+01   0.243E-01 -.367E-02 0.161E-01
   0.172E+03 -.734E+02 0.269E+03   -.171E+03 0.739E+02 -.284E+03   -.245E+00 -.209E+00 -.390E+00   0.219E-01 -.167E-01 0.435E-01
   0.169E+03 -.278E+02 -.222E+03   -.168E+03 0.279E+02 0.228E+03   -.165E+00 -.148E+00 -.362E+01   0.702E-01 -.128E-01 -.567E-01
   -.932E+02 0.123E+03 0.333E+03   0.926E+02 -.123E+03 -.335E+03   0.308E+00 -.302E+00 -.218E+01   -.345E-01 0.845E-02 0.323E-01
   -.124E+03 0.103E+03 -.904E+01   0.122E+03 -.103E+03 0.117E+02   0.562E+00 -.927E+00 -.224E+00   0.206E-01 -.139E-01 0.586E-01
   -.108E+03 0.793E+02 -.281E+03   0.107E+03 -.791E+02 0.284E+03   -.375E-01 -.369E-01 0.257E+01   0.773E-01 -.557E-01 -.717E-01
   -.129E+02 -.252E+02 0.344E+03   0.133E+02 0.259E+02 -.341E+03   -.300E+00 -.659E+00 -.547E+01   -.558E-01 -.211E-01 0.418E-01
   -.284E+02 -.320E+02 0.112E+03   0.286E+02 0.316E+02 -.112E+03   0.222E+00 0.335E+00 -.185E+01   -.397E-01 -.352E-01 -.334E-01
   -.875E+02 -.640E+02 -.174E+03   0.870E+02 0.647E+02 0.178E+03   0.370E+00 -.889E+00 -.163E+01   -.186E-01 0.530E-01 -.238E-01
   0.166E+02 -.192E+03 0.257E+03   -.161E+02 0.191E+03 -.253E+03   -.205E+00 0.125E+01 -.493E+01   -.384E-02 -.427E-01 -.733E-02
   -.100E+03 -.199E+03 0.187E+03   0.100E+03 0.198E+03 -.192E+03   -.793E-02 0.757E+00 0.259E+00   -.418E-01 -.135E-02 0.705E-01
   -.197E+02 -.206E+03 -.272E+03   0.207E+02 0.206E+03 0.281E+03   -.205E+00 0.417E+00 -.218E+01   -.342E-01 0.549E-01 -.293E-01
   0.327E+02 0.782E+02 0.134E+03   -.336E+02 -.793E+02 -.140E+03   0.753E+00 0.116E+01 0.406E+01   0.208E-01 0.286E-01 0.152E+00
   0.517E+02 0.798E+02 -.256E+02   -.501E+02 -.835E+02 0.250E+02   -.192E+01 0.434E+01 0.720E-01   -.220E-01 0.215E-01 -.446E-01
   0.375E+02 0.254E+02 -.785E+02   -.402E+02 -.268E+02 0.799E+02   0.358E+01 0.165E+01 -.103E+01   -.134E-01 -.477E-02 -.954E-01
   -.106E+03 0.299E+02 0.102E+03   0.111E+03 -.361E+02 -.105E+03   -.488E+01 0.636E+01 0.118E+01   0.195E-01 -.183E-01 0.531E-01
   -.783E+02 -.253E+02 -.897E+02   0.799E+02 0.282E+02 0.936E+02   -.193E+01 -.324E+01 -.335E+01   0.393E-01 -.274E-01 -.473E-02
   -.791E+02 -.264E+02 -.204E+03   0.811E+02 0.265E+02 0.220E+03   -.208E+01 -.235E-01 -.143E+02   0.109E-01 -.100E-01 -.314E-01
   -.583E+02 -.106E+03 0.235E+03   0.597E+02 0.108E+03 -.260E+03   -.131E+01 -.143E+01 0.126E+02   -.112E-02 0.155E-01 0.271E-01
   -.683E+02 -.453E+02 0.245E+02   0.706E+02 0.415E+02 -.317E+02   -.242E+01 0.440E+01 0.403E+01   -.994E-02 0.202E-01 -.211E-01
   -.778E+02 -.572E+02 -.146E+03   0.764E+02 0.560E+02 0.153E+03   0.209E+01 0.175E+01 -.693E+01   -.263E-01 0.548E-02 -.163E-01
   0.399E+02 0.917E+02 0.379E+01   -.389E+02 -.880E+02 0.733E+01   -.814E+00 -.456E+01 -.747E+01   -.148E-01 0.227E-01 0.719E-02
   0.770E+02 0.113E+03 0.306E+02   -.867E+02 -.114E+03 -.387E+02   0.107E+02 0.447E+00 0.416E+01   -.449E-01 0.465E-02 -.924E-01
   0.265E+02 0.111E+03 -.265E+03   -.254E+02 -.109E+03 0.282E+03   -.828E+00 -.285E+01 -.162E+02   -.889E-02 0.128E-02 0.544E-01
   0.892E+02 0.166E+02 0.591E+02   -.925E+02 -.174E+02 -.552E+02   0.360E+01 0.782E+00 -.296E+01   0.144E-01 -.236E-01 0.599E-01
   0.105E+03 0.243E+02 -.191E+03   -.107E+03 -.217E+02 0.212E+03   0.254E+01 -.324E+01 -.127E+02   -.289E-01 -.213E-02 -.802E-01
   0.118E+03 -.572E+01 -.173E+03   -.122E+03 0.766E+01 0.183E+03   0.457E+01 -.234E+01 -.909E+01   -.470E-03 0.145E-01 0.914E-02
   0.741E+02 -.295E+02 0.565E+02   -.741E+02 0.286E+02 -.530E+02   -.248E+00 0.123E+01 -.373E+01   0.106E-01 -.569E-02 0.688E-01
   0.908E+02 -.158E+02 -.141E+03   -.892E+02 0.140E+02 0.160E+03   -.226E+01 0.164E+01 -.672E+01   0.317E-01 -.116E-01 -.133E-01
   0.543E+02 -.304E+02 -.195E+03   -.513E+02 0.305E+02 0.207E+03   -.407E+01 0.131E+00 -.109E+02   0.299E-01 -.450E-02 -.516E-01
   -.495E+02 0.119E+03 0.692E+02   0.485E+02 -.123E+03 -.664E+02   0.144E+01 0.386E+01 -.148E+01   -.115E-01 0.114E-02 0.824E-01
   -.459E+02 0.848E+02 0.261E+02   0.444E+02 -.913E+02 -.348E+02   0.177E+01 0.680E+01 0.463E+01   0.368E-01 -.152E-01 -.303E-02
   -.350E+02 0.768E+02 -.877E+02   0.339E+02 -.786E+02 0.890E+02   0.159E+01 0.241E+01 -.155E+01   0.212E-01 -.134E-01 -.461E-01
   -.107E+02 -.144E+01 -.142E+02   0.114E+02 -.237E+01 0.254E+02   -.927E+00 0.393E+01 -.778E+01   -.325E-01 -.174E-01 -.173E-01
   -.666E+02 0.320E+02 0.955E+01   0.708E+02 -.366E+02 -.146E+02   -.418E+01 0.486E+01 0.204E+01   -.600E-02 -.503E-02 -.464E-01
   -.385E+02 0.186E+02 -.271E+03   0.383E+02 -.221E+02 0.290E+03   0.335E+00 0.412E+01 -.174E+02   -.754E-02 0.171E-01 0.452E-01
   -.185E+02 -.135E+03 0.356E+02   0.184E+02 0.139E+03 -.306E+02   0.175E+00 -.327E+01 -.404E+01   -.758E-02 -.135E-01 -.596E-02
   -.145E+02 -.121E+03 -.218E+02   0.998E+01 0.122E+03 0.197E+02   0.457E+01 -.408E+00 0.684E+00   -.143E-01 0.221E-01 0.138E+00
   0.124E+02 -.107E+03 -.161E+03   -.114E+02 0.109E+03 0.169E+03   -.150E+01 -.217E+01 -.851E+01   -.126E-01 0.525E-02 -.895E-01
   -.840E+01 -.269E+02 0.153E+03   -.300E-12 -.995E-13 -.227E-12   0.853E+01 0.269E+02 -.153E+03   -.135E+00 -.391E-01 0.108E+00

 POSITION                                       TOTAL-FORCE (eV/Angst)
      4.57474      7.81861     10.68961         0.035288      0.343755     -0.476223
     -0.01494      0.20108      3.43255         0.202530     -0.607072     -0.521670
     -0.00163      0.10442      6.77607        -0.438559     -0.452904      3.165151
      7.21209      2.56731      0.15460        -0.506862     -0.030242     -3.185425
      7.24797      2.51071      3.31919        -0.195930     -0.159405      5.209057
      7.17124      2.41133      7.05799         0.217601     -0.000871     -3.063974
      5.77193      5.02453     10.72857        -0.247153     -0.354425     -0.031181
      5.83478      5.00537      3.32365        -0.072382     -1.030501     12.253531
      5.78143      5.21476      6.77509        -0.569588     -0.645979      3.418118
      2.87652      0.07396      0.06113        -0.064366      0.342539     -3.309528
     -1.57640      7.91735      3.48597        -0.520893      0.894151     -0.553663
     -1.58854      7.96777      6.77249        -0.468931      0.550869      2.909305
      1.46864      2.58096      0.03796         0.056968      0.210830     -1.380840
      1.43312      2.61862      3.53558         0.055943     -0.170738     -7.516047
      1.67289      2.42391      7.03301        -0.596521      0.459036     -0.988882
     -0.06206      5.14748     10.75313         0.669590     -0.353409      0.570810
      0.05354      5.13443      3.72436        -0.097372      0.291284    -15.053128
      0.00064      5.09890      6.82582         0.859676     -0.040463      1.625077
      5.77279      0.08692      0.03714        -0.394344      0.046047     -4.600931
      1.28370      7.94502      3.27666        -0.692315     -0.369254      2.463536
      6.00161      0.07499      6.65765        -0.407006      0.123225      5.417439
      4.41882      2.66705      0.06790        -0.001061      0.101598     -2.495036
      4.33320      2.38627      3.57461         0.342694     -0.119378     -2.453323
      4.29319      2.60369      6.81748        -0.186181     -0.189391      2.573137
      2.84300      4.88095      0.03971         0.290529     -0.117931     -0.935501
      2.78625      4.88848      3.61062        -0.100723     -0.413997     -4.985824
      2.95948      5.02103      6.74898         0.764480     -0.236359      7.011084
      4.54958      7.95723      1.74665        -0.073626      0.081501     -1.654716
     -4.56440      7.95636      5.09960        -0.395192      0.618016     -0.511272
      4.38603      7.88378      8.68892         0.824165      0.298425      0.208531
      7.38112      2.32838      1.75461         0.250587      0.113961     -1.733790
      7.33270      2.61510      5.11402        -0.302986     -0.434927      0.461388
      7.29144      2.45964      8.68304        -0.069582      0.152892      2.057122
      5.88217      5.06606      1.86302         0.102794      0.635274    -12.084343
      5.89522      4.98223      5.14870        -0.112613      0.635064     -3.175605
      5.68419      5.06361      8.56925         0.614765      0.522063      0.063500
      2.97399      0.17929      1.65279         0.134693     -0.808383      3.659331
     -1.96275      7.91355      5.21617         0.968727     -0.596224     -4.058557
      3.02392      0.16308      8.41561         0.206384     -0.546277      1.136248
      1.31118      2.56186      1.73072         0.263487     -0.045049      0.910276
      1.42030      2.69200      5.05701         0.263410     -0.638408      7.619812
      1.35348      2.59340      8.69981         0.408874     -0.382537      1.265190
     -0.04808      5.08902      1.74069        -0.247040      0.343538     -0.115127
      0.09161      5.08107      5.16517        -0.653036     -0.145279     11.861844
      0.17511      5.09682      8.51620        -1.003081      0.191353      0.902071
      1.18025      7.88666      1.63083         0.466144      0.053278      1.484486
      1.28806      7.71951      5.08906         0.344471      0.240683     -3.998274
      1.16703      7.88335      8.69802         0.553640      0.666603     -0.332503
      4.44673      2.42107      1.66650        -0.294822      0.099029      3.383177
      4.42175      2.33954      5.25396        -0.043232      0.216503     -3.027003
      4.27026      2.40904      8.43569         0.138461      0.610007      1.812816
      2.83023      5.03075      1.74862         0.079535     -0.075854      0.982676
      2.73143      4.96810      5.20203         0.069593      0.413374     -1.290294
      3.04406      5.12383      8.59525        -0.429632     -0.289640     -0.892053
    total drift:                                0.000240      0.004250     -0.012879

  FREE ENERGIE OF THE ION-ELECTRON SYSTEM (eV)
  free  energy   TOTEN  =      -294.3052962520 eV

  energy  without entropy=     -294.2421716315  energy(sigma->0) =     -294.27373394

volume of typ            1:    21.6 %

volume of typ            2:     5.5 %

total charge

# of ion       s       p       d       tot
    1        0.209   0.136   7.913   8.257
    2        0.297   0.293   7.886   8.476
    3        0.255   0.220   7.906   8.380
    4        0.252   0.194   7.979   8.425
    5        0.299   0.311   7.934   8.544
    6        0.285   0.248   7.876   8.410
    7        0.191   0.113   7.949   8.253
    8        0.356   0.381   7.945   8.682
    9        0.290   0.276   7.882   8.449
   10        0.266   0.201   7.961   8.428
   11        0.234   0.203   7.942   8.379
   12        0.333   0.373   7.902   8.608
   13        0.245   0.187   7.914   8.346
   14        0.329   0.357   7.925   8.612
   15        0.245   0.212   7.902   8.360
   16        0.207   0.129   7.916   8.252
   17        0.352   0.351   7.993   8.696
   18        0.300   0.295   7.917   8.512
   19        0.264   0.216   7.966   8.446
   20        0.273   0.261   7.930   8.464
   21        0.278   0.244   7.899   8.421
   22        0.268   0.213   7.942   8.424
   23        0.252   0.231   7.941   8.425
   24        0.343   0.403   7.911   8.657
   25        0.241   0.175   7.916   8.332
   26        0.286   0.283   7.954   8.523
   27        0.302   0.310   7.927   8.539
   28        1.267   2.721   0.006   3.995
   29        1.268   2.767   0.011   4.046
   30        1.275   2.645   0.002   3.923
   31        1.276   2.795   0.017   4.088
   32        1.267   2.702   0.004   3.973
   33        1.283   2.686   0.007   3.975
   34        1.281   2.782   0.016   4.079
   35        1.266   2.757   0.008   4.032
   36        1.277   2.657   0.003   3.937
   37        1.275   2.741   0.011   4.026
   38        1.271   2.774   0.011   4.057
   39        1.288   2.672   0.006   3.966
   40        1.271   2.727   0.007   4.006
   41        1.279   2.762   0.013   4.054
   42        1.281   2.668   0.005   3.954
   43        1.271   2.678   0.004   3.952
   44        1.282   2.844   0.024   4.150
   45        1.279   2.673   0.005   3.957
   46        1.273   2.782   0.015   4.070
   47        1.268   2.767   0.010   4.044
   48        1.286   2.606   0.001   3.893
   49        1.277   2.725   0.009   4.011
   50        1.273   2.793   0.014   4.080
   51        1.291   2.673   0.007   3.972
   52        1.270   2.714   0.007   3.991
   53        1.275   2.821   0.019   4.115
   54        1.286   2.625   0.003   3.913
tot          41.91   80.37  214.27  336.56

magnetization (x)

# of ion       s       p       d       tot
    1        0.006  -0.004   0.927   0.930
    2       -0.009   0.003  -0.801  -0.806
    3        0.014  -0.006   0.815   0.824
    4        0.003   0.002   0.686   0.691
    5        0.003   0.004   0.144   0.150
    6        0.018   0.003   1.172   1.192
    7       -0.002  -0.005   0.774   0.768
    8       -0.012  -0.003  -0.767  -0.782
    9        0.026  -0.004   0.999   1.021
   10        0.005   0.005   0.985   0.994
   11       -0.004   0.005  -0.376  -0.376
   12        0.021  -0.004   0.730   0.747
   13        0.007  -0.004   1.018   1.021
   14       -0.016  -0.003  -0.725  -0.744
   15        0.010   0.002   1.050   1.062
   16        0.002  -0.002   1.122   1.122
   17       -0.011  -0.007  -0.546  -0.565
   18        0.013  -0.003   0.399   0.409
   19        0.001  -0.009  -0.113  -0.121
   20       -0.007   0.000  -0.547  -0.554
   21        0.014  -0.004   1.095   1.105
   22        0.003   0.001   0.954   0.958
   23       -0.005   0.002  -0.329  -0.332
   24        0.018  -0.005   0.659   0.672
   25        0.001  -0.003   1.060   1.058
   26       -0.009   0.000  -0.371  -0.380
   27        0.010  -0.008   0.485   0.487
   28       -0.003  -0.119  -0.000  -0.122
   29       -0.002  -0.075   0.000  -0.076
   30        0.013   0.512  -0.000   0.525
   31        0.005   0.202  -0.000   0.206
   32        0.001   0.040   0.000   0.042
   33        0.012   0.557   0.000   0.569
   34       -0.005  -0.239  -0.001  -0.245
   35        0.002   0.071   0.000   0.073
   36        0.013   0.506   0.000   0.519
   37        0.009   0.355   0.000   0.364
   38       -0.001  -0.039   0.001  -0.039
   39        0.010   0.474   0.000   0.484
   40        0.007   0.269   0.000   0.276
   41       -0.007  -0.306  -0.000  -0.313
   42        0.014   0.572   0.000   0.586
   43        0.010   0.356   0.000   0.365
   44       -0.005  -0.181  -0.000  -0.186
   45        0.009   0.375  -0.000   0.385
   46       -0.006  -0.213   0.000  -0.219
   47        0.005   0.220   0.000   0.226
   48        0.014   0.583  -0.000   0.597
   49        0.009   0.361   0.000   0.370
   50       -0.002  -0.047   0.001  -0.049
   51        0.010   0.479   0.000   0.489
   52        0.008   0.333   0.000   0.341
   53       -0.003  -0.088   0.001  -0.090
   54        0.013   0.561  -0.000   0.573
tot           0.23    5.47   10.50   16.20