 vasp.5.4.4.18Apr17-6-g9f103f2a35 (build May 12 2020 04:58:55) complex

 MD_VERSION_INFO: Compiled 2020-05-12T11:58:55-UTC in devlin.sd.materialsdesign.
 com:/home/medea2/data/build/wwolf/vasp-gpu5.4.4/13047/x86_64/src/src/build/std
 from svn 13047

 executed on                        Lin64 date 2023.03.24  02:53:57

 INCAR:
 POTCAR:    PAW_PBE Ni 02Aug2007
 POTCAR:    PAW_PBE O 08Apr2002

 POTCAR:    PAW_PBE Ni 02Aug2007

 POTCAR:    PAW_PBE O 08Apr2002

 Optimization of the real space projectors (new method)

 maximal supplied QI-value         = 16.25
 optimisation between [QCUT,QGAM] = [ 11.38, 22.75] = [ 36.24,144.96] Ry
 Optimized for a Real-space Cutoff    1.47 Angstroem

   l    n(q)    QCUT    max X(q) W(low)/X(q) W(high)/X(q)  e(spline)
   2      9    11.376    60.317    0.17E-03    0.16E-04    0.16E-06
   2      9    11.376    55.921    0.17E-03    0.16E-04    0.17E-06
   0     10    11.376    51.690    0.45E-04    0.60E-04    0.21E-06
   0     10    11.376    30.015    0.37E-04    0.55E-04    0.19E-06
   1     10    11.376    18.849    0.83E-04    0.11E-03    0.92E-07
   1     10    11.376    14.624    0.69E-04    0.92E-04    0.82E-07
 Optimization of the real space projectors (new method)

 maximal supplied QI-value         = 24.76
 optimisation between [QCUT,QGAM] = [ 11.39, 22.77] = [ 36.31,145.25] Ry
 Optimized for a Real-space Cutoff    1.10 Angstroem

   l    n(q)    QCUT    max X(q) W(low)/X(q) W(high)/X(q)  e(spline)
   0      7    11.387    20.381    0.22E-03    0.48E-03    0.18E-06
   0      7    11.387    15.268    0.22E-03    0.52E-03    0.19E-06
   1      7    11.387     5.964    0.22E-03    0.73E-03    0.24E-06
   1      7    11.387     5.382    0.19E-03    0.60E-03    0.21E-06

  PAW_PBE Ni 02Aug2007                  :
  PAW_PBE O 08Apr2002                   :

 POSCAR: NiO_Cmmm_scale_1_025_disp_0_15_round_2
  positions in direct lattice
 exchange correlation table for  LEXCH =       14
   RHO(1)=    0.500       N(1)  =     2000
   RHO(2)=  100.500       N(2)  =     4000

 ion  position               nearest neighbor table
   1  0.994  0.029  0.986-  30 1.80  28 1.95  13 2.80   4 3.04
   2  0.986  0.031  0.327-  29 1.72  28 1.75  14 2.60  20 2.84  11 2.98
   3  0.980  0.985  0.670-  30 1.61  29 1.95  27 2.68   6 3.00
   4  0.950  0.343  1.000-  31 1.91  33 2.13   7 2.32  22 2.52  19 2.85  16 2.97   1 3.04
   5  0.943  0.356  0.345-  32 1.30  31 1.84  23 2.43   8 2.72  20 2.90
   6  0.945  0.300  0.662-  33 1.47  32 2.13  24 2.75   9 2.79  21 2.82   3 3.00
   7  0.976  0.613  0.990-  34 1.80  36 2.18   4 2.32  22 2.66  16 2.96
   8  0.989  0.677  0.320-  35 1.74  34 1.75  11 2.69   5 2.72  26 2.99
   9  0.951  0.613  0.658-  36 1.44  35 1.96  24 2.62   6 2.79  27 2.84
  10  0.362  0.033  0.005-  37 1.76  39 2.12  19 2.60  22 2.74  13 2.80
  11  0.287  0.976  0.319-  38 1.59  37 1.67  14 2.61   8 2.69   2 2.98
  12  0.327  0.973  0.651-  39 1.68  38 1.94  21 2.70  18 2.99  15 3.07  24 3.08
  13  0.320  0.321  0.996-  40 1.68  42 2.18  25 2.75   1 2.80  10 2.80  16 2.84  22 3.08
  14  0.306  0.275  0.325-  41 1.63  40 1.89   2 2.60  11 2.61  23 2.98
  15  0.330  0.316  0.634-  42 1.68  41 1.69  24 2.87  18 2.96  12 3.07
  16  0.310  0.630  0.024-  43 1.36  45 2.14  13 2.84  25 2.85   7 2.96   4 2.97
  17  0.344  0.645  0.330-  44 1.62  43 1.94  26 2.68
  18  0.336  0.645  0.664-  45 1.72  44 1.92  21 2.88  27 2.92  15 2.96  12 2.99
  19  0.644  0.018  0.014-  46 1.69  48 2.06  10 2.60  22 2.76   4 2.85  20 3.08
  20  0.662  0.010  0.304-  46 1.42  47 1.94  23 2.78   2 2.84   5 2.90  19 3.08
  21  0.633  0.984  0.659-  48 1.72  47 1.95  12 2.70   6 2.82  18 2.88  27 2.88  24 3.01
  22  0.667  0.333  0.973-  51 1.66  49 2.13   4 2.52   7 2.66  10 2.74  19 2.76  25 2.88  13 3.08

  23  0.654  0.314  0.328-  49 1.64  50 1.81   5 2.43  20 2.78  14 2.98  26 3.06
  24  0.655  0.328  0.643-  50 1.61  51 1.87   9 2.62   6 2.75  15 2.87  21 3.01  12 3.08
  25  0.624  0.629  0.994-  54 1.87  52 2.01  13 2.75  16 2.85  22 2.88
  26  0.643  0.648  0.328-  52 1.59  53 1.78  17 2.68   8 2.99  23 3.06
  27  0.680  0.690  0.649-  53 1.73  54 1.84   3 2.68   9 2.84  21 2.88  18 2.92
  28  0.007  0.998  0.167-   2 1.75   1 1.95
  29  0.997  0.030  0.489-   2 1.72   3 1.95
  30  0.010  0.994  0.821-   3 1.61   1 1.80
  31  0.964  0.317  0.178-   5 1.84   4 1.91
  32  0.974  0.344  0.464-   5 1.30   6 2.13
  33  0.952  0.312  0.801-   6 1.47   4 2.13
  34  1.000  0.671  0.155-   8 1.75   7 1.80
  35  0.011  0.687  0.483-   8 1.74   9 1.96
  36  0.999  0.665  0.788-   9 1.44   7 2.18
  37  0.297  0.978  0.162-  11 1.67  10 1.76
  38  0.297  0.980  0.470-  11 1.59  12 1.94
  39  0.320  0.004  0.806-  12 1.68  10 2.12
  40  0.344  0.344  0.154-  13 1.68  14 1.89
  41  0.323  0.323  0.475-  14 1.63  15 1.69
  42  0.349  0.342  0.792-  15 1.68  13 2.18
  43  0.349  0.670  0.148-  16 1.36  17 1.94
  44  0.337  0.659  0.482-  17 1.62  18 1.92
  45  0.296  0.638  0.823-  18 1.72  16 2.14
  46  0.659  0.992  0.171-  20 1.42  19 1.69
  47  0.670  0.058  0.483-  20 1.94  21 1.95
  48  0.648  0.008  0.820-  21 1.72  19 2.06
  49  0.660  0.333  0.174-  23 1.64  22 2.13
  50  0.645  0.359  0.494-  24 1.61  23 1.81
  51  0.641  0.334  0.818-  22 1.66  24 1.87
  52  0.662  0.680  0.180-  26 1.59  25 2.01
  53  0.674  0.633  0.493-  27 1.73  26 1.78
  54  0.653  0.638  0.819-  27 1.84  25 1.87

  LATTYP: Found a hexagonal cell.
 ALAT       =     8.9938830029
 C/A-ratio  =     1.1769065427

  Lattice vectors:

 A1 = (   8.9938830000,   0.0000000000,   0.0000000000)
 A2 = (  -4.4969415000,   7.7889311600,   0.0000000000)
 A3 = (   0.0000000000,   0.0000000000,  10.5849597500)

Analysis of symmetry for initial positions (statically):
 Subroutine PRICEL returns:
 Original cell was already a primitive cell.

 Routine SETGRP: Setting up the symmetry group for a
 hexagonal supercell.

 Subroutine GETGRP returns: Found  1 space group operations
 (whereof  1 operations were pure point group operations)
 out of a pool of 24 trial point group operations.

The static configuration has the point symmetry C_1 .

Analysis of symmetry for dynamics (positions and initial velocities):
 Subroutine PRICEL returns:
 Original cell was already a primitive cell.

[...]

The dynamic configuration has the point symmetry C_1 .

Analysis of structural, dynamic, and magnetic symmetry:
 Subroutine PRICEL returns:
 Original cell was already a primitive cell.

 Routine SETGRP: Setting up the symmetry group for a
 hexagonal supercell.

 Subroutine GETGRP returns: Found  1 space group operations
 (whereof  1 operations were pure point group operations)
 out of a pool of 24 trial point group operations.

The magnetic configuration has the point symmetry C_1 .

 Subroutine INISYM returns: Found  1 space group operations
 (whereof  1 operations are pure point group operations),
 and found     1 'primitive' translations

 KPOINTS: Automatic mesh

Automatic generation of k-mesh.
Space group operators:
 irot       det(A)        alpha          n_x          n_y          n_z        tau_x        tau_y        tau_z
    1     1.000000     0.000000     1.000000     0.000000     0.000000     0.000000     0.000000     0.000000

 Subroutine IBZKPT returns following result:

 Found     26 irreducible k-points:

 Following reciprocal coordinates:
            Coordinates               Weight
  0.000000  0.000000  0.000000      1.000000
  0.250000 -0.000000  0.000000      2.000000
  0.500000 -0.000000  0.000000      1.000000
  0.000000  0.250000  0.000000      2.000000
  0.250000  0.250000  0.000000      2.000000
  0.500000  0.250000  0.000000      2.000000
 -0.250000  0.250000  0.000000      2.000000
  0.000000  0.500000  0.000000      1.000000
  0.250000  0.500000  0.000000      2.000000
  0.500000  0.500000  0.000000      1.000000
  0.000000  0.000000  0.333333      2.000000
  0.250000 -0.000000  0.333333      2.000000
  0.500000 -0.000000  0.333333      2.000000
 -0.250000  0.000000  0.333333      2.000000
  0.000000  0.250000  0.333333      2.000000
  0.250000  0.250000  0.333333      2.000000
  0.500000  0.250000  0.333333      2.000000
 -0.250000  0.250000  0.333333      2.000000
  0.000000  0.500000  0.333333      2.000000
  0.250000  0.500000  0.333333      2.000000
  0.500000  0.500000  0.333333      2.000000
 -0.250000  0.500000  0.333333      2.000000
  0.000000 -0.250000  0.333333      2.000000
  0.250000 -0.250000  0.333333      2.000000
  0.500000 -0.250000  0.333333      2.000000
 -0.250000 -0.250000  0.333333      2.000000

 Following cartesian coordinates:
            Coordinates               Weight
  0.000000  0.000000  0.000000      1.000000
  0.027797  0.016048  0.000000      2.000000
  0.055593  0.032097  0.000000      1.000000
  0.000000  0.032097  0.000000      2.000000
  0.027797  0.048145  0.000000      2.000000
  0.055593  0.064194  0.000000      2.000000
 -0.027797  0.016048  0.000000      2.000000
  0.000000  0.064194  0.000000      1.000000
  0.027797  0.080242  0.000000      2.000000
  0.055593  0.096290  0.000000      1.000000
  0.000000  0.000000  0.031491      2.000000
  0.027797  0.016048  0.031491      2.000000
  0.055593  0.032097  0.031491      2.000000
 -0.027797 -0.016048  0.031491      2.000000
  0.000000  0.032097  0.031491      2.000000
  0.027797  0.048145  0.031491      2.000000
  0.055593  0.064194  0.031491      2.000000
 -0.027797  0.016048  0.031491      2.000000
  0.000000  0.064194  0.031491      2.000000
  0.027797  0.080242  0.031491      2.000000
  0.055593  0.096290  0.031491      2.000000
 -0.027797  0.048145  0.031491      2.000000
  0.000000 -0.032097  0.031491      2.000000
  0.027797 -0.016048  0.031491      2.000000
  0.055593  0.000000  0.031491      2.000000
 -0.027797 -0.048145  0.031491      2.000000

 SYSTEM =  unknown system
 POSCAR =  NiO_Cmmm_scale_1_025_disp_0_15_round_2

 Startparameter for this run:
   NWRITE =      1    write-flag & timer
   PREC   = accura    normal or accurate (medium, high low for compatibility)
   ISTART =      0    job   : 0-new  1-cont  2-samecut
   ICHARG =      2    charge: 1-file 2-atom 10-const
   ISPIN  =      2    spin polarized calculation?
   LNONCOLLINEAR =      F non collinear calculations
   LSORBIT =      F    spin-orbit coupling
   INIWAV =      1    electr: 0-lowe 1-rand  2-diag
   LASPH  =      F    aspherical Exc in radial PAW
   METAGGA=      F    non-selfconsistent MetaGGA calc.

 Electronic Relaxation 1
   ENCUT  =  500.0 eV  36.75 Ry    6.06 a.u.  16.40 16.40 19.30*2*pi/ulx,y,z
   ENINI  =  500.0     initial cutoff
   ENAUG  =  605.4 eV  augmentation charge cutoff
   NELM   =     80;   NELMIN=  2; NELMDL= -5     # of ELM steps
   EDIFF  = 0.1E-04   stopping-criterion for ELM
   LREAL  =      T    real-space projection
   NLSPLINE    = F    spline interpolate recip. space projectors
   LCOMPAT=      F    compatible to vasp.4.4
   GGA_COMPAT  = T    GGA compatible to vasp.4.4-vasp.4.6
   LMAXPAW     = -100 max onsite density
   LMAXMIX     =    2 max onsite mixed and CHGCAR
   VOSKOWN=      1    Vosko Wilk Nusair interpolation
   ROPT   =   -0.00025  -0.00025
 Ionic relaxation
   EDIFFG = 0.1E-03   stopping-criterion for IOM
[...]
   0.365E+01 0.433E+01 0.398E+02   -.474E+01 -.369E+01 -.425E+02   0.760E+00 0.973E-01 -.139E+01   -.624E-01 -.451E-01 -.806E-01
   -.187E+03 0.474E+02 0.801E+02   0.186E+03 -.473E+02 -.767E+02   0.157E+01 -.100E+01 -.285E+01   0.220E-01 -.148E+00 0.113E-01
   -.821E+02 -.889E+02 0.229E+03   0.736E+02 0.916E+02 -.265E+03   0.964E+00 -.695E+00 0.200E+01   -.800E-01 -.405E-01 0.147E+00
   -.172E+03 0.200E+02 0.144E+03   0.170E+03 -.195E+02 -.150E+03   0.821E+00 -.771E+00 -.387E+01   -.393E-01 -.679E-01 -.136E+00
   0.219E+02 -.213E+03 0.121E+03   -.216E+02 0.212E+03 -.116E+03   -.191E+00 0.202E+01 -.416E+01   -.125E+00 0.276E-02 0.537E-02
   0.311E+02 -.428E+02 0.462E+02   -.299E+02 0.422E+02 -.455E+02   -.321E+00 0.362E+00 -.978E+00   -.992E-01 -.804E-01 0.132E+00
   -.507E+02 -.382E+02 0.113E+03   0.494E+02 0.354E+02 -.125E+03   0.740E-01 0.533E+00 -.883E+00   -.640E-01 -.858E-02 -.127E+00
   0.661E+02 0.981E+02 0.156E+03   -.662E+02 -.981E+02 -.154E+03   -.445E+00 -.257E+00 -.296E+01   -.184E-01 0.805E-01 -.919E-01
   -.541E+02 0.658E+02 0.397E+02   0.542E+02 -.652E+02 -.412E+02   -.689E-01 -.161E+00 -.656E+00   -.928E-01 0.960E-01 0.157E+00
   0.146E+02 0.949E+02 0.172E+02   -.146E+02 -.934E+02 -.159E+02   -.410E+00 -.902E+00 -.297E+01   0.445E-01 0.274E-01 -.291E-01
   0.101E+03 0.466E+02 0.183E+03   -.101E+03 -.465E+02 -.181E+03   -.294E+00 0.244E+00 -.366E+01   0.636E-01 0.688E-02 0.441E-01
   0.591E+02 -.265E+02 0.118E+03   -.590E+02 0.270E+02 -.120E+03   -.450E-01 0.195E+00 -.106E+01   0.286E-01 -.296E-01 0.113E+00
   0.105E+03 0.295E+02 -.753E+02   -.105E+03 -.292E+02 0.778E+02   -.189E+00 0.475E+00 -.180E+01   0.367E-01 -.285E-02 -.181E+00
   0.648E+02 0.204E+02 0.339E+03   -.677E+02 -.255E+02 -.363E+03   -.261E+00 0.279E+00 -.578E+00   0.151E+00 -.274E-01 -.105E+00
   0.417E+02 0.235E+02 0.746E+02   -.408E+02 -.224E+02 -.742E+02   -.434E+00 -.688E-01 -.425E+01   0.246E-02 -.789E-01 0.101E+00
   0.368E+01 0.128E+02 0.535E+00   -.398E+01 -.119E+02 0.153E+01   -.206E-01 -.355E+00 -.323E+01   0.713E-01 0.613E-01 -.105E-01
   -.606E+02 0.129E+03 0.187E+03   0.602E+02 -.128E+03 -.189E+03   0.739E+00 -.923E+00 -.435E+00   0.648E-01 -.473E-02 -.115E+00
   -.173E+00 0.122E+03 -.209E+03   -.428E+00 -.120E+03 0.228E+03   0.746E-01 0.272E+00 -.251E+01   0.733E-01 0.146E+00 0.165E+00
   -.352E+02 0.139E+03 0.254E+02   0.349E+02 -.138E+03 -.257E+02   0.237E+00 0.320E+00 -.850E+00   0.106E-01 -.349E-02 0.108E-01
   0.626E+02 -.235E+02 -.947E+02   -.616E+02 0.232E+02 0.942E+02   -.881E+00 0.244E+00 0.315E+01   -.988E-01 0.231E-02 -.136E-01
   0.898E+02 0.362E+02 -.558E+01   -.897E+02 -.352E+02 0.621E+01   -.159E+00 -.382E+00 0.127E+01   0.273E-01 0.633E-01 0.117E+00
   0.201E+02 0.849E+02 -.131E+03   -.194E+02 -.844E+02 0.134E+03   -.563E+00 -.462E+00 0.141E+01   -.411E-02 -.211E-01 -.148E+00
   -.197E+02 -.131E+03 0.154E+02   0.201E+02 0.131E+03 -.177E+02   -.842E-01 0.212E+00 0.216E+01   0.345E-01 0.389E-01 -.900E-01
   0.253E+02 -.469E+02 -.462E+02   -.254E+02 0.470E+02 0.491E+02   0.450E+00 -.165E+00 0.104E+01   0.164E+00 -.520E-01 0.962E-01
   0.892E+02 -.125E+03 -.856E+02   -.891E+02 0.124E+03 0.866E+02   0.213E+00 -.183E+00 0.324E+00   -.258E-01 0.298E-01 0.119E-01
   -.951E+01 0.595E+02 0.128E+03   0.149E+02 -.644E+02 -.134E+03   -.679E+01 0.573E+01 0.490E+01   -.187E-01 0.900E-02 0.482E-01
   0.165E+02 0.121E+02 -.976E+02   -.154E+02 -.108E+02 0.104E+03   -.168E+01 -.198E+01 -.498E+01   -.142E-01 0.771E-03 0.220E-01
   -.408E+02 0.236E+02 -.110E+03   0.472E+02 -.248E+02 0.118E+03   -.713E+01 0.154E+01 -.482E+01   -.515E-01 -.213E-01 -.764E-01
   -.123E+03 0.113E+02 0.593E+02   0.129E+03 -.160E+02 -.611E+02   -.659E+01 0.560E+01 0.990E+00   -.199E-01 -.335E-01 0.147E+00
   -.177E+03 -.851E+01 -.301E+03   0.194E+03 0.505E+01 0.354E+03   -.886E+01 0.112E+01 -.203E+02   -.608E-01 -.292E-01 -.617E-01
   -.103E+03 -.344E+01 -.207E+03   0.105E+03 0.442E+01 0.234E+03   -.131E+01 -.122E+00 -.162E+02   -.139E-01 -.649E-01 -.900E-01
   0.767E+01 -.673E+02 0.780E+02   -.722E+01 0.719E+02 -.803E+02   -.710E+00 -.515E+01 0.156E+01   -.861E-01 0.255E-02 0.247E+00
   -.453E+02 -.652E+02 -.865E+02   0.482E+02 0.701E+02 0.936E+02   -.347E+01 -.600E+01 -.617E+01   -.498E-01 -.251E-01 -.723E-01
   -.610E+02 -.151E+03 -.251E+03   0.665E+02 0.164E+03 0.281E+03   -.404E+01 -.105E+02 -.167E+02   -.387E-01 0.453E-01 -.104E+00
   0.174E+02 0.641E+02 0.101E+03   -.208E+02 -.690E+02 -.106E+03   0.403E+01 0.523E+01 0.372E+01   -.346E-01 0.638E-01 0.111E-01
   -.200E+02 0.254E+02 -.147E+03   0.193E+02 -.255E+02 0.160E+03   0.147E+01 -.173E+00 -.912E+01   -.201E-01 0.441E-01 0.111E+00
   0.495E+02 0.404E+02 -.140E+03   -.532E+02 -.386E+02 0.152E+03   0.435E+01 -.189E+01 -.101E+02   0.333E-01 -.862E-03 -.131E+00
   0.245E+02 -.398E+02 -.293E+02   -.229E+02 0.463E+02 0.375E+02   -.192E+01 -.767E+01 -.699E+01   0.416E-01 -.200E-01 0.686E-01
   0.714E+02 -.639E+02 -.436E+02   -.730E+02 0.693E+02 0.464E+02   0.165E+01 -.581E+01 -.874E+00   0.217E-01 -.366E-01 -.621E-01
   0.640E+02 -.112E+02 -.136E+03   -.623E+02 0.145E+02 0.149E+03   -.222E+01 -.403E+01 -.111E+02   0.208E-01 0.154E-01 -.421E-01
   -.401E+01 -.760E+02 -.169E+03   0.993E+01 0.885E+02 0.208E+03   -.330E+01 -.845E+01 -.151E+02   0.675E-01 -.219E-02 0.339E-01
   0.249E+02 -.267E+02 -.110E+03   -.278E+02 0.293E+02 0.120E+03   0.292E+01 -.302E+01 -.667E+01   -.316E-02 -.111E-01 0.232E+00
   0.250E+02 -.163E+02 -.107E+03   -.286E+02 0.161E+02 0.116E+03   0.416E+01 -.673E-01 -.848E+01   0.690E-01 0.437E-01 -.180E+00
   -.547E+02 0.936E+02 0.155E+03   0.593E+02 -.998E+02 -.177E+03   -.468E+01 0.478E+01 0.746E+01   0.594E-01 0.356E-01 0.651E-01
   -.410E+01 0.651E+02 -.329E+02   0.296E+01 -.589E+02 0.332E+02   0.140E+01 -.817E+01 -.535E+00   0.859E-02 0.651E-01 0.623E-01
   -.322E+02 0.734E+02 -.112E+03   0.332E+02 -.709E+02 0.121E+03   -.107E+01 -.290E+01 -.719E+01   0.209E-01 -.268E-01 -.121E+00
   0.484E+02 -.402E+02 0.150E+03   -.501E+02 0.431E+02 -.164E+03   0.154E+01 -.320E+01 0.107E+02   -.193E-01 0.263E-01 0.132E+00
   0.566E+02 -.229E+02 0.493E+02   -.633E+02 0.295E+02 -.581E+02   0.700E+01 -.728E+01 0.562E+01   0.256E-01 -.237E-03 -.159E-01
   0.553E+02 0.747E+01 0.371E+02   -.608E+02 -.706E+01 -.454E+02   0.594E+01 -.641E+00 0.626E+01   -.423E-02 -.792E-02 -.999E-01
   -.432E+02 -.723E+02 0.172E+03   0.451E+02 0.783E+02 -.187E+03   -.214E+01 -.638E+01 0.103E+02   0.553E-01 -.337E-01 -.101E+00
   0.893E+01 -.408E+02 0.766E+01   -.351E+01 0.348E+02 -.971E+01   -.671E+01 0.713E+01 0.115E+01   0.463E-01 -.363E-02 0.117E+00
   0.189E+02 -.575E+02 -.559E+02   -.171E+02 0.538E+02 0.565E+02   -.219E+01 0.465E+01 0.129E+00   -.177E-01 0.518E-01 -.186E-01
   0.296E+02 0.489E+02 0.120E+03   0.185E-12 -.369E-12 -.213E-13   -.296E+02 -.490E+02 -.120E+03   0.606E-01 0.342E-01 0.173E+00

 POSITION                                       TOTAL-FORCE (eV/Angst)
      8.80428      0.22919     10.43935         1.138363     -0.381129      0.535378
      8.73499      0.23776      3.46237         0.999083     -0.325839     -0.376394
      4.38233      7.67265      7.09214        -0.394870      0.693298     -4.163176
      6.99953      2.67363     10.58409         0.586542     -1.006726      0.517083
      6.87661      2.77549      3.65606        -7.657671      1.950644    -33.801539
      7.14709      2.33561      7.00614        -0.608002     -0.263672    -10.416635
      6.01669      4.77782     10.47975        -0.047940      0.816801      0.122318
      5.84529      5.27511      3.38255         0.719709     -0.322362     -0.186902
      5.79161      4.77690      6.96717        -1.291362     -2.268027    -13.558414
      3.11109      0.25616      0.04847        -0.572721     -0.181463     -1.142523
     -1.80943      7.60246      3.38070        -0.108490      0.524906     -2.040576
     -1.43516      7.58077      6.88907        -0.360132      0.607705     -1.659879
      1.43639      2.50046     10.54597         0.391334      0.338529     -1.629786
      1.51392      2.14456      3.43975         0.097214      0.683593     -3.191251
      1.54867      2.45819      6.71127        -0.090867      0.743992      0.500934
     -0.04542      4.90643      0.25571        -3.018985     -4.835797    -24.344560
      0.19016      5.02369      3.49198         0.529182      0.923916     -3.732649
      0.11785      5.02722      7.02438        -0.256329      0.637403     -1.171491
      5.70545      0.14321      0.15320         0.362557      0.174205     -2.678928
      5.91220      0.07822      3.22118        -0.453022      2.288214     17.016881
      1.26696      7.66668      6.97451        -0.073125      1.208450     -1.118600
      4.50103      2.59363     10.30233         0.003802     -0.061797      2.600428
      4.47432      2.44208      3.47662        -0.040664      0.654121      2.017749
      4.41102      2.55616      6.80265         0.201816      0.015220      4.306860
      2.78177      4.89924     10.52146         0.337157      0.303210     -0.207096
      2.86654      5.05034      3.47651         0.458916     -0.143963      4.013903
      3.01410      5.37716      6.87491         0.223229     -0.922086      1.312238
     -4.42636      7.77383      1.76674        -1.394948      0.802122     -1.036350
      8.82785      0.23673      5.17952        -0.546345     -0.700502      1.438236
     -4.38288      7.74608      8.68638        -0.783103      0.372421      3.595240
      7.24199      2.46951      1.88084        -0.703518      0.849472     -0.681226
      7.21240      2.68071      4.90833         8.059234     -2.363809     33.122035
      7.15540      2.42958      8.47771         0.308972      0.795812     10.834299
      5.97703      5.22360      1.64063        -0.347634     -0.508349     -0.579240
     -2.99135      5.35083      5.11017        -0.676864     -1.123225      0.830659
      5.99282      5.18341      8.33664         1.425341      2.316499     13.306748
     -1.72091      7.61444      1.71797         0.605235      0.401742     -1.296412
     -1.73039      7.63033      4.97078         0.755731     -0.262375      4.344193
      2.85731      0.03084      8.53662         0.702768     -0.074078      1.623507
      1.54735      2.68154      1.63195        -0.184113     -1.155583      1.255271
      1.45249      2.51371      5.02906         0.019822     -0.478148      1.849469
      1.59753      2.66480      8.38138        -0.498714     -0.762092      1.129554
      0.13157      5.21638      1.56460         2.688861      4.096339     24.136160
      0.06552      5.13425      5.10640         0.056351     -0.450274      3.755029
     -0.20866      4.96721      8.71117         0.625982     -0.252578      0.923254
      1.46358      7.72748      1.80777         0.008342     -1.374022    -14.429298
      5.76013      0.45307      5.11448         0.267811     -1.993415     -0.213414
      5.79381      0.06565      8.68274        -0.091970     -0.491034      1.599054
      4.44197      2.59067      1.84312        -0.174858     -0.260088     -2.848861
      4.18208      2.79917      5.22419         0.324600     -0.670581     -3.234659
      4.25982      2.60395      8.66264         0.422596     -0.238514     -2.111820
      2.89904      5.29354      1.90693        -0.266568     -0.434488     -4.754605
      3.21487      4.92732      5.21840        -1.235683      1.139328     -0.780244
      3.00031      4.97015      8.66533        -0.442052      0.968071      0.700048
    total drift:                                0.002983     -0.003204     -0.010193

  FREE ENERGIE OF THE ION-ELECTRON SYSTEM (eV)
  free  energy   TOTEN  =      -291.5301629358 eV

  energy  without entropy=     -291.4531683007  energy(sigma->0) =     -291.49166562

volume of typ            1:    23.2 %

volume of typ            2:     5.9 %

total charge

# of ion       s       p       d       tot
    1        0.222   0.169   7.940   8.331
    2        0.284   0.275   7.875   8.433
    3        0.276   0.253   7.928   8.457
    4        0.230   0.163   7.934   8.326
    5        0.450   0.558   8.044   9.053
    6        0.323   0.310   7.988   8.621
    7        0.233   0.164   7.950   8.348
    8        0.269   0.262   7.897   8.428
    9        0.350   0.375   7.962   8.688
   10        0.232   0.175   7.929   8.335
   11        0.338   0.373   7.906   8.618
   12        0.259   0.224   7.902   8.385
   13        0.252   0.197   7.919   8.369
   14        0.272   0.266   7.935   8.473
   15        0.297   0.303   7.903   8.503
   16        0.394   0.407   8.056   8.857
   17        0.271   0.246   7.942   8.459
   18        0.253   0.215   7.885   8.353
   19        0.249   0.206   7.950   8.405
   20        0.355   0.389   8.001   8.745
   21        0.253   0.226   7.896   8.374
   22        0.277   0.235   7.912   8.424
   23        0.289   0.296   7.908   8.493
   24        0.283   0.281   7.937   8.500
   25        0.209   0.152   7.908   8.269
   26        0.306   0.316   7.922   8.545
   27        0.261   0.241   7.898   8.400
   28        1.272   2.703   0.005   3.980
   29        1.269   2.715   0.006   3.989
   30        1.273   2.746   0.011   4.030
   31        1.276   2.686   0.004   3.967
   32        1.308   2.857   0.030   4.195
   33        1.289   2.750   0.015   4.054
   34        1.271   2.718   0.007   3.996
   35        1.272   2.712   0.005   3.989
   36        1.292   2.769   0.018   4.078
   37        1.272   2.747   0.010   4.028
   38        1.275   2.742   0.009   4.026
   39        1.280   2.683   0.006   3.969
   40        1.276   2.714   0.008   3.997
   41        1.275   2.766   0.013   4.053
   42        1.280   2.686   0.006   3.972
   43        1.293   2.834   0.026   4.154
   44        1.271   2.737   0.009   4.016
   45        1.276   2.682   0.005   3.963
   46        1.288   2.836   0.026   4.149
   47        1.274   2.675   0.003   3.952
   48        1.277   2.679   0.005   3.962
   49        1.279   2.703   0.007   3.989
   50        1.276   2.754   0.011   4.041
   51        1.275   2.721   0.008   4.004
   52        1.276   2.734   0.009   4.019
   53        1.275   2.721   0.008   4.005
   54        1.275   2.679   0.005   3.959
tot          42.20   81.02  214.50  337.73

magnetization (x)

# of ion       s       p       d       tot
    1       -0.006  -0.002  -0.344  -0.352
    2        0.018  -0.003   0.976   0.991
    3       -0.007  -0.005  -0.575  -0.588
    4       -0.003  -0.003   0.637   0.631
    5        0.014   0.013   0.655   0.682
    6        0.011   0.014   0.928   0.953
    7        0.001   0.002   0.736   0.740
    8        0.015   0.001   0.809   0.825
    9        0.022   0.014   1.000   1.036
   10        0.003  -0.002   0.750   0.751
   11       -0.006   0.003  -0.579  -0.583
   12        0.013   0.003   0.871   0.887
   13        0.007  -0.000   0.903   0.910
   14       -0.002  -0.002  -0.195  -0.199
   15        0.000  -0.001   0.310   0.309
   16       -0.001   0.001  -0.159  -0.158
   17        0.007  -0.000   0.536   0.543
   18       -0.010  -0.001  -0.882  -0.893
   19        0.001  -0.002   0.236   0.235
   20        0.006   0.004   0.313   0.324
   21       -0.003  -0.000   0.039   0.036
   22        0.003  -0.003   0.899   0.898
   23        0.004  -0.001   0.804   0.807
   24        0.006  -0.001   0.551   0.557
   25        0.008  -0.002   0.971   0.977
   26        0.011   0.002   0.470   0.482
   27       -0.004  -0.001  -0.352  -0.357
   28        0.007   0.279   0.000   0.286
   29        0.006   0.246   0.000   0.252
   30       -0.008  -0.281   0.000  -0.289
   31        0.006   0.240   0.000   0.247
   32        0.006   0.267   0.002   0.275
   33        0.011   0.471   0.001   0.483
   34        0.008   0.331   0.000   0.340
   35        0.008   0.287   0.000   0.295
   36        0.010   0.425   0.001   0.436
   37        0.000  -0.000  -0.000  -0.000
   38       -0.005  -0.215  -0.000  -0.220
   39        0.013   0.486   0.000   0.498
   40        0.008   0.335   0.000   0.343
   41       -0.002  -0.092   0.000  -0.093
   42        0.007   0.281  -0.000   0.288
   43       -0.000  -0.019  -0.001  -0.020
   44        0.002   0.096   0.000   0.099
   45       -0.011  -0.409  -0.000  -0.420
   46        0.003   0.133   0.000   0.135
   47       -0.001  -0.024   0.000  -0.025
   48        0.002   0.088  -0.000   0.090
   49        0.011   0.434   0.000   0.445
   50        0.005   0.149   0.000   0.154
   51        0.011   0.383   0.000   0.394
   52        0.007   0.288   0.000   0.296
   53       -0.004  -0.151   0.000  -0.155
   54        0.008   0.290  -0.000   0.298
tot           0.22    4.35   10.31   14.87