 vasp.5.4.4.18Apr17-6-g9f103f2a35 (build May 12 2020 04:58:55) complex

 MD_VERSION_INFO: Compiled 2020-05-12T11:58:55-UTC in devlin.sd.materialsdesign.
 com:/home/medea2/data/build/wwolf/vasp-gpu5.4.4/13047/x86_64/src/src/build/std
 from svn 13047

 executed on                        Lin64 date 2023.03.24  03:09:55

 INCAR:
 POTCAR:    PAW_PBE Ni 02Aug2007
 POTCAR:    PAW_PBE O 08Apr2002

 POTCAR:    PAW_PBE Ni 02Aug2007

 POTCAR:    PAW_PBE O 08Apr2002

 Optimization of the real space projectors (new method)

 maximal supplied QI-value         = 16.25
 optimisation between [QCUT,QGAM] = [ 11.38, 22.75] = [ 36.24,144.96] Ry
 Optimized for a Real-space Cutoff    1.47 Angstroem

   l    n(q)    QCUT    max X(q) W(low)/X(q) W(high)/X(q)  e(spline)
   2      9    11.376    60.317    0.17E-03    0.16E-04    0.16E-06
   2      9    11.376    55.921    0.17E-03    0.16E-04    0.17E-06
   0     10    11.376    51.690    0.45E-04    0.60E-04    0.21E-06
   0     10    11.376    30.015    0.37E-04    0.55E-04    0.19E-06
   1     10    11.376    18.849    0.83E-04    0.11E-03    0.92E-07
   1     10    11.376    14.624    0.69E-04    0.92E-04    0.82E-07
 Optimization of the real space projectors (new method)

 maximal supplied QI-value         = 24.76
 optimisation between [QCUT,QGAM] = [ 11.39, 22.77] = [ 36.31,145.25] Ry
 Optimized for a Real-space Cutoff    1.10 Angstroem

   l    n(q)    QCUT    max X(q) W(low)/X(q) W(high)/X(q)  e(spline)
   0      7    11.387    20.381    0.22E-03    0.48E-03    0.18E-06
   0      7    11.387    15.268    0.22E-03    0.52E-03    0.19E-06
   1      7    11.387     5.964    0.22E-03    0.73E-03    0.24E-06
   1      7    11.387     5.382    0.19E-03    0.60E-03    0.21E-06

  PAW_PBE Ni 02Aug2007                  :
  PAW_PBE O 08Apr2002                   :

 POSCAR: NiO_Cmmm_scale_1_025_disp_0_15_round_1
  positions in direct lattice
 exchange correlation table for  LEXCH =       14
   RHO(1)=    0.500       N(1)  =     2000
   RHO(2)=  100.500       N(2)  =     4000

 ion  position               nearest neighbor table
   1  0.985  0.963  0.010-  28 1.68  30 1.70   7 2.83  10 2.93  25 3.02
   2  0.983  0.966  0.314-  28 1.58  29 1.67  26 2.67  11 2.79   8 2.82
   3  0.008  0.985  0.637-  29 1.79  30 2.29  12 2.78  15 2.85   6 2.99   9 2.99
   4  0.004  0.365  0.001-  33 1.87  31 1.92   7 2.63  16 2.87  13 3.08
   5  0.006  0.336  0.334-  31 1.69  32 1.76  14 2.91   8 2.97  23 3.03  17 3.04
   6  0.982  0.303  0.641-  32 1.52  33 2.05   3 2.99   9 3.04  18 3.04
   7  0.996  0.654  0.996-  34 1.84  36 2.08   4 2.63   1 2.83  16 2.96  25 3.08
   8  0.967  0.646  0.333-  35 1.43  34 1.75  26 2.57   2 2.82  23 2.84   5 2.97  11 2.99
   9  0.968  0.634  0.646-  36 1.65  35 1.89  24 2.98   3 2.99  18 3.01   6 3.04  27 3.05
  10  0.332  0.012  0.002-  37 1.73  39 2.07  22 2.51  19 2.75  13 2.86   1 2.93  16 3.07
  11  0.298  0.978  0.322-  37 1.72  38 1.73   2 2.79   8 2.99  14 3.03  20 3.08
  12  0.334  0.021  0.644-  39 1.76  38 1.83  15 2.54  24 2.64  21 2.64   3 2.78
  13  0.324  0.326  0.022-  40 1.55  42 2.17  22 2.71  25 2.82  10 2.86  16 3.08   4 3.08
  14  0.323  0.325  0.343-  41 1.39  40 1.86  17 2.87   5 2.91  11 3.03
  15  0.326  0.300  0.652-  42 1.82  41 1.90  12 2.54  24 2.79   3 2.85  27 2.94
  16  0.333  0.672  0.019-  43 1.67  45 2.47  19 2.77   4 2.87   7 2.96  25 3.00  10 3.07  13 3.08

  17  0.357  0.660  0.330-  44 1.61  43 1.66  20 2.80  14 2.87  26 2.99   5 3.04
  18  0.310  0.650  0.622-  44 1.53  45 1.80  21 2.92  27 3.00   9 3.01   6 3.04
  19  0.626  0.991  0.994-  46 1.90  48 1.96  10 2.75  16 2.77  22 2.82
  20  0.646  0.988  0.317-  46 1.53  47 1.81  17 2.80  23 2.93  11 3.08
  21  0.612  0.992  0.631-  47 1.54  48 2.03  12 2.64  24 2.70  18 2.92
  22  0.608  0.294  0.008-  49 1.58  51 2.24  10 2.51  13 2.71  19 2.82  25 2.89
  23  0.663  0.322  0.308-  49 1.63  50 1.88   8 2.84  20 2.93  26 2.96   5 3.03
  24  0.637  0.303  0.653-  51 1.61  50 1.80  12 2.64  21 2.70  15 2.79   9 2.98  27 3.07
  25  0.644  0.632  0.021-  52 1.37  54 2.10  13 2.82  22 2.89  16 3.00   1 3.02   7 3.08
  26  0.691  0.664  0.323-  53 1.71  52 1.87   8 2.57   2 2.67  23 2.96  17 2.99
  27  0.634  0.642  0.671-  54 1.61  53 2.04  15 2.94  18 3.00   9 3.05  24 3.07
  28  0.009  0.996  0.166-   2 1.58   1 1.68
  29  0.012  0.003  0.469-   2 1.67   3 1.79
  30  0.977  0.989  0.852-   1 1.70   3 2.29
  31  0.971  0.307  0.177-   5 1.69   4 1.92
  32  0.982  0.331  0.499-   6 1.52   5 1.76
  33  0.951  0.288  0.834-   4 1.87   6 2.05
  34  0.966  0.656  0.168-   8 1.75   7 1.84
  35  0.964  0.651  0.468-   8 1.43   9 1.89
  36  0.972  0.656  0.801-   9 1.65   7 2.08
  37  0.292  0.004  0.162-  11 1.72  10 1.73
  38  0.348  0.970  0.479-  11 1.73  12 1.83
  39  0.354  0.997  0.808-  12 1.76  10 2.07
  40  0.306  0.321  0.168-  13 1.55  14 1.86
  41  0.305  0.307  0.473-  14 1.39  15 1.90
  42  0.306  0.339  0.818-  15 1.82  13 2.17
  43  0.353  0.691  0.176-  17 1.66  16 1.67
  44  0.315  0.652  0.478-  18 1.53  17 1.61
  45  0.353  0.649  0.788-  18 1.80  16 2.47
  46  0.652  0.992  0.173-  20 1.53  19 1.90
  47  0.644  0.003  0.488-  21 1.54  20 1.81
  48  0.685  0.005  0.814-  19 1.96  21 2.03
  49  0.649  0.308  0.155-  22 1.58  23 1.63
  50  0.630  0.315  0.484-  24 1.80  23 1.88
  51  0.671  0.337  0.802-  24 1.61  22 2.24
  52  0.647  0.651  0.149-  25 1.37  26 1.87
  53  0.650  0.671  0.479-  26 1.71  27 2.04
  54  0.632  0.637  0.823-  27 1.61  25 2.10

  LATTYP: Found a hexagonal cell.
 ALAT       =     8.9938830029
 C/A-ratio  =     1.1769065427

  Lattice vectors:

 A1 = (   8.9938830000,   0.0000000000,   0.0000000000)
 A2 = (  -4.4969415000,   7.7889311600,   0.0000000000)
 A3 = (   0.0000000000,   0.0000000000,  10.5849597500)

Analysis of symmetry for initial positions (statically):
 Subroutine PRICEL returns:
 Original cell was already a primitive cell.

 Routine SETGRP: Setting up the symmetry group for a
 hexagonal supercell.

 Subroutine GETGRP returns: Found  1 space group operations
 (whereof  1 operations were pure point group operations)
 out of a pool of 24 trial point group operations.

The static configuration has the point symmetry C_1 .

Analysis of symmetry for dynamics (positions and initial velocities):
 Subroutine PRICEL returns:
 Original cell was already a primitive cell.

[...]

The dynamic configuration has the point symmetry C_1 .

Analysis of structural, dynamic, and magnetic symmetry:
 Subroutine PRICEL returns:
 Original cell was already a primitive cell.

 Routine SETGRP: Setting up the symmetry group for a
 hexagonal supercell.

 Subroutine GETGRP returns: Found  1 space group operations
 (whereof  1 operations were pure point group operations)
 out of a pool of 24 trial point group operations.

The magnetic configuration has the point symmetry C_1 .

 Subroutine INISYM returns: Found  1 space group operations
 (whereof  1 operations are pure point group operations),
 and found     1 'primitive' translations

 KPOINTS: Automatic mesh

Automatic generation of k-mesh.
Space group operators:
 irot       det(A)        alpha          n_x          n_y          n_z        tau_x        tau_y        tau_z
    1     1.000000     0.000000     1.000000     0.000000     0.000000     0.000000     0.000000     0.000000

 Subroutine IBZKPT returns following result:

 Found     26 irreducible k-points:

 Following reciprocal coordinates:
            Coordinates               Weight
  0.000000  0.000000  0.000000      1.000000
  0.250000 -0.000000  0.000000      2.000000
  0.500000 -0.000000  0.000000      1.000000
  0.000000  0.250000  0.000000      2.000000
  0.250000  0.250000  0.000000      2.000000
  0.500000  0.250000  0.000000      2.000000
 -0.250000  0.250000  0.000000      2.000000
  0.000000  0.500000  0.000000      1.000000
  0.250000  0.500000  0.000000      2.000000
  0.500000  0.500000  0.000000      1.000000
  0.000000  0.000000  0.333333      2.000000
  0.250000 -0.000000  0.333333      2.000000
  0.500000 -0.000000  0.333333      2.000000
 -0.250000  0.000000  0.333333      2.000000
  0.000000  0.250000  0.333333      2.000000
  0.250000  0.250000  0.333333      2.000000
  0.500000  0.250000  0.333333      2.000000
 -0.250000  0.250000  0.333333      2.000000
  0.000000  0.500000  0.333333      2.000000
  0.250000  0.500000  0.333333      2.000000
  0.500000  0.500000  0.333333      2.000000
 -0.250000  0.500000  0.333333      2.000000
  0.000000 -0.250000  0.333333      2.000000
  0.250000 -0.250000  0.333333      2.000000
  0.500000 -0.250000  0.333333      2.000000
 -0.250000 -0.250000  0.333333      2.000000

 Following cartesian coordinates:
            Coordinates               Weight
  0.000000  0.000000  0.000000      1.000000
  0.027797  0.016048  0.000000      2.000000
  0.055593  0.032097  0.000000      1.000000
  0.000000  0.032097  0.000000      2.000000
  0.027797  0.048145  0.000000      2.000000
  0.055593  0.064194  0.000000      2.000000
 -0.027797  0.016048  0.000000      2.000000
  0.000000  0.064194  0.000000      1.000000
  0.027797  0.080242  0.000000      2.000000
  0.055593  0.096290  0.000000      1.000000
  0.000000  0.000000  0.031491      2.000000
  0.027797  0.016048  0.031491      2.000000
  0.055593  0.032097  0.031491      2.000000
 -0.027797 -0.016048  0.031491      2.000000
  0.000000  0.032097  0.031491      2.000000
  0.027797  0.048145  0.031491      2.000000
  0.055593  0.064194  0.031491      2.000000
 -0.027797  0.016048  0.031491      2.000000
  0.000000  0.064194  0.031491      2.000000
  0.027797  0.080242  0.031491      2.000000
  0.055593  0.096290  0.031491      2.000000
 -0.027797  0.048145  0.031491      2.000000
  0.000000 -0.032097  0.031491      2.000000
  0.027797 -0.016048  0.031491      2.000000
  0.055593  0.000000  0.031491      2.000000
 -0.027797 -0.048145  0.031491      2.000000

 SYSTEM =  unknown system
 POSCAR =  NiO_Cmmm_scale_1_025_disp_0_15_round_1

 Startparameter for this run:
   NWRITE =      1    write-flag & timer
   PREC   = accura    normal or accurate (medium, high low for compatibility)
   ISTART =      0    job   : 0-new  1-cont  2-samecut
   ICHARG =      2    charge: 1-file 2-atom 10-const
   ISPIN  =      2    spin polarized calculation?
   LNONCOLLINEAR =      F non collinear calculations
   LSORBIT =      F    spin-orbit coupling
   INIWAV =      1    electr: 0-lowe 1-rand  2-diag
   LASPH  =      F    aspherical Exc in radial PAW
   METAGGA=      F    non-selfconsistent MetaGGA calc.

 Electronic Relaxation 1
   ENCUT  =  500.0 eV  36.75 Ry    6.06 a.u.  16.40 16.40 19.30*2*pi/ulx,y,z
   ENINI  =  500.0     initial cutoff
   ENAUG  =  605.4 eV  augmentation charge cutoff
   NELM   =     80;   NELMIN=  2; NELMDL= -5     # of ELM steps
   EDIFF  = 0.1E-04   stopping-criterion for ELM
   LREAL  =      T    real-space projection
   NLSPLINE    = F    spline interpolate recip. space projectors
   LCOMPAT=      F    compatible to vasp.4.4
   GGA_COMPAT  = T    GGA compatible to vasp.4.4-vasp.4.6
   LMAXPAW     = -100 max onsite density
   LMAXMIX     =    2 max onsite mixed and CHGCAR
   VOSKOWN=      1    Vosko Wilk Nusair interpolation
[...]
   0.886E+02 0.653E+02 -.250E+03   -.874E+02 -.640E+02 0.247E+03   -.114E+01 -.915E+00 0.417E+01   0.280E-01 0.561E-01 -.264E+00
   -.394E+02 -.140E+02 0.105E+03   0.387E+02 0.128E+02 -.107E+03   0.309E+00 -.350E+00 0.172E+01   -.100E-01 0.728E-01 0.240E-01
   -.245E+02 -.772E+01 0.981E+01   0.235E+02 0.765E+01 -.117E+02   0.139E+00 -.160E+00 0.250E+01   -.294E-01 0.217E-01 0.219E+00
   -.556E+02 0.400E+02 -.304E+03   0.554E+02 -.405E+02 0.311E+03   0.854E-01 -.394E+00 0.139E+01   -.765E-01 0.106E+00 -.214E+00
   -.606E+02 0.626E+01 0.202E+03   0.604E+02 -.682E+01 -.200E+03   -.827E+00 0.627E+00 -.226E+01   0.326E+00 0.868E-02 0.591E-01
   -.128E+03 0.474E+02 0.124E+03   0.128E+03 -.481E+02 -.141E+03   -.737E+00 0.561E+00 0.136E+01   -.134E+00 0.599E-01 0.155E+00
   -.378E+02 -.192E+02 -.649E+02   0.371E+02 0.203E+02 0.667E+02   0.356E-01 -.387E+00 -.355E+01   0.242E+00 -.859E-01 -.244E+00
   0.230E+02 0.108E+03 0.244E+03   -.222E+02 -.108E+03 -.243E+03   -.712E+00 -.558E+00 -.188E+01   0.912E-01 -.424E-01 0.629E-01
   -.139E+02 0.334E+02 0.112E+01   0.148E+02 -.326E+02 -.215E+00   -.467E+00 -.330E+00 -.873E+00   -.204E-01 -.526E-01 0.178E-01
   0.126E+03 0.102E+03 -.125E+03   -.126E+03 -.102E+03 0.126E+03   0.660E+00 -.567E+00 -.584E+00   0.147E+00 -.821E-01 -.793E-01
   0.100E+03 -.132E+02 0.318E+03   -.993E+02 0.138E+02 -.322E+03   -.476E+00 0.230E-01 -.324E+01   -.105E+00 -.248E+00 0.109E+00
   -.260E+02 -.525E+02 0.185E+03   0.268E+02 0.543E+02 -.205E+03   -.553E+00 -.234E+00 -.272E+00   0.583E-01 0.667E-01 0.879E-01
   0.658E+02 -.356E+02 -.118E+03   -.665E+02 0.351E+02 0.123E+03   -.143E+00 0.852E+00 -.354E+01   -.642E-01 -.905E-01 -.244E+00
   0.596E+02 0.444E+02 0.318E+03   -.599E+02 -.441E+02 -.315E+03   0.675E+00 -.418E+00 -.491E+01   -.296E+00 0.988E-01 0.480E-01
   -.115E+02 0.458E+02 0.505E+02   0.114E+02 -.459E+02 -.526E+02   -.109E+00 0.336E+00 0.300E+00   0.675E-01 0.575E-01 0.249E+00
   0.707E+02 0.292E+02 -.271E+03   -.700E+02 -.292E+02 0.283E+03   0.178E+00 -.482E-01 -.264E+01   -.151E+00 0.350E-01 -.254E+00
   -.838E+02 0.182E+02 0.143E+03   0.835E+02 -.183E+02 -.145E+03   0.109E+01 0.252E-01 0.185E+01   -.234E+00 0.153E+00 0.874E-01
   -.705E+02 -.196E+02 -.887E+02   0.696E+02 0.199E+02 0.947E+02   0.635E+00 0.174E+00 0.114E+01   0.336E-01 -.913E-01 0.119E+00
   -.114E+03 0.831E+02 -.282E+03   0.115E+03 -.823E+02 0.288E+03   -.805E+00 -.649E+00 0.183E+01   -.956E-01 0.595E-01 -.187E+00
   -.569E+02 -.530E+02 0.298E+03   0.560E+02 0.525E+02 -.300E+03   0.527E+00 0.907E+00 -.249E+01   0.110E+00 -.326E+00 0.108E+00
   -.311E+02 0.428E+00 -.780E+02   0.302E+02 -.584E+00 0.829E+02   0.278E+00 0.821E-01 -.137E+01   -.269E-01 0.513E-01 0.175E+00
   -.481E+02 -.652E+02 -.397E+02   0.471E+02 0.653E+02 0.373E+02   0.367E+00 0.325E+00 -.385E+00   0.167E+00 -.157E+00 -.284E+00
   -.156E+02 -.328E+02 0.401E+03   0.161E+02 0.304E+02 -.424E+03   -.143E+00 0.417E+00 -.177E+00   0.155E-01 -.892E-01 0.827E-01
   0.329E+02 0.134E+02 0.112E+02   -.337E+02 -.133E+02 -.953E+01   -.108E+00 -.187E+00 -.371E+01   0.152E-01 0.849E-01 0.718E+00
   -.276E+02 -.882E+02 0.395E+02   0.283E+02 0.882E+02 -.386E+02   -.592E+00 0.332E+00 -.393E+01   -.698E-01 0.682E-01 -.107E+01
   0.483E+02 -.791E+02 0.109E+03   -.456E+02 0.859E+02 -.115E+03   -.331E+01 -.744E+01 0.251E+01   0.453E-01 0.250E-01 0.301E+00
   0.471E+02 -.259E+02 -.115E+03   -.468E+02 0.310E+02 0.119E+03   -.587E+00 -.563E+01 -.222E+01   -.622E-01 -.862E-01 -.265E+00
   0.291E+02 -.186E+02 0.145E+03   -.328E+02 0.213E+02 -.158E+03   0.415E+01 -.349E+01 0.125E+02   0.671E-01 0.144E+00 -.275E-01
   0.342E+01 0.408E+02 0.135E+03   -.577E+01 -.466E+02 -.143E+03   0.294E+01 0.707E+01 0.607E+01   -.216E-01 -.118E-01 -.198E-01
   0.318E+02 -.998E+01 0.311E+02   -.358E+02 0.131E+02 -.451E+02   0.450E+01 -.239E+01 0.692E+01   -.331E-01 0.264E-01 0.141E+00
   -.247E+02 0.153E+02 0.139E+02   0.230E+02 -.206E+02 -.167E+02   0.248E+01 0.672E+01 0.317E+01   -.179E-01 0.424E-01 -.899E-01
   -.397E+02 0.209E+02 0.108E+03   0.372E+02 -.197E+02 -.111E+03   0.355E+01 -.171E+01 0.214E+01   0.844E-01 0.256E-01 0.183E+00
   -.571E+01 -.149E+02 -.241E+03   0.356E+01 0.168E+02 0.269E+03   0.264E+01 -.208E+01 -.126E+02   -.456E-01 -.188E-01 -.947E-01
   -.229E+02 -.426E+02 -.131E+03   0.203E+02 0.445E+02 0.144E+03   0.309E+01 -.199E+01 -.101E+02   0.233E+00 -.211E-01 -.835E-01
   0.488E+01 0.237E+02 0.522E+02   -.104E+02 -.232E+02 -.517E+02   0.621E+01 -.873E+00 -.598E+00   0.261E-01 -.136E-01 -.409E-01
   -.912E+01 0.531E+02 -.519E+02   0.174E+02 -.571E+02 0.543E+02   -.101E+02 0.444E+01 -.195E+01   0.491E-01 -.426E-01 0.162E-01
   0.103E+02 0.858E+02 -.109E+03   -.649E+01 -.895E+02 0.116E+03   -.482E+01 0.405E+01 -.650E+01   0.427E-01 -.353E-01 0.169E-01
   0.653E+02 -.153E+02 -.476E+02   -.695E+02 0.139E+02 0.620E+02   0.432E+01 0.173E+01 -.799E+01   -.205E-01 -.788E-01 0.545E-01
   0.342E+02 0.406E+01 -.226E+03   -.376E+02 -.842E+01 0.260E+03   0.317E+01 0.263E+01 -.139E+02   0.782E-02 0.629E-01 -.292E-01
   0.748E+02 -.561E+01 -.915E+02   -.795E+02 0.912E+01 0.977E+02   0.577E+01 -.411E+01 -.631E+01   -.129E+00 -.138E+00 0.470E-02
   0.527E+02 -.684E+01 0.672E+02   -.537E+02 0.117E+02 -.671E+02   0.121E+01 -.533E+01 -.507E+00   -.888E-01 0.405E-01 0.365E-01
   0.448E+02 0.213E+02 -.156E+02   -.481E+02 -.213E+02 0.969E+01   0.327E+01 -.308E+00 0.227E+01   0.395E-01 0.191E-01 0.538E-01
   0.326E+02 -.286E+01 -.161E+03   -.286E+02 0.223E+01 0.173E+03   -.497E+01 0.746E+00 -.133E+02   -.291E+00 0.447E-01 -.124E+00
   -.585E+02 -.193E+02 0.183E+03   0.610E+02 0.203E+02 -.201E+03   -.272E+01 -.112E+01 0.976E+01   -.636E-01 0.385E-01 0.748E-01
   -.110E+03 -.132E+02 0.460E+02   0.113E+03 0.154E+02 -.596E+02   -.193E+01 -.243E+01 0.671E+01   0.115E-01 -.499E-01 -.133E-01
   -.807E+02 0.296E+02 -.101E+02   0.880E+02 -.287E+02 0.952E+01   -.891E+01 -.147E+01 0.112E+01   -.138E+00 0.139E+00 -.415E-01
   -.636E+02 -.121E+02 0.313E+02   0.686E+02 0.129E+02 -.283E+02   -.457E+01 -.468E+00 -.135E+01   0.259E-01 -.102E+00 0.464E-01
   0.723E+01 -.406E+02 -.162E+01   -.100E+02 0.414E+02 -.104E+01   0.354E+01 -.876E+00 0.206E+01   0.232E-01 0.473E-01 -.437E-01
   -.464E+02 -.598E+02 -.189E+03   0.502E+02 0.653E+02 0.207E+03   -.426E+01 -.573E+01 -.146E+02   0.130E+00 -.188E+00 -.623E-01
   0.423E+02 -.439E+02 -.121E+03   -.469E+02 0.488E+02 0.157E+03   0.474E+01 -.276E+01 -.145E+02   0.239E-01 0.689E-01 0.809E+00
   0.289E+02 -.293E+02 -.156E+03   -.334E+02 0.309E+02 0.165E+03   0.485E+01 -.212E+01 -.648E+01   -.310E-01 0.491E-01 -.406E+00
   -.921E+01 -.456E+02 -.130E+03   0.849E+01 0.454E+02 0.145E+03   0.121E+01 -.189E-01 -.108E+02   -.203E-01 -.232E-01 0.142E-01
   -.137E+02 0.243E+02 0.858E+02   0.533E-14 -.298E-12 -.966E-12   0.137E+02 -.241E+02 -.860E+02   -.288E-01 -.240E+00 0.183E+00

 POSITION                                       TOTAL-FORCE (eV/Angst)
      4.52634      7.49775      0.10707         0.259900      0.438626     -1.462875
      4.49258      7.52499      3.32309         0.263605      0.017740      3.034823
     -4.35350      7.66952      6.74578         0.063691      0.454291      0.351542
     -1.60713      2.84618      0.01032        -0.388452     -1.409776     -0.319661
     -1.46301      2.62036      3.53816        -0.928698     -0.209883      0.849982
      7.46711      2.35949      6.78849        -0.144660     -0.734649      8.379479
      6.01956      5.09496     10.54501        -0.703567      0.077961     -0.171224
      5.79184      5.02799      3.52971        -0.542233     -0.022084    -15.127647
      5.85665      4.94024      6.84070        -0.442388      0.572426     -1.969847
      2.93032      0.09443      0.01613         0.218360     -0.105415     -1.460334
     -1.71444      7.61922      3.41080         0.380903      0.444079      0.047012
      2.90703      0.16706      6.82127         0.836210     -0.546072      0.243511
      1.45183      2.53540      0.23065         0.266338      0.367618     -6.846067
      1.44382      2.53505      3.63288         0.270764      1.712369    -20.537378
      1.58212      2.33697      6.89647        -0.906666      0.317532      0.553725
     -0.02920      5.23344      0.20540         0.003075     -0.027898     -1.857043
      0.24019      5.14080      3.49359        -0.210690      0.218963     -1.621900
     -0.13813      5.06107      6.58877         0.710562     -0.050004      8.607474
      1.17895      7.71636     10.52504         0.525783      0.090297     -0.607405
      1.36724      7.69484      3.35599        -0.185072      0.347358      7.286709
      1.04036      7.72990      6.68400         0.163568      0.178477      7.576550
      4.14199      2.29075      0.08754        -0.277314      0.062669     -4.543387
      4.51608      2.50726      3.26221        -0.648722     -0.022308      3.706893
      4.36893      2.35933      6.91453        -0.534678      0.177986     -3.146134
      2.95468      4.91970      0.21855         0.377805     -2.123256    -23.104050
      3.23069      5.17168      3.41469        -0.933442      0.072599     -1.284842
      2.81432      4.99841      7.10047         0.074126      0.412205     -4.075394
     -4.39762      7.75460      1.76193        -0.624358     -0.530978     -3.111506
      0.09339      0.02390      4.96625        -0.350602     -0.630671      2.215440
      4.34214      7.70128      9.01751         0.544510     -0.567868     -0.640254
      7.35316      2.38747      1.87770         0.567254      1.307276     -2.108289
      7.34415      2.57819      5.28493         0.435988      0.772778     -6.859181
      7.25476      2.24439      8.82749         0.744862      1.479796      0.254339
      5.73906      5.10965      1.78319         1.139686     -0.431255     -0.867062
      5.74107      5.07387      4.95866         0.442173     -0.196411     15.593012
      5.79637      5.10790      8.48192         0.713766     -0.102939      2.384713
      2.60795      0.03011      1.71260         0.745476     -0.431939     -0.115817
     -1.23586      7.55555      5.07273        -1.757918      0.453856      0.546645
     -1.29667      7.76231      8.54899        -0.990634      0.328452      0.782484
      1.31122      2.50196      1.77393         0.126481      0.259566      6.520324
      1.36666      2.39004      5.00887        -0.218165     -1.668564     19.911388
      1.22951      2.64033      8.66109         0.999452     -0.736439     -0.058038
      0.06418      5.38185      1.86202         0.096614     -0.439843     -0.447600
     -0.09852      5.07960      5.06247         0.018601     -0.274082     -3.543044
      0.25378      5.05794      8.34503        -1.224356      0.159643     -1.299993
      1.40390      7.72870      1.82834        -0.259992     -0.032259     -7.448117
      5.77454      0.02438      5.16336         1.104118     -0.277944     -6.982589
      6.13685      0.03562      8.61869        -1.692892     -0.461634      0.535618
      4.45252      2.39574      1.63732         0.497664      0.221679      1.692690
      4.24899      2.45737      5.12161         0.774603     -0.003731     -0.641844
      4.51445      2.62841      8.49276        -0.342278     -0.424088      3.021227
      2.89507      5.07153      1.57968         0.115509      2.212428     21.974921
      2.82314      5.22826      5.07019         0.355833     -0.496953      2.365463
      2.82045      4.96316      8.71212         0.470499     -0.199725      3.822556
    total drift:                               -0.001547      0.002552      0.024562

  FREE ENERGIE OF THE ION-ELECTRON SYSTEM (eV)
  free  energy   TOTEN  =      -294.0502624087 eV

  energy  without entropy=     -293.9825224871  energy(sigma->0) =     -294.01639245

volume of typ            1:    23.2 %

volume of typ            2:     5.9 %

total charge

# of ion       s       p       d       tot
    1        0.299   0.303   7.904   8.506
    2        0.326   0.373   7.933   8.632
    3        0.210   0.142   7.943   8.295
    4        0.230   0.175   7.877   8.282
    5        0.273   0.268   7.937   8.478
    6        0.302   0.282   7.948   8.531
    7        0.215   0.153   7.937   8.305
    8        0.385   0.460   7.960   8.806
    9        0.270   0.245   7.907   8.422
   10        0.249   0.201   7.916   8.366
   11        0.266   0.266   7.929   8.460
   12        0.276   0.250   7.876   8.402
   13        0.298   0.266   7.938   8.502
   14        0.391   0.438   8.003   8.832
   15        0.241   0.199   7.906   8.347
   16        0.243   0.178   7.956   8.377
   17        0.317   0.352   7.945   8.614
   18        0.332   0.348   7.929   8.610
   19        0.213   0.154   7.922   8.290
   20        0.323   0.339   7.936   8.598
   21        0.302   0.293   7.923   8.518
   22        0.277   0.243   7.968   8.488
   23        0.265   0.258   7.941   8.464
   24        0.312   0.322   7.875   8.509
   25        0.380   0.400   8.053   8.833
   26        0.258   0.246   7.919   8.422
   27        0.268   0.234   7.934   8.437
   28        1.276   2.792   0.015   4.083
   29        1.270   2.746   0.009   4.024
   30        1.283   2.665   0.005   3.953
   31        1.271   2.722   0.007   3.999
   32        1.273   2.794   0.016   4.083
   33        1.282   2.645   0.003   3.930
   34        1.268   2.723   0.006   3.997
   35        1.281   2.822   0.019   4.122
   36        1.277   2.696   0.007   3.980
   37        1.271   2.742   0.009   4.022
   38        1.271   2.731   0.007   4.010
   39        1.278   2.668   0.005   3.951
   40        1.274   2.769   0.012   4.056
   41        1.290   2.827   0.023   4.141
   42        1.283   2.641   0.003   3.927
   43        1.272   2.770   0.012   4.054
   44        1.278   2.828   0.020   4.126
   45        1.290   2.629   0.003   3.922
   46        1.277   2.764   0.013   4.055
   47        1.276   2.777   0.013   4.066
   48        1.285   2.628   0.003   3.916
   49        1.276   2.790   0.017   4.083
   50        1.267   2.713   0.005   3.984
   51        1.285   2.698   0.008   3.991
   52        1.292   2.840   0.026   4.158
   53        1.272   2.693   0.006   3.971
   54        1.282   2.707   0.008   3.997
tot          42.22   81.21  214.50  337.93

magnetization (x)

# of ion       s       p       d       tot
    1        0.005  -0.002   0.570   0.573
    2       -0.007   0.001  -0.220  -0.226
    3        0.002  -0.001   0.964   0.965
    4       -0.008   0.002  -1.028  -1.034
    5       -0.009   0.000  -0.228  -0.237
    6        0.014   0.006   0.814   0.835
    7        0.002  -0.001  -0.179  -0.178
    8       -0.009   0.001  -0.611  -0.619
    9        0.016   0.000   0.953   0.969
   10        0.005  -0.001   0.771   0.774
   11        0.011   0.004   0.523   0.539
   12        0.010  -0.004   1.017   1.023
   13        0.013   0.001   0.884   0.897
   14       -0.014  -0.011  -0.653  -0.678
   15        0.003  -0.004   0.801   0.800
   16        0.003   0.002   0.662   0.667
   17       -0.002   0.001  -0.234  -0.235
   18        0.009  -0.007   0.157   0.159
   19        0.006  -0.002   0.596   0.600
   20       -0.011  -0.002  -0.648  -0.661
   21        0.019   0.001   0.990   1.011
   22        0.002   0.003   0.575   0.579
   23        0.003   0.004   0.334   0.341
   24        0.022  -0.004   1.035   1.053
   25        0.003   0.004   0.134   0.140
   26        0.003   0.001   0.336   0.340
   27        0.010  -0.001   0.112   0.121
   28       -0.001  -0.069   0.000  -0.069
   29        0.005   0.187  -0.000   0.191
   30        0.011   0.445  -0.000   0.456
   31       -0.008  -0.266   0.000  -0.274
   32        0.007   0.268   0.000   0.275
   33       -0.009  -0.309   0.000  -0.317
   34       -0.007  -0.203  -0.000  -0.210
   35       -0.003  -0.158  -0.001  -0.162
   36        0.010   0.437   0.000   0.448
   37        0.007   0.254   0.000   0.261
   38        0.007   0.195   0.000   0.202
   39        0.012   0.465   0.000   0.477
   40        0.006   0.244   0.001   0.250
   41       -0.005  -0.256  -0.001  -0.262
   42        0.013   0.515   0.000   0.529
   43        0.004   0.144  -0.000   0.148
   44       -0.002  -0.091   0.001  -0.093
   45        0.009   0.348  -0.000   0.356
   46       -0.006  -0.259  -0.000  -0.265
   47        0.006   0.249   0.001   0.255
   48        0.012   0.491  -0.000   0.503
   49        0.005   0.214  -0.000   0.219
   50        0.004   0.155   0.000   0.159
   51        0.011   0.478   0.000   0.489
   52        0.002   0.084  -0.000   0.086
   53        0.004   0.141   0.000   0.145
   54       -0.001  -0.024   0.000  -0.024
tot           0.19    3.67    8.43   12.29