 vasp.5.4.4.18Apr17-6-g9f103f2a35 (build May 12 2020 04:58:55) complex

 MD_VERSION_INFO: Compiled 2020-05-12T11:58:55-UTC in devlin.sd.materialsdesign.
 com:/home/medea2/data/build/wwolf/vasp-gpu5.4.4/13047/x86_64/src/src/build/std
 from svn 13047

 executed on                        Lin64 date 2023.03.24  04:07:08

 INCAR:
 POTCAR:    PAW_PBE Ni 02Aug2007
 POTCAR:    PAW_PBE O 08Apr2002

 POTCAR:    PAW_PBE Ni 02Aug2007

 POTCAR:    PAW_PBE O 08Apr2002

 Optimization of the real space projectors (new method)

 maximal supplied QI-value         = 16.25
 optimisation between [QCUT,QGAM] = [ 11.38, 22.75] = [ 36.24,144.96] Ry
 Optimized for a Real-space Cutoff    1.47 Angstroem

   l    n(q)    QCUT    max X(q) W(low)/X(q) W(high)/X(q)  e(spline)
   2      9    11.376    60.317    0.17E-03    0.16E-04    0.16E-06
   2      9    11.376    55.921    0.17E-03    0.16E-04    0.17E-06
   0     10    11.376    51.690    0.45E-04    0.60E-04    0.21E-06
   0     10    11.376    30.015    0.37E-04    0.55E-04    0.19E-06
   1     10    11.376    18.849    0.83E-04    0.11E-03    0.92E-07
   1     10    11.376    14.624    0.69E-04    0.92E-04    0.82E-07
 Optimization of the real space projectors (new method)

 maximal supplied QI-value         = 24.76
 optimisation between [QCUT,QGAM] = [ 11.39, 22.77] = [ 36.31,145.25] Ry
 Optimized for a Real-space Cutoff    1.10 Angstroem

   l    n(q)    QCUT    max X(q) W(low)/X(q) W(high)/X(q)  e(spline)
   0      7    11.387    20.381    0.22E-03    0.48E-03    0.18E-06
   0      7    11.387    15.268    0.22E-03    0.52E-03    0.19E-06
   1      7    11.387     5.964    0.22E-03    0.73E-03    0.24E-06
   1      7    11.387     5.382    0.19E-03    0.60E-03    0.21E-06

  PAW_PBE Ni 02Aug2007                  :
  PAW_PBE O 08Apr2002                   :

 POSCAR: NiO_Cmmm_scale_1_000_disp_0_20_round_2
  positions in direct lattice
 exchange correlation table for  LEXCH =       14
   RHO(1)=    0.500       N(1)  =     2000
   RHO(2)=  100.500       N(2)  =     4000

 ion  position               nearest neighbor table
   1  0.016  0.001  0.985-  30 1.38  28 1.67   7 2.66  10 2.76   4 3.06  25 3.07
   2  0.977  0.970  0.308-  28 1.73  29 2.17  26 2.60   8 2.76   5 2.91  14 3.06  11 3.08
   3  0.008  0.002  0.646-  29 1.41  30 2.17  15 2.71   6 2.92  21 2.92   9 2.97  27 3.01  12 3.06

   4  0.946  0.309  0.996-  33 1.97  31 2.03  22 2.19  19 2.88   1 3.06
   5  0.993  0.308  0.331-  32 1.53  31 1.57  23 2.85  14 2.86   2 2.91  20 2.91  17 3.02
   6  0.038  0.345  0.681-  33 1.46  32 2.11  18 2.35  15 2.52  21 2.84   3 2.92   9 2.97
   7  0.945  0.671  0.012-  34 1.86  36 1.90   1 2.66  25 2.69  22 2.73  10 2.89
   8  0.015  0.678  0.332-  34 1.52  35 1.72  17 2.50  11 2.70   2 2.76  26 3.01
   9  0.983  0.652  0.664-  35 1.75  36 1.79  27 2.81  18 2.85   6 2.97   3 2.97  24 2.98
  10  0.304  0.957  0.012-  39 1.63  37 1.86  19 2.53  16 2.72   1 2.76   7 2.89
  11  0.328  0.979  0.347-  37 1.65  38 1.83  20 2.54  17 2.54   8 2.70  23 2.73  14 3.01   2 3.08

  12  0.391  0.084  0.646-  38 1.47  24 2.12  39 2.27  15 2.52  21 2.90   3 3.06
  13  0.349  0.375  0.003-  40 1.72  42 1.94  16 2.60  25 2.63
  14  0.324  0.318  0.330-  40 1.70  41 2.18   5 2.86  11 3.01   2 3.06
  15  0.302  0.307  0.708-  42 1.19  41 1.84   6 2.52  12 2.52   3 2.71  18 2.85  24 3.04
  16  0.345  0.669  0.001-  43 1.76  45 2.00  25 2.57  13 2.60  19 2.61  10 2.72
  17  0.300  0.679  0.312-  43 1.60  44 2.40   8 2.50  11 2.54  20 2.96   5 3.02
  18  0.294  0.625  0.671-  45 1.44  44 1.53   6 2.35  15 2.85   9 2.85
  19  0.608  0.991  0.007-  48 1.50  46 1.98  10 2.53  22 2.57  16 2.61   4 2.88  25 2.90
  20  0.634  0.015  0.344-  47 1.41  46 1.51  23 2.20  11 2.54   5 2.91  17 2.96
  21  0.698  0.043  0.660-  47 1.90  48 2.29  24 2.66   6 2.84  12 2.90   3 2.92
  22  0.703  0.320  0.002-  49 1.49  51 1.89   4 2.19  19 2.57   7 2.73
  23  0.652  0.274  0.346-  50 1.87  20 2.20  49 2.29  11 2.73   5 2.85
  24  0.643  0.314  0.644-  50 1.43  51 1.93  12 2.12  21 2.66  27 2.94   9 2.98  15 3.04
  25  0.643  0.680  0.000-  54 1.64  52 1.86  16 2.57  13 2.63   7 2.69  19 2.90   1 3.07
  26  0.674  0.683  0.333-  52 1.59  53 1.90   2 2.60   8 3.01
  27  0.666  0.659  0.670-  53 1.60  54 1.79   9 2.81  24 2.94   3 3.01
  28  0.031  0.018  0.146-   1 1.67   2 1.73
  29  0.036  0.991  0.513-   3 1.41   2 2.17
  30  0.983  0.012  0.855-   1 1.38   3 2.17
  31  0.031  0.347  0.182-   5 1.57   4 2.03
  32  0.031  0.338  0.476-   5 1.53   6 2.11
  33  0.038  0.319  0.820-   6 1.46   4 1.97
  34  1.000  0.667  0.185-   8 1.52   7 1.86
  35  0.013  0.694  0.498-   8 1.72   9 1.75
  36  0.011  0.680  0.836-   9 1.79   7 1.90
  37  0.309  0.996  0.190-  11 1.65  10 1.86
  38  0.321  0.987  0.524-  12 1.47  11 1.83
  39  0.339  0.012  0.859-  10 1.63  12 2.27
  40  0.315  0.330  0.166-  14 1.70  13 1.72
  41  0.368  0.358  0.537-  15 1.84  14 2.18
  42  0.349  0.345  0.817-  15 1.19  13 1.94
  43  0.351  0.646  0.170-  17 1.60  16 1.76
  44  0.357  0.632  0.532-  18 1.53  17 2.40
  45  0.326  0.642  0.809-  18 1.44  16 2.00
  46  0.622  0.003  0.198-  20 1.51  19 1.98
  47  0.657  0.009  0.479-  20 1.41  21 1.90
  48  0.626  0.947  0.870-  19 1.50  21 2.29
  49  0.682  0.369  0.136-  22 1.49  23 2.29
  50  0.667  0.368  0.511-  24 1.43  23 1.87
  51  0.719  0.361  0.822-  22 1.89  24 1.93
  52  0.657  0.670  0.180-  26 1.59  25 1.86
  53  0.666  0.652  0.515-  27 1.60  26 1.90
  54  0.659  0.662  0.844-  25 1.64  27 1.79

  LATTYP: Found a hexagonal cell.
 ALAT       =     8.7745200035
 C/A-ratio  =     1.1769065426

  Lattice vectors:

 A1 = (   8.7745200000,   0.0000000000,   0.0000000000)
 A2 = (  -4.3872600000,   7.5989572300,   0.0000000000)
 A3 = (   0.0000000000,   0.0000000000,  10.3267900000)

Analysis of symmetry for initial positions (statically):
 Subroutine PRICEL returns:
 Original cell was already a primitive cell.

 Routine SETGRP: Setting up the symmetry group for a
 hexagonal supercell.

 Subroutine GETGRP returns: Found  1 space group operations
 (whereof  1 operations were pure point group operations)
 out of a pool of 24 trial point group operations.

The static configuration has the point symmetry C_1 .

Analysis of symmetry for dynamics (positions and initial velocities):
 Subroutine PRICEL returns:
 Original cell was already a primitive cell.

[...]

The dynamic configuration has the point symmetry C_1 .

Analysis of structural, dynamic, and magnetic symmetry:
 Subroutine PRICEL returns:
 Original cell was already a primitive cell.

 Routine SETGRP: Setting up the symmetry group for a
 hexagonal supercell.

 Subroutine GETGRP returns: Found  1 space group operations
 (whereof  1 operations were pure point group operations)
 out of a pool of 24 trial point group operations.

The magnetic configuration has the point symmetry C_1 .

 Subroutine INISYM returns: Found  1 space group operations
 (whereof  1 operations are pure point group operations),
 and found     1 'primitive' translations

 KPOINTS: Automatic mesh

Automatic generation of k-mesh.
Space group operators:
 irot       det(A)        alpha          n_x          n_y          n_z        tau_x        tau_y        tau_z
    1     1.000000     0.000000     1.000000     0.000000     0.000000     0.000000     0.000000     0.000000

 Subroutine IBZKPT returns following result:

 Found     26 irreducible k-points:

 Following reciprocal coordinates:
            Coordinates               Weight
  0.000000  0.000000  0.000000      1.000000
  0.250000  0.000000  0.000000      2.000000
  0.500000  0.000000  0.000000      1.000000
  0.000000  0.250000  0.000000      2.000000
  0.250000  0.250000  0.000000      2.000000
  0.500000  0.250000  0.000000      2.000000
 -0.250000  0.250000  0.000000      2.000000
  0.000000  0.500000  0.000000      1.000000
  0.250000  0.500000  0.000000      2.000000
  0.500000  0.500000  0.000000      1.000000
  0.000000  0.000000  0.333333      2.000000
  0.250000  0.000000  0.333333      2.000000
  0.500000  0.000000  0.333333      2.000000
 -0.250000 -0.000000  0.333333      2.000000
  0.000000  0.250000  0.333333      2.000000
  0.250000  0.250000  0.333333      2.000000
  0.500000  0.250000  0.333333      2.000000
 -0.250000  0.250000  0.333333      2.000000
  0.000000  0.500000  0.333333      2.000000
  0.250000  0.500000  0.333333      2.000000
  0.500000  0.500000  0.333333      2.000000
 -0.250000  0.500000  0.333333      2.000000
  0.000000 -0.250000  0.333333      2.000000
  0.250000 -0.250000  0.333333      2.000000
  0.500000 -0.250000  0.333333      2.000000
 -0.250000 -0.250000  0.333333      2.000000

 Following cartesian coordinates:
            Coordinates               Weight
  0.000000  0.000000  0.000000      1.000000
  0.028492  0.016450  0.000000      2.000000
  0.056983  0.032899  0.000000      1.000000
  0.000000  0.032899  0.000000      2.000000
  0.028492  0.049349  0.000000      2.000000
  0.056983  0.065799  0.000000      2.000000
 -0.028492  0.016450  0.000000      2.000000
  0.000000  0.065799  0.000000      1.000000
  0.028492  0.082248  0.000000      2.000000
  0.056983  0.098698  0.000000      1.000000
  0.000000  0.000000  0.032279      2.000000
  0.028492  0.016450  0.032279      2.000000
  0.056983  0.032899  0.032279      2.000000
 -0.028492 -0.016450  0.032279      2.000000
  0.000000  0.032899  0.032279      2.000000
  0.028492  0.049349  0.032279      2.000000
  0.056983  0.065799  0.032279      2.000000
 -0.028492  0.016450  0.032279      2.000000
  0.000000  0.065799  0.032279      2.000000
  0.028492  0.082248  0.032279      2.000000
  0.056983  0.098698  0.032279      2.000000
 -0.028492  0.049349  0.032279      2.000000
  0.000000 -0.032899  0.032279      2.000000
  0.028492 -0.016450  0.032279      2.000000
  0.056983  0.000000  0.032279      2.000000
 -0.028492 -0.049349  0.032279      2.000000

 SYSTEM =  unknown system
 POSCAR =  NiO_Cmmm_scale_1_000_disp_0_20_round_2

 Startparameter for this run:
   NWRITE =      1    write-flag & timer
   PREC   = accura    normal or accurate (medium, high low for compatibility)
   ISTART =      0    job   : 0-new  1-cont  2-samecut
   ICHARG =      2    charge: 1-file 2-atom 10-const
   ISPIN  =      2    spin polarized calculation?
   LNONCOLLINEAR =      F non collinear calculations
   LSORBIT =      F    spin-orbit coupling
   INIWAV =      1    electr: 0-lowe 1-rand  2-diag
   LASPH  =      F    aspherical Exc in radial PAW
   METAGGA=      F    non-selfconsistent MetaGGA calc.

 Electronic Relaxation 1
   ENCUT  =  500.0 eV  36.75 Ry    6.06 a.u.  16.00 16.00 18.83*2*pi/ulx,y,z
   ENINI  =  500.0     initial cutoff
   ENAUG  =  605.4 eV  augmentation charge cutoff
   NELM   =     80;   NELMIN=  2; NELMDL= -5     # of ELM steps
   EDIFF  = 0.1E-04   stopping-criterion for ELM
   LREAL  =      T    real-space projection
   NLSPLINE    = F    spline interpolate recip. space projectors
   LCOMPAT=      F    compatible to vasp.4.4
   GGA_COMPAT  = T    GGA compatible to vasp.4.4-vasp.4.6
   LMAXPAW     = -100 max onsite density
   LMAXMIX     =    2 max onsite mixed and CHGCAR
[...]
   0.114E+03 0.747E+02 -.223E+03   -.118E+03 -.732E+02 0.236E+03   0.150E+00 -.314E+00 0.315E+01   -.338E-02 0.210E-01 0.465E-02
   -.744E+02 -.115E+00 -.258E+02   0.752E+02 0.629E+00 0.269E+02   0.166E+01 -.125E+00 -.894E+00   -.529E-01 -.223E-01 -.108E+00
   0.505E+02 0.662E+02 -.226E+01   -.519E+02 -.678E+02 0.892E+00   0.109E+01 0.112E+01 -.362E+00   -.194E-01 -.133E+00 -.635E-01
   0.208E+03 0.388E+02 0.244E+03   -.211E+03 -.378E+02 -.257E+03   0.132E+01 0.279E+00 0.346E+00   -.106E+00 -.499E+00 0.167E+00
   -.894E+01 0.335E+02 0.399E+02   0.112E+02 -.326E+02 -.417E+02   -.736E+00 -.455E+00 0.121E+01   -.999E-01 -.135E+00 -.106E+00
   0.633E+02 0.123E+03 -.109E+03   -.627E+02 -.122E+03 0.117E+03   -.288E+00 0.373E-01 -.120E+01   -.266E+00 0.865E-02 -.132E-01
   -.222E+02 0.187E+01 -.376E+02   0.232E+02 -.490E+00 0.390E+02   -.119E+00 -.529E+00 -.304E+00   -.515E+00 -.511E-01 0.795E-01
   0.462E+02 0.825E+01 -.554E+01   -.455E+02 -.772E+01 0.670E+01   -.667E+00 -.186E+00 0.124E+01   0.181E-01 0.987E-01 -.124E+00
   0.593E+02 -.345E+02 -.780E+02   -.588E+02 0.344E+02 0.785E+02   -.633E+00 0.329E+00 0.221E+01   -.155E+00 0.130E+00 0.966E-01
   -.284E+02 0.133E+03 -.271E+03   0.294E+02 -.131E+03 0.278E+03   -.791E+00 0.557E+00 0.290E+01   -.624E-01 0.449E+00 0.130E+00
   -.592E+02 0.870E+02 0.107E+02   0.589E+02 -.864E+02 -.751E+01   0.492E+00 -.625E+00 -.392E+01   0.988E-01 -.103E-02 -.333E+00
   -.440E+02 -.261E+02 -.121E+03   0.444E+02 0.267E+02 0.120E+03   -.142E+00 -.148E+00 0.292E+01   0.754E-01 -.785E-01 0.134E+00
   0.435E+02 0.144E+03 0.260E+03   -.566E+02 -.160E+03 -.328E+03   0.929E+00 0.131E+01 0.406E+01   0.382E+00 -.105E+00 0.137E+00
   0.162E+03 0.251E+02 0.826E+02   -.160E+03 -.252E+02 -.817E+02   -.889E+00 -.180E+00 -.153E+01   0.121E+00 -.750E-01 0.355E-01
   -.312E+02 0.672E+02 -.222E+03   0.309E+02 -.663E+02 0.222E+03   -.375E-01 -.728E+00 0.461E+01   -.522E-01 -.930E-03 -.121E+00
   0.125E+03 -.212E+03 0.102E+03   -.130E+03 0.211E+03 -.110E+03   0.202E+01 -.189E+00 0.180E+01   0.866E-01 -.185E+00 0.345E-01
   -.406E+02 -.928E+02 -.112E+03   0.389E+02 0.953E+02 0.120E+03   0.283E+00 -.805E+00 0.131E+01   0.649E-01 0.102E+00 -.172E+00
   -.147E+03 0.936E+02 0.284E+02   0.145E+03 -.938E+02 -.395E+02   0.788E+00 0.441E-01 0.270E+01   0.168E+00 0.422E-01 0.704E-01
   -.525E+02 0.834E+02 -.109E+03   0.514E+02 -.827E+02 0.106E+03   0.569E+00 -.103E+01 0.235E+01   0.558E-01 0.151E+00 0.117E+00
   0.983E+02 0.596E+02 0.131E+03   -.968E+02 -.616E+02 -.141E+03   -.575E+00 0.975E+00 0.593E+00   0.172E-01 0.326E-01 -.191E+00
   0.445E+02 -.197E+03 0.127E+03   -.456E+02 0.198E+03 -.125E+03   0.246E-01 0.102E+01 -.211E+01   -.320E-01 0.114E+00 0.128E+00
   -.130E+03 -.229E+02 -.222E+03   0.133E+03 0.194E+02 0.240E+03   -.938E+00 0.172E+01 -.274E+01   -.200E+00 0.814E-01 0.187E+00
   -.613E+02 -.407E+02 -.804E+02   0.616E+02 0.397E+02 0.823E+02   0.357E-01 0.683E+00 0.131E+01   0.296E-01 -.137E+00 -.245E+00
   0.227E+02 0.303E+02 -.126E+03   -.217E+02 -.299E+02 0.129E+03   -.613E+00 -.728E+00 0.175E+01   0.178E+00 0.581E-02 0.158E+00
   0.773E+01 -.119E+03 -.639E+02   -.683E+01 0.121E+03 0.663E+02   -.389E+00 -.661E+00 0.135E+01   0.232E+00 -.168E+00 0.620E-01
   0.298E+02 -.550E+02 -.252E+02   -.261E+02 0.611E+02 0.286E+02   -.422E+01 -.685E+01 -.296E+01   -.346E-01 -.935E-03 0.750E-01
   0.616E+01 0.252E+01 0.219E+03   0.510E+01 -.461E+01 -.254E+03   -.925E+01 0.120E+01 0.185E+02   -.382E-01 0.242E-02 0.120E+00
   0.857E+02 0.231E+02 0.235E+03   -.974E+02 -.210E+02 -.273E+03   0.802E+01 -.156E+01 0.185E+02   -.368E-01 0.417E-01 -.183E+00
   -.986E+01 -.287E+02 0.145E+03   0.164E+02 0.359E+02 -.163E+03   -.761E+01 -.751E+01 0.120E+02   -.497E-01 -.560E-01 -.228E+00
   -.345E+01 -.222E+02 -.143E+03   0.761E+01 0.264E+02 0.164E+03   -.411E+01 -.374E+01 -.132E+02   -.288E-01 -.171E+00 0.942E-01
   0.451E+02 0.434E+02 -.209E+03   -.389E+02 -.482E+02 0.238E+03   -.702E+01 0.326E+01 -.164E+02   -.246E-01 -.157E+00 0.115E+00
   -.644E+00 0.613E+02 0.131E+03   0.234E+01 -.633E+02 -.148E+03   -.264E+01 0.140E+01 0.105E+02   -.760E-01 -.309E-01 -.356E-01
   -.761E+01 0.142E+02 -.319E+02   0.714E+01 -.977E+01 0.332E+02   0.951E+00 -.567E+01 -.161E+01   -.228E+00 0.139E-01 0.544E-01
   -.586E+02 -.366E+02 -.160E+02   0.637E+02 0.385E+02 0.194E+02   -.595E+01 -.232E+01 -.316E+01   -.189E+00 -.573E-01 -.644E-02
   0.411E+02 -.824E+02 0.101E+03   -.464E+02 0.869E+02 -.110E+03   0.564E+01 -.510E+01 0.621E+01   -.550E-01 0.372E-01 -.138E+00
   0.210E+02 0.168E+03 0.529E+02   -.278E+02 -.187E+03 -.690E+02   0.646E+01 0.135E+02 0.524E+01   -.882E-01 0.213E+00 0.177E+00
   -.644E+01 -.157E+02 0.160E+03   0.679E+01 0.192E+02 -.176E+03   -.307E+00 -.310E+01 0.145E+02   -.256E-01 0.188E+00 -.317E-01
   -.309E+02 0.330E+02 0.147E+01   0.283E+02 -.362E+02 -.272E+01   0.303E+01 0.322E+01 0.100E+01   0.370E-01 0.415E-02 -.224E+00
   0.840E+01 -.339E+02 0.155E+03   -.370E+01 0.406E+02 -.163E+03   -.596E+01 -.766E+01 0.646E+01   0.210E+00 -.111E+00 0.308E+00
   -.147E+03 -.531E+02 -.355E+03   0.167E+03 0.760E+02 0.440E+03   -.842E+01 -.741E+01 -.203E+02   0.124E+00 -.122E+00 -.232E+00
   -.584E+02 0.549E+02 0.184E+02   0.691E+02 -.612E+02 -.225E+02   -.107E+02 0.657E+01 0.917E+00   0.784E-01 -.528E-01 -.349E+00
   -.659E+02 -.722E+02 0.217E+03   0.784E+02 0.720E+02 -.241E+03   -.124E+02 0.728E+00 0.184E+02   0.374E+00 -.618E-01 -.329E+00
   0.121E+02 -.109E+03 -.174E+03   -.759E+01 0.113E+03 0.201E+03   -.381E+01 -.188E+01 -.141E+02   0.179E+00 -.391E-01 0.662E+00
   -.752E+02 0.306E+01 0.177E+03   0.747E+02 -.549E+01 -.198E+03   0.231E+00 0.214E+01 0.122E+02   0.698E-01 0.495E-01 -.124E+00
   -.106E+03 0.834E+02 -.234E+03   0.113E+03 -.886E+02 0.266E+03   -.365E+01 0.442E+01 -.141E+02   0.885E-01 0.780E-01 0.182E+00
   -.586E+02 0.149E+02 0.254E+03   0.659E+02 -.245E+02 -.282E+03   -.563E+01 0.893E+01 0.190E+02   0.778E-01 0.101E+00 -.942E-02
   0.104E+03 -.619E+02 -.210E+03   -.114E+03 0.722E+02 0.237E+03   0.882E+01 -.947E+01 -.192E+02   -.443E-03 0.438E-01 -.169E+00
   -.294E+02 -.152E+03 0.200E+03   0.263E+02 0.171E+03 -.228E+03   0.373E+01 -.163E+02 0.132E+02   -.119E+00 0.424E-01 0.410E+00
   -.108E+02 -.132E+02 -.141E+01   0.135E+02 0.206E+02 0.222E+00   -.322E+01 -.895E+01 0.121E+01   -.111E+00 -.147E-01 -.106E+00
   -.204E+02 0.251E+02 0.476E+02   0.196E+02 -.282E+02 -.585E+02   0.440E+00 0.351E+01 0.692E+01   0.582E-01 -.179E-01 -.175E+00
   0.105E+02 -.414E+02 0.119E+03   -.108E+02 0.380E+02 -.131E+03   0.731E-02 0.437E+01 0.737E+01   0.127E+00 -.678E-01 0.365E+00
   -.531E+02 -.135E+02 0.695E+02   0.560E+02 0.123E+02 -.767E+02   -.296E+01 0.112E+01 0.422E+01   0.791E-01 -.105E+00 -.135E+00
   0.587E+02 0.310E+02 -.986E+02   0.277E-12 0.155E-12 0.284E-13   -.590E+02 -.305E+02 0.983E+02   0.323E+00 -.562E+00 0.185E+00

 POSITION                                       TOTAL-FORCE (eV/Angst)
      0.13340      0.00516     10.17127         4.030604     -1.058921     18.537365
      4.31375      7.37147      3.17780         0.743768      0.555064      1.113191
      0.06445      0.01207      6.67587        -3.717827      1.175945     16.617581
      6.94450      2.34521     10.28642         2.417374      0.365990      0.147667
      7.36034      2.34246      3.41498        -0.367631     -0.605814     -1.790749
     -1.17934      2.62450      7.03034        -0.901126      0.820249    -12.756948
      5.34842      5.09539      0.12124         1.448100      0.303605     -0.636198
     -2.84073      5.14832      3.42796         0.007825      1.046196      6.582233
      5.76550      4.95560      6.86034         0.322615      0.804702      1.198458
     -1.52877      7.27248      0.12382        -0.018908      0.437464      2.268876
     -1.41230      7.43623      3.58295        -0.296367      0.436530      2.794003
      3.06018      0.63750      6.66845         0.172295      3.016536     10.803625
      1.41218      2.85158      0.03416         0.299260      0.018506     -1.020867
      1.44219      2.42015      3.40642         0.275909      0.329869      1.811633
      1.30333      2.33065      7.31472       -11.790506    -15.339383    -63.274151
      0.08753      5.08594      0.01308         0.511405     -0.354888     -0.563394
     -0.34469      5.15825      3.22516        -0.401387      0.195591      3.640627
     -0.16463      4.74638      6.92986        -2.589535     -1.019285     -6.956203
      0.98448      7.53230      0.06870        -1.340009      1.755288      8.996972
      5.49685      0.11330      3.55199        -1.513372     -0.078890     -8.306372
      5.93983      0.32349      6.81609        -0.521832     -0.246293     -0.810324
      4.76194      2.43267      0.01802         0.989217     -0.949858     -9.456875
      4.52258      2.08178      3.57295        -1.089807      2.488649      0.002953
      4.26487      2.38559      6.64549         2.266833     -1.643689     14.769702
      2.65814      5.16521      0.00264         0.403195     -0.468522      3.043277
      2.91954      5.19064      3.44148         0.518547     -0.333027      4.679109
      2.95606      5.00508      6.92253         0.742481      0.583994      3.839662
      0.18973      0.14033      1.51095        -0.562727     -0.789987      0.515525
     -4.03281      7.52947      5.29742         1.976440     -0.889724    -16.224614
      8.57253      0.08835      8.83140        -3.673555      0.675415    -19.709518
     -1.25333      2.64059      1.88359        -1.115731     -0.318828     -5.706237
     -1.20896      2.56769      4.91874         0.029234      0.255371      7.363843
     -1.06872      2.42340      8.46974        -0.854541     -1.631700     12.671485
      5.84516      5.06868      1.90836        -1.013733     -0.608333     -7.137368
     -2.93394      5.27417      5.14459         0.257863     -1.246190     -0.293255
     -2.88683      5.16842      8.63193        -1.010779     -0.497527      0.193437
     -1.66096      7.56669      1.95965         0.341220     -0.521917     -2.880574
     -1.51608      7.50245      5.41232        -0.431776     -4.910886    -10.744021
      2.92686      0.08757      8.87118         0.020202      0.542946     -2.042186
      1.32055      2.50636      1.71769         0.403356      0.082844     -0.467422
      1.66462      2.71716      5.55001        -1.060553     -1.109747     -1.036371
      1.54743      2.62119      8.44214        12.358525     15.401458     63.783120
      0.24484      4.91208      1.75959         0.063142      0.174302     -3.605355
      0.36463      4.79942      5.49087         0.442052      0.496257     -5.840091
      0.04674      4.87655      8.35331         0.879158      1.597223     13.690664
      5.44414      0.02628      2.04181        -0.203455     -0.249819     -9.226372
      5.72668      0.06471      4.94276         3.144446     -0.644004     17.864422
      1.33775      7.19600      8.97980         1.825491     -0.564418     -8.412426
      4.36851      2.80506      1.40720        -1.869146      0.870430      8.358365
      4.23814      2.79432      5.27326         0.540163      2.044563    -14.569294
      4.72371      2.74604      8.48451        -0.637654     -1.583584     -0.087267
      2.82781      5.08916      1.85419        -0.329088      0.401163     -4.172776
      2.97925      4.95767      5.32215        -0.156197      0.935056     -4.449471
      2.87844      5.02793      8.71070         0.036524     -0.145975     -3.111098
    total drift:                               -0.009992      0.008839     -0.037399

  FREE ENERGIE OF THE ION-ELECTRON SYSTEM (eV)
  free  energy   TOTEN  =      -279.7868865134 eV

  energy  without entropy=     -279.7184722943  energy(sigma->0) =     -279.75267940

volume of typ            1:    25.0 %

volume of typ            2:     6.4 %

total charge

# of ion       s       p       d       tot
    1        0.428   0.539   7.991   8.959
    2        0.227   0.180   7.967   8.374
    3        0.365   0.356   8.019   8.740
    4        0.213   0.150   7.974   8.337
    5        0.381   0.476   7.930   8.787
    6        0.343   0.354   8.014   8.711
    7        0.221   0.188   7.934   8.343
    8        0.355   0.399   7.929   8.683
    9        0.259   0.242   7.902   8.402
   10        0.293   0.283   7.896   8.473
   11        0.289   0.298   7.945   8.532
   12        0.354   0.355   8.016   8.725
   13        0.241   0.207   7.960   8.408
   14        0.224   0.175   7.966   8.365
   15        0.528   0.697   8.168   9.393
   16        0.241   0.200   7.959   8.400
   17        0.266   0.225   7.994   8.486
   18        0.440   0.580   7.992   9.012
   19        0.343   0.350   7.950   8.643
   20        0.471   0.657   8.015   9.143
   21        0.182   0.119   7.991   8.292
   22        0.375   0.393   7.934   8.702
   23        0.215   0.151   8.009   8.375
   24        0.384   0.425   8.004   8.813
   25        0.286   0.279   7.937   8.502
   26        0.299   0.275   7.933   8.507
   27        0.304   0.298   7.912   8.515
   28        1.276   2.746   0.010   4.033
   29        1.297   2.781   0.020   4.098
   30        1.295   2.818   0.021   4.134
   31        1.282   2.740   0.011   4.033
   32        1.278   2.758   0.011   4.047
   33        1.291   2.777   0.019   4.086
   34        1.278   2.776   0.014   4.068
   35        1.269   2.749   0.008   4.025
   36        1.275   2.693   0.005   3.973
   37        1.272   2.746   0.009   4.027
   38        1.287   2.790   0.019   4.096
   39        1.285   2.694   0.007   3.986
   40        1.275   2.736   0.010   4.021
   41        1.285   2.657   0.004   3.946
   42        1.327   2.933   0.047   4.307
   43        1.282   2.750   0.013   4.045
   44        1.295   2.722   0.012   4.029
   45        1.287   2.802   0.017   4.107
   46        1.278   2.785   0.013   4.075
   47        1.290   2.817   0.021   4.128
   48        1.293   2.735   0.014   4.042
   49        1.293   2.740   0.014   4.048
   50        1.296   2.789   0.022   4.107
   51        1.275   2.686   0.004   3.965
   52        1.271   2.755   0.011   4.037
   53        1.274   2.743   0.010   4.027
   54        1.268   2.756   0.010   4.034
tot          43.20   83.33  215.62  342.15

magnetization (x)

# of ion       s       p       d       tot
    1        0.010   0.001   0.133   0.144
    2        0.006   0.002   0.221   0.229
    3        0.020   0.019   0.881   0.920
    4       -0.000  -0.000   0.442   0.442
    5        0.016  -0.002   0.692   0.706
    6        0.005   0.004   0.436   0.445
    7        0.005  -0.000   0.501   0.506
    8       -0.008   0.002  -0.539  -0.545
    9        0.018  -0.002   0.853   0.869
   10        0.011  -0.001   1.035   1.045
   11       -0.000   0.001   0.284   0.285
   12        0.001   0.001   0.249   0.252
   13       -0.002  -0.001   0.042   0.038
   14        0.003  -0.000   0.043   0.046
   15        0.001  -0.004  -0.071  -0.074
   16        0.003   0.001   0.460   0.464
   17        0.012   0.012   0.745   0.769
   18        0.010   0.002   0.422   0.434
   19        0.012   0.002   0.862   0.876
   20        0.004  -0.003   0.226   0.227
   21       -0.002  -0.002   0.020   0.016
   22        0.010   0.003   0.781   0.793
   23        0.002   0.004   0.213   0.219
   24       -0.002  -0.001   0.122   0.119
   25       -0.002   0.001  -0.057  -0.058
   26       -0.007  -0.002  -0.665  -0.674
   27        0.016  -0.002   0.692   0.706
   28        0.001   0.069   0.000   0.070
   29        0.010   0.433   0.001   0.444
   30        0.001   0.035   0.000   0.037
   31        0.005   0.205   0.001   0.210
   32        0.006   0.251   0.001   0.258
   33        0.005   0.218   0.000   0.223
   34       -0.004  -0.198  -0.000  -0.202
   35        0.001   0.013   0.000   0.014
   36        0.011   0.431  -0.000   0.442
   37        0.006   0.190   0.000   0.197
   38        0.003   0.113   0.000   0.116
   39        0.011   0.481   0.000   0.493
   40       -0.000   0.005  -0.000   0.005
   41       -0.003  -0.091  -0.000  -0.094
   42       -0.001  -0.018  -0.001  -0.019
   43        0.008   0.338  -0.000   0.346
   44        0.004   0.148   0.000   0.152
   45        0.003   0.123   0.001   0.127
   46        0.003   0.119   0.000   0.123
   47        0.001   0.053   0.000   0.054
   48        0.009   0.407   0.001   0.417
   49        0.007   0.326   0.001   0.333
   50        0.001   0.044   0.000   0.045
   51        0.005   0.176   0.000   0.181
   52       -0.007  -0.263  -0.000  -0.270
   53        0.003   0.116   0.000   0.120
   54        0.003   0.119  -0.000   0.122
tot           0.24    3.88    9.03   13.14