 vasp.5.4.4.18Apr17-6-g9f103f2a35 (build May 12 2020 04:58:55) complex

 MD_VERSION_INFO: Compiled 2020-05-12T11:58:55-UTC in devlin.sd.materialsdesign.
 com:/home/medea2/data/build/wwolf/vasp-gpu5.4.4/13047/x86_64/src/src/build/std
 from svn 13047

 executed on                        Lin64 date 2023.03.24  04:22:35

 INCAR:
 POTCAR:    PAW_PBE Ni 02Aug2007
 POTCAR:    PAW_PBE O 08Apr2002

 POTCAR:    PAW_PBE Ni 02Aug2007

 POTCAR:    PAW_PBE O 08Apr2002

 Optimization of the real space projectors (new method)

 maximal supplied QI-value         = 16.25
 optimisation between [QCUT,QGAM] = [ 11.38, 22.75] = [ 36.24,144.96] Ry
 Optimized for a Real-space Cutoff    1.47 Angstroem

   l    n(q)    QCUT    max X(q) W(low)/X(q) W(high)/X(q)  e(spline)
   2      9    11.376    60.317    0.17E-03    0.16E-04    0.16E-06
   2      9    11.376    55.921    0.17E-03    0.16E-04    0.17E-06
   0     10    11.376    51.690    0.45E-04    0.60E-04    0.21E-06
   0     10    11.376    30.015    0.37E-04    0.55E-04    0.19E-06
   1     10    11.376    18.849    0.83E-04    0.11E-03    0.92E-07
   1     10    11.376    14.624    0.69E-04    0.92E-04    0.82E-07
 Optimization of the real space projectors (new method)

 maximal supplied QI-value         = 24.76
 optimisation between [QCUT,QGAM] = [ 11.39, 22.77] = [ 36.31,145.25] Ry
 Optimized for a Real-space Cutoff    1.10 Angstroem

   l    n(q)    QCUT    max X(q) W(low)/X(q) W(high)/X(q)  e(spline)
   0      7    11.387    20.381    0.22E-03    0.48E-03    0.18E-06
   0      7    11.387    15.268    0.22E-03    0.52E-03    0.19E-06
   1      7    11.387     5.964    0.22E-03    0.73E-03    0.24E-06
   1      7    11.387     5.382    0.19E-03    0.60E-03    0.21E-06

  PAW_PBE Ni 02Aug2007                  :
  PAW_PBE O 08Apr2002                   :

 POSCAR: NiO_Cmmm_scale_1_000_disp_0_20_round_1
  positions in direct lattice
 exchange correlation table for  LEXCH =       14
   RHO(1)=    0.500       N(1)  =     2000
   RHO(2)=  100.500       N(2)  =     4000

 ion  position               nearest neighbor table
   1  0.001  0.991  0.989-  28 1.79  30 1.85  10 2.55   7 2.76  25 2.88   4 2.94
   2  0.031  0.015  0.338-  29 1.84  28 1.86  14 2.38  11 2.68   5 2.70   8 2.98
   3  0.987  0.973  0.669-  30 1.61  29 1.72   9 2.64  27 2.81
   4  0.010  0.329  0.010-  33 1.83  31 1.91  13 2.68  16 2.92   1 2.94
   5  0.010  0.311  0.353-  32 1.50  31 1.74  14 2.58   2 2.70  17 2.91
   6  0.070  0.384  0.647-  32 1.74  33 2.07  18 2.09  44 2.44  15 2.73   9 2.95
   7  0.024  0.689  0.977-  36 1.44  34 1.89   1 2.76  10 2.79  16 2.80  25 2.87
   8  0.010  0.665  0.341-  35 1.75  34 1.88  17 2.66  11 2.83   2 2.98  26 3.06  23 3.08
   9  0.010  0.686  0.657-  35 1.54  36 1.89   3 2.64  18 2.73  27 2.81  12 2.85   6 2.95  24 3.00

  10  0.308  0.030  0.996-  39 1.98  37 2.10   1 2.55   7 2.79  13 2.86  22 2.92  19 3.06
  11  0.325  0.994  0.331-  37 1.40  38 1.97   2 2.68  14 2.78   8 2.83  17 2.83  23 2.88  20 3.05

  12  0.349  0.995  0.667-  39 1.51  38 1.56  21 2.37   9 2.85  24 2.95  18 2.95  15 3.03
  13  0.333  0.368  0.005-  40 1.70  42 2.03  16 2.68   4 2.68  25 2.83  10 2.86  22 2.99
  14  0.295  0.294  0.342-  41 1.52  40 1.85   2 2.38   5 2.58  11 2.78  23 3.03  26 3.08
  15  0.354  0.342  0.691-  42 1.34  41 2.21  24 2.72   6 2.73  27 2.75  18 2.89  12 3.03
  16  0.331  0.672  0.014-  43 1.66  45 2.24  19 2.57  13 2.68   7 2.80   4 2.92
  17  0.312  0.665  0.354-  44 1.66  43 1.87   8 2.66  20 2.78  11 2.83   5 2.91  26 3.08
  18  0.293  0.634  0.662-  45 1.46  44 1.56   6 2.09   9 2.73  15 2.89  12 2.95
  19  0.620  0.966  0.987-  48 1.88  46 2.05  16 2.57  25 3.04  10 3.06
  20  0.649  0.956  0.374-  47 1.37  46 1.97  17 2.78  26 2.80  21 3.00  11 3.05
  21  0.634  0.029  0.657-  48 1.58  47 1.76  12 2.37  24 2.67  20 3.00
  22  0.657  0.339  0.029-  49 1.68  51 2.04  25 2.68  10 2.92  13 2.99
  23  0.653  0.321  0.348-  49 1.65  50 1.74  26 2.83  11 2.88  14 3.03   8 3.08
  24  0.665  0.347  0.667-  50 1.58  51 1.71  27 2.60  21 2.67  15 2.72  12 2.95   9 3.00
  25  0.683  0.655  0.009-  52 1.59  54 2.01  22 2.68  13 2.83   7 2.87   1 2.88  19 3.04
  26  0.649  0.641  0.332-  53 1.72  52 1.77  20 2.80  23 2.83   8 3.06  14 3.08  17 3.08
  27  0.672  0.647  0.662-  54 1.69  53 1.69  24 2.60  15 2.75   9 2.81   3 2.81
  28  0.983  0.984  0.162-   1 1.79   2 1.86
  29  0.946  0.959  0.505-   3 1.72   2 1.84
  30  0.993  0.041  0.815-   3 1.61   1 1.85
  31  0.051  0.374  0.191-   5 1.74   4 1.91
  32  0.979  0.338  0.492-   5 1.50   6 1.74
  33  0.980  0.316  0.834-   4 1.83   6 2.07
  34  0.021  0.691  0.160-   8 1.88   7 1.89
  35  0.986  0.672  0.509-   9 1.54   8 1.75
  36  0.995  0.660  0.839-   7 1.44   9 1.89
  37  0.301  0.991  0.197-  11 1.40  10 2.10
  38  0.363  0.034  0.518-  12 1.56  11 1.97
  39  0.308  0.980  0.809-  12 1.51  10 1.98
  40  0.326  0.315  0.164-  13 1.70  14 1.85
  41  0.360  0.366  0.477-  14 1.52  15 2.21
  42  0.293  0.319  0.812-  15 1.34  13 2.03
  43  0.348  0.675  0.174-  16 1.66  17 1.87
  44  0.281  0.625  0.511-  18 1.56  17 1.66   6 2.44
  45  0.336  0.682  0.798-  18 1.46  16 2.24
  46  0.649  0.957  0.183-  20 1.97  19 2.05
  47  0.686  0.981  0.503-  20 1.37  21 1.76
  48  0.637  0.998  0.807-  21 1.58  19 1.88
  49  0.680  0.334  0.190-  23 1.65  22 1.68
  50  0.644  0.312  0.517-  24 1.58  23 1.74
  51  0.664  0.358  0.832-  24 1.71  22 2.04
  52  0.664  0.646  0.162-  25 1.59  26 1.77
  53  0.649  0.644  0.499-  27 1.69  26 1.72
  54  0.620  0.637  0.820-  27 1.69  25 2.01

  LATTYP: Found a hexagonal cell.
 ALAT       =     8.7745200035
 C/A-ratio  =     1.1769065426

  Lattice vectors:

 A1 = (   8.7745200000,   0.0000000000,   0.0000000000)
 A2 = (  -4.3872600000,   7.5989572300,   0.0000000000)
 A3 = (   0.0000000000,   0.0000000000,  10.3267900000)

Analysis of symmetry for initial positions (statically):
 Subroutine PRICEL returns:
 Original cell was already a primitive cell.

 Routine SETGRP: Setting up the symmetry group for a
 hexagonal supercell.

 Subroutine GETGRP returns: Found  1 space group operations
 (whereof  1 operations were pure point group operations)
 out of a pool of 24 trial point group operations.

The static configuration has the point symmetry C_1 .

Analysis of symmetry for dynamics (positions and initial velocities):
 Subroutine PRICEL returns:
 Original cell was already a primitive cell.

[...]

The dynamic configuration has the point symmetry C_1 .

Analysis of structural, dynamic, and magnetic symmetry:
 Subroutine PRICEL returns:
 Original cell was already a primitive cell.

 Routine SETGRP: Setting up the symmetry group for a
 hexagonal supercell.

 Subroutine GETGRP returns: Found  1 space group operations
 (whereof  1 operations were pure point group operations)
 out of a pool of 24 trial point group operations.

The magnetic configuration has the point symmetry C_1 .

 Subroutine INISYM returns: Found  1 space group operations
 (whereof  1 operations are pure point group operations),
 and found     1 'primitive' translations

 KPOINTS: Automatic mesh

Automatic generation of k-mesh.
Space group operators:
 irot       det(A)        alpha          n_x          n_y          n_z        tau_x        tau_y        tau_z
    1     1.000000     0.000000     1.000000     0.000000     0.000000     0.000000     0.000000     0.000000

 Subroutine IBZKPT returns following result:

 Found     26 irreducible k-points:

 Following reciprocal coordinates:
            Coordinates               Weight
  0.000000  0.000000  0.000000      1.000000
  0.250000  0.000000  0.000000      2.000000
  0.500000  0.000000  0.000000      1.000000
  0.000000  0.250000  0.000000      2.000000
  0.250000  0.250000  0.000000      2.000000
  0.500000  0.250000  0.000000      2.000000
 -0.250000  0.250000  0.000000      2.000000
  0.000000  0.500000  0.000000      1.000000
  0.250000  0.500000  0.000000      2.000000
  0.500000  0.500000  0.000000      1.000000
  0.000000  0.000000  0.333333      2.000000
  0.250000  0.000000  0.333333      2.000000
  0.500000  0.000000  0.333333      2.000000
 -0.250000 -0.000000  0.333333      2.000000
  0.000000  0.250000  0.333333      2.000000
  0.250000  0.250000  0.333333      2.000000
  0.500000  0.250000  0.333333      2.000000
 -0.250000  0.250000  0.333333      2.000000
  0.000000  0.500000  0.333333      2.000000
  0.250000  0.500000  0.333333      2.000000
  0.500000  0.500000  0.333333      2.000000
 -0.250000  0.500000  0.333333      2.000000
  0.000000 -0.250000  0.333333      2.000000
  0.250000 -0.250000  0.333333      2.000000
  0.500000 -0.250000  0.333333      2.000000
 -0.250000 -0.250000  0.333333      2.000000

 Following cartesian coordinates:
            Coordinates               Weight
  0.000000  0.000000  0.000000      1.000000
  0.028492  0.016450  0.000000      2.000000
  0.056983  0.032899  0.000000      1.000000
  0.000000  0.032899  0.000000      2.000000
  0.028492  0.049349  0.000000      2.000000
  0.056983  0.065799  0.000000      2.000000
 -0.028492  0.016450  0.000000      2.000000
  0.000000  0.065799  0.000000      1.000000
  0.028492  0.082248  0.000000      2.000000
  0.056983  0.098698  0.000000      1.000000
  0.000000  0.000000  0.032279      2.000000
  0.028492  0.016450  0.032279      2.000000
  0.056983  0.032899  0.032279      2.000000
 -0.028492 -0.016450  0.032279      2.000000
  0.000000  0.032899  0.032279      2.000000
  0.028492  0.049349  0.032279      2.000000
  0.056983  0.065799  0.032279      2.000000
 -0.028492  0.016450  0.032279      2.000000
  0.000000  0.065799  0.032279      2.000000
  0.028492  0.082248  0.032279      2.000000
  0.056983  0.098698  0.032279      2.000000
 -0.028492  0.049349  0.032279      2.000000
  0.000000 -0.032899  0.032279      2.000000
  0.028492 -0.016450  0.032279      2.000000
  0.056983  0.000000  0.032279      2.000000
 -0.028492 -0.049349  0.032279      2.000000

 SYSTEM =  unknown system
 POSCAR =  NiO_Cmmm_scale_1_000_disp_0_20_round_1

 Startparameter for this run:
   NWRITE =      1    write-flag & timer
   PREC   = accura    normal or accurate (medium, high low for compatibility)
   ISTART =      0    job   : 0-new  1-cont  2-samecut
   ICHARG =      2    charge: 1-file 2-atom 10-const
   ISPIN  =      2    spin polarized calculation?
   LNONCOLLINEAR =      F non collinear calculations
   LSORBIT =      F    spin-orbit coupling
   INIWAV =      1    electr: 0-lowe 1-rand  2-diag
   LASPH  =      F    aspherical Exc in radial PAW
   METAGGA=      F    non-selfconsistent MetaGGA calc.

 Electronic Relaxation 1
   ENCUT  =  500.0 eV  36.75 Ry    6.06 a.u.  16.00 16.00 18.83*2*pi/ulx,y,z
   ENINI  =  500.0     initial cutoff
   ENAUG  =  605.4 eV  augmentation charge cutoff
   NELM   =     80;   NELMIN=  2; NELMDL= -5     # of ELM steps
   EDIFF  = 0.1E-04   stopping-criterion for ELM
   LREAL  =      T    real-space projection
   NLSPLINE    = F    spline interpolate recip. space projectors
   LCOMPAT=      F    compatible to vasp.4.4
   GGA_COMPAT  = T    GGA compatible to vasp.4.4-vasp.4.6
   LMAXPAW     = -100 max onsite density
[...]
   0.208E+02 -.317E+02 -.232E+02   -.211E+02 0.305E+02 0.211E+02   -.125E-01 0.392E+00 -.564E+00   0.232E-01 0.211E-01 0.105E-01
   0.147E+03 0.871E+02 -.454E+02   -.146E+03 -.858E+02 0.440E+02   -.879E+00 -.559E+00 0.117E+01   0.112E-01 -.330E-02 0.374E-02
   0.945E+02 0.133E+03 0.207E+03   -.912E+02 -.133E+03 -.218E+03   -.112E+01 0.635E+00 0.248E+01   -.247E-03 -.119E-01 -.103E-01
   0.855E+02 0.224E+03 -.155E+03   -.881E+02 -.227E+03 0.157E+03   0.504E+00 -.119E+00 0.173E+00   -.910E-02 -.594E-01 0.277E-02
   -.201E+02 0.493E+02 -.197E+03   0.209E+02 -.470E+02 0.212E+03   -.203E+00 -.384E+00 -.491E+00   -.104E-03 0.307E-01 0.139E-01
   0.633E+02 0.636E+02 0.140E+03   -.632E+02 -.620E+02 -.143E+03   -.485E+00 -.782E+00 0.128E+01   -.702E-02 0.188E-01 -.114E-01
   0.251E+02 0.495E+01 -.172E+03   -.255E+02 -.472E+01 0.178E+03   0.144E+00 -.302E+00 0.957E+00   -.157E-01 0.554E-01 -.584E-02
   -.117E+03 -.550E+02 -.443E+02   0.117E+03 0.539E+02 0.426E+02   0.535E+00 0.322E+00 0.154E+01   -.206E-01 -.521E-02 -.340E-01
   -.120E+03 0.668E+01 -.121E+03   0.123E+03 -.629E+01 0.140E+03   -.800E-01 0.262E+00 -.851E+00   -.223E-01 -.599E-02 0.251E-01
   0.382E+02 0.461E+01 -.226E+02   -.370E+02 -.457E+01 0.187E+02   -.583E+00 0.531E-01 0.138E+01   -.283E-01 0.281E-01 0.880E-02
   -.148E+02 -.313E+02 0.747E+02   0.141E+02 0.300E+02 -.722E+02   0.391E+00 0.453E+00 -.386E+01   0.208E-02 -.276E-01 -.590E-02
   -.114E+02 0.217E+02 0.147E+03   0.104E+02 -.237E+02 -.153E+03   0.582E+00 0.604E+00 -.124E+01   -.496E-02 -.298E-01 0.710E-02
   -.861E+02 0.442E+02 0.214E+03   0.935E+02 -.408E+02 -.238E+03   0.419E+00 0.294E+00 -.167E+01   0.172E-01 -.655E-01 0.337E-02
   0.212E+02 -.338E+02 0.128E+03   -.206E+02 0.338E+02 -.125E+03   -.596E+00 0.117E+00 -.476E+01   -.203E-01 -.186E-02 0.203E-01
   -.514E+02 -.581E+02 0.162E+03   0.511E+02 0.591E+02 -.165E+03   0.572E+00 -.449E+00 -.554E+00   -.214E-01 0.114E-01 -.295E-01
   -.989E+02 -.928E+02 -.475E+02   0.990E+02 0.930E+02 0.433E+02   -.538E+00 -.295E+00 -.111E+01   -.725E-02 0.266E-01 0.127E-02
   -.492E+02 -.113E+03 -.818E+02   0.487E+02 0.113E+03 0.822E+02   0.849E+00 0.253E+00 0.335E+00   -.988E-02 0.845E-02 -.174E-01
   0.360E+02 -.319E+02 0.345E+03   -.399E+02 0.281E+02 -.372E+03   0.707E+00 0.649E+00 0.227E+01   0.631E-02 0.117E-01 0.164E-01
   -.125E+03 -.544E+02 -.207E+02   0.125E+03 0.541E+02 0.203E+02   0.317E+00 0.441E+00 -.310E+01   -.297E-01 0.108E-01 0.242E-02
   -.989E+02 0.967E+02 0.922E+02   0.985E+02 -.968E+02 -.928E+02   0.363E+00 0.207E+00 -.211E+01   -.115E-01 -.484E-02 -.163E-01
   -.770E+02 0.284E+02 0.859E+02   0.766E+02 -.279E+02 -.848E+02   0.283E+00 -.516E+00 0.257E+00   0.193E-02 -.488E-02 0.227E-01
   -.121E+03 -.177E+02 -.138E+03   0.120E+03 0.185E+02 0.144E+03   -.794E-01 -.495E+00 -.107E+01   -.133E-01 -.424E-01 -.691E-02
   -.155E+02 -.865E+02 0.132E+03   0.145E+02 0.860E+02 -.135E+03   0.184E+00 0.136E+00 -.157E+01   0.179E-01 0.222E-02 -.454E-02
   -.179E+02 -.331E+02 0.110E+03   0.189E+02 0.332E+02 -.110E+03   -.862E+00 -.577E-01 -.589E+00   0.190E-01 0.115E-01 0.117E-01
   -.161E+01 -.122E+03 -.719E+02   0.180E+01 0.122E+03 0.730E+02   -.635E+00 -.116E+00 -.117E+01   0.194E-01 0.198E-01 -.139E-01
   0.101E+03 0.127E+02 0.136E+02   -.105E+03 -.158E+02 -.108E+02   0.487E+01 0.365E+01 -.274E+01   0.155E-01 -.629E-05 0.203E-02
   0.378E+02 -.306E+01 0.368E+02   -.451E+02 -.252E+01 -.418E+02   0.894E+01 0.639E+01 0.402E+01   0.165E-01 0.690E-02 0.201E-01
   0.102E+03 -.479E+02 -.990E+02   -.108E+03 0.587E+02 0.108E+03   0.677E+01 -.115E+02 -.492E+01   0.208E-01 -.945E-02 -.268E-01
   0.719E+02 -.197E+01 0.105E+03   -.705E+02 0.998E+01 -.110E+03   -.206E+01 -.958E+01 0.351E+01   -.282E-03 0.157E-02 0.512E-02
   0.144E+03 0.659E+02 -.837E+02   -.158E+03 -.643E+02 0.996E+02   0.130E+02 -.107E+01 -.809E+01   -.480E-02 -.175E-01 -.157E-01
   0.970E+02 0.522E+02 -.854E+01   -.102E+03 -.563E+02 0.221E+01   0.570E+01 0.495E+01 0.700E+01   0.225E-02 -.187E-01 0.207E-02
   0.186E+02 0.420E+02 0.236E+02   -.195E+02 -.407E+02 -.236E+02   0.105E+01 -.200E+01 -.330E+00   0.170E-02 0.829E-02 0.128E-01
   0.599E+02 0.128E+02 0.108E+03   -.652E+02 -.145E+02 -.120E+03   0.554E+01 0.125E+01 0.556E+01   -.759E-02 0.194E-01 -.450E-01
   0.391E+02 0.841E+02 0.932E+02   -.425E+02 -.922E+02 -.119E+03   0.265E+01 0.683E+01 0.120E+02   -.292E-02 0.221E-01 0.237E-01
   -.376E+02 0.141E+01 0.273E+03   0.320E+02 -.355E+01 -.310E+03   0.373E+01 0.237E+01 0.192E+02   -.148E-01 -.535E-02 -.117E-01
   0.360E+02 -.283E+02 0.144E+03   -.374E+02 0.364E+02 -.161E+03   0.114E+01 -.837E+01 0.972E+01   -.105E-01 -.317E-02 0.505E-01
   0.260E+02 -.738E+00 -.220E+03   -.306E+02 -.398E+01 0.241E+03   0.331E+01 0.480E+01 -.117E+02   -.910E-02 0.193E-01 -.351E-01
   -.381E+02 0.125E+02 0.209E+01   0.411E+02 -.152E+02 0.345E+01   -.324E+01 0.258E+01 -.430E+01   -.423E-02 -.116E-01 -.126E-01
   -.314E+02 -.443E+02 -.151E+03   0.370E+02 0.563E+02 0.173E+03   -.498E+01 -.108E+02 -.145E+02   0.794E-02 -.230E-01 0.350E-02
   0.898E+02 0.656E+02 -.273E+03   -.108E+03 -.749E+02 0.317E+03   0.108E+02 0.677E+01 -.174E+02   0.541E-02 -.363E-01 0.102E-01
   -.329E+02 -.302E+02 -.232E+02   0.362E+02 0.304E+02 0.314E+02   -.375E+01 -.248E+00 -.582E+01   -.109E-01 -.274E-02 -.884E-02
   -.328E+02 -.289E+02 0.836E+02   0.319E+02 0.251E+02 -.913E+02   0.137E+01 0.422E+01 0.379E+01   -.820E-02 0.871E-02 -.307E-01
   -.572E+02 -.728E+02 -.287E+03   0.621E+02 0.832E+02 0.316E+03   -.366E+01 -.844E+01 -.172E+02   -.802E-02 0.256E-01 0.382E-01
   -.211E+02 -.828E+02 0.709E+02   0.233E+02 0.822E+02 -.724E+02   -.285E+01 0.107E+01 0.145E+01   0.319E-02 0.714E-03 0.131E-01
   -.956E+02 -.260E+02 -.154E+03   0.110E+03 0.297E+02 0.188E+03   -.129E+02 -.259E+00 -.123E+02   0.354E-02 0.888E-02 0.612E-02
   -.868E+02 -.107E+02 -.178E+03   0.907E+02 0.920E+01 0.190E+03   -.371E+01 0.910E+00 -.669E+01   -.802E-02 0.130E-01 -.236E-01
   -.103E+03 0.364E+02 0.628E+02   0.108E+03 -.353E+02 -.644E+02   -.521E+01 -.123E+01 0.917E+00   0.112E-02 0.300E-02 -.760E-02
   -.384E+02 0.191E+02 0.903E+02   0.370E+02 -.230E+02 -.999E+02   0.198E+01 0.407E+01 0.518E+01   -.720E-02 -.197E-01 0.744E-02
   -.511E+02 0.291E+02 -.164E+03   0.518E+02 -.272E+02 0.173E+03   -.488E+00 -.232E+01 -.715E+01   -.593E-02 -.168E-01 0.232E-02
   0.296E+00 -.264E+02 -.439E+02   -.150E+01 0.267E+02 0.535E+02   0.113E+01 -.279E+00 -.538E+01   0.952E-02 0.250E-02 -.710E-02
   0.222E+02 -.277E+02 0.278E+02   -.240E+02 0.276E+02 -.287E+02   0.221E+01 0.252E+00 0.369E+00   0.120E-01 0.832E-02 -.957E-02
   0.463E+02 -.639E+02 -.139E+03   -.546E+02 0.621E+02 0.148E+03   0.948E+01 0.258E+01 -.708E+01   0.114E-01 0.401E-02 0.150E-01
   -.395E+02 0.363E+01 0.666E+02   -.433E-12 -.185E-12 -.199E-12   0.396E+02 -.360E+01 -.666E+02   -.527E-01 -.252E-01 -.363E-01

 POSITION                                       TOTAL-FORCE (eV/Angst)
     -4.34306      7.53086     10.21124        -0.641576      0.502229      0.329063
      0.20707      0.11615      3.49271        -1.200461     -0.921994     -0.503240
      4.38708      7.39576      6.90696        -0.268619     -0.728467     -2.661273
     -1.35710      2.50297      0.10456         0.377750      0.764347     -0.182026
     -1.28068      2.36478      3.64335         2.110066     -0.192132     -8.396886
     -1.06672      2.91645      6.67836        -2.053742     -3.043693      1.894791
     -2.81527      5.23503     10.08535         0.633126      1.944117     15.126418
     -2.83291      5.05629      3.52533        -0.413298      0.818230     -1.256408
     -2.91695      5.20922      6.78822        -0.240042     -0.022642      6.878434
      2.57268      0.23004     10.28324         0.365769     -0.815525     -0.187594
     -1.50404      7.55062      3.41731         2.206609      0.648527     17.796179
     -1.30405      7.56086      6.88311         0.639778      0.118335     -2.506667
      1.30938      2.79845      0.04921        -0.308401     -0.921628     -1.318555
      1.29702      2.23649      3.53268        -0.480477     -1.369056     -7.762221
      1.60703      2.59550      7.13386         7.789355      3.541131    -25.903099
     -0.04382      5.10673      0.14863        -0.002300      0.048470     -2.092022
     -0.18071      5.05583      3.65291         0.304653      0.547529     -3.244221
     -0.21112      4.81970      6.83578        -0.422787     -0.051262     -5.331197
      1.20303      7.33717     10.19422         0.338777      0.131541      0.640222
      1.49657      7.26687      3.86212        -3.218517     -3.158316    -24.027261
      5.43651      0.21963      6.78178         0.556012      0.134328     -3.540354
      4.28142      2.57412      0.30020        -0.055961      0.081494     -2.781209
      4.32045      2.43879      3.59549        -0.052724      0.013280      1.363020
      4.31440      2.63880      6.89054        -0.623666      0.231165      4.520314
      3.11562      4.98034      0.08842        -0.757703     -0.354428     -4.804363
      2.88671      4.87100      3.43224         0.139969      0.084338     -0.670962
      3.06315      4.91348      6.83439        -0.425100     -0.429034     -0.091164
      4.30645      7.47830      1.67240         0.653831      0.528893      0.077292
      4.09475      7.28929      5.21645         1.615934      0.818526     -0.876400
      8.53613      0.31111      8.41896         0.586095     -0.769663      3.698201
     -1.19397      2.84466      1.97236        -0.674999     -1.565848     -1.536875
      7.10735      2.56932      5.08006        -1.239548      0.415356      7.824912
      7.21545      2.40394      8.61769         0.838335      0.825060      0.672448
     -2.84989      5.25447      1.65091         0.214488     -0.680442     -0.286840
      5.70929      5.10309      5.25706         0.282011     -0.451471     -6.436685
      5.83917      5.01154      8.66722        -0.700988     -1.269569    -13.756151
     -1.70657      7.53023      2.03092        -1.887013      0.228631    -17.685817
      3.03699      0.26176      5.35305        -0.269081     -0.333627     -6.370710
     -1.59752      7.44737      8.35517        -1.341172      0.101004      9.229491
      1.47597      2.39674      1.69689        -0.238455     -0.148607      1.225793
      1.55405      2.77976      4.92886         0.637137      1.209568      7.216495
      1.17376      2.42689      8.38784        -7.498190     -2.585097     25.939831
      0.08831      5.13199      1.80184        -0.406333     -0.085156      2.321461
     -0.27798      4.75056      5.27714         0.393409      0.398776     -3.913087
     -0.04725      5.18326      8.23773         1.227468      1.977757     11.869296
      1.49752      7.26997      1.89182        -0.613197      0.419569     -0.042514
      1.71672      7.45717      5.19863         1.743271      3.461600     21.226758
      1.21205      7.58732      8.33555         0.231397     -0.524614      5.775185
      4.50223      2.54138      1.96258        -0.200970     -0.203432     -0.695861
      4.28273      2.37208      5.33628         0.496055      0.086364     -4.427620
      4.25781      2.72275      8.59496         0.280752     -0.406644      1.833705
      2.99384      4.91182      1.66930        -0.064205     -0.009546      4.268733
      2.87035      4.89733      5.15226         0.478844      0.204795     -0.585846
      2.65066      4.83857      8.46776         1.158629      0.756930      2.147084
    total drift:                               -0.006969      0.008543      0.002044

  FREE ENERGIE OF THE ION-ELECTRON SYSTEM (eV)
  free  energy   TOTEN  =      -293.2599815052 eV

  energy  without entropy=     -293.1891481601  energy(sigma->0) =     -293.22456483

volume of typ            1:    25.0 %

volume of typ            2:     6.4 %

total charge

# of ion       s       p       d       tot
    1        0.254   0.217   7.911   8.381
    2        0.247   0.218   7.910   8.375
    3        0.310   0.330   7.923   8.562
    4        0.232   0.187   7.898   8.317
    5        0.341   0.400   7.955   8.696
    6        0.249   0.220   7.979   8.448
    7        0.367   0.399   7.953   8.719
    8        0.241   0.214   7.930   8.385
    9        0.307   0.321   7.968   8.596
   10        0.193   0.130   7.961   8.284
   11        0.371   0.410   8.008   8.790
   12        0.399   0.514   7.956   8.869
   13        0.246   0.212   7.945   8.402
   14        0.343   0.368   7.924   8.635
   15        0.397   0.420   8.087   8.904
   16        0.258   0.207   7.941   8.406
   17        0.271   0.256   7.947   8.474
   18        0.448   0.571   7.994   9.013
   19        0.214   0.147   7.918   8.279
   20        0.384   0.426   8.040   8.850
   21        0.309   0.339   7.962   8.611
   22        0.249   0.206   7.945   8.399
   23        0.288   0.290   7.939   8.517
   24        0.335   0.372   7.917   8.624
   25        0.282   0.267   7.934   8.483
   26        0.262   0.247   7.941   8.449
   27        0.297   0.316   7.909   8.522
   28        1.277   2.688   0.006   3.970
   29        1.275   2.725   0.007   4.007
   30        1.276   2.745   0.010   4.032
   31        1.274   2.711   0.006   3.991
   32        1.282   2.804   0.018   4.104
   33        1.283   2.653   0.004   3.939
   34        1.272   2.687   0.004   3.962
   35        1.275   2.788   0.015   4.078
   36        1.282   2.812   0.019   4.113
   37        1.298   2.785   0.021   4.104
   38        1.274   2.776   0.011   4.060
   39        1.282   2.770   0.014   4.066
   40        1.273   2.721   0.007   4.002
   41        1.287   2.748   0.012   4.047
   42        1.303   2.828   0.028   4.160
   43        1.277   2.715   0.008   4.000
   44        1.273   2.821   0.016   4.111
   45        1.291   2.769   0.016   4.076
   46        1.278   2.646   0.002   3.926
   47        1.295   2.857   0.029   4.181
   48        1.275   2.748   0.011   4.034
   49        1.270   2.770   0.012   4.052
   50        1.272   2.790   0.013   4.075
   51        1.273   2.702   0.005   3.981
   52        1.274   2.762   0.012   4.049
   53        1.270   2.756   0.010   4.036
   54        1.274   2.717   0.006   3.998
tot          42.63   82.50  215.02  340.15

magnetization (x)

# of ion       s       p       d       tot
    1        0.007   0.001   0.711   0.719
    2        0.002  -0.002   0.763   0.763
    3        0.013   0.004   0.607   0.624
    4       -0.012   0.001  -0.829  -0.840
    5        0.008   0.002   0.428   0.438
    6        0.003   0.004  -0.071  -0.065
    7        0.013   0.002   0.845   0.860
    8       -0.002  -0.002  -0.353  -0.358
    9       -0.009  -0.004  -0.493  -0.506
   10       -0.001  -0.002   0.695   0.692
   11        0.013   0.015   0.787   0.816
   12        0.010  -0.000   0.582   0.592
   13        0.003  -0.000   0.379   0.381
   14        0.006   0.000   0.827   0.833
   15        0.022   0.024   0.751   0.797
   16        0.002   0.002   0.884   0.888
   17        0.002  -0.002   0.112   0.112
   18       -0.003   0.000  -0.408  -0.411
   19        0.004  -0.002   0.924   0.926
   20       -0.011  -0.009  -0.266  -0.285
   21       -0.003   0.001   0.335   0.334
   22       -0.004  -0.004  -0.248  -0.256
   23       -0.006   0.000  -0.419  -0.425
   24        0.008  -0.003   0.635   0.639
   25        0.009   0.002   0.779   0.790
   26       -0.001   0.000   0.025   0.024
   27       -0.012   0.002  -0.674  -0.684
   28        0.011   0.421   0.000   0.432
   29        0.006   0.214   0.000   0.220
   30        0.006   0.196   0.000   0.202
   31       -0.001  -0.036   0.000  -0.037
   32        0.003   0.146   0.000   0.150
   33       -0.010  -0.382   0.000  -0.392
   34        0.006   0.261  -0.000   0.267
   35       -0.008  -0.272   0.000  -0.279
   36        0.007   0.288   0.001   0.295
   37        0.010   0.438   0.001   0.449
   38        0.004   0.144   0.001   0.149
   39        0.007   0.255   0.000   0.262
   40        0.007   0.234   0.000   0.241
   41        0.008   0.329   0.001   0.338
   42        0.008   0.348   0.002   0.358
   43        0.011   0.412   0.000   0.423
   44       -0.003  -0.105  -0.000  -0.108
   45       -0.003  -0.145  -0.001  -0.148
   46        0.008   0.314  -0.000   0.322
   47       -0.002  -0.101  -0.000  -0.103
   48        0.007   0.267  -0.000   0.274
   49       -0.006  -0.220   0.000  -0.226
   50        0.003   0.116   0.000   0.119
   51        0.007   0.261   0.000   0.267
   52        0.008   0.333  -0.000   0.341
   53       -0.006  -0.229   0.000  -0.235
   54       -0.003  -0.122  -0.000  -0.125
tot           0.15    3.39    7.31   10.85