 vasp.5.4.4.18Apr17-6-g9f103f2a35 (build May 12 2020 04:58:55) complex

 MD_VERSION_INFO: Compiled 2020-05-12T11:58:55-UTC in devlin.sd.materialsdesign.
 com:/home/medea2/data/build/wwolf/vasp-gpu5.4.4/13047/x86_64/src/src/build/std
 from svn 13047

 executed on                        Lin64 date 2023.03.24  04:23:24

 INCAR:
 POTCAR:    PAW_PBE Ni 02Aug2007
 POTCAR:    PAW_PBE O 08Apr2002

 POTCAR:    PAW_PBE Ni 02Aug2007

 POTCAR:    PAW_PBE O 08Apr2002

 Optimization of the real space projectors (new method)

 maximal supplied QI-value         = 16.25
 optimisation between [QCUT,QGAM] = [ 11.38, 22.75] = [ 36.24,144.96] Ry
 Optimized for a Real-space Cutoff    1.47 Angstroem

   l    n(q)    QCUT    max X(q) W(low)/X(q) W(high)/X(q)  e(spline)
   2      9    11.376    60.317    0.17E-03    0.16E-04    0.16E-06
   2      9    11.376    55.921    0.17E-03    0.16E-04    0.17E-06
   0     10    11.376    51.690    0.45E-04    0.60E-04    0.21E-06
   0     10    11.376    30.015    0.37E-04    0.55E-04    0.19E-06
   1     10    11.376    18.849    0.83E-04    0.11E-03    0.92E-07
   1     10    11.376    14.624    0.69E-04    0.92E-04    0.82E-07
 Optimization of the real space projectors (new method)

 maximal supplied QI-value         = 24.76
 optimisation between [QCUT,QGAM] = [ 11.39, 22.77] = [ 36.31,145.25] Ry
 Optimized for a Real-space Cutoff    1.10 Angstroem

   l    n(q)    QCUT    max X(q) W(low)/X(q) W(high)/X(q)  e(spline)
   0      7    11.387    20.381    0.22E-03    0.48E-03    0.18E-06
   0      7    11.387    15.268    0.22E-03    0.52E-03    0.19E-06
   1      7    11.387     5.964    0.22E-03    0.73E-03    0.24E-06
   1      7    11.387     5.382    0.19E-03    0.60E-03    0.21E-06

  PAW_PBE Ni 02Aug2007                  :
  PAW_PBE O 08Apr2002                   :

 POSCAR: NiO_Cmmm_scale_1_000_disp_0_15_round_2
  positions in direct lattice
 exchange correlation table for  LEXCH =       14
   RHO(1)=    0.500       N(1)  =     2000
   RHO(2)=  100.500       N(2)  =     4000

 ion  position               nearest neighbor table
   1  0.984  0.971  0.016-  28 1.42  30 1.76  19 2.59  25 2.69   7 2.79   4 2.81  13 3.00  10 3.03

   2  0.005  0.978  0.342-  29 1.62  28 1.98   8 2.36  26 2.72  11 2.80  14 2.86
   3  0.017  0.015  0.651-  29 1.61  30 2.04   6 2.36  15 2.65  21 2.74  12 2.80  27 2.92   9 3.02

[...]

  18  0.346  0.671  0.661-  45 1.72  44 1.78  15 2.89  12 3.03  27 3.04  21 3.05
  19  0.694  0.980  0.000-  46 1.90  48 2.06   1 2.59  25 2.80   4 2.83
  20  0.638  0.995  0.334-  46 1.62  47 1.76  11 2.70  17 2.80  26 2.85
  21  0.703  0.008  0.673-  48 1.41  47 1.81   6 2.62   3 2.74  27 2.88  18 3.05
  22  0.647  0.322  0.002-  51 1.63  49 1.74  10 2.78  25 2.80  13 3.01   7 3.04
  23  0.680  0.389  0.329-  50 1.82  49 1.83  26 2.67   8 2.81  14 3.02
  24  0.660  0.350  0.686-  51 1.64  50 1.99   9 2.71  27 2.73  12 2.94  15 2.99
  25  0.686  0.657  0.023-  52 1.49  54 2.18   1 2.69   7 2.74  22 2.80  19 2.80  16 3.07
  26  0.677  0.691  0.343-  53 1.61  52 1.89  23 2.67   2 2.72   8 2.79  20 2.85  17 2.94
  27  0.694  0.675  0.663-  54 1.58  53 1.79   9 2.57  24 2.73  21 2.88   3 2.92  18 3.04
  28  0.991  0.990  0.152-   1 1.42   2 1.98
  29  0.991  0.001  0.497-   3 1.61   2 1.62
  30  0.025  0.015  0.849-   1 1.76   3 2.04
  31  0.966  0.321  0.172-   4 1.57   5 1.78
  32  0.999  0.312  0.500-   5 1.69   6 1.72
  33  0.990  0.316  0.831-   6 1.80   4 2.04
  34  0.987  0.678  0.157-   7 1.65   8 1.75
  35  0.973  0.629  0.506-   9 1.78   8 1.96
  36  0.002  0.652  0.841-   7 1.63   9 1.71
  37  0.326  0.970  0.173-  11 1.50  10 1.93
  38  0.356  0.960  0.501-  12 1.85  11 1.93
  39  0.357  0.015  0.833-  10 1.59  12 1.68
  40  0.354  0.356  0.164-  13 1.65  14 1.82
  41  0.360  0.353  0.511-  15 1.73  14 1.84
  42  0.347  0.350  0.816-  15 1.49  13 2.01
  43  0.331  0.660  0.179-  17 1.70  16 1.96
  44  0.333  0.696  0.491-  17 1.54  18 1.78
  45  0.338  0.673  0.827-  18 1.72  16 1.78
  46  0.691  0.010  0.182-  20 1.62  19 1.90
  47  0.680  0.984  0.499-  20 1.76  21 1.81
  48  0.677  0.023  0.806-  21 1.41  19 2.06
  49  0.646  0.291  0.168-  22 1.74  23 1.83
  50  0.679  0.322  0.496-  23 1.82  24 1.99
  51  0.650  0.344  0.845-  22 1.63  24 1.64
  52  0.652  0.674  0.162-  25 1.49  26 1.89
  53  0.720  0.668  0.492-  26 1.61  27 1.79
  54  0.708  0.699  0.814-  27 1.58  25 2.18

  LATTYP: Found a hexagonal cell.
 ALAT       =     8.7745200035
 C/A-ratio  =     1.1769065426

  Lattice vectors:

 A1 = (   8.7745200000,   0.0000000000,   0.0000000000)
 A2 = (  -4.3872600000,   7.5989572300,   0.0000000000)
 A3 = (   0.0000000000,   0.0000000000,  10.3267900000)

Analysis of symmetry for initial positions (statically):
 Subroutine PRICEL returns:
 Original cell was already a primitive cell.

 Routine SETGRP: Setting up the symmetry group for a
 hexagonal supercell.

 Subroutine GETGRP returns: Found  1 space group operations
 (whereof  1 operations were pure point group operations)
 out of a pool of 24 trial point group operations.

The static configuration has the point symmetry C_1 .

Analysis of symmetry for dynamics (positions and initial velocities):
 Subroutine PRICEL returns:
 Original cell was already a primitive cell.

[...]

The dynamic configuration has the point symmetry C_1 .

Analysis of structural, dynamic, and magnetic symmetry:
 Subroutine PRICEL returns:
 Original cell was already a primitive cell.

 Routine SETGRP: Setting up the symmetry group for a
 hexagonal supercell.

 Subroutine GETGRP returns: Found  1 space group operations
 (whereof  1 operations were pure point group operations)
 out of a pool of 24 trial point group operations.

The magnetic configuration has the point symmetry C_1 .

 Subroutine INISYM returns: Found  1 space group operations
 (whereof  1 operations are pure point group operations),
 and found     1 'primitive' translations

 KPOINTS: Automatic mesh

Automatic generation of k-mesh.
Space group operators:
 irot       det(A)        alpha          n_x          n_y          n_z        tau_x        tau_y        tau_z
    1     1.000000     0.000000     1.000000     0.000000     0.000000     0.000000     0.000000     0.000000

 Subroutine IBZKPT returns following result:

 Found     26 irreducible k-points:

 Following reciprocal coordinates:
            Coordinates               Weight
  0.000000  0.000000  0.000000      1.000000
  0.250000  0.000000  0.000000      2.000000
  0.500000  0.000000  0.000000      1.000000
  0.000000  0.250000  0.000000      2.000000
  0.250000  0.250000  0.000000      2.000000
  0.500000  0.250000  0.000000      2.000000
 -0.250000  0.250000  0.000000      2.000000
  0.000000  0.500000  0.000000      1.000000
  0.250000  0.500000  0.000000      2.000000
  0.500000  0.500000  0.000000      1.000000
  0.000000  0.000000  0.333333      2.000000
  0.250000  0.000000  0.333333      2.000000
  0.500000  0.000000  0.333333      2.000000
 -0.250000 -0.000000  0.333333      2.000000
  0.000000  0.250000  0.333333      2.000000
  0.250000  0.250000  0.333333      2.000000
  0.500000  0.250000  0.333333      2.000000
 -0.250000  0.250000  0.333333      2.000000
  0.000000  0.500000  0.333333      2.000000
  0.250000  0.500000  0.333333      2.000000
  0.500000  0.500000  0.333333      2.000000
 -0.250000  0.500000  0.333333      2.000000
  0.000000 -0.250000  0.333333      2.000000
  0.250000 -0.250000  0.333333      2.000000
  0.500000 -0.250000  0.333333      2.000000
 -0.250000 -0.250000  0.333333      2.000000

 Following cartesian coordinates:
            Coordinates               Weight
  0.000000  0.000000  0.000000      1.000000
  0.028492  0.016450  0.000000      2.000000
  0.056983  0.032899  0.000000      1.000000
  0.000000  0.032899  0.000000      2.000000
  0.028492  0.049349  0.000000      2.000000
  0.056983  0.065799  0.000000      2.000000
 -0.028492  0.016450  0.000000      2.000000
  0.000000  0.065799  0.000000      1.000000
  0.028492  0.082248  0.000000      2.000000
  0.056983  0.098698  0.000000      1.000000
  0.000000  0.000000  0.032279      2.000000
  0.028492  0.016450  0.032279      2.000000
  0.056983  0.032899  0.032279      2.000000
 -0.028492 -0.016450  0.032279      2.000000
  0.000000  0.032899  0.032279      2.000000
  0.028492  0.049349  0.032279      2.000000
  0.056983  0.065799  0.032279      2.000000
 -0.028492  0.016450  0.032279      2.000000
  0.000000  0.065799  0.032279      2.000000
  0.028492  0.082248  0.032279      2.000000
  0.056983  0.098698  0.032279      2.000000
 -0.028492  0.049349  0.032279      2.000000
  0.000000 -0.032899  0.032279      2.000000
  0.028492 -0.016450  0.032279      2.000000
  0.056983  0.000000  0.032279      2.000000
 -0.028492 -0.049349  0.032279      2.000000

 SYSTEM =  unknown system
 POSCAR =  NiO_Cmmm_scale_1_000_disp_0_15_round_2

 Startparameter for this run:
   NWRITE =      1    write-flag & timer
   PREC   = accura    normal or accurate (medium, high low for compatibility)
   ISTART =      0    job   : 0-new  1-cont  2-samecut
   ICHARG =      2    charge: 1-file 2-atom 10-const
   ISPIN  =      2    spin polarized calculation?
   LNONCOLLINEAR =      F non collinear calculations
   LSORBIT =      F    spin-orbit coupling
   INIWAV =      1    electr: 0-lowe 1-rand  2-diag
   LASPH  =      F    aspherical Exc in radial PAW
   METAGGA=      F    non-selfconsistent MetaGGA calc.

 Electronic Relaxation 1
   ENCUT  =  500.0 eV  36.75 Ry    6.06 a.u.  16.00 16.00 18.83*2*pi/ulx,y,z
   ENINI  =  500.0     initial cutoff
   ENAUG  =  605.4 eV  augmentation charge cutoff
   NELM   =     80;   NELMIN=  2; NELMDL= -5     # of ELM steps
   EDIFF  = 0.1E-04   stopping-criterion for ELM
   LREAL  =      T    real-space projection
   NLSPLINE    = F    spline interpolate recip. space projectors
   LCOMPAT=      F    compatible to vasp.4.4
   GGA_COMPAT  = T    GGA compatible to vasp.4.4-vasp.4.6
   LMAXPAW     = -100 max onsite density
   LMAXMIX     =    2 max onsite mixed and CHGCAR
   VOSKOWN=      1    Vosko Wilk Nusair interpolation
   ROPT   =   -0.00025  -0.00025
 Ionic relaxation
   EDIFFG = 0.1E-03   stopping-criterion for IOM
   NSW    =      0    number of steps for IOM
   NBLOCK =      1;   KBLOCK =      1    inner block; outer block
   IBRION =     -1    ionic relax: 0-MD 1-quasi-New 2-CG
   NFREE  =      0    steps in history (QN), initial steepest desc. (CG)
   ISIF   =      2    stress and relaxation
   IWAVPR =     10    prediction:  0-non 1-charg 2-wave 3-comb
   ISYM   =      2    0-nonsym 1-usesym 2-fastsym
   LCORR  =      T    Harris-Foulkes like correction to forces

   POTIM  = 0.5000    time-step for ionic-motion
   TEIN   =    0.0    initial temperature
   TEBEG  =    0.0;   TEEND  =   0.0 temperature during run
   SMASS  =  -3.00    Nose mass-parameter (am)
   estimated Nose-frequenzy (Omega)   =  0.10E-29 period in steps =****** mass=  -0.176E-26a.u.
   SCALEE = 1.0000    scale energy and forces
   NPACO  =    256;   APACO  = 16.0  distance and # of slots for P.C.
   PSTRESS=    0.0 pullay stress

  Mass of Ions in am
   POMASS =  58.69 16.00
  Ionic Valenz
   ZVAL   =  10.00  6.00
[...]
   -.117E+03 0.918E+02 -.139E+03   0.118E+03 -.914E+02 0.144E+03   -.206E+00 -.442E+00 -.142E+00   -.124E+00 -.400E-02 0.160E+00
   0.569E+02 -.393E+02 0.149E+03   -.554E+02 0.400E+02 -.153E+03   -.838E+00 -.736E+00 -.141E+01   -.582E-01 -.695E-03 -.463E-01
   0.615E+02 -.466E+02 0.279E+02   -.600E+02 0.459E+02 -.281E+02   -.138E+01 0.268E+00 -.614E+00   -.360E-01 0.530E-01 -.109E-01
   0.113E+03 -.155E+03 -.423E+02   -.114E+03 0.156E+03 0.446E+02   -.722E+00 0.106E+00 -.942E+00   -.145E+00 -.759E-01 0.804E-02
   -.116E+03 0.719E+02 0.253E+02   0.115E+03 -.715E+02 -.252E+02   -.138E-01 -.112E+00 0.731E+00   0.385E-01 -.243E-01 0.279E-01
   -.104E+03 0.952E+02 -.632E+02   0.104E+03 -.959E+02 0.639E+02   0.578E+00 -.903E+00 0.540E+00   0.298E-01 -.686E-01 -.267E-01
   -.134E+03 0.672E+00 0.627E+01   0.134E+03 -.851E+00 -.811E+01   0.417E+00 -.169E+00 0.445E+00   0.471E-01 0.118E-01 -.826E-02
   -.557E+02 0.452E+02 -.108E+03   0.556E+02 -.448E+02 0.111E+03   0.170E+00 -.693E+00 0.191E+01   0.114E+00 -.680E-01 -.303E-01
   0.939E+01 -.154E+03 -.152E+03   -.101E+02 0.154E+03 0.161E+03   0.888E+00 0.131E+00 0.175E+00   0.796E-01 -.509E-01 -.542E-01
   -.610E+01 0.111E+02 0.792E+02   0.650E+01 -.118E+02 -.824E+02   0.199E+00 0.325E+00 0.121E+01   0.134E+00 -.359E-01 0.912E-01
   -.659E+02 0.618E+02 0.983E+02   0.651E+02 -.606E+02 -.985E+02   0.115E+01 -.914E+00 -.235E+01   -.502E-01 0.875E-01 -.167E-01
   -.629E+02 0.491E+02 -.144E+02   0.625E+02 -.483E+02 0.151E+02   0.943E+00 0.428E-01 -.757E+00   0.125E-01 0.836E-01 0.860E-04
   -.551E+02 -.297E+02 0.106E+03   0.533E+02 0.282E+02 -.116E+03   0.119E+01 0.945E+00 0.105E+01   -.114E-01 0.183E-01 0.170E-01
   0.243E+02 -.980E+02 -.279E+01   -.247E+02 0.982E+02 0.207E+01   -.215E-01 0.839E+00 0.163E+01   0.163E-02 0.927E-01 0.313E-01
   -.992E+01 0.761E+02 0.610E+02   0.105E+02 -.778E+02 -.680E+02   -.434E+00 0.970E+00 0.112E+01   0.192E-01 0.311E-01 -.314E-01
   0.111E+02 0.827E+01 -.170E+02   -.115E+02 -.846E+01 0.180E+02   -.333E-01 0.416E+00 -.134E+01   0.408E-01 0.129E+00 0.302E-01
   0.153E+03 0.306E+02 0.808E+02   -.153E+03 -.294E+02 -.783E+02   -.716E+00 -.435E+00 -.214E+01   -.570E-01 -.251E-01 -.143E+00
   0.828E+02 -.977E+02 -.414E+02   -.814E+02 0.967E+02 0.444E+02   -.918E+00 0.396E+00 -.335E+00   -.149E-01 -.447E-01 -.149E-01
   0.839E+02 0.203E+02 0.119E+03   -.804E+02 -.221E+02 -.137E+03   -.664E+00 0.141E+00 0.144E+01   -.101E+00 0.692E-03 0.289E+00
   -.522E+02 0.340E+02 -.450E+02   0.517E+02 -.341E+02 0.483E+02   0.297E+00 -.248E+00 -.114E+01   0.774E-01 -.318E-01 -.348E-02
   0.140E+02 0.472E+02 0.264E+01   -.132E+02 -.505E+02 -.139E+01   -.284E+00 0.186E+01 -.679E+00   0.190E-01 0.172E-01 -.357E-01
   -.438E+02 0.725E+02 0.129E+03   0.441E+02 -.720E+02 -.132E+03   0.797E-01 -.716E+00 -.112E+01   0.617E-01 -.112E+00 0.309E-01
   0.247E+02 0.953E+02 0.243E+03   -.233E+02 -.952E+02 -.250E+03   0.610E+00 -.165E+00 -.316E+01   -.664E-01 0.716E-01 -.252E-01
   0.142E+03 0.407E+02 0.728E+02   -.141E+03 -.413E+02 -.745E+02   -.826E+00 0.324E+00 -.209E+01   -.621E-01 -.177E-02 -.489E-01
   0.131E+03 0.553E+02 0.404E+02   -.130E+03 -.558E+02 -.431E+02   0.870E-01 0.194E+00 -.128E+01   -.105E+00 0.121E+00 0.818E-01
   -.120E+02 -.770E+02 -.196E+03   0.109E+02 0.819E+02 0.228E+03   0.139E+01 -.383E+01 -.147E+02   -.439E-01 -.194E-01 -.185E-01
   -.699E+01 -.194E+02 0.157E+02   -.462E+00 0.200E+02 -.169E+02   0.748E+01 -.702E+00 0.840E+00   -.792E-01 -.236E-01 -.134E-01
   -.365E+02 -.393E+01 0.573E+02   0.389E+02 0.719E+01 -.640E+02   -.252E+01 -.403E+01 0.568E+01   -.677E-01 -.130E-01 0.307E-01
   0.111E+03 -.352E+02 -.715E+02   -.123E+03 0.358E+02 0.813E+02   0.127E+02 0.282E+00 -.465E+01   -.245E-01 0.137E-01 -.740E-01
   0.831E+02 -.501E+02 0.257E+01   -.895E+02 0.498E+02 -.144E+01   0.682E+01 0.476E+00 -.103E+01   -.447E-01 -.137E-01 0.946E-01
   0.825E+02 -.737E+02 -.621E+02   -.885E+02 0.770E+02 0.674E+02   0.699E+01 -.349E+01 -.484E+01   -.292E-01 -.728E-01 0.584E-02
   -.401E+02 0.683E+02 -.182E+02   0.390E+02 -.693E+02 0.223E+02   0.143E+01 0.103E+01 -.250E+01   0.189E-01 -.246E-01 -.517E-01
   -.885E+02 0.598E+02 0.188E+02   0.901E+02 -.660E+02 -.238E+02   -.147E+01 0.773E+01 0.503E+01   0.309E-01 -.169E-01 -.482E-01
   -.800E+02 0.211E+02 0.376E+02   0.834E+02 -.222E+02 -.418E+02   -.353E+01 0.115E+01 0.221E+01   0.259E-01 0.112E-01 0.108E+00
   -.373E+02 -.197E+02 0.170E+03   0.392E+02 0.176E+02 -.191E+03   -.215E+01 0.261E+01 0.113E+02   0.541E-01 -.411E-01 -.588E-01
   -.473E+01 -.508E+02 -.180E+02   0.110E+02 0.475E+02 0.169E+02   -.824E+01 0.465E+01 0.578E+00   0.491E-01 -.825E-02 0.847E-01
   -.471E+02 0.170E+02 0.276E+02   0.500E+02 -.150E+02 -.331E+02   -.334E+01 -.185E+01 0.291E+01   0.865E-01 -.354E-01 -.821E-01
   -.703E+02 -.429E+01 -.685E+02   0.777E+02 0.978E+01 0.757E+02   -.797E+01 -.653E+01 -.480E+01   -.303E-02 0.579E-01 0.881E-02
   -.891E+02 -.298E+02 0.555E+02   0.963E+02 0.343E+02 -.595E+02   -.827E+01 -.545E+01 0.276E+01   0.112E-01 0.329E-01 -.414E-01
   -.635E+02 -.615E+02 -.172E+03   0.706E+02 0.667E+02 0.195E+03   -.657E+01 -.479E+01 -.131E+02   -.966E-02 0.236E-01 0.528E-01
   0.154E+02 -.236E+02 0.110E+03   -.153E+02 0.259E+02 -.118E+03   0.850E-03 -.303E+01 0.710E+01   0.115E-01 0.186E-01 -.764E-01
   0.254E+02 0.776E+01 -.123E+03   -.291E+02 -.259E+01 0.136E+03   0.415E+01 -.572E+01 -.710E+01   0.149E-01 0.255E-01 -.468E-01
   0.173E+02 -.596E+02 -.321E+02   -.193E+02 0.637E+02 0.345E+02   0.238E+01 -.499E+01 -.192E+01   0.379E-01 0.534E-01 0.131E+00
   0.188E+02 -.320E+02 0.926E+02   -.145E+02 0.357E+02 -.103E+03   -.437E+01 -.406E+01 0.675E+01   -.227E-01 -.385E-01 -.979E-01
   0.282E+02 -.138E+02 -.121E+02   -.257E+02 0.126E+02 0.137E+02   -.284E+01 0.163E+01 -.710E+00   -.292E-01 0.423E-02 0.167E+00
   0.112E+03 -.190E+02 -.229E+03   -.123E+03 0.241E+02 0.263E+03   0.772E+01 -.443E+01 -.168E+02   0.483E-01 -.584E-01 -.182E+00
   -.140E+02 0.684E+02 -.384E+02   0.163E+02 -.773E+02 0.425E+02   -.285E+01 0.106E+02 -.364E+01   0.250E-01 -.888E-03 -.387E-01
   -.219E+02 0.914E+02 -.299E+02   0.265E+02 -.962E+02 0.330E+02   -.554E+01 0.585E+01 -.243E+01   0.415E-01 -.319E-01 -.671E-01
   -.216E+02 0.263E+01 -.358E+01   0.202E+02 -.174E+01 0.292E+01   0.153E+01 -.665E+00 0.477E+00   0.394E-01 -.556E-01 0.151E+00
   0.951E+02 0.210E+02 -.113E+03   -.105E+03 -.195E+02 0.133E+03   0.813E+01 -.852E+00 -.103E+02   -.421E-01 0.291E-01 -.197E-01
   -.158E+01 0.662E+02 -.665E+02   0.108E+02 -.687E+02 0.743E+02   -.102E+02 0.234E+01 -.476E+01   -.516E-01 0.126E-01 -.522E-01
   0.506E+02 -.131E+02 -.166E+03   -.503E+02 0.169E+02 0.185E+03   -.818E+00 -.425E+01 -.142E+02   -.650E-01 0.801E-01 0.446E-01
   0.116E+02 0.177E+02 0.696E+02   -.213E-13 0.263E-12 0.568E-13   -.113E+02 -.177E+02 -.696E+02   -.318E+00 0.793E-02 -.476E-01

 POSITION                                       TOTAL-FORCE (eV/Angst)
      4.37347      7.37945      0.16227         0.158634     -0.352954    -16.672010
     -4.24944      7.43341      3.53620         0.241173      0.485986     -3.647773
      0.08816      0.11285      6.72579         0.709317     -0.054541      4.542293
     -1.23439      2.30967      0.27900         0.639419     -0.073518     -6.246261
     -1.30540      2.62733      3.49669         0.070081     -0.443792     -0.885900
     -1.08753      2.15946      6.84933        -1.094611      0.839781      1.328616
      5.86496      5.02836     10.31497        -0.390334      0.252498      0.821574
     -3.09103      5.38192      3.35712         0.256029     -1.586118      1.169953
      5.69244      4.96192      6.99636         0.416622     -0.335906     -1.402268
     -1.39761      7.57859     10.18562         0.138284     -0.377304      5.075874
     -1.46053      7.41420      3.28427         0.278592     -0.234976      9.479417
      2.87759      0.07355      6.93781         0.727247     -0.403667     -1.915583
      1.25600      2.49223      0.08134         0.266113      0.358774     -2.477801
      1.28549      2.45117      3.48280         0.563502      0.918391     -0.025434
      1.27512      2.46939      6.96745        -0.553794     -0.517033     -9.276564
      0.09369      4.65057     10.25296        -0.381118      1.111347      0.950635
     -0.03256      5.06856      3.54569         0.157471     -0.649357     -5.915184
      0.09063      5.09824      6.82102        -0.376338      0.357806     -0.298059
      1.79253      7.44690      0.00018        -0.333032      0.770771      0.219819
      1.23258      7.56384      3.44806         0.507917     -0.597335      2.635077
      6.13171      0.05760      6.94954         2.684419     -1.665591    -16.866517
      4.26504      2.44807      0.01922        -0.160310     -0.353290      2.167760
      4.25932      2.95705      3.40152         0.511142     -1.461250      0.539573
      4.25934      2.66021      7.08340         0.370702     -0.285050     -3.665109
      3.13311      4.99509      0.23822         1.956075      0.033035    -10.064794
      2.90471      5.25442      3.54674         0.014370     -0.230722     -3.867340
      3.12767      5.12934      6.84287         0.917483     -0.102612     -3.880814
      4.35136      7.52529      1.57083         0.189689      1.065373     17.228279
      8.69029      0.00433      5.12878        -0.044944     -0.109116     -0.412633
      0.15840      0.11216      8.76533        -0.186365     -0.788756     -0.947708
      7.07232      2.43605      1.77176         0.076144      0.857916      5.043783
      7.39548      2.36968      5.16695         0.407746      0.242279      0.187986
      7.29748      2.39998      8.58512         0.988141     -0.319621      0.442623
      5.68689      5.15524      1.62533         0.347414      0.010357      1.529775
      5.77767      4.77751      5.22333         0.104304      1.508384      0.009622
     -2.84432      4.95609      8.68898        -0.115910      0.056497     -1.920341
     -1.38973      7.36903      1.78191        -0.139039      0.495128     -9.340571
     -1.08502      7.29310      5.17757        -1.901665      1.349371     -0.462403
      3.06742      0.11406      8.60735        -0.413859      0.131900     -2.721397
      1.54273      2.70696      1.69642        -0.539273     -0.970227      2.477614
      1.60944      2.68399      5.28072        -1.051293     -0.889318     -1.252808
      1.51185      2.66243      8.42152         0.552572      0.436644     10.391743
      0.01033      5.01350      1.85157         0.145512     -0.808683     -1.584078
     -0.13252      5.29058      5.06641         0.520313     -0.519517      6.364212
      0.01562      5.11273      8.53556         0.415086     -0.764694      0.623943
      6.01895      0.07620      1.88310        -0.101004     -0.467813     -3.571597
      1.65121      7.47576      5.15507        -0.358529      0.486197      0.998187
      5.84018      0.17835      8.32496        -2.380197      0.660896     16.605479
      4.38775      2.21331      1.73781        -0.492141      1.646436      0.414813
      4.54613      2.44974      5.12665        -0.900564      1.022062      0.649023
      4.19749      2.61061      8.72286         0.160811      0.173507     -0.029034
      2.76187      5.11999      1.67177        -1.904338      0.651331      9.847505
      3.38616      5.07932      5.07614        -1.124190     -0.199506      3.000283
      3.14788      5.31081      8.40893        -0.549478     -0.360401      4.604518
    total drift:                               -0.007519     -0.003344     -0.002564

  FREE ENERGIE OF THE ION-ELECTRON SYSTEM (eV)
  free  energy   TOTEN  =      -302.0343991962 eV

  energy  without entropy=     -301.9666414403  energy(sigma->0) =     -302.00052032

volume of typ            1:    25.0 %

volume of typ            2:     6.4 %

total charge

# of ion       s       p       d       tot
    1        0.387   0.478   7.967   8.833
    2        0.281   0.266   7.966   8.514
    3        0.285   0.270   7.955   8.509
    4        0.297   0.283   7.939   8.519
    5        0.271   0.264   7.931   8.466
    6        0.289   0.289   7.904   8.482
    7        0.323   0.350   7.928   8.601
    8        0.255   0.226   7.927   8.407
    9        0.273   0.265   7.902   8.440
   10        0.280   0.261   7.965   8.506
   11        0.334   0.346   7.937   8.617
   12        0.260   0.246   7.923   8.430
   13        0.274   0.244   7.943   8.460
   14        0.236   0.207   7.925   8.368
   15        0.363   0.440   7.935   8.739
   16        0.241   0.200   7.902   8.343
   17        0.343   0.398   7.924   8.665
   18        0.260   0.242   7.937   8.440
   19        0.193   0.140   7.961   8.294
   20        0.297   0.307   7.912   8.516
   21        0.383   0.447   7.975   8.805
   22        0.299   0.308   7.925   8.532
   23        0.241   0.210   7.878   8.329
   24        0.260   0.235   7.947   8.442
   25        0.323   0.310   7.976   8.609
   26        0.286   0.278   7.944   8.508
   27        0.317   0.335   7.916   8.568
   28        1.286   2.818   0.020   4.125
   29        1.280   2.782   0.016   4.079
   30        1.273   2.696   0.004   3.974
   31        1.278   2.766   0.013   4.057
   32        1.275   2.741   0.010   4.025
   33        1.278   2.675   0.004   3.958
   34        1.271   2.758   0.010   4.039
   35        1.278   2.683   0.005   3.966
   36        1.271   2.773   0.011   4.055
   37        1.278   2.775   0.014   4.066
   38        1.277   2.687   0.004   3.968
   39        1.273   2.784   0.015   4.072
   40        1.276   2.731   0.010   4.017
   41        1.271   2.726   0.007   4.004
   42        1.283   2.778   0.015   4.076
   43        1.273   2.716   0.006   3.994
   44        1.281   2.773   0.015   4.069
   45        1.269   2.736   0.008   4.012
   46        1.277   2.732   0.010   4.018
   47        1.270   2.729   0.006   4.006
   48        1.292   2.792   0.020   4.104
   49        1.271   2.726   0.007   4.004
   50        1.278   2.673   0.004   3.954
   51        1.272   2.784   0.014   4.070
   52        1.282   2.779   0.016   4.078
   53        1.277   2.757   0.011   4.046
   54        1.281   2.724   0.009   4.015
tot          42.32   81.94  214.53  338.80

magnetization (x)

# of ion       s       p       d       tot
    1        0.018  -0.001   0.870   0.887
    2        0.001   0.001  -0.036  -0.034
    3        0.001  -0.001   0.309   0.309
    4        0.003  -0.003   0.645   0.646
    5       -0.003   0.000  -0.187  -0.190
    6        0.000  -0.005   0.441   0.437
    7       -0.000   0.001  -0.210  -0.210
    8       -0.004  -0.001  -0.557  -0.562
    9        0.009  -0.003   0.691   0.697
   10       -0.008  -0.006  -0.388  -0.402
   11        0.009   0.001   0.791   0.802
   12       -0.006  -0.003  -0.469  -0.478
   13        0.005  -0.000   0.702   0.706
   14        0.003   0.000   0.451   0.454
   15        0.008  -0.002   0.761   0.767
   16        0.006  -0.000   0.860   0.866
   17       -0.008   0.002  -0.422  -0.428
   18        0.010   0.001   0.483   0.494
   19        0.003   0.000   0.720   0.724
   20        0.013   0.004   0.676   0.692
   21        0.014   0.005   0.386   0.405
   22        0.001  -0.001   0.463   0.463
   23       -0.015  -0.001  -1.130  -1.146
   24        0.002   0.004   0.508   0.514
   25        0.015   0.008   0.912   0.935
   26       -0.005   0.002  -0.513  -0.516
   27        0.011  -0.001   0.784   0.794
   28        0.007   0.300   0.001   0.308
   29        0.001   0.045   0.000   0.046
   30        0.009   0.330   0.000   0.338
   31        0.004   0.160   0.000   0.164
   32       -0.000  -0.029   0.000  -0.029
   33        0.009   0.339   0.000   0.347
   34       -0.006  -0.209   0.000  -0.215
   35        0.002   0.127   0.000   0.129
   36        0.003   0.103  -0.000   0.105
   37        0.008   0.316   0.000   0.324
   38        0.002   0.095  -0.000   0.097
   39       -0.007  -0.261   0.000  -0.268
   40        0.008   0.316   0.000   0.324
   41        0.006   0.193   0.000   0.199
   42        0.008   0.330   0.001   0.339
   43        0.001   0.005  -0.000   0.006
   44       -0.004  -0.137  -0.000  -0.141
   45        0.009   0.331  -0.000   0.339
   46        0.010   0.368   0.000   0.377
   47        0.001   0.026   0.000   0.027
   48        0.005   0.203   0.000   0.208
   49       -0.004  -0.128   0.000  -0.132
   50       -0.010  -0.409  -0.000  -0.419
   51        0.008   0.263  -0.000   0.270
   52        0.008   0.331   0.001   0.340
   53       -0.005  -0.169   0.000  -0.174
   54        0.011   0.424   0.000   0.435
tot           0.16    3.26    7.55   10.98