 vasp.5.4.4.18Apr17-6-g9f103f2a35 (build May 12 2020 04:58:55) complex

 MD_VERSION_INFO: Compiled 2020-05-12T11:58:55-UTC in devlin.sd.materialsdesign.
 com:/home/medea2/data/build/wwolf/vasp-gpu5.4.4/13047/x86_64/src/src/build/std
 from svn 13047

 executed on                        Lin64 date 2023.03.24  05:11:43

 INCAR:
 POTCAR:    PAW_PBE Ni 02Aug2007
 POTCAR:    PAW_PBE O 08Apr2002

 POTCAR:    PAW_PBE Ni 02Aug2007

 POTCAR:    PAW_PBE O 08Apr2002

 Optimization of the real space projectors (new method)

 maximal supplied QI-value         = 16.25
 optimisation between [QCUT,QGAM] = [ 11.38, 22.75] = [ 36.24,144.96] Ry
 Optimized for a Real-space Cutoff    1.47 Angstroem

   l    n(q)    QCUT    max X(q) W(low)/X(q) W(high)/X(q)  e(spline)
   2      9    11.376    60.317    0.17E-03    0.16E-04    0.16E-06
   2      9    11.376    55.921    0.17E-03    0.16E-04    0.17E-06
   0     10    11.376    51.690    0.45E-04    0.60E-04    0.21E-06
   0     10    11.376    30.015    0.37E-04    0.55E-04    0.19E-06
   1     10    11.376    18.849    0.83E-04    0.11E-03    0.92E-07
   1     10    11.376    14.624    0.69E-04    0.92E-04    0.82E-07
 Optimization of the real space projectors (new method)

 maximal supplied QI-value         = 24.76
 optimisation between [QCUT,QGAM] = [ 11.39, 22.77] = [ 36.31,145.25] Ry
 Optimized for a Real-space Cutoff    1.10 Angstroem

   l    n(q)    QCUT    max X(q) W(low)/X(q) W(high)/X(q)  e(spline)
   0      7    11.387    20.381    0.22E-03    0.48E-03    0.18E-06
   0      7    11.387    15.268    0.22E-03    0.52E-03    0.19E-06
   1      7    11.387     5.964    0.22E-03    0.73E-03    0.24E-06
   1      7    11.387     5.382    0.19E-03    0.60E-03    0.21E-06

  PAW_PBE Ni 02Aug2007                  :
  PAW_PBE O 08Apr2002                   :

 POSCAR: NiO_Cmmm_scale_1_000_disp_0_10_round_2
  positions in direct lattice
 exchange correlation table for  LEXCH =       14
   RHO(1)=    0.500       N(1)  =     2000
   RHO(2)=  100.500       N(2)  =     4000

 ion  position               nearest neighbor table
   1  0.999  0.999  0.010-  28 1.45  30 1.80  13 2.74  10 2.82   7 2.84  25 2.89   4 3.01  19 3.05

   2  0.996  0.997  0.344-  29 1.75  28 2.01   8 2.74  26 2.90  20 2.91  14 2.94  11 2.99   5 3.03

[...]

  27  0.679  0.653  0.681-  54 1.58  53 1.83  24 2.70   9 2.81  15 2.81   3 2.95
  28  0.991  0.010  0.150-   1 1.45   2 2.01
  29  0.996  0.992  0.513-   3 1.66   2 1.75
  30  0.996  0.002  0.836-   3 1.69   1 1.80
  31  0.986  0.327  0.147-   4 1.63   5 1.99
  32  0.007  0.327  0.507-   6 1.52   5 1.74
  33  0.983  0.339  0.845-   4 1.49   6 2.01
  34  0.005  0.671  0.169-   7 1.72   8 1.80
  35  0.992  0.663  0.490-   8 1.54   9 1.80
  36  0.012  0.674  0.839-   7 1.69   9 1.82
  37  0.347  0.996  0.183-  11 1.52  10 1.92
  38  0.326  0.995  0.510-  12 1.74  11 1.87
  39  0.338  0.997  0.836-  12 1.64  10 1.69
  40  0.378  0.360  0.191-  14 1.61  13 2.01
  41  0.301  0.296  0.504-  14 1.68  15 1.88
  42  0.344  0.338  0.823-  15 1.46  13 1.89
  43  0.356  0.669  0.170-  17 1.53  16 1.81
  44  0.329  0.679  0.493-  17 1.85  18 1.87
  45  0.335  0.655  0.841-  16 1.61  18 1.73
  46  0.668  0.995  0.157-  19 1.73  20 1.77
  47  0.659  0.993  0.490-  21 1.63  20 1.67
  48  0.665  0.989  0.826-  19 1.70  21 1.87
  49  0.675  0.326  0.156-  22 1.69  23 1.91
  50  0.674  0.355  0.503-  24 1.59  23 1.69
  51  0.660  0.318  0.839-  22 1.62  24 1.90
  52  0.662  0.674  0.165-  25 1.61  26 1.90
  53  0.703  0.668  0.505-  26 1.66  27 1.83
  54  0.640  0.651  0.831-  27 1.58  25 1.87

  LATTYP: Found a hexagonal cell.
 ALAT       =     8.7745200035
 C/A-ratio  =     1.1769065426

  Lattice vectors:

 A1 = (   8.7745200000,   0.0000000000,   0.0000000000)
 A2 = (  -4.3872600000,   7.5989572300,   0.0000000000)
 A3 = (   0.0000000000,   0.0000000000,  10.3267900000)

Analysis of symmetry for initial positions (statically):
 Subroutine PRICEL returns:
 Original cell was already a primitive cell.

 Routine SETGRP: Setting up the symmetry group for a
 hexagonal supercell.

 Subroutine GETGRP returns: Found  1 space group operations
 (whereof  1 operations were pure point group operations)
 out of a pool of 24 trial point group operations.

The static configuration has the point symmetry C_1 .

Analysis of symmetry for dynamics (positions and initial velocities):
 Subroutine PRICEL returns:
 Original cell was already a primitive cell.

[...]

The dynamic configuration has the point symmetry C_1 .

Analysis of structural, dynamic, and magnetic symmetry:
 Subroutine PRICEL returns:
 Original cell was already a primitive cell.

 Routine SETGRP: Setting up the symmetry group for a
 hexagonal supercell.

 Subroutine GETGRP returns: Found  1 space group operations
 (whereof  1 operations were pure point group operations)
 out of a pool of 24 trial point group operations.

The magnetic configuration has the point symmetry C_1 .

 Subroutine INISYM returns: Found  1 space group operations
 (whereof  1 operations are pure point group operations),
 and found     1 'primitive' translations

 KPOINTS: Automatic mesh

Automatic generation of k-mesh.
Space group operators:
 irot       det(A)        alpha          n_x          n_y          n_z        tau_x        tau_y        tau_z
    1     1.000000     0.000000     1.000000     0.000000     0.000000     0.000000     0.000000     0.000000

 Subroutine IBZKPT returns following result:

 Found     26 irreducible k-points:

 Following reciprocal coordinates:
            Coordinates               Weight
  0.000000  0.000000  0.000000      1.000000
  0.250000  0.000000  0.000000      2.000000
  0.500000  0.000000  0.000000      1.000000
  0.000000  0.250000  0.000000      2.000000
  0.250000  0.250000  0.000000      2.000000
  0.500000  0.250000  0.000000      2.000000
 -0.250000  0.250000  0.000000      2.000000
  0.000000  0.500000  0.000000      1.000000
  0.250000  0.500000  0.000000      2.000000
  0.500000  0.500000  0.000000      1.000000
  0.000000  0.000000  0.333333      2.000000
  0.250000  0.000000  0.333333      2.000000
  0.500000  0.000000  0.333333      2.000000
 -0.250000 -0.000000  0.333333      2.000000
  0.000000  0.250000  0.333333      2.000000
  0.250000  0.250000  0.333333      2.000000
  0.500000  0.250000  0.333333      2.000000
 -0.250000  0.250000  0.333333      2.000000
  0.000000  0.500000  0.333333      2.000000
  0.250000  0.500000  0.333333      2.000000
  0.500000  0.500000  0.333333      2.000000
 -0.250000  0.500000  0.333333      2.000000
  0.000000 -0.250000  0.333333      2.000000
  0.250000 -0.250000  0.333333      2.000000
  0.500000 -0.250000  0.333333      2.000000
 -0.250000 -0.250000  0.333333      2.000000

 Following cartesian coordinates:
            Coordinates               Weight
  0.000000  0.000000  0.000000      1.000000
  0.028492  0.016450  0.000000      2.000000
  0.056983  0.032899  0.000000      1.000000
  0.000000  0.032899  0.000000      2.000000
  0.028492  0.049349  0.000000      2.000000
  0.056983  0.065799  0.000000      2.000000
 -0.028492  0.016450  0.000000      2.000000
  0.000000  0.065799  0.000000      1.000000
  0.028492  0.082248  0.000000      2.000000
  0.056983  0.098698  0.000000      1.000000
  0.000000  0.000000  0.032279      2.000000
  0.028492  0.016450  0.032279      2.000000
  0.056983  0.032899  0.032279      2.000000
 -0.028492 -0.016450  0.032279      2.000000
  0.000000  0.032899  0.032279      2.000000
  0.028492  0.049349  0.032279      2.000000
  0.056983  0.065799  0.032279      2.000000
 -0.028492  0.016450  0.032279      2.000000
  0.000000  0.065799  0.032279      2.000000
  0.028492  0.082248  0.032279      2.000000
  0.056983  0.098698  0.032279      2.000000
 -0.028492  0.049349  0.032279      2.000000
  0.000000 -0.032899  0.032279      2.000000
  0.028492 -0.016450  0.032279      2.000000
  0.056983  0.000000  0.032279      2.000000
 -0.028492 -0.049349  0.032279      2.000000

 SYSTEM =  unknown system
 POSCAR =  NiO_Cmmm_scale_1_000_disp_0_10_round_2

 Startparameter for this run:
   NWRITE =      1    write-flag & timer
   PREC   = accura    normal or accurate (medium, high low for compatibility)
   ISTART =      0    job   : 0-new  1-cont  2-samecut
   ICHARG =      2    charge: 1-file 2-atom 10-const
   ISPIN  =      2    spin polarized calculation?
   LNONCOLLINEAR =      F non collinear calculations
   LSORBIT =      F    spin-orbit coupling
   INIWAV =      1    electr: 0-lowe 1-rand  2-diag
   LASPH  =      F    aspherical Exc in radial PAW
   METAGGA=      F    non-selfconsistent MetaGGA calc.

 Electronic Relaxation 1
   ENCUT  =  500.0 eV  36.75 Ry    6.06 a.u.  16.00 16.00 18.83*2*pi/ulx,y,z
   ENINI  =  500.0     initial cutoff
   ENAUG  =  605.4 eV  augmentation charge cutoff
   NELM   =     80;   NELMIN=  2; NELMDL= -5     # of ELM steps
   EDIFF  = 0.1E-04   stopping-criterion for ELM
   LREAL  =      T    real-space projection
   NLSPLINE    = F    spline interpolate recip. space projectors
   LCOMPAT=      F    compatible to vasp.4.4
   GGA_COMPAT  = T    GGA compatible to vasp.4.4-vasp.4.6
   LMAXPAW     = -100 max onsite density
   LMAXMIX     =    2 max onsite mixed and CHGCAR
   VOSKOWN=      1    Vosko Wilk Nusair interpolation
   ROPT   =   -0.00025  -0.00025
 Ionic relaxation
   EDIFFG = 0.1E-03   stopping-criterion for IOM
   NSW    =      0    number of steps for IOM
   NBLOCK =      1;   KBLOCK =      1    inner block; outer block
   IBRION =     -1    ionic relax: 0-MD 1-quasi-New 2-CG
   NFREE  =      0    steps in history (QN), initial steepest desc. (CG)
   ISIF   =      2    stress and relaxation
   IWAVPR =     10    prediction:  0-non 1-charg 2-wave 3-comb
   ISYM   =      2    0-nonsym 1-usesym 2-fastsym
   LCORR  =      T    Harris-Foulkes like correction to forces

   POTIM  = 0.5000    time-step for ionic-motion
   TEIN   =    0.0    initial temperature
   TEBEG  =    0.0;   TEEND  =   0.0 temperature during run
   SMASS  =  -3.00    Nose mass-parameter (am)
   estimated Nose-frequenzy (Omega)   =  0.10E-29 period in steps =****** mass=  -0.176E-26a.u.
   SCALEE = 1.0000    scale energy and forces
   NPACO  =    256;   APACO  = 16.0  distance and # of slots for P.C.
   PSTRESS=    0.0 pullay stress

  Mass of Ions in am
   POMASS =  58.69 16.00
  Ionic Valenz
   ZVAL   =  10.00  6.00
  Atomic Wigner-Seitz radii
  virtual crystal weights
   VCA    =   1.00  1.00
   NELECT =     432.0000    total number of electrons
   NUPDOWN=      -1.0000    fix difference up-down

 DOS related values:
   EMIN   =  10.00;   EMAX   =-10.00  energy-range for DOS
   EFERMI =   0.00
   ISMEAR =     0;   SIGMA  =   0.05  broadening in eV -4-tet -1-fermi 0-gaus

 Electronic relaxation 2 (details)
   IALGO  =     38    algorithm
   LDIAG  =      T    sub-space diagonalisation (order eigenvalues)
   LSUBROT=      F    optimize rotation matrix (better conditioning)
   TURBO    =      0    0=normal 1=particle mesh
   IRESTART =      0    0=no restart 2=restart with 2 vectors
   NREBOOT  =      0    no. of reboots
   NMIN     =      0    reboot dimension
[...]
   0.500E+02 -.131E+02 -.346E+02   -.499E+02 0.136E+02 0.357E+02   -.261E+00 0.213E+00 -.915E+00   -.203E+00 -.653E+00 0.343E+00
   -.125E+02 0.132E+02 -.795E+02   0.139E+02 -.129E+02 0.876E+02   -.166E+00 -.166E+00 -.884E+00   -.443E+00 -.389E-01 -.175E+00
   -.245E+02 -.216E+02 0.104E+03   0.252E+02 0.208E+02 -.105E+03   -.149E-01 0.431E+00 -.790E+00   -.353E+00 -.435E-01 -.141E-01
   -.221E+02 0.363E+02 -.156E+03   0.218E+02 -.348E+02 0.163E+03   0.203E+00 -.662E+00 0.204E+01   -.452E+00 -.183E+00 0.160E+00
   0.108E+02 0.194E+02 -.328E+02   -.106E+02 -.191E+02 0.336E+02   0.747E-01 -.194E+00 -.362E+00   -.175E+00 -.756E-01 -.687E-01
   -.163E+02 0.852E+01 0.143E+03   0.164E+02 -.775E+01 -.150E+03   0.923E-01 -.485E+00 0.647E+00   0.299E-01 -.325E+00 -.356E+00
   -.225E+02 0.120E+02 -.315E+02   0.229E+02 -.117E+02 0.322E+02   -.160E+00 0.136E+00 -.810E+00   -.450E+00 0.526E-01 0.464E+00
   0.114E+02 0.856E+01 -.922E+02   -.118E+02 -.809E+01 0.930E+02   0.496E+00 -.447E+00 0.146E+01   0.439E+00 -.165E+00 -.235E+00
   0.311E+02 -.464E+02 -.111E+03   -.325E+02 0.469E+02 0.119E+03   0.231E+00 -.433E+00 -.120E+00   0.690E+00 -.212E+00 -.241E+00
   -.169E+02 0.587E+00 0.403E+02   0.167E+02 -.627E+00 -.444E+02   0.221E+00 -.216E-01 0.126E+01   0.157E+00 -.206E+00 0.472E+00
   0.551E+02 -.860E+01 -.725E+02   -.535E+02 0.849E+01 0.725E+02   -.881E+00 0.475E+00 -.894E-01   0.310E+00 0.219E+00 -.887E-02
   0.102E+03 -.332E+02 -.990E+01   -.102E+03 0.318E+02 0.127E+02   0.126E+00 0.369E+00 -.775E+00   0.163E+00 0.513E+00 -.446E+00
   0.332E+02 -.427E+02 0.180E+03   -.338E+02 0.418E+02 -.194E+03   -.514E-01 0.668E-01 0.115E+01   0.335E+00 0.350E+00 0.361E+00
   0.318E+02 0.225E+02 -.876E+02   -.316E+02 -.226E+02 0.901E+02   0.223E+00 -.121E+00 0.869E+00   0.214E+00 0.433E+00 0.751E-01
   0.500E+02 0.878E+02 -.125E+03   -.507E+02 -.877E+02 0.134E+03   -.109E+00 0.349E-01 0.191E+00   0.381E+00 0.259E+00 -.338E+00
   -.558E+02 -.114E+02 0.729E+02   0.549E+02 0.104E+02 -.753E+02   0.699E+00 0.244E+00 0.672E+00   0.229E+00 0.366E+00 0.241E+00
   0.735E+01 -.105E+02 0.954E+01   -.696E+01 0.104E+02 -.949E+01   0.182E+00 0.147E+00 0.703E+00   -.436E-01 -.164E+00 -.722E-01
   -.358E+02 -.727E+02 0.250E+02   0.361E+02 0.728E+02 -.270E+02   -.890E-01 0.903E-01 0.761E+00   -.110E+00 -.192E+00 -.254E+00
   -.487E+02 -.105E+02 -.897E+02   0.480E+02 0.101E+02 0.925E+02   0.581E+00 0.603E-01 0.734E+00   0.179E+00 -.187E+00 0.323E+00
   0.198E+02 -.336E+02 -.469E+02   -.201E+02 0.335E+02 0.491E+02   0.546E+00 -.231E+00 -.978E-01   0.134E+00 0.413E-01 -.142E+00
   -.348E+02 0.556E+01 0.972E+02   0.350E+02 -.598E+01 -.990E+02   -.829E-02 0.165E+00 0.187E+00   0.294E+00 -.217E-01 -.321E+00
   -.433E+02 0.562E+02 -.104E+03   0.430E+02 -.565E+02 0.109E+03   0.168E+00 -.284E+00 0.241E+00   0.186E+00 0.204E+00 0.504E+00
   -.287E+02 0.458E+01 0.837E+02   0.288E+02 -.517E+01 -.855E+02   -.254E+00 0.138E+00 -.188E+01   -.952E-01 0.111E+00 -.381E+00
   0.629E+02 0.218E+02 0.605E+02   -.614E+02 -.217E+02 -.613E+02   -.101E+01 -.737E-01 -.187E+01   -.299E+00 0.190E+00 -.211E+00
   0.392E+02 -.774E+02 0.737E+02   -.383E+02 0.766E+02 -.781E+02   -.171E+00 0.253E+00 -.145E+01   0.551E-01 0.379E+00 0.731E+00
   0.141E+02 -.398E+02 -.196E+03   -.187E+02 0.426E+02 0.224E+03   0.434E+01 -.215E+01 -.142E+02   -.237E+00 -.216E+00 -.485E+00
   0.424E+02 -.183E+02 0.265E+02   -.435E+02 0.187E+02 -.309E+02   0.161E+01 -.196E+00 0.212E+01   -.357E+00 -.254E+00 0.108E+01
   0.542E+02 -.147E+02 -.203E+02   -.571E+02 0.158E+02 0.247E+02   0.349E+01 -.839E+00 -.227E+01   -.109E+00 -.410E+00 -.561E+00
   -.284E+02 -.533E+01 -.134E+03   0.279E+02 0.412E+01 0.146E+03   0.721E+00 0.144E+01 -.824E+01   -.242E+00 -.238E-01 -.882E-01
   -.136E+02 0.313E+02 0.101E+03   0.154E+02 -.352E+02 -.114E+03   -.206E+01 0.354E+01 0.595E+01   -.298E+00 -.291E-01 0.912E-01
   0.101E+02 0.244E+02 0.169E+03   -.129E+02 -.243E+02 -.192E+03   0.372E+01 0.108E+00 0.128E+02   -.285E+00 -.426E-01 0.561E-02
   -.727E+01 0.369E+02 -.247E+02   0.799E+01 -.393E+02 0.280E+02   -.881E+00 0.313E+01 -.183E+01   -.400E-01 -.103E+00 -.475E+00
   -.270E+02 0.263E+02 -.737E+02   0.260E+02 -.285E+02 0.864E+02   0.143E+01 0.186E+01 -.687E+01   -.827E-01 -.162E+00 0.549E+00
   0.610E+01 -.591E+00 0.294E+02   -.477E+01 0.164E+01 -.339E+02   -.134E+01 -.139E+01 0.320E+01   -.202E+00 -.283E-01 -.126E-01
   -.889E+00 0.686E+01 0.142E+03   0.418E+01 -.922E+01 -.161E+03   -.406E+01 0.258E+01 0.112E+02   0.328E+00 -.973E-01 -.445E+00
   -.788E+01 0.371E+01 0.372E+02   0.698E+01 -.460E+01 -.417E+02   0.721E+00 0.159E+01 0.339E+01   0.293E+00 -.143E+00 0.287E+00
   -.327E+02 0.183E+02 -.260E+02   0.360E+02 -.199E+02 0.285E+02   -.392E+01 0.187E+01 -.172E+01   0.181E+00 -.495E-01 0.186E+00
   0.955E+01 -.270E+02 0.108E+03   -.418E+01 0.329E+02 -.121E+03   -.652E+01 -.677E+01 0.106E+02   0.223E+00 0.335E+00 -.428E+00
   0.408E+02 -.607E+01 -.371E+02   -.445E+02 0.423E-01 0.434E+02   0.407E+01 0.693E+01 -.486E+01   0.564E-01 0.177E+00 0.218E+00
   0.226E+02 0.171E+01 -.157E+03   -.221E+02 -.157E+01 0.181E+03   -.154E+01 -.893E+00 -.118E+02   0.293E+00 0.245E+00 0.332E+00
   -.187E+02 0.714E+02 0.914E+02   0.251E+02 -.755E+02 -.106E+03   -.679E+01 0.271E+01 0.695E+01   0.156E+00 0.242E+00 -.411E-01
   -.302E+02 0.463E+02 -.790E+01   0.297E+02 -.471E+02 0.848E+01   0.310E+00 0.872E+00 -.342E+00   0.151E+00 0.182E+00 -.137E+00
   -.211E+02 0.147E+01 0.455E+02   0.238E+02 -.221E+01 -.517E+02   -.347E+01 0.647E+00 0.316E+01   0.213E+00 0.256E+00 0.222E+00
   -.250E+02 -.410E+02 -.590E+01   0.268E+02 0.428E+02 0.690E+01   -.221E+01 -.162E+01 -.788E+00   -.642E-01 -.145E+00 -.152E+00
   -.222E+02 0.534E+01 -.806E+01   0.228E+02 -.708E+01 0.670E+01   -.641E+00 0.220E+01 0.168E+00   0.292E-01 -.938E-01 0.422E-01
   -.462E+02 0.500E+01 0.645E+02   0.492E+02 -.596E+01 -.701E+02   -.359E+01 0.161E+01 0.385E+01   -.224E-01 -.151E+00 0.108E+00
   -.507E+02 -.115E+01 -.685E+02   0.556E+02 -.501E+00 0.755E+02   -.593E+01 0.219E+01 -.494E+01   0.854E-01 -.481E-01 -.317E+00
   -.182E+02 0.179E+02 0.533E+02   0.187E+02 -.153E+02 -.597E+02   -.812E+00 -.285E+01 0.310E+01   0.148E+00 0.505E-01 0.231E+00
   -.447E+02 0.166E+02 0.737E+02   0.479E+02 -.194E+02 -.837E+02   -.363E+01 0.317E+01 0.622E+01   0.608E-01 0.508E-01 0.133E+00
   -.130E+02 0.422E+01 -.842E+02   0.113E+02 -.402E+01 0.955E+02   0.196E+01 -.140E+00 -.717E+01   -.846E-01 0.733E-01 -.245E+00
   0.240E+02 -.134E+02 -.520E+02   -.167E+02 0.135E+02 0.579E+02   -.776E+01 -.270E+00 -.358E+01   -.201E+00 0.523E-01 0.470E+00
   0.407E+02 -.280E+02 -.863E+02   -.482E+02 0.275E+02 0.983E+02   0.767E+01 0.712E+00 -.673E+01   0.214E+00 0.157E+00 -.362E+00
   0.249E+02 -.201E+02 0.323E+01   -.213E-12 0.711E-14 0.270E-12   -.254E+02 0.204E+02 -.363E+01   0.523E+00 -.259E+00 0.415E+00

 POSITION                                       TOTAL-FORCE (eV/Angst)
      4.38206      7.58784      0.10418         1.138366     -0.371852    -12.797733
      4.36667      7.57550      3.55504        -0.124426     -0.037919     -1.271645
     -4.22616      7.53003      6.95375        -0.333510     -0.016560      0.497327
      7.18457      2.53936     10.22060         0.709890      0.050336      7.048756
      7.16447      2.55614      3.50664         0.320121     -0.413131     -1.431113
     -1.30562      2.65082      6.74617        -0.534800      0.671522      8.315918
     -2.92724      5.16125      0.02450         0.066550      0.045377      0.378721
     -2.96718      5.25056      3.53424         0.241067     -0.040829     -6.694980
      5.89770      4.92326      6.85123        -0.131044      0.560261      0.307513
      2.80672      0.07647     10.31335         0.577343     -0.145475      1.934090
      2.96633      0.07477      3.40298        -0.485142     -0.174061      8.394742
     -1.50722      7.58735      7.00146         0.170022     -0.267641     -2.379629
      1.32195      2.38205      0.04343         1.006321      0.577937     -0.100970
      1.51945      2.48031      3.54905         0.267338     -0.483786      1.598745
      1.56577      2.60348      7.03959        -0.248033     -0.464807    -12.261600
     -0.01299      4.94785     10.28991         0.626070      0.227533      3.411715
     -0.06944      5.32628      3.24390        -0.448647      0.436267      8.501743
     -0.07947      5.11684      6.95940        -0.011048     -0.371043     -1.495440
      1.34147      7.50720     10.22711         0.531501     -0.131055      0.674232
      1.46560      7.49661      3.39174         0.187386     -0.032653     -1.498794
      5.72492      0.10986      6.67780         0.112567     -0.501041      3.873320
      4.20900      2.52991     10.27131         0.331630     -0.226134      2.030038
      4.26719      2.62864      3.49902         0.514924     -0.275398     -1.941037
      4.35787      2.58476      6.77445         0.081639     -0.332367      5.084198
      2.98815      5.05506      0.10767        -0.247791     -0.339114     -3.991066
      2.80937      5.13479      3.61207         0.163209      0.190635     -2.845389
      3.09574      4.96103      7.03622         0.706260     -0.192280     -5.139290
      8.64885      0.07454      1.55006        -0.470274      0.394794     13.081867
      4.38600      7.53764      5.30076         0.147958     -0.013010     -1.249328
      8.72971      0.01623      8.63135         0.417860     -0.182219      1.559019
      7.21318      2.48719      1.52275         0.021052      0.196670      3.332178
     -1.37719      2.48656      5.23311        -0.585365     -0.341400     -7.164629
      7.13738      2.57323      8.73007         0.626796      0.186805    -10.001567
     -2.90244      5.09566      1.74324        -0.200590      0.630102      0.988409
      5.79387      5.03747      5.05927         0.342080     -0.517504      6.376559
     -2.85012      5.12202      8.66299        -0.217590     -0.373517     -1.350591
     -1.32999      7.57131      1.88912        -0.438476      0.123414     -8.108316
     -1.50308      7.56037      5.26349         0.117964      0.551252     -0.820790
     -1.41089      7.57317      8.63413        -0.446293      0.189262      1.019642
      1.73791      2.73404      1.97316        -0.930401     -0.536411     -3.485380
      1.34295      2.24699      5.20582         0.484789      1.071747      1.662985
      1.53895      2.56759      8.50024        -0.709419     -0.512812     12.343990
      0.19023      5.08702      1.75884        -0.152201     -1.115263     -7.560614
     -0.09273      5.16059      5.08834        -0.002571      0.206072      0.103887
      0.06822      4.98038      8.68095        -0.475708      0.158901     -2.830766
      1.49522      7.56374      1.62599        -0.426822     -0.031173      0.061648
      1.43126      7.54217      5.06278        -0.006630      0.361521     -1.152177
      1.49224      7.51845      8.53484        -0.627112      0.500382     -1.638005
      4.49320      2.47638      1.61218        -0.975730      0.494380      1.750895
      4.35239      2.69885      5.19002        -0.119791     -0.217467     -3.056330
      4.39734      2.41973      8.66320        -0.347752      0.456643     -3.609879
      2.85456      5.11987      1.70872         0.157074      0.130358      3.864154
      3.23430      5.07524      5.21147        -0.693885     -0.137659      2.750531
      2.75879      4.95043      8.58321         0.323274      0.383411      4.930237
    total drift:                               -0.010619      0.001627      0.018858

  FREE ENERGIE OF THE ION-ELECTRON SYSTEM (eV)
  free  energy   TOTEN  =      -307.3093333894 eV

  energy  without entropy=     -307.2467010383  energy(sigma->0) =     -307.27801721

volume of typ            1:    25.0 %

volume of typ            2:     6.4 %

total charge

# of ion       s       p       d       tot
    1        0.364   0.417   7.955   8.736
    2        0.229   0.188   7.959   8.376
    3        0.299   0.314   7.890   8.503
    4        0.381   0.466   7.923   8.770
    5        0.225   0.182   7.944   8.350
    6        0.299   0.295   7.972   8.567
    7        0.288   0.296   7.891   8.475
    8        0.320   0.345   7.942   8.607
    9        0.242   0.219   7.929   8.391
   10        0.250   0.230   7.937   8.417
   11        0.324   0.346   7.931   8.601
   12        0.298   0.316   7.907   8.521
   13        0.202   0.155   7.957   8.313
   14        0.324   0.357   7.908   8.589
   15        0.340   0.376   7.982   8.698
   16        0.286   0.290   7.937   8.513
   17        0.321   0.344   7.923   8.588
   18        0.250   0.224   7.929   8.403
   19        0.281   0.280   7.888   8.449
   20        0.284   0.286   7.916   8.486
   21        0.276   0.261   7.925   8.462
   22        0.313   0.345   7.887   8.545
   23        0.248   0.228   7.937   8.413
   24        0.289   0.289   7.944   8.522
   25        0.283   0.281   7.914   8.478
   26        0.266   0.249   7.916   8.431
   27        0.299   0.307   7.911   8.517
   28        1.285   2.784   0.017   4.086
   29        1.273   2.761   0.010   4.043
   30        1.268   2.758   0.008   4.034
   31        1.273   2.734   0.007   4.014
   32        1.274   2.794   0.016   4.085
   33        1.280   2.778   0.014   4.072
   34        1.266   2.739   0.007   4.013
   35        1.278   2.776   0.014   4.068
   36        1.269   2.737   0.008   4.014
   37        1.278   2.770   0.013   4.061
   38        1.269   2.722   0.006   3.997
   39        1.273   2.766   0.012   4.051
   40        1.277   2.731   0.009   4.017
   41        1.269   2.751   0.007   4.026
   42        1.284   2.793   0.018   4.095
   43        1.275   2.787   0.014   4.077
   44        1.270   2.698   0.004   3.972
   45        1.273   2.765   0.012   4.050
   46        1.269   2.733   0.007   4.010
   47        1.271   2.778   0.013   4.062
   48        1.269   2.726   0.007   4.001
   49        1.271   2.723   0.007   4.001
   50        1.273   2.783   0.014   4.071
   51        1.271   2.747   0.009   4.027
   52        1.274   2.738   0.009   4.021
   53        1.273   2.740   0.009   4.021
   54        1.273   2.751   0.011   4.035
tot          42.16   82.25  214.33  338.74

magnetization (x)

# of ion       s       p       d       tot
    1        0.003   0.001   0.285   0.290
    2        0.005   0.001   0.613   0.619
    3        0.009  -0.001   0.602   0.610
    4        0.015  -0.003   0.670   0.682
    5       -0.008  -0.003  -0.601  -0.612
    6       -0.006  -0.009  -0.602  -0.617
    7        0.012  -0.003   0.794   0.803
    8       -0.004  -0.002  -0.552  -0.559
    9        0.000  -0.000  -0.006  -0.006
   10       -0.003  -0.003  -0.144  -0.151
   11        0.011   0.001   0.782   0.795
   12       -0.005  -0.000  -0.426  -0.432
   13        0.005   0.001   0.669   0.675
   14        0.015  -0.001   0.817   0.830
   15        0.013   0.009   0.742   0.764
   16       -0.005   0.000  -0.469  -0.474
   17        0.017  -0.001   0.828   0.844
   18        0.003  -0.001  -0.007  -0.006
   19       -0.014   0.002  -0.748  -0.759
   20        0.006  -0.001   0.406   0.411
   21        0.006   0.003   0.521   0.529
   22        0.016  -0.004   0.872   0.883
   23       -0.006  -0.002  -0.558  -0.565
   24       -0.005  -0.003  -0.441  -0.449
   25        0.009   0.002   0.736   0.748
   26        0.009   0.000   0.742   0.751
   27        0.003   0.001   0.365   0.370
   28        0.004   0.149   0.000   0.153
   29        0.010   0.325   0.000   0.336
   30        0.001   0.055   0.000   0.056
   31        0.003   0.155   0.000   0.159
   32       -0.009  -0.320   0.000  -0.328
   33        0.004   0.197   0.001   0.202
   34        0.002   0.080   0.000   0.082
   35       -0.007  -0.245  -0.000  -0.252
   36        0.007   0.275  -0.000   0.282
   37        0.008   0.323   0.000   0.331
   38        0.000   0.013  -0.000   0.013
   39       -0.006  -0.193   0.000  -0.199
   40        0.009   0.332   0.000   0.341
   41        0.005   0.201   0.001   0.207
   42        0.009   0.363   0.000   0.372
   43        0.005   0.209   0.001   0.215
   44        0.007   0.277  -0.000   0.284
   45       -0.006  -0.211   0.000  -0.216
   46       -0.003  -0.123   0.000  -0.126
   47        0.007   0.254  -0.000   0.261
   48       -0.004  -0.167  -0.000  -0.172
   49        0.005   0.221   0.000   0.226
   50       -0.008  -0.282   0.000  -0.290
   51        0.006   0.239   0.000   0.246
   52        0.010   0.373   0.000   0.383
   53        0.006   0.242   0.000   0.248
   54        0.004   0.123   0.000   0.127
tot           0.17    2.85    5.90    8.91