 vasp.5.4.4.18Apr17-6-g9f103f2a35 (build May 12 2020 04:58:55) complex

 MD_VERSION_INFO: Compiled 2020-05-12T11:58:55-UTC in devlin.sd.materialsdesign.
 com:/home/medea2/data/build/wwolf/vasp-gpu5.4.4/13047/x86_64/src/src/build/std
 from svn 13047

 executed on                        Lin64 date 2023.03.24  06:25:42

 INCAR:
 POTCAR:    PAW_PBE Ni 02Aug2007
 POTCAR:    PAW_PBE O 08Apr2002

 POTCAR:    PAW_PBE Ni 02Aug2007

 POTCAR:    PAW_PBE O 08Apr2002

 Optimization of the real space projectors (new method)

 maximal supplied QI-value         = 16.25
 optimisation between [QCUT,QGAM] = [ 11.38, 22.75] = [ 36.24,144.96] Ry
 Optimized for a Real-space Cutoff    1.47 Angstroem

   l    n(q)    QCUT    max X(q) W(low)/X(q) W(high)/X(q)  e(spline)
   2      9    11.376    60.317    0.17E-03    0.16E-04    0.16E-06
   2      9    11.376    55.921    0.17E-03    0.16E-04    0.17E-06
   0     10    11.376    51.690    0.45E-04    0.60E-04    0.21E-06
   0     10    11.376    30.015    0.37E-04    0.55E-04    0.19E-06
   1     10    11.376    18.849    0.83E-04    0.11E-03    0.92E-07
   1     10    11.376    14.624    0.69E-04    0.92E-04    0.82E-07
 Optimization of the real space projectors (new method)

 maximal supplied QI-value         = 24.76
 optimisation between [QCUT,QGAM] = [ 11.39, 22.77] = [ 36.31,145.25] Ry
 Optimized for a Real-space Cutoff    1.10 Angstroem

   l    n(q)    QCUT    max X(q) W(low)/X(q) W(high)/X(q)  e(spline)
   0      7    11.387    20.381    0.22E-03    0.48E-03    0.18E-06
   0      7    11.387    15.268    0.22E-03    0.52E-03    0.19E-06
   1      7    11.387     5.964    0.22E-03    0.73E-03    0.24E-06
   1      7    11.387     5.382    0.19E-03    0.60E-03    0.21E-06

  PAW_PBE Ni 02Aug2007                  :
  PAW_PBE O 08Apr2002                   :

 POSCAR: NiO_Cmmm_scale_0_975_disp_0_20_round_1
  positions in direct lattice
 exchange correlation table for  LEXCH =       14
   RHO(1)=    0.500       N(1)  =     2000
   RHO(2)=  100.500       N(2)  =     4000

 ion  position               nearest neighbor table
   1  0.037  0.992  0.990-  30 1.21  28 1.96   7 2.39  19 2.66  10 2.68   4 2.95  13 2.96
   2  0.992  0.009  0.350-  29 1.56  28 1.92  14 2.53  20 2.65   5 2.68  11 2.73  26 2.76   8 2.90

   3  0.024  0.015  0.658-  29 1.62  30 2.33  15 2.55  12 2.69   6 2.73  27 2.76   9 2.93
   4  0.016  0.323  0.022-  33 1.68  31 1.83  19 2.61  13 2.84  16 2.86   1 2.95  22 3.01
   5  0.041  0.344  0.356-  32 1.48  31 1.57  14 2.47  17 2.61   2 2.68  23 2.91  20 2.93   8 3.01

[...]

  25  0.644  0.664  0.010-  54 1.65  52 1.75  13 2.56  19 2.58  16 2.78  22 2.93
  26  0.697  0.666  0.331-  52 1.52  53 2.02   8 2.73   2 2.76  17 2.96  23 2.96  20 3.05
  27  0.700  0.693  0.660-  53 1.39  54 1.90   9 2.53   3 2.76  24 2.92  21 2.92
  28  0.938  1.000  0.165-   2 1.92   1 1.96  19 2.15
  29  0.963  0.976  0.503-   2 1.56   3 1.62
  30  0.984  0.020  0.886-   1 1.21   3 2.33
  31  0.028  0.361  0.202-   5 1.57   4 1.83
  32  0.008  0.337  0.501-   5 1.48   6 1.80
  33  0.018  0.344  0.856-   4 1.68   6 1.78
  34  0.053  0.677  0.146-   7 1.82   8 2.20
  35  0.004  0.690  0.515-   8 1.54   9 1.84
  36  0.057  0.713  0.865-   7 1.05   9 1.83
  37  0.320  0.996  0.179-  11 1.52  10 1.58
  38  0.369  0.058  0.496-  12 1.68  11 1.75
  39  0.339  0.014  0.864-  10 1.62  12 2.04
  40  0.374  0.358  0.157-  13 1.32  14 2.09
  41  0.311  0.366  0.549-  15 1.30  14 2.04
  42  0.350  0.319  0.852-  13 1.78  15 1.83
  43  0.320  0.686  0.176-  16 1.52  17 1.94
  44  0.364  0.707  0.514-  17 1.57  18 1.94
  45  0.342  0.682  0.890-  16 1.37  18 1.95
  46  0.610  0.945  0.188-  20 1.77  19 1.77
  47  0.691  0.018  0.516-  20 1.65  21 1.75
  48  0.711  0.970  0.855-  21 1.84  19 1.86
  49  0.686  0.329  0.174-  22 1.43  23 1.64
  50  0.731  0.365  0.512-  24 1.49  23 1.81
  51  0.710  0.351  0.857-  22 1.79  24 2.08
  52  0.683  0.670  0.181-  26 1.52  25 1.75
  53  0.648  0.653  0.529-  27 1.39  26 2.02
  54  0.658  0.682  0.846-  25 1.65  27 1.90

  LATTYP: Found a hexagonal cell.
 ALAT       =     8.5551570040
 C/A-ratio  =     1.1769065425

  Lattice vectors:

 A1 = (   8.5551570000,   0.0000000000,   0.0000000000)
 A2 = (  -4.2775785000,   7.4089833000,   0.0000000000)
 A3 = (   0.0000000000,   0.0000000000,  10.0686202500)

Analysis of symmetry for initial positions (statically):
 Subroutine PRICEL returns:
 Original cell was already a primitive cell.

 Routine SETGRP: Setting up the symmetry group for a
 hexagonal supercell.

 Subroutine GETGRP returns: Found  1 space group operations
 (whereof  1 operations were pure point group operations)
 out of a pool of 24 trial point group operations.

The static configuration has the point symmetry C_1 .

Analysis of symmetry for dynamics (positions and initial velocities):
 Subroutine PRICEL returns:
 Original cell was already a primitive cell.

[...]

The dynamic configuration has the point symmetry C_1 .

Analysis of structural, dynamic, and magnetic symmetry:
 Subroutine PRICEL returns:
 Original cell was already a primitive cell.

 Routine SETGRP: Setting up the symmetry group for a
 hexagonal supercell.

 Subroutine GETGRP returns: Found  1 space group operations
 (whereof  1 operations were pure point group operations)
 out of a pool of 24 trial point group operations.

The magnetic configuration has the point symmetry C_1 .

 Subroutine INISYM returns: Found  1 space group operations
 (whereof  1 operations are pure point group operations),
 and found     1 'primitive' translations

 KPOINTS: Automatic mesh

Automatic generation of k-mesh.
Space group operators:
 irot       det(A)        alpha          n_x          n_y          n_z        tau_x        tau_y        tau_z
    1     1.000000     0.000000     1.000000     0.000000     0.000000     0.000000     0.000000     0.000000

 Subroutine IBZKPT returns following result:

 Found     26 irreducible k-points:

 Following reciprocal coordinates:
            Coordinates               Weight
  0.000000  0.000000  0.000000      1.000000
  0.250000  0.000000  0.000000      2.000000
  0.500000  0.000000  0.000000      1.000000
  0.000000  0.250000  0.000000      2.000000
  0.250000  0.250000  0.000000      2.000000
  0.500000  0.250000  0.000000      2.000000
 -0.250000  0.250000  0.000000      2.000000
  0.000000  0.500000  0.000000      1.000000
  0.250000  0.500000  0.000000      2.000000
  0.500000  0.500000  0.000000      1.000000
  0.000000  0.000000  0.333333      2.000000
  0.250000  0.000000  0.333333      2.000000
  0.500000  0.000000  0.333333      2.000000
 -0.250000  0.000000  0.333333      2.000000
  0.000000  0.250000  0.333333      2.000000
  0.250000  0.250000  0.333333      2.000000
  0.500000  0.250000  0.333333      2.000000
 -0.250000  0.250000  0.333333      2.000000
  0.000000  0.500000  0.333333      2.000000
  0.250000  0.500000  0.333333      2.000000
  0.500000  0.500000  0.333333      2.000000
 -0.250000  0.500000  0.333333      2.000000
  0.000000 -0.250000  0.333333      2.000000
  0.250000 -0.250000  0.333333      2.000000
  0.500000 -0.250000  0.333333      2.000000
 -0.250000 -0.250000  0.333333      2.000000

 Following cartesian coordinates:
            Coordinates               Weight
  0.000000  0.000000  0.000000      1.000000
  0.029222  0.016871  0.000000      2.000000
  0.058444  0.033743  0.000000      1.000000
  0.000000  0.033743  0.000000      2.000000
  0.029222  0.050614  0.000000      2.000000
  0.058444  0.067486  0.000000      2.000000
 -0.029222  0.016871  0.000000      2.000000
  0.000000  0.067486  0.000000      1.000000
  0.029222  0.084357  0.000000      2.000000
  0.058444  0.101228  0.000000      1.000000
  0.000000  0.000000  0.033106      2.000000
  0.029222  0.016871  0.033106      2.000000
  0.058444  0.033743  0.033106      2.000000
 -0.029222 -0.016871  0.033106      2.000000
  0.000000  0.033743  0.033106      2.000000
  0.029222  0.050614  0.033106      2.000000
  0.058444  0.067486  0.033106      2.000000
 -0.029222  0.016871  0.033106      2.000000
  0.000000  0.067486  0.033106      2.000000
  0.029222  0.084357  0.033106      2.000000
  0.058444  0.101228  0.033106      2.000000
 -0.029222  0.050614  0.033106      2.000000
  0.000000 -0.033743  0.033106      2.000000
  0.029222 -0.016871  0.033106      2.000000
  0.058444  0.000000  0.033106      2.000000
 -0.029222 -0.050614  0.033106      2.000000

 SYSTEM =  unknown system
 POSCAR =  NiO_Cmmm_scale_0_975_disp_0_20_round_1

 Startparameter for this run:
   NWRITE =      1    write-flag & timer
   PREC   = accura    normal or accurate (medium, high low for compatibility)
   ISTART =      0    job   : 0-new  1-cont  2-samecut
   ICHARG =      2    charge: 1-file 2-atom 10-const
   ISPIN  =      2    spin polarized calculation?
   LNONCOLLINEAR =      F non collinear calculations
   LSORBIT =      F    spin-orbit coupling
   INIWAV =      1    electr: 0-lowe 1-rand  2-diag
   LASPH  =      F    aspherical Exc in radial PAW
   METAGGA=      F    non-selfconsistent MetaGGA calc.

 Electronic Relaxation 1
   ENCUT  =  500.0 eV  36.75 Ry    6.06 a.u.  15.60 15.60 18.36*2*pi/ulx,y,z
   ENINI  =  500.0     initial cutoff
   ENAUG  =  605.4 eV  augmentation charge cutoff
   NELM   =     80;   NELMIN=  2; NELMDL= -5     # of ELM steps
   EDIFF  = 0.1E-04   stopping-criterion for ELM
   LREAL  =      T    real-space projection
   NLSPLINE    = F    spline interpolate recip. space projectors
   LCOMPAT=      F    compatible to vasp.4.4
   GGA_COMPAT  = T    GGA compatible to vasp.4.4-vasp.4.6
   LMAXPAW     = -100 max onsite density
   LMAXMIX     =    2 max onsite mixed and CHGCAR
   VOSKOWN=      1    Vosko Wilk Nusair interpolation
   ROPT   =   -0.00025  -0.00025
 Ionic relaxation
   EDIFFG = 0.1E-03   stopping-criterion for IOM
   NSW    =      0    number of steps for IOM
   NBLOCK =      1;   KBLOCK =      1    inner block; outer block
   IBRION =     -1    ionic relax: 0-MD 1-quasi-New 2-CG
   NFREE  =      0    steps in history (QN), initial steepest desc. (CG)
   ISIF   =      2    stress and relaxation
   IWAVPR =     10    prediction:  0-non 1-charg 2-wave 3-comb
   ISYM   =      2    0-nonsym 1-usesym 2-fastsym
   LCORR  =      T    Harris-Foulkes like correction to forces

   POTIM  = 0.5000    time-step for ionic-motion
   TEIN   =    0.0    initial temperature
   TEBEG  =    0.0;   TEEND  =   0.0 temperature during run
   SMASS  =  -3.00    Nose mass-parameter (am)
   estimated Nose-frequenzy (Omega)   =  0.10E-29 period in steps =****** mass=  -0.167E-26a.u.
   SCALEE = 1.0000    scale energy and forces
   NPACO  =    256;   APACO  = 16.0  distance and # of slots for P.C.
   PSTRESS=    0.0 pullay stress

  Mass of Ions in am
   POMASS =  58.69 16.00
  Ionic Valenz
   ZVAL   =  10.00  6.00
  Atomic Wigner-Seitz radii
  virtual crystal weights
   VCA    =   1.00  1.00
   NELECT =     432.0000    total number of electrons
   NUPDOWN=      -1.0000    fix difference up-down

 DOS related values:
   EMIN   =  10.00;   EMAX   =-10.00  energy-range for DOS
   EFERMI =   0.00
   ISMEAR =     0;   SIGMA  =   0.05  broadening in eV -4-tet -1-fermi 0-gaus

[...]
   -.358E+02 0.356E+02 -.190E+03   0.364E+02 -.351E+02 0.189E+03   -.502E+00 -.230E+00 0.417E+01   0.154E-01 -.114E+00 0.122E+00
   0.617E+02 -.152E+02 -.285E+02   -.622E+02 0.158E+02 0.293E+02   0.374E+00 -.108E+00 0.991E+00   0.148E+00 0.376E-02 0.454E-01
   0.190E+02 -.561E+02 0.683E+02   -.158E+02 0.559E+02 -.750E+02   -.205E+01 0.509E+00 0.156E+01   -.507E-01 0.679E-01 -.103E+00
   0.965E+02 -.237E+01 -.551E+02   -.959E+02 0.311E+01 0.565E+02   -.560E+00 -.191E+00 -.131E+01   -.183E+00 -.105E+00 -.784E-02
   0.172E+03 0.136E+03 -.407E+03   -.184E+03 -.129E+03 0.556E+03   0.204E+01 0.784E+00 -.806E+01   -.853E-01 0.139E+00 0.284E+00
   -.342E+02 0.200E+02 0.185E+03   0.337E+02 -.194E+02 -.189E+03   0.110E+01 -.431E+00 -.273E+01   -.499E-01 -.237E-01 0.105E-01
   0.290E+01 0.473E+02 0.564E+01   -.292E+01 -.461E+02 -.975E+01   0.734E+00 -.449E+00 0.353E+01   0.153E-01 0.953E-01 -.131E+00
   -.166E+03 -.125E+03 0.550E+02   0.168E+03 0.127E+03 -.587E+02   -.110E+01 -.133E+01 0.178E+01   -.167E+00 0.151E+00 -.186E+00
   -.455E+02 0.560E+02 -.120E+03   0.444E+02 -.548E+02 0.129E+03   0.122E+01 -.642E+00 -.815E+00   0.117E-01 -.306E-03 -.637E-02
   -.612E+02 0.820E+02 -.108E+03   0.615E+02 -.814E+02 0.108E+03   -.226E+00 -.600E+00 0.212E+01   0.749E-01 -.128E+00 0.428E-01
   0.282E+02 0.468E+01 0.227E+03   -.306E+02 -.610E+01 -.263E+03   0.125E+01 0.138E+00 0.482E+01   0.215E-01 -.901E-01 0.395E+00
   -.113E+03 -.120E+03 0.855E+01   0.112E+03 0.120E+03 -.874E+01   0.108E+01 0.191E+01 0.342E+00   0.833E-01 0.730E-01 -.381E+00
   -.128E+03 -.438E+02 -.266E+03   0.133E+03 0.343E+02 0.304E+03   -.434E+00 0.198E+01 -.523E+01   0.487E-01 -.138E+00 0.602E-01
   -.725E+02 0.548E+02 -.556E+02   0.722E+02 -.564E+02 0.732E+02   -.508E-01 0.112E+01 -.305E+01   -.254E-01 -.901E-01 0.143E+00
   -.610E+02 -.104E+02 0.645E+02   0.599E+02 0.102E+02 -.669E+02   0.416E+00 -.153E+00 -.287E+01   0.895E-02 0.290E-01 -.101E-01
   -.423E+02 -.510E+02 0.373E+02   0.429E+02 0.514E+02 -.390E+02   0.308E+00 0.207E+00 0.141E+01   -.295E-01 0.170E+00 -.568E-01
   0.128E+03 -.111E+03 0.600E+02   -.130E+03 0.111E+03 -.592E+02   0.165E+01 0.100E+00 -.127E+01   0.423E-01 0.907E-01 0.244E-01
   0.638E+02 0.300E+02 0.199E+02   -.646E+02 -.304E+02 -.220E+02   0.333E+00 -.255E+00 0.185E+00   -.342E-01 -.467E-01 -.518E-01
   0.112E+03 0.146E+02 -.886E+02   -.110E+03 -.141E+02 0.890E+02   -.370E+00 -.490E+00 0.180E+00   -.901E-01 0.538E-01 0.255E-02
   -.329E+02 -.309E+02 0.215E+03   0.320E+02 0.313E+02 -.234E+03   0.679E+00 0.117E+00 0.368E+01   -.183E+00 0.331E-01 0.782E-01
   0.635E+02 -.434E+02 -.525E+02   -.634E+02 0.434E+02 0.551E+02   0.220E+00 0.569E+00 -.109E+00   -.450E-01 0.771E-01 -.944E-01
   0.110E+03 0.377E+02 -.238E+03   -.111E+03 -.390E+02 0.248E+03   -.332E+00 0.650E+00 0.116E+01   0.400E-01 -.123E+00 0.138E-01
   -.637E+02 0.759E+02 0.145E+02   0.645E+02 -.759E+02 -.150E+02   -.124E+00 0.336E-01 0.237E+01   0.401E-01 -.245E+00 0.185E+00
   -.639E+01 0.951E+02 -.165E+03   0.661E+01 -.953E+02 0.171E+03   -.252E+00 -.107E+00 0.259E+01   0.189E-01 -.427E-01 0.659E-02
   0.337E+02 -.174E+01 -.211E+03   -.296E+02 0.523E+01 0.231E+03   -.128E+01 -.321E+00 0.111E+00   -.353E-02 0.626E-01 -.203E+00
   -.350E+02 0.301E+01 -.357E+02   0.315E+02 -.491E+01 0.377E+02   0.449E+01 0.220E+01 -.197E+01   0.115E+00 0.254E-01 -.307E-01
   0.287E+02 0.796E+02 -.466E+02   -.364E+02 -.880E+02 0.513E+02   0.783E+01 0.818E+01 -.260E+01   0.179E-01 -.383E-01 -.803E-02
   0.144E+03 -.725E+02 0.358E+03   -.186E+03 0.887E+02 -.433E+03   0.180E+02 -.722E+01 0.261E+02   0.164E+00 0.331E-01 0.122E+00
   0.548E+02 -.387E+02 0.106E+03   -.587E+02 0.434E+02 -.119E+03   0.404E+01 -.524E+01 0.742E+01   0.484E-01 0.241E-01 -.815E-01
   0.743E+02 -.358E+02 -.137E+03   -.818E+02 0.348E+02 0.155E+03   0.670E+01 0.535E+00 -.834E+01   -.957E-01 0.708E-02 -.453E-01
   0.477E+02 -.229E+02 0.386E+02   -.499E+02 0.250E+02 -.419E+02   0.216E+01 -.226E+01 0.167E+01   0.324E-02 -.503E-01 0.162E+00
   0.915E+02 0.731E+02 -.126E+03   -.891E+02 -.761E+02 0.134E+03   -.432E+01 0.334E+01 -.701E+01   -.262E-01 0.178E-02 0.795E-01
   -.329E+02 -.252E+02 -.919E+02   0.306E+02 0.275E+02 0.106E+03   0.200E+01 -.265E+01 -.826E+01   0.210E-01 0.337E-01 -.119E+00
   -.128E+02 0.648E+02 0.440E+03   0.303E+02 -.738E+02 -.610E+03   -.863E+01 -.590E+00 0.296E+02   -.135E-01 0.843E-01 0.822E-02
   0.605E+01 0.264E+02 -.186E+02   -.562E+01 -.341E+02 0.146E+02   -.880E-01 0.703E+01 0.158E+01   -.693E-01 0.671E-01 -.426E-01
   -.630E+02 0.227E+02 -.722E+00   0.683E+02 -.212E+02 -.231E+01   -.602E+01 -.165E+01 0.179E+01   0.636E-01 -.724E-01 0.149E-01
   -.727E+02 -.645E+02 0.178E+03   0.715E+02 0.670E+02 -.192E+03   0.205E+01 -.202E+01 0.908E+01   -.379E-01 0.375E-01 0.605E-01
   -.227E+02 -.318E+02 -.286E+03   0.275E+02 0.360E+02 0.338E+03   -.393E+01 -.388E+01 -.214E+02   0.128E-01 -.154E-02 -.248E+00
   -.375E+02 -.142E+03 0.242E+03   0.298E+02 0.161E+03 -.296E+03   0.478E+01 -.122E+02 0.215E+02   -.418E-03 0.216E-01 -.267E+00
   -.598E+02 -.251E+02 0.459E+02   0.634E+02 0.229E+02 -.479E+02   -.481E+01 0.275E+01 0.997E+00   0.325E-01 -.567E-01 0.401E+00
   -.631E+01 0.441E+01 -.190E+03   0.266E+01 -.165E+01 0.208E+03   0.431E+01 -.351E+01 -.103E+02   -.103E-01 -.822E-01 0.849E-01
   0.358E+01 -.939E+02 -.120E+03   -.207E+01 0.103E+03 0.134E+03   -.239E+01 -.959E+01 -.812E+01   -.109E-01 0.775E-01 -.190E+00
   -.948E+02 -.110E+02 0.287E+03   0.102E+03 0.127E+02 -.326E+03   -.579E+01 -.177E+01 0.162E+02   -.598E-02 0.118E-01 0.326E-01
   0.941E+02 0.290E+02 -.634E+01   -.105E+03 -.389E+02 0.462E+01   0.117E+02 0.113E+02 0.223E+01   0.163E-01 0.170E-01 0.146E+00
   0.312E+02 0.290E+02 -.664E+02   -.280E+02 -.284E+02 0.711E+02   -.383E+01 -.342E+00 -.285E+01   -.614E-01 -.325E-01 -.264E-01
   0.776E+02 -.208E+02 0.531E+02   -.736E+02 0.168E+02 -.534E+02   -.575E+01 0.513E+01 0.425E+00   -.537E-02 0.577E-01 -.978E-01
   -.386E+02 -.311E+02 -.786E+02   0.426E+02 0.314E+02 0.964E+02   -.309E+01 -.102E+01 -.576E+01   -.901E-01 0.637E-01 0.599E-01
   -.146E+02 -.531E+02 0.982E+02   0.251E+02 0.601E+02 -.116E+03   -.950E+01 -.686E+01 0.824E+01   0.246E-01 0.805E-03 -.145E+00
   -.957E+01 0.128E+02 0.652E+02   0.128E+02 -.129E+02 -.711E+02   -.449E+01 -.529E-01 0.567E+01   -.311E-01 -.443E-01 0.929E-01
   -.424E+02 0.334E+02 0.506E+02   0.428E+02 -.317E+02 -.642E+02   -.125E+01 -.193E+01 0.616E+01   0.424E-01 -.989E-01 0.119E+00
   0.963E+02 0.942E+02 0.196E+03   -.107E+03 -.104E+03 -.231E+03   0.866E+01 0.606E+01 0.151E+02   0.242E-01 0.592E-01 -.933E-01
   0.659E+00 0.631E+02 0.113E+03   -.299E+01 -.626E+02 -.122E+03   0.314E+01 -.540E+00 0.616E+01   0.754E-02 -.655E-02 -.464E-02
   -.179E+02 0.140E+02 -.880E+02   0.696E-12 -.107E-12 0.142E-12   0.179E+02 -.141E+02 0.879E+02   -.167E-01 0.729E-01 0.108E+00

 POSITION                                       TOTAL-FORCE (eV/Angst)
     -3.92769      7.35177      9.97171        24.636607     -8.960116     49.263534
      8.44783      0.06308      3.52644        -0.399662      0.366656     -5.943005
      0.13794      0.11224      6.62345         0.105984      0.221671      3.070866
     -1.24926      2.39627      0.21913         0.020232      0.523409      1.818034
     -1.11703      2.54766      3.58868         1.112151      0.302507     -5.257774
     -1.28392      2.43566      6.84741        -0.166853      0.442429      0.124341
     -2.64622      5.34655      9.75925        -9.866693      7.851638    140.756729
     -2.73998      5.08436      3.65574         0.568766      0.082545     -7.161828
      5.51284      4.82885      7.00458         0.725726      0.801550     -0.708849
      3.00385      0.02457      0.24182        -0.206435      0.430202     -2.084348
      2.60931      0.26219      3.28366         0.127353      0.606445      7.358815
      2.81894      0.31234      6.66852         0.174818     -0.122866      2.629350
      1.58114      2.60706      0.26908        -1.114937     -1.365598    -30.636706
      1.31969      2.15130      3.57969        -0.354995      1.720114     -0.230416
      1.25007      2.39606      6.78932         4.300208     -7.660095     32.738260
     -0.10466      5.01574      0.25825        -0.370170     -0.603396     14.644321
      0.17169      4.81318      3.66520        -0.608894     -0.320923     -5.301101
     -0.32785      4.93654      7.04812         0.913838      0.768887     -0.365169
      2.01250      7.40157      0.38658         0.176885     -0.610829     -0.385359
      5.79732      0.11579      3.54554        -0.463873     -0.751549     -1.941575
      5.54328      0.04377      6.92169         1.158090      0.005294      0.574292
      4.30242      2.50638      0.33184        -0.344993      0.520971    -15.606320
      4.54054      2.33415      3.38936         0.257912      0.607194      2.375542
      4.29181      2.50215      6.57435        -1.153791     -0.763535     10.767613
      2.66537      4.92300      0.10290         0.690516     -0.152849      2.079033
      3.11261      4.93099      3.33606        -0.011391     -0.327347      8.179411
      3.02686      5.13374      6.65014         2.808908      3.235776     20.029391
      3.74691      7.40733      1.65724         1.075175      0.326323     -0.041265
      4.06446      7.23174      5.06825         0.111690     -0.271191      2.128564
      8.33126      0.14737      8.92055       -24.140606      9.092765    -49.320217
     -1.30496      2.67811      2.03098         0.116723     -0.458282     -5.444035
     -1.37156      2.49734      5.04860        -0.897201     -0.461973     10.363069
     -1.31915      2.55076      8.61836        -0.037083     -0.245578     -1.470905
     -2.44637      5.01855      1.47470        -1.903254      0.328413      0.664155
     -2.91782      5.10947      5.18696        -0.276093     -0.295663      5.987219
     -2.56638      5.28354      8.71239         8.865558     -9.494716   -139.755851
     -1.52138      7.38060      1.79824         0.274424     -0.600097     -2.450887
      2.91046      0.43133      4.99751        -0.612995     -0.231800     -1.224323
      2.83840      0.10322      8.69670         0.749055      0.554824     -4.217904
      1.66559      2.65202      1.58461         0.847068      0.357581     30.846883
      1.09780      2.70878      5.53267        -2.858197      6.606042    -32.190953
      1.62847      2.36029      8.57952        -1.197710      0.486683     -0.624626
     -0.19288      5.08035      1.77549         0.651937     -0.837390      7.935794
      0.08691      5.24085      5.17773        -0.887005      0.008347      5.531900
      0.00732      5.05626      8.96393         1.022919      0.022835    -23.090102
      1.17342      6.99917      1.89458         0.720484      1.517106      0.661929
      5.83183      0.13643      5.19354        -0.701406      0.166158      1.868964
      1.93869      7.18320      8.60902        -1.757807      1.137903      0.023817
      4.46303      2.44005      1.75193         0.832007     -0.717371     12.140424
      4.69575      2.70419      5.15443         1.025888      0.111448     -9.387191
      4.57591      2.60119      8.63328        -1.244519     -0.159401     -0.185602
      2.97640      4.96665      1.82217        -0.856714     -0.296187     -7.319234
      2.75088      4.83494      5.32273        -2.455732     -3.456009    -19.612348
      2.71566      5.05246      8.52298         0.818088     -0.038954     -2.604358
    total drift:                                0.015230      0.011370     -0.020756

  FREE ENERGIE OF THE ION-ELECTRON SYSTEM (eV)
  free  energy   TOTEN  =      -259.2351337272 eV

  energy  without entropy=     -259.1717216233  energy(sigma->0) =     -259.20342768

volume of typ            1:    27.0 %

volume of typ            2:     6.9 %

total charge

# of ion       s       p       d       tot
    1        0.487   0.609   8.180   9.276
    2        0.302   0.319   7.964   8.585
    3        0.263   0.222   8.006   8.490
    4        0.269   0.257   7.930   8.457
    5        0.406   0.530   7.969   8.905
    6        0.258   0.243   7.939   8.440
    7        0.634   0.860   8.364   9.858
    8        0.290   0.263   7.969   8.522
    9        0.233   0.210   7.983   8.425
   10        0.348   0.409   7.962   8.719
   11        0.359   0.393   7.969   8.722
   12        0.266   0.230   7.933   8.428
   13        0.434   0.560   8.042   9.036
   14        0.216   0.154   8.003   8.373
   15        0.443   0.564   8.076   9.083
   16        0.467   0.669   8.039   9.175
   17        0.291   0.284   7.950   8.525
   18        0.205   0.152   7.968   8.326
   19        0.246   0.240   7.925   8.410
   20        0.293   0.301   7.930   8.523
   21        0.252   0.227   7.913   8.392
   22        0.372   0.434   7.978   8.784
   23        0.279   0.278   7.968   8.525
   24        0.325   0.325   7.973   8.623
   25        0.296   0.305   7.939   8.540
   26        0.306   0.297   7.988   8.592
   27        0.391   0.440   8.010   8.841
   28        1.275   2.706   0.004   3.985
   29        1.283   2.805   0.019   4.107
   30        1.337   2.877   0.044   4.258
   31        1.274   2.774   0.011   4.059
   32        1.281   2.810   0.017   4.109
   33        1.270   2.746   0.009   4.025
   34        1.281   2.676   0.003   3.960
   35        1.278   2.767   0.014   4.059
   36        1.345   3.049   0.071   4.464
   37        1.281   2.845   0.022   4.148
   38        1.269   2.756   0.010   4.035
   39        1.275   2.734   0.008   4.017
   40        1.305   2.849   0.030   4.183
   41        1.312   2.854   0.032   4.198
   42        1.269   2.741   0.005   4.016
   43        1.288   2.763   0.013   4.064
   44        1.276   2.747   0.011   4.034
   45        1.296   2.843   0.024   4.164
   46        1.280   2.726   0.008   4.014
   47        1.273   2.765   0.011   4.049
   48        1.284   2.687   0.006   3.976
   49        1.285   2.855   0.026   4.166
   50        1.281   2.803   0.017   4.101
   51        1.273   2.689   0.004   3.966
   52        1.278   2.793   0.016   4.087
   53        1.291   2.822   0.023   4.136
   54        1.276   2.732   0.008   4.016
tot          43.65   84.99  216.34  344.97

magnetization (x)

# of ion       s       p       d       tot
    1       -0.019  -0.033  -0.588  -0.640
    2        0.003  -0.000   0.453   0.456
    3        0.002   0.001   0.527   0.530
    4        0.009   0.001   0.708   0.718
    5       -0.004   0.002  -0.432  -0.434
    6        0.003  -0.002   0.377   0.378
    7       -0.007   0.004   0.029   0.027
    8        0.010   0.009   0.912   0.930
    9       -0.003  -0.004   0.418   0.411
   10       -0.004   0.002  -0.272  -0.275
   11        0.004  -0.004   0.302   0.302
   12        0.004  -0.001   0.690   0.693
   13        0.010   0.012   0.625   0.646
   14       -0.003  -0.002   0.168   0.164
   15       -0.009  -0.008  -0.467  -0.484
   16       -0.004   0.002  -0.094  -0.096
   17        0.013   0.007   0.810   0.831
   18        0.006  -0.000   0.620   0.626
   19       -0.003  -0.000  -0.052  -0.054
   20        0.005   0.003   0.513   0.522
   21        0.007  -0.002   0.795   0.801
   22       -0.005  -0.005  -0.282  -0.291
   23        0.002  -0.001  -0.094  -0.094
   24        0.013   0.004   0.826   0.842
   25       -0.003   0.001  -0.206  -0.209
   26        0.002  -0.002   0.004   0.005
   27        0.016   0.011   0.705   0.732
   28       -0.004  -0.035   0.000  -0.038
   29        0.007   0.266  -0.000   0.273
   30       -0.006  -0.292  -0.003  -0.301
   31       -0.002  -0.092  -0.000  -0.094
   32       -0.003  -0.142  -0.000  -0.146
   33        0.009   0.317  -0.000   0.326
   34        0.001   0.023   0.000   0.024
   35        0.011   0.417   0.000   0.429
   36       -0.000   0.024  -0.000   0.023
   37       -0.000  -0.002   0.000  -0.001
   38        0.008   0.246   0.000   0.254
   39       -0.001  -0.063  -0.000  -0.064
   40        0.007   0.293   0.001   0.301
   41       -0.004  -0.196  -0.001  -0.202
   42       -0.001  -0.041   0.000  -0.042
   43        0.000  -0.018   0.000  -0.018
   44        0.010   0.380   0.000   0.391
   45        0.000  -0.007  -0.000  -0.007
   46        0.000   0.028   0.000   0.028
   47        0.008   0.303   0.000   0.311
   48        0.002   0.144  -0.000   0.146
   49       -0.004  -0.130   0.000  -0.134
   50        0.009   0.308   0.001   0.317
   51        0.003   0.100  -0.000   0.102
   52       -0.001  -0.039   0.000  -0.040
   53        0.007   0.296   0.001   0.304
   54       -0.000  -0.001   0.000  -0.002
tot           0.10    2.08    7.00    9.18