 vasp.5.4.4.18Apr17-6-g9f103f2a35 (build May 12 2020 04:58:55) complex

 MD_VERSION_INFO: Compiled 2020-05-12T11:58:55-UTC in devlin.sd.materialsdesign.
 com:/home/medea2/data/build/wwolf/vasp-gpu5.4.4/13047/x86_64/src/src/build/std
 from svn 13047

 executed on                        Lin64 date 2023.03.24  07:33:02

 INCAR:
 POTCAR:    PAW_PBE Ni 02Aug2007
 POTCAR:    PAW_PBE O 08Apr2002

 POTCAR:    PAW_PBE Ni 02Aug2007

 POTCAR:    PAW_PBE O 08Apr2002

 Optimization of the real space projectors (new method)

 maximal supplied QI-value         = 16.25
 optimisation between [QCUT,QGAM] = [ 11.38, 22.75] = [ 36.24,144.96] Ry
 Optimized for a Real-space Cutoff    1.47 Angstroem

   l    n(q)    QCUT    max X(q) W(low)/X(q) W(high)/X(q)  e(spline)
   2      9    11.376    60.317    0.17E-03    0.16E-04    0.16E-06
   2      9    11.376    55.921    0.17E-03    0.16E-04    0.17E-06
   0     10    11.376    51.690    0.45E-04    0.60E-04    0.21E-06
   0     10    11.376    30.015    0.37E-04    0.55E-04    0.19E-06
   1     10    11.376    18.849    0.83E-04    0.11E-03    0.92E-07
   1     10    11.376    14.624    0.69E-04    0.92E-04    0.82E-07
 Optimization of the real space projectors (new method)

 maximal supplied QI-value         = 24.76
 optimisation between [QCUT,QGAM] = [ 11.39, 22.77] = [ 36.31,145.25] Ry
 Optimized for a Real-space Cutoff    1.10 Angstroem

   l    n(q)    QCUT    max X(q) W(low)/X(q) W(high)/X(q)  e(spline)
   0      7    11.387    20.381    0.22E-03    0.48E-03    0.18E-06
   0      7    11.387    15.268    0.22E-03    0.52E-03    0.19E-06
   1      7    11.387     5.964    0.22E-03    0.73E-03    0.24E-06
   1      7    11.387     5.382    0.19E-03    0.60E-03    0.21E-06

  PAW_PBE Ni 02Aug2007                  :
  PAW_PBE O 08Apr2002                   :

 POSCAR: NiO_Cmmm_scale_0_975_disp_0_05_round_1
  positions in direct lattice
 exchange correlation table for  LEXCH =       14
   RHO(1)=    0.500       N(1)  =     2000
   RHO(2)=  100.500       N(2)  =     4000

 ion  position               nearest neighbor table
   1  0.004  0.007  0.990-  30 1.38  28 1.95  19 2.64   4 2.77  25 2.78  13 2.89   7 2.93  10 3.00

   2  0.018  0.015  0.346-  28 1.66  29 1.79   5 2.78  14 2.81  20 2.82  11 2.84  26 2.84   8 2.87

[...]

   9  0.011  0.691  0.674-  35 1.59  36 1.75  12 2.66   3 2.69  27 2.78  18 2.86  24 2.90
  10  0.353  0.005  0.996-  39 1.36  37 1.83  16 2.77  22 2.78   7 2.81  19 2.92  13 2.94   1 3.00
                            12 3.02
  11  0.349  0.013  0.345-  37 1.69  38 1.72  17 2.68   8 2.78   2 2.84  23 2.85  20 2.89  14 2.90

[...]

  18  0.340  0.681  0.683-  45 1.69  44 1.70  12 2.65   6 2.78  21 2.83   9 2.86  15 2.90  27 2.93
                            16 3.08
  19  0.700  0.017  0.991-  48 1.35  46 1.80   1 2.64   4 2.78  25 2.78  22 2.78  10 2.92  16 3.01
                            21 3.01
  20  0.685  0.008  0.339-  47 1.68  46 1.71  17 2.75  26 2.78   2 2.82   5 2.82  11 2.89  23 2.93

  21  0.674  0.008  0.692-  48 1.67  47 1.88   3 2.77  12 2.82  18 2.83  24 2.83  27 2.92   6 2.97
                            19 3.01
  22  0.677  0.330  0.994-  51 1.37  49 1.71  10 2.78  19 2.78  13 2.91   4 2.93   7 2.97  25 3.00

[...]

  28  0.984  0.985  0.183-   2 1.66   1 1.95
  29  0.002  0.992  0.522-   3 1.61   2 1.79
  30  0.998  0.006  0.854-   1 1.38   3 1.73
  31  0.022  0.341  0.173-   4 1.68   5 1.73
  32  0.033  0.343  0.509-   5 1.67   6 1.76
  33  0.026  0.341  0.852-   4 1.56   6 1.69
  34  0.020  0.677  0.171-   8 1.71   7 1.75
  35  0.035  0.695  0.518-   9 1.59   8 1.78
  36  0.016  0.685  0.848-   7 1.51   9 1.75
  37  0.333  0.002  0.177-  11 1.69  10 1.83
  38  0.346  0.998  0.515-  11 1.72  12 1.83
  39  0.341  0.001  0.861-  10 1.36  12 1.67
  40  0.340  0.352  0.173-  13 1.72  14 1.72
  41  0.337  0.343  0.513-  14 1.70  15 1.76
  42  0.335  0.342  0.850-  13 1.53  15 1.64
  43  0.348  0.701  0.177-  17 1.65  16 1.90
  44  0.344  0.690  0.514-  18 1.70  17 1.75
  45  0.344  0.675  0.851-  16 1.39  18 1.69
  46  0.692  0.011  0.170-  20 1.71  19 1.80
  47  0.678  0.996  0.506-  20 1.68  21 1.88
  48  0.684  0.999  0.857-  19 1.35  21 1.67
  49  0.685  0.339  0.163-  22 1.71  23 1.73
  50  0.692  0.345  0.508-  23 1.75  24 1.79
  51  0.690  0.352  0.859-  22 1.37  24 1.75
  52  0.681  0.684  0.159-  25 1.65  26 1.83
  53  0.674  0.680  0.509-  26 1.70  27 1.75
  54  0.684  0.678  0.850-  25 1.47  27 1.69

  LATTYP: Found a hexagonal cell.
 ALAT       =     8.5551570040
 C/A-ratio  =     1.1769065425

  Lattice vectors:

 A1 = (   8.5551570000,   0.0000000000,   0.0000000000)
 A2 = (  -4.2775785000,   7.4089833000,   0.0000000000)
 A3 = (   0.0000000000,   0.0000000000,  10.0686202500)

Analysis of symmetry for initial positions (statically):
 Subroutine PRICEL returns:
 Original cell was already a primitive cell.

 Routine SETGRP: Setting up the symmetry group for a
 hexagonal supercell.

 Subroutine GETGRP returns: Found  1 space group operations
 (whereof  1 operations were pure point group operations)
 out of a pool of 24 trial point group operations.

The static configuration has the point symmetry C_1 .

Analysis of symmetry for dynamics (positions and initial velocities):
 Subroutine PRICEL returns:
 Original cell was already a primitive cell.

[...]

The dynamic configuration has the point symmetry C_1 .

Analysis of structural, dynamic, and magnetic symmetry:
 Subroutine PRICEL returns:
 Original cell was already a primitive cell.

 Routine SETGRP: Setting up the symmetry group for a
 hexagonal supercell.

 Subroutine GETGRP returns: Found  1 space group operations
 (whereof  1 operations were pure point group operations)
 out of a pool of 24 trial point group operations.

The magnetic configuration has the point symmetry C_1 .

 Subroutine INISYM returns: Found  1 space group operations
 (whereof  1 operations are pure point group operations),
 and found     1 'primitive' translations

 KPOINTS: Automatic mesh

Automatic generation of k-mesh.
Space group operators:
 irot       det(A)        alpha          n_x          n_y          n_z        tau_x        tau_y        tau_z
    1     1.000000     0.000000     1.000000     0.000000     0.000000     0.000000     0.000000     0.000000

 Subroutine IBZKPT returns following result:

 Found     26 irreducible k-points:

 Following reciprocal coordinates:
            Coordinates               Weight
  0.000000  0.000000  0.000000      1.000000
  0.250000  0.000000  0.000000      2.000000
  0.500000  0.000000  0.000000      1.000000
  0.000000  0.250000  0.000000      2.000000
  0.250000  0.250000  0.000000      2.000000
  0.500000  0.250000  0.000000      2.000000
 -0.250000  0.250000  0.000000      2.000000
  0.000000  0.500000  0.000000      1.000000
  0.250000  0.500000  0.000000      2.000000
  0.500000  0.500000  0.000000      1.000000
  0.000000  0.000000  0.333333      2.000000
  0.250000  0.000000  0.333333      2.000000
  0.500000  0.000000  0.333333      2.000000
 -0.250000  0.000000  0.333333      2.000000
  0.000000  0.250000  0.333333      2.000000
  0.250000  0.250000  0.333333      2.000000
  0.500000  0.250000  0.333333      2.000000
 -0.250000  0.250000  0.333333      2.000000
  0.000000  0.500000  0.333333      2.000000
  0.250000  0.500000  0.333333      2.000000
  0.500000  0.500000  0.333333      2.000000
 -0.250000  0.500000  0.333333      2.000000
  0.000000 -0.250000  0.333333      2.000000
  0.250000 -0.250000  0.333333      2.000000
  0.500000 -0.250000  0.333333      2.000000
 -0.250000 -0.250000  0.333333      2.000000

 Following cartesian coordinates:
            Coordinates               Weight
  0.000000  0.000000  0.000000      1.000000
  0.029222  0.016871  0.000000      2.000000
  0.058444  0.033743  0.000000      1.000000
  0.000000  0.033743  0.000000      2.000000
  0.029222  0.050614  0.000000      2.000000
  0.058444  0.067486  0.000000      2.000000
 -0.029222  0.016871  0.000000      2.000000
  0.000000  0.067486  0.000000      1.000000
  0.029222  0.084357  0.000000      2.000000
  0.058444  0.101228  0.000000      1.000000
  0.000000  0.000000  0.033106      2.000000
  0.029222  0.016871  0.033106      2.000000
  0.058444  0.033743  0.033106      2.000000
 -0.029222 -0.016871  0.033106      2.000000
  0.000000  0.033743  0.033106      2.000000
  0.029222  0.050614  0.033106      2.000000
  0.058444  0.067486  0.033106      2.000000
 -0.029222  0.016871  0.033106      2.000000
  0.000000  0.067486  0.033106      2.000000
  0.029222  0.084357  0.033106      2.000000
  0.058444  0.101228  0.033106      2.000000
 -0.029222  0.050614  0.033106      2.000000
  0.000000 -0.033743  0.033106      2.000000
  0.029222 -0.016871  0.033106      2.000000
  0.058444  0.000000  0.033106      2.000000
 -0.029222 -0.050614  0.033106      2.000000

 SYSTEM =  unknown system
 POSCAR =  NiO_Cmmm_scale_0_975_disp_0_05_round_1

 Startparameter for this run:
   NWRITE =      1    write-flag & timer
   PREC   = accura    normal or accurate (medium, high low for compatibility)
   ISTART =      0    job   : 0-new  1-cont  2-samecut
   ICHARG =      2    charge: 1-file 2-atom 10-const
   ISPIN  =      2    spin polarized calculation?
   LNONCOLLINEAR =      F non collinear calculations
   LSORBIT =      F    spin-orbit coupling
   INIWAV =      1    electr: 0-lowe 1-rand  2-diag
   LASPH  =      F    aspherical Exc in radial PAW
   METAGGA=      F    non-selfconsistent MetaGGA calc.

 Electronic Relaxation 1
   ENCUT  =  500.0 eV  36.75 Ry    6.06 a.u.  15.60 15.60 18.36*2*pi/ulx,y,z
   ENINI  =  500.0     initial cutoff
   ENAUG  =  605.4 eV  augmentation charge cutoff
   NELM   =     80;   NELMIN=  2; NELMDL= -5     # of ELM steps
   EDIFF  = 0.1E-04   stopping-criterion for ELM
   LREAL  =      T    real-space projection
   NLSPLINE    = F    spline interpolate recip. space projectors
   LCOMPAT=      F    compatible to vasp.4.4
   GGA_COMPAT  = T    GGA compatible to vasp.4.4-vasp.4.6
   LMAXPAW     = -100 max onsite density
   LMAXMIX     =    2 max onsite mixed and CHGCAR
   VOSKOWN=      1    Vosko Wilk Nusair interpolation
   ROPT   =   -0.00025  -0.00025
 Ionic relaxation
   EDIFFG = 0.1E-03   stopping-criterion for IOM
   NSW    =      0    number of steps for IOM
   NBLOCK =      1;   KBLOCK =      1    inner block; outer block
   IBRION =     -1    ionic relax: 0-MD 1-quasi-New 2-CG
   NFREE  =      0    steps in history (QN), initial steepest desc. (CG)
   ISIF   =      2    stress and relaxation
   IWAVPR =     10    prediction:  0-non 1-charg 2-wave 3-comb
   ISYM   =      2    0-nonsym 1-usesym 2-fastsym
   LCORR  =      T    Harris-Foulkes like correction to forces

   POTIM  = 0.5000    time-step for ionic-motion
   TEIN   =    0.0    initial temperature
   TEBEG  =    0.0;   TEEND  =   0.0 temperature during run
   SMASS  =  -3.00    Nose mass-parameter (am)
   estimated Nose-frequenzy (Omega)   =  0.10E-29 period in steps =****** mass=  -0.167E-26a.u.
   SCALEE = 1.0000    scale energy and forces
   NPACO  =    256;   APACO  = 16.0  distance and # of slots for P.C.
   PSTRESS=    0.0 pullay stress

  Mass of Ions in am
[...]
   -.143E+02 -.459E+02 0.592E+02   0.141E+02 0.461E+02 -.595E+02   0.210E+00 -.709E-01 0.265E+01   0.761E-02 0.329E-01 0.233E+00
   0.409E+02 -.269E+02 -.139E+03   -.408E+02 0.269E+02 0.146E+03   -.813E-01 -.612E-01 -.164E+01   0.363E-01 0.593E-01 -.263E+00
   0.616E+02 -.215E+02 -.431E+01   -.613E+02 0.213E+02 0.321E+01   0.514E-01 0.922E-01 -.201E+00   0.262E-01 0.974E-02 0.836E-01
   0.867E+02 -.539E+01 0.124E+03   -.867E+02 0.513E+01 -.126E+03   -.136E+00 0.140E+00 0.884E+00   -.127E-01 0.336E-01 0.119E+00
   0.341E+02 0.434E+02 -.180E+03   -.334E+02 -.436E+02 0.190E+03   -.409E+00 0.644E-01 -.105E+01   0.922E-01 0.773E-01 -.126E+00
   0.576E+02 0.647E+02 -.262E+02   -.576E+02 -.646E+02 0.259E+02   0.619E-01 0.675E-01 0.122E+01   -.328E-01 -.371E-01 0.358E-01
   0.363E+02 0.998E+02 0.289E+02   -.365E+02 -.998E+02 -.265E+02   0.306E+00 0.670E-01 0.140E+01   0.177E-01 -.641E-01 0.994E-01
   -.373E+01 -.666E+02 -.294E+03   0.484E+01 0.674E+02 0.323E+03   -.624E+00 -.247E+00 -.366E+01   0.814E-01 -.140E+00 -.142E+00
   -.195E+01 -.111E+03 -.196E+02   0.182E+01 0.111E+03 0.198E+02   -.641E-04 -.275E+00 0.280E+00   -.319E-01 0.394E-01 0.336E-01
   0.473E+01 -.112E+03 0.146E+03   -.402E+01 0.112E+03 -.151E+03   -.347E+00 0.130E+00 0.228E+01   -.300E-01 -.159E-01 0.136E+00
   -.827E+02 0.198E+02 -.175E+03   0.827E+02 -.198E+02 0.184E+03   -.226E+00 0.372E-01 -.195E+01   0.138E-02 0.992E-01 0.238E-01
   -.611E+02 -.152E+02 -.247E+01   0.613E+02 0.149E+02 0.219E+01   -.146E+00 0.101E+00 -.108E-01   -.163E-02 0.197E-01 0.211E-01
   -.908E+02 0.320E+02 0.143E+03   0.910E+02 -.317E+02 -.147E+03   -.284E+00 -.218E+00 0.142E+01   -.631E-01 0.146E-01 -.566E-01
   -.327E+02 0.171E+02 -.294E+03   0.319E+02 -.170E+02 0.318E+03   0.430E-01 0.223E+00 -.201E+01   0.554E-01 0.114E+00 -.441E-01
   -.506E+02 0.592E+02 -.307E+02   0.505E+02 -.591E+02 0.317E+02   0.987E-02 -.794E-01 0.883E+00   0.254E-01 -.722E-01 -.142E+00
   -.287E+02 0.337E+02 0.104E+03   0.288E+02 -.333E+02 -.107E+03   0.148E+00 -.203E+00 0.265E+01   -.556E-01 -.865E-01 0.321E+00
   0.523E+02 -.451E+02 -.280E+03   -.514E+02 0.480E+02 0.310E+03   -.180E+00 -.832E+00 -.390E+01   -.557E-01 -.168E+00 -.354E-01
   0.320E+02 -.565E+02 -.174E+02   -.321E+02 0.565E+02 0.170E+02   0.267E-01 -.155E+00 0.219E+00   0.302E-01 0.821E-02 -.145E+00
   0.452E+02 -.711E+02 0.186E+03   -.452E+02 0.711E+02 -.191E+03   0.281E+00 -.385E+00 0.196E+01   0.243E-01 0.513E-01 0.254E+00
   0.318E+02 0.389E+01 -.229E+03   -.323E+02 -.665E+01 0.255E+03   0.367E+00 0.875E+00 -.325E+01   -.195E-01 -.171E-01 -.689E-01
   0.288E+02 -.160E+02 -.371E+02   -.286E+02 0.158E+02 0.376E+02   0.278E+00 -.331E-01 0.176E+00   -.242E-01 0.377E-01 -.981E-01
   0.328E+01 0.283E+02 0.127E+03   -.338E+01 -.283E+02 -.130E+03   0.203E+00 0.197E+00 0.243E+01   0.520E-01 0.427E-01 0.115E+00
   -.101E+02 0.780E+02 -.181E+03   0.985E+01 -.780E+02 0.193E+03   0.132E+00 0.775E-01 -.259E+01   -.123E+00 0.725E-01 -.203E-01
   -.194E+02 0.704E+02 0.316E+02   0.193E+02 -.708E+02 -.326E+02   -.971E-01 0.253E+00 -.449E+00   -.488E-03 -.509E-01 -.794E-01
   0.124E+02 0.722E+02 0.122E+03   -.123E+02 -.723E+02 -.125E+03   -.878E-01 0.366E+00 0.147E+01   0.386E-01 -.357E-01 0.137E+00
   -.225E+02 0.131E+02 0.388E+02   0.201E+02 -.171E+02 -.487E+02   0.313E+01 0.497E+01 0.717E+01   -.548E-02 -.223E-01 -.424E-01
   -.164E+02 -.123E+02 0.918E+02   0.171E+02 0.104E+02 -.100E+03   -.569E+00 0.260E+01 0.487E+01   0.219E-01 0.260E-01 0.162E-01
   -.349E+02 -.144E+02 0.159E+03   0.338E+02 0.145E+02 -.190E+03   0.100E+01 -.238E+00 0.101E+02   -.106E-01 -.320E-01 0.102E-01
   0.129E+02 -.144E+02 -.666E+02   -.126E+02 0.146E+02 0.686E+02   -.672E+00 -.157E+00 -.967E+00   0.227E-01 0.154E-01 0.824E-01
   0.321E+02 -.564E+01 -.666E+01   -.306E+02 0.640E+01 0.106E+02   -.207E+01 -.781E+00 -.247E+01   -.140E-01 0.983E-02 0.130E+00
   0.463E+02 -.158E+02 0.836E+02   -.464E+02 0.162E+02 -.918E+02   -.188E+00 -.348E+00 0.366E+01   0.114E-01 0.338E-01 -.219E+00
   0.350E+02 0.255E+02 -.257E+02   -.355E+02 -.255E+02 0.236E+02   0.416E+00 -.243E+00 0.141E+01   0.101E-01 0.196E-01 -.256E-01
   0.449E+01 0.453E+02 0.989E+02   -.143E+01 -.441E+02 -.108E+03   -.331E+01 -.165E+01 0.470E+01   -.261E-01 -.484E-01 0.982E-01
   0.238E+02 0.324E+02 0.953E+02   -.255E+02 -.319E+02 -.109E+03   0.107E+01 -.502E+00 0.610E+01   0.430E-01 0.184E-01 -.791E-01
   0.247E+02 -.390E+02 0.968E+01   -.266E+02 0.379E+02 -.156E+02   0.246E+01 0.178E+01 0.429E+01   0.255E-01 -.253E-01 -.719E-01
   -.108E+02 -.706E+02 -.105E+02   0.114E+02 0.699E+02 0.146E+02   -.762E+00 0.109E+01 -.291E+01   -.468E-01 0.293E-01 0.573E-01
   0.250E+02 -.515E+02 0.150E+03   -.284E+02 0.514E+02 -.181E+03   0.231E+01 -.994E-01 0.894E+01   0.313E-01 -.719E-01 0.422E-02
   -.272E+02 -.425E+01 -.456E+02   0.262E+02 0.520E+01 0.452E+02   0.153E+01 -.116E+01 0.524E+00   0.954E-02 0.474E-01 -.133E-01
   -.412E+02 0.976E+01 0.122E+02   0.403E+02 -.101E+02 -.990E+01   0.143E+01 0.385E+00 -.163E+01   -.171E-01 -.277E-02 0.536E-01
   -.318E+02 0.157E+02 0.620E+02   0.294E+02 -.162E+02 -.695E+02   0.295E+01 0.205E+00 0.285E+01   -.273E-01 0.417E-01 -.316E-01
   -.215E+02 0.132E+02 0.324E+02   0.209E+02 -.121E+02 -.414E+02   0.972E+00 -.180E+01 0.653E+01   0.478E-01 0.433E-02 -.237E+00
   -.251E+02 0.276E+02 0.433E+02   0.251E+02 -.274E+02 -.451E+02   0.336E+00 -.331E+00 0.902E+00   -.303E-01 -.733E-01 0.510E-01
   -.222E+02 0.136E+02 0.141E+03   0.236E+02 -.143E+02 -.169E+03   -.944E+00 0.580E+00 0.867E+01   -.152E-02 0.388E-01 0.210E+00
   0.301E+02 -.111E+02 -.209E+02   -.296E+02 0.110E+02 0.170E+02   -.643E+00 0.577E+00 0.286E+01   -.201E-01 -.703E-01 -.562E-01
   0.112E+02 -.297E+02 -.402E+02   -.109E+02 0.278E+02 0.476E+02   -.607E+00 0.247E+01 -.542E+01   0.305E-01 0.456E-01 0.318E-02
   0.332E+02 0.102E+02 0.168E+03   -.336E+02 -.160E+02 -.200E+03   -.939E+00 0.424E+01 0.913E+01   -.221E-01 -.634E-01 -.150E-02
   0.956E+01 -.123E+02 -.626E+02   -.827E+01 0.121E+02 0.630E+02   -.175E+01 0.849E-01 -.283E-01   -.294E-01 0.251E-02 -.280E-02
   -.769E+01 0.706E+01 0.751E+01   0.985E+01 -.716E+01 -.588E+01   -.263E+01 0.931E-01 -.129E+01   0.183E-01 0.378E-01 0.378E-01
   -.794E+00 -.375E+02 0.185E+03   0.194E+01 0.439E+02 -.218E+03   -.105E+01 -.464E+01 0.104E+02   0.158E-01 0.577E-02 -.437E-01
   -.251E+01 0.465E+02 -.106E+03   0.233E+01 -.458E+02 0.113E+03   0.317E+00 -.880E+00 -.410E+01   -.542E-01 0.791E-02 -.627E-01
   0.688E+01 0.385E+02 0.197E+02   -.865E+01 -.375E+02 -.174E+02   0.197E+01 -.119E+01 -.169E+01   0.366E-01 -.452E-01 0.409E-01
   -.131E+02 0.443E+02 0.105E+03   0.146E+02 -.446E+02 -.121E+03   -.133E+01 -.357E+00 0.585E+01   -.376E-01 0.351E-01 -.846E-03
   -.138E+01 -.405E+01 -.776E+02   -.693E-13 -.156E-12 -.341E-12   0.138E+01 0.413E+01 0.775E+02   0.687E-02 -.646E-01 0.139E+00

 POSITION                                       TOTAL-FORCE (eV/Angst)
      0.00456      0.05456      9.97127         0.214389     -0.259035     22.859942
      0.08639      0.11023      3.48197        -0.264316     -0.705877      1.947859
      4.22141      7.37578      6.86564         0.018563      0.144637      2.607222
     -1.24633      2.52253      0.06734         0.017142     -0.048212      4.323001
     -1.32534      2.50878      3.46900         0.386239     -0.104365     -1.215178
     -1.17092      2.52189      6.88612        -0.138393     -0.087552     -1.368252
     -2.68177      5.00777     10.04357         0.311720     -0.067247      8.619977
     -2.69831      5.06977      3.43445         0.010963      0.062212      0.935621
     -2.86224      5.12297      6.79107         0.145599     -0.042945      3.883957
      3.00251      0.03485     10.02805         0.570950      0.413466     25.028896
      2.92962      0.09384      3.46892        -0.161064     -0.350337      0.497205
     -1.36409      7.31470      7.00819         0.334534      0.410974     -2.933076
      1.46789      2.54373      0.02145        -0.253688      0.199880      6.657155
      1.43186      2.57947      3.46005         0.022432     -0.162571     -0.273524
      1.47916      2.55170      6.92025        -0.170016      0.059703     -2.688742
      0.02477      4.99941      9.95909        -0.619212      0.461067     21.582124
      0.00418      5.19031      3.43251        -0.102915     -0.049934      1.790391
     -0.00366      5.04255      6.88129         0.161518      0.054181     -0.557953
      5.91678      0.12657      9.97659         0.665497      1.867485     25.661903
      5.82082      0.06211      3.41456         0.036108     -0.191407     -0.323637
      5.72995      0.05770      6.96897         0.260555     -0.289074     -3.152646
      4.37824      2.44547     10.00810        -0.176195     -1.902859     22.494555
      4.31534      2.58041      3.36590         0.442633     -0.163177      0.625558
      4.37138      2.54087      6.90260         0.155146      0.229877     -0.927972
      2.89933      5.05742     10.02310        -0.279103      0.146142      9.998306
      2.92984      5.06368      3.42985        -0.220447     -0.244787     -1.608808
      2.92182      4.94427      6.86801         0.034465      0.202250     -1.309710
      4.20826      7.29416      1.84166         0.733351      0.924174     -2.749718
     -4.22876      7.34981      5.25921         0.222343      0.732737     -3.463289
      8.51558      0.04298      8.59408        -0.141154     -0.111056    -20.922711
     -1.27339      2.52425      1.74237        -0.376444      0.073028      1.142679
     -1.18474      2.54104      5.12975        -0.537560     -0.012729      1.582861
     -1.23395      2.52981      8.57855        -0.295777      0.085346     -4.772612
     -2.72592      5.01928      1.72539         0.012316     -0.197150     -0.687468
     -2.67795      5.15110      5.21370        -0.269250     -0.501101     -4.451061
     -2.79445      5.07238      8.53807        -0.629161     -0.013191     -8.097064
      2.84265      0.01653      1.78241         0.656865      0.634635     -1.674043
     -1.31285      7.39368      5.18229        -0.223808      0.480067      1.188597
      2.91747      0.00578      8.67215        -1.080771     -0.304180    -22.360400
      1.40484      2.60920      1.73919         0.489386     -0.159334      0.154221
      1.41480      2.54056      5.16343         0.501089      0.051915      0.711235
      1.40236      2.53303      8.55955         0.582393     -0.181082     -4.719556
     -0.02185      5.19325      1.77867         0.443650     -0.670385     -2.777030
     -0.00935      5.10869      5.17876         0.247100     -0.159574     -0.793926
      0.05259      5.00052      8.57219         0.434301     -0.091031    -18.983466
      5.86996      0.08162      1.71003        -0.128632      0.380895     -1.088304
      1.53600      7.38041      5.09389        -0.305321      0.571871      1.955646
      1.58332      7.39890      8.63061        -1.339774     -1.634583    -23.136847
      4.40852      2.51352      1.64334        -0.483804     -0.145859      0.445653
      4.44415      2.55719      5.11330        -0.450948      0.036318      0.372201
      4.40008      2.60426      8.65199         0.106682      1.687475    -22.850936
      2.89871      5.06970      1.60383         0.086131     -0.168549      2.676816
      2.85959      5.03718      5.12517         0.228308     -0.303713      0.673861
      2.94849      5.02174      8.55842         0.115387     -0.587439    -10.529517
    total drift:                                0.007531      0.012789      0.026071

  FREE ENERGIE OF THE ION-ELECTRON SYSTEM (eV)
  free  energy   TOTEN  =      -304.1450040562 eV

  energy  without entropy=     -304.0878779027  energy(sigma->0) =     -304.11644098

volume of typ            1:    27.0 %

volume of typ            2:     6.9 %

total charge

# of ion       s       p       d       tot
    1        0.381   0.437   8.042   8.860
    2        0.278   0.290   7.916   8.484
    3        0.308   0.335   7.944   8.588
    4        0.336   0.395   7.952   8.683
    5        0.290   0.305   7.913   8.508
    6        0.280   0.279   7.927   8.485
    7        0.339   0.387   7.958   8.684
    8        0.268   0.265   7.918   8.451
    9        0.314   0.341   7.939   8.594
   10        0.400   0.486   8.045   8.930
   11        0.288   0.306   7.906   8.499
   12        0.274   0.269   7.947   8.489
   13        0.335   0.384   7.956   8.675
   14        0.285   0.292   7.901   8.477
   15        0.294   0.303   7.939   8.535
   16        0.379   0.440   8.027   8.846
   17        0.291   0.308   7.914   8.514
   18        0.290   0.304   7.942   8.536
   19        0.406   0.507   8.049   8.962
   20        0.292   0.313   7.904   8.510
   21        0.262   0.250   7.955   8.468
   22        0.421   0.535   8.025   8.981
   23        0.272   0.269   7.905   8.446
   24        0.259   0.241   7.935   8.434
   25        0.380   0.473   7.974   8.827
   26        0.264   0.254   7.917   8.435
   27        0.282   0.286   7.934   8.502
   28        1.274   2.727   0.007   4.008
   29        1.273   2.764   0.011   4.048
   30        1.288   2.871   0.028   4.187
   31        1.270   2.760   0.009   4.040
   32        1.271   2.755   0.009   4.035
   33        1.272   2.809   0.016   4.096
   34        1.271   2.743   0.008   4.021
   35        1.274   2.767   0.012   4.053
   36        1.273   2.817   0.017   4.107
   37        1.270   2.739   0.007   4.017
   38        1.271   2.726   0.007   4.004
   39        1.291   2.893   0.032   4.216
   40        1.268   2.753   0.008   4.029
   41        1.269   2.744   0.008   4.022
   42        1.274   2.831   0.019   4.124
   43        1.272   2.736   0.008   4.016
   44        1.272   2.742   0.008   4.022
   45        1.286   2.874   0.028   4.189
   46        1.271   2.737   0.007   4.015
   47        1.272   2.727   0.007   4.006
   48        1.292   2.896   0.033   4.221
   49        1.269   2.751   0.009   4.028
   50        1.269   2.728   0.007   4.003
   51        1.289   2.872   0.028   4.190
   52        1.272   2.743   0.008   4.024
   53        1.271   2.744   0.009   4.024
   54        1.278   2.844   0.021   4.143
tot          42.89   84.34  215.06  342.29

magnetization (x)

# of ion       s       p       d       tot
    1        0.001   0.002   0.061   0.064
    2       -0.000  -0.000  -0.033  -0.033
    3        0.000  -0.000   0.023   0.023
    4       -0.002   0.000  -0.114  -0.115
    5        0.002  -0.000   0.222   0.224
    6        0.000  -0.000  -0.004  -0.004
    7       -0.001  -0.000  -0.070  -0.072
    8        0.001  -0.000   0.125   0.126
    9       -0.000   0.000  -0.009  -0.008
   10        0.000  -0.000  -0.025  -0.026
   11        0.001  -0.000   0.098   0.099
   12       -0.000  -0.000  -0.005  -0.005
   13       -0.004  -0.000  -0.266  -0.270
   14        0.006  -0.002   0.548   0.553
   15       -0.001  -0.001  -0.064  -0.065
   16        0.000   0.000  -0.008  -0.008
   17        0.002  -0.000   0.090   0.091
   18        0.000   0.000  -0.003  -0.003
   19        0.002   0.002   0.092   0.095
   20       -0.003   0.000  -0.165  -0.168
   21        0.001   0.001   0.046   0.047
   22        0.002   0.001   0.110   0.114
   23       -0.002   0.000  -0.216  -0.218
   24        0.000   0.000  -0.044  -0.044
   25        0.001  -0.000   0.038   0.039
   26       -0.000  -0.000  -0.029  -0.029
   27       -0.000   0.000  -0.020  -0.020
   28       -0.000  -0.014  -0.000  -0.015
   29       -0.000  -0.008   0.000  -0.008
   30        0.001   0.026   0.000   0.026
   31        0.001   0.017  -0.000   0.018
   32        0.002   0.071   0.000   0.073
   33       -0.001  -0.046   0.000  -0.047
   34        0.001   0.023  -0.000   0.024
   35        0.001   0.023  -0.000   0.024
   36       -0.001  -0.032  -0.000  -0.032
   37        0.000   0.016   0.000   0.016
   38        0.000   0.024   0.000   0.024
   39       -0.000  -0.012  -0.000  -0.012
   40        0.002   0.074   0.000   0.076
   41        0.004   0.171  -0.000   0.175
   42       -0.003  -0.114   0.000  -0.117
   43        0.000   0.022   0.000   0.023
   44        0.000   0.008   0.000   0.008
   45       -0.000  -0.005  -0.000  -0.005
   46       -0.001  -0.029  -0.000  -0.030
   47       -0.001  -0.051  -0.000  -0.051
   48        0.001   0.040   0.000   0.041
   49       -0.001  -0.019  -0.000  -0.020
   50       -0.001  -0.090   0.000  -0.091
   51        0.001   0.039   0.000   0.040
   52        0.000   0.008   0.000   0.008
   53       -0.000  -0.020   0.000  -0.020
   54        0.000   0.008   0.000   0.008
tot           0.01    0.13    0.38    0.52