 vasp.5.4.4.18Apr17-6-g9f103f2a35 (build May 12 2020 04:58:55) complex

 MD_VERSION_INFO: Compiled 2020-05-12T11:58:55-UTC in devlin.sd.materialsdesign.
 com:/home/medea2/data/build/wwolf/vasp-gpu5.4.4/13047/x86_64/src/src/build/std
 from svn 13047

 executed on                        Lin64 date 2023.03.24  07:36:39

 INCAR:
 POTCAR:    PAW_PBE Ni 02Aug2007
 POTCAR:    PAW_PBE O 08Apr2002

 POTCAR:    PAW_PBE Ni 02Aug2007

 POTCAR:    PAW_PBE O 08Apr2002

 Optimization of the real space projectors (new method)

 maximal supplied QI-value         = 16.25
 optimisation between [QCUT,QGAM] = [ 11.38, 22.75] = [ 36.24,144.96] Ry
 Optimized for a Real-space Cutoff    1.47 Angstroem

   l    n(q)    QCUT    max X(q) W(low)/X(q) W(high)/X(q)  e(spline)
   2      9    11.376    60.317    0.17E-03    0.16E-04    0.16E-06
   2      9    11.376    55.921    0.17E-03    0.16E-04    0.17E-06
   0     10    11.376    51.690    0.45E-04    0.60E-04    0.21E-06
   0     10    11.376    30.015    0.37E-04    0.55E-04    0.19E-06
   1     10    11.376    18.849    0.83E-04    0.11E-03    0.92E-07
   1     10    11.376    14.624    0.69E-04    0.92E-04    0.82E-07
 Optimization of the real space projectors (new method)

 maximal supplied QI-value         = 24.76
 optimisation between [QCUT,QGAM] = [ 11.39, 22.77] = [ 36.31,145.25] Ry
 Optimized for a Real-space Cutoff    1.10 Angstroem

   l    n(q)    QCUT    max X(q) W(low)/X(q) W(high)/X(q)  e(spline)
   0      7    11.387    20.381    0.22E-03    0.48E-03    0.18E-06
   0      7    11.387    15.268    0.22E-03    0.52E-03    0.19E-06
   1      7    11.387     5.964    0.22E-03    0.73E-03    0.24E-06
   1      7    11.387     5.382    0.19E-03    0.60E-03    0.21E-06

  PAW_PBE Ni 02Aug2007                  :
  PAW_PBE O 08Apr2002                   :

 POSCAR: NiO_Cmmm_scale_0_950_disp_0_20_round_2
  positions in direct lattice
 exchange correlation table for  LEXCH =       14
   RHO(1)=    0.500       N(1)  =     2000
   RHO(2)=  100.500       N(2)  =     4000

 ion  position               nearest neighbor table
   1  0.034  0.987  0.001-  30 1.36  28 1.74   7 2.11  19 2.48  10 2.58   4 2.68  25 2.83   3 2.99

   2  0.976  0.951  0.372-  29 1.51  28 1.94  26 2.50   8 2.71  20 2.77   5 2.81  11 2.86  14 2.90

[...]

   6  0.050  0.381  0.668-  32 1.51  33 2.03  18 2.42  15 2.63   9 2.64
   7  0.044  0.742  0.036-  34 1.35  36 1.56   1 2.11  10 2.40   8 2.81  16 2.86   9 2.94  22 2.98
                            25 2.99
   8  0.056  0.681  0.316-  34 1.46  11 2.22   2 2.71   7 2.81  17 2.86  23 2.88   5 3.00  26 3.06

[...]

  24  0.660  0.361  0.687-  51 1.72  50 1.85  15 2.58  27 2.98   9 3.07
  25  0.665  0.687  0.994-  54 1.16  52 1.47  19 2.26  13 2.48  16 2.58  27 2.64   1 2.83  22 2.98
                             7 2.99
  26  0.677  0.652  0.347-  52 2.02  53 2.18   2 2.50  17 2.53  23 2.53  14 2.95  20 2.95   8 3.06

[...]

  28  0.999  0.978  0.175-   1 1.74   2 1.94
  29  0.006  0.983  0.523-   2 1.51   3 1.71
  30  0.973  0.015  0.880-   1 1.36   3 1.84  19 2.17
  31  0.051  0.340  0.217-   5 1.25   4 1.81
  32  0.012  0.380  0.518-   6 1.51   5 1.85
  33  0.037  0.294  0.864-   4 1.67   6 2.03
  34  0.056  0.725  0.172-   7 1.35   8 1.46
  35  0.015  0.712  0.572-   9 1.71
  36  0.060  0.705  0.882-   9 1.39   7 1.56
  37  0.362  0.997  0.200-  11 1.52  10 2.25
  38  0.386  0.989  0.508-  11 1.65  12 1.93
  39  0.343  0.041  0.871-  10 1.06  12 1.80
  40  0.350  0.360  0.190-  13 1.58  14 1.76
  41  0.378  0.362  0.507-  14 1.49  15 1.87
  42  0.403  0.393  0.891-  13 1.39  15 1.98
  43  0.340  0.683  0.174-  16 1.74  17 1.76
  44  0.328  0.678  0.534-  18 1.76  17 1.97
  45  0.357  0.741  0.880-  16 1.20  18 1.76  10 2.32
  46  0.724  0.029  0.187-  20 1.65  19 1.94
  47  0.682  0.982  0.562-  21 1.50  20 2.08
  48  0.704  0.998  0.893-  19 1.04  21 1.76
  49  0.700  0.334  0.168-  22 1.47  23 1.59
  50  0.659  0.353  0.499-  23 1.69  24 1.85
  51  0.706  0.336  0.854-  22 1.63  24 1.72
  52  0.678  0.694  0.144-  25 1.47  26 2.02
  53  0.734  0.732  0.561-  27 1.68  26 2.18
  54  0.712  0.676  0.886-  25 1.16  27 1.68

  LATTYP: Found a hexagonal cell.
 ALAT       =     8.3357939959
 C/A-ratio  =     1.1769065436

  Lattice vectors:

 A1 = (   8.3357940000,   0.0000000000,   0.0000000000)
 A2 = (  -4.1678970000,   7.2190093600,   0.0000000000)
 A3 = (   0.0000000000,   0.0000000000,   9.8104505000)

Analysis of symmetry for initial positions (statically):
 Subroutine PRICEL returns:
 Original cell was already a primitive cell.

 Routine SETGRP: Setting up the symmetry group for a
 hexagonal supercell.

 Subroutine GETGRP returns: Found  1 space group operations
 (whereof  1 operations were pure point group operations)
 out of a pool of 24 trial point group operations.

The static configuration has the point symmetry C_1 .

Analysis of symmetry for dynamics (positions and initial velocities):
 Subroutine PRICEL returns:
 Original cell was already a primitive cell.

[...]

The dynamic configuration has the point symmetry C_1 .

Analysis of structural, dynamic, and magnetic symmetry:
 Subroutine PRICEL returns:
 Original cell was already a primitive cell.

 Routine SETGRP: Setting up the symmetry group for a
 hexagonal supercell.

 Subroutine GETGRP returns: Found  1 space group operations
 (whereof  1 operations were pure point group operations)
 out of a pool of 24 trial point group operations.

The magnetic configuration has the point symmetry C_1 .

 Subroutine INISYM returns: Found  1 space group operations
 (whereof  1 operations are pure point group operations),
 and found     1 'primitive' translations

 KPOINTS: Automatic mesh

Automatic generation of k-mesh.
Space group operators:
 irot       det(A)        alpha          n_x          n_y          n_z        tau_x        tau_y        tau_z
    1     1.000000     0.000000     1.000000     0.000000     0.000000     0.000000     0.000000     0.000000

 Subroutine IBZKPT returns following result:

 Found     26 irreducible k-points:

 Following reciprocal coordinates:
            Coordinates               Weight
  0.000000  0.000000  0.000000      1.000000
  0.250000  0.000000  0.000000      2.000000
  0.500000  0.000000  0.000000      1.000000
  0.000000  0.250000  0.000000      2.000000
  0.250000  0.250000  0.000000      2.000000
  0.500000  0.250000  0.000000      2.000000
 -0.250000  0.250000  0.000000      2.000000
  0.000000  0.500000  0.000000      1.000000
  0.250000  0.500000  0.000000      2.000000
  0.500000  0.500000  0.000000      1.000000
  0.000000  0.000000  0.333333      2.000000
  0.250000  0.000000  0.333333      2.000000
  0.500000  0.000000  0.333333      2.000000
 -0.250000 -0.000000  0.333333      2.000000
  0.000000  0.250000  0.333333      2.000000
  0.250000  0.250000  0.333333      2.000000
  0.500000  0.250000  0.333333      2.000000
 -0.250000  0.250000  0.333333      2.000000
  0.000000  0.500000  0.333333      2.000000
  0.250000  0.500000  0.333333      2.000000
  0.500000  0.500000  0.333333      2.000000
 -0.250000  0.500000  0.333333      2.000000
  0.000000 -0.250000  0.333333      2.000000
  0.250000 -0.250000  0.333333      2.000000
  0.500000 -0.250000  0.333333      2.000000
 -0.250000 -0.250000  0.333333      2.000000

 Following cartesian coordinates:
            Coordinates               Weight
  0.000000  0.000000  0.000000      1.000000
  0.029991  0.017315  0.000000      2.000000
  0.059982  0.034631  0.000000      1.000000
  0.000000  0.034631  0.000000      2.000000
  0.029991  0.051946  0.000000      2.000000
  0.059982  0.069262  0.000000      2.000000
 -0.029991  0.017315  0.000000      2.000000
  0.000000  0.069262  0.000000      1.000000
  0.029991  0.086577  0.000000      2.000000
  0.059982  0.103892  0.000000      1.000000
  0.000000  0.000000  0.033977      2.000000
  0.029991  0.017315  0.033977      2.000000
  0.059982  0.034631  0.033977      2.000000
 -0.029991 -0.017315  0.033977      2.000000
  0.000000  0.034631  0.033977      2.000000
  0.029991  0.051946  0.033977      2.000000
  0.059982  0.069262  0.033977      2.000000
 -0.029991  0.017315  0.033977      2.000000
  0.000000  0.069262  0.033977      2.000000
  0.029991  0.086577  0.033977      2.000000
  0.059982  0.103892  0.033977      2.000000
 -0.029991  0.051946  0.033977      2.000000
  0.000000 -0.034631  0.033977      2.000000
  0.029991 -0.017315  0.033977      2.000000
  0.059982  0.000000  0.033977      2.000000
 -0.029991 -0.051946  0.033977      2.000000

 SYSTEM =  unknown system
 POSCAR =  NiO_Cmmm_scale_0_950_disp_0_20_round_2

 Startparameter for this run:
   NWRITE =      1    write-flag & timer
   PREC   = accura    normal or accurate (medium, high low for compatibility)
   ISTART =      0    job   : 0-new  1-cont  2-samecut
   ICHARG =      2    charge: 1-file 2-atom 10-const
   ISPIN  =      2    spin polarized calculation?
   LNONCOLLINEAR =      F non collinear calculations
   LSORBIT =      F    spin-orbit coupling
   INIWAV =      1    electr: 0-lowe 1-rand  2-diag
   LASPH  =      F    aspherical Exc in radial PAW
   METAGGA=      F    non-selfconsistent MetaGGA calc.

 Electronic Relaxation 1
   ENCUT  =  500.0 eV  36.75 Ry    6.06 a.u.  15.20 15.20 17.89*2*pi/ulx,y,z
   ENINI  =  500.0     initial cutoff
   ENAUG  =  605.4 eV  augmentation charge cutoff
   NELM   =     80;   NELMIN=  2; NELMDL= -5     # of ELM steps
   EDIFF  = 0.1E-04   stopping-criterion for ELM
   LREAL  =      T    real-space projection
   NLSPLINE    = F    spline interpolate recip. space projectors
   LCOMPAT=      F    compatible to vasp.4.4
   GGA_COMPAT  = T    GGA compatible to vasp.4.4-vasp.4.6
   LMAXPAW     = -100 max onsite density
   LMAXMIX     =    2 max onsite mixed and CHGCAR
   VOSKOWN=      1    Vosko Wilk Nusair interpolation
   ROPT   =   -0.00025  -0.00025
 Ionic relaxation
   EDIFFG = 0.1E-03   stopping-criterion for IOM
   NSW    =      0    number of steps for IOM
   NBLOCK =      1;   KBLOCK =      1    inner block; outer block
   IBRION =     -1    ionic relax: 0-MD 1-quasi-New 2-CG
   NFREE  =      0    steps in history (QN), initial steepest desc. (CG)
   ISIF   =      2    stress and relaxation
   IWAVPR =     10    prediction:  0-non 1-charg 2-wave 3-comb
   ISYM   =      2    0-nonsym 1-usesym 2-fastsym
   LCORR  =      T    Harris-Foulkes like correction to forces

   POTIM  = 0.5000    time-step for ionic-motion
   TEIN   =    0.0    initial temperature
   TEBEG  =    0.0;   TEEND  =   0.0 temperature during run
   SMASS  =  -3.00    Nose mass-parameter (am)
   estimated Nose-frequenzy (Omega)   =  0.10E-29 period in steps =****** mass=  -0.159E-26a.u.
   SCALEE = 1.0000    scale energy and forces
   NPACO  =    256;   APACO  = 16.0  distance and # of slots for P.C.
   PSTRESS=    0.0 pullay stress

  Mass of Ions in am
   POMASS =  58.69 16.00
  Ionic Valenz
   ZVAL   =  10.00  6.00
  Atomic Wigner-Seitz radii
  virtual crystal weights
   VCA    =   1.00  1.00
   NELECT =     432.0000    total number of electrons
   NUPDOWN=      -1.0000    fix difference up-down

 DOS related values:
[...]
   -.691E+02 -.177E+03 0.161E+03   0.701E+02 0.178E+03 -.162E+03   -.128E+01 -.108E+01 0.221E+01   -.430E-01 -.537E-02 -.252E+00
   0.117E+03 -.162E+03 -.886E+02   -.116E+03 0.163E+03 0.866E+02   -.329E+00 -.398E+00 0.336E+01   -.882E-01 -.114E-01 0.566E+00
   0.775E+02 0.361E+02 -.387E+03   -.799E+02 -.440E+02 0.434E+03   -.223E+00 0.143E+01 -.237E+01   0.401E+00 0.303E+00 -.193E+00
   0.940E+02 0.110E+03 -.329E+02   -.917E+02 -.111E+03 0.410E+02   -.721E+00 -.781E+00 0.198E+01   0.235E+00 -.185E-01 -.441E+00
   0.417E+02 0.251E+03 -.230E+02   -.452E+02 -.251E+03 0.236E+01   0.141E+01 0.902E+00 0.201E+01   0.784E-01 0.666E-01 0.344E+00
   0.483E+02 0.287E+03 -.399E+03   -.502E+02 -.289E+03 0.411E+03   0.155E+01 -.116E+01 0.445E+00   0.728E+00 0.132E+00 0.463E-01
   0.926E+02 0.283E+03 0.303E+03   -.933E+02 -.286E+03 -.327E+03   -.584E-01 0.120E+01 0.425E+01   0.304E-03 0.208E+00 -.208E+00
   -.203E+03 -.174E+03 -.528E+03   0.230E+03 0.132E+03 0.656E+03   -.202E+01 -.139E+01 -.466E+01   -.703E-01 -.604E-01 0.419E+00
   0.720E+02 -.150E+03 -.168E+03   -.733E+02 0.151E+03 0.175E+03   0.116E+01 0.184E+00 -.136E+01   0.211E+00 -.539E+00 -.147E+00
   -.762E+02 -.211E+03 0.275E+03   0.757E+02 0.213E+03 -.281E+03   0.999E+00 0.275E+00 0.429E+01   -.227E+00 -.248E+00 -.275E+00
   -.167E+02 0.128E+03 -.173E+03   0.122E+02 -.130E+03 0.190E+03   0.182E+01 0.135E+01 -.281E+01   -.248E+00 -.102E+00 0.607E+00
   -.480E+02 0.985E+02 0.127E+02   0.469E+02 -.100E+03 -.218E+02   0.382E+00 0.575E+00 0.180E+00   -.435E+00 0.178E-01 0.395E-01
   -.201E+02 0.568E+02 0.111E+03   0.205E+02 -.558E+02 -.112E+03   0.574E+00 0.115E+00 0.143E+01   -.436E+00 -.124E+00 -.535E+00
   -.278E+02 0.158E+03 -.376E+03   0.401E+02 -.167E+03 0.442E+03   -.167E+01 0.205E+01 -.615E+01   -.110E+00 0.247E-01 0.851E+00
   -.802E+02 0.154E+03 -.157E+03   0.806E+02 -.156E+03 0.157E+03   -.118E+01 -.899E-02 0.141E+01   -.569E+00 -.196E+00 -.678E-01
   -.584E+02 0.146E+03 0.182E+03   0.593E+02 -.146E+03 -.187E+03   -.936E+00 0.117E+01 0.419E+01   -.118E-01 0.356E-01 -.616E+00
   0.751E+02 -.202E+03 -.566E+03   -.346E+02 0.195E+03 0.712E+03   0.928E+00 -.197E+01 -.667E+01   0.858E-01 0.129E+00 0.759E-01
   0.192E+02 -.156E+03 -.210E+03   -.167E+02 0.156E+03 0.208E+03   -.118E+01 0.127E+01 0.358E+01   -.343E+00 -.476E+00 0.777E-01
   0.189E+03 -.320E+03 0.145E+03   -.191E+03 0.322E+03 -.141E+03   0.110E+01 -.773E+00 0.434E+01   0.211E+00 -.118E+00 -.223E+00
   -.393E+02 0.115E+02 0.318E+02   0.400E+02 -.105E+02 -.422E+02   -.127E+00 -.106E+01 0.150E+01   0.236E+00 -.633E-01 0.498E+00
   -.344E+02 0.117E+02 -.139E+03   0.338E+02 -.998E+01 0.144E+03   0.138E+00 -.141E+01 -.169E+01   0.173E+00 -.228E+00 -.430E+00
   -.609E+02 0.356E+02 0.170E+03   0.612E+02 -.365E+02 -.172E+03   0.946E-01 0.566E+00 -.169E+00   0.137E-02 -.547E-02 -.475E-01
   0.770E+02 0.196E+03 -.291E+03   -.109E+03 -.193E+03 0.357E+03   0.263E+01 0.121E+01 -.460E+01   0.687E-01 0.258E+00 0.175E+00
   -.227E+02 0.121E+03 -.125E+03   0.229E+02 -.119E+03 0.124E+03   0.228E+00 -.787E+00 0.821E+00   -.551E+00 0.106E+00 -.645E-01
   -.613E+01 0.267E+03 0.249E+03   0.656E+01 -.271E+03 -.256E+03   0.634E+00 0.686E+00 0.577E+01   -.676E-01 0.431E+00 -.158E+00
   -.120E+01 -.838E+02 -.189E+03   -.266E+01 0.858E+02 0.196E+03   0.396E+01 -.214E+01 -.472E+01   0.112E+00 0.151E+00 0.768E-01
   -.421E+02 -.117E+03 -.191E+02   0.444E+02 0.120E+03 0.323E+02   -.170E+01 -.131E+01 -.666E+01   0.746E-01 0.112E+00 -.798E-01
   0.193E+02 -.144E+03 0.252E+03   -.426E+02 0.155E+03 -.288E+03   0.162E+02 -.818E+01 0.129E+02   0.309E-01 -.453E-01 0.806E-01
   0.437E+02 -.101E+03 0.175E+03   -.413E+02 0.114E+03 -.237E+03   -.140E+01 -.685E+01 0.169E+02   0.134E+00 0.122E+00 0.303E+00
   0.125E+03 0.434E+01 0.128E+03   -.136E+03 -.476E+00 -.145E+03   0.994E+01 -.499E+01 0.914E+01   0.279E+00 0.822E-01 -.441E+00
   0.524E+02 -.975E+02 0.159E+03   -.510E+02 0.939E+02 -.170E+03   -.203E+01 0.565E+01 0.841E+01   -.276E-01 -.799E-01 0.210E+00
   0.106E+02 0.104E+03 -.157E+03   -.831E+01 -.102E+03 0.173E+03   -.158E+01 -.339E+01 -.304E+01   0.255E+00 0.215E-01 0.375E+00
   0.347E+02 0.110E+03 0.221E+03   -.413E+02 -.110E+03 -.238E+03   0.710E+01 -.172E+01 0.180E+02   0.182E+00 0.183E+00 -.189E+00
   0.120E+02 0.194E+03 -.299E+02   -.890E+01 -.197E+03 0.471E+02   -.375E+01 0.258E+01 -.453E+01   -.339E-01 0.413E-01 -.344E-01
   -.508E+02 -.202E+03 0.117E+03   0.552E+02 0.211E+03 -.141E+03   -.415E+01 -.699E+01 0.163E+02   0.562E-02 -.228E+00 0.340E+00
   -.514E+02 -.135E+03 -.801E+02   0.611E+02 0.141E+03 0.916E+02   -.106E+02 -.560E+01 -.804E+01   -.287E-01 -.331E+00 -.474E+00
   0.384E+02 -.350E+03 0.380E+03   -.708E+02 0.416E+03 -.527E+03   0.703E+01 -.223E+02 0.244E+02   -.967E-01 -.847E-01 0.141E+00
   -.578E+02 0.364E+02 -.133E+03   0.573E+02 -.359E+02 0.140E+03   0.114E+01 -.180E+01 -.401E+01   -.266E+00 -.762E-01 0.607E+00
   -.433E+02 -.670E+02 -.110E+03   0.509E+02 0.798E+02 0.130E+03   -.694E+01 -.114E+02 -.904E+01   -.418E+00 -.856E-01 -.517E+00
   -.575E+02 0.718E+02 0.253E+03   0.658E+02 -.708E+02 -.289E+03   -.630E+01 -.199E+01 0.160E+02   -.814E-01 -.602E-01 -.106E+00
   0.213E+02 0.961E+02 -.922E+02   -.253E+02 -.102E+03 0.922E+02   0.521E+01 0.607E+01 -.463E+00   -.326E-01 0.577E-01 0.953E+00
   0.517E+01 0.610E+02 0.117E+03   -.118E+02 -.611E+02 -.123E+03   0.794E+01 0.730E-01 0.631E+01   0.562E-01 0.430E-01 -.872E+00
   0.545E+02 0.134E+02 0.293E+03   -.723E+02 -.209E+00 -.371E+03   0.848E+01 -.752E+01 0.189E+02   -.493E-01 0.779E-01 0.618E-01
   0.478E+02 -.864E+02 -.166E+02   -.448E+02 0.902E+02 0.644E+01   -.295E+01 -.411E+01 0.878E+01   -.401E-01 -.138E-01 0.757E-01
   0.458E+02 -.133E+03 0.234E+03   -.471E+02 0.134E+03 -.258E+03   0.713E+00 0.188E+00 0.157E+02   0.222E-01 -.149E+00 -.865E-01
   0.268E+03 -.214E+03 0.386E+03   -.326E+03 0.233E+03 -.551E+03   0.127E+02 -.841E+01 0.268E+02   0.962E-01 0.206E-01 0.605E-01
   0.115E+01 0.613E+02 -.103E+03   -.220E+00 -.682E+02 0.114E+03   -.121E+01 0.683E+01 -.309E+01   0.106E+00 -.385E-01 -.514E-01
   -.405E+02 0.156E+02 -.589E+02   0.384E+02 -.173E+02 0.661E+02   0.251E+01 0.215E+01 -.499E+01   -.269E-01 -.994E-01 -.579E+00
   -.721E+02 0.476E+02 0.101E+03   0.772E+02 -.516E+02 -.106E+03   -.586E+01 0.474E+01 0.192E+01   0.244E+00 -.659E-01 0.701E+00
   -.297E+02 0.658E+02 -.328E+03   0.307E+02 -.633E+02 0.356E+03   -.311E+00 -.299E+01 -.141E+02   -.128E+00 0.938E-01 0.802E-03
   -.282E+02 0.132E+03 0.193E+03   0.354E+02 -.131E+03 -.206E+03   -.760E+01 -.334E+01 0.111E+02   -.909E-01 0.283E+00 0.438E-01
   -.255E+03 0.204E+03 0.316E+03   0.305E+03 -.218E+03 -.405E+03   -.200E+02 0.760E+01 0.165E+02   0.675E-01 0.205E+00 0.112E-01
   -.745E+01 0.668E+02 -.175E+03   -.227E-12 0.142E-12 -.909E-12   0.759E+01 -.669E+02 0.174E+03   -.154E+00 0.139E+00 0.986E+00

 POSITION                                       TOTAL-FORCE (eV/Angst)
     -3.82979      7.12582      0.00656         9.415263     -0.971840     21.974369
      4.16772      6.86806      3.64576        -0.032349     -0.123123     -9.485234
     -4.06684      7.16674      6.83601        -0.306694      0.549595      0.683848
     -0.96879      2.22766      0.33014        -0.060245      1.031340      1.992289
     -1.03276      2.24282      3.36118        -2.182636     -6.108337     44.885911
     -1.17219      2.74745      6.55435         1.806339     -1.175308      9.596001
     -2.72697      5.35839      0.35323        -1.972727      0.995295    -18.245039
     -2.37252      4.91543      3.10056         0.353739     -2.758581     11.647863
     -2.43225      4.96108      7.26696        -0.705238     -1.836059    -20.049934
     -1.26956      7.15711      9.52346        25.495942    -42.967865    124.028116
     -1.31685      6.83774      3.42231         0.089675      0.381884      5.443896
     -1.48180      7.00901      6.82452         0.253226      1.820023     -1.529430
      1.48414      2.82061      0.30066        -2.994283     -0.269549     14.577291
      1.42383      2.17736      3.57317        -1.198559     -1.155275     -8.943512
      1.42320      2.41481      6.82462         0.566947      1.009612     -0.235616
      0.10971      5.20132      9.80800        10.602036     -7.650146     60.811935
      0.45195      5.23980      3.37381        -1.302826     -1.613714      1.440214
      0.07827      4.77737      6.98183         0.003455      0.784901     -1.624107
      2.02536      7.12738      9.75285        41.462032     -8.888588    139.788842
      5.60300      0.03658      3.44668         0.963169      0.334971      2.443036
      1.60373      7.04982      7.01198        -1.033553      1.486513      7.571963
      4.48503      2.60540      0.19284         0.882090     -0.087797     -8.344261
      4.28311      2.57490      3.22663        -0.235485      0.032725      3.360502
      3.99691      2.60763      6.74235         0.476841     -0.397124     -1.866041
      2.67615      4.96301      9.75577       -28.891175      4.480808     62.520845
      2.92775      4.70727      3.40346        -0.133363      1.073690     -0.183296
      2.61360      5.21774      7.12582         0.990036     -2.456483     -2.179310
      4.24940      7.06122      1.72158         0.215501      0.024832      2.290139
     -4.04780      7.09392      5.12909         0.739598      1.926840      6.477605
      8.04515      0.11092      8.63040        -6.961687      2.755821    -23.048284
     -0.99281      2.45553      2.12698         1.073724      6.336679    -45.115558
     -1.48134      2.74284      5.08010        -0.828099     -1.044174     -8.214932
     -0.91659      2.12008      8.47319        -0.681777      2.023322     -2.853035
     -2.55201      5.23414      1.68517         0.979126     -1.470182     13.720240
     -2.84675      5.14262      5.61291         0.731460     -0.855106      0.381155
     -2.43867      5.08628      8.65614        -0.656202     -0.496582     12.655012
     -1.14276      7.20005      1.95978         0.242109      1.684779     -7.667574
     -0.90318      7.14232      4.98542        -1.024193     -0.045290      2.941027
      2.68881      0.29953      8.54910       -25.409291     44.258734   -122.752222
      1.41986      2.59936      1.86817         0.347799     -1.361408      3.830237
      1.64128      2.61606      4.97869         0.306297      1.360326     10.175521
      1.72178      2.83888      8.73951         1.967070     -1.131926    -19.827946
     -0.01518      4.93127      1.70999         1.217308     -0.023382      0.493126
     -0.09443      4.89310      5.23827         1.371941      0.067249     -1.236059
     -0.11394      5.35134      8.63699        -9.350102      5.715068    -59.913087
      5.90967      0.21119      1.83434         0.011797     -0.284552     -1.307600
      1.59600      7.08939      5.51291        -0.533245      1.267190     -9.139994
      1.70794      7.20385      8.76188       -45.210430     10.941034   -138.797708
      4.44403      2.40958      1.64871        -0.177121     -0.105405      7.191678
      4.02082      2.55059      4.89609         0.433786      0.388389      1.631134
      4.48653      2.42679      8.38123        -0.524612      0.711658     -2.131217
      2.76016      5.00978      1.41395         0.597074     -0.439851     13.741185
      3.06431      5.28438      5.50627        -0.560463     -1.791157     -1.857892
      3.12097      4.88013      8.68798        29.370973     -5.934474    -71.746087
    total drift:                               -0.011289      0.027402     -0.032722

  FREE ENERGIE OF THE ION-ELECTRON SYSTEM (eV)
  free  energy   TOTEN  =      -214.3935199388 eV

  energy  without entropy=     -214.3294227556  energy(sigma->0) =     -214.36147135

volume of typ            1:    29.1 %

volume of typ            2:     7.5 %

total charge

# of ion       s       p       d       tot
    1        0.450   0.575   8.107   9.132
    2        0.324   0.349   7.970   8.643
    3        0.254   0.252   7.997   8.503
    4        0.274   0.273   7.980   8.527
    5        0.478   0.600   8.134   9.212
    6        0.328   0.326   7.976   8.630
    7        0.481   0.675   8.143   9.300
    8        0.328   0.314   8.090   8.732
    9        0.429   0.536   8.033   8.999
   10        0.600   0.758   8.444   9.802
   11        0.386   0.483   7.951   8.820
   12        0.242   0.217   7.992   8.452
   13        0.443   0.592   8.040   9.075
   14        0.346   0.403   7.971   8.720
   15        0.224   0.178   7.966   8.368
   16        0.520   0.720   8.224   9.464
   17        0.270   0.242   7.919   8.431
   18        0.281   0.288   7.975   8.544
   19        0.630   0.837   8.439   9.906
   20        0.281   0.247   7.951   8.480
   21        0.373   0.423   8.021   8.818
   22        0.400   0.465   7.992   8.856
   23        0.337   0.358   7.954   8.649
   24        0.261   0.230   7.954   8.445
   25        0.604   0.982   8.303   9.889
   26        0.200   0.137   7.997   8.334
   27        0.328   0.354   8.015   8.697
   28        1.274   2.730   0.006   4.011
   29        1.288   2.791   0.019   4.098
   30        1.307   2.870   0.032   4.210
   31        1.313   2.913   0.041   4.266
   32        1.280   2.790   0.015   4.086
   33        1.278   2.729   0.008   4.015
   34        1.311   2.944   0.046   4.302
   35        1.296   2.661   0.006   3.963
   36        1.291   2.933   0.033   4.257
   37        1.288   2.759   0.013   4.059
   38        1.282   2.727   0.009   4.018
   39        1.340   3.034   0.073   4.447
   40        1.273   2.799   0.012   4.084
   41        1.287   2.773   0.017   4.078
   42        1.293   2.841   0.023   4.156
   43        1.270   2.759   0.008   4.037
   44        1.286   2.677   0.006   3.969
   45        1.321   2.988   0.052   4.361
   46        1.279   2.739   0.008   4.026
   47        1.286   2.760   0.014   4.060
   48        1.336   3.082   0.076   4.494
   49        1.280   2.861   0.024   4.166
   50        1.272   2.735   0.007   4.015
   51        1.265   2.796   0.011   4.073
   52        1.287   2.800   0.016   4.104
   53        1.300   2.669   0.008   3.976
   54        1.333   3.030   0.058   4.421
tot          44.99   88.01  218.18  351.18

magnetization (x)

# of ion       s       p       d       tot
    1        0.001   0.000   0.009   0.010
    2       -0.006  -0.005  -0.570  -0.581
    3       -0.002  -0.003  -0.268  -0.273
    4       -0.004  -0.001  -0.233  -0.237
    5        0.001   0.008   0.179   0.188
    6       -0.009  -0.005  -0.660  -0.674
    7       -0.001   0.000   0.046   0.045
    8        0.001   0.000  -0.053  -0.052
    9       -0.004   0.003  -0.123  -0.124
   10        0.005   0.008   0.050   0.063
   11       -0.006  -0.002  -0.644  -0.653
   12        0.001  -0.001   0.124   0.124
   13        0.006  -0.001   0.404   0.409
   14       -0.013  -0.005  -0.513  -0.531
   15       -0.002  -0.001  -0.040  -0.043
   16       -0.003  -0.002  -0.084  -0.089
   17        0.000   0.000   0.476   0.476
   18        0.002   0.002   0.189   0.193
   19       -0.001  -0.008  -0.049  -0.057
   20        0.001   0.001   0.744   0.747
   21        0.001   0.001   0.023   0.025
   22       -0.004   0.002  -0.280  -0.282
   23        0.002  -0.002   0.126   0.125
   24        0.010   0.000   0.645   0.656
   25       -0.002  -0.001  -0.052  -0.056
   26       -0.003  -0.002  -0.290  -0.294
   27        0.000  -0.000   0.028   0.027
   28       -0.000   0.003  -0.000   0.003
   29       -0.008  -0.301  -0.000  -0.309
   30       -0.001   0.003  -0.000   0.002
   31        0.002   0.093   0.001   0.095
   32       -0.006  -0.229  -0.001  -0.236
   33       -0.005  -0.149  -0.000  -0.154
   34       -0.000   0.005  -0.000   0.005
   35       -0.004  -0.197   0.000  -0.201
   36       -0.000  -0.006  -0.000  -0.006
   37       -0.007  -0.296  -0.000  -0.304
   38       -0.004  -0.144  -0.000  -0.149
   39        0.001   0.037   0.000   0.038
   40        0.001   0.056   0.000   0.057
   41       -0.006  -0.231  -0.000  -0.237
   42        0.004   0.155   0.001   0.160
   43        0.002   0.046   0.000   0.048
   44        0.006   0.236  -0.000   0.242
   45        0.000  -0.026  -0.000  -0.026
   46        0.009   0.333   0.000   0.342
   47        0.001   0.022   0.000   0.024
   48       -0.001  -0.032  -0.000  -0.033
   49       -0.002  -0.074   0.000  -0.075
   50        0.005   0.189  -0.000   0.193
   51        0.002   0.043  -0.000   0.045
   52       -0.002  -0.043  -0.000  -0.045
   53       -0.002  -0.064  -0.000  -0.067
   54       -0.001  -0.009  -0.001  -0.010
tot          -0.05   -0.59   -0.82   -1.46