 vasp.5.4.4.18Apr17-6-g9f103f2a35 (build May 12 2020 04:58:55) complex

 MD_VERSION_INFO: Compiled 2020-05-12T11:58:55-UTC in devlin.sd.materialsdesign.
 com:/home/medea2/data/build/wwolf/vasp-gpu5.4.4/13047/x86_64/src/src/build/std
 from svn 13047

 executed on                        Lin64 date 2023.03.24  08:14:51

 INCAR:
 POTCAR:    PAW_PBE Ni 02Aug2007
 POTCAR:    PAW_PBE O 08Apr2002

 POTCAR:    PAW_PBE Ni 02Aug2007

 POTCAR:    PAW_PBE O 08Apr2002

 Optimization of the real space projectors (new method)

 maximal supplied QI-value         = 16.25
 optimisation between [QCUT,QGAM] = [ 11.38, 22.75] = [ 36.24,144.96] Ry
 Optimized for a Real-space Cutoff    1.47 Angstroem

   l    n(q)    QCUT    max X(q) W(low)/X(q) W(high)/X(q)  e(spline)
   2      9    11.376    60.317    0.17E-03    0.16E-04    0.16E-06
   2      9    11.376    55.921    0.17E-03    0.16E-04    0.17E-06
   0     10    11.376    51.690    0.45E-04    0.60E-04    0.21E-06
   0     10    11.376    30.015    0.37E-04    0.55E-04    0.19E-06
   1     10    11.376    18.849    0.83E-04    0.11E-03    0.92E-07
   1     10    11.376    14.624    0.69E-04    0.92E-04    0.82E-07
 Optimization of the real space projectors (new method)

 maximal supplied QI-value         = 24.76
 optimisation between [QCUT,QGAM] = [ 11.39, 22.77] = [ 36.31,145.25] Ry
 Optimized for a Real-space Cutoff    1.10 Angstroem

   l    n(q)    QCUT    max X(q) W(low)/X(q) W(high)/X(q)  e(spline)
   0      7    11.387    20.381    0.22E-03    0.48E-03    0.18E-06
   0      7    11.387    15.268    0.22E-03    0.52E-03    0.19E-06
   1      7    11.387     5.964    0.22E-03    0.73E-03    0.24E-06
   1      7    11.387     5.382    0.19E-03    0.60E-03    0.21E-06

  PAW_PBE Ni 02Aug2007                  :
  PAW_PBE O 08Apr2002                   :

 POSCAR: NiO_Cmmm_scale_0_950_disp_0_20_round_1
  positions in direct lattice
 exchange correlation table for  LEXCH =       14
   RHO(1)=    0.500       N(1)  =     2000
   RHO(2)=  100.500       N(2)  =     4000

 ion  position               nearest neighbor table
   1  0.049  0.012  0.002-  30 1.61  28 1.79  42 2.52   4 2.53   7 2.71  19 2.72  25 2.73  10 2.89
                             3 2.95  13 3.00
   2  0.989  0.983  0.350-  28 1.82  29 1.91  26 2.30  20 2.62   5 2.80   8 2.88
   3  0.045  0.047  0.703-  30 1.49  29 1.69  42 2.47  15 2.76   9 2.77   6 2.80  21 2.81  12 2.84
                            27 2.95   1 2.95
   4  0.061  0.320  0.976-  33 1.49  31 2.08  13 2.35  42 2.44   1 2.53  19 2.72  16 2.74   6 3.00

   5  0.018  0.331  0.364-  32 1.56  31 1.86  14 2.48  23 2.56  20 2.68   8 2.69   2 2.80  17 2.86

[...]

   8  0.020  0.653  0.339-  34 1.47  35 1.86  23 2.61   5 2.69  17 2.70   2 2.88  26 3.08
   9  0.995  0.694  0.722-  36 1.87  35 1.95  27 2.63  12 2.64   3 2.77  18 2.92   7 2.96   6 2.97
                            24 3.05
  10  0.371  0.969  0.017-  39 1.20  37 1.35  16 2.22  36 2.47   7 2.74  19 2.78   1 2.89  12 3.02
                            22 3.05
  11  0.394  0.037  0.347-  38 1.84  37 2.18  23 2.59  20 2.59  17 2.84
  12  0.340  0.971  0.711-  38 1.81  39 1.85  18 2.19   9 2.64  24 2.76  21 2.78   3 2.84  10 3.02

  13  0.372  0.400  0.010-  40 1.70  42 1.77   4 2.35  16 2.61  25 2.69  22 2.96   1 3.00  15 3.03
                            14 3.08
  14  0.337  0.389  0.323-  40 1.46  41 1.86  17 2.34   5 2.48  26 2.93  13 3.08
  15  0.371  0.383  0.701-  42 1.75  41 1.89   6 2.38  27 2.63   3 2.76  24 2.85  18 2.86  13 3.03

[...]

  18  0.357  0.717  0.727-  45 1.35  12 2.19  44 2.27   6 2.46  16 2.50  21 2.67  27 2.81  15 2.86
                             9 2.92
  19  0.722  0.009  0.989-  48 1.15  46 1.98  25 2.29   1 2.72   4 2.72  10 2.78  21 2.99  22 2.99
                            16 3.02
  20  0.692  0.013  0.368-  46 1.76  47 1.85  26 2.40  11 2.59  23 2.61   2 2.62   5 2.68  17 2.81

[...]

  23  0.714  0.336  0.362-  49 1.49  50 1.80   5 2.56  11 2.59  20 2.61   8 2.61
  24  0.666  0.304  0.683-  50 1.39  51 2.18  21 2.55  12 2.76  15 2.85  22 3.00   9 3.05
  25  0.695  0.722  0.009-  54 1.36  52 1.74  19 2.29  13 2.69   1 2.73   7 2.91  16 2.92  27 3.04
                            22 3.08
  26  0.696  0.731  0.326-  52 1.39  53 2.07   2 2.30  20 2.40  17 2.65  14 2.93   8 3.08
  27  0.684  0.701  0.699-  53 1.62  54 1.80  21 2.56  15 2.63   9 2.63  18 2.81   3 2.95  25 3.04

  28  0.951  0.992  0.168-   1 1.79   2 1.82
  29  0.970  0.964  0.544-   3 1.69   2 1.91
  30  0.983  0.985  0.846-   3 1.49   1 1.61
  31  0.068  0.392  0.180-   5 1.86   4 2.08
  32  0.038  0.330  0.522-   5 1.56   6 1.62
  33  0.026  0.329  0.828-   4 1.49   6 1.61
  34  0.027  0.657  0.189-   8 1.47   7 1.64
  35  0.026  0.678  0.527-   8 1.86   9 1.95
  36  0.088  0.732  0.900-   7 1.33   9 1.87  16 2.36  10 2.47
  37  0.298  0.983  0.136-  10 1.35  11 2.18
  38  0.384  0.981  0.529-  12 1.81  11 1.84
  39  0.383  0.972  0.896-  10 1.20  12 1.85  16 2.33
  40  0.376  0.369  0.181-  14 1.46  13 1.70
  41  0.365  0.368  0.509-  14 1.86  15 1.89
  42  0.289  0.270  0.857-  15 1.75  13 1.77   4 2.44   3 2.47   1 2.52
  43  0.352  0.686  0.173-  17 1.68  16 1.90
  44  0.415  0.726  0.500-  17 1.59  18 2.27
  45  0.347  0.687  0.862-  16 1.17  18 1.35
  46  0.691  0.988  0.190-  20 1.76  19 1.98
  47  0.702  0.977  0.554-  21 1.35  20 1.85
  48  0.663  0.006  0.883-  19 1.15  21 1.94
  49  0.682  0.346  0.214-  23 1.49  22 2.24
  50  0.684  0.338  0.544-  24 1.39  23 1.80
  51  0.706  0.354  0.903-  22 0.83  24 2.18
  52  0.710  0.725  0.185-  26 1.39  25 1.74
  53  0.703  0.702  0.535-  27 1.62  26 2.07
  54  0.715  0.680  0.879-  25 1.36  27 1.80

  LATTYP: Found a hexagonal cell.
 ALAT       =     8.3357939959
 C/A-ratio  =     1.1769065436

  Lattice vectors:

 A1 = (   8.3357940000,   0.0000000000,   0.0000000000)
 A2 = (  -4.1678970000,   7.2190093600,   0.0000000000)
 A3 = (   0.0000000000,   0.0000000000,   9.8104505000)

Analysis of symmetry for initial positions (statically):
 Subroutine PRICEL returns:
 Original cell was already a primitive cell.

 Routine SETGRP: Setting up the symmetry group for a
 hexagonal supercell.

 Subroutine GETGRP returns: Found  1 space group operations
 (whereof  1 operations were pure point group operations)
 out of a pool of 24 trial point group operations.

The static configuration has the point symmetry C_1 .

Analysis of symmetry for dynamics (positions and initial velocities):
 Subroutine PRICEL returns:
 Original cell was already a primitive cell.

[...]

The dynamic configuration has the point symmetry C_1 .

Analysis of structural, dynamic, and magnetic symmetry:
 Subroutine PRICEL returns:
 Original cell was already a primitive cell.

 Routine SETGRP: Setting up the symmetry group for a
 hexagonal supercell.

 Subroutine GETGRP returns: Found  1 space group operations
 (whereof  1 operations were pure point group operations)
 out of a pool of 24 trial point group operations.

The magnetic configuration has the point symmetry C_1 .

 Subroutine INISYM returns: Found  1 space group operations
 (whereof  1 operations are pure point group operations),
 and found     1 'primitive' translations

 KPOINTS: Automatic mesh

Automatic generation of k-mesh.
Space group operators:
 irot       det(A)        alpha          n_x          n_y          n_z        tau_x        tau_y        tau_z
    1     1.000000     0.000000     1.000000     0.000000     0.000000     0.000000     0.000000     0.000000

 Subroutine IBZKPT returns following result:

 Found     26 irreducible k-points:

 Following reciprocal coordinates:
            Coordinates               Weight
  0.000000  0.000000  0.000000      1.000000
  0.250000  0.000000  0.000000      2.000000
  0.500000  0.000000  0.000000      1.000000
  0.000000  0.250000  0.000000      2.000000
  0.250000  0.250000  0.000000      2.000000
  0.500000  0.250000  0.000000      2.000000
 -0.250000  0.250000  0.000000      2.000000
  0.000000  0.500000  0.000000      1.000000
  0.250000  0.500000  0.000000      2.000000
  0.500000  0.500000  0.000000      1.000000
  0.000000  0.000000  0.333333      2.000000
  0.250000  0.000000  0.333333      2.000000
  0.500000  0.000000  0.333333      2.000000
 -0.250000 -0.000000  0.333333      2.000000
  0.000000  0.250000  0.333333      2.000000
  0.250000  0.250000  0.333333      2.000000
  0.500000  0.250000  0.333333      2.000000
 -0.250000  0.250000  0.333333      2.000000
  0.000000  0.500000  0.333333      2.000000
  0.250000  0.500000  0.333333      2.000000
  0.500000  0.500000  0.333333      2.000000
 -0.250000  0.500000  0.333333      2.000000
  0.000000 -0.250000  0.333333      2.000000
  0.250000 -0.250000  0.333333      2.000000
  0.500000 -0.250000  0.333333      2.000000
 -0.250000 -0.250000  0.333333      2.000000

 Following cartesian coordinates:
            Coordinates               Weight
  0.000000  0.000000  0.000000      1.000000
  0.029991  0.017315  0.000000      2.000000
  0.059982  0.034631  0.000000      1.000000
  0.000000  0.034631  0.000000      2.000000
  0.029991  0.051946  0.000000      2.000000
  0.059982  0.069262  0.000000      2.000000
 -0.029991  0.017315  0.000000      2.000000
  0.000000  0.069262  0.000000      1.000000
  0.029991  0.086577  0.000000      2.000000
  0.059982  0.103892  0.000000      1.000000
  0.000000  0.000000  0.033977      2.000000
  0.029991  0.017315  0.033977      2.000000
  0.059982  0.034631  0.033977      2.000000
 -0.029991 -0.017315  0.033977      2.000000
  0.000000  0.034631  0.033977      2.000000
  0.029991  0.051946  0.033977      2.000000
  0.059982  0.069262  0.033977      2.000000
 -0.029991  0.017315  0.033977      2.000000
  0.000000  0.069262  0.033977      2.000000
  0.029991  0.086577  0.033977      2.000000
  0.059982  0.103892  0.033977      2.000000
 -0.029991  0.051946  0.033977      2.000000
  0.000000 -0.034631  0.033977      2.000000
  0.029991 -0.017315  0.033977      2.000000
  0.059982  0.000000  0.033977      2.000000
 -0.029991 -0.051946  0.033977      2.000000

 SYSTEM =  unknown system
 POSCAR =  NiO_Cmmm_scale_0_950_disp_0_20_round_1

 Startparameter for this run:
   NWRITE =      1    write-flag & timer
   PREC   = accura    normal or accurate (medium, high low for compatibility)
   ISTART =      0    job   : 0-new  1-cont  2-samecut
   ICHARG =      2    charge: 1-file 2-atom 10-const
   ISPIN  =      2    spin polarized calculation?
   LNONCOLLINEAR =      F non collinear calculations
   LSORBIT =      F    spin-orbit coupling
   INIWAV =      1    electr: 0-lowe 1-rand  2-diag
   LASPH  =      F    aspherical Exc in radial PAW
   METAGGA=      F    non-selfconsistent MetaGGA calc.

 Electronic Relaxation 1
   ENCUT  =  500.0 eV  36.75 Ry    6.06 a.u.  15.20 15.20 17.89*2*pi/ulx,y,z
   ENINI  =  500.0     initial cutoff
   ENAUG  =  605.4 eV  augmentation charge cutoff
   NELM   =     80;   NELMIN=  2; NELMDL= -5     # of ELM steps
   EDIFF  = 0.1E-04   stopping-criterion for ELM
   LREAL  =      T    real-space projection
   NLSPLINE    = F    spline interpolate recip. space projectors
   LCOMPAT=      F    compatible to vasp.4.4
[...]
   -.182E+03 -.141E+03 0.303E+03   0.185E+03 0.142E+03 -.314E+03   -.813E+00 0.874E+00 0.253E+01   -.455E-01 0.554E-01 0.928E-02
   0.111E+03 0.228E+02 -.310E+03   -.110E+03 -.226E+02 0.323E+03   -.872E+00 -.273E-01 -.144E+01   0.786E-01 0.455E-01 -.334E-01
   0.305E+02 0.532E+02 0.787E+02   -.310E+02 -.533E+02 -.876E+02   0.535E+00 0.762E+00 0.225E+01   -.629E-01 0.410E-01 0.462E-01
   0.108E+03 -.973E+02 0.195E+03   -.107E+03 0.996E+02 -.197E+03   -.556E+00 -.130E+01 0.168E+01   0.506E-01 0.448E-03 -.684E-01
   0.220E+03 0.230E+03 -.258E+03   -.231E+03 -.242E+03 0.286E+03   0.285E+01 0.179E+01 -.283E+01   0.520E-02 0.167E-01 0.645E-01
   0.739E+02 -.683E+02 -.256E+03   -.744E+02 0.687E+02 0.270E+03   0.212E+00 0.117E+00 -.160E+01   0.833E-01 -.380E-01 0.314E-01
   0.812E+02 0.154E+03 0.226E+03   -.785E+02 -.153E+03 -.231E+03   -.128E+01 -.248E+00 0.356E+01   -.288E-01 -.326E-02 -.716E-01
   -.448E+02 -.324E+03 -.380E+03   0.528E+02 0.325E+03 0.427E+03   -.134E+01 -.226E+01 -.623E+01   -.399E-02 -.656E-01 0.456E-01
   0.210E+03 -.119E+03 0.332E+02   -.209E+03 0.117E+03 -.280E+02   -.115E+01 0.983E+00 -.455E+01   0.949E-01 -.299E-01 0.101E+00
   0.211E+03 -.242E+03 0.246E+03   -.212E+03 0.244E+03 -.251E+03   0.596E+00 -.362E+00 0.375E+01   0.624E-01 0.218E-01 -.136E+00
   -.202E+03 0.356E+02 -.769E+02   0.202E+03 -.371E+02 0.772E+02   0.515E+00 0.872E+00 -.536E+00   -.424E-01 0.897E-01 -.688E-01
   -.119E+03 0.186E+03 -.217E+03   0.116E+03 -.185E+03 0.231E+03   0.761E+00 -.501E+00 -.162E+01   -.372E-01 0.608E-01 0.109E+00
   -.218E+03 0.158E+02 0.191E+03   0.217E+03 -.163E+02 -.194E+03   0.468E+00 -.128E+00 0.529E+00   -.427E-03 0.630E-01 -.809E-01
   -.495E+02 0.183E+03 -.493E+03   0.433E+02 -.188E+03 0.576E+03   -.585E+00 0.284E+01 -.830E+01   0.843E-01 -.741E-01 -.110E+00
   0.120E+03 0.133E+02 -.608E+02   -.121E+03 -.136E+02 0.578E+02   0.109E+01 0.105E+01 0.633E+00   -.403E-01 0.590E-01 0.557E-01
   -.193E+02 0.851E+02 0.539E+03   0.195E+02 -.831E+02 -.571E+03   0.401E+00 0.259E-01 0.597E+01   0.963E-01 -.175E-01 -.751E-01
   -.118E+03 -.226E+03 -.452E+03   0.152E+03 0.228E+03 0.532E+03   -.183E+01 -.734E+00 -.287E+01   0.802E-01 -.137E+00 -.295E-01
   0.997E+02 -.165E+03 -.166E+02   -.994E+02 0.167E+03 0.139E+02   0.280E+00 -.154E+01 0.244E+01   -.981E-01 -.119E-01 0.145E+00
   0.365E+02 -.212E+03 -.965E+02   -.424E+02 0.217E+03 0.121E+03   0.679E+00 -.129E+01 0.102E+01   0.122E-01 -.656E-01 -.162E+00
   0.730E+02 0.110E+02 -.763E+03   -.922E+02 0.549E+01 0.122E+04   0.384E+01 -.253E+01 -.743E+02   -.369E-01 0.676E-01 0.160E+00
   0.951E+02 -.515E+02 -.118E+03   -.931E+02 0.504E+02 0.126E+03   -.933E+00 0.418E+00 0.192E+01   0.355E-01 -.759E-01 0.141E+00
   0.653E+02 -.691E+02 -.137E+03   -.661E+02 0.657E+02 0.150E+03   0.679E+00 0.662E+00 0.616E+01   -.150E-01 -.379E-01 -.195E+00
   0.922E+01 0.157E+03 -.233E+03   -.157E+02 -.153E+03 0.257E+03   0.120E+01 -.571E+00 -.114E+01   -.615E-01 -.267E-02 -.457E-01
   -.850E+02 0.257E+03 -.306E+03   0.837E+02 -.258E+03 0.327E+03   0.142E+00 0.161E+00 -.410E+00   -.930E-01 0.148E-01 0.108E+00
   -.471E+02 0.196E+03 0.670E+02   0.470E+02 -.198E+03 -.674E+02   0.675E+00 0.912E+00 0.299E+01   -.960E-01 0.163E-01 -.726E-01
   -.767E+02 -.115E+03 -.925E+02   0.674E+02 0.115E+03 0.932E+02   0.118E+02 0.801E+00 0.177E+00   -.358E-01 -.138E-01 0.127E-01
   -.137E+03 -.236E+01 0.136E+03   0.134E+03 -.657E+01 -.143E+03   0.473E+01 0.993E+01 0.367E+01   -.563E-01 -.497E-04 0.750E-01
   0.275E+02 0.591E+02 0.148E+02   -.400E+02 -.716E+02 -.637E+01   0.110E+02 0.961E+01 -.319E+01   -.379E-01 -.136E-01 -.105E+00
   0.544E+02 0.638E+02 0.831E+01   -.553E+02 -.568E+02 -.137E+02   0.686E+00 -.907E+01 0.499E+01   -.143E-01 0.259E-01 0.806E-01
   0.103E+02 0.391E+02 -.238E+01   -.969E+01 -.467E+02 0.881E+01   -.817E+00 0.720E+01 -.428E+01   -.272E-01 0.463E-02 0.805E-02
   0.174E+03 0.285E+02 0.950E+02   -.187E+03 -.360E+02 -.105E+03   0.926E+01 0.768E+01 0.413E+01   0.435E-01 0.373E-03 -.105E+00
   0.443E+02 0.207E+02 -.357E+02   -.409E+02 -.225E+02 0.221E+02   -.426E+01 0.159E+01 0.612E+01   0.366E-01 -.174E-01 0.115E+00
   0.553E+01 -.516E+01 0.241E+02   -.432E+01 0.697E+01 -.218E+02   -.163E+01 -.231E+01 -.269E+01   0.253E-01 -.349E-01 -.534E-01
   0.413E+02 -.891E+01 0.239E+03   -.242E+02 0.293E+02 -.282E+03   -.122E+02 -.122E+02 0.144E+02   0.271E-01 0.163E-02 -.487E-01
   0.168E+03 -.158E+03 -.394E+03   -.195E+03 0.160E+03 0.437E+03   0.145E+02 0.333E+00 -.194E+02   -.150E-01 -.482E-02 0.156E+00
   0.122E+03 -.586E+02 0.906E+02   -.119E+03 0.564E+02 -.930E+02   -.487E+01 0.264E+01 0.194E+01   0.468E-01 0.437E-01 -.591E-01
   0.370E+02 -.236E+03 0.311E+03   -.284E+02 0.241E+03 -.394E+03   -.554E+01 -.132E+01 0.198E+02   0.109E-01 -.383E-01 -.152E+00
   -.160E+03 0.138E+03 0.779E+01   0.172E+03 -.144E+03 -.234E+02   -.897E+01 0.536E+01 0.593E+01   -.557E-02 0.296E-01 -.473E-01
   -.103E+03 0.924E+02 0.419E+02   0.107E+03 -.953E+02 -.415E+02   -.408E+01 0.328E+01 -.582E+00   0.179E-01 0.207E-01 0.887E-01
   -.142E+03 0.893E+02 0.215E+02   0.141E+03 -.108E+03 -.210E+02   0.253E+01 0.188E+02 -.442E+00   -.179E-01 0.561E-01 -.743E-01
   -.813E+01 -.103E+02 -.382E+02   0.752E+01 0.103E+02 0.315E+02   -.367E-01 -.200E+00 0.492E+01   -.101E-01 -.112E-01 0.115E+00
   0.268E+02 0.453E+02 -.112E+03   -.205E+02 -.401E+02 0.132E+03   -.706E+01 -.594E+01 -.164E+02   0.335E-01 0.429E-01 -.488E-01
   -.119E+03 0.149E+03 0.169E+03   0.136E+03 -.158E+03 -.224E+03   -.654E+01 0.486E+01 0.631E+01   0.501E-01 -.299E-01 -.887E-01
   0.100E+03 -.125E+03 0.904E+01   -.101E+03 0.123E+03 -.166E+02   -.628E+00 0.317E+01 0.719E+01   -.183E-01 -.165E-01 0.139E+00
   -.348E+02 -.227E+02 0.232E+03   0.456E+02 0.106E+02 -.272E+03   -.719E+01 0.965E+01 0.152E+02   -.537E-01 -.746E-02 0.210E-01
   0.134E+03 -.108E+03 0.314E+03   -.183E+03 0.107E+03 -.411E+03   0.176E+02 0.106E+01 0.214E+02   0.409E-01 -.809E-01 -.165E+00
   0.897E+02 0.109E+02 0.158E+03   -.963E+02 -.788E+01 -.188E+03   0.513E+01 -.267E+01 0.208E+02   0.133E-01 -.130E-01 0.128E+00
   0.664E+02 -.957E+02 0.185E+03   -.691E+02 0.106E+03 -.216E+03   0.353E+01 -.679E+01 0.124E+02   -.551E-02 -.359E-01 0.352E-01
   0.218E+01 0.117E+02 0.627E+03   0.170E+02 -.292E+02 -.112E+04   -.369E+01 0.352E+01 0.111E+03   -.148E-01 0.180E-01 -.290E+00
   -.838E+02 0.156E+03 0.716E+02   0.893E+02 -.159E+03 -.102E+03   -.400E+01 0.119E+01 0.120E+02   -.374E-01 -.908E-02 -.189E-01
   -.877E+02 0.163E+03 0.163E+03   0.913E+02 -.164E+03 -.177E+03   -.392E+01 0.105E+01 0.107E+02   -.586E-01 -.111E-01 0.692E-01
   -.101E+03 0.188E+03 0.202E+03   0.118E+03 -.201E+03 -.237E+03   -.125E+02 0.791E+01 0.105E+02   -.853E-01 0.625E-01 -.272E-01
   -.955E+00 -.590E+02 -.174E+03   -.853E-13 0.568E-13 -.171E-12   0.116E+01 0.591E+02 0.175E+03   -.206E+00 -.582E-01 -.387E+00

 POSITION                                       TOTAL-FORCE (eV/Angst)
      0.35773      0.08730      0.01930        -0.023900      0.401767      4.185023
      4.15135      7.09361      3.43347        -0.354671      0.593415      0.679478
      0.17626      0.34191      6.89457         1.803939      2.470810     -8.475775
     -0.82721      2.31275      9.57344         0.898979      0.221221     11.862804
     -1.22844      2.39036      3.56728        -0.034302      0.663256     -6.606912
     -0.87467      2.92818      6.63574         0.277847      1.053239     -0.941719
     -2.67089      4.86122      0.22480        -7.859751    -10.040630     24.996439
     -2.55738      4.71737      3.32290        -0.210600      0.497811     12.553251
      5.40001      5.01244      7.08720         1.406711      0.333120     -1.876272
     -0.94558      6.99535      0.16917         6.578769     -1.281187     40.988776
      3.13444      0.26675      3.40275        -0.166721     -0.642517      0.706064
     -1.21250      7.00617      6.97215         0.077352      1.601628     -1.143416
      1.43150      2.88689      0.09676         0.707088     -0.513825     -0.245893
      1.18325      2.81129      3.16810        -1.865180      0.113925     12.475999
      1.49142      2.76654      6.87974         0.161915     -0.481607     -2.734555
     -0.11826      4.96271      9.61845        -6.708461     -2.376405     75.279435
      0.13577      4.89491      3.38219         0.295617      0.789511     -2.284479
     -0.01599      5.17889      7.13126         0.701510      2.007360    -26.162311
      5.97872      0.06261      9.70712        33.032143      1.700231     76.899963
      5.71172      0.09728      3.61253         0.414558     -0.086098     -0.170939
      5.71407      0.08529      6.73389        -5.165871      3.954937     25.015330
      4.37182      2.58817      9.68077       -15.395980     13.981033    385.782456
      4.55027      2.42896      3.55397         1.099501     -0.793747      9.669077
      4.28225      2.19783      6.70326        -0.116232     -2.762242     18.555620
      2.78165      5.21229      0.08519        -5.347482      4.026300     23.283111
      2.75239      5.28033      3.19805        -1.303357     -0.783875     20.881699
      2.77977      5.05901      6.85644         0.483614     -1.363901      2.594454
      3.79520      7.16353      1.65021         2.525786      1.109651      0.939332
      4.07245      6.95624      5.34032         1.396342      1.000124     -2.999912
      4.08696      7.10994      8.29633        -1.483771     -2.969920      5.174852
     -1.06481      2.83019      1.76851        -0.220865     -2.013363     -0.296836
     -1.05578      2.37919      5.11739        -0.235180     -0.418929      2.153565
     -1.14896      2.37221      8.12181        -2.914042      0.105361     -6.269539
     -2.51251      4.74134      1.85050        -0.763746     -0.181092     -7.330200
     -2.60385      4.89122      5.16934        -0.397718     -0.544784     -0.427673
     -2.31557      5.28763      8.82950         4.900738      8.172166    -28.230072
     -1.61526      7.09843      1.33827       -11.705225      2.923593     23.461425
     -0.88816      7.08406      5.19352        -1.128933      0.489972     -0.538795
     -0.85529      7.01402      8.78549         3.077615      3.469574    -63.546817
      1.59765      2.66159      1.77098         2.870760     -0.814459     -9.690935
      1.51012      2.65578      4.99581        -0.196073      0.391789     -0.089919
      1.28467      1.94981      8.41126         1.120312      0.678582      0.011228
      0.07542      4.95106      1.69928        -0.655905     -0.246290     -1.723797
      0.43159      5.24085      4.90469        -0.723545     -0.655414      3.419239
      0.02975      4.95988      8.45952        10.269925     -4.510055    -49.017336
      1.64400      7.13577      1.86610        -1.299755      1.436720     -0.213458
      1.77906      7.05216      5.43239         3.513111     -2.460988    -24.940104
      5.50089      0.04515      8.66303       -31.606006     -0.269352    -76.374077
      4.23981      2.49934      2.10302        -1.494923      0.289512     -9.112677
      4.29163      2.44151      5.33525         0.740638      3.170292    -18.848261
      4.40499      2.55856      8.85395        15.466860    -13.944615   -384.941582
      2.89505      5.23317      1.81959         1.377732     -1.904592    -18.345149
      2.93678      5.06649      5.24832        -0.443745     -0.502472     -3.689956
      3.12427      4.90681      8.62017         4.622578     -5.084540    -24.299251
    total drift:                                0.003106      0.008601      0.000489

  FREE ENERGIE OF THE ION-ELECTRON SYSTEM (eV)
  free  energy   TOTEN  =      -167.7572055420 eV

  energy  without entropy=     -167.6871055244  energy(sigma->0) =     -167.72215553

volume of typ            1:    29.1 %

volume of typ            2:     7.5 %

total charge

# of ion       s       p       d       tot
    1        0.279   0.309   8.013   8.602
    2        0.243   0.205   7.968   8.416
    3        0.338   0.416   8.009   8.764
    4        0.324   0.344   8.023   8.691
    5        0.315   0.346   7.952   8.613
    6        0.336   0.397   7.978   8.711
    7        0.442   0.610   8.121   9.174
    8        0.349   0.386   7.972   8.708
    9        0.212   0.176   7.987   8.375
   10        0.660   1.041   8.289   9.991
   11        0.205   0.142   7.982   8.328
   12        0.266   0.238   7.989   8.494
   13        0.284   0.287   7.978   8.548
   14        0.345   0.402   7.992   8.739
   15        0.266   0.242   7.949   8.457
   16        0.529   0.704   8.298   9.531
   17        0.345   0.397   7.929   8.671
   18        0.413   0.458   8.153   9.025
   19        0.556   0.686   8.282   9.525
   20        0.264   0.258   7.956   8.478
   21        0.415   0.475   8.105   8.996
   22        0.721   0.930   8.796  10.447
   23        0.363   0.410   7.966   8.739
   24        0.384   0.365   8.087   8.836
   25        0.419   0.541   8.099   9.059
   26        0.384   0.426   8.073   8.882
   27        0.305   0.313   7.970   8.588
   28        1.288   2.708   0.008   4.005
   29        1.286   2.713   0.008   4.007
   30        1.289   2.858   0.025   4.172
   31        1.284   2.670   0.004   3.958
   32        1.281   2.813   0.018   4.112
   33        1.286   2.850   0.025   4.161
   34        1.286   2.842   0.022   4.150
   35        1.275   2.680   0.004   3.959
   36        1.301   2.905   0.033   4.240
   37        1.300   2.860   0.024   4.184
   38        1.282   2.688   0.006   3.976
   39        1.333   2.979   0.047   4.359
   40        1.286   2.823   0.022   4.131
   41        1.276   2.684   0.005   3.965
   42        1.280   2.751   0.010   4.041
   43        1.274   2.747   0.007   4.028
   44        1.298   2.701   0.010   4.009
   45        1.352   3.099   0.091   4.542
   46        1.285   2.698   0.006   3.990
   47        1.309   2.838   0.030   4.177
   48        1.332   2.988   0.055   4.374
   49        1.289   2.762   0.014   4.065
   50        1.291   2.829   0.025   4.146
   51        1.086   3.374   0.100   4.559
   52        1.298   2.850   0.028   4.176
   53        1.289   2.704   0.009   4.002
   54        1.295   2.878   0.030   4.203
tot          44.69   87.80  218.59  351.08

magnetization (x)

# of ion       s       p       d       tot
    1        0.001   0.002   0.086   0.089
    2        0.000   0.001  -0.087  -0.086
    3       -0.001   0.003  -0.022  -0.020
    4       -0.000  -0.001  -0.002  -0.003
    5       -0.000  -0.001  -0.148  -0.150
    6       -0.001   0.001  -0.127  -0.127
    7       -0.001  -0.000   0.067   0.066
    8       -0.003   0.003  -0.156  -0.156
    9       -0.002   0.001  -0.451  -0.452
   10        0.004   0.002   0.070   0.077
   11       -0.002  -0.002  -0.657  -0.661
   12       -0.002   0.002  -0.267  -0.266
   13       -0.001  -0.001  -0.073  -0.075
   14        0.001  -0.000  -0.078  -0.077
   15       -0.001   0.000  -0.138  -0.139
   16        0.001   0.001   0.022   0.025
   17       -0.002   0.000  -0.136  -0.138
   18        0.000   0.002   0.006   0.008
   19        0.002   0.002   0.088   0.093
   20        0.002   0.000   0.286   0.288
   21       -0.000  -0.001  -0.063  -0.065
   22       -0.005  -0.016  -0.060  -0.081
   23        0.000   0.000  -0.052  -0.052
   24       -0.004  -0.004  -0.161  -0.169
   25       -0.001  -0.000  -0.048  -0.050
   26        0.001   0.001   0.037   0.039
   27       -0.000  -0.000   0.038   0.037
   28        0.005   0.105   0.000   0.110
   29       -0.002  -0.090   0.000  -0.092
   30        0.001   0.022  -0.000   0.023
   31        0.000   0.006  -0.000   0.007
   32       -0.002  -0.089  -0.000  -0.092
   33       -0.000  -0.013  -0.000  -0.013
   34        0.001   0.014  -0.000   0.014
   35       -0.007  -0.256   0.000  -0.263
   36        0.000  -0.001   0.000  -0.000
   37        0.000   0.022   0.000   0.023
   38       -0.009  -0.304   0.000  -0.313
   39        0.001   0.017   0.001   0.018
   40       -0.001  -0.032  -0.000  -0.032
   41       -0.001  -0.033  -0.000  -0.034
   42       -0.001  -0.038  -0.000  -0.039
   43       -0.001  -0.015  -0.000  -0.016
   44       -0.002  -0.079  -0.000  -0.081
   45        0.000   0.007  -0.000   0.008
   46        0.008   0.296   0.000   0.303
   47       -0.001  -0.040  -0.000  -0.040
   48        0.001   0.030   0.001   0.031
   49       -0.000  -0.010  -0.000  -0.011
   50       -0.002  -0.076  -0.000  -0.078
   51       -0.002  -0.035  -0.002  -0.038
   52        0.001   0.023   0.000   0.024
   53        0.001   0.036   0.000   0.037
   54       -0.000  -0.015  -0.000  -0.016
tot          -0.03   -0.55   -2.03   -2.61