 vasp.5.4.4.18Apr17-6-g9f103f2a35 (build May 12 2020 04:58:55) complex

 MD_VERSION_INFO: Compiled 2020-05-12T11:58:55-UTC in devlin.sd.materialsdesign.
 com:/home/medea2/data/build/wwolf/vasp-gpu5.4.4/13047/x86_64/src/src/build/std
 from svn 13047

 executed on                        Lin64 date 2023.03.24  09:08:57

 INCAR:
 POTCAR:    PAW_PBE Ni 02Aug2007
 POTCAR:    PAW_PBE O 08Apr2002

 POTCAR:    PAW_PBE Ni 02Aug2007

 POTCAR:    PAW_PBE O 08Apr2002

 Optimization of the real space projectors (new method)

 maximal supplied QI-value         = 16.25
 optimisation between [QCUT,QGAM] = [ 11.38, 22.75] = [ 36.24,144.96] Ry
 Optimized for a Real-space Cutoff    1.47 Angstroem

   l    n(q)    QCUT    max X(q) W(low)/X(q) W(high)/X(q)  e(spline)
   2      9    11.376    60.317    0.17E-03    0.16E-04    0.16E-06
   2      9    11.376    55.921    0.17E-03    0.16E-04    0.17E-06
   0     10    11.376    51.690    0.45E-04    0.60E-04    0.21E-06
   0     10    11.376    30.015    0.37E-04    0.55E-04    0.19E-06
   1     10    11.376    18.849    0.83E-04    0.11E-03    0.92E-07
   1     10    11.376    14.624    0.69E-04    0.92E-04    0.82E-07
 Optimization of the real space projectors (new method)

 maximal supplied QI-value         = 24.76
 optimisation between [QCUT,QGAM] = [ 11.39, 22.77] = [ 36.31,145.25] Ry
 Optimized for a Real-space Cutoff    1.10 Angstroem

   l    n(q)    QCUT    max X(q) W(low)/X(q) W(high)/X(q)  e(spline)
   0      7    11.387    20.381    0.22E-03    0.48E-03    0.18E-06
   0      7    11.387    15.268    0.22E-03    0.52E-03    0.19E-06
   1      7    11.387     5.964    0.22E-03    0.73E-03    0.24E-06
   1      7    11.387     5.382    0.19E-03    0.60E-03    0.21E-06

  PAW_PBE Ni 02Aug2007                  :
  PAW_PBE O 08Apr2002                   :

 POSCAR: NiO_Cmmm_scale_0_950_disp_0_05_round_2
  positions in direct lattice
 exchange correlation table for  LEXCH =       14
   RHO(1)=    0.500       N(1)  =     2000
   RHO(2)=  100.500       N(2)  =     4000

 ion  position               nearest neighbor table
   1  0.002  0.003  0.995-  30 1.08  28 1.69  19 2.49  25 2.53   4 2.70   7 2.78  10 2.88   3 2.93
                            13 2.94
   2  0.998  0.004  0.353-  29 1.70  28 1.82  26 2.48  20 2.53   5 2.67   8 2.73  14 2.93  11 3.08

   3  0.004  0.002  0.696-  29 1.67  30 1.86  21 2.49  27 2.51   9 2.69   6 2.76   1 2.93  15 2.96
                            12 2.97
   4  0.057  0.351  0.995-  33 1.13  31 1.71  13 2.52   1 2.70  16 2.73   6 2.88  22 2.93   7 2.93
                            19 2.96
   5  0.067  0.354  0.359-  32 1.58  31 1.87  14 2.43  17 2.66   2 2.67  20 3.00   8 3.00
   6  0.051  0.355  0.702-  33 1.76  32 1.79  15 2.47  18 2.73   3 2.76  21 2.85   4 2.88   9 2.93
                            24 2.93
   7  0.068  0.708  0.999-  36 1.21  34 1.76  16 2.38  10 2.39   1 2.78   9 2.88   4 2.93  22 2.96
                            25 3.03
   8  0.045  0.702  0.350-  34 1.69  35 1.79  17 2.53  11 2.60   2 2.73  26 2.85  23 2.97   5 3.00

   9  0.054  0.708  0.706-  36 1.69  35 1.70  12 2.46  18 2.53   3 2.69   7 2.88  27 2.88   6 2.93
                            24 3.02
  10  0.347  0.001  0.993-  39 1.13  37 1.81   7 2.39  16 2.51  12 2.85  13 2.86   1 2.88  19 2.97
                            22 3.00
  11  0.367  0.002  0.351-  38 1.68  37 1.71  17 2.44   8 2.60  20 2.73  23 2.77  14 2.93   2 3.08

  12  0.356  0.996  0.703-  39 1.73  38 1.78  18 2.45   9 2.46  10 2.85  24 2.86  21 2.88   3 2.97

  13  0.359  0.350  0.004-  42 1.26  40 1.70   4 2.52  10 2.86  25 2.87  22 2.89   1 2.94  16 2.97
                            15 3.00
  14  0.355  0.348  0.345-  40 1.65  41 1.75   5 2.43  23 2.82   2 2.93  26 2.93  11 2.93  17 2.97

  15  0.351  0.365  0.699-  41 1.74  42 1.74   6 2.47  18 2.79  27 2.87  24 2.95   3 2.96  13 3.00

[...]

  18  0.354  0.701  0.710-  45 1.63  44 1.77  12 2.45   9 2.53   6 2.73  15 2.79  21 2.80  16 2.86
                            27 2.93
  19  0.701  0.998  0.010-  48 1.28  46 1.60   1 2.49  25 2.50  16 2.72   4 2.96  22 2.97  10 2.97
                            21 3.05
  20  0.696  0.006  0.358-  47 1.64  46 1.82   2 2.53  26 2.56  11 2.73  17 2.75  23 2.83   5 3.00

  21  0.710  0.012  0.700-  47 1.72  48 1.77   3 2.49  27 2.58  18 2.80  24 2.83   6 2.85  12 2.88
                            19 3.05
  22  0.709  0.358  0.997-  51 1.22  49 1.74  25 2.88  13 2.89   4 2.93  24 2.94   7 2.96  19 2.97
                            10 3.00
  23  0.690  0.343  0.357-  50 1.71  49 1.80  11 2.77  14 2.82  20 2.83  26 2.95   8 2.97
  24  0.694  0.343  0.697-  50 1.64  51 1.72  21 2.83  12 2.86  27 2.92   6 2.93  22 2.94  15 2.95
                             9 3.02
  25  0.700  0.698  1.000-  54 1.16  52 1.81  19 2.50   1 2.53  13 2.87  22 2.88  16 2.92  27 2.93
                             7 3.03
  26  0.703  0.703  0.348-  52 1.62  53 1.72   2 2.48  20 2.56   8 2.85  14 2.93  23 2.95  17 2.96

  27  0.705  0.699  0.701-  53 1.74  54 1.77   3 2.51  21 2.58  15 2.87   9 2.88  24 2.92  25 2.93
                            18 2.93
  28  0.003  0.997  0.167-   1 1.69   2 1.82
  29  0.995  0.004  0.526-   3 1.67   2 1.70
  30  0.000  0.996  0.885-   1 1.08   3 1.86
  31  0.054  0.352  0.169-   4 1.71   5 1.87
  32  0.052  0.362  0.519-   5 1.58   6 1.79
  33  0.035  0.343  0.881-   4 1.13   6 1.76
  34  0.053  0.694  0.178-   8 1.69   7 1.76
  35  0.056  0.700  0.532-   9 1.70   8 1.79
  36  0.042  0.702  0.877-   7 1.21   9 1.69
  37  0.356  0.004  0.177-  11 1.71  10 1.81
  38  0.348  0.002  0.521-  11 1.68  12 1.78
  39  0.367  0.008  0.878-  10 1.13  12 1.73
  40  0.348  0.345  0.178-  14 1.65  13 1.70
  41  0.339  0.334  0.523-  15 1.74  14 1.75
  42  0.345  0.357  0.876-  13 1.26  15 1.74
  43  0.352  0.708  0.178-  17 1.65  16 1.74
  44  0.355  0.707  0.530-  18 1.77  17 1.80
  45  0.350  0.702  0.875-  16 1.23  18 1.63
  46  0.698  0.988  0.173-  19 1.60  20 1.82
  47  0.701  0.004  0.525-  20 1.64  21 1.72
  48  0.697  0.005  0.880-  19 1.28  21 1.77
  49  0.694  0.358  0.173-  22 1.74  23 1.80
  50  0.704  0.353  0.531-  24 1.64  23 1.71
  51  0.694  0.349  0.873-  22 1.22  24 1.72
  52  0.711  0.711  0.183-  26 1.62  25 1.81
  53  0.713  0.712  0.523-  26 1.72  27 1.74
  54  0.701  0.699  0.882-  25 1.16  27 1.77

  LATTYP: Found a hexagonal cell.
 ALAT       =     8.3357939959
 C/A-ratio  =     1.1769065436

  Lattice vectors:

 A1 = (   8.3357940000,   0.0000000000,   0.0000000000)
 A2 = (  -4.1678970000,   7.2190093600,   0.0000000000)
 A3 = (   0.0000000000,   0.0000000000,   9.8104505000)

Analysis of symmetry for initial positions (statically):
 Subroutine PRICEL returns:
 Original cell was already a primitive cell.

 Routine SETGRP: Setting up the symmetry group for a
 hexagonal supercell.

 Subroutine GETGRP returns: Found  1 space group operations
 (whereof  1 operations were pure point group operations)
 out of a pool of 24 trial point group operations.

The static configuration has the point symmetry C_1 .

Analysis of symmetry for dynamics (positions and initial velocities):
 Subroutine PRICEL returns:
 Original cell was already a primitive cell.

[...]

The dynamic configuration has the point symmetry C_1 .

Analysis of structural, dynamic, and magnetic symmetry:
 Subroutine PRICEL returns:
 Original cell was already a primitive cell.

 Routine SETGRP: Setting up the symmetry group for a
 hexagonal supercell.

 Subroutine GETGRP returns: Found  1 space group operations
 (whereof  1 operations were pure point group operations)
 out of a pool of 24 trial point group operations.

The magnetic configuration has the point symmetry C_1 .

 Subroutine INISYM returns: Found  1 space group operations
 (whereof  1 operations are pure point group operations),
 and found     1 'primitive' translations

 KPOINTS: Automatic mesh

Automatic generation of k-mesh.
Space group operators:
 irot       det(A)        alpha          n_x          n_y          n_z        tau_x        tau_y        tau_z
    1     1.000000     0.000000     1.000000     0.000000     0.000000     0.000000     0.000000     0.000000

 Subroutine IBZKPT returns following result:

 Found     26 irreducible k-points:

 Following reciprocal coordinates:
            Coordinates               Weight
  0.000000  0.000000  0.000000      1.000000
  0.250000  0.000000  0.000000      2.000000
  0.500000  0.000000  0.000000      1.000000
  0.000000  0.250000  0.000000      2.000000
  0.250000  0.250000  0.000000      2.000000
  0.500000  0.250000  0.000000      2.000000
 -0.250000  0.250000  0.000000      2.000000
  0.000000  0.500000  0.000000      1.000000
  0.250000  0.500000  0.000000      2.000000
  0.500000  0.500000  0.000000      1.000000
  0.000000  0.000000  0.333333      2.000000
  0.250000  0.000000  0.333333      2.000000
  0.500000  0.000000  0.333333      2.000000
 -0.250000 -0.000000  0.333333      2.000000
  0.000000  0.250000  0.333333      2.000000
  0.250000  0.250000  0.333333      2.000000
  0.500000  0.250000  0.333333      2.000000
 -0.250000  0.250000  0.333333      2.000000
  0.000000  0.500000  0.333333      2.000000
  0.250000  0.500000  0.333333      2.000000
  0.500000  0.500000  0.333333      2.000000
 -0.250000  0.500000  0.333333      2.000000
  0.000000 -0.250000  0.333333      2.000000
  0.250000 -0.250000  0.333333      2.000000
  0.500000 -0.250000  0.333333      2.000000
 -0.250000 -0.250000  0.333333      2.000000

 Following cartesian coordinates:
            Coordinates               Weight
  0.000000  0.000000  0.000000      1.000000
  0.029991  0.017315  0.000000      2.000000
  0.059982  0.034631  0.000000      1.000000
  0.000000  0.034631  0.000000      2.000000
  0.029991  0.051946  0.000000      2.000000
  0.059982  0.069262  0.000000      2.000000
 -0.029991  0.017315  0.000000      2.000000
  0.000000  0.069262  0.000000      1.000000
  0.029991  0.086577  0.000000      2.000000
  0.059982  0.103892  0.000000      1.000000
  0.000000  0.000000  0.033977      2.000000
  0.029991  0.017315  0.033977      2.000000
  0.059982  0.034631  0.033977      2.000000
 -0.029991 -0.017315  0.033977      2.000000
  0.000000  0.034631  0.033977      2.000000
  0.029991  0.051946  0.033977      2.000000
  0.059982  0.069262  0.033977      2.000000
 -0.029991  0.017315  0.033977      2.000000
  0.000000  0.069262  0.033977      2.000000
  0.029991  0.086577  0.033977      2.000000
  0.059982  0.103892  0.033977      2.000000
 -0.029991  0.051946  0.033977      2.000000
  0.000000 -0.034631  0.033977      2.000000
  0.029991 -0.017315  0.033977      2.000000
  0.059982  0.000000  0.033977      2.000000
 -0.029991 -0.051946  0.033977      2.000000

 SYSTEM =  unknown system
 POSCAR =  NiO_Cmmm_scale_0_950_disp_0_05_round_2

 Startparameter for this run:
   NWRITE =      1    write-flag & timer
   PREC   = accura    normal or accurate (medium, high low for compatibility)
   ISTART =      0    job   : 0-new  1-cont  2-samecut
   ICHARG =      2    charge: 1-file 2-atom 10-const
   ISPIN  =      2    spin polarized calculation?
   LNONCOLLINEAR =      F non collinear calculations
   LSORBIT =      F    spin-orbit coupling
[...]
   -.126E+03 -.912E+02 0.117E+03   0.126E+03 0.912E+02 -.120E+03   0.143E+00 -.421E-01 0.425E+01   0.202E-02 -.166E-02 -.506E-02
   0.617E+02 -.218E+02 -.451E+03   -.492E+02 0.271E+02 0.551E+03   -.144E+01 -.866E+00 -.648E+01   -.441E-02 0.122E-01 0.510E-02
   0.115E+03 0.464E+01 0.765E+02   -.116E+03 -.484E+01 -.821E+02   -.376E+00 0.739E-01 0.211E+00   -.112E-02 -.388E-02 0.755E-02
   0.996E+02 0.217E+00 0.188E+03   -.994E+02 -.520E+00 -.192E+03   -.759E+00 0.664E-01 0.358E+01   -.549E-02 -.211E-02 -.992E-02
   0.110E+03 0.148E+03 -.420E+03   -.102E+03 -.147E+03 0.486E+03   -.244E+00 0.544E+00 -.581E+01   0.611E-02 -.688E-02 -.175E-01
   0.133E+03 0.132E+03 -.726E+02   -.133E+03 -.132E+03 0.731E+02   0.213E+00 -.228E+00 0.950E+00   -.297E-03 -.549E-02 -.214E-02
   0.129E+03 0.139E+03 0.202E+03   -.129E+03 -.138E+03 -.208E+03   -.199E+00 -.434E+00 0.438E+01   0.374E-02 0.775E-02 0.180E-01
   0.428E+02 -.244E+03 -.469E+03   -.541E+02 0.242E+03 0.568E+03   0.807E+00 -.135E+01 -.604E+01   0.987E-02 -.780E-02 -.126E-01
   0.167E+02 -.196E+03 -.287E+02   -.166E+02 0.197E+03 0.273E+02   -.400E+00 -.299E+00 0.815E+00   -.349E-03 0.536E-02 0.426E-02
   0.119E+02 -.234E+03 0.210E+03   -.119E+02 0.234E+03 -.216E+03   -.207E-01 0.414E+00 0.440E+01   0.121E-02 -.252E-02 0.729E-02
   -.186E+03 0.635E+01 -.335E+03   0.192E+03 -.778E+01 0.383E+03   -.217E+01 -.778E-01 -.503E+01   0.831E-02 0.987E-02 -.388E-02
   -.146E+03 -.245E+02 -.831E+02   0.147E+03 0.246E+02 0.849E+02   -.384E+00 -.341E+00 0.597E+00   -.764E-02 -.659E-03 -.506E-02
   -.157E+03 -.343E+00 0.176E+03   0.157E+03 0.378E+00 -.180E+03   0.106E+00 -.450E+00 0.375E+01   0.170E-02 -.577E-02 0.878E-02
   -.148E+03 0.102E+03 -.392E+03   0.150E+03 -.103E+03 0.450E+03   -.151E+01 0.748E+00 -.592E+01   -.476E-03 0.366E-02 -.126E-01
   -.107E+03 0.110E+03 -.104E+03   0.107E+03 -.110E+03 0.106E+03   -.485E-01 0.315E+00 0.445E+00   0.717E-03 -.780E-02 -.719E-02
   -.132E+03 0.875E+02 0.250E+03   0.132E+03 -.880E+02 -.258E+03   -.136E+00 0.346E+00 0.449E+01   -.754E-02 0.128E-01 0.195E-01
   0.118E+03 -.159E+03 -.310E+03   -.118E+03 0.159E+03 0.351E+03   0.588E+00 -.763E+00 -.568E+01   -.139E-01 -.448E-02 -.134E-01
   0.958E+02 -.155E+03 0.317E+02   -.962E+02 0.155E+03 -.345E+02   0.386E+00 -.271E+00 0.120E+00   0.384E-02 0.728E-02 0.744E-02
   0.982E+02 -.117E+03 0.147E+03   -.985E+02 0.117E+03 -.149E+03   -.179E+00 -.155E+00 0.260E+01   -.550E-02 0.164E-02 0.447E-02
   -.213E+02 -.162E+02 -.390E+03   0.251E+02 0.191E+02 0.451E+03   -.110E+01 -.165E+00 -.522E+01   -.133E-02 0.155E-02 -.119E-01
   -.963E+01 -.292E+02 0.902E+01   0.920E+01 0.292E+02 -.109E+02   0.281E+00 0.257E+00 0.471E+00   0.441E-02 -.163E-02 -.214E-02
   0.421E+02 -.199E+02 0.140E+03   -.423E+02 0.197E+02 -.143E+03   0.526E-01 0.279E+00 0.381E+01   0.253E-02 -.749E-02 0.156E-01
   -.153E+02 0.247E+03 -.445E+03   0.145E+02 -.249E+03 0.531E+03   0.248E+00 0.193E+01 -.531E+01   -.594E-02 -.762E-02 -.880E-02
   -.328E+00 0.240E+03 -.864E+02   0.554E+00 -.241E+03 0.883E+02   0.771E-01 0.604E+00 0.806E+00   -.170E-02 -.134E-02 -.227E-02
   -.733E+00 0.222E+03 0.174E+03   0.454E+00 -.222E+03 -.178E+03   0.145E+00 0.149E-02 0.428E+01   0.209E-02 0.630E-02 0.123E-01
   -.717E+02 -.416E+02 -.149E+03   0.724E+02 0.412E+02 0.152E+03   -.179E+00 0.122E+01 -.123E+01   -.106E-02 0.119E-02 0.370E-02
   -.637E+02 -.429E+02 0.509E+02   0.635E+02 0.431E+02 -.520E+02   0.108E+01 0.241E+00 0.163E+00   -.195E-02 0.465E-02 0.829E-02
   -.680E+02 -.296E+02 0.420E+03   0.708E+02 0.218E+02 -.568E+03   -.411E+00 0.276E+01 0.259E+02   0.819E-03 -.567E-02 -.201E-01
   0.860E+02 0.558E+01 -.150E+03   -.866E+02 -.538E+01 0.154E+03   0.807E+00 -.138E+00 -.228E+01   -.439E-03 0.343E-02 0.941E-02
   0.780E+02 -.126E+02 -.254E+02   -.816E+02 0.144E+02 0.358E+02   0.315E+01 -.186E+01 -.620E+01   -.915E-03 -.476E-02 -.633E-02
   0.129E+03 0.245E+02 0.347E+03   -.147E+03 -.312E+02 -.460E+03   0.573E+01 0.258E+01 0.199E+02   -.600E-02 0.421E-02 -.115E-01
   0.776E+02 0.959E+02 -.793E+02   -.767E+02 -.974E+02 0.760E+02   -.148E+01 0.143E+01 0.288E+01   0.256E-02 -.484E-02 -.167E-01
   0.615E+02 0.788E+02 0.805E+02   -.600E+02 -.800E+02 -.841E+02   -.233E+01 0.871E+00 0.205E+01   0.391E-03 0.891E-03 0.146E-01
   0.143E+03 0.110E+03 0.274E+03   -.159E+03 -.115E+03 -.346E+03   0.659E+01 0.232E+01 0.142E+02   0.552E-02 -.625E-03 0.635E-02
   0.681E+01 -.127E+03 -.655E+02   -.812E+01 0.127E+03 0.612E+02   0.108E+01 0.591E+00 0.360E+01   0.303E-02 0.189E-03 -.713E-02
   0.287E+02 -.115E+03 0.470E+01   -.319E+02 0.115E+03 -.220E+00   0.352E+01 -.826E-01 -.340E+01   -.152E-03 0.182E-02 0.213E-01
   -.496E+02 -.173E+03 0.341E+03   0.659E+02 0.180E+03 -.452E+03   -.591E+01 -.313E+01 0.191E+02   0.529E-02 -.450E-02 -.199E-01
   -.624E+02 0.321E+00 -.692E+02   0.617E+02 -.144E+01 0.651E+02   0.185E+01 0.128E+01 0.295E+01   -.203E-04 0.373E-02 -.387E-02
   -.801E+02 0.851E+01 0.323E+02   0.803E+02 -.122E+02 -.321E+02   0.640E+00 0.434E+01 -.372E+00   -.408E-02 -.382E-02 -.536E-03
   -.548E+02 0.491E+00 0.264E+03   0.477E+02 0.182E+01 -.320E+03   0.384E+01 -.607E+00 0.133E+02   0.557E-02 0.320E-02 0.582E-02
   -.612E+02 0.503E+02 -.695E+02   0.611E+02 -.492E+02 0.644E+02   0.110E+01 -.172E+01 0.366E+01   0.678E-03 -.247E-02 -.199E-01
   -.675E+02 0.458E+02 0.555E+02   0.679E+02 -.451E+02 -.564E+02   0.284E+00 -.128E+01 0.395E+00   -.124E-02 0.107E-02 0.865E-02
   -.720E+02 0.585E+02 0.247E+03   0.720E+02 -.593E+02 -.308E+03   0.821E+00 -.191E+00 0.120E+02   -.212E-02 0.536E-02 0.158E-01
   0.572E+02 -.855E+02 -.165E+03   -.561E+02 0.836E+02 0.174E+03   -.187E+01 0.296E+01 -.414E+01   -.376E-02 0.855E-03 -.114E-01
   0.612E+02 -.604E+02 0.143E+02   -.616E+02 0.590E+02 -.104E+02   -.123E+00 0.205E+01 -.254E+01   0.184E-02 0.472E-02 0.113E-01
   0.813E+02 -.892E+02 0.256E+03   -.860E+02 0.917E+02 -.308E+03   0.259E+01 -.334E+00 0.133E+02   -.741E-02 -.279E-02 0.224E-02
   0.127E+01 -.627E+01 -.107E+03   -.234E+01 0.752E+01 0.109E+03   0.186E+01 -.148E+01 -.343E+00   0.827E-03 0.498E-03 -.134E-01
   0.988E+01 -.307E+02 0.712E+02   -.903E+01 0.327E+02 -.745E+02   -.956E+00 -.216E+01 0.155E+01   0.380E-02 -.387E-02 0.555E-02
   0.442E+02 0.829E+01 0.270E+03   -.502E+02 -.124E+02 -.339E+03   0.283E+01 0.131E+01 0.142E+02   0.244E-03 -.189E-03 0.116E-01
   -.189E+02 0.126E+03 -.349E+02   0.194E+02 -.125E+03 0.255E+02   -.678E+00 -.259E+01 0.625E+01   -.311E-02 -.426E-02 -.723E-02
   -.261E+01 0.128E+03 0.288E+02   0.285E+01 -.127E+03 -.274E+02   -.471E+00 -.250E+01 -.118E+01   -.149E-03 0.397E-02 0.383E-02
   -.330E+01 0.130E+03 0.341E+03   0.367E+01 -.131E+03 -.441E+03   0.116E+00 -.263E+00 0.191E+02   -.191E-02 -.238E-02 0.427E-02
   -.166E+02 -.405E+01 -.141E+03   -.253E-13 -.398E-12 0.625E-12   0.166E+02 0.406E+01 0.141E+03   -.179E-01 0.353E-02 -.251E-02

 POSITION                                       TOTAL-FORCE (eV/Angst)
      0.00253      0.02500      9.76066        -1.097618      5.828413    121.244255
      8.30341      0.02993      3.45884         0.216250      0.036924     -1.363999
      0.02125      0.01661      6.82672        -0.041872     -0.016438      1.742761
     -0.98751      2.53527      9.76130        11.040846      4.394874     93.856201
     -0.91251      2.55268      3.52685        -0.479051     -0.134860     -5.420244
     -1.05624      2.56008      6.88696        -0.483509     -0.239344     -0.852013
     -2.38174      5.11174      9.79664         7.970120      1.270537     60.404169
     -2.55350      5.06553      3.43569         0.283867     -0.206030      1.455361
     -2.49597      5.10782      6.92389        -0.474783     -0.239891     -1.220922
      2.88587      0.00897      9.73767       -10.454529     -3.035225     93.048015
      3.04864      0.01762      3.44560        -0.338723      0.348000     -0.595107
     -1.17950      7.18663      6.89248         0.012620      0.546365     -1.273138
      1.53140      2.53023      0.03976         4.101606     -1.494804     42.703646
      1.50914      2.51566      3.38737        -0.241153     -0.211860      2.388694
      1.40864      2.63408      6.85632        -0.137722     -0.421152     -0.542032
      0.00239      5.07543      0.01047         0.730761      0.103161     52.321251
     -0.02483      5.05742      3.39501         0.302193      0.053759      2.881725
      0.03069      5.05967      6.96350         0.109846     -0.181104     -3.826530
      1.68588      7.20698      0.10161         1.106653     -1.154318     35.118930
      5.77890      0.04399      3.51096         0.012072     -0.108753     -2.670168
      5.87011      0.08662      6.86709        -0.447664     -0.016339      0.096994
      4.42099      2.58428      9.77639         2.737718      2.759519     55.874393
      4.32693      2.47455      3.49865        -0.141961      0.255239     -1.411661
      4.35346      2.47670      6.84191        -0.162957      0.041716      1.423667
      2.92679      5.04195      9.80645        -0.547794     -0.652866     80.917145
      2.93060      5.07662      3.41681         0.301402     -0.028962      2.731059
      2.96306      5.04952      6.87601        -0.132052     -0.013800     -0.218370
     -4.13322      7.19809      1.64194         0.526012      0.816018      2.232561
      8.27842      0.03093      5.15900         0.831967      0.399193     -0.980483
     -4.15035      7.18866      8.68297         2.395255     -5.053954   -122.636569
     -1.02096      2.54096      1.66072         0.186084      0.068123      1.985322
     -1.07932      2.61475      5.09535        -0.491040     -0.031020      4.224814
     -1.14158      2.47768      8.64752       -12.160871     -4.190596    -93.884439
     -2.44630      5.00881      1.74666        -0.631371     -0.078981     -0.500532
     -2.44602      5.05085      5.22350        -0.908978     -0.280340     -1.496906
     -2.57817      5.06787      8.60742        -9.370719     -2.437499    -58.672470
      2.95262      0.02549      1.73619        -0.220879      0.756752     -0.674821
      2.88820      0.01486      5.11531         0.342909      0.680055      1.103465
      3.02431      0.05821      8.61776        10.412654      4.728295    -91.549719
      1.46336      2.48769      1.74268         1.094233      0.163937     -1.095138
      1.43600      2.41397      5.13301         0.830809      0.642091     -0.230743
      1.38526      2.57650      8.59686        -3.224879      1.704010    -43.181423
     -0.01877      5.11373      1.74733         0.954621     -0.698921     -1.460754
      0.01400      5.10291      5.19593         0.633901     -0.636719     -0.478994
     -0.01040      5.06750      8.58881         0.820117     -1.028782    -49.515112
      1.70310      7.13486      1.69947        -0.770680      1.108010      4.476729
      5.82716      0.03068      5.15289        -0.570302      0.626535      1.368326
      5.78805      0.03591      8.63145        -2.103920      2.134118    -38.734657
      4.28900      2.58501      1.70073         0.797930     -0.224327      0.861980
      4.39635      2.54811      5.20591        -0.102046     -0.173193     -1.736518
      4.33208      2.51841      8.56108        -3.138697     -2.806153    -54.924877
      2.95734      5.13606      1.79896        -0.130483     -1.420577     -3.205450
      2.97515      5.14259      5.13371        -0.228550     -1.317976      0.195603
      2.93407      5.04594      8.65038         0.482359     -0.930857    -80.303276
    total drift:                               -0.011483      0.012913      0.000036

  FREE ENERGIE OF THE ION-ELECTRON SYSTEM (eV)
  free  energy   TOTEN  =      -222.5350225882 eV

  energy  without entropy=     -222.4823025047  energy(sigma->0) =     -222.50866255

volume of typ            1:    29.1 %

volume of typ            2:     7.5 %

total charge

# of ion       s       p       d       tot
    1        0.626   0.901   8.330   9.858
    2        0.275   0.276   7.931   8.482
    3        0.281   0.277   7.978   8.537
    4        0.593   0.824   8.262   9.678
    5        0.305   0.320   7.930   8.556
    6        0.262   0.250   7.978   8.490
    7        0.519   0.710   8.206   9.435
    8        0.278   0.281   7.922   8.482
    9        0.302   0.324   7.970   8.597
   10        0.575   0.774   8.284   9.633
   11        0.302   0.328   7.913   8.543
   12        0.274   0.273   7.978   8.525
   13        0.487   0.650   8.128   9.265
   14        0.300   0.316   7.924   8.540
   15        0.281   0.275   7.952   8.508
   16        0.501   0.686   8.183   9.370
   17        0.293   0.310   7.932   8.535
   18        0.306   0.332   7.972   8.610
   19        0.492   0.709   8.120   9.322
   20        0.288   0.300   7.936   8.524
   21        0.280   0.283   7.964   8.527
   22        0.524   0.673   8.151   9.348
   23        0.269   0.256   7.911   8.437
   24        0.304   0.316   7.959   8.579
   25        0.552   0.734   8.252   9.538
   26        0.313   0.347   7.933   8.593
   27        0.272   0.265   7.963   8.500
   28        1.273   2.752   0.007   4.032
   29        1.277   2.755   0.011   4.043
   30        1.339   3.054   0.065   4.458
   31        1.271   2.740   0.006   4.017
   32        1.276   2.766   0.012   4.055
   33        1.332   3.027   0.061   4.420
   34        1.272   2.756   0.008   4.036
   35        1.274   2.735   0.008   4.017
   36        1.316   2.992   0.052   4.360
   37        1.271   2.748   0.007   4.025
   38        1.274   2.743   0.009   4.026
   39        1.331   3.028   0.062   4.421
   40        1.271   2.782   0.011   4.063
   41        1.269   2.741   0.008   4.019
   42        1.304   2.946   0.042   4.291
   43        1.274   2.773   0.010   4.057
   44        1.273   2.723   0.006   4.003
   45        1.313   2.992   0.051   4.355
   46        1.275   2.776   0.010   4.061
   47        1.275   2.763   0.011   4.049
   48        1.301   2.938   0.038   4.277
   49        1.266   2.742   0.006   4.015
   50        1.268   2.776   0.011   4.055
   51        1.311   2.973   0.048   4.332
   52        1.274   2.770   0.010   4.053
   53        1.272   2.744   0.008   4.025
   54        1.325   3.005   0.056   4.386
tot          44.83   88.53  217.60  350.97

magnetization (x)

# of ion       s       p       d       tot
    1       -0.002  -0.002  -0.077  -0.081
    2        0.004  -0.001   0.480   0.483
    3        0.000  -0.000   0.293   0.293
    4       -0.006  -0.009  -0.167  -0.182
    5        0.005   0.000   0.613   0.618
    6       -0.000  -0.001   0.104   0.102
    7        0.005   0.006   0.179   0.190
    8       -0.002   0.001  -0.329  -0.331
    9        0.001   0.001  -0.029  -0.028
   10       -0.003  -0.012  -0.181  -0.195
   11        0.003  -0.001   0.448   0.450
   12       -0.001  -0.001   0.034   0.032
   13        0.003   0.004   0.220   0.226
   14       -0.003   0.001  -0.333  -0.335
   15        0.000   0.001  -0.099  -0.098
   16       -0.001   0.001   0.026   0.027
   17       -0.000  -0.000  -0.015  -0.016
   18       -0.000  -0.000   0.022   0.021
   19        0.007   0.001   0.327   0.335
   20       -0.003  -0.001  -0.443  -0.446
   21       -0.000   0.000  -0.221  -0.221
   22        0.004   0.006   0.201   0.211
   23       -0.006   0.001  -0.544  -0.550
   24        0.000  -0.000  -0.094  -0.094
   25       -0.000  -0.003  -0.064  -0.066
   26        0.002  -0.001   0.193   0.194
   27       -0.000  -0.000   0.090   0.090
   28        0.001   0.024   0.000   0.025
   29        0.009   0.307  -0.000   0.315
   30       -0.001  -0.025  -0.001  -0.027
   31        0.001   0.047  -0.000   0.048
   32        0.008   0.312   0.000   0.320
   33       -0.001  -0.071  -0.001  -0.074
   34       -0.002  -0.068  -0.000  -0.070
   35       -0.004  -0.132   0.000  -0.135
   36        0.001   0.076   0.001   0.078
   37        0.002   0.094   0.000   0.097
   38        0.006   0.220  -0.000   0.225
   39       -0.001  -0.082  -0.001  -0.085
   40       -0.001  -0.037  -0.000  -0.038
   41       -0.004  -0.168   0.000  -0.173
   42        0.002   0.081   0.001   0.083
   43       -0.000  -0.011   0.000  -0.011
   44        0.000   0.014  -0.000   0.014
   45        0.000   0.013   0.000   0.014
   46        0.001   0.057   0.000   0.058
   47       -0.007  -0.271   0.000  -0.278
   48        0.002   0.099   0.001   0.101
   49       -0.002  -0.068   0.000  -0.070
   50       -0.005  -0.176   0.000  -0.181
   51        0.002   0.074   0.001   0.076
   52        0.001   0.029   0.000   0.030
   53        0.004   0.135  -0.000   0.139
   54       -0.000  -0.023  -0.000  -0.024
tot           0.02    0.44    0.63    1.09