 vasp.5.4.4.18Apr17-6-g9f103f2a35 (build May 12 2020 04:58:55) complex

 MD_VERSION_INFO: Compiled 2020-05-12T11:58:55-UTC in devlin.sd.materialsdesign.
 com:/home/medea2/data/build/wwolf/vasp-gpu5.4.4/13047/x86_64/src/src/build/std
 from svn 13047

 executed on                        Lin64 date 2023.03.24  09:40:57

 INCAR:
 POTCAR:    PAW_PBE Ni 02Aug2007
 POTCAR:    PAW_PBE O 08Apr2002

 POTCAR:    PAW_PBE Ni 02Aug2007

 POTCAR:    PAW_PBE O 08Apr2002

 Optimization of the real space projectors (new method)

 maximal supplied QI-value         = 16.25
 optimisation between [QCUT,QGAM] = [ 11.38, 22.75] = [ 36.24,144.96] Ry
 Optimized for a Real-space Cutoff    1.47 Angstroem

   l    n(q)    QCUT    max X(q) W(low)/X(q) W(high)/X(q)  e(spline)
   2      9    11.376    60.317    0.17E-03    0.16E-04    0.16E-06
   2      9    11.376    55.921    0.17E-03    0.16E-04    0.17E-06
   0     10    11.376    51.690    0.45E-04    0.60E-04    0.21E-06
   0     10    11.376    30.015    0.37E-04    0.55E-04    0.19E-06
   1     10    11.376    18.849    0.83E-04    0.11E-03    0.92E-07
   1     10    11.376    14.624    0.69E-04    0.92E-04    0.82E-07
 Optimization of the real space projectors (new method)

 maximal supplied QI-value         = 24.76
 optimisation between [QCUT,QGAM] = [ 11.39, 22.77] = [ 36.31,145.25] Ry
 Optimized for a Real-space Cutoff    1.10 Angstroem

   l    n(q)    QCUT    max X(q) W(low)/X(q) W(high)/X(q)  e(spline)
   0      7    11.387    20.381    0.22E-03    0.48E-03    0.18E-06
   0      7    11.387    15.268    0.22E-03    0.52E-03    0.19E-06
   1      7    11.387     5.964    0.22E-03    0.73E-03    0.24E-06
   1      7    11.387     5.382    0.19E-03    0.60E-03    0.21E-06

  PAW_PBE Ni 02Aug2007                  :
  PAW_PBE O 08Apr2002                   :

 POSCAR: NiO_C2_m_scale_1_050_disp_0_20_round_2
  positions in direct lattice
 exchange correlation table for  LEXCH =       14
   RHO(1)=    0.500       N(1)  =     2000
   RHO(2)=  100.500       N(2)  =     4000

 ion  position               nearest neighbor table
   1  0.033  0.006  0.996-  29 1.84  30 2.04  36 2.24  10 2.62  13 2.74   4 2.89   3 2.89  26 2.99

   2  0.222  0.121  0.382-  40 1.47  37 1.59  28 1.94  30 2.11  39 2.47   5 2.59   9 2.59  11 2.68
                             3 2.75  14 2.84  13 2.85  12 2.87
   3  0.033  0.151  0.652-  47 1.67  28 1.74  29 2.03  32 2.04  31 2.17   2 2.75  27 2.78  21 2.83
                             4 2.84   9 2.87   1 2.89
   4  0.026  0.316  0.970-  32 1.58  33 2.14  50 2.21  30 2.29  47 2.38  13 2.75   3 2.84  16 2.84
                             1 2.89   6 2.95   5 2.97   7 3.01  20 3.05
   5  0.202  0.389  0.321-  30 1.89  31 1.93  43 2.01  42 2.08  40 2.09  33 2.30  13 2.48  15 2.53
                             2 2.59  14 2.84   4 2.97  20 3.08
   6  0.143  0.578  0.690-  35 1.55  43 1.92  50 2.11  32 2.30  18 2.36  31 2.39  34 2.42  16 2.68
                            15 2.70   4 2.95   7 2.98   9 3.01
   7  0.966  0.609  0.011-  36 1.78  33 2.06  51 2.18  50 2.30  23 2.66   8 2.89   6 2.98  25 2.98
                             4 3.01  22 3.05
   8  0.205  0.756  0.301-  45 1.94  36 2.01  34 2.12  33 2.16  37 2.45   7 2.89  10 2.89  17 2.95
                             9 2.96  18 2.96
   9  0.103  0.879  0.616-  28 1.94  34 2.03  37 2.08  35 2.12  53 2.48  29 2.49   2 2.59   3 2.87
                            18 2.88   8 2.96   6 3.01  12 3.08
  10  0.323  0.015  0.030-  39 2.11  36 2.34  45 2.40  29 2.46  38 2.51   1 2.62  22 2.64  19 2.67
                            11 2.75  13 2.76   8 2.89  12 2.91
  11  0.511  0.119  0.339-  37 1.81  48 1.93  39 2.02  49 2.06  46 2.34   2 2.68  10 2.75  14 2.77
                            23 2.80  22 2.92  21 2.96
  12  0.415  0.220  0.707-  41 1.86  38 1.92  29 1.98  40 2.17  49 2.31  37 2.41  22 2.69  15 2.84
                            24 2.86   2 2.87  10 2.91  13 3.03   9 3.08
  13  0.315  0.311  0.059-  39 1.80  42 1.83  30 1.96  29 2.33   5 2.48  32 2.48  14 2.73   1 2.74
                             4 2.75  10 2.76  16 2.82  22 2.83   2 2.85  25 2.90  12 3.03
  14  0.530  0.430  0.344-  40 1.95  39 1.98  49 1.98  52 1.99  51 2.14  42 2.34  24 2.40  15 2.61
                            13 2.73  11 2.77  25 2.82   2 2.84   5 2.84  26 2.91  17 3.06
  15  0.380  0.499  0.600-  43 1.48  40 1.99  41 2.25  52 2.28  32 2.40  44 2.44   5 2.53  14 2.61
                             6 2.70  12 2.84  17 2.91  18 3.05
  16  0.340  0.623  0.974-  42 1.78  45 2.12  33 2.13  44 2.14  32 2.46   6 2.68  13 2.82  25 2.83
                             4 2.84  18 3.04  17 3.08
  17  0.530  0.763  0.330-  45 2.01  54 2.13  46 2.28  52 2.29  42 2.34  43 2.44  26 2.72  18 2.88
                            27 2.89  15 2.91  20 2.92   8 2.95  14 3.06  16 3.08
  18  0.393  0.836  0.643-  35 1.69  44 2.14  43 2.35   6 2.36  46 2.44  38 2.53  27 2.84   9 2.88
                            17 2.88   8 2.96  16 3.04  15 3.05
  19  0.611  0.015  0.977-  38 1.97  48 2.24  45 2.26  22 2.59  10 2.67  20 2.98
  20  0.842  0.085  0.287-  54 1.81  48 1.99  46 2.09  30 2.18  23 2.75  26 2.88  17 2.92  19 2.98
                            21 3.04   4 3.05   5 3.08
  21  0.770  0.226  0.622-  50 1.96  46 1.99  49 2.13  47 2.17  38 2.19  31 2.25  24 2.66   3 2.83
                            23 2.88  11 2.96  20 3.04
  22  0.614  0.298  0.998-  39 1.78  38 2.09  48 2.23  41 2.38  51 2.39  19 2.59  10 2.64  12 2.69
                            23 2.75  25 2.77  13 2.83  11 2.92   7 3.05
  23  0.840  0.384  0.275-  48 1.58  51 1.74  49 2.40  33 2.46  31 2.50   7 2.66  22 2.75  20 2.75
                            11 2.80  24 2.87  21 2.88
  24  0.729  0.491  0.582-  49 1.43  52 1.94  41 2.15  53 2.20  34 2.27  14 2.40  21 2.66  12 2.86
                            23 2.87
  25  0.642  0.613  0.021-  42 2.16  41 2.24  51 2.24  54 2.44  53 2.46  26 2.47  22 2.77  14 2.82
                            16 2.83  13 2.90   7 2.98
  26  0.822  0.760  0.281-  54 1.64  51 2.09  52 2.11  36 2.31  25 2.47  17 2.72  20 2.88  14 2.91
                             1 2.99
  27  0.715  0.864  0.663-  44 1.68  47 1.97  53 2.09  46 2.11  52 2.24   3 2.78  18 2.84  17 2.89

  28  0.002  0.996  0.497-   3 1.74   9 1.94   2 1.94
  29  0.191  0.124  0.822-   1 1.84  12 1.98   3 2.03  13 2.33  10 2.46   9 2.49
  30  0.099  0.187  0.187-   5 1.89  13 1.96   1 2.04   2 2.11  20 2.18   4 2.29
  31  0.025  0.343  0.491-   5 1.93   3 2.17  21 2.25   6 2.39  23 2.50
  32  0.158  0.356  0.815-   4 1.58   3 2.04   6 2.30  15 2.40  16 2.46  13 2.48
  33  0.120  0.536  0.135-   7 2.06  16 2.13   4 2.14   8 2.16   5 2.30  23 2.46
  34  0.996  0.659  0.479-   9 2.03   8 2.12  24 2.27   6 2.42
  35  0.212  0.759  0.763-   6 1.55  18 1.69   9 2.12
  36  0.061  0.802  0.133-   7 1.78   8 2.01   1 2.24  26 2.31  10 2.34
  37  0.313  0.025  0.459-   2 1.59  11 1.81   9 2.08  12 2.41   8 2.45
  38  0.545  0.123  0.791-  12 1.92  19 1.97  22 2.09  21 2.19  10 2.51  18 2.53
  39  0.454  0.250  0.162-  22 1.78  13 1.80  14 1.98  11 2.02  10 2.11   2 2.47
  40  0.320  0.286  0.472-   2 1.47  14 1.95  15 1.99   5 2.09  12 2.17
  41  0.541  0.443  0.782-  12 1.86  24 2.15  25 2.24  15 2.25  22 2.38
  42  0.400  0.526  0.145-  16 1.78  13 1.83   5 2.08  25 2.16  17 2.34  14 2.34
  43  0.286  0.571  0.508-  15 1.48   6 1.92   5 2.01  18 2.35  17 2.44
  44  0.539  0.751  0.784-  27 1.68  18 2.14  16 2.14  15 2.44
  45  0.403  0.824  0.154-   8 1.94  17 2.01  16 2.12  19 2.26  10 2.40
  46  0.660  0.009  0.487-  21 1.99  20 2.09  27 2.11  17 2.28  11 2.34  18 2.44
  47  0.860  0.085  0.776-   3 1.67  27 1.97  21 2.17   4 2.38
  48  0.718  0.199  0.204-  23 1.58  11 1.93  20 1.99  22 2.23  19 2.24
  49  0.632  0.329  0.500-  24 1.43  14 1.98  11 2.06  21 2.13  12 2.31  23 2.40
  50  0.899  0.410  0.790-  21 1.96   6 2.11   4 2.21   7 2.30
  51  0.766  0.517  0.211-  23 1.74  26 2.09  14 2.14   7 2.18  25 2.24  22 2.39
  52  0.650  0.638  0.492-  24 1.94  14 1.99  26 2.11  27 2.24  15 2.28  17 2.29
  53  0.818  0.717  0.751-  27 2.09  24 2.20  25 2.46   9 2.48
  54  0.759  0.880  0.183-  26 1.64  20 1.81  17 2.13  25 2.44

  LATTYP: Found a hexagonal cell.
 ALAT       =     9.1585410021
 C/A-ratio  =     0.8152863538

  Lattice vectors:

 A1 = (   9.1585410000,   0.0000000000,   0.0000000000)
 A2 = (  -4.5792705000,   7.9315291700,   0.0000000000)
 A3 = (   0.0000000000,   0.0000000000,   7.4668335000)

Analysis of symmetry for initial positions (statically):
 Subroutine PRICEL returns:
 Original cell was already a primitive cell.

 Routine SETGRP: Setting up the symmetry group for a
 hexagonal supercell.

 Subroutine GETGRP returns: Found  1 space group operations
 (whereof  1 operations were pure point group operations)
 out of a pool of 24 trial point group operations.

The static configuration has the point symmetry C_1 .

Analysis of symmetry for dynamics (positions and initial velocities):
 Subroutine PRICEL returns:
 Original cell was already a primitive cell.

[...]

The dynamic configuration has the point symmetry C_1 .

Analysis of structural, dynamic, and magnetic symmetry:
 Subroutine PRICEL returns:
 Original cell was already a primitive cell.

 Routine SETGRP: Setting up the symmetry group for a
 hexagonal supercell.

 Subroutine GETGRP returns: Found  1 space group operations
 (whereof  1 operations were pure point group operations)
 out of a pool of 24 trial point group operations.

The magnetic configuration has the point symmetry C_1 .

 Subroutine INISYM returns: Found  1 space group operations
 (whereof  1 operations are pure point group operations),
 and found     1 'primitive' translations

 KPOINTS: Automatic mesh

Automatic generation of k-mesh.
Space group operators:
 irot       det(A)        alpha          n_x          n_y          n_z        tau_x        tau_y        tau_z
    1     1.000000     0.000000     1.000000     0.000000     0.000000     0.000000     0.000000     0.000000

 Subroutine IBZKPT returns following result:

 Found     36 irreducible k-points:

 Following reciprocal coordinates:
            Coordinates               Weight
  0.000000  0.000000  0.000000      1.000000
  0.250000 -0.000000  0.000000      2.000000
  0.500000 -0.000000  0.000000      1.000000
  0.000000  0.250000  0.000000      2.000000
  0.250000  0.250000  0.000000      2.000000
  0.500000  0.250000  0.000000      2.000000
 -0.250000  0.250000  0.000000      2.000000
  0.000000  0.500000  0.000000      1.000000
  0.250000  0.500000  0.000000      2.000000
  0.500000  0.500000  0.000000      1.000000
  0.000000  0.000000  0.250000      2.000000
  0.250000 -0.000000  0.250000      2.000000
  0.500000 -0.000000  0.250000      2.000000
 -0.250000  0.000000  0.250000      2.000000
  0.000000  0.250000  0.250000      2.000000
  0.250000  0.250000  0.250000      2.000000
  0.500000  0.250000  0.250000      2.000000
 -0.250000  0.250000  0.250000      2.000000
  0.000000  0.500000  0.250000      2.000000
  0.250000  0.500000  0.250000      2.000000
  0.500000  0.500000  0.250000      2.000000
 -0.250000  0.500000  0.250000      2.000000
  0.000000 -0.250000  0.250000      2.000000
[...]
   0.414E+02 0.434E+02 -.211E+02   -.420E+02 -.416E+02 0.216E+02   0.295E+01 0.206E+01 -.571E+00   0.132E+00 0.567E-01 -.100E+00
   0.301E+03 0.117E+03 -.145E+03   -.305E+03 -.114E+03 0.146E+03   -.975E+00 -.254E+01 0.412E+01   0.997E-02 -.185E+00 -.344E-01
   0.250E+03 -.113E+03 0.612E+02   -.256E+03 0.114E+03 -.606E+02   0.473E+01 0.433E+00 -.124E+00   -.104E+00 -.142E+00 0.175E+00
   0.209E+03 0.965E+02 -.232E+02   -.212E+03 -.107E+03 0.205E+02   0.305E+01 0.169E+01 -.221E+00   0.402E-01 -.119E+00 -.871E-01
   0.753E+02 -.593E+02 0.246E+03   -.740E+02 0.611E+02 -.243E+03   -.123E+01 -.299E+01 -.372E+01   0.712E-01 0.521E-01 0.114E+00
   0.281E+02 0.132E+01 -.500E+02   -.304E+02 -.326E+01 0.471E+02   0.152E+01 0.130E+01 0.290E+01   -.276E-01 0.652E-01 -.109E+00
   0.548E+02 0.174E+03 -.215E+03   -.578E+02 -.180E+03 0.213E+03   0.262E+01 0.401E+01 0.251E+01   -.120E+00 0.263E+00 0.211E-01
   0.917E+01 0.290E+03 0.126E+03   -.967E+01 -.291E+03 -.124E+03   0.160E+00 0.443E+00 -.109E+01   0.872E-01 0.592E-02 -.203E-01
   -.160E+03 0.286E+03 0.215E+01   0.162E+03 -.288E+03 -.168E+01   -.344E-01 0.904E+00 -.658E+00   -.199E-01 -.552E-01 -.204E+00
   -.360E+02 0.155E+03 -.107E+03   0.371E+02 -.153E+03 0.111E+03   -.944E+00 -.210E+01 -.390E+01   -.200E+00 -.166E+00 0.703E-01
   0.265E+02 0.230E+02 0.273E+03   -.264E+02 -.226E+02 -.274E+03   -.105E+01 -.787E+00 -.163E+01   0.176E-01 -.189E+00 -.124E-01
   -.165E+02 -.191E+03 0.974E+02   0.171E+02 0.193E+03 -.980E+02   0.743E-01 -.111E+01 -.632E-01   -.394E-01 -.103E+00 -.291E-01
   -.132E+03 -.970E+02 -.287E+03   0.143E+03 0.948E+02 0.296E+03   0.150E+00 -.109E+01 -.822E+00   -.147E+00 -.273E+00 -.659E-01
   0.522E+02 -.200E+03 0.125E+03   -.525E+02 0.201E+03 -.121E+03   -.994E+00 -.346E+00 -.469E+01   -.784E-01 0.815E-01 0.903E-01
   0.464E+02 -.104E+03 0.151E+02   -.483E+02 0.106E+03 -.175E+02   0.178E+01 -.219E+01 0.214E+01   -.665E-01 0.584E-01 -.112E+00
   -.739E+02 -.198E+03 0.300E+02   0.766E+02 0.199E+03 -.288E+02   -.238E-01 0.169E+00 -.210E+01   -.769E-01 0.124E+00 0.492E-01
   -.182E+03 0.141E+03 0.239E+02   0.178E+03 -.140E+03 -.259E+02   0.342E+01 -.107E+01 0.183E+01   -.101E+00 0.460E-01 0.995E-01
   -.368E+02 0.363E+01 0.595E+02   0.352E+02 -.553E+01 -.594E+02   0.136E+01 0.305E+01 0.812E+00   0.511E-01 0.121E+00 0.540E-01
   -.310E+02 0.129E+02 -.842E+02   0.325E+02 -.136E+02 0.870E+02   -.140E+01 0.659E+00 -.169E+01   0.285E+00 -.854E-01 -.491E-02
   -.230E+03 -.128E+03 0.218E+03   0.229E+03 0.127E+03 -.219E+03   0.251E+01 0.128E+01 -.567E+00   0.153E-01 -.311E+00 0.809E-01
   -.291E+03 -.175E+03 -.485E+02   0.293E+03 0.180E+03 0.498E+02   0.187E+01 -.166E+00 0.169E+01   0.982E-01 -.717E-01 0.568E-02
   -.286E+03 -.345E+03 -.307E+03   0.288E+03 0.367E+03 0.320E+03   0.299E+00 -.465E+01 -.286E+01   0.278E-01 -.193E-01 -.891E-01
   -.911E+02 -.235E+03 0.203E+03   0.922E+02 0.234E+03 -.207E+03   -.882E+00 0.781E+00 0.190E+01   0.238E-02 0.111E-01 0.925E-01
   -.208E+03 -.954E+02 -.211E+02   0.210E+03 0.933E+02 0.226E+02   0.154E+01 -.723E+00 0.645E+00   0.121E+00 0.959E-01 0.339E-01
   -.124E+03 -.218E+02 -.625E+02   0.126E+03 0.200E+02 0.653E+02   0.106E+01 0.224E+01 -.398E+01   0.168E+00 0.351E+00 0.284E-01
   0.106E+03 0.203E+03 0.697E+02   -.116E+03 -.216E+03 -.815E+02   0.946E+01 0.103E+02 0.105E+02   -.870E-01 0.377E+00 0.278E+00
   -.399E+02 0.119E+03 -.120E+02   0.412E+02 -.113E+03 0.849E+01   -.389E-02 -.676E+01 0.317E+01   -.198E+00 0.409E-02 -.200E+00
   0.145E+03 0.160E+03 0.506E+02   -.151E+03 -.168E+03 -.496E+02   0.423E+01 0.727E+01 -.170E+01   -.743E-02 0.498E-02 0.917E-01
   0.144E+03 -.254E+02 0.591E+01   -.149E+03 0.315E+02 -.117E+01   0.400E+01 -.773E+01 -.516E+01   0.210E+00 -.269E+00 0.619E-01
   -.732E+02 -.700E+02 0.595E+02   0.895E+02 0.759E+02 -.744E+02   -.128E+02 -.413E+01 0.105E+02   0.641E-01 -.283E+00 -.280E+00
   0.661E+02 -.344E+02 -.168E+02   -.639E+02 0.345E+02 0.221E+02   -.240E+01 -.417E+00 -.575E+01   0.689E-02 0.320E-01 0.849E-01
   0.148E+02 0.250E+02 -.499E+01   -.179E+02 -.319E+02 0.444E+01   0.365E+01 0.771E+01 0.569E-01   0.158E-01 0.234E-01 -.931E-01
   0.168E+03 -.158E+03 -.230E+03   -.183E+03 0.176E+03 0.253E+03   0.110E+02 -.108E+02 -.192E+02   -.224E-01 0.148E+00 0.101E+00
   0.427E+02 -.781E+02 0.427E+02   -.460E+02 0.853E+02 -.370E+02   0.299E+01 -.547E+01 -.570E+01   0.856E-01 0.956E-01 0.217E-01
   -.130E+03 0.242E+03 -.917E+02   0.144E+03 -.254E+03 0.103E+03   -.883E+01 0.890E+01 -.867E+01   -.266E-01 -.139E-01 -.120E-01
   -.617E+02 0.109E+03 0.165E+02   0.640E+02 -.114E+03 -.254E+02   -.140E+01 0.450E+01 0.911E+01   -.882E-02 -.139E+00 0.212E+00
   -.305E+02 0.765E+02 0.526E+02   0.306E+02 -.792E+02 -.448E+02   0.358E+00 0.168E+01 -.672E+01   -.932E-02 -.163E+00 -.462E-01
   0.272E+02 -.775E+02 -.155E+03   -.246E+02 0.958E+02 0.173E+03   -.903E+00 -.546E+01 -.115E+02   -.186E+00 -.374E-01 0.971E-01
   -.291E+02 -.147E+03 -.116E+03   0.295E+02 0.160E+03 0.118E+03   -.864E+00 -.123E+02 -.242E+01   -.699E-01 -.126E+00 -.169E-01
   -.222E+02 -.166E+03 0.274E+01   0.239E+02 0.174E+03 0.744E+01   0.787E-01 -.747E+01 -.889E+01   -.843E-01 -.639E-01 0.255E-01
   0.175E+03 -.185E+03 0.117E+03   -.198E+03 0.198E+03 -.136E+03   0.144E+02 -.778E+01 0.123E+02   -.216E-01 -.160E+00 -.650E-01
   -.105E+02 -.101E+02 -.150E+03   0.787E+01 0.593E-01 0.158E+03   -.540E+00 0.865E+01 -.591E+01   -.138E+00 0.238E-01 0.141E+00
   -.605E+01 -.647E+02 0.746E+02   0.712E+01 0.668E+02 -.794E+02   -.492E+00 -.181E+01 0.471E+01   -.812E-01 0.166E+00 -.134E+00
   0.350E+02 0.655E+02 -.765E+01   -.378E+02 -.670E+02 0.634E+01   0.251E+01 0.960E+00 0.119E+01   0.484E-01 0.961E-01 -.716E-01
   0.116E+03 0.104E+03 -.204E+03   -.129E+03 -.106E+03 0.219E+03   0.875E+01 0.652E-01 -.128E+02   0.387E+00 0.194E+00 -.217E+00
   -.977E+02 0.145E+03 0.150E+03   0.956E+02 -.161E+03 -.159E+03   0.942E+00 0.993E+01 0.676E+01   0.297E-01 -.482E-01 -.531E-01
   -.998E+02 0.171E+03 -.246E+02   0.969E+02 -.204E+03 0.140E+02   0.135E+01 0.172E+02 0.432E+01   -.356E-01 -.582E-01 -.995E-01
   0.952E+02 -.665E+02 -.713E+02   -.979E+02 0.687E+02 0.732E+02   0.291E+01 -.165E+01 -.113E+01   0.247E-01 -.511E-01 0.109E-01
   -.427E+02 -.136E+03 0.938E+02   0.370E+02 0.142E+03 -.934E+02   0.349E+01 -.441E+01 -.194E+01   0.845E-01 -.369E-01 0.705E-01
   -.127E+02 -.180E+03 -.663E+02   0.109E+02 0.188E+03 0.758E+02   0.483E+00 -.790E+01 -.111E+02   0.418E-01 -.422E-01 -.989E-01
   -.105E+03 -.548E+02 -.136E+03   0.108E+03 0.526E+02 0.137E+03   -.237E+01 0.273E+01 0.231E-01   0.101E+00 0.890E-01 -.171E-02
   0.564E+02 -.455E+02 0.230E+03   -.670E+02 0.488E+02 -.247E+03   0.769E+01 -.202E+01 0.152E+02   0.236E-01 0.104E+00 0.219E-02
   -.655E+02 0.857E+01 0.409E+02   0.384E-12 -.526E-12 -.853E-13   0.653E+02 -.817E+01 -.407E+02   0.209E+00 -.386E+00 -.177E+00

 POSITION                                       TOTAL-FORCE (eV/Angst)
      0.28097      0.04422      7.43777         0.420005     -0.747333      0.680857
      1.47836      0.96051      2.85495        -6.974860    -10.167848     -8.824341
     -0.38332      1.19411      4.87013         2.525818      3.927880     -0.192791
     -1.20989      2.50758      7.24518        -4.582781     -0.648877      4.436576
      0.06626      3.08487      2.39316        -1.909081      1.784694      0.658852
     -1.34176      4.58822      5.15358        -0.481847     -8.818651     -3.035083
      6.05590      4.82847      0.08136         0.095375     -1.206886     -0.991551
     -1.58750      5.99579      2.24745        -0.769831     -0.568110     -0.073821
     -3.08516      6.97278      4.60132        -0.504965     -1.784539      0.811407
      2.89075      0.12215      0.22062        -0.252599     -0.504442      0.405909
      4.13893      0.94319      2.52879         1.715348     -0.816264     -0.391431
      2.78939      1.74671      5.28027        -0.033819     -0.589639      0.385627
      1.46001      2.46937      0.44156        -0.926954     -0.587174     -2.540427
      2.88646      3.40915      2.57066         0.592268      0.720275     -0.755289
      1.19592      3.96100      4.48106        10.753499     -3.596356      7.714145
      0.26353      4.93807      7.27056        -1.360587      1.291909     -0.611938
      1.35544      6.05365      2.46217        -0.175757      0.301601     -0.350746
     -0.23058      6.63468      4.80084         2.554131      1.769877     -0.852104
      5.52732      0.11525      7.29859        -0.585169     -0.137389     -0.001519
      7.32778      0.67231      2.13932        -0.247407      1.277824      0.912615
      6.02172      1.78889      4.64363         0.415861     -0.122246      1.169306
      4.25535      2.36491      7.45130         1.154687      0.603151     -2.026753
      5.93289      3.04211      2.05367         3.747190      5.293978      2.960685
      4.42848      3.89648      4.34204         2.693366     17.284902      9.306489
      3.07385      4.86097      0.15898         0.176669     -0.404741     -1.374092
      4.04761      6.03177      2.09904         3.548203     -2.694002      2.174677
      2.59810      6.84987      4.95061         3.161832      0.742632     -1.163243
     -4.53897      7.90019      3.71004         0.071917     -1.936534     -1.105093
      1.18220      0.97965      6.13670         1.138978     -1.264871     -0.559033
      0.05398      1.48444      1.39481        -1.112872     -1.101632     -0.607755
     -1.33752      2.71812      3.66319        -0.949749     -1.901746     -0.355074
     -0.18482      2.82492      6.08339         3.477601      1.534689     -4.564657
     -1.35420      4.24851      1.00658        -0.178140     -0.378188     -0.384581
      6.10334      5.22599      3.57541         0.587016      0.798626     -0.593486
     -1.53352      6.02339      5.69393        -3.241666      7.261843      3.749836
     -3.11690      6.36375      0.99076        -0.195994      1.846617      0.056589
      2.75517      0.19837      3.42768         4.836567     -3.706694      2.703640
      4.43282      0.97335      5.90302         0.955647     -0.368803      0.450536
      3.01380      1.98376      1.20859         0.409404     -1.218931      0.996529
      1.62264      2.26513      3.52712         1.455636     12.854743      6.279785
      2.93068      3.51348      5.84178        -0.495980      0.033656      0.202366
      1.24969      4.17292      1.07917         1.712371      0.701207      1.313843
      0.00830      4.52552      3.79634        -8.342116      5.290667     -6.587313
      1.49852      5.95486      5.85488        -3.348066     -1.406351      1.803972
     -0.08413      6.53393      1.14980         0.494741      0.480095     -0.157235
      6.00221      0.07229      3.63787        -0.292831     -0.379802     -0.184306
      7.48493      0.67151      5.79662        -3.627693     -1.428728      2.010849
      5.66218      1.57646      1.52134        -1.074650     -6.363704     -2.676606
      4.27726      2.61119      3.73325        -1.491726    -15.545906     -6.390806
      6.35790      3.25278      5.89900         0.191904      0.479291      0.852464
      4.64331      4.10325      1.57197        -2.122761      1.434625     -1.488526
      3.02931      5.05730      3.67400        -1.328688      0.658588     -1.763036
      4.21042      5.68859      5.60582         0.617013      0.642720      0.839821
      2.92482      6.97727      1.36653        -2.894461      1.380298     -2.274740
    total drift:                               -0.020516      0.013142      0.013551

  FREE ENERGIE OF THE ION-ELECTRON SYSTEM (eV)
  free  energy   TOTEN  =      -306.7245183322 eV

  energy  without entropy=     -306.6544639076  energy(sigma->0) =     -306.68949112

volume of typ            1:    31.7 %

volume of typ            2:     8.1 %

total charge

# of ion       s       p       d       tot
    1        0.192   0.170   7.988   8.351
    2        0.377   0.489   8.122   8.989
    3        0.282   0.342   7.935   8.559
    4        0.253   0.259   8.029   8.541
    5        0.219   0.253   7.972   8.444
    6        0.290   0.339   8.000   8.629
    7        0.209   0.192   7.940   8.341
    8        0.199   0.183   7.921   8.303
    9        0.193   0.188   7.932   8.314
   10        0.163   0.125   8.025   8.313
   11        0.218   0.234   8.004   8.456
   12        0.223   0.237   7.942   8.401
   13        0.234   0.270   8.007   8.511
   14        0.218   0.245   8.018   8.481
   15        0.296   0.341   8.081   8.719
   16        0.207   0.206   7.955   8.368
   17        0.174   0.151   7.977   8.303
   18        0.218   0.209   8.033   8.460
   19        0.167   0.130   7.992   8.289
   20        0.206   0.208   7.965   8.380
   21        0.199   0.203   7.922   8.324
   22        0.209   0.204   7.998   8.411
   23        0.292   0.316   8.047   8.656
   24        0.313   0.405   8.054   8.773
   25        0.165   0.131   7.983   8.279
   26        0.253   0.257   7.964   8.475
   27        0.243   0.266   7.910   8.419
   28        1.275   2.762   0.010   4.047
   29        1.276   2.730   0.008   4.014
   30        1.266   2.760   0.009   4.035
   31        1.290   2.676   0.004   3.970
   32        1.292   2.753   0.013   4.058
   33        1.285   2.685   0.005   3.975
   34        1.282   2.671   0.003   3.956
   35        1.272   2.825   0.021   4.118
   36        1.271   2.726   0.007   4.004
   37        1.268   2.821   0.015   4.104
   38        1.270   2.722   0.006   3.998
   39        1.265   2.806   0.013   4.084
   40        1.279   2.858   0.024   4.161
   41        1.280   2.702   0.005   3.988
   42        1.264   2.781   0.011   4.056
   43        1.289   2.812   0.022   4.123
   44        1.278   2.732   0.009   4.019
   45        1.271   2.712   0.005   3.988
   46        1.272   2.712   0.005   3.989
   47        1.280   2.748   0.010   4.038
   48        1.266   2.805   0.016   4.088
   49        1.290   2.845   0.027   4.161
   50        1.278   2.684   0.004   3.966
   51        1.278   2.743   0.009   4.031
   52        1.289   2.706   0.007   4.001
   53        1.290   2.639   0.002   3.931
   54        1.266   2.790   0.013   4.069
tot          40.70   80.76  216.00  337.46

magnetization (x)

# of ion       s       p       d       tot
    1        0.007   0.009   1.132   1.147
    2        0.001   0.003   0.158   0.162
    3       -0.000   0.002   0.046   0.048
    4        0.003   0.008   0.546   0.556
    5       -0.001   0.002  -0.738  -0.737
    6        0.002   0.005   0.108   0.115
    7        0.010   0.010   1.138   1.158
    8        0.004   0.007   0.981   0.991
    9        0.002   0.003   1.011   1.016
   10       -0.001  -0.001   1.055   1.053
   11       -0.004  -0.000  -0.575  -0.579
   12        0.005   0.013   1.166   1.184
   13        0.001   0.010   0.984   0.995
   14        0.000   0.002  -0.550  -0.548
   15       -0.007  -0.004   0.009  -0.003
   16        0.004   0.012   1.008   1.024
   17        0.006   0.006   1.101   1.112
   18        0.002   0.005   0.622   0.629
   19        0.006   0.005   1.089   1.101
   20        0.000  -0.002  -0.787  -0.789
   21        0.002   0.002   0.850   0.854
   22        0.005   0.006   1.115   1.127
   23        0.004  -0.000   0.015   0.020
   24       -0.002   0.001   0.131   0.129
   25       -0.002  -0.002   1.168   1.164
   26        0.005   0.008   1.010   1.024
   27        0.001   0.013   0.998   1.011
   28        0.004   0.076  -0.000   0.080
   29        0.010   0.191   0.000   0.201
   30        0.005   0.095  -0.000   0.100
   31       -0.001  -0.076   0.000  -0.077
   32        0.005   0.111   0.000   0.116
   33        0.007   0.140   0.000   0.147
   34        0.006   0.149   0.000   0.155
   35        0.005   0.070   0.000   0.075
   36        0.014   0.270   0.000   0.284
   37        0.006   0.052   0.000   0.058
   38        0.013   0.232   0.000   0.245
   39        0.003   0.134  -0.000   0.137
   40       -0.002  -0.019   0.000  -0.021
   41        0.010   0.250   0.000   0.260
   42        0.011   0.162   0.000   0.173
   43        0.000   0.014  -0.000   0.014
   44        0.011   0.245   0.000   0.256
   45        0.011   0.205   0.000   0.216
   46        0.003   0.004   0.000   0.007
   47        0.006   0.159   0.000   0.165
   48        0.002   0.018  -0.000   0.019
   49       -0.000   0.004   0.000   0.004
   50        0.007   0.094   0.000   0.102
   51        0.005   0.158  -0.000   0.162
   52        0.004   0.118   0.000   0.123
   53        0.008   0.244   0.000   0.252
   54        0.006   0.161   0.000   0.168
tot           0.21    3.38   14.79   18.38