 vasp.5.4.4.18Apr17-6-g9f103f2a35 (build May 12 2020 04:58:55) complex

 MD_VERSION_INFO: Compiled 2020-05-12T11:58:55-UTC in devlin.sd.materialsdesign.
 com:/home/medea2/data/build/wwolf/vasp-gpu5.4.4/13047/x86_64/src/src/build/std
 from svn 13047

 executed on                        Lin64 date 2023.03.24  13:52:38

 INCAR:
 POTCAR:    PAW_PBE Ni 02Aug2007
 POTCAR:    PAW_PBE O 08Apr2002

 POTCAR:    PAW_PBE Ni 02Aug2007

 POTCAR:    PAW_PBE O 08Apr2002

 Optimization of the real space projectors (new method)

 maximal supplied QI-value         = 16.25
 optimisation between [QCUT,QGAM] = [ 11.38, 22.75] = [ 36.24,144.96] Ry
 Optimized for a Real-space Cutoff    1.47 Angstroem

   l    n(q)    QCUT    max X(q) W(low)/X(q) W(high)/X(q)  e(spline)
   2      9    11.376    60.317    0.17E-03    0.16E-04    0.16E-06
   2      9    11.376    55.921    0.17E-03    0.16E-04    0.17E-06
   0     10    11.376    51.690    0.45E-04    0.60E-04    0.21E-06
   0     10    11.376    30.015    0.37E-04    0.55E-04    0.19E-06
   1     10    11.376    18.849    0.83E-04    0.11E-03    0.92E-07
   1     10    11.376    14.624    0.69E-04    0.92E-04    0.82E-07
 Optimization of the real space projectors (new method)

 maximal supplied QI-value         = 24.76
 optimisation between [QCUT,QGAM] = [ 11.39, 22.77] = [ 36.31,145.25] Ry
 Optimized for a Real-space Cutoff    1.10 Angstroem

   l    n(q)    QCUT    max X(q) W(low)/X(q) W(high)/X(q)  e(spline)
   0      7    11.387    20.381    0.22E-03    0.48E-03    0.18E-06
   0      7    11.387    15.268    0.22E-03    0.52E-03    0.19E-06
   1      7    11.387     5.964    0.22E-03    0.73E-03    0.24E-06
   1      7    11.387     5.382    0.19E-03    0.60E-03    0.21E-06

  PAW_PBE Ni 02Aug2007                  :
  PAW_PBE O 08Apr2002                   :

 POSCAR: NiO_C2_m_scale_1_000_disp_0_15_round_2
  positions in direct lattice
 exchange correlation table for  LEXCH =       14
   RHO(1)=    0.500       N(1)  =     2000
   RHO(2)=  100.500       N(2)  =     4000

 ion  position               nearest neighbor table
   1  0.984  0.971  0.023-  54 1.52  53 1.98  36 2.04  47 2.06  30 2.34  29 2.46  19 2.57  26 2.58
                            25 2.67   2 2.69   7 2.77   4 2.79  27 2.87  20 2.92   9 2.94  13 2.98
   2  0.213  0.101  0.312-  30 1.84  36 1.96  28 2.13  39 2.19  40 2.40   1 2.69   8 2.70  20 2.72
                            13 2.74   9 2.76  26 2.87  12 2.89  10 2.93   5 3.00   3 3.01  11 3.03
   3  0.116  0.200  0.680-  29 1.78  32 1.83  47 1.85  28 2.01  31 2.15  40 2.20   9 2.35  27 2.70
                            20 2.77  13 2.78  12 2.78  15 2.84   1 3.00   4 3.00   5 3.00   2 3.01
   4  0.011  0.304  0.039-  30 1.82  48 1.86  47 1.98  33 1.99  32 2.30  13 2.49  50 2.51   5 2.55
                            20 2.64  16 2.70   1 2.79  23 2.80  19 2.81   3 3.00
   5  0.188  0.432  0.340-  31 1.84  30 1.86  33 1.93  43 2.26  40 2.30  42 2.49   4 2.55  20 2.57
                            23 2.68   6 2.80  16 2.86  13 2.88  15 2.93   2 3.00   3 3.00   8 3.04
   6  0.135  0.568  0.674-  35 1.96  43 2.02  34 2.11  31 2.30  50 2.33  32 2.39  15 2.58  16 2.66
                            18 2.74   5 2.80   7 2.89   8 3.04
   7  0.999  0.662  0.998-  50 1.81  35 1.83  53 1.99  36 2.06  33 2.07  51 2.24  25 2.73   1 2.77
                             8 2.79   6 2.89  24 2.91  10 2.95  26 3.00  16 3.01  22 3.02
   8  0.209  0.790  0.320-  36 1.70  37 1.90  43 2.02  45 2.15  33 2.21  34 2.27   2 2.70  11 2.78
                             7 2.79  10 2.89  26 2.91   9 2.99   5 3.04   6 3.04
   9  0.113  0.931  0.655-  28 1.86  29 1.86  53 1.97  37 2.28   3 2.35  35 2.37  34 2.51  12 2.59
                             2 2.76  27 2.77  24 2.80  10 2.91   1 2.94  26 2.96   8 2.99  18 3.06
  10  0.339  0.997  0.980-  38 1.91  35 2.01  45 2.04  29 2.11  36 2.22  39 2.25  18 2.65  22 2.77
                            12 2.83   8 2.89   9 2.91   2 2.93   7 2.95   1 3.01  11 3.02  13 3.04
  11  0.549  0.081  0.342-  37 1.86  45 1.92  46 2.06  49 2.13  39 2.21  48 2.40  17 2.72   8 2.78
                            12 2.78  21 2.79  23 2.79  18 2.82  20 3.02  10 3.02   2 3.03  22 3.03
  12  0.432  0.198  0.644-  29 1.89  40 1.98  38 2.06  37 2.10  49 2.15  41 2.30   9 2.59  21 2.68
                            18 2.74  11 2.78   3 2.78  10 2.83   2 2.89  22 3.02  14 3.03
  13  0.307  0.328  0.011-  32 1.65  30 1.80  41 2.06  42 2.08  29 2.11  39 2.22  16 2.44   4 2.49
                             2 2.74   3 2.78   5 2.88  15 2.91   1 2.98  22 2.99  10 3.04  14 3.04
  14  0.576  0.467  0.330-  51 1.74  52 1.93  39 2.09  40 2.10  42 2.15  49 2.22  25 2.55  26 2.69
                            17 2.76  22 2.86  23 2.87  24 2.88  12 3.03  15 3.03  13 3.04
  15  0.419  0.545  0.672-  32 1.82  40 1.85  41 2.07  44 2.11  43 2.25   6 2.58  16 2.60   3 2.84
                            17 2.86  18 2.91  13 2.91   5 2.93  24 3.00  14 3.03
  16  0.317  0.612  0.990-  42 1.80  32 2.02  33 2.07  44 2.27  35 2.29  13 2.44  45 2.45  15 2.60
                             6 2.66   4 2.70   5 2.86   7 3.01  18 3.04  25 3.06
  17  0.553  0.771  0.352-  46 1.93  43 1.94  42 2.12  45 2.21  52 2.27  54 2.52  11 2.72  26 2.74
                            14 2.76  15 2.86  18 2.92  25 2.93  27 2.95  19 2.97   5 3.08
  18  0.441  0.889  0.681-  37 1.73  43 2.01  44 2.04  38 2.09  35 2.19  46 2.24  10 2.65   6 2.74
                            12 2.74  21 2.78  11 2.82  15 2.91  17 2.92  27 2.93  19 2.98  16 3.04
  19  0.694  0.980  0.000-  54 1.73  44 1.96  47 2.08  45 2.19  48 2.23  38 2.40  27 2.57   1 2.57
                            25 2.79   4 2.81  17 2.97  18 2.98  21 3.02  20 3.04  11 3.07
  20  0.913  0.121  0.356-  31 1.77  28 1.80  46 2.04  30 2.06  54 2.16  48 2.49   5 2.57   4 2.64
                            23 2.68   2 2.72   3 2.77  26 2.78  27 2.80   1 2.92  21 2.98  11 3.02
  21  0.749  0.218  0.667-  49 1.81  38 1.92  46 2.18  31 2.24  50 2.30  47 2.44  12 2.68  23 2.75
                            18 2.78  11 2.79  27 2.84  22 2.85  20 2.98  19 3.02
  22  0.647  0.322  0.003-  39 1.79  48 1.89  38 1.91  50 2.05  41 2.07  51 2.25  10 2.77  25 2.78
                            21 2.85  14 2.86  23 2.91  13 2.99   7 3.02  12 3.02  11 3.03
  23  0.868  0.402  0.336-  49 1.82  48 1.90  31 2.05  34 2.11  33 2.15  51 2.33  20 2.68   5 2.68
                            21 2.75  11 2.79   4 2.80  14 2.87  22 2.91
  24  0.791  0.612  0.661-  52 1.56  53 1.80  34 1.86  50 2.33  41 2.40  49 2.50  27 2.65  26 2.72
                             9 2.80  14 2.88  25 2.90   7 2.91  15 3.00
  25  0.686  0.657  0.033-  51 1.65  42 1.89  54 2.13  41 2.18  53 2.28  44 2.36  26 2.54  14 2.55
                             1 2.67   7 2.73  22 2.78  19 2.79  24 2.90  17 2.93  16 3.06
  26  0.874  0.785  0.326-  52 1.67  51 1.94  54 1.99  28 2.02  36 2.11  34 2.34  25 2.54   1 2.58
                            14 2.69  24 2.72  17 2.74  20 2.78   2 2.87   8 2.91   9 2.96   7 3.00
  27  0.788  0.914  0.681-  46 1.87  47 1.95  44 1.96  28 2.03  53 2.20  52 2.36  19 2.57  24 2.65
                             3 2.70   9 2.77  20 2.80  21 2.84   1 2.87  18 2.93  17 2.95  26 3.01
  28  0.991  0.001  0.495-  20 1.80   9 1.86   3 2.01  26 2.02  27 2.03   2 2.13
  29  0.240  0.126  0.811-   3 1.78   9 1.86  12 1.89  10 2.11  13 2.11   1 2.46
  30  0.137  0.237  0.189-  13 1.80   4 1.82   2 1.84   5 1.86  20 2.06   1 2.34
  31  0.999  0.312  0.500-  20 1.77   5 1.84  23 2.05   3 2.15  21 2.24   6 2.30
  32  0.240  0.395  0.828-  13 1.65  15 1.82   3 1.83  16 2.02   4 2.30   6 2.39
  33  0.101  0.538  0.164-   5 1.93   4 1.99  16 2.07   7 2.07  23 2.15   8 2.21
  34  0.973  0.628  0.508-  24 1.86   6 2.11  23 2.11   8 2.27  26 2.34   9 2.51
  35  0.197  0.764  0.849-   7 1.83   6 1.96  10 2.01  18 2.19  16 2.29   9 2.37
  36  0.113  0.874  0.178-   8 1.70   2 1.96   1 2.04   7 2.06  26 2.11  10 2.22
  37  0.356  0.960  0.502-  18 1.73  11 1.86   8 1.90  12 2.10   9 2.28
  38  0.555  0.121  0.841-  22 1.91  10 1.91  21 1.92  12 2.06  18 2.09  19 2.40
  39  0.468  0.237  0.167-  22 1.79  14 2.09   2 2.19  11 2.21  13 2.22  10 2.25
  40  0.360  0.353  0.516-  15 1.85  12 1.98  14 2.10   3 2.20   5 2.30   2 2.40
  41  0.530  0.436  0.845-  13 2.06  15 2.07  22 2.07  25 2.18  12 2.30  24 2.40
  42  0.459  0.573  0.141-  16 1.80  25 1.89  13 2.08  17 2.12  14 2.15   5 2.49
  43  0.333  0.696  0.486-  17 1.94  18 2.01   6 2.02   8 2.02  15 2.25   5 2.26
  44  0.568  0.782  0.824-  27 1.96  19 1.96  18 2.04  15 2.11  16 2.27  25 2.36
  45  0.449  0.895  0.157-  11 1.92  10 2.04   8 2.15  19 2.19  17 2.21  16 2.45
  46  0.680  0.984  0.499-  27 1.87  17 1.93  20 2.04  11 2.06  21 2.18  18 2.24
  47  0.925  0.119  0.842-   3 1.85  27 1.95   4 1.98   1 2.06  19 2.08  21 2.44
  48  0.788  0.246  0.127-   4 1.86  22 1.89  23 1.90  19 2.23  11 2.40  20 2.49
  49  0.679  0.322  0.495-  21 1.81  23 1.82  11 2.13  12 2.15  14 2.22  24 2.50
  50  0.883  0.461  0.861-   7 1.81  22 2.05  21 2.30  24 2.33   6 2.33   4 2.51
  51  0.761  0.566  0.183-  25 1.65  14 1.74  26 1.94   7 2.24  22 2.25  23 2.33
  52  0.720  0.668  0.488-  24 1.56  26 1.67  14 1.93  17 2.27  27 2.36
  53  0.916  0.786  0.827-  24 1.80   9 1.97   1 1.98   7 1.99  27 2.20  25 2.28
  54  0.820  0.921  0.139-   1 1.52  19 1.73  26 1.99  25 2.13  20 2.16  17 2.52

  LATTYP: Found a hexagonal cell.
 ALAT       =     8.7224199979
 C/A-ratio  =     0.8152863542

  Lattice vectors:

 A1 = (   8.7224200000,   0.0000000000,   0.0000000000)
 A2 = (  -4.3612100000,   7.5538373000,   0.0000000000)
 A3 = (   0.0000000000,   0.0000000000,   7.1112700000)

Analysis of symmetry for initial positions (statically):
 Subroutine PRICEL returns:
 Original cell was already a primitive cell.

 Routine SETGRP: Setting up the symmetry group for a
 hexagonal supercell.

 Subroutine GETGRP returns: Found  1 space group operations
 (whereof  1 operations were pure point group operations)
 out of a pool of 24 trial point group operations.

The static configuration has the point symmetry C_1 .

Analysis of symmetry for dynamics (positions and initial velocities):
 Subroutine PRICEL returns:
 Original cell was already a primitive cell.

[...]

The dynamic configuration has the point symmetry C_1 .

Analysis of structural, dynamic, and magnetic symmetry:
 Subroutine PRICEL returns:
 Original cell was already a primitive cell.

 Routine SETGRP: Setting up the symmetry group for a
 hexagonal supercell.

 Subroutine GETGRP returns: Found  1 space group operations
 (whereof  1 operations were pure point group operations)
 out of a pool of 24 trial point group operations.

The magnetic configuration has the point symmetry C_1 .

 Subroutine INISYM returns: Found  1 space group operations
 (whereof  1 operations are pure point group operations),
 and found     1 'primitive' translations

 KPOINTS: Automatic mesh

Automatic generation of k-mesh.
Space group operators:
 irot       det(A)        alpha          n_x          n_y          n_z        tau_x        tau_y        tau_z
    1     1.000000     0.000000     1.000000     0.000000     0.000000     0.000000     0.000000     0.000000

[...]
   0.940E+02 -.124E+03 0.122E+03   -.965E+02 0.127E+03 -.122E+03   0.711E+00 -.889E+00 -.330E+01   -.593E-01 -.888E-01 0.163E-01
   0.162E+03 -.101E+03 0.177E+03   -.168E+03 0.101E+03 -.179E+03   0.449E+01 0.702E+00 0.253E-01   -.920E-02 -.458E-01 -.490E-01
   -.128E+03 -.219E+03 -.109E+03   0.128E+03 0.221E+03 0.111E+03   0.181E+01 0.549E+00 -.840E+00   0.189E-01 -.881E-03 0.878E-02
   0.742E+02 0.916E+02 -.671E+01   -.780E+02 -.886E+02 0.552E+01   0.265E+01 -.323E+01 0.695E+00   -.548E-02 0.296E-02 0.265E-01
   -.497E+02 0.742E+02 -.414E+02   0.521E+02 -.766E+02 0.386E+02   -.264E+01 0.234E+01 0.426E+01   -.317E-01 0.171E-01 -.294E-01
   -.548E+02 0.128E+03 -.174E+02   0.579E+02 -.130E+03 0.200E+02   -.550E-01 -.564E+00 -.374E+00   -.172E-02 0.151E-01 -.110E-01
   -.185E+03 0.179E+03 0.556E+02   0.186E+03 -.181E+03 -.540E+02   0.927E+00 0.422E+00 -.168E+01   -.101E+00 -.824E-02 0.223E-01
   -.295E+02 0.307E+02 -.680E+02   0.322E+02 -.324E+02 0.685E+02   -.294E+01 0.136E+01 0.346E+00   0.273E-02 -.126E-01 -.230E-02
   -.142E+02 -.846E+02 0.954E+02   0.130E+02 0.836E+02 -.971E+02   0.157E+01 0.274E+01 0.686E+00   0.251E-01 -.384E-01 -.714E-02
   -.102E+03 -.105E+03 0.745E+02   0.100E+03 0.108E+03 -.742E+02   0.231E+01 -.168E+01 -.510E+00   -.113E-01 -.790E-02 0.114E-01
   -.204E+03 0.314E+02 -.111E+03   0.211E+03 -.319E+02 0.112E+03   -.173E+01 -.682E+00 0.141E+01   -.396E-02 -.126E-01 -.193E-01
   0.127E+03 0.167E+03 -.120E+03   -.129E+03 -.172E+03 0.123E+03   -.143E+00 0.145E+01 0.274E-01   -.108E-01 0.418E-01 0.110E-01
   -.695E+02 -.167E+03 0.113E+03   0.716E+02 0.165E+03 -.113E+03   -.105E+01 0.405E+01 -.551E+00   0.361E-01 0.585E-01 0.608E-02
   0.104E+03 -.212E+03 0.120E+02   -.104E+03 0.215E+03 -.993E+01   -.144E+01 -.116E+01 -.287E+01   0.149E-01 0.299E-01 -.159E-01
   0.407E+02 0.652E+02 0.448E+02   -.451E+02 -.655E+02 -.442E+02   0.405E+01 -.386E+00 -.134E+01   0.514E-01 0.469E-01 0.419E-01
   -.512E+02 0.613E+02 -.130E+03   0.523E+02 -.635E+02 0.131E+03   0.698E+00 0.796E+00 0.984E+00   0.829E-01 0.191E-02 0.882E-02
   0.266E+03 -.388E+02 0.674E+01   -.271E+03 0.381E+02 -.639E+01   0.931E+00 0.190E+01 -.110E+01   0.509E-01 -.293E-01 -.850E-01
   0.174E+03 0.252E+02 0.635E+02   -.176E+03 -.265E+02 -.615E+02   0.703E+00 0.182E+00 -.455E+01   -.522E-03 -.869E-01 0.577E-01
   -.942E+02 -.100E+03 -.108E+03   0.927E+02 0.103E+03 0.108E+03   0.331E+01 -.197E+01 0.636E+00   0.564E-01 -.776E-01 0.380E-01
   -.470E+02 -.416E+02 0.784E+02   0.488E+02 0.415E+02 -.801E+02   -.199E-04 0.223E+01 0.117E+00   0.139E-01 0.461E-03 -.222E-01
   0.222E+02 -.102E+03 -.181E+02   -.233E+02 0.104E+03 0.190E+02   0.171E+01 0.787E+00 -.108E+01   -.954E-03 -.507E-02 -.106E-01
   -.214E+02 0.261E+03 -.158E+03   0.285E+02 -.265E+03 0.163E+03   -.287E+01 -.554E+00 0.240E+00   -.576E-01 0.112E+00 0.329E-01
   0.995E+02 -.114E+01 0.210E+03   -.105E+03 -.165E+01 -.214E+03   0.165E+01 0.418E+01 -.517E+00   0.698E-02 0.707E-01 -.635E-01
   -.119E+03 -.914E+01 -.163E+02   0.122E+03 0.900E+01 0.170E+02   0.806E-01 0.219E+01 -.276E+01   -.453E-01 0.333E-01 0.455E-01
   0.882E+02 0.975E+02 -.168E+02   -.915E+02 -.976E+02 0.172E+02   0.340E+01 -.118E+01 -.218E+00   0.909E-02 -.181E-01 0.123E-01
   -.334E+02 0.298E+02 0.159E+02   0.330E+02 -.335E+02 -.177E+02   0.137E+01 0.241E+01 0.196E+01   -.788E-01 -.443E-01 0.798E-01
   -.891E+02 0.251E+02 -.111E+03   0.928E+02 -.214E+02 0.124E+03   -.190E+01 -.536E+01 -.106E+02   -.297E-01 -.950E-02 -.791E-02
   -.560E+02 0.158E+02 -.370E+02   0.569E+02 -.221E+02 0.402E+02   -.905E+00 0.557E+01 -.245E+01   -.131E-02 -.137E-01 -.897E-02
   0.683E+02 -.100E+03 -.160E+03   -.733E+02 0.105E+03 0.174E+03   0.430E+01 -.364E+01 -.111E+02   0.249E-01 -.378E-01 0.367E-01
   0.134E+03 -.834E+02 0.753E+02   -.144E+03 0.851E+02 -.839E+02   0.619E+01 0.883E+00 0.627E+01   -.726E-02 -.210E-01 -.345E-02
   0.368E+02 -.987E+02 -.190E+01   -.412E+02 0.104E+03 0.101E+01   0.377E+01 -.505E+01 0.101E+01   -.751E-02 0.236E-01 -.312E-01
   -.964E+02 0.180E+02 0.147E+01   0.998E+02 -.157E+02 -.551E+01   -.136E+01 -.266E+01 0.323E+01   -.266E-01 0.367E-01 0.304E-01
   -.554E+02 -.208E+01 0.242E+02   0.551E+02 0.548E+01 -.272E+02   0.163E+01 -.310E+01 0.232E+01   -.349E-01 -.138E-01 0.193E-01
   -.438E+02 0.131E+01 0.409E+02   0.406E+02 -.427E-01 -.478E+02   0.106E+01 -.450E+00 0.466E+01   -.187E-01 -.160E-01 -.200E-01
   0.860E+02 -.179E+02 0.187E+02   -.945E+02 0.173E+02 -.210E+02   0.570E+01 0.311E+01 0.244E+01   0.454E-02 0.924E-02 -.510E-02
   -.595E+02 0.125E+02 -.284E+02   0.634E+02 -.138E+02 0.323E+02   -.365E+01 0.340E+00 -.477E+01   0.273E-01 -.118E-01 0.879E-02
   0.244E+02 0.516E+02 -.681E+02   -.285E+02 -.552E+02 0.746E+02   0.247E+01 0.282E+01 -.520E+01   0.269E-02 -.158E-01 -.109E-01
   -.304E+02 -.179E+02 0.962E+02   0.289E+02 0.148E+02 -.102E+03   0.169E+01 0.262E+01 0.397E+01   -.973E-02 -.687E-02 0.152E-01
   -.976E+02 -.288E+02 0.676E+02   0.977E+02 0.284E+02 -.709E+02   0.124E+01 0.347E+00 0.370E+01   0.604E-02 0.251E-01 -.493E-02
   0.355E+02 -.259E+02 -.896E+02   -.350E+02 0.240E+02 0.956E+02   -.163E+00 0.218E+01 -.372E+01   0.987E-02 0.263E-01 -.718E-02
   -.731E+01 0.694E+02 0.250E+02   0.561E+01 -.689E+02 -.277E+02   0.197E+01 -.229E+01 0.283E+01   0.270E-01 0.888E-02 0.320E-02
   0.413E+02 0.582E+02 -.134E+02   -.414E+02 -.655E+02 0.161E+02   -.544E+00 0.698E+01 -.319E+01   0.106E+00 0.745E-01 -.460E-01
   -.249E+02 0.567E+02 0.634E+02   0.269E+02 -.642E+02 -.685E+02   -.173E+01 0.735E+01 0.494E+01   0.331E-01 0.881E-02 -.807E-02
   0.521E+02 -.129E+02 0.808E+01   -.550E+02 0.157E+02 -.803E+01   0.228E+01 -.225E+01 -.954E+00   0.942E-01 -.585E-01 0.800E-01
   0.125E+03 -.818E+02 0.252E+02   -.129E+03 0.872E+02 -.249E+02   0.313E+01 -.517E+01 0.294E+00   -.290E-01 -.117E+00 -.701E-01
   0.611E+02 0.657E+02 0.188E+02   -.640E+02 -.727E+02 -.213E+02   0.182E+01 0.544E+01 0.345E+01   0.231E-02 -.459E-01 -.420E-01
   0.803E+02 -.507E+02 -.377E+02   -.911E+02 0.593E+02 0.391E+02   0.898E+01 -.939E+01 -.186E+01   -.228E-01 -.159E-01 0.296E-01
   -.341E+02 0.805E+02 0.999E+02   0.379E+02 -.882E+02 -.106E+03   -.448E+01 0.652E+01 0.408E+01   -.242E-02 0.334E-01 0.131E-01
   -.169E+03 0.931E+02 0.439E+01   0.190E+03 -.101E+03 -.145E+01   -.161E+02 0.679E+01 -.188E+01   0.787E-02 0.446E-01 -.358E-01
   0.171E+03 0.438E+02 -.496E+02   -.190E+03 -.420E+02 0.478E+02   0.113E+02 -.169E+01 -.117E+01   -.254E-01 0.973E-01 0.681E-01
   -.693E+01 0.437E+02 -.670E+01   0.743E+01 -.410E+02 0.960E+01   -.905E+00 -.168E+01 -.184E+01   -.665E-01 0.185E-01 -.320E-01
   0.164E+03 0.412E+02 -.121E+03   -.180E+03 -.465E+02 0.139E+03   0.874E+01 0.239E+01 -.101E+02   -.317E-01 -.107E-01 -.275E-01
   -.561E+02 -.266E+02 0.234E+02   0.625E-12 0.369E-12 0.000E+00   0.562E+02 0.267E+02 -.234E+02   -.896E-01 -.884E-01 -.182E-01

 POSITION                                       TOTAL-FORCE (eV/Angst)
      4.34742      7.33433      0.16227         9.161672      3.029228     -6.234355
      1.41782      0.76564      2.22006         1.215732      0.107288      0.836496
      0.13782      1.51307      4.83484        -1.813213      1.906358     -2.756085
     -1.22570      2.29463      0.27900        -1.673114      0.844029     -1.910419
     -0.23979      3.26032      2.42100         1.913160      2.170527      0.986438
     -1.29676      4.29098      4.79533        -1.078102     -0.221674     -0.463457
      5.83023      4.99828      7.09945        -0.301080      0.014760      1.512386
     -1.61654      5.96446      2.27456         3.085260     -2.527896      2.199198
     -3.07366      7.03045      4.65576         1.802580     -2.258510     -0.104946
     -1.38892      7.53347      6.97010        -0.158881     -0.324491      0.865295
      4.43397      0.60938      2.43115         0.385549      1.709352     -1.007413
      2.90937      1.49386      4.58291         0.604204      1.504818     -0.199403
      1.24731      2.47719      0.08134         5.518356     -1.224509      2.383352
      2.98786      3.53123      2.34565        -2.302543     -2.910684      2.232864
      1.27677      4.11482      4.78145         1.102245      1.889560     -0.246742
      0.09369      4.62049      7.03744        -1.890483      1.929254     -0.833467
      1.46414      5.82272      2.50080        -0.300446     -0.654034     -0.641774
     -0.03256      6.71710      4.84433         1.846336     -1.433009      1.458729
      1.78385      7.40178      0.00018        -3.709356      1.171672     -0.832320
      7.43794      0.91550      2.53233        -1.952117     -1.209826     -2.546721
      5.58510      1.64349      4.74670         1.842040      0.316177      1.072926
      4.23899      2.43303      0.01922         1.779564      2.159469     -1.625150
      5.81543      3.03758      2.38704         0.583333      2.227583     -0.156049
      4.23323      4.62070      4.70016         4.085568     -4.467352      5.436208
      3.11575      4.96501      0.23822        -3.431258      1.459851     -4.605685
      4.19822      5.92921      2.32100         2.863341      2.087921     -2.006711
      2.88734      6.90295      4.84538         0.108383     -1.204024      0.174502
      8.63819      0.00433      3.52102         0.888664     -1.332055      0.229658
      1.54188      0.95215      5.76726         1.782863     -1.642197      2.393783
      0.15840      1.79078      1.34494        -0.051291     -0.750776      0.744357
      7.35206      2.35464      3.55919        -0.650995      1.060353      2.908665
      0.37488      2.98372      5.89081        -4.533436      2.534764     -2.306720
     -1.46840      4.06363      1.16473        -0.674392      0.679528      0.092844
      5.74294      4.74743      3.61557         2.028233     -0.283281     -0.772028
     -1.61099      5.77114      6.03784         1.282737      0.289030     -0.609378
     -2.82695      6.60462      1.26859        -2.147236      0.803941     -2.225658
     -1.07633      7.24798      3.56981        -2.800549      2.457276      0.109443
      4.31403      0.91285      5.97928         0.312817     -0.918443     -0.866038
      3.05005      1.79267      1.18696        -1.580044     -0.765602      1.356132
      1.60076      2.66895      3.67296         0.155376     -0.477739     -1.898954
      2.72024      3.29365      6.00893         1.343323     -0.105519      0.362713
      1.50312      4.32608      1.00113         0.346597      0.280236      2.266883
     -0.13252      5.26050      3.45865         0.307521     -1.788069      0.118653
      1.54444      5.90747      5.86249        -0.568267     -0.207001     -0.465092
      0.01562      6.76127      1.11518         0.312427     -0.116850     -0.202344
      1.64253      7.43064      3.54731        -0.477009      0.476656     -0.814508
      7.55070      0.89690      5.99102        -1.050757      0.116835      0.538238
      5.80545      1.85697      0.90457        -1.088971     -1.603513      0.957375
      4.52008      2.43470      3.51889        -1.873464     -0.868533     -0.440557
      5.68701      3.48447      6.12488        -0.696098     -1.098497     -1.537589
      4.17140      4.27426      1.30248         5.150007     -1.179261      1.029928
      3.36880      5.04924      3.46838        -7.217148      0.177286     -2.861155
      4.56402      5.93856      5.88435        -0.471418      1.022901      1.027572
      3.13052      6.95934      0.98854        -7.316221     -2.853310      7.876085
    total drift:                               -0.013856      0.008370     -0.024464

  FREE ENERGIE OF THE ION-ELECTRON SYSTEM (eV)
  free  energy   TOTEN  =      -319.6611842832 eV

  energy  without entropy=     -319.6107688509  energy(sigma->0) =     -319.63597657

volume of typ            1:    36.7 %

volume of typ            2:     9.4 %

total charge

# of ion       s       p       d       tot
    1        0.292   0.352   8.119   8.763
    2        0.195   0.207   8.050   8.452
    3        0.254   0.323   8.014   8.591
    4        0.237   0.281   8.018   8.537
    5        0.225   0.255   8.008   8.487
    6        0.191   0.188   7.979   8.358
    7        0.239   0.280   7.983   8.502
    8        0.240   0.282   7.984   8.507
    9        0.220   0.248   8.043   8.511
   10        0.201   0.215   7.976   8.392
   11        0.217   0.237   7.967   8.422
   12        0.212   0.235   7.966   8.414
   13        0.273   0.344   8.025   8.642
   14        0.228   0.264   8.006   8.499
   15        0.228   0.254   7.994   8.475
   16        0.213   0.228   8.012   8.453
   17        0.200   0.199   7.999   8.398
   18        0.232   0.264   8.014   8.510
   19        0.222   0.249   8.005   8.477
   20        0.239   0.289   8.047   8.575
   21        0.206   0.215   8.010   8.431
   22        0.244   0.295   7.956   8.496
   23        0.228   0.256   7.979   8.464
   24        0.293   0.363   8.028   8.684
   25        0.252   0.294   8.039   8.584
   26        0.256   0.312   8.051   8.618
   27        0.220   0.251   8.021   8.493
   28        1.256   2.825   0.013   4.094
   29        1.270   2.807   0.013   4.090
   30        1.254   2.851   0.017   4.122
   31        1.264   2.795   0.011   4.071
   32        1.275   2.834   0.018   4.127
   33        1.270   2.758   0.008   4.036
   34        1.283   2.721   0.006   4.010
   35        1.272   2.755   0.008   4.036
   36        1.256   2.821   0.013   4.090
   37        1.272   2.798   0.013   4.083
   38        1.263   2.787   0.010   4.060
   39        1.268   2.762   0.007   4.037
   40        1.266   2.762   0.007   4.035
   41        1.285   2.713   0.005   4.003
   42        1.267   2.783   0.010   4.060
   43        1.276   2.748   0.008   4.031
   44        1.264   2.757   0.007   4.028
   45        1.274   2.731   0.006   4.011
   46        1.269   2.774   0.009   4.053
   47        1.268   2.786   0.010   4.064
   48        1.271   2.772   0.009   4.051
   49        1.270   2.774   0.010   4.054
   50        1.276   2.733   0.006   4.015
   51        1.271   2.829   0.018   4.118
   52        1.276   2.860   0.023   4.158
   53        1.275   2.781   0.011   4.067
   54        1.270   2.877   0.025   4.172
tot          40.54   82.37  216.60  339.51

magnetization (x)

# of ion       s       p       d       tot
    1        0.006   0.016   0.620   0.642
    2        0.004   0.006   0.946   0.957
    3        0.001  -0.002  -0.750  -0.752
    4        0.002   0.008   0.868   0.879
    5       -0.001   0.011   1.072   1.082
    6        0.003   0.003   1.042   1.048
    7       -0.001   0.003  -0.225  -0.222
    8       -0.003   0.000  -0.757  -0.759
    9        0.002   0.006   0.779   0.788
   10        0.000   0.002   1.072   1.074
   11       -0.001  -0.004  -1.019  -1.024
   12        0.002   0.003   1.062   1.067
   13       -0.002  -0.004  -0.309  -0.315
   14        0.003   0.002   0.460   0.465
   15        0.004   0.008   0.825   0.836
   16        0.004   0.004   0.892   0.899
   17       -0.004  -0.004  -0.937  -0.945
   18       -0.003  -0.002  -0.175  -0.180
   19        0.002   0.007   0.904   0.913
   20        0.004   0.006   0.747   0.757
   21        0.001  -0.004  -0.836  -0.839
   22        0.002   0.003  -0.279  -0.274
   23        0.005   0.001   0.410   0.416
   24        0.000   0.006   0.318   0.324
   25       -0.005  -0.009  -0.760  -0.775
   26       -0.002  -0.000  -0.322  -0.324
   27        0.002   0.004   0.595   0.601
   28        0.008   0.086   0.000   0.094
   29        0.004   0.069   0.000   0.072
   30        0.017   0.142  -0.000   0.158
   31        0.008   0.128   0.000   0.137
   32        0.003   0.076  -0.000   0.078
   33        0.005   0.098   0.000   0.103
   34        0.004   0.039   0.000   0.043
   35        0.009   0.127   0.000   0.135
   36        0.008   0.046   0.000   0.054
   37       -0.007  -0.030  -0.000  -0.037
   38        0.005   0.034   0.000   0.039
   39        0.002   0.021  -0.000   0.022
   40        0.007   0.101   0.000   0.108
   41        0.000   0.031   0.000   0.032
   42       -0.001  -0.030   0.000  -0.032
   43       -0.000   0.013  -0.000   0.013
   44        0.006   0.069   0.000   0.075
   45       -0.003  -0.037   0.000  -0.040
   46       -0.002  -0.038   0.000  -0.039
   47        0.007   0.055   0.000   0.063
   48        0.005   0.073   0.000   0.078
   49       -0.000  -0.032   0.000  -0.032
   50       -0.000   0.019   0.000   0.019
   51       -0.000  -0.050   0.000  -0.049
   52        0.001  -0.007   0.000  -0.007
   53        0.003   0.080   0.000   0.083
   54        0.002   0.035   0.000   0.037
tot           0.12    1.19    6.24    7.55