 vasp.5.4.4.18Apr17-6-g9f103f2a35 (build May 12 2020 04:58:55) complex

 MD_VERSION_INFO: Compiled 2020-05-12T11:58:55-UTC in devlin.sd.materialsdesign.
 com:/home/medea2/data/build/wwolf/vasp-gpu5.4.4/13047/x86_64/src/src/build/std
 from svn 13047

 executed on                        Lin64 date 2023.03.24  14:06:56

 INCAR:
 POTCAR:    PAW_PBE Ni 02Aug2007
 POTCAR:    PAW_PBE O 08Apr2002

 POTCAR:    PAW_PBE Ni 02Aug2007

 POTCAR:    PAW_PBE O 08Apr2002

 Optimization of the real space projectors (new method)

 maximal supplied QI-value         = 16.25
 optimisation between [QCUT,QGAM] = [ 11.38, 22.75] = [ 36.24,144.96] Ry
 Optimized for a Real-space Cutoff    1.47 Angstroem

   l    n(q)    QCUT    max X(q) W(low)/X(q) W(high)/X(q)  e(spline)
   2      9    11.376    60.317    0.17E-03    0.16E-04    0.16E-06
   2      9    11.376    55.921    0.17E-03    0.16E-04    0.17E-06
   0     10    11.376    51.690    0.45E-04    0.60E-04    0.21E-06
   0     10    11.376    30.015    0.37E-04    0.55E-04    0.19E-06
   1     10    11.376    18.849    0.83E-04    0.11E-03    0.92E-07
   1     10    11.376    14.624    0.69E-04    0.92E-04    0.82E-07
 Optimization of the real space projectors (new method)

 maximal supplied QI-value         = 24.76
 optimisation between [QCUT,QGAM] = [ 11.39, 22.77] = [ 36.31,145.25] Ry
 Optimized for a Real-space Cutoff    1.10 Angstroem

   l    n(q)    QCUT    max X(q) W(low)/X(q) W(high)/X(q)  e(spline)
   0      7    11.387    20.381    0.22E-03    0.48E-03    0.18E-06
   0      7    11.387    15.268    0.22E-03    0.52E-03    0.19E-06
   1      7    11.387     5.964    0.22E-03    0.73E-03    0.24E-06
   1      7    11.387     5.382    0.19E-03    0.60E-03    0.21E-06

  PAW_PBE Ni 02Aug2007                  :
  PAW_PBE O 08Apr2002                   :

 POSCAR: NiO_C2_m_scale_1_000_disp_0_10_round_2
  positions in direct lattice
 exchange correlation table for  LEXCH =       14
   RHO(1)=    0.500       N(1)  =     2000
   RHO(2)=  100.500       N(2)  =     4000

 ion  position               nearest neighbor table
   1  0.999  0.999  0.015-  30 2.03  36 2.06  53 2.11  54 2.15  29 2.17  47 2.37   2 2.65  20 2.72
                            13 2.72  26 2.77  10 2.80   7 2.82   9 2.85  25 2.87  27 2.89   3 2.89
   2  0.213  0.121  0.309-  30 1.86  40 1.92  36 1.96  39 2.04  28 2.22  37 2.32  13 2.60   1 2.65
                            20 2.75  10 2.78   5 2.79  26 2.90   8 3.03   9 3.07   3 3.07
   3  0.107  0.219  0.683-  47 1.92  40 1.94  31 2.00  32 2.05  28 2.07  29 2.18   9 2.72  13 2.75
                             4 2.80  27 2.88  21 2.89   1 2.89  15 2.92  12 2.98   6 3.01  20 3.06
   4  0.986  0.334  0.985-  48 2.01  50 2.01  47 2.03  30 2.19  33 2.22  32 2.33  23 2.77   6 2.78
                             3 2.80   5 2.83  21 2.83  16 2.86  13 2.90   7 2.93  20 2.94  22 2.96
   5  0.208  0.438  0.305-  30 1.88  33 1.98  31 2.10  42 2.17  43 2.24  40 2.29  23 2.70  13 2.72
                            16 2.73   2 2.79   4 2.83  20 2.84   8 2.92
   6  0.096  0.559  0.676-  50 1.86  35 1.87  34 2.08  31 2.12  32 2.15  43 2.20   4 2.78   7 2.82
                            16 2.86  24 2.88   8 2.95  21 2.95  23 2.96   9 3.00   3 3.01
   7  0.006  0.679  0.003-  53 1.78  33 2.02  35 2.04  36 2.04  51 2.16  50 2.17   1 2.82   6 2.82
                            10 2.84  25 2.84  23 2.89   8 2.90  26 2.90   9 2.90  16 2.91   4 2.93
   8  0.227  0.782  0.336-  43 1.89  33 2.00  36 2.01  45 2.01  37 2.05  34 2.07  18 2.76   7 2.90
                            11 2.92   5 2.92  23 2.95   6 2.95  10 2.96  16 2.98  26 3.00   2 3.03
   9  0.118  0.913  0.680-  29 1.85  28 1.91  37 1.97  53 2.09  35 2.21  34 2.34   3 2.72  10 2.75
                             1 2.85  12 2.86  18 2.90   7 2.90  27 2.98   6 3.00  24 3.02   8 3.04
  10  0.325  0.010  0.998-  29 1.75  36 1.98  38 2.00  39 2.00  35 2.25  45 2.31  13 2.73   9 2.75
                             2 2.78   1 2.80  22 2.81   7 2.84  19 2.91  12 2.93   8 2.96  18 3.04
  11  0.569  0.107  0.357-  46 1.81  48 2.11  37 2.15  49 2.15  45 2.16  39 2.19  18 2.45  21 2.64
                            20 2.82  12 2.82  23 2.88  17 2.90   8 2.92  19 3.04  14 3.04
  12  0.454  0.232  0.661-  49 2.00  40 2.01  37 2.08  29 2.10  38 2.13  41 2.17  18 2.70  14 2.76
                            22 2.76  15 2.79  11 2.82  24 2.85   9 2.86  21 2.87  10 2.93   3 2.98
  13  0.307  0.313  0.006-  30 1.91  29 2.00  32 2.11  39 2.14  42 2.14  41 2.27   2 2.60   1 2.72
                             5 2.72  10 2.73   3 2.75  22 2.88  16 2.88   4 2.90  15 2.92  12 3.01
  14  0.600  0.471  0.369-  49 1.73  52 1.78  51 1.89  42 2.36  39 2.38  40 2.48  24 2.53  26 2.63
                            12 2.76  23 2.77  17 2.81  15 2.84  25 2.92  22 3.04  11 3.04
  15  0.447  0.549  0.682-  32 1.78  41 2.07  44 2.13  40 2.29  52 2.30  43 2.33  24 2.73  12 2.79
                            16 2.81  14 2.84  13 2.92  25 2.92   3 2.92  27 2.93  17 3.01
  16  0.324  0.651  0.995-  32 1.94  35 2.00  44 2.02  42 2.02  45 2.15  33 2.21   5 2.73  15 2.81
                             6 2.86   4 2.86  13 2.88  19 2.88   7 2.91   8 2.98  25 2.99
  17  0.579  0.781  0.339-  54 1.80  46 1.93  45 2.08  42 2.13  52 2.15  43 2.18  26 2.65  20 2.79
                            25 2.79  14 2.81  27 2.89  11 2.90  18 2.94  19 2.97  15 3.01   8 3.08
  18  0.454  0.923  0.639-  37 1.76  46 1.92  38 2.06  43 2.13  35 2.27  44 2.30  11 2.45  21 2.65
                            12 2.70   8 2.76  19 2.88  27 2.89   9 2.90  17 2.94  10 3.04
  19  0.647  0.988  0.986-  44 1.84  38 1.92  45 2.04  54 2.08  48 2.09  47 2.20  27 2.65  21 2.86
                            16 2.88  18 2.88  10 2.91  25 2.94  17 2.97   4 2.99  20 3.00  22 3.01
  20  0.890  0.106  0.320-  30 1.95  48 2.02  54 2.09  46 2.11  31 2.15  28 2.19   1 2.72   2 2.75
                            26 2.78  17 2.79  11 2.82   5 2.84  23 2.85  21 2.94   4 2.94  19 3.00
  21  0.771  0.209  0.660-  47 1.79  46 2.05  31 2.07  50 2.15  38 2.16  49 2.16  11 2.64  18 2.65
                            27 2.71   4 2.83  19 2.86  12 2.87   3 2.89  20 2.94   6 2.95  23 2.98
  22  0.646  0.333  0.992-  41 1.78  39 1.96  38 1.97  51 2.04  50 2.21  48 2.23  12 2.76  25 2.79
                            10 2.81  24 2.87  13 2.88   4 2.96  23 3.00  19 3.01  21 3.02  14 3.04
  23  0.897  0.437  0.318-  33 1.78  51 2.01  48 2.05  34 2.09  31 2.15  49 2.16   5 2.70  14 2.77
                             4 2.77  20 2.85  11 2.88   7 2.89   8 2.95   6 2.96  21 2.98  22 3.00
  24  0.770  0.568  0.675-  52 1.74  53 1.98  41 1.98  49 2.02  50 2.05  34 2.15  14 2.53  15 2.73
                            25 2.83  12 2.85  22 2.87   6 2.88  27 2.88  26 2.94   7 2.94   9 3.02
  25  0.673  0.665  0.015-  54 1.91  42 1.91  41 1.96  51 2.03  53 2.07  44 2.20  26 2.76  22 2.79
                            17 2.79  24 2.83   7 2.84   1 2.87  27 2.91  14 2.92  15 2.92  19 2.94
  26  0.884  0.785  0.332-  52 1.87  34 2.05  28 2.06  54 2.07  36 2.12  51 2.16  14 2.63  17 2.65
                            25 2.76   1 2.77  20 2.78   7 2.90   2 2.90  24 2.94   8 3.00   9 3.04
  27  0.769  0.898  0.691-  47 1.90  44 1.98  28 2.11  46 2.12  52 2.22  53 2.33  19 2.65  21 2.71
                             3 2.88  24 2.88   1 2.89  18 2.89  17 2.89  25 2.91  15 2.93   9 2.98
  28  0.996  0.992  0.519-   9 1.91  26 2.06   3 2.07  27 2.11  20 2.19   2 2.22
  29  0.236  0.102  0.843-  10 1.75   9 1.85  13 2.00  12 2.10   1 2.17   3 2.18
  30  0.107  0.224  0.170-   2 1.86   5 1.88  13 1.91  20 1.95   1 2.03   4 2.19
  31  0.007  0.327  0.510-   3 2.00  21 2.07   5 2.10   6 2.12  23 2.15  20 2.15
  32  0.248  0.460  0.814-  15 1.78  16 1.94   3 2.05  13 2.11   6 2.15   4 2.33
  33  0.094  0.561  0.184-  23 1.78   5 1.98   8 2.00   7 2.02  16 2.21   4 2.22
  34  0.992  0.663  0.485-  26 2.05   8 2.07   6 2.08  23 2.09  24 2.15   9 2.34
  35  0.218  0.759  0.829-   6 1.87  16 2.00   7 2.04   9 2.21  10 2.25  18 2.27
  36  0.123  0.896  0.175-   2 1.96  10 1.98   8 2.01   7 2.04   1 2.06  26 2.12
  37  0.326  0.995  0.514-  18 1.76   9 1.97   8 2.05  12 2.08  11 2.15   2 2.32
  38  0.550  0.110  0.850-  19 1.92  22 1.97  10 2.00  18 2.06  12 2.13  21 2.16
  39  0.449  0.219  0.171-  22 1.96  10 2.00   2 2.04  13 2.14  11 2.19  14 2.38
  40  0.301  0.295  0.506-   2 1.92   3 1.94  12 2.01  15 2.29   5 2.29  14 2.48
  41  0.572  0.454  0.855-  22 1.78  25 1.96  24 1.98  15 2.07  12 2.17  13 2.27
  42  0.456  0.560  0.152-  25 1.91  16 2.02  17 2.13  13 2.14   5 2.17  14 2.36
  43  0.329  0.679  0.489-   8 1.89  18 2.13  17 2.18   6 2.20   5 2.24  15 2.33
  44  0.550  0.785  0.844-  19 1.84  27 1.98  16 2.02  15 2.13  25 2.20  18 2.30
  45  0.447  0.878  0.177-   8 2.01  19 2.04  17 2.08  16 2.15  11 2.16  10 2.31
  46  0.659  0.992  0.486-  11 1.81  18 1.92  17 1.93  21 2.05  20 2.11  27 2.12
  47  0.882  0.126  0.804-  21 1.79  27 1.90   3 1.92   4 2.03  19 2.20   1 2.37
  48  0.776  0.212  0.157-   4 2.01  20 2.02  23 2.05  19 2.09  11 2.11  22 2.23
  49  0.674  0.355  0.504-  14 1.73  12 2.00  24 2.02  11 2.15  23 2.16  21 2.16
  50  0.889  0.451  0.818-   6 1.86   4 2.01  24 2.05  21 2.15   7 2.17  22 2.21
  51  0.771  0.541  0.175-  14 1.89  23 2.01  25 2.03  22 2.04  26 2.16   7 2.16
  52  0.703  0.668  0.507-  24 1.74  14 1.78  26 1.87  17 2.15  27 2.22  15 2.30
  53  0.902  0.764  0.855-   7 1.78  24 1.98  25 2.07   9 2.09   1 2.11  27 2.33
  54  0.751  0.874  0.164-  17 1.80  25 1.91  26 2.07  19 2.08  20 2.09   1 2.15

  LATTYP: Found a hexagonal cell.
 ALAT       =     8.7224199979
 C/A-ratio  =     0.8152863542

  Lattice vectors:

 A1 = (   8.7224200000,   0.0000000000,   0.0000000000)
 A2 = (  -4.3612100000,   7.5538373000,   0.0000000000)
 A3 = (   0.0000000000,   0.0000000000,   7.1112700000)

Analysis of symmetry for initial positions (statically):
 Subroutine PRICEL returns:
 Original cell was already a primitive cell.

 Routine SETGRP: Setting up the symmetry group for a
 hexagonal supercell.

 Subroutine GETGRP returns: Found  1 space group operations
 (whereof  1 operations were pure point group operations)
 out of a pool of 24 trial point group operations.

The static configuration has the point symmetry C_1 .

Analysis of symmetry for dynamics (positions and initial velocities):
 Subroutine PRICEL returns:
 Original cell was already a primitive cell.

[...]

The dynamic configuration has the point symmetry C_1 .

Analysis of structural, dynamic, and magnetic symmetry:
 Subroutine PRICEL returns:
 Original cell was already a primitive cell.

 Routine SETGRP: Setting up the symmetry group for a
 hexagonal supercell.

 Subroutine GETGRP returns: Found  1 space group operations
 (whereof  1 operations were pure point group operations)
 out of a pool of 24 trial point group operations.

The magnetic configuration has the point symmetry C_1 .

 Subroutine INISYM returns: Found  1 space group operations
 (whereof  1 operations are pure point group operations),
 and found     1 'primitive' translations

 KPOINTS: Automatic mesh

Automatic generation of k-mesh.
Space group operators:
[...]
   -.326E+02 -.474E+02 0.116E+01   0.323E+02 0.489E+02 -.496E+01   0.738E+00 -.142E+01 0.322E+01   -.146E+00 -.139E+00 -.318E+00
   -.460E+02 -.307E+02 -.579E+01   0.422E+02 0.300E+02 0.518E+01   0.349E+01 0.127E+01 0.429E+00   0.208E+00 -.587E+00 0.381E+00
   -.115E+03 -.101E+03 -.113E+03   0.114E+03 0.102E+03 0.116E+03   0.489E+00 -.125E+00 -.579E+00   0.691E+00 0.191E-01 -.118E+00
   -.941E+02 0.142E+01 0.910E+02   0.938E+02 0.255E+00 -.919E+02   0.140E+01 -.139E+01 -.740E+00   0.497E+00 -.453E+00 -.136E+00
   -.671E+02 0.467E+02 -.348E+02   0.682E+02 -.473E+02 0.334E+02   0.525E+00 -.114E+01 0.164E+01   -.363E+00 0.154E+00 0.756E+00
   -.113E+02 -.770E+01 0.117E+01   0.116E+02 0.691E+01 0.244E+00   -.142E+01 0.117E+01 -.796E+00   0.656E+00 -.990E-02 -.583E+00
   -.597E+01 0.956E+02 0.527E+02   0.552E+01 -.962E+02 -.552E+02   0.132E+01 -.215E+01 0.170E+01   -.303E+00 0.805E+00 0.911E-01
   -.128E+03 0.102E+03 -.641E+02   0.130E+03 -.101E+03 0.656E+02   0.537E+00 -.213E+01 -.146E+00   -.163E+00 0.256E-01 0.239E+00
   0.101E+03 -.710E+02 0.121E+03   -.102E+03 0.716E+02 -.125E+03   -.589E+00 0.384E+00 0.165E+01   0.306E+00 -.566E-01 0.382E+00
   0.413E+02 -.380E+02 0.285E+02   -.432E+02 0.377E+02 -.305E+02   0.144E+01 -.168E+00 0.216E+01   -.192E-01 0.343E+00 -.353E+00
   -.245E+02 -.101E+03 0.253E+01   0.255E+02 0.103E+03 -.291E+01   0.302E+00 -.976E+00 -.447E+00   -.267E+00 0.276E+00 0.473E+00
   0.256E+03 0.127E+03 0.103E+03   -.256E+03 -.129E+03 -.106E+03   -.299E+01 0.429E+00 -.113E-01   -.107E+01 0.184E+00 -.267E+00
   0.311E+02 -.475E+02 0.160E+03   -.347E+02 0.469E+02 -.158E+03   0.432E+01 0.172E+01 -.284E+01   0.196E+00 0.108E-01 -.639E+00
   0.321E+02 -.165E+02 -.449E+02   -.314E+02 0.184E+02 0.435E+02   -.132E+01 -.742E+00 0.129E+01   0.632E+00 -.903E-01 0.913E+00
   0.103E+03 0.151E+03 -.864E+02   -.107E+03 -.151E+03 0.853E+02   0.171E+01 -.115E+01 0.197E+01   0.188E-02 -.655E+00 0.379E-01
   -.255E+02 0.160E+03 -.104E+03   0.236E+02 -.164E+03 0.105E+03   0.222E+01 0.492E+00 0.142E+01   0.820E+00 0.347E+00 -.423E+00
   -.573E+01 -.365E+02 -.482E+02   0.315E+01 0.361E+02 0.501E+02   0.257E+01 0.142E+01 -.123E+00   0.394E+00 -.932E-01 0.739E-02
   -.386E-01 -.159E+02 -.396E+02   -.101E+01 0.173E+02 0.395E+02   0.738E+00 -.121E+01 0.404E+00   0.184E+00 -.278E-01 0.146E+00
   0.480E+02 -.839E+02 0.277E+02   -.464E+02 0.871E+02 -.271E+02   -.291E+01 -.109E+01 -.124E+01   0.101E+00 -.602E+00 -.159E+00
   -.870E+02 0.297E+02 -.663E+02   0.868E+02 -.306E+02 0.681E+02   0.294E+01 -.172E+00 -.118E+00   -.994E-01 0.135E+00 0.103E+00
   0.437E+01 0.655E+02 -.609E+02   -.489E+01 -.636E+02 0.618E+02   -.117E+01 -.233E+01 0.124E+01   0.151E-01 -.356E+00 -.277E+00
   -.618E+02 -.278E+00 -.508E+02   0.663E+02 0.618E+00 0.530E+02   -.328E+00 -.103E+01 -.375E+00   -.107E+01 -.337E+00 -.145E+00
   0.327E+02 -.223E+01 0.460E+02   -.340E+02 0.800E+00 -.465E+02   0.137E+01 0.119E+01 -.117E+01   -.350E+00 0.334E-01 0.603E+00
   -.693E+02 -.587E+02 0.215E+02   0.731E+02 0.591E+02 -.182E+02   -.131E+01 0.902E-01 -.313E+01   -.890E+00 -.104E-01 -.528E+00
   -.283E+02 0.869E+02 0.170E+02   0.294E+02 -.866E+02 -.166E+02   -.823E-01 -.155E+01 -.729E+00   -.498E+00 0.364E+00 -.291E+00
   0.836E+01 -.106E+02 0.212E+02   -.101E+02 0.116E+02 -.237E+02   0.991E+00 -.126E+01 0.226E+01   -.273E+00 0.464E+00 -.180E+00
   0.432E+02 -.539E+02 0.383E+02   -.463E+02 0.601E+02 -.427E+02   0.156E+01 -.431E+01 0.353E+01   -.266E+00 0.152E+00 -.741E-01
   0.461E+02 -.321E+02 0.227E+02   -.528E+02 0.327E+02 -.260E+02   0.553E+01 -.925E+00 0.197E+01   0.305E-02 0.708E-01 0.388E+00
   -.222E+02 -.434E+02 0.120E+02   0.239E+02 0.451E+02 -.111E+02   -.254E+01 -.295E+00 -.926E+00   0.105E+00 -.101E+01 -.277E+00
   0.437E+02 0.128E+02 0.134E+02   -.503E+02 -.157E+02 -.135E+02   0.425E+01 0.166E+01 0.117E+01   0.947E+00 -.627E-01 -.338E-01
   -.611E+02 -.253E+02 0.447E+02   0.635E+02 0.296E+02 -.487E+02   -.136E+01 -.357E+01 0.176E+01   0.438E+00 0.268E+00 0.102E+00
   -.365E+02 -.205E+02 -.265E+02   0.348E+02 0.211E+02 0.286E+02   0.227E+01 -.653E+00 -.850E+00   -.167E+00 0.305E+00 -.897E+00
   -.476E+02 -.431E+02 0.908E+01   0.514E+02 0.498E+02 -.108E+02   -.397E+01 -.645E+01 0.156E+01   0.142E+00 0.569E+00 0.843E+00
   -.214E+02 0.274E+02 -.351E+02   0.223E+02 -.307E+02 0.374E+02   -.974E+00 0.295E+01 -.206E+01   -.821E-01 -.135E+00 0.556E-01
   0.745E+02 -.234E+02 0.757E+02   -.852E+02 0.277E+02 -.836E+02   0.901E+01 -.364E+01 0.662E+01   0.474E-01 0.117E+00 -.285E+00
   -.452E+01 0.240E+01 -.386E+01   0.339E+01 -.249E+01 0.394E+01   0.450E+00 0.396E-01 -.378E+00   0.476E+00 0.375E+00 -.520E+00
   -.193E+02 -.366E+02 -.887E+02   0.218E+02 0.397E+02 0.946E+02   -.234E+01 -.361E+01 -.552E+01   -.148E+00 0.418E+00 0.389E+00
   -.133E+02 -.104E+03 0.441E+02   0.125E+02 0.108E+03 -.463E+02   0.877E+00 -.391E+01 0.275E+01   -.474E-03 0.479E+00 -.274E+00
   0.803E+02 0.711E+01 0.189E+02   -.877E+02 -.737E+01 -.196E+02   0.592E+01 0.755E+00 -.524E+00   -.425E+00 0.165E+00 0.112E+00
   0.273E+02 0.570E+02 -.786E+02   -.267E+02 -.609E+02 0.815E+02   -.157E+01 0.310E+01 -.281E+01   0.102E+00 0.326E+00 0.671E+00
   -.698E+02 0.858E+02 -.376E+02   0.728E+02 -.908E+02 0.429E+02   -.332E+01 0.411E+01 -.406E+01   0.104E+01 0.104E+00 -.965E+00
   0.336E+02 0.574E+02 0.554E+02   -.379E+02 -.630E+02 -.578E+02   0.461E+01 0.517E+01 0.131E+01   0.186E+00 -.433E+00 -.642E-01
   0.350E+02 0.455E+01 0.183E+02   -.349E+02 -.375E+01 -.193E+02   -.119E+01 -.235E+00 0.509E-01   0.250E+00 -.638E+00 0.551E+00
   -.653E+02 0.328E+02 -.108E+02   0.744E+02 -.348E+02 0.119E+02   -.778E+01 0.203E+01 -.680E+00   0.340E+00 -.822E-01 0.696E-01
   -.412E+02 0.105E+02 -.821E+02   0.448E+02 -.113E+02 0.903E+02   -.192E+01 0.445E+00 -.571E+01   -.547E+00 0.234E+00 -.699E+00
   0.371E+02 0.219E+01 0.150E+02   -.418E+02 -.336E+01 -.172E+02   0.429E+01 0.132E+01 0.208E+01   0.192E+00 -.868E-01 0.155E+00
   -.583E+02 0.649E+02 -.506E+01   0.692E+02 -.678E+02 0.899E+01   -.828E+01 0.866E+00 -.199E+01   -.264E+00 -.252E+00 -.248E+00
   0.190E+02 0.266E+02 -.229E+02   -.247E+02 -.278E+02 0.239E+02   0.551E+01 0.155E+01 -.670E+00   -.591E+00 -.974E+00 0.487E+00
   -.226E+02 0.171E+02 0.287E+02   0.272E+02 -.169E+02 -.318E+02   -.339E+01 0.201E+00 0.180E+01   -.564E+00 0.118E+00 0.179E+00
   0.128E+03 -.698E+02 -.399E+02   -.133E+03 0.805E+02 0.440E+02   0.283E+01 -.758E+01 -.295E+01   -.114E+01 -.386E+00 -.796E+00
   0.455E+02 -.477E+02 0.465E+02   -.500E+02 0.510E+02 -.530E+02   0.323E+01 -.230E+01 0.524E+01   -.186E+00 0.231E+00 0.776E+00
   -.899E+01 -.547E+02 0.416E+02   0.887E+01 0.608E+02 -.478E+02   0.176E+01 -.429E+01 0.493E+01   -.210E+00 -.413E+00 0.427E+00
   -.257E+02 0.303E+02 -.113E+02   -.554E-12 -.249E-12 -.327E-12   0.275E+02 -.302E+02 0.112E+02   -.185E+01 -.148E+00 0.716E-01

 POSITION                                       TOTAL-FORCE (eV/Angst)
      4.35601      7.54272      0.10418        -0.570418     -0.222990     -0.699433
      1.32805      0.91385      2.19929         1.371745     -0.424701      1.675772
     -0.02059      1.65516      4.85368         0.286172     -0.024467     -0.900555
      7.14115      2.52432      7.00508        -0.128969      0.030664      0.202575
     -0.09894      3.31146      2.17198         0.816744      1.157566      1.549665
     -1.60141      4.21979      4.80529         1.646265     -0.166473     -1.765245
     -2.90987      5.13117      0.02450         1.228780     -1.518299      1.005570
     -1.43136      5.90489      2.39248        -0.521883      0.368445      0.036742
     -2.94982      6.89909      4.83288         0.555453     -1.912572     -0.705725
      2.78936      0.07647      7.09783         2.594202     -1.679485      1.592501
      4.49372      0.81166      2.53835        -1.551907      0.939821     -2.136228
      2.94896      1.75338      4.70162        -0.514264     -0.099636     -0.193650
      1.31326      2.36701      0.04343         0.995842      1.322600     -0.356727
      3.18303      3.55831      2.62239        -3.700995     -1.246172     -3.216951
      1.51072      4.14396      4.84769         0.875875      1.154164     -1.661518
     -0.01299      4.91777      7.07439         0.020891      1.065901      0.738373
      1.64404      5.89624      2.40807        -2.367799     -1.751952      0.897486
     -0.06944      6.97481      4.54254         1.149592     -2.653417      2.385044
      1.33279      7.46208      7.01159         0.382276      0.994125      1.775087
      7.30147      0.80409      2.27522        -0.124825      0.141735      0.419901
      5.81813      1.57627      4.69038        -1.152371      1.565042     -0.833733
      4.18295      2.51487      7.05579         2.578596     -0.922790      1.733816
      5.92087      3.30065      2.26142        -1.673683     -0.819233      1.855992
      4.24110      4.29229      4.79766         3.091452     -1.023947      1.614828
      2.97078      5.02498      0.10767        -0.275325     -0.205972     -1.078311
      4.29091      5.92910      2.35795         1.541568      0.552341     -0.288842
      2.79200      6.78332      4.91071         0.551211     -0.849741     -0.684302
      4.35995      7.49252      3.69300        -1.005663      0.237689     -0.353473
      1.61482      0.77038      5.99523        -1.821962      2.048129     -0.972516
     -0.04481      1.69485      1.21096        -1.109026     -0.306929     -0.941300
     -1.36851      2.47152      3.62535        -0.708568      0.411395     -0.331777
      0.15679      3.47508      5.78764        -1.446672     -1.337992      0.998304
     -1.62850      4.23688      1.30968         1.495037      0.978700     -2.160227
      5.75914      5.00739      3.45151         0.395642      0.232825      0.265590
     -1.40573      5.73249      5.89271        -0.076745      0.733852      0.645029
     -2.83276      6.77055      1.24261        -0.214872     -0.472331      0.319804
     -1.49440      7.51525      3.65573        -1.698026      0.872245     -1.570850
      4.31649      0.82770      6.04294        -0.207646      0.323040     -0.814888
      2.95901      1.65283      1.21374         0.012193     -0.003387      0.841963
      1.33427      2.23195      3.59806         0.156752      1.002066      0.259071
      3.01089      3.42775      6.08106        -1.946756      0.660841     -1.199896
      1.53022      4.23124      1.07985        -0.848162     -0.468129      0.791583
     -0.09273      5.13051      3.48058         0.716053     -0.734170      0.227106
      1.37434      5.92606      6.00088         0.482713     -0.863606     -1.199899
      0.06822      6.62891      1.26056        -0.773848     -0.072542     -0.444668
      1.42258      7.49705      3.45502         1.651964     -0.025645      0.494548
      7.14391      0.94917      5.71927         1.091427     -0.092392      1.726532
      5.84476      1.59811      1.11445        -0.205243      0.060710      0.006767
      4.32634      2.68381      3.58226         2.342973     -2.253517      1.691390
      5.78554      3.40903      5.81592        -0.743624     -0.662640      0.867586
      4.37125      4.08338      1.24281         0.614335      0.515173     -1.085702
      3.21694      5.04516      3.60371        -3.300481      2.709231      0.270962
      4.53209      5.77026      6.07770        -1.388042      1.310235     -0.488306
      2.74143      6.59896      1.16282         1.432020      1.426593     -0.804867
    total drift:                                0.041796     -0.021107      0.021434

  FREE ENERGIE OF THE ION-ELECTRON SYSTEM (eV)
  free  energy   TOTEN  =      -328.6568684733 eV

  energy  without entropy=     -328.6136593505  energy(sigma->0) =     -328.63526391

volume of typ            1:    36.7 %

volume of typ            2:     9.4 %

total charge

# of ion       s       p       d       tot
    1        0.179   0.182   8.045   8.406
    2        0.223   0.256   7.970   8.448
    3        0.222   0.253   7.951   8.426
    4        0.189   0.192   8.013   8.393
    5        0.199   0.211   7.959   8.369
    6        0.224   0.251   7.988   8.463
    7        0.224   0.256   7.986   8.465
    8        0.224   0.259   7.936   8.418
    9        0.219   0.249   7.969   8.438
   10        0.232   0.268   7.995   8.495
   11        0.207   0.227   8.025   8.459
   12        0.200   0.215   7.984   8.399
   13        0.197   0.216   8.026   8.439
   14        0.252   0.296   7.999   8.547
   15        0.205   0.207   7.981   8.393
   16        0.210   0.231   7.953   8.394
   17        0.222   0.252   7.959   8.432
   18        0.232   0.268   7.982   8.483
   19        0.222   0.252   7.995   8.469
   20        0.196   0.211   7.985   8.392
   21        0.213   0.240   7.986   8.439
   22        0.228   0.262   7.972   8.463
   23        0.224   0.256   7.972   8.451
   24        0.241   0.296   8.008   8.545
   25        0.225   0.263   7.960   8.448
   26        0.211   0.236   8.003   8.449
   27        0.200   0.211   8.015   8.426
   28        1.264   2.769   0.007   4.039
   29        1.258   2.815   0.013   4.086
   30        1.249   2.819   0.013   4.081
   31        1.271   2.748   0.006   4.025
   32        1.263   2.787   0.010   4.060
   33        1.262   2.797   0.010   4.069
   34        1.274   2.746   0.006   4.025
   35        1.269   2.758   0.007   4.034
   36        1.260   2.788   0.009   4.057
   37        1.263   2.794   0.010   4.067
   38        1.263   2.781   0.009   4.053
   39        1.268   2.750   0.007   4.025
   40        1.266   2.760   0.007   4.033
   41        1.261   2.802   0.011   4.074
   42        1.266   2.753   0.006   4.025
   43        1.268   2.741   0.005   4.015
   44        1.265   2.776   0.008   4.049
   45        1.277   2.733   0.006   4.016
   46        1.257   2.813   0.013   4.082
   47        1.256   2.810   0.011   4.078
   48        1.264   2.762   0.007   4.032
   49        1.261   2.804   0.011   4.077
   50        1.271   2.763   0.008   4.042
   51        1.270   2.774   0.008   4.052
   52        1.258   2.833   0.015   4.106
   53        1.265   2.789   0.010   4.063
   54        1.260   2.802   0.011   4.073
tot          39.94   81.58  215.86  337.39

magnetization (x)

# of ion       s       p       d       tot
    1        0.006   0.003   1.004   1.012
    2        0.004   0.008   1.030   1.042
    3       -0.005  -0.001  -0.921  -0.927
    4        0.003   0.006   1.155   1.164
    5        0.005   0.005   1.162   1.173
    6        0.003   0.007   0.834   0.845
    7        0.001   0.003   0.005   0.008
    8       -0.000   0.001  -0.500  -0.500
    9        0.000   0.007   1.175   1.182
   10        0.003   0.010   0.956   0.969
   11       -0.000  -0.001  -0.425  -0.427
   12        0.002   0.002   1.156   1.160
   13        0.002  -0.001  -0.751  -0.749
   14       -0.002  -0.016  -0.816  -0.833
   15        0.005   0.007   1.067   1.079
   16       -0.002  -0.001  -0.923  -0.925
   17        0.004   0.003   0.749   0.756
   18        0.005   0.011   1.147   1.163
   19        0.001  -0.000  -0.796  -0.795
   20        0.002   0.002   1.196   1.200
   21        0.003   0.001   0.118   0.123
   22        0.002   0.000  -1.001  -0.998
   23        0.000   0.002   1.127   1.129
   24       -0.001  -0.001  -0.765  -0.767
   25        0.001   0.004  -1.039  -1.033
   26        0.001   0.001   0.937   0.940
   27        0.001   0.003   1.005   1.009
   28        0.013   0.123   0.000   0.136
   29        0.011   0.113   0.000   0.124
   30        0.020   0.142   0.000   0.163
   31        0.005   0.054   0.000   0.059
   32        0.001   0.017   0.000   0.018
   33        0.005   0.070   0.000   0.076
   34        0.008   0.089   0.000   0.097
   35        0.008   0.079   0.000   0.086
   36        0.010   0.085   0.000   0.095
   37        0.009   0.103   0.000   0.113
   38        0.002   0.019   0.000   0.022
   39       -0.001   0.032  -0.000   0.031
   40        0.008   0.080   0.000   0.088
   41       -0.007  -0.044  -0.000  -0.051
   42       -0.006  -0.029  -0.000  -0.036
   43        0.009   0.077   0.000   0.086
   44       -0.004  -0.013  -0.000  -0.018
   45        0.001  -0.021   0.000  -0.020
   46        0.015   0.103   0.000   0.119
   47        0.008   0.061   0.000   0.069
   48        0.004   0.087  -0.000   0.091
   49       -0.001   0.004  -0.000   0.003
   50        0.002   0.066   0.000   0.068
   51       -0.001  -0.040  -0.000  -0.042
   52        0.004   0.000  -0.000   0.004
   53       -0.001   0.016  -0.000   0.015
   54        0.005   0.080  -0.000   0.085
tot           0.17    1.42    7.89    9.48