 vasp.5.4.4.18Apr17-6-g9f103f2a35 (build May 12 2020 04:58:55) complex

 MD_VERSION_INFO: Compiled 2020-05-12T11:58:55-UTC in devlin.sd.materialsdesign.
 com:/home/medea2/data/build/wwolf/vasp-gpu5.4.4/13047/x86_64/src/src/build/std
 from svn 13047

 executed on                        Lin64 date 2023.03.24  14:28:45

 INCAR:
 POTCAR:    PAW_PBE Ni 02Aug2007
 POTCAR:    PAW_PBE O 08Apr2002

 POTCAR:    PAW_PBE Ni 02Aug2007

 POTCAR:    PAW_PBE O 08Apr2002

 Optimization of the real space projectors (new method)

 maximal supplied QI-value         = 16.25
 optimisation between [QCUT,QGAM] = [ 11.38, 22.75] = [ 36.24,144.96] Ry
 Optimized for a Real-space Cutoff    1.47 Angstroem

   l    n(q)    QCUT    max X(q) W(low)/X(q) W(high)/X(q)  e(spline)
   2      9    11.376    60.317    0.17E-03    0.16E-04    0.16E-06
   2      9    11.376    55.921    0.17E-03    0.16E-04    0.17E-06
   0     10    11.376    51.690    0.45E-04    0.60E-04    0.21E-06
   0     10    11.376    30.015    0.37E-04    0.55E-04    0.19E-06
   1     10    11.376    18.849    0.83E-04    0.11E-03    0.92E-07
   1     10    11.376    14.624    0.69E-04    0.92E-04    0.82E-07
 Optimization of the real space projectors (new method)

 maximal supplied QI-value         = 24.76
 optimisation between [QCUT,QGAM] = [ 11.39, 22.77] = [ 36.31,145.25] Ry
 Optimized for a Real-space Cutoff    1.10 Angstroem

   l    n(q)    QCUT    max X(q) W(low)/X(q) W(high)/X(q)  e(spline)
   0      7    11.387    20.381    0.22E-03    0.48E-03    0.18E-06
   0      7    11.387    15.268    0.22E-03    0.52E-03    0.19E-06
   1      7    11.387     5.964    0.22E-03    0.73E-03    0.24E-06
   1      7    11.387     5.382    0.19E-03    0.60E-03    0.21E-06

  PAW_PBE Ni 02Aug2007                  :
  PAW_PBE O 08Apr2002                   :

 POSCAR: NiO_C2_m_scale_1_000_disp_0_05_round_2
  positions in direct lattice
 exchange correlation table for  LEXCH =       14
   RHO(1)=    0.500       N(1)  =     2000
   RHO(2)=  100.500       N(2)  =     4000

 ion  position               nearest neighbor table
   1  0.006  0.001  0.003-  36 1.94  29 2.03  47 2.03  54 2.03  53 2.07  30 2.08   2 2.82  13 2.83
                             9 2.84   3 2.87  26 2.90  10 2.91   4 2.91  25 2.91  20 2.94   7 2.97
   2  0.205  0.104  0.337-  28 1.90  30 1.96  36 2.05  37 2.06  40 2.12  39 2.13  20 2.74  26 2.78
                             1 2.82   3 2.83   9 2.84   8 2.91  12 2.96  13 2.98  10 2.99  14 2.99
   3  0.113  0.216  0.670-  29 1.94  28 2.03  32 2.06  40 2.07  47 2.10  31 2.13   9 2.76  13 2.81
                            12 2.82   2 2.83  20 2.86   1 2.87  27 2.88   4 2.90  21 2.92   5 2.94
   4  0.007  0.336  0.999-  32 1.92  33 1.96  47 2.04  50 2.06  30 2.09  48 2.15  13 2.81   7 2.84
                            23 2.84  16 2.88   5 2.88  22 2.88   6 2.89   3 2.90  21 2.90   1 2.91
   5  0.208  0.452  0.343-  31 1.82  33 1.93  43 1.99  30 2.10  40 2.21  42 2.27  23 2.65   6 2.76
                             8 2.79  17 2.84   4 2.88  20 2.89   3 2.94  15 2.95  16 2.99   2 3.02
   6  0.109  0.555  0.666-  34 2.00  50 2.04  43 2.05  32 2.08  31 2.10  35 2.13   5 2.76   8 2.88
                            16 2.88   7 2.88   4 2.89  23 2.89  18 2.92  21 2.94  15 2.95  24 2.97
   7  0.998  0.656  0.002-  50 1.99  51 2.01  33 2.04  53 2.05  36 2.09  35 2.14  23 2.80   4 2.84
                            22 2.86   8 2.88   6 2.88  24 2.92  25 2.94  16 2.94   1 2.97   9 2.98
   8  0.215  0.776  0.336-  34 2.01  45 2.04  37 2.09  36 2.12  33 2.14  43 2.15   5 2.79  23 2.82
                            18 2.87   6 2.88   7 2.88  17 2.90  26 2.91   2 2.91  11 2.93   9 2.93
   9  0.113  0.899  0.671-  29 1.90  28 2.03  34 2.08  53 2.08  35 2.12  37 2.12   3 2.76   2 2.84
                             1 2.84  12 2.84  27 2.85  18 2.89  10 2.91  26 2.92   8 2.93   7 2.98
  10  0.343  0.010  0.998-  39 2.00  45 2.03  35 2.04  38 2.05  29 2.10  36 2.23  19 2.77  22 2.82
                            12 2.84  11 2.86  13 2.87  18 2.90   9 2.91   1 2.91   8 2.98   2 2.99
  11  0.559  0.101  0.327-  45 1.95  48 1.97  37 2.05  46 2.05  39 2.18  49 2.23  19 2.75  17 2.84
                            18 2.85  10 2.86  20 2.88  22 2.89   8 2.93  21 2.95  23 2.98  14 3.01
  12  0.440  0.223  0.670-  40 1.99  29 2.02  37 2.05  49 2.07  41 2.08  38 2.16   3 2.82  13 2.84
                            10 2.84   9 2.84  24 2.86  18 2.88  15 2.89  14 2.90  22 2.92   2 2.96
  13  0.327  0.330  0.993-  32 1.99  42 2.01  39 2.04  29 2.08  30 2.08  41 2.10   3 2.81   4 2.81
                             1 2.83  12 2.84  10 2.87  16 2.87  15 2.89  14 2.98  25 2.98   2 2.98
  14  0.552  0.443  0.337-  40 2.00  42 2.06  39 2.06  49 2.10  51 2.11  52 2.12  15 2.87  17 2.87
                            25 2.87  24 2.89  12 2.90  26 2.95  13 2.98  22 2.99   2 2.99  11 3.01
  15  0.450  0.559  0.667-  41 1.99  43 2.00  44 2.01  40 2.05  52 2.08  32 2.17  24 2.80  16 2.82
                            14 2.87  27 2.88  12 2.89  13 2.89  17 2.92   5 2.95   6 2.95  18 2.95
  16  0.339  0.664  0.990-  44 1.99  32 2.02  33 2.03  35 2.03  42 2.06  45 2.15  19 2.77  17 2.81
                            15 2.82  25 2.86  13 2.87   4 2.88   6 2.88  18 2.91   7 2.94   5 2.99
  17  0.542  0.767  0.321-  45 2.03  42 2.03  43 2.05  52 2.10  54 2.14  46 2.18  25 2.77  19 2.78
                            16 2.81   5 2.84  11 2.84  14 2.87   8 2.90  15 2.92  26 2.93  18 2.96
  18  0.440  0.893  0.660-  35 2.00  37 2.03  43 2.04  46 2.07  38 2.10  44 2.14  11 2.85   8 2.87
                            21 2.87  12 2.88   9 2.89  10 2.90  16 2.91   6 2.92  19 2.93  15 2.95
  19  0.649  0.988  0.008-  38 1.98  45 1.99  48 2.03  44 2.04  54 2.07  47 2.15  11 2.75  16 2.77
                            10 2.77  17 2.78  25 2.86  22 2.86  18 2.93  21 2.94  20 3.01   1 3.05
  20  0.892  0.106  0.343-  28 1.96  31 2.00  46 2.02  30 2.04  54 2.05  48 2.12   2 2.74  27 2.75
                            26 2.78   3 2.86  21 2.87  11 2.88   5 2.89  23 2.92   1 2.94   4 3.00
  21  0.778  0.213  0.671-  38 1.97  46 2.02  47 2.05  49 2.09  50 2.11  31 2.19  27 2.85  22 2.86
                            20 2.87  18 2.87   4 2.90   3 2.92   6 2.94  19 2.94  11 2.95  12 2.99
  22  0.672  0.327  0.999-  38 1.98  48 2.01  50 2.02  51 2.03  39 2.14  41 2.18  10 2.82  21 2.86
                             7 2.86  19 2.86  24 2.88   4 2.88  11 2.89  23 2.89  12 2.92  14 2.99
  23  0.900  0.445  0.326-  31 2.01  33 2.05  51 2.08  48 2.10  34 2.15  49 2.19   5 2.65   7 2.80
                             8 2.82   4 2.84   6 2.89  22 2.89  20 2.92  11 2.98  21 3.02  14 3.03
  24  0.767  0.552  0.673-  41 1.94  49 1.97  53 2.06  52 2.08  50 2.09  34 2.14  15 2.80  12 2.86
                            27 2.88  22 2.88  14 2.89   7 2.92  25 2.92  26 2.96   6 2.97  21 3.00
  25  0.669  0.671  0.013-  42 1.95  54 2.00  51 2.03  53 2.06  41 2.09  44 2.09  17 2.77  26 2.84
                            19 2.86  16 2.86  14 2.87   1 2.91  24 2.92   7 2.94  15 2.96  13 2.98
  26  0.886  0.785  0.339-  52 1.96  36 1.99  28 1.99  54 2.01  34 2.14  51 2.19  27 2.74  20 2.78
                             2 2.78  25 2.84   1 2.90   8 2.91   9 2.92  17 2.93  14 2.95  24 2.96
  27  0.781  0.888  0.653-  52 1.93  46 1.97  28 2.02  44 2.13  47 2.15  53 2.16  26 2.74  20 2.75
                             9 2.85  21 2.85   3 2.88  24 2.88  15 2.88  17 2.97  18 2.99   1 3.01
  28  0.003  0.002  0.497-   2 1.90  20 1.96  26 1.99  27 2.02   9 2.03   3 2.03
  29  0.215  0.106  0.824-   9 1.90   3 1.94  12 2.02   1 2.03  13 2.08  10 2.10
  30  0.112  0.222  0.178-   2 1.96  20 2.04   1 2.08  13 2.08   4 2.09   5 2.10
  31  0.009  0.334  0.485-   5 1.82  20 2.00  23 2.01   6 2.10   3 2.13  21 2.19
  32  0.213  0.437  0.840-   4 1.92  13 1.99  16 2.02   3 2.06   6 2.08  15 2.17
  33  0.120  0.549  0.155-   5 1.93   4 1.96  16 2.03   7 2.04  23 2.05   8 2.14
  34  0.005  0.670  0.510-   6 2.00   8 2.01   9 2.08  24 2.14  26 2.14  23 2.15
  35  0.234  0.787  0.837-  18 2.00  16 2.03  10 2.04   9 2.12   6 2.13   7 2.14
  36  0.094  0.885  0.167-   1 1.94  26 1.99   2 2.05   7 2.09   8 2.12  10 2.23
  37  0.339  0.009  0.493-  18 2.03  11 2.05  12 2.05   2 2.06   8 2.09   9 2.12
  38  0.569  0.113  0.838-  21 1.97  22 1.98  19 1.98  10 2.05  18 2.10  12 2.16
  39  0.436  0.223  0.165-  10 2.00  13 2.04  14 2.06   2 2.13  22 2.14  11 2.18
  40  0.339  0.334  0.505-  12 1.99  14 2.00  15 2.05   3 2.07   2 2.12   5 2.21
  41  0.558  0.454  0.830-  24 1.94  15 1.99  12 2.08  25 2.09  13 2.10  22 2.18
  42  0.448  0.549  0.153-  25 1.95  13 2.01  17 2.03  16 2.06  14 2.06   5 2.27
  43  0.336  0.663  0.508-   5 1.99  15 2.00  18 2.04  17 2.05   6 2.05   8 2.15
  44  0.556  0.775  0.832-  16 1.99  15 2.01  19 2.04  25 2.09  27 2.13  18 2.14
  45  0.436  0.890  0.172-  11 1.95  19 1.99  17 2.03  10 2.03   8 2.04  16 2.15
  46  0.670  0.998  0.503-  27 1.97  21 2.02  20 2.02  11 2.05  18 2.07  17 2.18
  47  0.889  0.108  0.845-   1 2.03   4 2.04  21 2.05   3 2.10  27 2.15  19 2.15
  48  0.771  0.210  0.166-  11 1.97  22 2.01  19 2.03  23 2.10  20 2.12   4 2.15
  49  0.671  0.339  0.513-  24 1.97  12 2.07  21 2.09  14 2.10  23 2.19  11 2.23
  50  0.891  0.445  0.836-   7 1.99  22 2.02   6 2.04   4 2.06  24 2.09  21 2.11
  51  0.777  0.548  0.160-   7 2.01  22 2.03  25 2.03  23 2.08  14 2.11  26 2.19
  52  0.675  0.679  0.498-  27 1.93  26 1.96  24 2.08  15 2.08  17 2.10  14 2.12
  53  0.889  0.773  0.842-   7 2.05  24 2.06  25 2.06   1 2.07   9 2.08  27 2.16
  54  0.785  0.894  0.165-  25 2.00  26 2.01   1 2.03  20 2.05  19 2.07  17 2.14

  LATTYP: Found a hexagonal cell.
 ALAT       =     8.7224199979
 C/A-ratio  =     0.8152863542

  Lattice vectors:

 A1 = (   8.7224200000,   0.0000000000,   0.0000000000)
 A2 = (  -4.3612100000,   7.5538373000,   0.0000000000)
 A3 = (   0.0000000000,   0.0000000000,   7.1112700000)

Analysis of symmetry for initial positions (statically):
 Subroutine PRICEL returns:
 Original cell was already a primitive cell.

 Routine SETGRP: Setting up the symmetry group for a
 hexagonal supercell.

 Subroutine GETGRP returns: Found  1 space group operations
 (whereof  1 operations were pure point group operations)
 out of a pool of 24 trial point group operations.

The static configuration has the point symmetry C_1 .

Analysis of symmetry for dynamics (positions and initial velocities):
 Subroutine PRICEL returns:
 Original cell was already a primitive cell.

[...]

The dynamic configuration has the point symmetry C_1 .

Analysis of structural, dynamic, and magnetic symmetry:
 Subroutine PRICEL returns:
 Original cell was already a primitive cell.

 Routine SETGRP: Setting up the symmetry group for a
 hexagonal supercell.

 Subroutine GETGRP returns: Found  1 space group operations
 (whereof  1 operations were pure point group operations)
 out of a pool of 24 trial point group operations.

The magnetic configuration has the point symmetry C_1 .

 Subroutine INISYM returns: Found  1 space group operations
 (whereof  1 operations are pure point group operations),
 and found     1 'primitive' translations

 KPOINTS: Automatic mesh

Automatic generation of k-mesh.
[...]
   0.481E+02 -.476E+02 0.897E+01   -.485E+02 0.488E+02 -.685E+01   -.354E+00 -.156E+00 -.961E+00   -.653E-01 -.454E+00 -.150E+01
   0.445E+02 0.428E+02 -.396E+01   -.454E+02 -.449E+02 0.470E+01   -.873E+00 -.312E+00 0.104E+01   0.993E+00 0.147E+01 -.161E+01
   -.113E+03 -.202E+02 0.185E+02   0.114E+03 0.184E+02 -.211E+02   0.195E+01 0.763E+00 -.829E+00   -.336E+00 0.112E+01 0.247E+01
   0.242E+02 -.473E+01 -.973E+01   -.266E+02 0.497E+01 0.107E+02   0.119E+01 -.577E+00 0.202E+00   0.122E+01 0.326E+00 -.946E+00
   -.148E+02 -.424E+02 0.202E+01   0.127E+02 0.419E+02 -.250E+01   0.139E+01 0.177E+00 0.319E+00   0.734E+00 0.113E+01 0.187E+00
   0.113E+02 -.625E+01 0.113E+02   -.117E+02 0.740E+01 -.122E+02   0.104E+01 -.839E+00 -.307E+00   -.552E+00 0.135E-01 0.118E+01
   -.357E+02 0.837E+02 0.255E+01   0.371E+02 -.860E+02 0.364E-01   0.681E-01 0.534E+00 -.927E+00   -.114E+01 0.378E+00 -.187E+01
   0.393E+02 0.182E+02 -.195E+02   -.368E+02 -.166E+02 0.185E+02   -.725E+00 0.109E+00 -.338E+00   -.251E+01 -.203E+01 0.128E+01
   0.440E+02 -.822E+02 -.535E+02   -.429E+02 0.835E+02 0.511E+02   -.799E-01 0.567E+00 0.521E+00   -.168E+01 -.104E+01 0.228E+01
   -.650E+02 0.198E+01 0.710E+01   0.679E+02 -.196E+00 -.672E+01   0.287E+00 -.981E+00 0.182E+01   -.245E+01 -.951E+00 -.237E+01
   -.446E+02 0.775E+01 -.261E+02   0.476E+02 -.647E+01 0.288E+02   -.407E+00 -.942E+00 -.135E+01   -.200E+01 -.263E+00 -.958E+00
   -.430E+02 0.175E+02 0.391E+01   0.439E+02 -.192E+02 -.546E+01   0.271E+00 0.138E+01 0.172E+00   -.612E+00 0.191E+00 0.131E+01
   0.116E+02 0.515E+01 0.180E+02   -.915E+01 -.482E+01 -.165E+02   -.448E+00 -.243E+00 -.525E-01   -.227E+01 -.200E+00 -.165E+01
   0.225E+02 -.219E+02 -.129E+02   -.213E+02 0.232E+02 0.120E+02   0.187E+00 0.207E+00 0.122E+01   -.186E+01 -.125E+01 0.617E-01
   0.146E+01 0.644E+01 -.253E+02   -.323E-01 -.623E+01 0.237E+02   0.239E+00 0.742E+00 -.132E+00   -.148E+01 -.827E+00 0.214E+01
   -.340E+01 -.834E+01 0.118E+02   0.449E+01 0.101E+02 -.852E+01   0.874E+00 0.540E+00 -.153E+00   -.142E+01 -.230E+01 -.321E+01
   -.447E+02 0.132E+01 0.258E+02   0.453E+02 0.655E+00 -.275E+02   -.279E+00 -.765E+00 0.680E+00   0.766E+00 -.100E+01 0.480E+00
   0.688E+02 -.217E+02 0.274E+02   -.717E+02 0.225E+02 -.311E+02   0.397E-01 -.231E+00 0.206E+00   0.219E+01 -.378E+00 0.260E+01
   -.146E+01 -.480E+02 0.387E+02   -.223E+01 0.465E+02 -.371E+02   0.136E+01 0.105E+01 -.614E+00   0.238E+01 0.953E+00 -.150E+01
   0.508E+02 -.280E+02 -.196E+02   -.512E+02 0.264E+02 0.202E+02   -.890E+00 0.189E+00 -.591E+00   0.657E+00 0.190E+01 0.383E+00
   0.992E+02 -.625E+01 -.380E+02   -.102E+03 0.392E+01 0.380E+02   0.928E+00 0.250E+00 -.415E+00   0.125E+01 0.193E+01 0.877E+00
   -.510E+02 -.106E+02 0.334E+02   0.506E+02 0.772E+01 -.331E+02   0.408E+00 0.136E+01 0.700E-01   0.982E+00 0.199E+01 -.455E+00
   -.312E+02 0.884E+01 0.221E+02   0.304E+02 -.101E+02 -.227E+02   -.639E-01 0.432E+00 -.376E+00   0.130E+01 0.640E+00 0.136E+00
   -.431E+02 0.111E+03 0.688E+01   0.415E+02 -.113E+03 -.835E+01   0.219E+00 -.964E-01 0.372E+00   0.193E+01 0.134E+01 0.801E+00
   0.114E+02 0.523E+01 -.857E+02   -.155E+02 -.654E+01 0.876E+02   0.133E+01 0.862E+00 0.686E+00   0.245E+01 0.513E+00 -.128E+01
   -.612E+01 0.142E+02 -.323E+02   0.447E+01 -.155E+02 0.337E+02   -.101E+00 0.927E+00 -.170E+01   0.155E+01 0.334E+00 0.102E+01
   -.289E+02 -.115E+01 -.359E+02   0.335E+02 0.285E+01 0.422E+02   -.121E+01 -.214E+00 -.280E+01   -.292E+01 -.100E+01 -.275E+01
   -.785E+01 -.268E+02 0.144E+02   0.734E+01 0.301E+02 -.163E+02   0.321E+00 -.254E+01 0.274E+00   0.929E-02 -.481E+00 0.130E+01
   0.492E+02 0.142E+02 -.650E+02   -.550E+02 -.184E+02 0.692E+02   0.217E+01 0.297E+01 -.430E+01   0.236E+01 0.561E+00 0.179E+01
   -.402E+01 -.173E+02 0.431E+02   0.624E+01 0.188E+02 -.447E+02   -.502E+00 -.146E+01 0.291E+01   -.136E+01 0.149E+00 -.218E+01
   0.136E+02 -.470E+02 0.806E+00   -.137E+02 0.493E+02 -.296E+01   -.111E+01 -.320E+01 0.167E+01   0.658E+00 0.154E+01 0.431E+00
   0.301E+02 0.182E+02 0.101E+01   -.353E+02 -.212E+02 0.391E+00   0.377E+01 0.113E+01 -.117E+01   0.125E+01 0.201E+01 -.519E+00
   0.295E+02 0.113E+02 -.102E+01   -.311E+02 -.104E+02 0.239E+01   0.206E+01 0.600E+00 -.190E+00   -.657E+00 -.175E+01 -.101E+01
   -.616E+02 0.243E+02 0.146E+02   0.657E+02 -.250E+02 -.179E+02   -.323E+01 0.100E+01 0.155E+01   -.132E+00 -.691E+00 0.194E+01
   -.110E+02 -.674E+01 0.156E+02   0.114E+02 0.937E+01 -.157E+02   0.218E+00 -.149E+01 0.184E+01   -.902E+00 -.137E+01 -.161E+01
   0.217E+02 -.324E+01 0.340E+02   -.218E+02 0.194E+01 -.347E+02   0.172E+00 0.351E+00 0.236E+01   -.725E+00 0.814E+00 -.183E+01
   -.154E+02 -.135E+02 -.341E+02   0.152E+02 0.157E+02 0.346E+02   -.113E+00 -.116E+01 -.312E+01   0.505E+00 -.117E+01 0.258E+01
   0.512E+01 -.157E+02 0.359E+02   -.505E+01 0.169E+02 -.393E+02   0.191E+01 -.447E-01 0.282E+01   -.254E+01 -.101E+01 0.650E+00
   -.144E+02 0.191E+02 -.337E+02   0.148E+02 -.211E+02 0.391E+02   -.741E+00 0.533E+00 -.419E+01   -.782E-01 0.104E+01 -.947E+00
   0.127E+02 0.328E+02 -.365E+02   -.138E+02 -.383E+02 0.369E+02   0.193E+01 0.421E+01 -.721E+00   -.131E+01 0.128E+01 0.951E+00
   0.375E+01 -.197E+02 -.109E+01   -.221E+01 0.225E+02 0.240E+01   -.471E+00 -.221E+01 -.764E+00   -.138E+01 -.594E+00 -.456E+00
   -.182E+02 -.210E+02 0.234E+02   0.209E+02 0.255E+02 -.246E+02   -.238E+01 -.207E+01 0.267E+01   -.358E+00 -.228E+01 -.165E+01
   0.372E+02 0.288E+02 -.646E+01   -.384E+02 -.300E+02 0.199E+01   0.326E+01 0.222E+01 0.135E+01   -.227E+01 -.171E+01 0.339E+01
   0.340E+02 0.347E+01 0.426E+01   -.355E+02 -.533E+01 -.488E+01   0.174E+01 0.237E+01 0.141E+01   -.508E+00 -.329E+00 -.636E+00
   0.185E+02 0.166E+02 0.200E+01   -.240E+02 -.204E+02 0.216E+01   0.250E+01 0.271E+01 -.218E+01   0.336E+01 0.117E+01 -.234E+01
   -.114E+02 -.252E+02 -.144E+02   0.161E+02 0.246E+02 0.120E+02   -.387E+01 -.400E+00 0.820E+00   -.523E+00 0.122E+01 0.173E+01
   -.201E+02 0.139E+02 0.443E+02   0.216E+02 -.154E+02 -.464E+02   -.175E+01 0.193E+01 0.225E+01   0.148E+00 -.701E+00 -.718E+00
   0.738E+01 0.216E+01 0.348E+02   -.100E+02 -.382E+01 -.369E+02   0.131E+01 0.501E+00 0.204E+01   0.157E+01 0.990E+00 -.372E+00
   0.667E+01 0.104E+02 -.408E+02   -.808E+01 -.115E+02 0.430E+02   0.749E+00 -.533E+00 -.207E+01   0.566E+00 0.148E+01 0.247E+00
   0.537E+01 0.454E+02 0.147E+02   -.739E+01 -.492E+02 -.153E+02   0.167E+01 0.216E+01 0.243E+00   0.288E+00 0.103E+01 -.224E+00
   0.737E+00 0.491E+01 0.109E+02   -.242E+01 -.628E+01 -.101E+02   0.552E+00 0.254E+00 -.781E+00   0.968E+00 0.123E+01 -.491E+00
   0.193E+02 -.231E+01 0.105E+02   -.228E+02 0.594E+01 -.125E+02   0.407E+00 -.244E+01 0.730E+00   0.271E+01 -.120E+01 0.150E+01
   -.174E+02 -.118E+02 -.179E+01   -.597E-12 -.366E-12 -.355E-13   0.178E+02 0.108E+02 0.136E+01   -.373E+00 0.911E+00 0.455E+00

 POSITION                                       TOTAL-FORCE (eV/Angst)
      0.04419      0.00979      0.01788        -0.711700     -0.103910     -0.259147
      1.33656      0.78507      2.39838         1.788542      0.774863     -0.440669
      0.04697      1.62969      4.76603        -0.765887      0.559998     -0.339273
     -1.40117      2.53824      7.10284        -0.775789     -0.956744      0.162736
     -0.15949      3.41323      2.43704         2.519126      0.099319     -0.996553
     -1.46593      4.19011      4.73542         0.012888     -0.008435      0.254502
      5.84129      4.95836      0.01648        -0.024001      0.832834      0.021284
     -1.51059      5.85830      2.38645         0.164070      0.323138     -0.088586
     -2.93760      6.79177      4.77322         0.363907     -1.371738     -0.211541
      2.95030      0.07406      7.10029        -0.727490     -0.397400      0.034712
      4.43642      0.76519      2.32759        -0.668726      0.857226      0.396636
      2.86601      1.68432      4.76726         0.713552     -0.148551     -0.165296
      1.41098      2.49226      7.06316         0.547525      0.075254      0.448847
      2.88341      3.34525      2.39339         0.537954     -0.131521     -0.067285
      1.48600      4.22098      4.74278        -0.270701     -0.109214     -0.100864
      0.05473      5.01924      7.03918        -0.458247      0.216726      0.305226
      1.38293      5.79375      2.27964         0.185124      0.129760      0.355244
     -0.05285      6.74224      4.69337         0.554475     -0.040698     -0.084931
      1.35567      7.46124      0.05459         1.056076      0.208195     -0.481017
      7.31543      0.80372      2.44255        -0.735451      0.206948     -0.868991
      5.85259      1.61187      4.77470         0.052577      0.548093     -0.512293
      4.43814      2.46634      7.10598        -0.613382      0.459781      0.322511
      5.91547      3.35779      2.31593        -0.800775     -0.145570      0.382244
      4.28548      4.16862      4.78295         1.020975      0.472163     -0.087901
      2.90856      5.06564      0.09136         0.452768     -0.143560     -0.756646
      4.30688      5.92815      2.40776         0.531559     -0.952514     -0.303885
      2.93798      6.71067      4.64381        -0.252759      0.070309      1.389822
      0.02032      0.01617      3.53096        -0.206709     -0.081073      0.671375
      1.41412      0.79719      5.86206         0.425730      0.482464      0.734872
      0.01229      1.67640      1.26362        -0.178244      0.227178     -0.274587
     -1.37591      2.52436      3.45229        -1.239762     -0.653779      1.680784
     -0.04427      3.30200      5.97268         0.355015      0.185256     -0.826207
     -1.35077      4.14986      1.10459        -0.582799      0.688562     -0.053536
     -2.87783      5.05782      3.62352        -0.173103      0.203344     -0.278920
     -1.39354      5.94281      5.95071        -0.193803     -0.196885      0.169136
     -3.04271      6.68677      1.18531         0.722636     -0.337649      0.201723
      2.91524      0.06507      3.50589        -0.302779     -0.214878      0.119085
      4.46599      0.85728      5.96058        -0.602019     -0.132607     -0.171058
      2.83316      1.68355      1.17382         0.156072     -0.154926     -0.018649
      1.50320      2.52510      3.59315        -0.551757      0.170212      0.088011
      2.88705      3.42960      5.90581        -0.381822     -0.475798      0.283770
      1.51112      4.14966      1.09016        -0.514019      0.006276      0.580269
      0.04286      5.00931      3.61192        -0.303617      0.008808      0.094807
      1.46470      5.85558      5.91460         0.038701      0.125665     -0.094181
     -0.07886      6.72282      1.22468        -0.175161     -0.721781      0.262450
      1.49532      7.53558      3.58047        -0.203748      0.175330      0.161607
      7.28318      0.81580      6.00633         0.391263      0.134994     -0.368272
      5.80729      1.58931      1.17965         0.367845      0.292754      0.153242
      4.37383      2.55918      3.64675        -0.029895     -0.216355     -0.490094
      5.83188      3.36268      5.94346         0.252926     -0.168700     -0.460915
      4.38367      4.14087      1.13907        -0.088188     -0.194605      0.391204
      2.92456      5.12906      3.54087        -0.066666     -0.584268     -0.565376
      4.38513      5.83946      5.98790        -0.160376      0.115481     -0.477655
      2.94951      6.75074      1.17623        -0.451932     -0.007771      0.178231
    total drift:                               -0.012545     -0.040096      0.019160

  FREE ENERGIE OF THE ION-ELECTRON SYSTEM (eV)
  free  energy   TOTEN  =      -334.4565739311 eV

  energy  without entropy=     -334.4179263565  energy(sigma->0) =     -334.43725014

volume of typ            1:    36.7 %

volume of typ            2:     9.4 %

total charge

# of ion       s       p       d       tot
    1        0.212   0.239   7.941   8.392
    2        0.212   0.241   7.926   8.378
    3        0.200   0.220   7.911   8.332
    4        0.212   0.239   7.953   8.404
    5        0.218   0.249   7.975   8.441
    6        0.196   0.211   7.956   8.363
    7        0.204   0.224   7.939   8.367
    8        0.187   0.199   7.946   8.332
    9        0.205   0.226   7.938   8.368
   10        0.198   0.213   8.015   8.427
   11        0.203   0.220   7.893   8.316
   12        0.204   0.221   7.980   8.404
   13        0.201   0.222   8.051   8.474
   14        0.195   0.208   7.960   8.363
   15        0.208   0.228   7.950   8.386
   16        0.206   0.228   7.924   8.358
   17        0.195   0.205   7.980   8.380
   18        0.201   0.216   7.958   8.375
   19        0.207   0.231   8.095   8.533
   20        0.210   0.238   7.998   8.446
   21        0.200   0.215   7.958   8.373
   22        0.206   0.223   7.954   8.383
   23        0.191   0.200   8.007   8.398
   24        0.210   0.230   7.968   8.408
   25        0.212   0.237   7.943   8.392
   26        0.207   0.231   7.961   8.399
   27        0.205   0.227   7.954   8.387
   28        1.260   2.804   0.011   4.075
   29        1.260   2.798   0.010   4.067
   30        1.256   2.799   0.007   4.063
   31        1.264   2.789   0.010   4.062
   32        1.265   2.787   0.009   4.061
   33        1.259   2.799   0.009   4.067
   34        1.262   2.774   0.007   4.043
   35        1.258   2.787   0.007   4.051
   36        1.264   2.772   0.007   4.043
   37        1.263   2.777   0.007   4.047
   38        1.252   2.810   0.008   4.071
   39        1.266   2.765   0.006   4.037
   40        1.263   2.775   0.007   4.045
   41        1.259   2.790   0.007   4.056
   42        1.260   2.787   0.008   4.055
   43        1.262   2.767   0.008   4.037
   44        1.259   2.786   0.007   4.052
   45        1.260   2.798   0.009   4.067
   46        1.254   2.798   0.008   4.060
   47        1.265   2.764   0.006   4.036
   48        1.264   2.783   0.008   4.054
   49        1.259   2.776   0.006   4.041
   50        1.260   2.779   0.008   4.046
   51        1.261   2.776   0.007   4.044
   52        1.258   2.793   0.008   4.059
   53        1.258   2.781   0.006   4.046
   54        1.265   2.775   0.008   4.048
tot          39.54   81.23  215.24  336.01

magnetization (x)

# of ion       s       p       d       tot
    1       -0.000   0.003  -1.052  -1.049
    2        0.002   0.002  -1.124  -1.120
    3       -0.001  -0.001  -0.117  -0.119
    4       -0.001   0.000  -1.019  -1.020
    5        0.004   0.000  -0.762  -0.757
    6        0.003   0.002   0.638   0.643
    7        0.001   0.002   1.232   1.235
    8       -0.000   0.001  -0.369  -0.368
    9        0.004   0.002   1.132   1.138
   10        0.003   0.003   1.093   1.099
   11        0.002   0.004   1.150   1.157
   12        0.002   0.003   1.112   1.117
   13        0.003   0.004  -0.745  -0.738
   14        0.000   0.002  -1.161  -1.158
   15        0.002  -0.000   0.973   0.975
   16        0.001   0.002  -1.067  -1.065
   17        0.004   0.004   1.148   1.156
   18        0.002   0.003   1.198   1.203
   19        0.003   0.003   0.686   0.692
   20        0.003   0.004  -1.047  -1.040
   21        0.003   0.003   1.193   1.199
   22        0.002   0.002   1.169   1.173
   23        0.004   0.005   1.094   1.103
   24        0.000  -0.000   1.043   1.043
   25        0.004   0.006   1.203   1.213
   26        0.004   0.004  -0.697  -0.689
   27        0.001   0.001   1.191   1.193
   28       -0.001  -0.018  -0.000  -0.019
   29        0.001   0.029  -0.000   0.031
   30       -0.021  -0.129  -0.001  -0.151
   31       -0.000   0.014  -0.000   0.014
   32       -0.003  -0.036  -0.000  -0.040
   33       -0.006  -0.015  -0.000  -0.021
   34        0.008   0.050   0.000   0.059
   35        0.015   0.084   0.001   0.100
   36       -0.005  -0.006  -0.000  -0.011
   37        0.011   0.072   0.000   0.083
   38        0.023   0.161   0.001   0.185
   39        0.000   0.023  -0.000   0.023
   40       -0.004   0.004  -0.000  -0.001
   41        0.017   0.101   0.001   0.119
   42       -0.005  -0.001  -0.000  -0.006
   43        0.012   0.051   0.000   0.063
   44        0.014   0.074   0.000   0.088
   45        0.011   0.107   0.000   0.118
   46        0.018   0.124   0.001   0.142
   47        0.003  -0.001   0.000   0.003
   48        0.006   0.086   0.000   0.092
   49        0.015   0.087   0.001   0.103
   50        0.014   0.083   0.001   0.098
   51        0.011   0.085   0.000   0.096
   52        0.011   0.080   0.000   0.091
   53        0.015   0.104   0.001   0.120
   54       -0.000   0.008  -0.000   0.008
tot           0.21    1.28    8.10    9.60