 vasp.5.4.4.18Apr17-6-g9f103f2a35 (build May 12 2020 04:58:55) complex

 MD_VERSION_INFO: Compiled 2020-05-12T11:58:55-UTC in devlin.sd.materialsdesign.
 com:/home/medea2/data/build/wwolf/vasp-gpu5.4.4/13047/x86_64/src/src/build/std
 from svn 13047

 executed on                        Lin64 date 2023.03.24  18:03:28

 INCAR:
 POTCAR:    PAW_PBE Ni 02Aug2007
 POTCAR:    PAW_PBE O 08Apr2002

 POTCAR:    PAW_PBE Ni 02Aug2007

 POTCAR:    PAW_PBE O 08Apr2002

 Optimization of the real space projectors (new method)

 maximal supplied QI-value         = 16.25
 optimisation between [QCUT,QGAM] = [ 11.38, 22.75] = [ 36.24,144.96] Ry
 Optimized for a Real-space Cutoff    1.47 Angstroem

   l    n(q)    QCUT    max X(q) W(low)/X(q) W(high)/X(q)  e(spline)
   2      9    11.376    60.317    0.17E-03    0.16E-04    0.16E-06
   2      9    11.376    55.921    0.17E-03    0.16E-04    0.17E-06
   0     10    11.376    51.690    0.45E-04    0.60E-04    0.21E-06
   0     10    11.376    30.015    0.37E-04    0.55E-04    0.19E-06
   1     10    11.376    18.849    0.83E-04    0.11E-03    0.92E-07
   1     10    11.376    14.624    0.69E-04    0.92E-04    0.82E-07
 Optimization of the real space projectors (new method)

 maximal supplied QI-value         = 24.76
 optimisation between [QCUT,QGAM] = [ 11.39, 22.77] = [ 36.31,145.25] Ry
 Optimized for a Real-space Cutoff    1.10 Angstroem

   l    n(q)    QCUT    max X(q) W(low)/X(q) W(high)/X(q)  e(spline)
   0      7    11.387    20.381    0.22E-03    0.48E-03    0.18E-06
   0      7    11.387    15.268    0.22E-03    0.52E-03    0.19E-06
   1      7    11.387     5.964    0.22E-03    0.73E-03    0.24E-06
   1      7    11.387     5.382    0.19E-03    0.60E-03    0.21E-06

  PAW_PBE Ni 02Aug2007                  :
  PAW_PBE O 08Apr2002                   :

 POSCAR: NiO_C2_m_pris
  positions in direct lattice
 exchange correlation table for  LEXCH =       14
   RHO(1)=    0.500       N(1)  =     2000
   RHO(2)=  100.500       N(2)  =     4000

 ion  position               nearest neighbor table
   1  0.000  0.000  0.000-  30 2.05  53 2.05  47 2.05  36 2.05  29 2.05  54 2.05   3 2.90  26 2.90
                            20 2.90   9 2.90   2 2.90  27 2.90   4 2.91  13 2.91   7 2.91  25 2.91
   2  0.222  0.111  0.333-  36 2.05  39 2.05  30 2.05  40 2.05  37 2.05  28 2.05  13 2.90  10 2.90
                             1 2.90   9 2.90  12 2.90   3 2.90   8 2.91  26 2.91   5 2.91  20 2.91
   3  0.111  0.222  0.667-  32 2.05  47 2.05  29 2.05  28 2.05  31 2.05  40 2.05   1 2.90   4 2.90
                            13 2.90   5 2.90  20 2.90   2 2.90   9 2.91  27 2.91  21 2.91  12 2.91
   4  0.000  0.333  0.000-  47 2.05  30 2.05  48 2.05  50 2.05  32 2.05  33 2.05  20 2.90   3 2.90
                             5 2.90  21 2.90  23 2.90   6 2.90  19 2.91   1 2.91  22 2.91  13 2.91
   5  0.222  0.444  0.333-  30 2.05  42 2.05  40 2.05  31 2.05  33 2.05  43 2.05   4 2.90  13 2.90
                            16 2.90   3 2.90  15 2.90   6 2.90  20 2.91   2 2.91  23 2.91   8 2.91
   6  0.111  0.556  0.667-  35 2.05  50 2.05  34 2.05  43 2.05  32 2.05  31 2.05   7 2.90  16 2.90
                             4 2.90   8 2.90  23 2.90   5 2.90  18 2.91   9 2.91  24 2.91  15 2.91
   7  0.000  0.667  0.000-  36 2.05  53 2.05  33 2.05  35 2.05  51 2.05  50 2.05   9 2.90  26 2.90
                             6 2.90  24 2.90   8 2.90  23 2.90  10 2.91   1 2.91  25 2.91  16 2.91
   8  0.222  0.778  0.333-  33 2.05  45 2.05  36 2.05  37 2.05  43 2.05  34 2.05  10 2.90  16 2.90
                             7 2.90   6 2.90  18 2.90   9 2.90   2 2.91  26 2.91  23 2.91  11 2.91
   9  0.111  0.889  0.667-  29 2.05  53 2.05  35 2.05  34 2.05  28 2.05  37 2.05   7 2.90   1 2.90
                            10 2.90   2 2.90  26 2.90   8 2.90   3 2.91  24 2.91  12 2.91   6 2.91
  10  0.333  0.000  0.000-  35 2.05  39 2.05  29 2.05  36 2.05  45 2.05  38 2.05   8 2.90  12 2.90
                             2 2.90   9 2.90  18 2.90  11 2.90  13 2.91  16 2.91   7 2.91   1 2.91
  11  0.556  0.111  0.333-  48 2.05  45 2.05  49 2.05  46 2.05  39 2.05  37 2.05  22 2.90  19 2.90
                            10 2.90  21 2.90  18 2.90  12 2.90  17 2.91  14 2.91  23 2.91  20 2.91
  12  0.444  0.222  0.667-  29 2.05  41 2.05  37 2.05  40 2.05  38 2.05  49 2.05  10 2.90  13 2.90
                            22 2.90   2 2.90  14 2.90  11 2.90  18 2.91   9 2.91   3 2.91  15 2.91
  13  0.333  0.333  0.000-  29 2.05  30 2.05  32 2.05  39 2.05  42 2.05  41 2.05   2 2.90   3 2.90
                             5 2.90  12 2.90  15 2.90  14 2.90  10 2.91   1 2.91   4 2.91  16 2.91
  14  0.556  0.444  0.333-  39 2.05  51 2.05  49 2.05  52 2.05  40 2.05  42 2.05  22 2.90  25 2.90
                            13 2.90  12 2.90  24 2.90  15 2.90  11 2.91  23 2.91  26 2.91   2 2.91
  15  0.444  0.556  0.667-  44 2.05  32 2.05  43 2.05  40 2.05  52 2.05  41 2.05  16 2.90  13 2.90
                            25 2.90  17 2.90   5 2.90  14 2.90  18 2.91   6 2.91   3 2.91  27 2.91
  16  0.333  0.667  0.000-  45 2.05  35 2.05  33 2.05  42 2.05  32 2.05  44 2.05  18 2.90   8 2.90
                             6 2.90  15 2.90   5 2.90  17 2.90  10 2.91   7 2.91   4 2.91  19 2.91
  17  0.556  0.778  0.333-  54 2.05  42 2.05  46 2.05  52 2.05  45 2.05  43 2.05  19 2.90  25 2.90
                            16 2.90  27 2.90  15 2.90  18 2.90  11 2.91  20 2.91  26 2.91   5 2.91
  18  0.444  0.889  0.667-  35 2.05  38 2.05  43 2.05  37 2.05  44 2.05  46 2.05  16 2.90  10 2.90
                            19 2.90   8 2.90  11 2.90  17 2.90  12 2.91  15 2.91   6 2.91   9 2.91
  19  0.667  0.000  0.000-  44 2.05  48 2.05  54 2.05  38 2.05  47 2.05  45 2.05  17 2.90  21 2.90
                            27 2.90  11 2.90  20 2.90  18 2.90  22 2.91  25 2.91   4 2.91   1 2.91
  20  0.889  0.111  0.333-  54 2.05  30 2.05  48 2.05  31 2.05  28 2.05  46 2.05   4 2.90   1 2.90
                            19 2.90  27 2.90   3 2.90  21 2.90  26 2.91   5 2.91  17 2.91  23 2.91
  21  0.778  0.222  0.667-  50 2.05  38 2.05  47 2.05  46 2.05  49 2.05  31 2.05  19 2.90  22 2.90
                             4 2.90  23 2.90  11 2.90  20 2.90  27 2.91   3 2.91   6 2.91  18 2.91
  22  0.667  0.333  0.000-  38 2.05  48 2.05  50 2.05  41 2.05  51 2.05  39 2.05  11 2.90  21 2.90
                            23 2.90  14 2.90  24 2.90  12 2.90  19 2.91   4 2.91   7 2.91  10 2.91
  23  0.889  0.444  0.333-  48 2.05  33 2.05  31 2.05  49 2.05  51 2.05  34 2.05   4 2.90  22 2.90
                             7 2.90  21 2.90   6 2.90  24 2.90  20 2.91  11 2.91   5 2.91  14 2.91
  24  0.778  0.556  0.667-  53 2.05  41 2.05  52 2.05  34 2.05  50 2.05  49 2.05   7 2.90  25 2.90
                            22 2.90  26 2.90  14 2.90  23 2.90   9 2.91  27 2.91   6 2.91  21 2.91
  25  0.667  0.667  0.000-  54 2.05  51 2.05  53 2.05  44 2.05  41 2.05  42 2.05  27 2.90  24 2.90
                            26 2.90  17 2.90  14 2.90  15 2.90  19 2.91   1 2.91   7 2.91  22 2.91
  26  0.889  0.778  0.333-  51 2.05  36 2.05  54 2.05  28 2.05  34 2.05  52 2.05   1 2.90   7 2.90
                            25 2.90  24 2.90   9 2.90  27 2.90  20 2.91   2 2.91   8 2.91  17 2.91
  27  0.778  0.889  0.667-  47 2.05  44 2.05  53 2.05  52 2.05  46 2.05  28 2.05  25 2.90  19 2.90
                             1 2.90  20 2.90  17 2.90  26 2.90   3 2.91  21 2.91  24 2.91   9 2.91
  28  0.000  0.000  0.500-   3 2.05  26 2.05  20 2.05   9 2.05   2 2.05  27 2.05
  29  0.222  0.111  0.833-   9 2.05  12 2.05   3 2.05  13 2.05  10 2.05   1 2.05
  30  0.111  0.222  0.167-   5 2.05  20 2.05   2 2.05   1 2.05   4 2.05  13 2.05
  31  0.000  0.333  0.500-  20 2.05   3 2.05  21 2.05  23 2.05   5 2.05   6 2.05
  32  0.222  0.444  0.833-   3 2.05  15 2.05  13 2.05   4 2.05   6 2.05  16 2.05
  33  0.111  0.556  0.167-   8 2.05  23 2.05   7 2.05  16 2.05   5 2.05   4 2.05
  34  0.000  0.667  0.500-   9 2.05  26 2.05   6 2.05   8 2.05  24 2.05  23 2.05
  35  0.222  0.778  0.833-   6 2.05  18 2.05   9 2.05  10 2.05  16 2.05   7 2.05
  36  0.111  0.889  0.167-   2 2.05  26 2.05   8 2.05   7 2.05   1 2.05  10 2.05
  37  0.333  0.000  0.500-   8 2.05  12 2.05   2 2.05   9 2.05  18 2.05  11 2.05
  38  0.556  0.111  0.833-  21 2.05  18 2.05  22 2.05  19 2.05  12 2.05  10 2.05
  39  0.444  0.222  0.167-   2 2.05  14 2.05  10 2.05  13 2.05  11 2.05  22 2.05
  40  0.333  0.333  0.500-   2 2.05   3 2.05   5 2.05  12 2.05  15 2.05  14 2.05
  41  0.556  0.444  0.833-  12 2.05  24 2.05  22 2.05  25 2.05  13 2.05  15 2.05
  42  0.444  0.556  0.167-  17 2.05   5 2.05  16 2.05  13 2.05  25 2.05  14 2.05
  43  0.333  0.667  0.500-  18 2.05   8 2.05   6 2.05  15 2.05   5 2.05  17 2.05
  44  0.556  0.778  0.833-  27 2.05  15 2.05  19 2.05  25 2.05  18 2.05  16 2.05
  45  0.444  0.889  0.167-   8 2.05  11 2.05  16 2.05  10 2.05  17 2.05  19 2.05
  46  0.667  0.000  0.500-  17 2.05  21 2.05  27 2.05  11 2.05  20 2.05  18 2.05
  47  0.889  0.111  0.833-  27 2.05   3 2.05  21 2.05   4 2.05   1 2.05  19 2.05
  48  0.778  0.222  0.167-  23 2.05  11 2.05  20 2.05  19 2.05  22 2.05   4 2.05
  49  0.667  0.333  0.500-  11 2.05  21 2.05  23 2.05  14 2.05  24 2.05  12 2.05
  50  0.889  0.444  0.833-  21 2.05   6 2.05   4 2.05  22 2.05  24 2.05   7 2.05
  51  0.778  0.556  0.167-  26 2.05  14 2.05  25 2.05   7 2.05  23 2.05  22 2.05
  52  0.667  0.667  0.500-  27 2.05  24 2.05  26 2.05  17 2.05  14 2.05  15 2.05
  53  0.889  0.778  0.833-  24 2.05   9 2.05  27 2.05   1 2.05   7 2.05  25 2.05
  54  0.778  0.889  0.167-  20 2.05  17 2.05  26 2.05  25 2.05  19 2.05   1 2.05

  LATTYP: Found a hexagonal cell.
 ALAT       =     8.7224199979
 C/A-ratio  =     0.8152863542

  Lattice vectors:

 A1 = (   8.7224200000,   0.0000000000,   0.0000000000)
 A2 = (  -4.3612100000,   7.5538373000,   0.0000000000)
 A3 = (   0.0000000000,   0.0000000000,   7.1112700000)

Analysis of symmetry for initial positions (statically):
 Subroutine PRICEL returns:
 Original cell was already a primitive cell.

 Routine SETGRP: Setting up the symmetry group for a
 hexagonal supercell.

 Subroutine GETGRP returns: Found  4 space group operations
 (whereof  4 operations were pure point group operations)
 out of a pool of 24 trial point group operations.

The static configuration has the point symmetry C_2h.

Analysis of symmetry for dynamics (positions and initial velocities):
 Subroutine PRICEL returns:
 Original cell was already a primitive cell.

[...]

The dynamic configuration has the point symmetry C_2h.

Analysis of structural, dynamic, and magnetic symmetry:
 Subroutine PRICEL returns:
 Original cell was already a primitive cell.

 Routine SETGRP: Setting up the symmetry group for a
 hexagonal supercell.

 Subroutine GETGRP returns: Found  4 space group operations
 (whereof  4 operations were pure point group operations)
 out of a pool of 24 trial point group operations.

The magnetic configuration has the point symmetry C_2h.

 Subroutine INISYM returns: Found  4 space group operations
 (whereof  4 operations are pure point group operations),
 and found     1 'primitive' translations

 KPOINTS: Automatic mesh

Automatic generation of k-mesh.
Space group operators:
[...]
   0.752E-01 -.156E+00 0.113E+00   0.103E-01 0.367E-01 -.229E-01   0.101E-01 -.193E-01 -.211E-02   -.104E+00 0.149E+00 -.103E+00
   0.250E+00 -.171E+00 -.302E-01   0.123E-02 0.394E-01 0.493E-02   -.144E-01 -.155E-01 0.124E-01   -.245E+00 0.148E+00 0.104E-01
   0.105E+00 -.221E+00 -.151E+00   0.205E-01 0.405E-01 0.227E-01   0.121E-01 -.481E-03 0.122E-01   -.139E+00 0.195E+00 0.751E-01
   0.383E-01 -.550E-01 0.460E-01   0.172E-01 -.196E-01 -.231E-01   0.101E-02 0.193E-01 0.117E-01   -.529E-01 0.585E-01 -.528E-01
   -.250E+00 0.171E+00 0.302E-01   -.123E-02 -.394E-01 -.493E-02   0.144E-01 0.155E-01 -.124E-01   0.245E+00 -.148E+00 -.104E-01
   -.167E+00 0.967E-01 -.819E-01   0.274E-01 -.158E-01 0.225E-01   0.396E-02 -.229E-02 0.471E-02   0.138E+00 -.795E-01 0.314E-01
   -.252E+00 0.146E+00 0.910E-01   0.111E-01 -.640E-02 -.233E-01   -.487E-02 0.281E-02 0.293E-02   0.257E+00 -.148E+00 -.535E-01
   -.273E+00 0.131E+00 0.302E-01   0.335E-01 0.208E-01 -.493E-02   -.619E-02 -.202E-01 -.124E-01   0.250E+00 -.138E+00 -.104E-01
   -.668E-01 0.567E-02 -.460E-01   -.256E-01 0.508E-02 0.231E-01   0.162E-01 0.105E-01 -.117E-01   0.771E-01 -.166E-01 0.528E-01
   -.244E+00 -.201E-01 0.151E+00   0.248E-01 0.380E-01 -.227E-01   -.647E-02 0.103E-01 -.122E-01   0.239E+00 -.224E-01 -.751E-01
   -.710E-01 -.123E+00 0.349E-07   0.347E-01 0.602E-01 0.303E-11   -.947E-03 -.164E-02 -.434E-18   0.457E-01 0.791E-01 -.878E-11
   -.429E-01 0.248E-01 -.126E+00   -.317E-01 0.183E-01 0.229E-01   -.807E-02 0.466E-02 0.101E-02   0.877E-01 -.506E-01 0.146E+00
   0.429E-01 -.248E-01 0.126E+00   0.317E-01 -.183E-01 -.229E-01   0.807E-02 -.466E-02 -.101E-02   -.877E-01 0.506E-01 -.146E+00
   0.178E+00 -.102E+00 -.890E-01   0.323E-01 -.186E-01 -.985E-02   -.139E-01 0.804E-02 0.158E-01   -.199E+00 0.115E+00 0.313E-01
   0.244E+00 0.201E-01 -.151E+00   -.248E-01 -.380E-01 0.227E-01   0.647E-02 -.103E-01 0.122E-01   -.239E+00 0.224E-01 0.751E-01
   0.668E-01 -.567E-02 0.460E-01   0.256E-01 -.508E-02 -.231E-01   -.162E-01 -.105E-01 0.117E-01   -.771E-01 0.166E-01 -.528E-01
   0.273E+00 -.131E+00 -.302E-01   -.335E-01 -.208E-01 0.493E-02   0.619E-02 0.202E-01 0.124E-01   -.250E+00 0.138E+00 0.104E-01
   0.252E+00 -.146E+00 -.910E-01   -.111E-01 0.640E-02 0.233E-01   0.487E-02 -.281E-02 -.293E-02   -.257E+00 0.148E+00 0.535E-01
   0.167E+00 -.967E-01 0.819E-01   -.274E-01 0.158E-01 -.225E-01   -.396E-02 0.229E-02 -.471E-02   -.138E+00 0.795E-01 -.314E-01
   -.178E+00 0.102E+00 0.890E-01   -.323E-01 0.186E-01 0.985E-02   0.139E-01 -.804E-02 -.158E-01   0.199E+00 -.115E+00 -.313E-01
   -.383E-01 0.550E-01 -.460E-01   -.172E-01 0.196E-01 0.231E-01   -.101E-02 -.193E-01 -.117E-01   0.529E-01 -.585E-01 0.528E-01
   -.105E+00 0.221E+00 0.151E+00   -.205E-01 -.405E-01 -.227E-01   -.121E-01 0.481E-03 -.122E-01   0.139E+00 -.195E+00 -.751E-01
   0.710E-01 0.123E+00 -.349E-07   -.347E-01 -.602E-01 -.303E-11   0.947E-03 0.164E-02 0.434E-18   -.457E-01 -.791E-01 0.116E-10
   -.752E-01 0.156E+00 -.113E+00   -.103E-01 -.367E-01 0.229E-01   -.101E-01 0.193E-01 0.211E-02   0.104E+00 -.149E+00 0.103E+00
   0.172E+00 0.127E-01 0.113E+00   -.266E-01 -.273E-01 -.229E-01   0.217E-01 0.910E-03 -.211E-02   -.181E+00 0.150E-01 -.103E+00
   -.815E-14 -.694E-14 0.194E-12   -.533E-13 -.995E-13 0.284E-13   0.310E-24 0.000E+00 0.000E+00   -.235E-11 0.168E-11 -.202E-11
   -.222E+00 0.635E-01 0.143E+00   0.142E-01 0.167E-01 0.814E-02   -.739E-01 -.161E-01 -.354E-01   0.230E+00 -.519E-01 -.118E+00
   0.166E+00 -.160E+00 -.143E+00   0.732E-02 0.206E-01 -.814E-02   0.230E-01 -.721E-01 0.354E-01   -.160E+00 0.173E+00 0.118E+00
   0.187E+00 -.854E-01 -.965E-01   0.155E-02 0.249E-01 0.852E-02   0.292E-01 -.834E-01 0.141E+00   -.190E+00 0.111E+00 0.153E-01
   0.142E+00 -.181E+00 -.493E-01   0.902E-02 0.234E-01 0.870E-02   0.315E-01 -.884E-01 0.176E+00   -.163E+00 0.179E+00 -.599E-01
   0.131E-01 -.771E-01 -.199E+00   0.127E-01 -.112E-01 -.759E-02   -.320E-02 0.110E-01 0.196E+00   -.310E-01 0.707E-01 0.886E-01
   -.187E+00 0.854E-01 0.965E-01   -.155E-02 -.249E-01 -.852E-02   -.292E-01 0.834E-01 -.141E+00   0.190E+00 -.111E+00 -.153E-01
   -.718E-01 0.415E-01 -.207E-01   0.144E-01 -.833E-02 0.925E-02   -.513E-01 0.296E-01 0.677E-01   0.802E-01 -.463E-01 -.307E-01
   -.310E+00 0.179E+00 -.691E-01   0.757E-02 -.437E-02 -.704E-02   -.556E-01 0.321E-01 0.321E-01   0.310E+00 -.179E+00 0.633E-01
   -.167E+00 0.119E+00 0.965E-01   0.208E-01 0.138E-01 -.852E-02   -.868E-01 -.165E-01 -.141E+00   0.191E+00 -.109E+00 -.153E-01
   -.734E-01 -.272E-01 0.199E+00   -.160E-01 0.545E-02 0.759E-02   0.111E-01 0.273E-02 -.196E+00   0.767E-01 0.854E-02 -.886E-01
   -.228E+00 0.323E-01 0.493E-01   0.158E-01 0.195E-01 -.870E-02   -.923E-01 -.169E-01 -.176E+00   0.237E+00 -.515E-01 0.599E-01
   -.993E-01 -.172E+00 -.105E-07   0.223E-01 0.386E-01 0.150E-11   -.280E-01 -.486E-01 -.108E-18   0.784E-01 0.136E+00 0.243E-10
   -.868E-01 0.501E-01 0.217E+00   -.212E-01 0.122E-01 0.814E-02   -.540E-01 0.312E-01 -.655E-01   0.127E+00 -.731E-01 -.167E+00
   0.868E-01 -.501E-01 -.217E+00   0.212E-01 -.122E-01 -.814E-02   0.540E-01 -.312E-01 0.655E-01   -.127E+00 0.731E-01 0.167E+00
   0.854E-01 -.493E-01 -.136E+00   0.192E-01 -.111E-01 -.170E-01   0.851E-02 -.491E-02 0.268E+00   -.111E+00 0.642E-01 -.750E-02
   0.228E+00 -.323E-01 -.493E-01   -.158E-01 -.195E-01 0.870E-02   0.923E-01 0.169E-01 0.176E+00   -.237E+00 0.515E-01 -.599E-01
   0.734E-01 0.272E-01 -.199E+00   0.160E-01 -.545E-02 -.759E-02   -.111E-01 -.273E-02 0.196E+00   -.767E-01 -.854E-02 0.886E-01
   0.167E+00 -.119E+00 -.965E-01   -.208E-01 -.138E-01 0.852E-02   0.868E-01 0.165E-01 0.141E+00   -.191E+00 0.109E+00 0.153E-01
   0.310E+00 -.179E+00 0.691E-01   -.757E-02 0.437E-02 0.704E-02   0.556E-01 -.321E-01 -.321E-01   -.310E+00 0.179E+00 -.633E-01
   0.718E-01 -.415E-01 0.207E-01   -.144E-01 0.833E-02 -.925E-02   0.513E-01 -.296E-01 -.677E-01   -.802E-01 0.463E-01 0.307E-01
   -.854E-01 0.493E-01 0.136E+00   -.192E-01 0.111E-01 0.170E-01   -.851E-02 0.491E-02 -.268E+00   0.111E+00 -.642E-01 0.750E-02
   -.131E-01 0.771E-01 0.199E+00   -.127E-01 0.112E-01 0.759E-02   0.320E-02 -.110E-01 -.196E+00   0.310E-01 -.707E-01 -.886E-01
   -.142E+00 0.181E+00 0.493E-01   -.902E-02 -.234E-01 -.870E-02   -.315E-01 0.884E-01 -.176E+00   0.163E+00 -.179E+00 0.599E-01
   0.993E-01 0.172E+00 0.105E-07   -.223E-01 -.386E-01 -.144E-11   0.280E-01 0.486E-01 0.108E-18   -.784E-01 -.136E+00 -.274E-10
   -.166E+00 0.160E+00 0.143E+00   -.732E-02 -.206E-01 0.814E-02   -.230E-01 0.721E-01 -.354E-01   0.160E+00 -.173E+00 -.118E+00
   0.222E+00 -.635E-01 -.143E+00   -.142E-01 -.167E-01 -.814E-02   0.739E-01 0.161E-01 0.354E-01   -.230E+00 0.519E-01 0.118E+00
   -.420E-11 0.205E-10 0.247E-09   -.847E-13 0.525E-12 0.424E-13   0.000E+00 -.486E-16 0.208E-16   0.181E-11 0.224E-11 -.872E-11

 POSITION                                       TOTAL-FORCE (eV/Angst)
      0.00000      0.00000      0.00000        -0.000000      0.000000      0.000000
      1.45372      0.83931      2.37040         0.013519     -0.001355      0.015212
     -0.00000      1.67861      4.74087        -0.007932      0.011030     -0.015212
     -1.45372      2.51792      0.00000        -0.008472      0.000591     -0.002423
      0.00000      3.35723      2.37040        -0.001518      0.014297     -0.041117
     -1.45377      4.19661      4.74087         0.003612      0.003184     -0.018141
     -2.90749      5.03592      0.00000         0.008472     -0.000591      0.002423
     -1.45377      5.87522      2.37040         0.001741     -0.001005     -0.023347
     -2.90749      6.71453      4.74087         0.010980     -0.006339      0.017189
      2.90744      0.00000      0.00000         0.004748     -0.007042      0.002423
      4.36125      0.83931      2.37040         0.000952      0.004720      0.018141
      2.90744      1.67861      4.74087         0.013141      0.005834      0.041117
      1.45372      2.51792      0.00000         0.008435      0.014609      0.000000
      2.90753      3.35723      2.37040         0.004996     -0.002885      0.043197
      1.45368      4.19661      4.74087        -0.004996      0.002885     -0.043197
     -0.00004      5.03592      0.00000        -0.003004      0.001734     -0.051768
      1.45377      5.87522      2.37040        -0.013141     -0.005834     -0.041117
     -0.00004      6.71453      4.74087        -0.000952     -0.004720     -0.018141
      5.81498      0.00000      0.00000        -0.004748      0.007042     -0.002423
      7.26870      0.83931      2.37040        -0.010980      0.006339     -0.017189
      5.81498      1.67861      4.74087        -0.001741      0.001005      0.023347
      4.36125      2.51792      0.00000         0.003004     -0.001734      0.051768
      5.81498      3.35723      2.37040        -0.003612     -0.003184      0.018141
      4.36121      4.19661      4.74087         0.001518     -0.014297      0.041117
      2.90749      5.03592      0.00000        -0.008435     -0.014609      0.000000
      4.36121      5.87522      2.37040         0.007932     -0.011030      0.015212
      2.90749      6.71453      4.74087        -0.013519      0.001355     -0.015212
      0.00000      0.00000      3.55564        -0.000000      0.000000      0.000000
      1.45372      0.83931      5.92603        -0.051669      0.012061     -0.001936
     -0.00000      1.67861      1.18524         0.036280     -0.038717      0.001936
     -1.45372      2.51792      3.55564         0.027693     -0.032807      0.067900
      0.00000      3.35723      5.92603         0.019501     -0.066695      0.075597
     -1.45377      4.19661      1.18524        -0.008276     -0.006593      0.077543
     -2.90749      5.03592      3.55564        -0.027693      0.032807     -0.067900
     -1.45377      5.87522      5.92603        -0.028542      0.016479      0.025450
     -2.90749      6.71453      1.18524        -0.047472      0.027408      0.019225
      2.90744      0.00000      3.55564        -0.042259      0.007580     -0.067900
      4.36125      0.83931      5.92603        -0.001572     -0.010464     -0.077543
      2.90744      1.67861      1.18524        -0.067510     -0.016460     -0.075597
      1.45372      2.51792      3.55564        -0.026637     -0.046137      0.000000
      2.90753      3.35723      5.92603        -0.035299      0.020380     -0.007355
      1.45368      4.19661      1.18524         0.035299     -0.020380      0.007355
     -0.00004      5.03592      3.55564         0.001959     -0.001131      0.107765
      1.45377      5.87522      5.92603         0.067510      0.016460      0.075597
     -0.00004      6.71453      1.18524         0.001572      0.010464      0.077543
      5.81498      0.00000      3.55564         0.042259     -0.007580      0.067900
      7.26870      0.83931      5.92603         0.047472     -0.027408     -0.019225
      5.81498      1.67861      1.18524         0.028542     -0.016479     -0.025450
      4.36125      2.51792      3.55564        -0.001959      0.001131     -0.107765
      5.81498      3.35723      5.92603         0.008276      0.006593     -0.077543
      4.36121      4.19661      1.18524        -0.019501      0.066695     -0.075597
      2.90749      5.03592      3.55564         0.026637      0.046137      0.000000
      4.36121      5.87522      5.92603        -0.036280      0.038717     -0.001936
      2.90749      6.71453      1.18524         0.051669     -0.012061      0.001936
    total drift:                               -0.000000      0.000000      0.000000

  FREE ENERGIE OF THE ION-ELECTRON SYSTEM (eV)
  free  energy   TOTEN  =      -334.3028802047 eV

  energy  without entropy=     -334.2475686425  energy(sigma->0) =     -334.27522442

volume of typ            1:    36.7 %

volume of typ            2:     9.4 %

total charge

# of ion       s       p       d       tot
    1        0.198   0.215   8.008   8.421
    2        0.199   0.215   8.003   8.416
    3        0.198   0.215   8.003   8.416
    4        0.199   0.215   7.996   8.410
    5        0.199   0.215   7.993   8.407
    6        0.199   0.215   7.993   8.407
    7        0.199   0.215   7.996   8.410
    8        0.199   0.215   7.987   8.401
    9        0.199   0.215   7.996   8.410
   10        0.199   0.215   7.991   8.405
   11        0.199   0.215   7.989   8.403
   12        0.199   0.215   7.993   8.407
   13        0.198   0.215   8.005   8.418
   14        0.199   0.215   7.990   8.405
   15        0.199   0.215   7.990   8.405
   16        0.199   0.215   7.990   8.404
   17        0.199   0.215   7.993   8.407
   18        0.199   0.215   7.989   8.403
   19        0.199   0.215   7.991   8.405
   20        0.199   0.215   7.996   8.410
   21        0.199   0.215   7.987   8.401
   22        0.199   0.215   7.990   8.404
   23        0.199   0.215   7.993   8.407
   24        0.199   0.215   7.993   8.407
   25        0.198   0.215   8.005   8.418
   26        0.198   0.215   8.003   8.416
   27        0.199   0.215   8.003   8.416
   28        1.268   2.755   0.008   4.030
   29        1.267   2.757   0.008   4.031
   30        1.267   2.757   0.008   4.031
   31        1.265   2.761   0.008   4.034
   32        1.265   2.761   0.008   4.033
   33        1.264   2.763   0.008   4.034
   34        1.265   2.761   0.008   4.034
   35        1.265   2.761   0.008   4.033
   36        1.267   2.756   0.008   4.031
   37        1.265   2.761   0.008   4.033
   38        1.264   2.763   0.008   4.034
   39        1.265   2.760   0.008   4.033
   40        1.266   2.759   0.008   4.032
   41        1.266   2.759   0.008   4.032
   42        1.266   2.759   0.008   4.032
   43        1.264   2.763   0.008   4.034
   44        1.265   2.760   0.008   4.033
   45        1.264   2.763   0.008   4.034
   46        1.265   2.761   0.008   4.033
   47        1.267   2.756   0.008   4.031
   48        1.265   2.761   0.008   4.033
   49        1.264   2.763   0.008   4.034
   50        1.264   2.763   0.008   4.034
   51        1.265   2.761   0.008   4.033
   52        1.266   2.759   0.008   4.032
   53        1.267   2.757   0.008   4.031
   54        1.267   2.757   0.008   4.031
tot          39.53   80.32  216.07  335.93

magnetization (x)

# of ion       s       p       d       tot
    1        0.004   0.004   0.029   0.036
    2        0.004   0.004   0.106   0.114
    3        0.004   0.004   0.108   0.115
    4        0.004   0.003   0.480   0.487
    5        0.004   0.003   0.501   0.508
    6        0.004   0.003   0.514   0.521
    7        0.004   0.003   0.480   0.487
    8        0.004   0.004   0.499   0.508
    9        0.004   0.004   0.456   0.463
   10        0.004   0.003   0.483   0.490
   11        0.004   0.003   0.519   0.527
   12        0.004   0.003   0.502   0.509
   13        0.004   0.004   0.120   0.128
   14        0.004   0.004   0.579   0.586
   15        0.004   0.004   0.579   0.586
   16        0.004   0.004   0.617   0.625
   17        0.004   0.003   0.502   0.509
   18        0.004   0.003   0.519   0.527
   19        0.004   0.003   0.483   0.490
   20        0.004   0.004   0.456   0.463
   21        0.004   0.004   0.499   0.508
   22        0.004   0.004   0.617   0.625
   23        0.004   0.003   0.514   0.521
   24        0.004   0.003   0.501   0.508
   25        0.004   0.004   0.120   0.128
   26        0.004   0.004   0.108   0.115
   27        0.004   0.004   0.106   0.114
   28        0.005   0.031   0.000   0.037
   29        0.006   0.035   0.000   0.042
   30        0.006   0.035   0.000   0.042
   31        0.010   0.048   0.000   0.059
   32        0.010   0.046   0.000   0.056
   33        0.012   0.058   0.000   0.070
   34        0.010   0.048   0.000   0.059
   35        0.011   0.058   0.000   0.069
   36        0.006   0.035   0.000   0.041
   37        0.010   0.049   0.000   0.059
   38        0.012   0.059   0.000   0.071
   39        0.010   0.046   0.000   0.056
   40        0.009   0.046   0.000   0.055
   41        0.009   0.048   0.000   0.057
   42        0.009   0.048   0.000   0.057
   43        0.012   0.057   0.000   0.070
   44        0.010   0.046   0.000   0.056
   45        0.012   0.059   0.000   0.071
   46        0.010   0.049   0.000   0.059
   47        0.006   0.035   0.000   0.041
   48        0.011   0.058   0.000   0.069
   49        0.012   0.057   0.000   0.070
   50        0.012   0.058   0.000   0.070
   51        0.010   0.046   0.000   0.056
   52        0.009   0.046   0.000   0.055
   53        0.006   0.035   0.000   0.042
   54        0.006   0.035   0.000   0.042
tot           0.35    1.37   11.01   12.73