 vasp.5.4.4.18Apr17-6-g9f103f2a35 (build May 12 2020 04:58:55) complex

 MD_VERSION_INFO: Compiled 2020-05-12T11:58:55-UTC in devlin.sd.materialsdesign.
 com:/home/medea2/data/build/wwolf/vasp-gpu5.4.4/13047/x86_64/src/src/build/std
 from svn 13047

 executed on                        Lin64 date 2022.11.15  18:11:29

 INCAR:
 POTCAR:    PAW_PBE Li_sv 10Sep2004
 POTCAR:    PAW_PBE Ni 02Aug2007
 POTCAR:    PAW_PBE Ta_pv 07Sep2000
 POTCAR:    PAW_PBE Mn_pv 02Aug2007
 POTCAR:    PAW_PBE O 08Apr2002
 POTCAR:    PAW_PBE Co 02Aug2007

 POTCAR:    PAW_PBE Li_sv 10Sep2004

 POTCAR:    PAW_PBE Ni 02Aug2007

 POTCAR:    PAW_PBE Ta_pv 07Sep2000

 POTCAR:    PAW_PBE Mn_pv 02Aug2007

 POTCAR:    PAW_PBE O 08Apr2002

 POTCAR:    PAW_PBE Co 02Aug2007

 Optimization of the real space projectors (new method)

 maximal supplied QI-value         = 22.11
 optimisation between [QCUT,QGAM] = [ 11.28, 22.77] = [ 35.61,145.23] Ry
 Optimized for a Real-space Cutoff    1.10 Angstroem

   l    n(q)    QCUT    max X(q) W(low)/X(q) W(high)/X(q)  e(spline)
   0      7    11.276    10.506    0.54E-04    0.58E-04    0.16E-07
   0      7    11.276     8.367    0.11E-03    0.14E-03    0.35E-07
   1      7    11.276     8.983    0.23E-03    0.43E-03    0.86E-07
 Optimization of the real space projectors (new method)

[...]

   l    n(q)    QCUT    max X(q) W(low)/X(q) W(high)/X(q)  e(spline)
   0      7    11.387    20.381    0.22E-03    0.48E-03    0.18E-06
   0      7    11.387    15.268    0.22E-03    0.52E-03    0.19E-06
   1      7    11.387     5.964    0.22E-03    0.73E-03    0.24E-06
   1      7    11.387     5.382    0.19E-03    0.60E-03    0.21E-06
 Optimization of the real space projectors (new method)

 maximal supplied QI-value         = 16.25
 optimisation between [QCUT,QGAM] = [ 11.38, 22.75] = [ 36.24,144.96] Ry
 Optimized for a Real-space Cutoff    1.43 Angstroem

   l    n(q)    QCUT    max X(q) W(low)/X(q) W(high)/X(q)  e(spline)
   2      9    11.376    65.824    0.18E-03    0.28E-04    0.14E-06
   2      9    11.376    61.429    0.18E-03    0.29E-04    0.14E-06
   0     10    11.376    56.174    0.51E-04    0.12E-03    0.20E-06
   0     10    11.376    31.263    0.46E-04    0.11E-03    0.18E-06
   1      9    11.376    19.828    0.23E-03    0.17E-03    0.10E-06
   1      9    11.376    15.139    0.20E-03    0.14E-03    0.89E-07

  PAW_PBE Li_sv 10Sep2004               :
  PAW_PBE Ni 02Aug2007                  :
  PAW_PBE Ta_pv 07Sep2000               :
  PAW_PBE Mn_pv 02Aug2007               :
  PAW_PBE O 08Apr2002                   :
  PAW_PBE Co 02Aug2007                  :

 POSCAR: ce1_1
  positions in direct lattice

 METAGGA = SCAN     LMAXTAU =  6    LMIXTAU =  T

 ion  position               nearest neighbor table
   1  0.733  0.998  0.250-  59 2.02  62 2.03  51 2.09  39 2.11  54 2.11  43 2.25  80 2.82  24 2.84

   2  0.267  0.998  0.750-  60 2.02  61 2.03  52 2.09  40 2.11  53 2.11  44 2.25  80 2.82  24 2.84

[...]

  11  0.744  0.096  0.745-  61 1.97  40 2.04  53 2.07  44 2.08  77 2.09  69 2.11  80 2.80  26 2.84
                            34 2.84  36 2.99
  12  0.256  0.096  0.255-  62 1.97  39 2.04  54 2.07  43 2.08  78 2.09  70 2.11  80 2.80  26 2.84
                            34 2.84  36 2.99
  13  0.256  0.308  0.258-  55 2.03  63 2.07  47 2.13  71 2.13  70 2.13  78 2.21  27 2.77  31 2.81
                            36 2.97
  14  0.744  0.308  0.742-  56 2.03  64 2.07  48 2.13  72 2.13  69 2.13  77 2.21  27 2.77  31 2.81
                            36 2.97
  15  0.753  0.696  0.748-  57 2.06  68 2.07  49 2.09  76 2.17  65 2.18  73 2.19  32 2.84  28 2.84

  16  0.247  0.696  0.252-  58 2.06  67 2.07  50 2.09  75 2.17  66 2.18  74 2.19  32 2.84  28 2.84

  17  0.751  0.803  0.252-  66 2.05  59 2.08  51 2.10  74 2.17  75 2.18  67 2.20
  18  0.249  0.803  0.748-  65 2.05  60 2.08  52 2.10  73 2.17  76 2.18  68 2.20
  19  0.271  0.198  0.741-  61 2.03  69 2.04  64 2.09  72 2.10  53 2.22  77 2.24  34 2.73  26 2.84
                            36 3.00
  20  0.729  0.198  0.259-  62 2.03  70 2.04  63 2.09  71 2.10  54 2.22  78 2.24  34 2.73  26 2.84
                            36 3.00
  21  0.000  0.404  0.000-  41 2.01  42 2.01  47 2.02  48 2.02  63 2.13  64 2.13   3 2.81   4 2.81
                            22 2.82  38 2.84  38 2.84  36 2.86  30 2.86  30 2.86
  22  0.000  0.601  0.000-  49 2.02  50 2.02  41 2.03  42 2.03  65 2.03  66 2.03  29 2.80  21 2.82
                            35 2.85  35 2.85  38 2.87  38 2.87
  23  0.500  0.898  0.000-  39 2.02  40 2.02  67 2.04  68 2.04  51 2.05  52 2.05  37 2.83  37 2.83
                            24 2.84  35 2.85  29 2.88  29 2.88
  24  0.500  0.097  0.000-  39 2.02  40 2.02  53 2.05  54 2.05  69 2.07  70 2.07   1 2.84   2 2.84
                            23 2.84  37 2.89  37 2.89  36 2.92  36 2.92  30 2.98
  25  0.000  0.901  0.500-  43 1.91  44 1.91  75 1.92  76 1.92  59 2.06  60 2.06  26 2.82  80 2.85
                            80 2.85  33 2.86  33 2.86  32 2.91
  26  0.000  0.098  0.500-  77 1.91  78 1.91  43 1.91  44 1.91  61 2.06  62 2.06  25 2.82  12 2.84
                            11 2.84  20 2.84  19 2.84  34 2.85  34 2.85  80 2.86  80 2.86  31 2.93
  27  0.500  0.402  0.500-  45 1.91  46 1.91  71 1.92  72 1.92  55 2.05  56 2.05  13 2.77  14 2.77
                            28 2.82  79 2.85  79 2.85  31 2.86  31 2.86  34 2.94
  28  0.500  0.599  0.500-  45 1.90  46 1.90  73 1.91  74 1.91  57 2.05  58 2.05  27 2.82  16 2.84
                            15 2.84  32 2.85  32 2.85  79 2.85  79 2.85  33 2.91
  29  0.000  0.796  0.000-  67 1.89  68 1.89  65 1.97  66 1.97  51 2.03  52 2.03  22 2.80  37 2.82
                            35 2.85  35 2.85  23 2.88  23 2.88
  30  0.500  0.305  0.000-  47 2.02  48 2.02  69 2.06  70 2.06  63 2.07  64 2.07  38 2.80  21 2.86
                            21 2.86  36 2.87  36 2.87  24 2.98
  31  0.000  0.303  0.500-  71 1.89  72 1.89  55 1.96  56 1.96  77 2.03  78 2.03  13 2.81  14 2.81
                            79 2.83  27 2.86  27 2.86  34 2.91  34 2.91  26 2.93
  32  0.000  0.697  0.500-  73 1.89  74 1.89  57 1.96  58 1.96  75 2.02  76 2.02  79 2.81  16 2.84
                            15 2.84  28 2.85  28 2.85  33 2.90  33 2.90  25 2.91
  33  0.500  0.802  0.500-  75 1.89  76 1.89  59 1.96  60 1.96  73 2.02  74 2.02  80 2.82  25 2.86
                            25 2.86  32 2.90  32 2.90  28 2.91
  34  0.500  0.197  0.500-  77 1.88  78 1.88  61 1.97  62 1.97  71 2.03  72 2.03  19 2.73  20 2.73
                            80 2.83  12 2.84  11 2.84  26 2.85  26 2.85  31 2.91  31 2.91  27 2.94
  35  0.500  0.699  0.000-  49 1.89  50 1.89  65 1.89  66 1.89  67 1.89  68 1.89  38 2.84  29 2.85
                            29 2.85  23 2.85  22 2.85  22 2.85
  36  0.000  0.205  0.000-  63 1.94  64 1.94  69 1.98  70 1.98  53 2.05  54 2.05  21 2.86  30 2.87
                            30 2.87  24 2.92  24 2.92  14 2.97  13 2.97  12 2.99  11 2.99  20 3.00
  37  0.000  0.993  0.000-  51 1.86  52 1.86  39 1.89  40 1.89  53 1.97  54 1.97  29 2.82  23 2.83
                            23 2.83  10 2.84   9 2.84  24 2.89  24 2.89  36 3.02
  38  0.500  0.501  0.000-  47 1.89  48 1.89  41 1.90  42 1.90  49 1.94  50 1.94  30 2.80  35 2.84
                            21 2.84  21 2.84  22 2.87  22 2.87   5 2.87   6 2.87   7 2.88   8 2.88
  39  0.349  0.998  0.116-  37 1.89   9 2.01  24 2.02  23 2.02  12 2.04   1 2.11
  40  0.651  0.998  0.884-  37 1.89  10 2.01  24 2.02  23 2.02  11 2.04   2 2.11
  41  0.849  0.502  0.117-  38 1.90  21 2.01   8 2.01   5 2.02  22 2.03   3 2.08
  42  0.151  0.502  0.883-  38 1.90  21 2.01   7 2.01   6 2.02  22 2.03   4 2.08
  43  0.138  0.999  0.397-  80 1.90  25 1.91  26 1.91  12 2.08   9 2.11   1 2.25
  44  0.862  0.999  0.603-  80 1.90  25 1.91  26 1.91  11 2.08  10 2.11   2 2.25
  45  0.638  0.501  0.397-  79 1.90  28 1.90  27 1.91   5 2.13   8 2.14   3 2.28
  46  0.362  0.501  0.603-  79 1.90  28 1.90  27 1.91   6 2.13   7 2.14   4 2.28
  47  0.379  0.409  0.118-  38 1.89  30 2.02  21 2.02   3 2.04   5 2.06  13 2.13
  48  0.621  0.409  0.882-  38 1.89  30 2.02  21 2.02   4 2.04   6 2.06  14 2.13
  49  0.615  0.603  0.889-  35 1.89  38 1.94  22 2.02   7 2.07  15 2.09   4 2.22
  50  0.385  0.603  0.111-  35 1.89  38 1.94  22 2.02   8 2.07  16 2.09   3 2.22
  51  0.886  0.903  0.118-  37 1.86  29 2.03   9 2.04  23 2.05   1 2.09  17 2.10
  52  0.114  0.903  0.882-  37 1.86  29 2.03  10 2.04  23 2.05   2 2.09  18 2.10
  53  0.114  0.095  0.884-  37 1.97  24 2.05  36 2.05  11 2.07   2 2.11  19 2.22
  54  0.886  0.095  0.116-  37 1.97  24 2.05  36 2.05  12 2.07   1 2.11  20 2.22
  55  0.112  0.404  0.384-  79 1.91  31 1.96   3 2.00   5 2.01  13 2.03  27 2.05
  56  0.888  0.404  0.616-  79 1.91  31 1.96   4 2.00   6 2.01  14 2.03  27 2.05
  57  0.886  0.597  0.618-  79 1.92  32 1.96   7 2.00   4 2.02  28 2.05  15 2.06
  58  0.114  0.597  0.382-  79 1.92  32 1.96   8 2.00   3 2.02  28 2.05  16 2.06
  59  0.613  0.903  0.382-  80 1.92  33 1.96   9 2.00   1 2.02  25 2.06  17 2.08
  60  0.387  0.903  0.618-  80 1.92  33 1.96  10 2.00   2 2.02  25 2.06  18 2.08
  61  0.388  0.095  0.617-  80 1.91  34 1.97  11 1.97  19 2.03   2 2.03  26 2.06
  62  0.612  0.095  0.383-  80 1.91  34 1.97  12 1.97  20 2.03   1 2.03  26 2.06
  63  0.879  0.295  0.128-  36 1.94  30 2.07  13 2.07   5 2.09  20 2.09  21 2.13
  64  0.121  0.295  0.872-  36 1.94  30 2.07  14 2.07   6 2.09  19 2.09  21 2.13
  65  0.152  0.702  0.885-  35 1.89  29 1.97  22 2.03   7 2.05  18 2.05  15 2.18
  66  0.848  0.702  0.115-  35 1.89  29 1.97  22 2.03   8 2.05  17 2.05  16 2.18
  67  0.356  0.791  0.108-  35 1.89  29 1.89  23 2.04  16 2.07  17 2.20   9 2.21
  68  0.644  0.791  0.892-  35 1.89  29 1.89  23 2.04  15 2.07  18 2.20  10 2.21
  69  0.635  0.202  0.878-  36 1.98  19 2.04  30 2.06  24 2.07  11 2.11  14 2.13
  70  0.365  0.202  0.122-  36 1.98  20 2.04  30 2.06  24 2.07  12 2.11  13 2.13
  71  0.642  0.304  0.395-  31 1.89  27 1.92  34 2.03  20 2.10   5 2.10  13 2.13
  72  0.358  0.304  0.605-  31 1.89  27 1.92  34 2.03  19 2.10   6 2.10  14 2.13
  73  0.358  0.696  0.605-  32 1.89  28 1.91  33 2.02   7 2.08  18 2.17  15 2.19
  74  0.642  0.696  0.395-  32 1.89  28 1.91  33 2.02   8 2.08  17 2.17  16 2.19
  75  0.143  0.804  0.394-  33 1.89  25 1.92  32 2.02   9 2.08  16 2.17  17 2.18
  76  0.857  0.804  0.606-  33 1.89  25 1.92  32 2.02  10 2.08  15 2.17  18 2.18
  77  0.858  0.195  0.604-  34 1.88  26 1.91  31 2.03  11 2.09  14 2.21  19 2.24
  78  0.142  0.195  0.396-  34 1.88  26 1.91  31 2.03  12 2.09  13 2.21  20 2.24
  79  0.000  0.501  0.500-  45 1.90  46 1.90  55 1.91  56 1.91  57 1.92  58 1.92   3 2.79   4 2.79
                            32 2.81  31 2.83  28 2.85  28 2.85  27 2.85  27 2.85   5 2.86   6 2.86
  80  0.500  0.999  0.500-  43 1.90  44 1.90  61 1.91  62 1.91  59 1.92  60 1.92  11 2.80  12 2.80
                            33 2.82   2 2.82   1 2.82  34 2.83   9 2.84  10 2.84  25 2.85  25 2.85

  LATTYP: Found a simple monoclinic cell.
 ALAT       =     9.9783659472
 B/A-ratio  =     1.4336421009
 C/A-ratio  =     1.8912591758
 COS(beta)  =    -0.9688288517

  Lattice vectors:

[...]
   0.732E+02 0.188E+02 0.270E+03   -.764E+02 -.183E+02 -.283E+03   0.328E+01 -.519E+00 0.126E+02
   0.382E+01 -.897E+01 0.235E+03   -.344E+01 0.897E+01 -.250E+03   -.379E+00 -.781E-02 0.152E+02
   -.382E+01 -.897E+01 -.235E+03   0.344E+01 0.897E+01 0.250E+03   0.379E+00 -.781E-02 -.152E+02
   0.217E+01 0.959E+01 0.236E+03   -.149E+01 -.970E+01 -.252E+03   -.676E+00 0.109E+00 0.158E+02
   -.217E+01 0.959E+01 -.236E+03   0.149E+01 -.970E+01 0.252E+03   0.676E+00 0.109E+00 -.158E+02
   0.433E+02 0.102E+03 -.275E+03   -.453E+02 -.105E+03 0.288E+03   0.204E+01 0.295E+01 -.133E+02
   -.433E+02 0.102E+03 0.275E+03   0.453E+02 -.105E+03 -.288E+03   -.204E+01 0.295E+01 0.133E+02
   -.547E+02 -.305E+02 0.298E+03   0.577E+02 0.299E+02 -.312E+03   -.301E+01 0.620E+00 0.145E+02
   0.547E+02 -.305E+02 -.298E+03   -.577E+02 0.299E+02 0.312E+03   0.301E+01 0.620E+00 -.145E+02
   0.529E+02 0.598E+02 -.288E+03   -.555E+02 -.639E+02 0.301E+03   0.265E+01 0.409E+01 -.132E+02
   -.529E+02 0.598E+02 0.288E+03   0.555E+02 -.639E+02 -.301E+03   -.265E+01 0.409E+01 0.132E+02
   -.379E+02 -.806E+02 0.254E+03   0.409E+02 0.780E+02 -.269E+03   -.301E+01 0.268E+01 0.147E+02
   0.379E+02 -.806E+02 -.254E+03   -.409E+02 0.780E+02 0.269E+03   0.301E+01 0.268E+01 -.147E+02
   -.155E+02 0.269E+02 0.226E+03   0.170E+02 -.280E+02 -.237E+03   -.145E+01 0.103E+01 0.112E+02
   0.155E+02 0.269E+02 -.226E+03   -.170E+02 -.280E+02 0.237E+03   0.145E+01 0.103E+01 -.112E+02
   0.185E+02 -.101E+02 -.226E+03   -.203E+02 0.109E+02 0.237E+03   0.180E+01 -.793E+00 -.112E+02
   -.185E+02 -.101E+02 0.226E+03   0.203E+02 0.109E+02 -.237E+03   -.180E+01 -.793E+00 0.112E+02
   -.172E+02 0.771E+01 0.230E+03   0.192E+02 -.860E+01 -.241E+03   -.196E+01 0.891E+00 0.112E+02
   0.172E+02 0.771E+01 -.230E+03   -.192E+02 -.860E+01 0.241E+03   0.196E+01 0.891E+00 -.112E+02
[...]
   -.945E+01 -.307E+02 -.268E+03   0.110E+02 0.343E+02 0.283E+03   -.152E+01 -.359E+01 -.141E+02
   0.945E+01 -.307E+02 0.268E+03   -.110E+02 0.343E+02 -.283E+03   0.152E+01 -.359E+01 0.141E+02
   0.247E+02 -.117E+02 0.209E+03   -.315E+02 0.111E+02 -.223E+03   0.679E+01 0.537E+00 0.139E+02
   -.247E+02 -.117E+02 -.209E+03   0.315E+02 0.111E+02 0.223E+03   -.679E+01 0.537E+00 -.139E+02
   0.154E+02 0.310E+02 0.238E+03   -.173E+02 -.325E+02 -.250E+03   0.188E+01 0.156E+01 0.118E+02
   -.154E+02 0.310E+02 -.238E+03   0.173E+02 -.325E+02 0.250E+03   -.188E+01 0.156E+01 -.118E+02
   -.158E+02 -.292E+02 -.235E+03   0.177E+02 0.311E+02 0.248E+03   -.188E+01 -.187E+01 -.127E+02
   0.158E+02 -.292E+02 0.235E+03   -.177E+02 0.311E+02 -.248E+03   0.188E+01 -.187E+01 0.127E+02
   0.145E+02 0.180E+02 0.237E+03   -.166E+02 -.199E+02 -.250E+03   0.210E+01 0.189E+01 0.123E+02
   -.145E+02 0.180E+02 -.237E+03   0.166E+02 -.199E+02 0.250E+03   -.210E+01 0.189E+01 -.123E+02
   -.182E+02 -.268E+02 -.245E+03   0.204E+02 0.291E+02 0.258E+03   -.220E+01 -.232E+01 -.133E+02
   0.182E+02 -.268E+02 0.245E+03   -.204E+02 0.291E+02 -.258E+03   0.220E+01 -.232E+01 0.133E+02
   0.152E-06 0.974E+01 0.220E-05   0.606E-14 -.990E+01 -.100E-12   0.407E-19 0.185E+00 0.000E+00
   -.169E-06 -.836E+01 -.261E-05   0.175E-13 0.840E+01 -.351E-13   -.271E-19 -.549E-01 0.000E+00
   -.322E-05 -.233E+01 0.788E-05   -.846E-14 0.838E-12 -.192E-12   0.444E-15 0.235E+01 0.000E+00

 POSITION                                       TOTAL-FORCE (eV/Angst)
      3.23803     14.28216      2.34901        -0.003400     -0.000401      0.000671
      0.12452     14.28216      7.04573         0.003400     -0.000401     -0.000671
      0.71516      7.14102      2.35610        -0.008409      0.000154     -0.002626
      2.64739      7.14102      7.03863         0.008409      0.000154      0.002626
      3.33407      5.75308      2.35127        -0.000907     -0.000396      0.000855
      0.02848      5.75308      7.04346         0.000907     -0.000396     -0.000855
      0.02035      8.58423      7.04264         0.000335      0.000435     -0.000540
      3.34220      8.58423      2.35209        -0.000335      0.000435      0.000540
      0.84382     12.89497      2.37082         0.001571      0.001458     -0.000239
      2.51873     12.89497      7.02391        -0.001571      0.001458      0.000239
      2.50206      1.36770      6.99465         0.001539      0.001767     -0.002560
      0.86049      1.36770      2.40008        -0.001539      0.001767      0.002560
      0.85588      4.40944      2.42383        -0.005191     -0.000389     -0.000093
      2.50667      4.40944      6.97090         0.005191     -0.000389      0.000093
      2.54001      9.95803      7.02298        -0.000024     -0.000112      0.000193
      0.82255      9.95803      2.37175         0.000024     -0.000112     -0.000193
      3.32360     11.48248      2.36696         0.001987     -0.000951     -0.001022
      0.03895     11.48248      7.02777        -0.001987     -0.000951      0.001022
      0.15571      2.82832      6.96474         0.003748     -0.000067      0.000825
      3.20685      2.82832      2.43000        -0.003748     -0.000067     -0.000825
      0.00000      5.78263      0.00000        -0.000000      0.000588      0.000000
      0.00000      8.59842      0.00000        -0.000000      0.000873      0.000000
      2.48277     12.84924      0.00000        -0.000000      0.000055      0.000000
      2.48277      1.38878      0.00000        -0.000000      0.000791      0.000000
     -0.80149     12.88774      4.69737        -0.000000     -0.001334      0.000000
     -0.80149      1.40481      4.69737        -0.000000      0.001780      0.000000
      1.68128      5.75462      4.69737        -0.000000     -0.003620      0.000000
      1.68128      8.57051      4.69737        -0.000000     -0.005101      0.000000
      0.00000     11.39368      0.00000        -0.000000      0.001763      0.000000
      2.48277      4.36463      0.00000        -0.000000      0.002641      0.000000
     -0.80149      4.33465      4.69737        -0.000000     -0.001682      0.000000
     -0.80149      9.97508      4.69737        -0.000000     -0.002424      0.000000
      1.68128     11.47765      4.69737        -0.000000     -0.002544      0.000000
      1.68128      2.81366      4.69737        -0.000000     -0.000804      0.000000
      2.48277      9.99879      0.00000        -0.000000     -0.001573      0.000000
      0.00000      2.92713      0.00000        -0.000000      0.003777      0.000000
      0.00000     14.20938      0.00000        -0.000000     -0.005238      0.000000
      2.48277      7.16293      0.00000        -0.000000      0.004212      0.000000
      1.54943     14.27320      1.08538        -0.001561      0.003606      0.000472
      1.81312     14.27320      8.30935         0.001561      0.003606     -0.000472
      4.02797      7.17512      1.09757        -0.002572     -0.000564     -0.002528
     -0.66542      7.17512      8.29716         0.002572     -0.000564      0.002528
      0.04670     14.29725      3.73295         0.002088     -0.003603      0.002427
      3.31585     14.29725      5.66178        -0.002088     -0.003603     -0.002427
      2.52875      7.16664      3.73289         0.001169     -0.001186      0.004483
      0.83380      7.16664      5.66184        -0.001169     -0.001186     -0.004483
      1.69110      5.85712      1.11048         0.001000      0.003389     -0.005934
      1.67145      5.85712      8.28425        -0.001000      0.003389      0.005934
      1.62929      8.61986      8.34987         0.000485      0.005373      0.002085
      1.73326      8.61986      1.04486        -0.000485      0.005373     -0.002085
      4.21127     12.91308      1.10742        -0.000345      0.002168     -0.001410
     -0.84871     12.91308      8.28731         0.000345      0.002168      0.001410
     -0.85203      1.36329      8.30033         0.000956      0.003889      0.000027
      4.21459      1.36329      1.09440        -0.000956      0.003889     -0.000027
     -0.05713      5.78617      3.60352        -0.000994     -0.001590      0.002104
      3.41969      5.78617      5.79121         0.000994     -0.001590     -0.002104
      3.40988      8.54223      5.80445         0.000343     -0.001594     -0.000618
     -0.04732      8.54223      3.59029        -0.000343     -0.001594      0.000618
      2.43069     12.91286      3.59027         0.000589     -0.002083      0.000051
      0.93186     12.91286      5.80446        -0.000589     -0.002083     -0.000051
[...]
      4.02669     10.04345      1.08206        -0.002313      0.002746     -0.002317
      1.59460     11.32103      1.01225        -0.002190     -0.000591     -0.002936
      1.76796     11.32103      8.38248         0.002190     -0.000591      0.002936
      1.74417      2.88450      8.24721         0.000141      0.000746     -0.000688
      1.61838      2.88450      1.14752        -0.000141      0.000746      0.000688
      2.55278      4.35550      3.70949         0.000712     -0.001445      0.002347
      0.80977      4.35550      5.68525        -0.000712     -0.001445     -0.002347
      0.80688      9.95412      5.68725        -0.001415     -0.002301     -0.000654
      2.55568      9.95412      3.70749         0.001415     -0.002301      0.000654
      0.07619     11.49959      3.70115         0.001835     -0.001281      0.000656
      3.28636     11.49959      5.69358        -0.001835     -0.001281     -0.000656
      3.29004      2.79124      5.67709        -0.001435     -0.003854     -0.003147
      0.07251      2.79124      3.71765         0.001435     -0.003854      0.003147
     -0.80149      7.16363      4.69737        -0.000000     -0.004536      0.000000
      1.68128     14.29281      4.69737        -0.000000      0.000554      0.000000
    total drift:                               -0.000003      0.025194      0.000008

  FREE ENERGIE OF THE ION-ELECTRON SYSTEM (eV)
  free  energy   TOTEN  =     -1916.4594970404 eV

  energy  without entropy=    -1916.4594630840  energy(sigma->0) =    -1916.45948006

volume of typ            1:    23.4 %

[...]

volume of typ            6:     2.0 %

total charge

# of ion       s       p       d       tot
    1        2.082   0.267   0.111   2.460
    2        2.082   0.267   0.111   2.460
    3        2.085   0.274   0.113   2.472
    4        2.085   0.274   0.113   2.472
    5        2.091   0.292   0.123   2.506
    6        2.091   0.292   0.123   2.506
    7        2.095   0.301   0.127   2.522
    8        2.095   0.301   0.127   2.522
    9        2.092   0.292   0.122   2.506
   10        2.092   0.292   0.122   2.506
   11        2.094   0.302   0.128   2.524
   12        2.094   0.302   0.128   2.524
   13        2.075   0.252   0.103   2.431
   14        2.075   0.252   0.103   2.431
   15        2.073   0.239   0.096   2.408
   16        2.073   0.239   0.096   2.408
   17        2.073   0.236   0.094   2.403
   18        2.073   0.236   0.094   2.403
   19        2.077   0.255   0.104   2.436
   20        2.077   0.255   0.104   2.436
   21        0.209   0.245   7.877   8.331
   22        0.216   0.253   7.860   8.329
   23        0.212   0.247   7.865   8.324
   24        0.208   0.245   7.873   8.327
   25        0.251   0.318   7.804   8.373
   26        0.253   0.322   7.804   8.379
   27        0.251   0.318   7.806   8.376
   28        0.254   0.324   7.804   8.381
   29        0.247   0.318   7.804   8.369
   30        0.206   0.244   7.875   8.325
   31        0.250   0.318   7.795   8.363
   32        0.251   0.321   7.798   8.369
   33        0.252   0.322   7.797   8.370
   34        0.252   0.321   7.799   8.372
   35        0.284   0.396   7.759   8.440
   36        0.297   6.205   1.901   8.403
   37        0.229   6.250   4.562  11.041
   38        0.230   6.251   4.551  11.032
   39        1.255   2.864   0.004   4.124
   40        1.255   2.864   0.004   4.124
   41        1.255   2.866   0.004   4.126
   42        1.255   2.866   0.004   4.126
   43        1.261   2.839   0.006   4.106
   44        1.261   2.839   0.006   4.106
   45        1.263   2.833   0.006   4.102
   46        1.263   2.833   0.006   4.102
   47        1.255   2.858   0.004   4.118
   48        1.255   2.858   0.004   4.118
   49        1.262   2.842   0.005   4.109
   50        1.262   2.842   0.005   4.109
   51        1.259   2.852   0.005   4.116
   52        1.259   2.852   0.005   4.116
   53        1.257   2.875   0.005   4.136
   54        1.257   2.875   0.005   4.136
   55        1.256   2.852   0.004   4.113
   56        1.256   2.852   0.004   4.112
   57        1.257   2.848   0.004   4.108
   58        1.257   2.848   0.004   4.109
   59        1.257   2.848   0.004   4.108
   60        1.257   2.847   0.004   4.108
[...]
   66        1.262   2.831   0.005   4.098
   67        1.264   2.824   0.005   4.093
   68        1.264   2.824   0.005   4.093
   69        1.256   2.874   0.005   4.135
   70        1.256   2.874   0.005   4.135
   71        1.261   2.832   0.005   4.098
   72        1.261   2.832   0.005   4.098
   73        1.263   2.828   0.005   4.096
   74        1.263   2.828   0.005   4.096
   75        1.262   2.828   0.005   4.095
   76        1.262   2.828   0.005   4.095
   77        1.263   2.825   0.005   4.093
   78        1.263   2.825   0.005   4.093
   79        0.250   0.354   6.816   7.420
   80        0.250   0.353   6.817   7.420
tot          96.90  143.23  144.40  384.53

magnetization (x)

# of ion       s       p       d       tot
    1        0.002   0.005   0.001   0.008
    2        0.002   0.005   0.001   0.008
    3        0.003   0.006   0.001   0.009
    4        0.003   0.006   0.001   0.009
    5        0.005   0.010   0.002   0.017
    6        0.005   0.010   0.002   0.017
    7        0.005   0.013   0.003   0.021
    8        0.005   0.013   0.003   0.021
    9        0.005   0.011   0.002   0.019
   10        0.005   0.011   0.002   0.019
   11        0.005   0.012   0.003   0.020
   12        0.005   0.012   0.003   0.020
   13        0.001   0.002  -0.000   0.003
   14        0.001   0.002  -0.000   0.003
   15        0.001   0.001  -0.001   0.002
   16        0.001   0.001  -0.001   0.002
   17        0.001   0.000  -0.001   0.001
   18        0.001   0.000  -0.001   0.001
   19        0.000   0.001  -0.001   0.001
   20        0.000   0.001  -0.001   0.001
   21        0.006   0.002   1.619   1.627
   22        0.004   0.001   1.596   1.601
   23        0.006   0.002   1.624   1.632
   24        0.005   0.001   1.630   1.636
   25        0.004   0.002   0.961   0.966
   26        0.004   0.002   0.944   0.949
   27        0.003   0.002   0.969   0.974
   28        0.004   0.002   0.932   0.938
   29        0.003   0.002   0.955   0.960
   30        0.004   0.000   1.625   1.630
   31        0.002   0.002   0.911   0.915
   32        0.002   0.002   0.911   0.915
   33        0.002   0.002   0.901   0.905
   34        0.002   0.002   0.904   0.908
   35        0.001   0.001   0.064   0.065
   36       -0.001  -0.000  -0.007  -0.008
   37        0.011   0.012   2.657   2.680
   38        0.011   0.012   2.670   2.693
   39        0.011   0.117   0.001   0.129
   40        0.011   0.117   0.001   0.129
   41        0.012   0.122   0.001   0.134
   42        0.012   0.122   0.001   0.134
   43        0.002  -0.046   0.000  -0.044
   44        0.002  -0.046   0.000  -0.044
   45        0.002  -0.051   0.000  -0.048
   46        0.002  -0.050   0.000  -0.048
   47        0.011   0.115   0.001   0.127
   48        0.011   0.115   0.001   0.127
   49        0.006   0.044   0.001   0.051
   50        0.006   0.044   0.001   0.051
   51        0.011   0.109   0.001   0.120
   52        0.011   0.108   0.001   0.120
   53        0.006   0.052   0.000   0.058
   54        0.006   0.052   0.000   0.058
   55        0.011   0.105   0.000   0.116
   56        0.011   0.105   0.000   0.116
   57        0.011   0.100   0.000   0.111
   58        0.011   0.100   0.000   0.111
   59        0.011   0.102   0.000   0.113
   60        0.011   0.103   0.000   0.114
[...]
   66        0.010   0.079   0.000   0.090
   67        0.006   0.000   0.000   0.007
   68        0.006   0.000   0.000   0.007
   69        0.009   0.080   0.000   0.090
   70        0.009   0.080   0.000   0.090
   71        0.007  -0.013   0.000  -0.005
   72        0.007  -0.013   0.000  -0.005
   73        0.007  -0.019   0.000  -0.011
   74        0.007  -0.019   0.000  -0.011
   75        0.007  -0.017   0.000  -0.009
   76        0.007  -0.017   0.000  -0.009
   77        0.007  -0.020   0.000  -0.013
   78        0.007  -0.020   0.000  -0.013
   79       -0.001  -0.001  -0.129  -0.132
   80       -0.002  -0.001  -0.125  -0.128
tot           0.46    2.26   21.65   24.36