 vasp.5.4.4.18Apr17-6-g9f103f2a35 (build May 12 2020 04:58:55) complex

 MD_VERSION_INFO: Compiled 2020-05-12T11:58:55-UTC in devlin.sd.materialsdesign.
 com:/home/medea2/data/build/wwolf/vasp-gpu5.4.4/13047/x86_64/src/src/build/std
 from svn 13047

 executed on                        Lin64 date 2022.11.16  19:16:05

 INCAR:
 POTCAR:    PAW_PBE Li_sv 10Sep2004
 POTCAR:    PAW_PBE Mn_pv 02Aug2007
 POTCAR:    PAW_PBE O 08Apr2002
 POTCAR:    PAW_PBE Co 02Aug2007
 POTCAR:    PAW_PBE Ni 02Aug2007

 POTCAR:    PAW_PBE Li_sv 10Sep2004

 POTCAR:    PAW_PBE Mn_pv 02Aug2007

 POTCAR:    PAW_PBE O 08Apr2002

 POTCAR:    PAW_PBE Co 02Aug2007

 POTCAR:    PAW_PBE Ni 02Aug2007

 Optimization of the real space projectors (new method)

 maximal supplied QI-value         = 22.11
 optimisation between [QCUT,QGAM] = [ 11.28, 22.77] = [ 35.61,145.23] Ry
 Optimized for a Real-space Cutoff    1.10 Angstroem

   l    n(q)    QCUT    max X(q) W(low)/X(q) W(high)/X(q)  e(spline)
   0      7    11.276    10.506    0.54E-04    0.58E-04    0.16E-07
   0      7    11.276     8.367    0.11E-03    0.14E-03    0.35E-07
   1      7    11.276     8.983    0.23E-03    0.43E-03    0.86E-07
 Optimization of the real space projectors (new method)

[...]

   l    n(q)    QCUT    max X(q) W(low)/X(q) W(high)/X(q)  e(spline)
   2      9    11.376    65.824    0.18E-03    0.28E-04    0.14E-06
   2      9    11.376    61.429    0.18E-03    0.29E-04    0.14E-06
   0     10    11.376    56.174    0.51E-04    0.12E-03    0.20E-06
   0     10    11.376    31.263    0.46E-04    0.11E-03    0.18E-06
   1      9    11.376    19.828    0.23E-03    0.17E-03    0.10E-06
   1      9    11.376    15.139    0.20E-03    0.14E-03    0.89E-07
 Optimization of the real space projectors (new method)

 maximal supplied QI-value         = 16.25
 optimisation between [QCUT,QGAM] = [ 11.38, 22.75] = [ 36.24,144.96] Ry
 Optimized for a Real-space Cutoff    1.47 Angstroem

   l    n(q)    QCUT    max X(q) W(low)/X(q) W(high)/X(q)  e(spline)
   2      9    11.376    60.317    0.17E-03    0.16E-04    0.16E-06
   2      9    11.376    55.921    0.17E-03    0.16E-04    0.17E-06
   0     10    11.376    51.690    0.45E-04    0.60E-04    0.21E-06
   0     10    11.376    30.015    0.37E-04    0.55E-04    0.19E-06
   1     10    11.376    18.849    0.83E-04    0.11E-03    0.92E-07
   1     10    11.376    14.624    0.69E-04    0.92E-04    0.82E-07

  PAW_PBE Li_sv 10Sep2004               :
  PAW_PBE Mn_pv 02Aug2007               :
  PAW_PBE O 08Apr2002                   :
  PAW_PBE Co 02Aug2007                  :
  PAW_PBE Ni 02Aug2007                  :

 POSCAR: ce132332_1
  positions in direct lattice

 METAGGA = SCAN     LMAXTAU =  6    LMIXTAU =  T

 ion  position               nearest neighbor table
   1  0.254  0.198  0.753-  30 1.98  22 2.03  38 2.06  14 2.07  45 2.08  37 2.15  52 2.78  62 2.79
                            61 2.81  50 2.82  56 2.83
   2  0.746  0.198  0.247-  31 1.98  23 2.02  15 2.06  39 2.07  44 2.07  36 2.13  52 2.77  62 2.79
                            61 2.80  50 2.82  56 2.84
   3  0.259  0.697  0.257-  26 2.03  42 2.07  41 2.08  18 2.10  33 2.18  34 2.21  54 2.80  60 2.83
                            63 2.83
   4  0.999  0.000  1.000-  16 1.88   6 1.89  17 1.89   7 1.89  15 1.89  14 1.90  50 2.78  57 2.78
                            51 2.78  50 2.78  56 2.79  51 2.79
   5  0.995  0.499  0.498-  20 1.86  21 1.87   8 1.89   9 1.89  19 1.90  18 1.93  59 2.77  49 2.78
                            49 2.78  48 2.79  48 2.79  58 2.80
   6  0.103  0.998  0.371-  51 1.86  50 1.88   4 1.89
   7  0.895  0.999  0.627-  51 1.85  50 1.88   4 1.89
   8  0.098  0.502  0.871-  49 1.86  48 1.86   5 1.89
   9  0.892  0.499  0.127-  48 1.86  49 1.86   5 1.89
  10  0.399  0.999  0.129-  52 1.84  53 1.86  47 1.88
  11  0.604  1.000  0.873-  52 1.84  53 1.85  47 1.88
  12  0.402  0.501  0.629-  55 1.84  54 1.86  46 1.88
  13  0.607  0.498  0.373-  55 1.84  54 1.85  46 1.88
  14  0.104  0.102  0.863-  50 1.85  56 1.88   4 1.90   1 2.07
  15  0.895  0.102  0.137-  50 1.85  56 1.87   4 1.89   2 2.06
  16  0.892  0.900  0.132-  57 1.85  51 1.86   4 1.88
  17  0.098  0.897  0.865-  57 1.86  51 1.86   4 1.89
  18  0.098  0.605  0.360-  58 1.86  48 1.87   5 1.93   3 2.10
  19  0.889  0.601  0.630-  48 1.85  58 1.86   5 1.90
  20  0.894  0.399  0.632-   5 1.86  49 1.87  59 1.87
  21  0.103  0.401  0.366-  49 1.87  59 1.87   5 1.87
  22  0.396  0.102  0.636-  62 1.86  52 1.86  47 1.92   1 2.03
  23  0.604  0.103  0.365-  62 1.85  52 1.86  47 1.91   2 2.02
  24  0.607  0.901  0.369-  63 1.84  47 1.86  53 1.87
  25  0.402  0.897  0.633-  63 1.85  53 1.86  47 1.86
  26  0.403  0.604  0.139-  60 1.85  54 1.87  46 1.90   3 2.03
  27  0.610  0.600  0.871-  60 1.85  54 1.85  46 1.88
  28  0.604  0.399  0.868-  61 1.84  55 1.86  46 1.87
  29  0.399  0.399  0.134-  61 1.84  55 1.86  46 1.88
  30  0.110  0.200  0.399-  59 1.84  50 1.84   1 1.98  56 2.02
  31  0.890  0.200  0.601-  50 1.84  59 1.84   2 1.98  56 2.02
  32  0.890  0.801  0.629-  58 1.86  57 1.86  51 1.87
  33  0.096  0.798  0.361-  58 1.85  57 1.87  51 1.88   3 2.18
  34  0.094  0.700  0.868-  48 1.86  57 1.86  58 1.89   3 2.21
  35  0.888  0.700  0.131-  58 1.86  48 1.87  57 1.87
  36  0.897  0.300  0.136-  59 1.85  56 1.86  49 1.87   2 2.13
  37  0.102  0.301  0.863-  59 1.85  56 1.86  49 1.87   1 2.15
  38  0.395  0.200  0.131-  62 1.88  52 1.89  61 1.89   1 2.06
  39  0.604  0.200  0.869-  62 1.88  61 1.88  52 1.88   2 2.07
  40  0.610  0.801  0.870-  63 1.86  60 1.86  53 1.87
  41  0.402  0.797  0.139-  63 1.87  60 1.87  53 1.89   3 2.08
  42  0.404  0.700  0.631-  54 1.87  63 1.87  60 1.89   3 2.07
  43  0.612  0.700  0.367-  60 1.86  54 1.88  63 1.88
  44  0.605  0.298  0.365-  61 1.86  62 1.86  55 1.90   2 2.07
  45  0.396  0.299  0.636-  61 1.86  62 1.87  55 1.91   1 2.08
  46  0.504  0.500  0.001-  28 1.87  29 1.88  27 1.88  12 1.88  13 1.88  26 1.90  61 2.76  54 2.78
                            60 2.78  55 2.78  55 2.78  54 2.78
  47  0.502  0.999  0.501-  24 1.86  25 1.86  10 1.88  11 1.88  23 1.91  22 1.92  63 2.76  52 2.78
                            53 2.78  52 2.78  53 2.78  62 2.79
  48  0.990  0.601  0.996-  19 1.85   9 1.86  34 1.86   8 1.86  35 1.87  18 1.87  57 2.77  58 2.78
                            49 2.78   5 2.79  58 2.79   5 2.79
  49  0.998  0.400  0.999-   9 1.86   8 1.86  36 1.87  21 1.87  20 1.87  37 1.87  56 2.76   5 2.78
                             5 2.78  59 2.78  59 2.78  48 2.78
  50  1.000  0.100  0.500-  31 1.84  30 1.84  14 1.85  15 1.85   7 1.88   6 1.88  59 2.78   4 2.78
                             4 2.78  51 2.79  56 2.79  56 2.79   2 2.82   1 2.82
  51  0.996  0.900  0.498-   7 1.85   6 1.86  17 1.86  16 1.86  32 1.87  33 1.88  58 2.76  57 2.78
                            57 2.78   4 2.78  50 2.79   4 2.79
  52  0.500  0.098  0.000-  10 1.84  11 1.84  22 1.86  23 1.86  39 1.88  38 1.89  53 2.76   2 2.77
                            47 2.78   1 2.78  47 2.78  62 2.79  62 2.79  61 2.82
  53  0.503  0.900  0.002-  11 1.85  10 1.86  25 1.86  24 1.87  40 1.87  41 1.89  52 2.76  60 2.77
                            63 2.78  47 2.78  63 2.78  47 2.78
  54  0.510  0.600  0.504-  13 1.85  27 1.85  12 1.86  42 1.87  26 1.87  43 1.88  55 2.76  46 2.78
                            60 2.78  46 2.78  63 2.79  60 2.79   3 2.80
  55  0.502  0.400  0.501-  13 1.84  12 1.84  29 1.86  28 1.86  44 1.90  45 1.91  54 2.76  61 2.78
                            61 2.78  46 2.78  46 2.78  62 2.78
  56  0.000  0.201  1.000-  36 1.86  37 1.86  15 1.87  14 1.88  31 2.02  30 2.02  49 2.76  59 2.78
                            59 2.78   4 2.79  50 2.79  50 2.79   1 2.83   2 2.84
  57  0.990  0.800  0.996-  16 1.85  32 1.86  17 1.86  34 1.86  33 1.87  35 1.87  48 2.77  58 2.77
                            51 2.78   4 2.78  58 2.78  51 2.78
  58  0.990  0.701  0.496-  33 1.85  32 1.86  35 1.86  19 1.86  18 1.86  34 1.89  51 2.76  57 2.77
                            48 2.78  57 2.78  48 2.79   5 2.80
  59  1.000  0.300  0.500-  31 1.84  30 1.84  37 1.85  36 1.85  20 1.87  21 1.87   5 2.77  50 2.78
                            56 2.78  56 2.78  49 2.78  49 2.78
  60  0.509  0.700  0.002-  27 1.85  26 1.85  43 1.86  40 1.86  41 1.87  42 1.89  53 2.77  46 2.78
                            54 2.78  63 2.78  63 2.79  54 2.79   3 2.83
  61  0.500  0.301  0.000-  29 1.84  28 1.84  45 1.86  44 1.86  39 1.88  38 1.89  46 2.76  55 2.78
                            55 2.78  62 2.79  62 2.79   2 2.80   1 2.81  52 2.82
  62  0.500  0.200  0.500-  23 1.85  22 1.86  44 1.86  45 1.87  39 1.88  38 1.88  55 2.78   1 2.79
                            47 2.79  61 2.79  61 2.79   2 2.79  52 2.79  52 2.79
  63  0.509  0.800  0.504-  24 1.84  25 1.85  40 1.86  41 1.87  42 1.87  43 1.88  47 2.76  53 2.78
                            53 2.78  60 2.78  54 2.79  60 2.79   3 2.83

  LATTYP: Found a triclinic cell.
 ALAT       =     9.3629097600
 B/A-ratio  =     0.5149976947
 C/A-ratio  =     1.4831088666
 COS(alpha) =     0.0000696018
 COS(beta)  =     0.0008845485
 COS(gamma) =     0.1719061394

  Lattice vectors:

 A1 = (  -9.3629097600,   0.0000000000,   0.0000000000)
 A2 = (  -0.8289102500,  -0.0003976000,   4.7500952500)
 A3 = (  -0.0122830300,  13.8862090500,   0.0000000000)

Analysis of symmetry for initial positions (statically):
 Subroutine PRICEL returns:
 Original cell was already a primitive cell.

 Routine SETGRP: Setting up the symmetry group for a
 triclinic supercell.

 Subroutine GETGRP returns: Found  1 space group operations
 (whereof  1 operations were pure point group operations)
 out of a pool of  2 trial point group operations.

The static configuration has the point symmetry C_1 .

Analysis of symmetry for dynamics (positions and initial velocities):
 Subroutine PRICEL returns:
 Original cell was already a primitive cell.

[...]

The dynamic configuration has the point symmetry C_1 .

Analysis of structural, dynamic, and magnetic symmetry:
 Subroutine PRICEL returns:
 Original cell was already a primitive cell.

 Routine SETGRP: Setting up the symmetry group for a
 triclinic supercell.

 Subroutine GETGRP returns: Found  1 space group operations
 (whereof  1 operations were pure point group operations)
 out of a pool of  2 trial point group operations.

The magnetic configuration has the point symmetry C_1 .

 Subroutine INISYM returns: Found  1 space group operations
 (whereof  1 operations are pure point group operations),
 and found     1 'primitive' translations

 KPOINTS: Automatic mesh

Automatic generation of k-mesh.
Space group operators:
 irot       det(A)        alpha          n_x          n_y          n_z        tau_x        tau_y        tau_z
    1     1.000000     0.000000     1.000000     0.000000     0.000000     0.000000     0.000000     0.000000

 Subroutine IBZKPT returns following result:

 Found      5 irreducible k-points:

 Following reciprocal coordinates:
            Coordinates               Weight
  0.000000  0.000000  0.000000      1.000000
  0.333333  0.000000  0.000000      2.000000
  0.000000  0.000000  0.333333      2.000000
  0.333333  0.000000  0.333333      2.000000
[...]
   0.357E+03 0.342E+02 0.360E+02   -.384E+03 -.351E+02 -.394E+02   0.273E+02 0.921E+00 0.346E+01
   -.323E+03 0.154E+02 -.277E+02   0.351E+03 -.154E+02 0.310E+02   -.275E+02 0.431E-01 -.330E+01
   0.364E+03 -.146E+02 0.377E+02   -.392E+03 0.155E+02 -.413E+02   0.271E+02 -.936E+00 0.362E+01
   -.315E+03 -.158E+01 -.298E+02   0.343E+03 0.117E+01 0.329E+02   -.276E+02 0.410E+00 -.310E+01
   -.371E+03 0.865E+01 -.764E+02   0.395E+03 -.999E+01 0.818E+02   -.235E+02 0.134E+01 -.539E+01
   0.351E+03 -.224E+01 0.725E+02   -.375E+03 0.127E+01 -.777E+02   0.236E+02 0.977E+00 0.521E+01
   0.380E+03 0.359E+02 0.453E+02   -.409E+03 -.359E+02 -.492E+02   0.291E+02 -.513E-01 0.388E+01
   -.422E+03 0.534E+02 -.523E+02   0.451E+03 -.548E+02 0.567E+02   -.283E+02 0.137E+01 -.442E+01
   -.395E+03 -.124E+02 -.684E+02   0.419E+03 0.104E+02 0.734E+02   -.235E+02 0.203E+01 -.500E+01
   0.370E+03 -.300E+02 0.500E+02   -.399E+03 0.300E+02 -.550E+02   0.287E+02 -.357E-01 0.503E+01
   0.386E+03 0.317E+02 0.375E+02   -.415E+03 -.338E+02 -.412E+02   0.287E+02 0.207E+01 0.370E+01
   -.422E+03 0.843E+01 -.475E+02   0.450E+03 -.933E+01 0.515E+02   -.285E+02 0.896E+00 -.399E+01
   0.311E+03 0.775E+02 0.873E+02   -.334E+03 -.822E+02 -.939E+02   0.223E+02 0.475E+01 0.655E+01
   -.292E+03 0.665E+02 -.835E+02   0.314E+03 -.708E+02 0.899E+02   -.223E+02 0.432E+01 -.639E+01
   -.315E+03 -.212E+02 -.613E+02   0.343E+03 0.225E+02 0.653E+02   -.278E+02 -.129E+01 -.398E+01
   0.362E+03 -.594E+01 0.693E+02   -.389E+03 0.578E+01 -.739E+02   0.272E+02 0.168E+00 0.463E+01
   0.335E+03 0.481E+02 0.874E+02   -.357E+03 -.519E+02 -.927E+02   0.217E+02 0.379E+01 0.535E+01
   -.306E+03 0.261E+02 -.670E+02   0.333E+03 -.274E+02 0.725E+02   -.272E+02 0.136E+01 -.548E+01
   -.320E+03 -.368E+02 -.595E+02   0.348E+03 0.376E+02 0.638E+02   -.276E+02 -.839E+00 -.431E+01
   0.356E+03 -.548E+02 0.679E+02   -.384E+03 0.564E+02 -.723E+02   0.274E+02 -.164E+01 0.444E+01
   -.366E+03 -.732E+01 -.392E+00   0.389E+03 0.745E+01 -.298E+01   -.235E+02 -.127E+00 0.337E+01
   0.350E+03 -.523E+01 -.308E+01   -.374E+03 0.530E+01 0.654E+01   0.235E+02 -.735E-01 -.346E+01
   0.346E+03 -.913E+00 0.638E+02   -.375E+03 0.186E+01 -.694E+02   0.291E+02 -.951E+00 0.562E+01
   -.376E+03 -.147E+02 -.807E+02   0.401E+03 0.168E+02 0.858E+02   -.246E+02 -.211E+01 -.511E+01
   -.383E+03 -.670E+01 -.400E+02   0.408E+03 0.685E+01 0.418E+02   -.251E+02 -.156E+00 -.184E+01
   0.349E+03 -.556E+01 0.648E+02   -.379E+03 0.560E+01 -.701E+02   0.291E+02 -.314E-01 0.535E+01
   0.328E+03 -.279E+02 0.867E+02   -.353E+03 0.294E+02 -.921E+02   0.245E+02 -.151E+01 0.539E+01
   -.351E+03 -.413E+02 -.911E+02   0.375E+03 0.434E+02 0.967E+02   -.245E+02 -.207E+01 -.559E+01
   0.341E+03 0.115E+01 0.306E+02   -.364E+03 -.104E+01 -.326E+02   0.230E+02 -.115E+00 0.193E+01
   -.325E+03 0.195E+01 -.272E+02   0.348E+03 -.185E+01 0.290E+02   -.230E+02 -.106E+00 -.186E+01
   -.321E+03 -.913E+01 -.581E+02   0.348E+03 0.993E+01 0.636E+02   -.274E+02 -.796E+00 -.555E+01
   0.351E+03 -.262E+02 0.781E+02   -.373E+03 0.285E+02 -.835E+02   0.224E+02 -.234E+01 0.538E+01
   0.358E+03 0.270E+01 0.284E+02   -.380E+03 -.255E+01 -.294E+02   0.228E+02 -.148E+00 0.100E+01
   -.324E+03 0.136E+01 -.590E+02   0.351E+03 -.120E+01 0.643E+02   -.271E+02 -.165E+00 -.532E+01
   -.307E+03 -.486E+02 -.734E+02   0.330E+03 0.519E+02 0.796E+02   -.230E+02 -.328E+01 -.628E+01
   0.329E+03 -.606E+02 0.778E+02   -.351E+03 0.643E+02 -.842E+02   0.229E+02 -.370E+01 0.644E+01
   0.429E+02 -.201E+02 0.568E+01   -.427E+02 0.201E+02 -.575E+01   -.289E+00 0.138E+00 0.112E+00
   0.299E+02 0.145E+02 0.198E+01   -.299E+02 -.152E+02 -.204E+01   0.190E-02 0.979E+00 0.816E-01
   -.330E+01 -.188E+02 0.357E+01   0.227E+01 0.186E+02 -.393E+01   0.987E+00 0.114E+00 0.381E+00
   -.349E+02 0.571E+01 -.307E+01   0.350E+02 -.640E+01 0.314E+01   -.690E-01 0.644E+00 -.773E-01
   -.232E+02 0.409E+02 -.444E+01   0.233E+02 -.405E+02 0.447E+01   -.101E+00 -.501E+00 -.368E-01
   -.441E+02 0.501E+02 -.669E+01   0.440E+02 -.501E+02 0.669E+01   0.176E+00 -.923E-01 -.245E-01
   0.227E+02 0.563E+02 0.470E+01   -.228E+02 -.575E+02 -.470E+01   0.112E+00 0.130E+01 0.594E-02
   0.463E+02 0.132E+02 0.652E+01   -.462E+02 -.130E+02 -.655E+01   -.165E+00 -.331E+00 0.605E-01
   0.411E+01 0.189E+02 -.483E+01   -.300E+01 -.194E+02 0.523E+01   -.107E+01 0.608E+00 -.416E+00
   0.349E+02 -.263E+02 0.312E+01   -.349E+02 0.269E+02 -.314E+01   0.284E-01 -.832E+00 0.314E-01
   -.215E+02 -.220E+02 -.279E+01   0.215E+02 0.224E+02 0.278E+01   -.348E-01 -.425E+00 0.118E-01
   -.405E+01 0.188E+02 0.541E+01   0.310E+01 -.188E+02 -.571E+01   0.910E+00 -.976E-01 0.308E+00
   -.990E+01 -.230E+02 -.227E+02   0.871E+01 0.232E+02 0.228E+02   0.119E+01 -.230E+00 -.538E-01
   -.258E+02 -.403E+02 -.464E+01   0.259E+02 0.398E+02 0.466E+01   -.140E+00 0.668E+00 -.207E-01
   0.122E+02 0.799E+01 0.252E+02   -.109E+02 -.822E+01 -.253E+02   -.127E+01 0.279E+00 0.102E-01
   0.241E+02 -.555E+02 0.464E+01   -.242E+02 0.566E+02 -.464E+01   0.830E-01 -.119E+01 0.882E-02
   0.206E+02 0.852E+01 0.266E+01   -.206E+02 -.868E+01 -.266E+01   0.414E-01 0.195E+00 -.145E-02
   0.472E+01 -.144E+02 -.597E+01   -.369E+01 0.150E+02 0.636E+01   -.991E+00 -.644E+00 -.397E+00
   0.191E+01 -.466E+01 0.118E+01   -.332E-12 -.128E-12 0.109E-12   -.192E+01 0.463E+01 -.118E+01

 POSITION                                       TOTAL-FORCE (eV/Angst)
      1.74764      2.74398      3.57641        -0.000428      0.002012      0.002000
      6.78193      2.74471      1.17387         0.000827      0.002501     -0.002335
      2.19911      9.68158      1.22154        -0.005647     -0.005972     -0.000693
      8.52057      0.00527      4.74881        -0.003220      0.002651     -0.003104
      8.90099      6.93577      2.36781        -0.007165     -0.001395     -0.001652
      0.64171     13.86438      1.76157         0.003906     -0.000538     -0.002407
      7.84502     13.87711      2.97614        -0.003479     -0.001733     -0.002638
      0.19101      6.97085      4.13621         0.001446     -0.000149     -0.001311
      8.23855      6.92648      0.60163        -0.005745      0.000689     -0.001576
      3.61458     13.87185      0.61500        -0.001353     -0.000241      0.002374
      4.91586     13.88468      4.14674         0.004568     -0.000458      0.000835
      3.24107      6.95441      2.98574        -0.002115     -0.000218      0.001290
      5.36747      6.91490      1.77259         0.004444      0.000680      0.000363
      0.25962      1.40918      4.09713         0.001848     -0.001147      0.000235
      8.26961      1.41839      0.64854        -0.004449      0.000378     -0.001254
      8.23301     12.50254      0.62869        -0.004978     -0.000158     -0.001358
      0.19264     12.45914      4.10785         0.003038      0.002381     -0.000561
      0.60930      8.39540      1.71002         0.002138     -0.002067     -0.000595
      7.79173      8.34537      2.99269        -0.006474      0.000533     -0.000524
      7.84012      5.54601      3.00012        -0.004984      0.000367     -0.000709
      0.65298      5.56679      1.73764         0.000613      0.001962      0.000915
      3.17662      1.41704      3.02166        -0.001149     -0.001634      0.000128
      5.35559      1.42766      1.73207         0.004096     -0.001001      0.001559
      5.36318     12.50565      1.75192         0.004314      0.000263      0.002491
      3.22860     12.46169      3.00854        -0.001576      0.001742      0.000261
      3.64645      8.38123      0.65928        -0.003144     -0.001557     -0.000169
      4.98002      8.33444      4.13517         0.004431     -0.000338      0.001192
      4.93057      5.53388      4.12465         0.005179      0.000528      0.001888
      3.62233      5.54661      0.63684        -0.001067      0.001393     -0.000282
      0.69811      2.78320      1.89717         0.002041     -0.000647     -0.000383
      7.83429      2.78010      2.85342        -0.004373     -0.002307     -0.000857
      7.79873     11.12276      2.98741        -0.003388      0.000124     -0.001766
      0.59245     11.07592      1.71379         0.002505     -0.000698     -0.000865
      0.15265      9.72464      4.12310         0.001837      0.000112     -0.000191
      8.19224      9.72494      0.62411        -0.004817      0.001409     -0.002089
      8.28487      4.16114      0.64575        -0.006271      0.000705     -0.000561
      0.23673      4.17565      4.10045         0.001440      0.001325     -0.000180
      3.58894      2.77453      0.62426        -0.002246     -0.000383      0.000071
      4.93692      2.77480      4.12587         0.005123     -0.000318      0.000319
      4.97955     11.12143      4.13401         0.004817     -0.000831      0.000715
      3.63962     11.07320      0.66020        -0.004659     -0.000623      0.000827
      3.25259      9.71549      2.99737        -0.004589     -0.001011     -0.000242
      5.41840      9.71934      1.74425         0.004700     -0.000374      0.000635
      5.35788      4.13718      1.73244         0.004856      0.000349      0.000611
      3.17325      4.14737      3.02157        -0.002273      0.000520      0.000525
      4.70921      6.94383      0.00700         0.003348      0.000789      0.000267
      4.26946     13.87478      2.37794         0.003427     -0.001304      0.001180
      8.43861      8.33900      4.73008        -0.003273     -0.002889     -0.001068
      8.51060      5.55552      4.74706        -0.001889     -0.000744     -0.000547
      8.94652      1.39392      2.37310        -0.001883      0.003405      0.002118
      8.90458     12.49373      2.36630        -0.002277      0.001434      0.002010
      4.68073      1.36730      0.00189         0.003909     -0.004259      0.001647
      4.69844     12.49276      0.00746         0.003760      0.001734      0.000777
      4.34519      8.32470      2.39508         0.004088     -0.001709      0.001690
      4.27990      5.56055      2.37831         0.003910      0.002517      0.000943
     -0.82834      2.79145      4.74884        -0.000593     -0.001222     -0.000682
      8.43736     11.11154      4.72958        -0.001369     -0.002364     -0.001859
      8.85219      9.73143      2.35834        -0.003382      0.002930     -0.000768
      8.94295      4.16940      2.37310        -0.002196      0.003797     -0.000521
      4.75393      9.71956      0.01149         0.004387     -0.002249      0.000246
      4.68057      4.18258      0.00176         0.003802      0.003801      0.001597
      4.26171      2.77648      2.37615         0.004038     -0.001268      0.000454
      4.33886     11.11418      2.39290         0.003617      0.000778      0.001581
    total drift:                               -0.015901     -0.021020      0.000744

  FREE ENERGIE OF THE ION-ELECTRON SYSTEM (eV)
  free  energy   TOTEN  =     -1635.8442163290 eV

  energy  without entropy=    -1635.8442163290  energy(sigma->0) =    -1635.84421633

volume of typ            1:     3.8 %

[...]

volume of typ            5:    16.5 %

total charge

# of ion       s       p       d       tot
    1        2.084   0.267   0.117   2.468
    2        2.085   0.271   0.118   2.474
    3        2.068   0.222   0.093   2.383
    4        0.238   6.264   4.559  11.061
    5        0.240   6.267   4.564  11.072
    6        1.287   2.778   0.008   4.073
    7        1.288   2.777   0.008   4.072
    8        1.288   2.778   0.008   4.073
    9        1.289   2.776   0.008   4.073
   10        1.286   2.773   0.008   4.067
   11        1.287   2.772   0.008   4.066
   12        1.286   2.771   0.008   4.065
   13        1.287   2.770   0.008   4.065
   14        1.276   2.816   0.007   4.099
   15        1.276   2.818   0.007   4.101
   16        1.289   2.776   0.008   4.073
   17        1.288   2.777   0.008   4.073
   18        1.279   2.805   0.007   4.090
   19        1.289   2.774   0.008   4.071
   20        1.288   2.779   0.008   4.075
   21        1.288   2.778   0.008   4.073
   22        1.277   2.800   0.007   4.085
   23        1.277   2.803   0.007   4.087
   24        1.287   2.771   0.008   4.066
   25        1.286   2.772   0.008   4.066
   26        1.275   2.806   0.007   4.088
   27        1.287   2.771   0.008   4.065
   28        1.287   2.771   0.008   4.066
   29        1.287   2.771   0.008   4.066
   30        1.282   2.791   0.007   4.080
   31        1.282   2.792   0.007   4.081
   32        1.294   2.751   0.008   4.053
   33        1.283   2.784   0.007   4.075
   34        1.283   2.785   0.007   4.075
   35        1.295   2.746   0.008   4.049
   36        1.281   2.795   0.008   4.083
   37        1.281   2.792   0.007   4.081
   38        1.279   2.793   0.007   4.078
   39        1.279   2.794   0.007   4.079
   40        1.289   2.762   0.008   4.059
   41        1.278   2.797   0.007   4.081
   42        1.277   2.800   0.007   4.084
   43        1.290   2.757   0.007   4.055
   44        1.280   2.794   0.007   4.081
   45        1.280   2.792   0.007   4.079
   46        0.264   0.377   6.830   7.471
   47        0.262   0.372   6.829   7.463
   48        0.299   0.425   7.772   8.495
   49        0.293   0.413   7.764   8.470
   50        0.302   0.433   7.779   8.513
   51        0.296   0.419   7.766   8.481
   52        0.302   0.426   7.779   8.507
   53        0.297   0.417   7.765   8.479
   54        0.301   0.423   7.772   8.496
   55        0.295   0.410   7.766   8.471
   56        0.271   0.360   7.810   8.441
   57        0.301   0.427   7.771   8.499
   58        0.299   0.424   7.769   8.493
   59        0.304   0.437   7.776   8.518
   60        0.299   0.421   7.767   8.488
   61        0.303   0.427   7.777   8.507
   62        0.298   0.422   7.767   8.487
   63        0.301   0.425   7.771   8.497
tot          63.37  132.06  147.78  343.21

magnetization (x)

# of ion       s       p       d       tot
    1        0.001   0.003   0.001   0.005
    2        0.001   0.003   0.001   0.005
    3       -0.000  -0.000  -0.000  -0.000
    4        0.014   0.014   2.691   2.719
    5        0.014   0.014   2.676   2.704
    6        0.001   0.002   0.000   0.004
    7        0.001  -0.000   0.000   0.001
    8        0.002   0.004   0.000   0.006
    9        0.002   0.002   0.000   0.004
   10       -0.000  -0.003   0.000  -0.003
   11       -0.000  -0.003   0.000  -0.003
   12       -0.000  -0.005   0.000  -0.005
   13       -0.000  -0.005   0.000  -0.005
   14        0.002   0.008   0.000   0.011
   15        0.002   0.007   0.001   0.010
   16        0.001  -0.000   0.000   0.002
   17        0.001   0.004   0.000   0.006
   18        0.001   0.009   0.000   0.010
   19        0.001  -0.001   0.000   0.001
   20        0.002   0.002   0.000   0.004
   21        0.002   0.003   0.000   0.005
   22        0.000  -0.001   0.000  -0.001
   23        0.000  -0.001   0.000  -0.001
   24        0.000  -0.002   0.000  -0.002
   25        0.000  -0.001   0.000  -0.001
   26        0.000  -0.001   0.000  -0.001
   27        0.000  -0.002   0.000  -0.002
   28        0.000  -0.004   0.000  -0.004
   29       -0.000  -0.004   0.000  -0.004
   30        0.007   0.105   0.000   0.113
   31        0.007   0.104   0.000   0.111
   32        0.000   0.005  -0.000   0.005
   33        0.000   0.007  -0.000   0.008
   34        0.000   0.007  -0.000   0.007
   35        0.000   0.007  -0.000   0.007
   36        0.001  -0.015   0.000  -0.014
   37        0.001  -0.015   0.000  -0.014
   38        0.000   0.000   0.000   0.000
   39        0.000  -0.000   0.000   0.000
   40        0.000  -0.001   0.000  -0.001
   41        0.000  -0.000   0.000  -0.000
   42        0.000  -0.000   0.000  -0.000
   43        0.000  -0.001   0.000  -0.001
   44        0.000  -0.001   0.000  -0.001
   45        0.000  -0.001   0.000  -0.001
   46        0.000   0.000  -0.006  -0.006
   47       -0.000  -0.000  -0.004  -0.004
   48        0.004   0.004   0.029   0.037
   49        0.005   0.005   0.070   0.080
   50        0.003   0.003  -0.020  -0.014
   51        0.004   0.004   0.032   0.040
   52        0.000   0.000   0.006   0.006
   53        0.000   0.000   0.007   0.007
   54        0.000   0.000   0.007   0.007
   55        0.000   0.000   0.016   0.017
   56        0.006   0.002   0.855   0.862
   57        0.002   0.002   0.016   0.020
   58        0.002   0.001   0.015   0.018
   59        0.001   0.002  -0.017  -0.014
   60        0.000   0.000   0.003   0.003
   61        0.000   0.000   0.006   0.006
   62        0.000   0.000   0.003   0.003
   63        0.000   0.000   0.003   0.003
tot           0.10    0.27    6.40    6.76