 vasp.5.4.4.18Apr17-6-g9f103f2a35 (build May 12 2020 04:58:55) complex

 MD_VERSION_INFO: Compiled 2020-05-12T11:58:55-UTC in devlin.sd.materialsdesign.
 com:/home/medea2/data/build/wwolf/vasp-gpu5.4.4/13047/x86_64/src/src/build/std
 from svn 13047

 executed on                        Lin64 date 2022.11.17  22:08:50

 INCAR:
 POTCAR:    PAW_PBE Li_sv 10Sep2004
 POTCAR:    PAW_PBE Ni 02Aug2007
 POTCAR:    PAW_PBE Ta_pv 07Sep2000
 POTCAR:    PAW_PBE Mn_pv 02Aug2007
 POTCAR:    PAW_PBE O 08Apr2002
 POTCAR:    PAW_PBE Co 02Aug2007

 POTCAR:    PAW_PBE Li_sv 10Sep2004

 POTCAR:    PAW_PBE Ni 02Aug2007

 POTCAR:    PAW_PBE Ta_pv 07Sep2000

 POTCAR:    PAW_PBE Mn_pv 02Aug2007

 POTCAR:    PAW_PBE O 08Apr2002

 POTCAR:    PAW_PBE Co 02Aug2007

 Optimization of the real space projectors (new method)

 maximal supplied QI-value         = 22.11
 optimisation between [QCUT,QGAM] = [ 11.28, 22.77] = [ 35.61,145.23] Ry
 Optimized for a Real-space Cutoff    1.10 Angstroem

   l    n(q)    QCUT    max X(q) W(low)/X(q) W(high)/X(q)  e(spline)
   0      7    11.276    10.506    0.54E-04    0.58E-04    0.16E-07
   0      7    11.276     8.367    0.11E-03    0.14E-03    0.35E-07
   1      7    11.276     8.983    0.23E-03    0.43E-03    0.86E-07
 Optimization of the real space projectors (new method)

[...]

   l    n(q)    QCUT    max X(q) W(low)/X(q) W(high)/X(q)  e(spline)
   0      7    11.387    20.381    0.22E-03    0.48E-03    0.18E-06
   0      7    11.387    15.268    0.22E-03    0.52E-03    0.19E-06
   1      7    11.387     5.964    0.22E-03    0.73E-03    0.24E-06
   1      7    11.387     5.382    0.19E-03    0.60E-03    0.21E-06
 Optimization of the real space projectors (new method)

 maximal supplied QI-value         = 16.25
 optimisation between [QCUT,QGAM] = [ 11.38, 22.75] = [ 36.24,144.96] Ry
 Optimized for a Real-space Cutoff    1.43 Angstroem

   l    n(q)    QCUT    max X(q) W(low)/X(q) W(high)/X(q)  e(spline)
   2      9    11.376    65.824    0.18E-03    0.28E-04    0.14E-06
   2      9    11.376    61.429    0.18E-03    0.29E-04    0.14E-06
   0     10    11.376    56.174    0.51E-04    0.12E-03    0.20E-06
   0     10    11.376    31.263    0.46E-04    0.11E-03    0.18E-06
   1      9    11.376    19.828    0.23E-03    0.17E-03    0.10E-06
   1      9    11.376    15.139    0.20E-03    0.14E-03    0.89E-07

  PAW_PBE Li_sv 10Sep2004               :
  PAW_PBE Ni 02Aug2007                  :
  PAW_PBE Ta_pv 07Sep2000               :
  PAW_PBE Mn_pv 02Aug2007               :
  PAW_PBE O 08Apr2002                   :
  PAW_PBE Co 02Aug2007                  :

 POSCAR: ce131328_1
  positions in direct lattice

 METAGGA = SCAN     LMAXTAU =  6    LMIXTAU =  T

 ion  position               nearest neighbor table
   1  0.734  1.000  0.253-  21 2.01  36 2.04  41 2.06  44 2.06  25 2.08  33 2.18  62 2.75   6 2.79
                             7 2.80   8 2.80   5 2.83  19 2.88
   2  0.266  1.000  0.747-  22 2.01  35 2.04  42 2.06  43 2.06  26 2.08  34 2.18  62 2.75   6 2.79
                             7 2.80   8 2.80   5 2.83  19 2.88
   3  0.000  0.405  0.000-  23 1.86  24 1.86  29 1.86  30 1.86  45 1.87  46 1.87   4 2.76  12 2.77
                            12 2.77  20 2.78  20 2.78  18 2.94
   4  0.000  0.602  0.000-  23 1.85  24 1.85  47 1.86  48 1.86  31 1.86  32 1.86  11 2.73   3 2.76
                            17 2.78  17 2.78  20 2.78  20 2.78
   5  0.500  0.894  0.000-  21 1.85  22 1.85  49 1.86  50 1.86  33 1.86  34 1.86  17 2.73  11 2.78
                            11 2.78  19 2.78  19 2.78   2 2.83   1 2.83   6 2.90
   6  0.500  0.100  0.000-  21 2.01  22 2.01  51 2.02  52 2.02  35 2.03  36 2.03  18 2.77  18 2.77
                             1 2.79   2 2.79  19 2.86  19 2.86   5 2.90  12 2.93
   7  0.000  0.899  0.500-  41 1.86  42 1.86  57 1.86  58 1.86  25 1.87  26 1.87  14 2.79  15 2.79
                            15 2.79   2 2.80   1 2.80  62 2.80  62 2.80   8 2.84
   8  0.000  0.101  0.500-  43 1.86  44 1.86  59 1.87  60 1.87  25 1.87  26 1.87  16 2.79  16 2.79
                            13 2.80   2 2.80   1 2.80  62 2.80  62 2.80   7 2.84
   9  0.500  0.400  0.500-  37 1.86  38 1.86  27 1.87  28 1.87  53 1.87  54 1.87  13 2.80  13 2.80
                            61 2.80  61 2.80  16 2.81  10 2.81
  10  0.500  0.600  0.500-  39 1.86  40 1.86  27 1.86  28 1.86  55 1.87  56 1.87  14 2.80  14 2.80
                            61 2.80  61 2.80  15 2.80   9 2.81
  11  0.000  0.796  0.000-  47 1.84  48 1.84  49 1.86  50 1.86  33 1.88  34 1.88   4 2.73  19 2.75
                            17 2.77  17 2.77   5 2.78   5 2.78
  12  0.500  0.308  0.000-  51 1.85  52 1.85  45 1.86  46 1.86  29 1.86  30 1.86  20 2.74   3 2.77
                             3 2.77  18 2.89  18 2.89   6 2.93
  13  0.000  0.300  0.500-  37 1.86  38 1.86  53 1.87  54 1.87  59 1.87  60 1.87  16 2.79  16 2.79
                             9 2.80   9 2.80   8 2.80  61 2.81
  14  0.000  0.700  0.500-  39 1.86  40 1.86  57 1.87  58 1.87  55 1.87  56 1.87   7 2.79  15 2.79
                            15 2.79  10 2.80  10 2.80  61 2.81
  15  0.500  0.800  0.500-  55 1.86  56 1.86  57 1.87  58 1.87  41 1.88  42 1.88   7 2.79   7 2.79
                            14 2.79  14 2.79  10 2.80  62 2.81
  16  0.500  0.200  0.500-  53 1.86  54 1.86  59 1.87  60 1.87  43 1.89  44 1.89   8 2.79   8 2.79
                            13 2.79  13 2.79   9 2.81  62 2.81
  17  0.500  0.699  0.000-  49 1.85  50 1.85  31 1.86  32 1.86  47 1.87  48 1.87   5 2.73  20 2.75
                            11 2.77  11 2.77   4 2.78   4 2.78
  18  0.000  0.196  0.000-  51 1.96  52 1.96  35 1.96  36 1.96  45 2.05  46 2.05   6 2.77   6 2.77
                            19 2.86  12 2.89  12 2.89   3 2.94
  19  0.000  0.992  0.000-  33 1.88  34 1.88  21 1.88  22 1.88  35 1.90  36 1.90  11 2.75   5 2.78
                             5 2.78   6 2.86   6 2.86  18 2.86   1 2.88   2 2.88
  20  0.500  0.504  0.000-  29 1.88  30 1.88  31 1.88  32 1.88  23 1.89  24 1.89  12 2.74  17 2.75
                             4 2.78   4 2.78   3 2.78   3 2.78
  21  0.371  0.989  0.107-   5 1.85  19 1.88   1 2.01   6 2.01
  22  0.629  0.989  0.893-   5 1.85  19 1.88   2 2.01   6 2.01
  23  0.875  0.504  0.105-   4 1.85   3 1.86  20 1.89
  24  0.125  0.504  0.895-   4 1.85   3 1.86  20 1.89
  25  0.121  1.000  0.396-   7 1.87   8 1.87  62 1.91   1 2.08
  26  0.879  1.000  0.604-   7 1.87   8 1.87  62 1.91   2 2.08
  27  0.629  0.500  0.399-  61 1.86  10 1.86   9 1.87
  28  0.371  0.500  0.601-  61 1.86  10 1.86   9 1.87
  29  0.368  0.405  0.106-  12 1.86   3 1.86  20 1.88
  30  0.632  0.405  0.894-  12 1.86   3 1.86  20 1.88
  31  0.632  0.603  0.895-  17 1.86   4 1.86  20 1.88
  32  0.368  0.603  0.105-  17 1.86   4 1.86  20 1.88
  33  0.867  0.894  0.107-   5 1.86  19 1.88  11 1.88   1 2.18
  34  0.133  0.894  0.893-   5 1.86  19 1.88  11 1.88   2 2.18
  35  0.102  0.091  0.881-  19 1.90  18 1.96   6 2.03   2 2.04
  36  0.898  0.091  0.119-  19 1.90  18 1.96   6 2.03   1 2.04
  37  0.129  0.400  0.399-   9 1.86  13 1.86  61 1.87
  38  0.871  0.400  0.601-   9 1.86  13 1.86  61 1.87
  39  0.871  0.600  0.602-  10 1.86  14 1.86  61 1.87
  40  0.129  0.600  0.398-  10 1.86  14 1.86  61 1.87
  41  0.632  0.900  0.396-   7 1.86  15 1.88  62 1.88   1 2.06
  42  0.368  0.900  0.604-   7 1.86  15 1.88  62 1.88   2 2.06
  43  0.368  0.100  0.604-   8 1.86  62 1.88  16 1.89   2 2.06
  44  0.632  0.100  0.396-   8 1.86  62 1.88  16 1.89   1 2.06
  45  0.865  0.309  0.107-  12 1.86   3 1.87  18 2.05
  46  0.135  0.309  0.893-  12 1.86   3 1.87  18 2.05
  47  0.130  0.700  0.896-  11 1.84   4 1.86  17 1.87
  48  0.870  0.700  0.104-  11 1.84   4 1.86  17 1.87
  49  0.369  0.796  0.104-  17 1.85   5 1.86  11 1.86
  50  0.631  0.796  0.896-  17 1.85   5 1.86  11 1.86
  51  0.617  0.212  0.889-  12 1.85  18 1.96   6 2.02
  52  0.383  0.212  0.111-  12 1.85  18 1.96   6 2.02
  53  0.629  0.300  0.398-  16 1.86  13 1.87   9 1.87
  54  0.371  0.300  0.602-  16 1.86  13 1.87   9 1.87
  55  0.371  0.700  0.602-  15 1.86  14 1.87  10 1.87
  56  0.629  0.700  0.398-  15 1.86  14 1.87  10 1.87
  57  0.129  0.800  0.397-   7 1.86  14 1.87  15 1.87
  58  0.871  0.800  0.603-   7 1.86  14 1.87  15 1.87
  59  0.871  0.200  0.603-  16 1.87   8 1.87  13 1.87
  60  0.129  0.200  0.397-  16 1.87   8 1.87  13 1.87
  61  0.000  0.500  0.500-  27 1.86  28 1.86  37 1.87  38 1.87  39 1.87  40 1.87  10 2.80  10 2.80
                             9 2.80   9 2.80  14 2.81  13 2.81
  62  0.500  1.000  0.500-  41 1.88  42 1.88  43 1.88  44 1.88  25 1.91  26 1.91   1 2.75   2 2.75
                             7 2.80   7 2.80   8 2.80   8 2.80  15 2.81  16 2.81

  LATTYP: Found a simple monoclinic cell.
 ALAT       =     9.6371699699
 B/A-ratio  =     1.4570387161
 C/A-ratio  =     1.9000405708
 COS(beta)  =    -0.9681881187

  Lattice vectors:

 A1 = (  -3.0807971200,   0.0000000000,  -9.1314694400)
 A2 = (   0.0000000000, -14.0417297600,   0.0000000000)
 A3 = (   1.3260070200,   0.0000000000,  18.2629388800)

Analysis of symmetry for initial positions (statically):
 Subroutine PRICEL returns:
 Original cell was already a primitive cell.

 Routine SETGRP: Setting up the symmetry group for a
 simple monoclinic supercell.

 Subroutine GETGRP returns: Found  2 space group operations
 (whereof  2 operations were pure point group operations)
 out of a pool of  4 trial point group operations.

The static configuration has the point symmetry C_2 .

Analysis of symmetry for dynamics (positions and initial velocities):
 Subroutine PRICEL returns:
 Original cell was already a primitive cell.

[...]

The dynamic configuration has the point symmetry C_2 .

Analysis of structural, dynamic, and magnetic symmetry:
 Subroutine PRICEL returns:
 Original cell was already a primitive cell.

 Routine SETGRP: Setting up the symmetry group for a
 simple monoclinic supercell.

 Subroutine GETGRP returns: Found  2 space group operations
 (whereof  2 operations were pure point group operations)
 out of a pool of  4 trial point group operations.

The magnetic configuration has the point symmetry C_2 .

 Subroutine INISYM returns: Found  2 space group operations
 (whereof  2 operations are pure point group operations),
 and found     1 'primitive' translations

 KPOINTS: Automatic mesh

Automatic generation of k-mesh.
Space group operators:
 irot       det(A)        alpha          n_x          n_y          n_z        tau_x        tau_y        tau_z
    1     1.000000     0.000000     1.000000     0.000000     0.000000     0.000000     0.000000     0.000000
    2     1.000000   179.999999     0.000000     1.000000     0.000000     0.000000     0.000000     0.000000

 Subroutine IBZKPT returns following result:

 Found      5 irreducible k-points:

 Following reciprocal coordinates:
            Coordinates               Weight
  0.000000  0.000000  0.000000      1.000000
  0.333333  0.000000 -0.000000      2.000000
  0.000000  0.000000  0.333333      2.000000
  0.333333  0.000000  0.333333      2.000000
 -0.333333  0.000000  0.333333      2.000000

 Following cartesian coordinates:
            Coordinates               Weight
[...]
   -.518E-07 0.259E+02 -.705E-06   -.581E-13 -.264E+02 -.264E-13   -.407E-19 0.421E+00 0.000E+00
   0.932E-07 -.732E+02 0.127E-05   -.189E-12 0.736E+02 0.485E-15   -.407E-19 -.411E+00 0.000E+00
   -.328E-06 -.597E+01 -.439E-05   -.768E-13 0.594E+01 0.174E-13   0.000E+00 0.378E-01 0.000E+00
   0.306E-06 0.462E+02 0.411E-05   -.794E-13 -.462E+02 -.168E-13   0.136E-19 -.413E-01 0.000E+00
   -.204E-07 0.443E+02 -.308E-06   -.203E-13 -.447E+02 -.663E-13   0.000E+00 0.558E+00 0.000E+00
   -.572E-06 0.861E+02 -.794E-05   0.114E-12 -.865E+02 -.424E-13   0.000E+00 0.458E+00 0.000E+00
   -.818E-07 -.304E+02 -.111E-05   0.540E-13 0.302E+02 0.282E-13   0.000E+00 0.118E+00 0.000E+00
   0.904E-07 0.556E+02 0.123E-05   0.116E-12 -.554E+02 -.574E-13   0.000E+00 -.138E+00 0.000E+00
   -.246E-06 0.231E+02 -.330E-05   -.896E-13 -.227E+02 -.577E-13   0.136E-19 -.345E+00 0.000E+00
   0.220E-06 -.300E+02 0.296E-05   -.268E-13 0.295E+02 0.171E-12   0.000E+00 0.327E+00 0.000E+00
   0.161E-06 0.174E+02 0.224E-05   -.121E-12 -.171E+02 -.151E-12   0.271E-19 -.251E+00 0.000E+00
   -.314E-07 -.763E+02 0.881E-06   -.116E-12 0.786E+02 -.224E-13   0.000E+00 -.225E+01 0.000E+00
   -.437E-06 -.137E+03 0.676E-05   -.111E-12 0.136E+03 0.645E-13   0.000E+00 0.132E+01 0.000E+00
   0.400E-06 0.434E+02 -.647E-05   -.211E-13 -.436E+02 -.178E-12   0.000E+00 0.198E+00 0.000E+00
   -.282E+02 -.725E+02 -.351E+03   0.280E+02 0.757E+02 0.373E+03   0.253E+00 -.319E+01 -.212E+02
   0.282E+02 -.725E+02 0.351E+03   -.280E+02 0.757E+02 -.373E+03   -.253E+00 -.319E+01 0.212E+02
   -.320E+02 0.220E+02 -.411E+03   0.328E+02 -.223E+02 0.439E+03   -.796E+00 0.306E+00 -.287E+02
   0.320E+02 0.220E+02 0.411E+03   -.328E+02 -.223E+02 -.439E+03   0.796E+00 0.306E+00 0.287E+02
   -.502E+02 -.199E+02 0.305E+03   0.539E+02 0.200E+02 -.328E+03   -.370E+01 -.105E+00 0.231E+02
   0.502E+02 -.199E+02 -.305E+03   -.539E+02 0.200E+02 0.328E+03   0.370E+01 -.105E+00 -.231E+02
   -.155E+02 0.149E+02 0.326E+03   0.150E+02 -.149E+02 -.353E+03   0.488E+00 0.679E-01 0.270E+02
   0.155E+02 0.149E+02 -.326E+03   -.150E+02 -.149E+02 0.353E+03   -.488E+00 0.679E-01 -.270E+02
   0.270E+02 0.628E+02 -.402E+03   -.280E+02 -.641E+02 0.431E+03   0.976E+00 0.124E+01 -.289E+02
   -.270E+02 0.628E+02 0.402E+03   0.280E+02 -.641E+02 -.431E+03   -.976E+00 0.124E+01 0.289E+02
   -.204E+02 -.148E+02 0.409E+03   0.214E+02 0.156E+02 -.437E+03   -.989E+00 -.838E+00 0.287E+02
   0.204E+02 -.148E+02 -.409E+03   -.214E+02 0.156E+02 0.437E+03   0.989E+00 -.838E+00 -.287E+02
   0.950E+01 0.593E+02 -.379E+03   -.893E+01 -.628E+02 0.405E+03   -.573E+00 0.349E+01 -.258E+02
   -.950E+01 0.593E+02 0.379E+03   0.893E+01 -.628E+02 -.405E+03   0.573E+00 0.349E+01 0.258E+02
   -.180E+02 -.133E+03 0.324E+03   0.209E+02 0.132E+03 -.347E+03   -.288E+01 0.167E+01 0.233E+02
   0.180E+02 -.133E+03 -.324E+03   -.209E+02 0.132E+03 0.347E+03   0.288E+01 0.167E+01 -.233E+02
   0.976E+01 -.125E+02 0.334E+03   -.972E+01 0.123E+02 -.361E+03   -.431E-01 0.175E+00 0.274E+02
   -.976E+01 -.125E+02 -.334E+03   0.972E+01 0.123E+02 0.361E+03   0.431E-01 0.175E+00 -.274E+02
   -.999E+01 0.390E+02 -.330E+03   0.994E+01 -.389E+02 0.357E+03   0.496E-01 -.138E+00 -.272E+02
   0.999E+01 0.390E+02 0.330E+03   -.994E+01 -.389E+02 -.357E+03   -.496E-01 -.138E+00 0.272E+02
   0.314E+02 0.174E+02 0.303E+03   -.335E+02 -.196E+02 -.326E+03   0.207E+01 0.219E+01 0.235E+02
   -.314E+02 0.174E+02 -.303E+03   0.335E+02 -.196E+02 0.326E+03   -.207E+01 0.219E+01 -.235E+02
   -.331E+02 -.483E+02 -.316E+03   0.351E+02 0.507E+02 0.339E+03   -.207E+01 -.234E+01 -.232E+02
   0.331E+02 -.483E+02 0.316E+03   -.351E+02 0.507E+02 -.339E+03   0.207E+01 -.234E+01 0.232E+02
   -.253E+02 0.530E+02 -.344E+03   0.244E+02 -.504E+02 0.371E+03   0.856E+00 -.264E+01 -.278E+02
   0.253E+02 0.530E+02 0.344E+03   -.244E+02 -.504E+02 -.371E+03   -.856E+00 -.264E+01 0.278E+02
   -.286E+01 0.213E+02 0.385E+03   0.346E+01 -.218E+02 -.414E+03   -.608E+00 0.456E+00 0.294E+02
   0.286E+01 0.213E+02 -.385E+03   -.346E+01 -.218E+02 0.414E+03   0.608E+00 0.456E+00 -.294E+02
   0.348E+01 0.282E+02 -.381E+03   -.393E+01 -.281E+02 0.410E+03   0.444E+00 -.102E+00 -.292E+02
   -.348E+01 0.282E+02 0.381E+03   0.393E+01 -.281E+02 -.410E+03   -.444E+00 -.102E+00 0.292E+02
   -.859E+00 0.908E+01 0.320E+03   -.617E+01 -.103E+02 -.346E+03   0.703E+01 0.124E+01 0.263E+02
   0.859E+00 0.908E+01 -.320E+03   0.617E+01 -.103E+02 0.346E+03   -.703E+01 0.124E+01 -.263E+02
   -.103E+01 -.144E+02 0.347E+03   0.975E+00 0.145E+02 -.376E+03   0.526E-01 -.895E-01 0.284E+02
   0.103E+01 -.144E+02 -.347E+03   -.975E+00 0.145E+02 0.376E+03   -.526E-01 -.895E-01 -.284E+02
   0.744E+00 0.300E+02 -.340E+03   -.665E+00 -.301E+02 0.368E+03   -.784E-01 0.129E+00 -.281E+02
   -.744E+00 0.300E+02 0.340E+03   0.665E+00 -.301E+02 -.368E+03   0.784E-01 0.129E+00 0.281E+02
   -.546E+01 0.267E+02 0.340E+03   0.551E+01 -.268E+02 -.368E+03   -.496E-01 0.133E+00 0.279E+02
   0.546E+01 0.267E+02 -.340E+03   -.551E+01 -.268E+02 0.368E+03   0.496E-01 0.133E+00 -.279E+02
   0.424E+01 -.331E+02 -.353E+03   -.421E+01 0.332E+02 0.380E+03   -.294E-01 -.146E+00 -.273E+02
   -.424E+01 -.331E+02 0.353E+03   0.421E+01 0.332E+02 -.380E+03   0.294E-01 -.146E+00 0.273E+02
   0.154E-07 0.208E+02 0.107E-06   0.651E-13 -.208E+02 -.404E-14   0.000E+00 0.442E-02 0.000E+00
   -.484E-07 -.296E+02 -.541E-06   0.804E-13 0.296E+02 0.467E-13   0.000E+00 0.198E-02 0.000E+00
   0.246E-06 -.302E+01 -.113E-04   -.153E-12 0.853E-12 -.128E-12   0.000E+00 0.293E+01 0.000E+00

 POSITION                                       TOTAL-FORCE (eV/Angst)
      3.10650     14.03666      2.30601         0.001261     -0.003297     -0.001018
     -0.02571     14.03666      6.82545        -0.001261     -0.003297      0.001018
      0.00000      5.69036      0.00000        -0.000000      0.016979      0.000000
      0.00000      8.44872      0.00000        -0.000000      0.010688      0.000000
      2.41779     12.54797      0.00000        -0.000000     -0.003096      0.000000
      2.41779      1.40483      0.00000        -0.000000      0.003835      0.000000
     -0.87740     12.62007      4.56573        -0.000000     -0.000519      0.000000
     -0.87740      1.41356      4.56573        -0.000000     -0.011680      0.000000
      1.54040      5.61502      4.56573        -0.000000      0.004317      0.000000
      1.54040      8.42952      4.56573        -0.000000      0.001896      0.000000
      0.00000     11.18066      0.00000        -0.000000      0.004060      0.000000
      2.41779      4.33077      0.00000        -0.000000      0.009429      0.000000
     -0.87740      4.21137      4.56573        -0.000000     -0.004379      0.000000
     -0.87740      9.83220      4.56573        -0.000000      0.000027      0.000000
      1.54040     11.23056      4.56573        -0.000000      0.000221      0.000000
      1.54040      2.80920      4.56573        -0.000000     -0.010346      0.000000
      2.41779      9.82170      0.00000        -0.000000      0.021404      0.000000
      0.00000      2.74865      0.00000        -0.000000     -0.013914      0.000000
      0.00000     13.92650      0.00000        -0.000000      0.010766      0.000000
      2.41779      7.07057      0.00000        -0.000000     -0.018834      0.000000
      1.60364     13.88695      0.97838        -0.003502     -0.006178      0.006503
      1.47716     13.88695      8.15309         0.003502     -0.006178     -0.006503
      4.04702      7.07420      0.95982        -0.000001     -0.003256      0.003693
     -0.96623      7.07420      8.17165         0.000001     -0.003256     -0.003693
     -0.11135     14.03544      3.61295        -0.000805     -0.000783      0.008576
      3.19215     14.03544      5.51852         0.000805     -0.000783     -0.008576
      2.34068      7.02367      3.63935         0.007488     -0.004532      0.003976
      0.74011      7.02367      5.49212        -0.007488     -0.004532     -0.003976
      1.59368      5.69012      0.96525         0.000729      0.003825      0.000612
      1.48712      5.69012      8.16622        -0.000729      0.003825     -0.000612
      1.48600      8.46588      8.16923         0.003756     -0.000674     -0.008418
      1.59480      8.46588      0.96224        -0.003756     -0.000674      0.008418
      4.00337     12.55738      0.97730        -0.003863     -0.002928      0.006541
     -0.92257     12.55738      8.15417         0.003863     -0.002928     -0.006541
     -1.04993      1.27674      8.04111        -0.005606      0.004488      0.004777
      4.13073      1.27674      1.09036         0.005606      0.004488     -0.004777
     -0.07379      5.61326      3.64040        -0.002028      0.005913      0.003071
      3.15459      5.61326      5.49106         0.002028      0.005913     -0.003071
      3.15427      8.43176      5.49292         0.001726     -0.013007     -0.004089
     -0.07347      8.43176      3.63854        -0.001726     -0.013007      0.004089
      2.36036     12.63263      3.61778        -0.000498     -0.002722      0.006026
      0.72044     12.63263      5.51369         0.000498     -0.002722     -0.006026
      0.72203      1.40053      5.51504         0.002199      0.001592     -0.006357
      2.35877      1.40053      3.61643        -0.002199      0.001592      0.006357
      3.99476      4.34153      0.97783        -0.004770      0.006783      0.003064
     -0.91396      4.34153      8.15364         0.004770      0.006783     -0.003064
     -0.94523      9.82698      8.18337        -0.000820     -0.000755     -0.003613
      4.02603      9.82698      0.94810         0.000820     -0.000755      0.003613
      1.59940     11.17939      0.95290        -0.000362     -0.006330      0.002880
      1.48140     11.17939      8.17857         0.000362     -0.006330     -0.002880
      1.42365      2.98074      8.11956         0.001067      0.015292     -0.004830
      1.65715      2.98074      1.01191        -0.001067      0.015292      0.004830
      2.34096      4.20736      3.63470         0.000896      0.003172      0.001293
      0.73984      4.20736      5.49677        -0.000896      0.003172     -0.001293
      0.73786      9.83554      5.50029         0.000580     -0.006307     -0.002610
      2.34294      9.83554      3.63118        -0.000580     -0.006307      0.002610
     -0.07073     11.22643      3.62536        -0.000058     -0.004881      0.002877
      3.15152     11.22643      5.50611         0.000058     -0.004881     -0.002877
      3.15280      2.81188      5.50565         0.000656      0.004324     -0.003628
     -0.07200      2.81188      3.62582        -0.000656      0.004324      0.003628
     -0.87740      7.02228      4.56573        -0.000000      0.005267      0.000000
      1.54040     14.03733      4.56573        -0.000000     -0.005599      0.000000
    total drift:                                0.000000     -0.087950     -0.000011

  FREE ENERGIE OF THE ION-ELECTRON SYSTEM (eV)
  free  energy   TOTEN  =     -1774.5133709042 eV

  energy  without entropy=    -1774.5093529297  energy(sigma->0) =    -1774.51136192

volume of typ            1:     2.5 %

[...]

volume of typ            6:     2.1 %

total charge

# of ion       s       p       d       tot
    1        2.078   0.257   0.112   2.447
    2        2.078   0.257   0.112   2.447
    3        0.294   0.420   7.770   8.483
    4        0.300   0.428   7.771   8.498
    5        0.302   0.434   7.780   8.516
    6        0.221   0.266   7.863   8.351
    7        0.300   0.423   7.774   8.497
    8        0.299   0.419   7.772   8.489
    9        0.297   0.415   7.762   8.473
   10        0.297   0.415   7.761   8.473
   11        0.298   0.422   7.765   8.486
   12        0.296   0.431   7.775   8.502
   13        0.297   0.416   7.761   8.473
   14        0.298   0.417   7.761   8.476
   15        0.294   0.410   7.755   8.459
   16        0.293   0.408   7.753   8.454
   17        0.302   0.430   7.772   8.503
   18        0.295   6.198   1.898   8.391
   19        0.237   6.272   4.580  11.088
   20        0.243   6.274   4.572  11.090
   21        1.273   2.820   0.006   4.100
   22        1.273   2.820   0.006   4.099
   23        1.288   2.779   0.008   4.075
   24        1.288   2.779   0.008   4.074
   25        1.278   2.794   0.007   4.079
   26        1.278   2.794   0.007   4.079
   27        1.289   2.765   0.008   4.061
   28        1.289   2.765   0.008   4.061
   29        1.288   2.781   0.008   4.076
   30        1.288   2.780   0.008   4.076
   31        1.287   2.782   0.008   4.077
   32        1.287   2.782   0.008   4.077
   33        1.280   2.803   0.007   4.091
   34        1.280   2.803   0.007   4.090
   35        1.270   2.853   0.007   4.130
   36        1.270   2.853   0.007   4.130
   37        1.289   2.764   0.008   4.061
   38        1.289   2.764   0.008   4.061
   39        1.289   2.765   0.008   4.062
   40        1.289   2.765   0.008   4.061
   41        1.277   2.801   0.007   4.085
   42        1.277   2.801   0.007   4.085
   43        1.276   2.801   0.007   4.084
   44        1.276   2.801   0.007   4.084
   45        1.283   2.803   0.007   4.093
   46        1.283   2.803   0.007   4.093
   47        1.293   2.755   0.008   4.056
   48        1.293   2.755   0.008   4.056
   49        1.292   2.760   0.008   4.061
   50        1.292   2.760   0.008   4.060
   51        1.280   2.818   0.008   4.106
   52        1.280   2.819   0.008   4.106
   53        1.293   2.751   0.008   4.051
   54        1.293   2.751   0.008   4.051
   55        1.292   2.753   0.008   4.053
   56        1.292   2.753   0.008   4.052
   57        1.291   2.758   0.008   4.056
   58        1.291   2.758   0.008   4.056
   59        1.290   2.760   0.007   4.057
   60        1.290   2.759   0.007   4.057
   61        0.281   0.411   6.729   7.421
   62        0.261   0.371   6.836   7.468
tot          61.26  137.53  141.73  340.51

magnetization (x)

# of ion       s       p       d       tot
    1        0.000  -0.001  -0.000  -0.001
    2        0.000  -0.001  -0.000  -0.001
    3        0.004   0.004   0.013   0.021
    4        0.004   0.004   0.018   0.026
    5        0.003   0.003   0.005   0.012
    6        0.006   0.002   1.577   1.584
    7       -0.000  -0.000  -0.000  -0.000
    8       -0.000  -0.000  -0.004  -0.004
    9        0.000   0.001  -0.037  -0.035
   10        0.000   0.001  -0.035  -0.034
   11        0.001   0.001  -0.007  -0.005
   12        0.002   0.002   0.010   0.013
   13        0.000   0.000  -0.018  -0.018
   14        0.000   0.000  -0.021  -0.021
   15       -0.000  -0.000  -0.013  -0.014
   16       -0.000  -0.000  -0.014  -0.014
   17        0.002   0.001   0.015   0.018
   18        0.001   0.000  -0.008  -0.007
   19        0.012   0.013   2.641   2.667
   20        0.014   0.014   2.673   2.702
   21        0.006   0.080   0.001   0.087
   22        0.006   0.080   0.001   0.087
   23        0.001   0.007   0.000   0.009
   24        0.001   0.007   0.000   0.009
   25        0.000   0.001   0.000   0.001
   26        0.000   0.001   0.000   0.001
   27        0.001   0.037  -0.000   0.038
   28        0.001   0.037  -0.000   0.038
   29        0.002   0.013   0.000   0.015
   30        0.002   0.013   0.000   0.015
   31        0.002   0.011   0.000   0.013
   32        0.002   0.011   0.000   0.013
   33        0.001   0.008   0.000   0.010
   34        0.001   0.008   0.000   0.010
   35        0.006   0.073   0.000   0.079
   36        0.006   0.073   0.000   0.079
   37        0.001   0.030  -0.000   0.031
   38        0.001   0.030  -0.000   0.031
   39        0.001   0.029  -0.000   0.030
   40        0.001   0.029  -0.000   0.030
   41        0.000   0.002  -0.000   0.002
   42        0.000   0.002  -0.000   0.002
   43        0.000   0.002  -0.000   0.002
   44        0.000   0.002  -0.000   0.002
   45        0.000   0.008  -0.000   0.008
   46        0.000   0.008  -0.000   0.008
   47        0.000   0.013  -0.000   0.013
   48        0.000   0.013  -0.000   0.013
   49        0.000   0.007   0.000   0.008
   50        0.000   0.007   0.000   0.008
   51        0.005   0.054   0.000   0.059
   52        0.005   0.054   0.000   0.059
   53       -0.000   0.011  -0.000   0.011
   54       -0.000   0.011  -0.000   0.011
   55       -0.000   0.010  -0.000   0.010
   56       -0.000   0.010  -0.000   0.010
   57       -0.000   0.003  -0.000   0.003
   58       -0.000   0.003  -0.000   0.003
   59        0.000   0.002  -0.000   0.002
   60        0.000   0.002  -0.000   0.002
   61        0.005   0.002   0.767   0.773
   62        0.000   0.000   0.004   0.004
tot           0.11    0.85    7.57    8.53