 vasp.5.4.4.18Apr17-6-g9f103f2a35 (build May 12 2020 05:39:39) gamma-only

 MD_VERSION_INFO: Compiled 2020-05-12T12:39:39-UTC in devlin.sd.materialsdesign.
 com:/home/medea2/data/build/wwolf/vasp-gpu5.4.4/13047/x86_64/src/src/build/gam
 from svn 13047

 executed on                        Lin64 date 2023.01.20  00:51:46

 INCAR:
 POTCAR:    PAW_PBE Li_sv 10Sep2004
 POTCAR:    PAW_PBE Ni 02Aug2007
 POTCAR:    PAW_PBE O 08Apr2002

 POTCAR:    PAW_PBE Li_sv 10Sep2004

 POTCAR:    PAW_PBE Ni 02Aug2007

 POTCAR:    PAW_PBE O 08Apr2002

 Optimization of the real space projectors (new method)

 maximal supplied QI-value         = 22.11
 optimisation between [QCUT,QGAM] = [ 11.28, 22.77] = [ 35.61,145.23] Ry
 Optimized for a Real-space Cutoff    1.10 Angstroem

   l    n(q)    QCUT    max X(q) W(low)/X(q) W(high)/X(q)  e(spline)
   0      7    11.276    10.506    0.54E-04    0.58E-04    0.16E-07
   0      7    11.276     8.367    0.11E-03    0.14E-03    0.35E-07
   1      7    11.276     8.983    0.23E-03    0.43E-03    0.86E-07
 Optimization of the real space projectors (new method)

[...]

   l    n(q)    QCUT    max X(q) W(low)/X(q) W(high)/X(q)  e(spline)
   2      9    11.376    60.317    0.17E-03    0.16E-04    0.16E-06
   2      9    11.376    55.921    0.17E-03    0.16E-04    0.17E-06
   0     10    11.376    51.690    0.45E-04    0.60E-04    0.21E-06
   0     10    11.376    30.015    0.37E-04    0.55E-04    0.19E-06
   1     10    11.376    18.849    0.83E-04    0.11E-03    0.92E-07
   1     10    11.376    14.624    0.69E-04    0.92E-04    0.82E-07
 Optimization of the real space projectors (new method)

 maximal supplied QI-value         = 24.76
 optimisation between [QCUT,QGAM] = [ 11.39, 22.77] = [ 36.31,145.25] Ry
 Optimized for a Real-space Cutoff    1.10 Angstroem

   l    n(q)    QCUT    max X(q) W(low)/X(q) W(high)/X(q)  e(spline)
   0      7    11.387    20.381    0.22E-03    0.48E-03    0.18E-06
   0      7    11.387    15.268    0.22E-03    0.52E-03    0.19E-06
   1      7    11.387     5.964    0.22E-03    0.73E-03    0.24E-06
   1      7    11.387     5.382    0.19E-03    0.60E-03    0.21E-06

  PAW_PBE Li_sv 10Sep2004               :
  PAW_PBE Ni 02Aug2007                  :
  PAW_PBE O 08Apr2002                   :

 POSCAR: ce425762_1
  positions in direct lattice
 exchange correlation table for  LEXCH =       14
   RHO(1)=    0.500       N(1)  =     2000
   RHO(2)=  100.500       N(2)  =     4000

 ion  position               nearest neighbor table
   1  0.998  0.498  0.997-  82 2.09  69 2.11  81 2.11  46 2.11  34 2.11  33 2.12
   2  0.113  0.835  0.225-  53 2.09  48 2.11  54 2.11  35 2.11  47 2.11  30 2.12
   3  1.000  0.003  0.999-  68 1.86  80 1.86  83 1.87  47 1.87  35 1.87  32 1.87  21 2.78  27 2.78
                             9 2.79   6 2.79  12 2.80  15 2.80
   4  0.111  0.330  0.223-  49 1.86  55 1.86  52 1.87  34 1.87  46 1.87  31 1.87  16 2.78  13 2.78
                             7 2.79  10 2.79  22 2.80  28 2.80
   5  0.224  0.667  0.111-  36 1.86  39 1.86  54 1.86  69 1.86  30 1.87  33 1.87   8 2.77  23 2.78
                            17 2.78  14 2.80  29 2.80  11 2.81
   6  0.333  0.001  0.000-  74 1.86  41 1.86  71 1.87  68 1.87  38 1.87  35 1.89  21 2.79  18 2.79
                             3 2.79  15 2.79   9 2.79  24 2.79
   7  0.444  0.333  0.222-  61 1.86  40 1.86  58 1.87  55 1.87  37 1.87  34 1.89  16 2.79  25 2.79
                             4 2.79  22 2.79  10 2.79  19 2.79
   8  0.556  0.667  0.111-  42 1.86  36 1.86  45 1.86  39 1.86  60 1.87  75 1.87  11 2.77   5 2.77
                            17 2.79  26 2.79  20 2.79  23 2.79
   9  0.667  0.001  0.000-  74 1.86  41 1.86  77 1.87  80 1.87  44 1.87  47 1.89  27 2.79  18 2.79
                             3 2.79  12 2.79   6 2.79  24 2.79
  10  0.778  0.333  0.222-  61 1.86  40 1.86  64 1.87  49 1.87  43 1.87  46 1.89  13 2.79  25 2.79
                             4 2.79  28 2.79   7 2.79  19 2.79
  11  0.887  0.667  0.111-  42 1.86  45 1.86  48 1.86  81 1.86  30 1.87  33 1.87   8 2.77  20 2.78
                            26 2.78  29 2.80  14 2.80   5 2.81
  12  1.000  0.004  0.334-  50 1.86  44 1.86  65 1.86  32 1.87  47 1.87  53 1.87  18 2.78  21 2.78
                             9 2.79  24 2.79   3 2.80  15 2.80
  13  0.111  0.332  0.555-  67 1.86  49 1.86  70 1.86  52 1.86  64 1.87  73 1.87  22 2.78   4 2.78
                            19 2.78  10 2.79  16 2.79  25 2.79
  14  0.223  0.664  0.445-  57 1.85  51 1.85  72 1.87  54 1.87  48 1.87  33 1.90  23 2.78  26 2.78
                            20 2.78  17 2.78   5 2.80  11 2.80
  15  0.334  0.004  0.334-  56 1.86  38 1.86  59 1.86  32 1.87  35 1.87  53 1.87  18 2.78  27 2.78
                             6 2.79  24 2.79   3 2.80  12 2.80
  16  0.445  0.332  0.555-  79 1.86  55 1.86  76 1.86  52 1.86  58 1.87  73 1.87  28 2.78   4 2.78
                            19 2.78   7 2.79  13 2.79  25 2.79
  17  0.555  0.668  0.445-  78 1.86  63 1.86  60 1.86  39 1.87  57 1.87  54 1.89  26 2.78   5 2.78
                            29 2.78  14 2.78   8 2.79  20 2.79
  18  0.666  0.002  0.333-  44 1.86  38 1.86  59 1.86  65 1.86  41 1.87  62 1.87  12 2.78  15 2.78
                             9 2.79   6 2.79  21 2.79  27 2.79
  19  0.778  0.333  0.556-  61 1.86  64 1.86  58 1.86  67 1.87  79 1.87  82 1.89  13 2.78  16 2.78
                            10 2.79   7 2.79  22 2.79  28 2.79
  20  0.889  0.668  0.445-  66 1.86  63 1.86  60 1.86  45 1.87  51 1.87  48 1.89  23 2.78  11 2.78
                            29 2.78  14 2.78   8 2.79  17 2.79
  21  0.000  0.002  0.667-  50 1.86  68 1.86  65 1.86  83 1.86  71 1.87  62 1.87  12 2.78   3 2.78
                            24 2.78   6 2.79  27 2.79  18 2.79
  22  0.112  0.330  0.888-  67 1.86  37 1.86  70 1.86  31 1.87  34 1.87  82 1.87  25 2.78  13 2.78
                             7 2.79  19 2.79   4 2.80  28 2.80
  23  0.222  0.666  0.778-  51 1.86  72 1.86  75 1.86  36 1.87  66 1.87  69 1.89  20 2.78   5 2.78
                            14 2.78  29 2.78   8 2.79  26 2.79
  24  0.333  0.000  0.667-  74 1.86  71 1.86  77 1.86  50 1.87  56 1.87  53 1.89  21 2.78  27 2.78
                             6 2.79   9 2.79  12 2.79  15 2.79
  25  0.445  0.332  0.889-  37 1.86  43 1.86  70 1.86  76 1.86  40 1.87  73 1.87  22 2.78  28 2.78
                             7 2.79  10 2.79  16 2.79  13 2.79
  26  0.556  0.666  0.778-  57 1.86  72 1.86  75 1.86  42 1.87  78 1.87  81 1.89  17 2.78  11 2.78
                            14 2.78  29 2.78   8 2.79  23 2.79
  27  0.666  0.002  0.667-  56 1.86  80 1.86  59 1.86  83 1.86  77 1.87  62 1.87  15 2.78   3 2.78
                            24 2.78   9 2.79  21 2.79  18 2.79
  28  0.777  0.330  0.888-  79 1.86  43 1.86  76 1.86  31 1.87  46 1.87  82 1.87  25 2.78  16 2.78
                            10 2.79  19 2.79   4 2.80  22 2.80
  29  0.889  0.670  0.777-  78 1.85  66 1.85  63 1.87  81 1.87  69 1.87  30 1.90  17 2.78  20 2.78
                            26 2.78  23 2.78  11 2.80   5 2.80
  30  0.002  0.736  0.005-  11 1.87   5 1.87  29 1.90   2 2.12
  31  0.000  0.263  0.000-  28 1.87  22 1.87   4 1.87
  32  0.111  0.071  0.222-  15 1.87  12 1.87   3 1.87
  33  0.109  0.597  0.217-   5 1.87  11 1.87  14 1.90   1 2.12
  34  0.217  0.399  0.109-   4 1.87  22 1.87   7 1.89   1 2.11
  35  0.220  0.934  0.114-   3 1.87  15 1.87   6 1.89   2 2.11
  36  0.333  0.734  0.999-   5 1.86   8 1.86  23 1.87
  37  0.335  0.264  0.001-  22 1.86  25 1.86   7 1.87
  38  0.445  0.069  0.221-  15 1.86  18 1.86   6 1.87
  39  0.445  0.600  0.223-   5 1.86   8 1.86  17 1.87
  40  0.555  0.399  0.111-  10 1.86   7 1.86  25 1.87
  41  0.556  0.934  0.112-   9 1.86   6 1.86  18 1.87
  42  0.666  0.734  0.999-  11 1.86   8 1.86  26 1.87
  43  0.666  0.264  0.001-  28 1.86  25 1.86  10 1.87
  44  0.776  0.069  0.221-  12 1.86  18 1.86   9 1.87
  45  0.778  0.600  0.223-  11 1.86   8 1.86  20 1.87
  46  0.891  0.399  0.109-   4 1.87  28 1.87  10 1.89   1 2.11
  47  0.894  0.934  0.114-   3 1.87  12 1.87   9 1.89   2 2.11
  48  0.003  0.735  0.332-  11 1.86  14 1.87  20 1.89   2 2.11
  49  0.999  0.265  0.334-   4 1.86  13 1.86  10 1.87
  50  0.112  0.069  0.557-  12 1.86  21 1.86  24 1.87
  51  0.110  0.599  0.556-  14 1.85  23 1.86  20 1.87
  52  0.222  0.398  0.443-  16 1.86  13 1.86   4 1.87
  53  0.220  0.934  0.440-  15 1.87  12 1.87  24 1.89   2 2.09
  54  0.329  0.735  0.332-   5 1.86  14 1.87  17 1.89   2 2.11
  55  0.334  0.265  0.334-   4 1.86  16 1.86   7 1.87
  56  0.445  0.069  0.557-  15 1.86  27 1.86  24 1.87
  57  0.446  0.599  0.556-  14 1.85  26 1.86  17 1.87
  58  0.555  0.400  0.444-  19 1.86   7 1.87  16 1.87
  59  0.555  0.935  0.444-  18 1.86  27 1.86  15 1.86
  60  0.667  0.734  0.333-  17 1.86  20 1.86   8 1.87
  61  0.667  0.266  0.334-  10 1.86   7 1.86  19 1.86
  62  0.778  0.069  0.555-  18 1.87  21 1.87  27 1.87
  63  0.778  0.601  0.556-  20 1.86  17 1.86  29 1.87
  64  0.889  0.400  0.444-  19 1.86  10 1.87  13 1.87
  65  0.889  0.935  0.444-  18 1.86  21 1.86  12 1.86
  66  0.001  0.735  0.666-  29 1.85  20 1.86  23 1.87
  67  0.999  0.265  0.666-  22 1.86  13 1.86  19 1.87
  68  0.112  0.069  0.888-   3 1.86  21 1.86   6 1.87
  69  0.108  0.599  0.890-   5 1.86  29 1.87  23 1.89   1 2.11
  70  0.222  0.398  0.778-  25 1.86  13 1.86  22 1.86
  71  0.222  0.934  0.778-  24 1.86   6 1.87  21 1.87
  72  0.333  0.732  0.666-  23 1.86  26 1.86  14 1.87
  73  0.333  0.265  0.667-  25 1.87  13 1.87  16 1.87
  74  0.444  0.067  0.889-   6 1.86   9 1.86  24 1.86
  75  0.445  0.599  0.889-  23 1.86  26 1.86   8 1.87
  76  0.556  0.398  0.778-  25 1.86  16 1.86  28 1.86
  77  0.556  0.934  0.778-  24 1.86   9 1.87  27 1.87
  78  0.665  0.735  0.666-  29 1.85  17 1.86  26 1.87
  79  0.666  0.265  0.666-  28 1.86  16 1.86  19 1.87
  80  0.777  0.069  0.888-   3 1.86  27 1.86   9 1.87
  81  0.782  0.599  0.890-  11 1.86  29 1.87  26 1.89   1 2.11
  82  0.891  0.399  0.782-  28 1.87  22 1.87  19 1.89   1 2.09
  83  0.889  0.935  0.779-  27 1.86  21 1.86   3 1.87

  LATTYP: Found a base centered monoclinic cell.
 ALAT       =    14.4875852703
 B/A-ratio  =     0.5771274580
 C/A-ratio  =     1.3931434225
 COS(beta)  =    -0.6225514732

  Lattice vectors:

 A1 = (   4.1830109896,   7.2423939710,   0.0052105455)
 A2 = (   8.3636026094,   0.0013968572,   0.0052105455)
 A3 = ( -12.5551767899,  -7.2487347907, -14.0423765042)

Analysis of symmetry for initial positions (statically):
 Subroutine PRICEL returns:
 Original cell was already a primitive cell.

 Routine SETGRP: Setting up the symmetry group for a
 base centered monoclinic supercell.

 Subroutine GETGRP returns: Found  4 space group operations
 (whereof  2 operations were pure point group operations)
 out of a pool of  4 trial point group operations.

The static configuration has the point symmetry C_1h.
 The point group associated with its full space group is C_2h.

Analysis of symmetry for dynamics (positions and initial velocities):
 Subroutine PRICEL returns:
 Original cell was already a primitive cell.

[...]

The dynamic configuration has the point symmetry C_1h.
[...]
   -.116E+00 -.976E+01 0.367E+03   -.930E-01 0.105E+02 -.395E+03   0.243E+00 -.733E+00 0.284E+02   -.340E-01 -.404E-01 0.739E-02
   -.694E+01 -.354E+01 -.369E+03   0.770E+01 0.362E+01 0.397E+03   -.732E+00 -.553E-01 -.283E+02   -.303E-01 -.193E-01 0.117E-01
   -.792E-01 -.734E+01 0.381E+03   -.237E+00 0.807E+01 -.409E+03   0.322E+00 -.694E+00 0.281E+02   -.469E-02 -.325E-01 0.702E-02
   0.638E+00 -.650E+00 -.385E+03   -.592E+00 0.531E+00 0.413E+03   -.201E-01 0.141E+00 -.278E+02   -.239E-01 -.244E-01 0.261E-01
   0.132E-01 -.110E+02 0.382E+03   0.139E-01 0.110E+02 -.409E+03   -.168E-01 0.722E-01 0.279E+02   -.954E-02 -.338E-01 -.191E-01
   0.160E+00 0.922E-01 -.378E+03   -.194E+00 -.112E+00 0.406E+03   0.532E-01 0.307E-01 -.277E+02   -.260E-01 -.150E-01 -.675E-02
[...]
   0.956E+01 -.553E+01 -.382E+03   -.954E+01 0.549E+01 0.409E+03   -.542E-01 0.507E-01 -.279E+02   0.341E-01 -.866E-02 0.191E-01
   0.244E+00 -.877E+00 0.385E+03   -.164E+00 0.778E+00 -.413E+03   -.112E+00 0.880E-01 0.278E+02   0.331E-01 0.850E-02 -.261E-01
   -.860E+01 -.497E+01 -.376E+03   0.851E+01 0.492E+01 0.404E+03   0.116E+00 0.670E-01 -.272E+02   -.288E-01 -.167E-01 -.786E-02
   -.120E+01 -.692E+00 0.366E+03   0.117E+01 0.676E+00 -.394E+03   0.308E-01 0.178E-01 0.278E+02   0.252E-03 0.146E-03 -.213E-01
   0.630E+00 0.364E+00 -.367E+03   -.706E+00 -.408E+00 0.395E+03   0.425E-01 0.245E-01 -.279E+02   0.326E-01 0.188E-01 0.651E-02
   -.160E+00 -.922E-01 0.378E+03   0.194E+00 0.112E+00 -.406E+03   -.532E-01 -.307E-01 0.277E+02   0.260E-01 0.150E-01 0.674E-02
   -.131E-01 0.110E+02 -.382E+03   -.138E-01 -.110E+02 0.409E+03   0.168E-01 -.722E-01 -.279E+02   0.954E-02 0.338E-01 0.191E-01
   -.638E+00 0.650E+00 0.385E+03   0.592E+00 -.531E+00 -.413E+03   0.201E-01 -.141E+00 0.278E+02   0.239E-01 0.244E-01 -.261E-01
   0.790E-01 0.734E+01 -.381E+03   0.237E+00 -.807E+01 0.409E+03   -.322E+00 0.694E+00 -.281E+02   0.469E-02 0.325E-01 -.702E-02
   0.694E+01 0.354E+01 0.369E+03   -.770E+01 -.362E+01 -.397E+03   0.732E+00 0.553E-01 0.283E+02   0.303E-01 0.193E-01 -.117E-01
   0.116E+00 0.976E+01 -.367E+03   0.931E-01 -.105E+02 0.395E+03   -.243E+00 0.733E+00 -.284E+02   0.340E-01 0.404E-01 -.739E-02
   0.605E+01 0.440E+02 0.351E+03   -.661E+01 -.469E+02 -.374E+03   0.579E+00 0.285E+01 0.233E+02   -.217E-01 0.241E-01 0.110E-01
   0.362E+02 0.209E+02 -.354E+03   -.387E+02 -.223E+02 0.377E+03   0.243E+01 0.140E+01 -.230E+02   0.442E-01 0.255E-01 0.488E-02
   0.102E+02 0.589E+01 0.380E+03   -.102E+02 -.587E+01 -.408E+03   -.771E-01 -.445E-01 0.279E+02   0.452E-01 0.261E-01 -.178E-01
   -.565E-03 -.325E-03 -.155E-02   0.277E-12 0.462E-13 0.227E-12   -.111E-14 0.173E-15 -.107E-13   0.956E-06 0.549E-06 -.150E-06

 POSITION                                       TOTAL-FORCE (eV/Angst)
      4.16675      7.23177      7.00202         0.003500      0.002021      0.005622
      1.42075      0.82027     11.72057        -0.003500     -0.002021     -0.005622
      4.17756      7.23801      0.05444         0.006497      0.003751      0.001448
      1.40085      0.80878      4.63128        -0.006497     -0.003751     -0.001448
      0.00096      1.62161      9.35853         0.005101     -0.008836     -0.000000
     -1.39225      2.41250      0.00824         0.006690     -0.003585      0.006174
      0.00354      3.21836      4.67195        -0.000241     -0.007586     -0.006174
     -1.38687      4.02539      9.35853         0.000000      0.000000      0.000000
     -2.78636      4.82717      0.00824         0.000241      0.007586      0.006174
     -1.39057      5.63303      4.67195        -0.006690      0.003585     -0.006174
     -2.77469      6.42917      9.35853        -0.005101      0.008836      0.000000
     -1.38738      7.23655      0.05242        -0.004956      0.004890      0.002058
      4.18363      0.80456      4.66028         0.000739      0.004334     -0.007834
      2.79722      1.61497      9.32029        -0.016572     -0.009568     -0.004849
      1.39383      2.41936      0.05242         0.001757     -0.006737      0.002058
      2.78858      3.22085      4.66028         0.004123     -0.001527     -0.007834
      1.40251      4.02332      9.37364        -0.006875     -0.009009      0.002998
     -0.00097      4.82553      0.02491         0.003981      0.002298      0.006961
      1.39786      5.63315      4.67522         0.007557      0.004363     -0.006452
      0.00603      6.44209      9.37364        -0.011239     -0.001449      0.002998
      5.57430      0.00309      0.02544        -0.000739     -0.004334      0.007834
      6.96579      0.81024      4.63330         0.004956     -0.004890     -0.002058
      5.58148      1.60995      9.34895         0.011239      0.001449     -0.002998
      4.18055      2.41364      0.01050        -0.007557     -0.004363      0.006452
      5.57939      3.22126      4.66081        -0.003981     -0.002298     -0.006961
      4.18499      4.02873      9.34895         0.006875      0.009009     -0.002998
      2.78983      4.82594      0.02544        -0.004123      0.001527      0.007834
      4.18458      5.62743      4.63330        -0.001757      0.006737     -0.002058
      2.79029      6.43707      9.40230         0.016572      0.009568      0.004849
      0.03871      0.02235     10.33384         0.002865      0.001654      0.010415
      0.00320      0.00185      3.68701         0.000286      0.000165     -0.009349
      1.39349      0.80453      0.99317        -0.000286     -0.000165      0.009349
      1.36708      0.78928      8.38322        -0.002865     -0.001654     -0.010415
      0.00245      1.57618      5.60433        -0.002255      0.001394     -0.010592
      0.03955      1.59760     13.11273        -0.000080      0.002650      0.010592
      6.96910      2.41847     10.30332         0.007781      0.000567      0.003844
     -1.38940      2.42463      3.71002        -0.001295     -0.002789     -0.011699
     -0.00839      3.22195      0.97016         0.003063     -0.000273      0.011699
      0.00850      3.22586      8.41927        -0.004382     -0.006455     -0.003844
     -1.39251      4.02213      5.60628        -0.002573     -0.001486     -0.009724
     -1.38123      4.02864     13.11078         0.002573      0.001486      0.009724
      5.57901      4.82618     10.30332         0.004382      0.006455      0.003844
     -2.77443      4.82357      3.71002        -0.003063      0.000273     -0.011699
     -1.39342      5.62090      0.97016         0.001295      0.002789      0.011699
     -1.38159      5.63357      8.41927        -0.007781     -0.000567     -0.003844
     -2.81329      6.45317      5.60433         0.000080     -0.002650     -0.010592
     -2.77618      6.47460     13.11273         0.002255     -0.001394      0.010592
      2.76887      0.02706     10.31215        -0.005942     -0.000452      0.000771
     -1.38306      7.23698      3.71543         0.000314      0.000284     -0.010699
      4.18675      0.81061      0.96789         0.000311     -0.002233      0.011965
      4.19371      0.80316      8.40788         0.001188      0.000684     -0.000186
      2.78437      1.60756      5.59502        -0.000445     -0.000257     -0.006536
      2.76851      1.59840     13.11159         0.001087      0.000628      0.009641
      1.40787      2.38438     10.31215        -0.003362     -0.004920      0.000771
      1.39636      2.42288      3.71543         0.000403      0.000130     -0.010699
      2.79538      3.22052      0.96789        -0.001778      0.001386      0.011965
      2.79241      3.23027      8.40788         0.001186      0.000686     -0.000186
      1.39892      4.02326      5.61245         0.001572     -0.002290     -0.007847
      1.40352      4.02221     13.12778         0.000647     -0.000443      0.003895
      0.00506      4.82902     10.30966        -0.007248     -0.004185     -0.000670
[...]
      6.99816      0.78584      8.41044         0.005942      0.000452     -0.000771
      5.58193      1.60852      5.59481         0.000060     -0.000781     -0.003895
      5.58332      1.61304     13.11014         0.001198     -0.002506      0.007847
      4.18346      2.41532     10.27911         0.001191      0.000688      0.002105
      4.18481      2.41610      3.71895         0.002372      0.001369     -0.013438
      5.57401      3.21816      0.94391        -0.000837     -0.000483      0.009366
      5.58244      3.22302      8.41293         0.007248      0.004185      0.000670
      4.18399      4.02983      5.59481        -0.000647      0.000443     -0.003895
      4.18859      4.02878     13.11014        -0.001572      0.002290      0.007847
      2.79509      4.82177     10.31471        -0.001186     -0.000686      0.000186
      2.78303      4.82627      3.71783         0.001778     -0.001386     -0.011965
      4.18205      5.62391      0.97029        -0.000403     -0.000130      0.010699
      4.17964      5.66766      8.41044         0.003362      0.004920     -0.000771
      2.81900      6.45364      5.61100        -0.001087     -0.000628     -0.009641
      2.80313      6.44449     13.12757         0.000445      0.000257      0.006536
    total drift:                               -0.000564     -0.000325     -0.001547

  FREE ENERGIE OF THE ION-ELECTRON SYSTEM (eV)
  free  energy   TOTEN  =      -518.0493928124 eV

  energy  without entropy=     -517.9972649943  energy(sigma->0) =     -518.02332890

 d Force = 0.7179902E-03[-0.807E-04, 0.152E-02]  d Energy = 0.7866721E-03-0.687E-04
 d Force =-0.2484045E+01[-0.250E+01,-0.247E+01]  d Ewald  =-0.3572179E+00-0.213E+01

 Quasi-Newton relaxation of ions (Broydens 2nd method)
  g(Force)  = 0.364E-03   g(Stress)= 0.339E-03

 retain information from N=  2 steps
 eigenvalues of (default step * inverse Hessian matrix)
  average eigenvalue of G=   3.5603
 eigenvalue spectrum of G is  0.4427  6.6780

 reached required accuracy - stopping structural energy minimisation

volume of typ            1:     1.8 %

[...]

volume of typ            3:    10.4 %

total charge

# of ion       s       p       d       tot
    1        2.070   0.228   0.091   2.389
    2        2.070   0.228   0.091   2.389
    3        0.304   0.428   7.821   8.553
    4        0.304   0.428   7.821   8.553
    5        0.304   0.428   7.831   8.562
    6        0.299   0.418   7.819   8.536
    7        0.299   0.418   7.819   8.536
    8        0.303   0.426   7.817   8.546
    9        0.299   0.418   7.819   8.536
   10        0.299   0.418   7.819   8.536
   11        0.304   0.428   7.831   8.562
   12        0.303   0.426   7.823   8.553
   13        0.303   0.426   7.819   8.548
   14        0.299   0.418   7.824   8.541
   15        0.303   0.426   7.823   8.553
   16        0.303   0.426   7.819   8.548
   17        0.299   0.417   7.820   8.537
   18        0.303   0.427   7.818   8.549
   19        0.299   0.418   7.820   8.538
   20        0.299   0.417   7.820   8.537
   21        0.303   0.426   7.819   8.548
   22        0.303   0.426   7.823   8.553
   23        0.299   0.417   7.820   8.537
   24        0.299   0.418   7.820   8.538
   25        0.303   0.427   7.818   8.549
   26        0.299   0.417   7.820   8.537
   27        0.303   0.426   7.819   8.548
   28        0.303   0.426   7.823   8.553
   29        0.299   0.418   7.824   8.541
   30        1.276   2.751   0.007   4.034
   31        1.286   2.720   0.008   4.014
   32        1.286   2.720   0.008   4.014
   33        1.276   2.751   0.007   4.034
   34        1.274   2.755   0.007   4.036
   35        1.274   2.755   0.007   4.036
   36        1.285   2.724   0.008   4.018
   37        1.286   2.722   0.008   4.016
   38        1.286   2.722   0.008   4.016
   39        1.285   2.724   0.008   4.018
   40        1.286   2.723   0.008   4.017
   41        1.286   2.723   0.008   4.017
   42        1.285   2.724   0.008   4.018
   43        1.286   2.722   0.008   4.016
   44        1.286   2.722   0.008   4.016
   45        1.285   2.724   0.008   4.018
   46        1.274   2.755   0.007   4.036
   47        1.274   2.755   0.007   4.036
   48        1.275   2.755   0.007   4.037
   49        1.286   2.722   0.008   4.017
   50        1.286   2.722   0.008   4.017
   51        1.286   2.723   0.008   4.017
   52        1.285   2.724   0.008   4.017
   53        1.275   2.755   0.007   4.037
   54        1.275   2.755   0.007   4.037
   55        1.286   2.722   0.008   4.017
   56        1.286   2.722   0.008   4.017
   57        1.286   2.723   0.008   4.017
   58        1.286   2.722   0.008   4.016
   59        1.285   2.724   0.008   4.018
   60        1.286   2.721   0.008   4.015
[...]
   69        1.275   2.755   0.007   4.037
   70        1.285   2.724   0.008   4.018
   71        1.286   2.722   0.008   4.016
   72        1.289   2.716   0.008   4.013
   73        1.287   2.720   0.008   4.015
   74        1.289   2.715   0.008   4.013
   75        1.286   2.721   0.008   4.015
   76        1.285   2.724   0.008   4.018
   77        1.286   2.722   0.008   4.016
   78        1.286   2.723   0.008   4.017
   79        1.286   2.722   0.008   4.017
   80        1.286   2.722   0.008   4.017
   81        1.275   2.755   0.007   4.037
   82        1.275   2.755   0.007   4.037
   83        1.285   2.724   0.008   4.017
tot          81.60  159.23  211.79  452.62

magnetization (x)

# of ion       s       p       d       tot
    1        0.004   0.002  -0.000   0.005
    2        0.004   0.002  -0.000   0.005
    3       -0.000  -0.000   0.019   0.019
    4       -0.000  -0.000   0.019   0.019
    5       -0.000  -0.000   0.074   0.073
    6       -0.000  -0.000   0.059   0.059
    7       -0.000  -0.000   0.059   0.059
    8       -0.000  -0.000   0.022   0.022
    9       -0.000  -0.000   0.059   0.059
   10       -0.000  -0.000   0.059   0.059
   11       -0.000  -0.000   0.074   0.073
   12       -0.000  -0.000   0.044   0.044
   13       -0.000  -0.000   0.025   0.025
   14       -0.000  -0.000   0.095   0.095
   15       -0.000  -0.000   0.044   0.044
   16       -0.000  -0.000   0.025   0.025
   17       -0.000  -0.000   0.071   0.071
   18       -0.000  -0.000   0.022   0.022
   19       -0.000  -0.000   0.056   0.056
   20       -0.000  -0.000   0.071   0.071
   21       -0.000  -0.000   0.025   0.025
   22       -0.000  -0.000   0.044   0.044
   23       -0.000  -0.000   0.071   0.071
   24       -0.000  -0.000   0.056   0.056
   25       -0.000  -0.000   0.022   0.022
   26       -0.000  -0.000   0.071   0.071
   27       -0.000  -0.000   0.025   0.025
   28       -0.000  -0.000   0.044   0.044
   29       -0.000  -0.000   0.095   0.095
   30        0.003   0.011   0.000   0.014
   31        0.001   0.002   0.000   0.002
   32        0.001   0.002   0.000   0.002
   33        0.003   0.011   0.000   0.014
   34        0.001   0.004   0.000   0.006
   35        0.001   0.004   0.000   0.006
   36        0.001   0.003   0.000   0.004
   37        0.001   0.006   0.000   0.007
   38        0.001   0.006   0.000   0.007
   39        0.001   0.003   0.000   0.004
   40        0.001   0.000   0.000   0.001
   41        0.001   0.000   0.000   0.001
   42        0.001   0.003   0.000   0.004
   43        0.001   0.006   0.000   0.007
   44        0.001   0.006   0.000   0.007
   45        0.001   0.003   0.000   0.004
   46        0.001   0.004   0.000   0.006
   47        0.001   0.004   0.000   0.006
   48        0.002   0.009   0.000   0.012
   49        0.000   0.001   0.000   0.002
   50        0.001   0.000   0.000   0.001
   51        0.001   0.001   0.000   0.002
   52        0.000   0.002   0.000   0.002
   53        0.002   0.008   0.000   0.010
   54        0.002   0.009   0.000   0.012
   55        0.000   0.001   0.000   0.002
   56        0.001   0.000   0.000   0.001
   57        0.001   0.001   0.000   0.002
   58        0.001   0.004   0.000   0.005
   59        0.000   0.001   0.000   0.001
   60        0.001   0.009   0.000   0.010
[...]
   69        0.002   0.009   0.000   0.012
   70        0.000   0.001   0.000   0.001
   71        0.001   0.004   0.000   0.005
   72        0.004   0.040   0.000   0.043
   73        0.001   0.008   0.000   0.009
   74        0.003   0.023   0.000   0.026
   75        0.001   0.009   0.000   0.010
   76        0.000   0.001   0.000   0.001
   77        0.001   0.004   0.000   0.005
   78        0.001   0.001   0.000   0.002
   79        0.001   0.000   0.000   0.001
   80        0.000   0.001   0.000   0.002
   81        0.002   0.009   0.000   0.012
   82        0.002   0.008   0.000   0.010
   83        0.000   0.002   0.000   0.002
tot           0.07    0.32    1.35    1.75