 vasp.5.4.4.18Apr17-6-g9f103f2a35 (build May 12 2020 04:58:55) complex

 MD_VERSION_INFO: Compiled 2020-05-12T11:58:55-UTC in devlin.sd.materialsdesign.
 com:/home/medea2/data/build/wwolf/vasp-gpu5.4.4/13047/x86_64/src/src/build/std
 from svn 13047

 executed on                        Lin64 date 2023.04.27  06:18:14

 INCAR:
 POTCAR:    PAW_PBE Ni 02Aug2007
 POTCAR:    PAW_PBE O 08Apr2002

 POTCAR:    PAW_PBE Ni 02Aug2007

 POTCAR:    PAW_PBE O 08Apr2002

 Optimization of the real space projectors (new method)

 maximal supplied QI-value         = 16.25
 optimisation between [QCUT,QGAM] = [ 11.38, 22.75] = [ 36.24,144.96] Ry
 Optimized for a Real-space Cutoff    1.47 Angstroem

   l    n(q)    QCUT    max X(q) W(low)/X(q) W(high)/X(q)  e(spline)
   2      9    11.376    60.317    0.17E-03    0.16E-04    0.16E-06
   2      9    11.376    55.921    0.17E-03    0.16E-04    0.17E-06
   0     10    11.376    51.690    0.45E-04    0.60E-04    0.21E-06
   0     10    11.376    30.015    0.37E-04    0.55E-04    0.19E-06
   1     10    11.376    18.849    0.83E-04    0.11E-03    0.92E-07
   1     10    11.376    14.624    0.69E-04    0.92E-04    0.82E-07
 Optimization of the real space projectors (new method)

 maximal supplied QI-value         = 24.76
 optimisation between [QCUT,QGAM] = [ 11.39, 22.77] = [ 36.31,145.25] Ry
 Optimized for a Real-space Cutoff    1.10 Angstroem

   l    n(q)    QCUT    max X(q) W(low)/X(q) W(high)/X(q)  e(spline)
   0      7    11.387    20.381    0.22E-03    0.48E-03    0.18E-06
   0      7    11.387    15.268    0.22E-03    0.52E-03    0.19E-06
   1      7    11.387     5.964    0.22E-03    0.73E-03    0.24E-06
   1      7    11.387     5.382    0.19E-03    0.60E-03    0.21E-06

  PAW_PBE Ni 02Aug2007                  :
  PAW_PBE O 08Apr2002                   :

 POSCAR: NiO2_C2_m_scale_1_050_disp_0_12_round_1
  positions in direct lattice
 exchange correlation table for  LEXCH =       14
   RHO(1)=    0.500       N(1)  =     2000
   RHO(2)=  100.500       N(2)  =     4000

 ion  position               nearest neighbor table
   1  0.012  0.018  0.974-  19 1.90  22 2.08  51 2.25  54 2.36  27 2.36   9 2.72   3 2.79   7 3.03

   2  0.999  0.016  0.506-  21 1.71  53 1.98  20 2.03  44 2.14  29 2.15  10 2.61   4 2.65   8 2.95
                             6 3.07
   3  0.999  0.329  0.973-  19 1.99  23 2.03  46 2.14  26 2.15  50 2.25  43 2.25   5 2.66  11 2.78
                             1 2.79   9 3.00
   4  0.993  0.311  0.469-  25 1.87  44 1.87  24 1.96  21 1.99  45 2.12  48 2.17   2 2.65  12 2.82
                            10 2.88  16 3.02  14 3.06
   5  0.994  0.627  0.011-  23 1.79  27 2.01  30 2.10  50 2.25  47 2.37  54 2.44   3 2.66  11 2.86
                            15 3.01
   6  0.986  0.662  0.463-  28 1.81  52 1.86  29 1.91  48 2.05  49 2.21  25 2.33  16 2.90   8 2.95
                            18 3.06   2 3.07
   7  0.357  0.029  0.030-  31 1.40  27 2.01  34 2.08  22 2.27  39 2.36  15 2.47   9 2.65  13 2.70
                             1 3.03
   8  0.323  0.996  0.473-  32 1.52  33 1.81  29 1.91  20 1.95  28 2.14  41 2.35  10 2.63  14 2.68
                            16 2.93   2 2.95   6 2.95
   9  0.331  0.315  0.997-  31 1.94  19 1.98  22 2.01  35 2.02  38 2.03  26 2.27   7 2.65  15 2.66
                             1 2.72  11 2.84  17 2.85   3 3.00
  10  0.306  0.285  0.447-  20 1.32  36 1.83  33 1.87  21 1.90  24 2.07  37 2.33   2 2.61   8 2.63
                            18 2.83   4 2.88  12 2.89  16 2.93
  11  0.323  0.634  0.007-  39 1.76  23 1.80  35 1.87  30 2.10  42 2.16  26 2.27   3 2.78  17 2.79
                             9 2.84   5 2.86  13 2.94
  12  0.323  0.622  0.471-  24 1.58  40 1.77  37 1.79  25 1.93  28 2.22  41 2.22  18 2.61   4 2.82
                            10 2.89  14 2.97
  13  0.638  0.984  0.008-  39 1.83  51 2.05  43 2.06  46 2.20  42 2.28  34 2.32   7 2.70  15 2.90
                            11 2.94  17 3.00
  14  0.624  0.988  0.468-  44 1.77  32 1.83  41 1.86  40 1.97  45 2.04  53 2.24   8 2.68  16 2.85
                            12 2.97   4 3.06
  15  0.631  0.310  0.989-  43 1.49  31 1.95  50 1.96  34 2.00  38 2.03  47 2.08   7 2.47   9 2.66
                            13 2.90  17 2.90   5 3.01
  16  0.658  0.329  0.469-  48 1.68  49 1.71  45 1.78  36 1.85  33 1.96  32 2.14  18 2.72  14 2.85
                             6 2.90  10 2.93   8 2.93   4 3.02
  17  0.647  0.648  0.998-  35 1.69  51 1.78  47 1.87  42 2.10  54 2.17  38 2.44  11 2.79   9 2.85
                            15 2.90  13 3.00
  18  0.617  0.616  0.478-  36 1.59  40 1.81  37 1.89  53 1.90  49 1.97  52 1.98  12 2.61  16 2.72
                            10 2.83   6 3.06
  19  0.100  0.218  0.091-   1 1.90   9 1.98   3 1.99
  20  0.221  0.128  0.390-  10 1.32   8 1.95   2 2.03
  21  0.122  0.220  0.577-   2 1.71  10 1.90   4 1.99
  22  0.243  0.118  0.860-   9 2.01   1 2.08   7 2.27
  23  0.118  0.543  0.098-   5 1.79  11 1.80   3 2.03
  24  0.221  0.452  0.378-  12 1.58   4 1.96  10 2.07
  25  0.107  0.514  0.576-   4 1.87  12 1.93   6 2.33
  26  0.222  0.426  0.839-   3 2.15  11 2.27   9 2.27
  27  0.117  0.863  0.104-   7 2.01   5 2.01   1 2.36
  28  0.190  0.749  0.368-   6 1.81   8 2.14  12 2.22
  29  0.114  0.864  0.578-   8 1.91   6 1.91   2 2.15
  30  0.202  0.725  0.869-   5 2.10  11 2.10
  31  0.420  0.187  0.102-   7 1.40   9 1.94  15 1.95
  32  0.490  0.071  0.388-   8 1.52  14 1.83  16 2.14
  33  0.427  0.208  0.559-   8 1.81  10 1.87  16 1.96
  34  0.522  0.106  0.859-  15 2.00   7 2.08  13 2.32
  35  0.459  0.551  0.091-  17 1.69  11 1.87   9 2.02
  36  0.535  0.432  0.399-  18 1.59  10 1.83  16 1.85
  37  0.414  0.532  0.588-  12 1.79  18 1.89  10 2.33
  38  0.516  0.390  0.848-   9 2.03  15 2.03  17 2.44
  39  0.443  0.827  0.104-  11 1.76  13 1.83   7 2.36
  40  0.536  0.748  0.398-  12 1.77  18 1.81  14 1.97
  41  0.452  0.863  0.600-  14 1.86  12 2.22   8 2.35
  42  0.538  0.752  0.862-  17 2.10  11 2.16  13 2.28
  43  0.733  0.242  0.066-  15 1.49  13 2.06   3 2.25
  44  0.836  0.090  0.395-  14 1.77   4 1.87   2 2.14
  45  0.748  0.223  0.569-  16 1.78  14 2.04   4 2.12
  46  0.827  0.119  0.840-   3 2.14  13 2.20
  47  0.718  0.527  0.118-  17 1.87  15 2.08   5 2.37
  48  0.843  0.419  0.374-  16 1.68   6 2.05   4 2.17
  49  0.736  0.508  0.576-  16 1.71  18 1.97   6 2.21
  50  0.829  0.412  0.860-  15 1.96   3 2.25   5 2.25
  51  0.757  0.853  0.085-  17 1.78  13 2.05   1 2.25
  52  0.838  0.721  0.370-   6 1.86  18 1.98
  53  0.753  0.844  0.554-  18 1.90   2 1.98  14 2.24
  54  0.866  0.749  0.855-  17 2.17   1 2.36   5 2.44

  LATTYP: Found a hexagonal cell.
 ALAT       =     8.7810134983
 C/A-ratio  =     1.1065328053

  Lattice vectors:

 A1 = (   8.7810135000,   0.0000000000,   0.0000000000)
 A2 = (  -4.3905067500,   7.6045807600,   0.0000000000)
 A3 = (   0.0000000000,   0.0000000000,   9.7164795000)

Analysis of symmetry for initial positions (statically):
 Subroutine PRICEL returns:
 Original cell was already a primitive cell.

 Routine SETGRP: Setting up the symmetry group for a
 hexagonal supercell.

 Subroutine GETGRP returns: Found  1 space group operations
 (whereof  1 operations were pure point group operations)
 out of a pool of 24 trial point group operations.

The static configuration has the point symmetry C_1 .

Analysis of symmetry for dynamics (positions and initial velocities):
 Subroutine PRICEL returns:
 Original cell was already a primitive cell.

 Routine SETGRP: Setting up the symmetry group for a
 hexagonal supercell.

 Subroutine GETGRP returns: Found  1 space group operations
 (whereof  1 operations were pure point group operations)
 out of a pool of 24 trial point group operations.

The dynamic configuration has the point symmetry C_1 .

 Subroutine INISYM returns: Found  1 space group operations
 (whereof  1 operations are pure point group operations),
 and found     1 'primitive' translations

 KPOINTS: Automatic mesh

Automatic generation of k-mesh.
Space group operators:
 irot       det(A)        alpha          n_x          n_y          n_z        tau_x        tau_y        tau_z
    1     1.000000     0.000000     1.000000     0.000000     0.000000     0.000000     0.000000     0.000000

 Subroutine IBZKPT returns following result:

 Found     26 irreducible k-points:

 Following reciprocal coordinates:
            Coordinates               Weight
  0.000000  0.000000  0.000000      1.000000
  0.250000  0.000000  0.000000      2.000000
  0.500000  0.000000  0.000000      1.000000
  0.000000  0.250000  0.000000      2.000000
  0.250000  0.250000  0.000000      2.000000
  0.500000  0.250000  0.000000      2.000000
 -0.250000  0.250000  0.000000      2.000000
  0.000000  0.500000  0.000000      1.000000
  0.250000  0.500000  0.000000      2.000000
  0.500000  0.500000  0.000000      1.000000
  0.000000  0.000000  0.333333      2.000000
  0.250000  0.000000  0.333333      2.000000
  0.500000  0.000000  0.333333      2.000000
 -0.250000  0.000000  0.333333      2.000000
  0.000000  0.250000  0.333333      2.000000
  0.250000  0.250000  0.333333      2.000000
  0.500000  0.250000  0.333333      2.000000
 -0.250000  0.250000  0.333333      2.000000
  0.000000  0.500000  0.333333      2.000000
  0.250000  0.500000  0.333333      2.000000
  0.500000  0.500000  0.333333      2.000000
 -0.250000  0.500000  0.333333      2.000000
  0.000000 -0.250000  0.333333      2.000000
  0.250000 -0.250000  0.333333      2.000000
  0.500000 -0.250000  0.333333      2.000000
 -0.250000 -0.250000  0.333333      2.000000

 Following cartesian coordinates:
            Coordinates               Weight
  0.000000  0.000000  0.000000      1.000000
  0.028471  0.016437  0.000000      2.000000
  0.056941  0.032875  0.000000      1.000000
  0.000000  0.032875  0.000000      2.000000
  0.028471  0.049312  0.000000      2.000000
  0.056941  0.065750  0.000000      2.000000
 -0.028471  0.016437  0.000000      2.000000
  0.000000  0.065750  0.000000      1.000000
  0.028471  0.082187  0.000000      2.000000
  0.056941  0.098625  0.000000      1.000000
  0.000000  0.000000  0.034306      2.000000
  0.028471  0.016437  0.034306      2.000000
  0.056941  0.032875  0.034306      2.000000
 -0.028471 -0.016437  0.034306      2.000000
  0.000000  0.032875  0.034306      2.000000
  0.028471  0.049312  0.034306      2.000000
  0.056941  0.065750  0.034306      2.000000
 -0.028471  0.016437  0.034306      2.000000
  0.000000  0.065750  0.034306      2.000000
  0.028471  0.082187  0.034306      2.000000
  0.056941  0.098625  0.034306      2.000000
 -0.028471  0.049312  0.034306      2.000000
  0.000000 -0.032875  0.034306      2.000000
  0.028471 -0.016437  0.034306      2.000000
  0.056941  0.000000  0.034306      2.000000
 -0.028471 -0.049312  0.034306      2.000000

 SYSTEM =  unknown system
 POSCAR =  NiO2_C2_m_scale_1_050_disp_0_12_round_1

 Startparameter for this run:
   NWRITE =      1    write-flag & timer
   PREC   = accura    normal or accurate (medium, high low for compatibility)
   ISTART =      0    job   : 0-new  1-cont  2-samecut
   ICHARG =      2    charge: 1-file 2-atom 10-const
[...]
    234       3.6052      0.00000
    235       7.4114      0.00000
    236       8.2541      0.00000
    237       8.3616      0.00000
    238       8.7148      0.00000
    239       9.4386      0.00000
    240       9.6878      0.00000

 soft charge-density along one line, spin component           1
         0         1         2         3         4         5         6         7         8         9
 total charge-density along one line

------------------------ aborting loop because EDIFF is reached ----------------------------------------

  FORCE on cell =-STRESS in cart. coord.  units (eV):
  Direction    XX          YY          ZZ          XY          YZ          ZX
  Alpha Z  1069.12876  1069.12876  1069.12876
  Ewald   -2434.16255 -2230.44914-16682.93124   192.41137   163.77875  -275.64024
  Hartree  8019.72161  7951.79898 -2420.98299    -2.84873    17.40912  -142.49375
  E(xc)   -2002.86957 -2003.67011 -2006.22764     0.04185    -0.43816     0.14335
  Local  -13139.08460-13205.09532 11396.64015  -163.95408  -130.36001   405.65593
  n-local  -886.55361  -865.11298  -892.67585     5.62322    15.44103    -5.24298
  augment  3368.93349  3334.85263  3415.79108   -13.46711   -22.58916     6.72908
  Kinetic  5973.99800  5967.85139  6085.63188   -21.54063   -14.39969     0.57476
  Fock        0.00000     0.00000     0.00000     0.00000     0.00000     0.00000
  Total      -30.8884687     19.3041936    -35.6258699     -3.7341025     28.8418669    -10.2738502
  in kB      -76.2742771     47.6687087    -87.9725539     -9.2207864     71.2205118    -25.3696777

 VOLUME and BASIS-vectors are now :
  energy-cutoff  :      500.00
  volume of cell :      648.83
      direct lattice vectors                 reciprocal lattice vectors
     8.781013500  0.000000000  0.000000000     0.113882071  0.065749844  0.000000000
    -4.390506750  7.604580760  0.000000000     0.000000000  0.131499688  0.000000000
     0.000000000  0.000000000  9.716479500     0.000000000  0.000000000  0.102917934

  length of vectors
     8.781013500  8.781013498  9.716479500     0.131499688  0.131499688  0.102917934

 FORCES acting on ions
    electron-ion (+dipol)            ewald-force                    non-local-force                 convergence-correction
   0.802E+02 0.179E+03 0.132E+03   -.792E+02 -.181E+03 -.132E+03   -.113E+01 -.777E+00 -.625E+00   -.983E-02 -.211E-02 0.179E-01
   0.829E+02 0.247E+03 -.125E+03   -.861E+02 -.253E+03 0.127E+03   0.189E+01 0.137E+01 -.413E+01   0.175E-02 -.469E-02 -.333E-03
   0.339E+02 0.850E+02 0.910E+02   -.332E+02 -.865E+02 -.939E+02   -.193E+01 0.111E+01 0.160E+01   0.726E-02 -.214E-01 0.143E-01
   0.944E+02 0.375E+02 0.350E+02   -.979E+02 -.359E+02 -.333E+02   0.102E+01 -.214E+00 -.361E-01   -.125E-02 -.125E-01 -.100E-01
   0.162E+03 -.106E+03 0.558E+02   -.161E+03 0.110E+03 -.582E+02   -.143E+01 -.155E+01 -.590E+00   -.144E-01 0.727E-02 0.182E-01
   -.189E+02 -.219E+02 -.999E+02   0.188E+02 0.229E+02 0.988E+02   0.820E-01 -.238E+01 0.248E+01   -.151E-01 0.968E-02 -.178E-01
   0.296E+02 0.421E+03 0.660E+02   -.306E+02 -.445E+03 -.774E+02   0.156E+01 0.386E+01 0.380E-01   -.609E-02 0.384E-02 0.174E-01
   0.816E+02 0.284E+03 -.131E+03   -.891E+02 -.293E+03 0.139E+03   0.122E+01 0.187E+01 -.211E+01   0.466E-02 0.638E-02 -.618E-02
   0.149E+03 -.152E+02 0.119E+02   -.151E+03 0.165E+02 -.157E+02   0.173E+01 -.605E+00 0.764E+00   0.420E-03 -.256E-02 0.201E-01
   0.104E+03 -.184E+03 0.492E+02   -.102E+03 0.219E+03 -.330E+02   -.199E+00 -.432E+01 -.639E+00   0.180E-01 0.309E-02 -.591E-02
   0.679E+02 -.108E+02 0.129E+03   -.683E+02 0.129E+02 -.132E+03   0.591E+00 -.868E+00 -.192E+01   0.241E-01 0.101E-01 0.196E-01
   0.187E+03 -.214E+03 -.713E+02   -.190E+03 0.221E+03 0.774E+02   -.401E+00 -.533E+00 -.475E+00   0.191E-01 0.869E-02 -.539E-02
   -.150E+03 -.474E+02 0.241E+02   0.152E+03 0.454E+02 -.265E+02   -.107E+01 0.125E+01 -.155E+01   0.975E-02 -.141E-01 0.633E-02
   -.103E+03 0.266E+02 -.148E+02   0.106E+03 -.281E+02 0.180E+02   -.175E+00 -.150E+00 0.375E+00   -.457E-02 -.527E-02 -.851E-02
   -.111E+02 -.157E+03 0.111E+03   0.461E+01 0.166E+03 -.122E+03   -.113E+01 -.340E+01 0.269E+01   -.119E-01 -.148E-03 0.211E-01
   -.853E+02 0.863E+02 0.174E+02   0.844E+02 -.890E+02 -.153E+02   -.159E+01 -.691E+00 -.108E+01   -.163E-01 0.151E-02 -.147E-01
   -.173E+03 -.123E+03 0.211E+03   0.177E+03 0.126E+03 -.213E+03   -.140E+01 -.222E+01 -.197E+01   -.816E-02 0.832E-02 0.162E-01
   -.101E+03 -.220E+03 -.136E+03   0.104E+03 0.229E+03 0.140E+03   0.910E-01 -.100E+01 -.217E+00   0.674E-03 -.585E-02 -.168E-01
   0.848E+02 0.599E+02 -.267E+03   -.879E+02 -.588E+02 0.290E+03   0.326E+01 -.120E+01 -.259E+02   0.666E-02 -.134E-01 -.145E-01
   0.106E+03 0.306E+03 0.414E+03   -.111E+03 -.355E+03 -.455E+03   0.317E+01 0.194E+02 0.272E+02   0.593E-02 -.184E-01 -.193E-01
   0.603E+02 -.104E+02 -.422E+03   -.586E+02 0.241E+02 0.450E+03   -.304E+01 -.125E+02 -.283E+02   0.302E-02 -.460E-02 0.184E-01
   0.493E+02 0.145E+03 0.304E+03   -.442E+02 -.148E+03 -.323E+03   -.685E+01 0.276E+01 0.222E+02   -.992E-02 0.470E-03 0.234E-01
   0.400E+02 0.518E+02 -.270E+03   -.391E+02 -.571E+02 0.298E+03   -.116E+01 0.333E+01 -.285E+02   0.357E-02 0.117E-02 -.222E-02
   0.745E+02 0.807E+02 0.374E+03   -.765E+02 -.910E+02 -.404E+03   0.161E+01 0.415E+01 0.256E+02   0.567E-02 -.184E-02 -.263E-01
   0.114E+03 -.723E+02 -.367E+03   -.119E+03 0.765E+02 0.389E+03   0.405E+01 -.363E+01 -.239E+02   -.308E-03 0.164E-02 0.124E-01
   0.361E+02 0.272E-01 0.247E+03   -.334E+02 0.119E+01 -.263E+03   -.320E+01 -.157E+01 0.200E+02   0.873E-02 -.465E-02 0.170E-01
   0.995E+02 0.127E+02 -.152E+03   -.106E+03 -.127E+02 0.168E+03   0.645E+01 0.423E+00 -.178E+02   -.676E-02 0.876E-02 -.661E-02
   -.206E+02 -.141E+02 0.253E+03   0.277E+02 0.160E+02 -.272E+03   -.650E+01 -.110E+01 0.208E+02   -.875E-03 0.116E-01 -.204E-01
   0.383E+02 0.546E+02 -.373E+03   -.383E+02 -.565E+02 0.395E+03   -.115E+01 0.241E+01 -.240E+02   0.194E-02 0.841E-02 0.592E-02
   0.609E+02 -.857E+02 0.285E+03   -.612E+02 0.905E+02 -.301E+03   0.191E+00 -.579E+01 0.192E+02   0.283E-02 0.519E-02 0.160E-01
   0.526E+02 -.101E+03 -.371E+03   -.567E+02 0.131E+03 0.411E+03   0.178E+01 -.127E+02 -.308E+02   -.715E-02 -.343E-02 -.751E-02
   -.114E+03 -.116E+02 0.364E+03   0.126E+03 0.223E+02 -.396E+03   -.389E+01 -.642E+01 0.256E+02   -.141E-01 -.450E-02 -.163E-01
   -.245E+02 0.185E+02 -.435E+03   0.263E+02 -.128E+02 0.462E+03   -.157E+01 -.552E+01 -.260E+02   -.143E-02 -.765E-02 0.963E-02
   -.313E+02 0.130E+03 0.334E+03   0.328E+02 -.134E+03 -.355E+03   -.709E+00 0.328E+01 0.239E+02   0.140E-02 -.399E-02 0.134E-01
   0.411E+02 0.326E+02 -.266E+03   -.439E+02 -.369E+02 0.295E+03   0.184E+00 0.174E+01 -.281E+02   -.155E-02 -.282E-02 -.288E-02
   -.180E+02 0.192E+02 0.337E+03   0.202E+02 -.263E+02 -.364E+03   -.187E+01 0.204E+01 0.217E+02   -.143E-02 0.156E-01 -.173E-01
   -.320E+01 0.135E+02 -.437E+03   0.344E+01 -.208E+02 0.463E+03   0.457E+00 0.655E+01 -.275E+02   0.143E-01 0.199E-02 0.118E-01
   -.658E+01 -.909E+02 0.311E+03   0.623E+01 0.937E+02 -.331E+03   0.330E+00 -.235E+01 0.245E+02   -.706E-02 0.222E-02 0.144E-01
   0.410E+02 -.633E+02 -.243E+03   -.451E+02 0.656E+02 0.268E+03   0.336E+01 -.289E+00 -.250E+02   0.452E-02 0.223E-03 -.700E-02
   -.280E+02 -.128E+03 0.300E+03   0.319E+02 0.136E+03 -.324E+03   -.442E+01 -.802E+01 0.216E+02   0.132E-01 -.540E-02 -.189E-01
   0.542E+02 0.242E+02 -.376E+03   -.574E+02 -.282E+02 0.396E+03   0.198E+01 0.393E+01 -.223E+02   -.151E-02 0.187E-02 0.146E-01
   -.155E+02 -.681E+02 0.302E+03   0.145E+02 0.707E+02 -.320E+03   0.112E+01 -.286E+01 0.211E+02   0.357E-02 0.460E-02 0.131E-01
   -.247E+03 0.530E+02 -.290E+03   0.271E+03 -.568E+02 0.318E+03   -.133E+02 -.119E+01 -.224E+02   0.204E-02 -.569E-02 0.330E-02
   -.752E+02 0.478E+02 0.310E+03   0.820E+02 -.529E+02 -.331E+03   -.435E+01 0.596E+01 0.206E+02   0.543E-02 -.627E-02 -.223E-01
   -.984E+02 0.343E+02 -.371E+03   0.104E+03 -.363E+02 0.394E+03   -.486E+01 0.595E+00 -.241E+02   0.256E-02 -.637E-02 0.153E-01
   -.558E+02 0.701E+02 0.231E+03   0.536E+02 -.723E+02 -.246E+03   0.333E+01 0.256E+01 0.186E+02   0.747E-02 -.983E-02 0.165E-01
   -.108E+03 -.625E+02 -.213E+03   0.111E+03 0.611E+02 0.234E+03   -.208E+01 0.126E+01 -.237E+02   -.393E-02 0.261E-02 0.209E-02
   -.134E+03 -.289E+02 0.326E+03   0.144E+03 0.324E+02 -.350E+03   -.635E+01 -.184E+01 0.233E+02   -.570E-03 0.536E-02 -.276E-01
   -.908E+02 -.139E+03 -.432E+03   0.940E+02 0.148E+03 0.459E+03   -.285E+01 -.541E+01 -.264E+02   -.124E-01 0.100E-01 0.861E-02
   -.589E+02 -.921E+02 0.296E+03   0.593E+02 0.940E+02 -.315E+03   0.720E+00 -.115E+01 0.214E+02   -.113E-02 -.190E-02 0.122E-01
   -.104E+03 -.145E+03 -.207E+03   0.109E+03 0.153E+03 0.228E+03   -.523E+01 -.501E+01 -.222E+02   0.451E-02 0.829E-02 -.526E-02
   -.960E+01 -.153E+03 0.278E+03   0.480E+01 0.161E+03 -.296E+03   0.541E+01 -.780E+01 0.195E+02   -.955E-02 -.828E-03 -.198E-01
   -.475E+02 -.657E+02 -.307E+03   0.432E+02 0.686E+02 0.321E+03   0.415E+01 -.215E+01 -.137E+02   0.957E-03 -.740E-02 0.433E-02
   -.540E+02 -.559E+02 0.229E+03   0.562E+02 0.547E+02 -.243E+03   -.224E+01 0.141E+01 0.176E+02   -.645E-02 0.117E-01 0.172E-01
   0.363E+02 0.360E+02 0.531E+02   0.554E-12 -.185E-12 0.625E-12   -.363E+02 -.360E+02 -.532E+02   0.104E-01 -.169E-01 0.807E-01

 POSITION                                       TOTAL-FORCE (eV/Angst)
      0.02470      0.14001      9.46776        -0.060673     -2.481720     -0.627020
      8.70509      0.11966      4.91424        -1.285113     -4.902036     -1.506465
      7.32227      2.50445      9.45844        -1.134697     -0.366529     -1.264206
      7.35056      2.36590      4.55345        -2.476972      1.345192      1.577229
      5.97857      4.76495      0.10934        -1.092927      2.885604     -2.897148
      5.74595      5.03642      4.50015        -0.068075     -1.406433      1.327864
      3.00432      0.22073      0.28777         0.581814    -19.585964    -11.286835
     -1.53776      7.57726      4.59421        -6.297656     -7.070968      6.008289
      1.52566      2.39271      9.68963        -0.798016      0.779938     -3.041541
      1.43312      2.16893      4.34604         1.360114     31.470407     15.519671
      0.05272      4.81999      0.06532         0.268879      1.307998     -4.927480
      0.10385      4.73032      4.57223        -3.383830      6.310245      5.664266
      1.28341      7.48575      0.07622         1.108208     -0.761113     -3.922759
      1.13648      7.51657      4.54265         2.213019     -1.674042      3.533671
      4.18097      2.35616      9.61222        -7.656971      5.165336     -8.039190
      4.33725      2.50220      4.55883        -2.528712     -3.343641      1.009559
      2.84122      4.92428      9.69867         2.389509      1.235365     -4.377263
      2.71360      4.68088      4.64185         2.795418      7.948889      4.227041
     -0.07478      1.65616      0.88623         0.228301     -0.078358     -2.582826
      1.37896      0.97017      3.78910        -2.260384    -29.705239    -14.200577
      0.10598      1.66985      5.61032        -1.305468      1.144065     -0.025521
      1.61004      0.90100      8.35153        -1.691577     -0.030474      3.424294
     -1.35395      4.13224      0.95543        -0.319906     -1.929653     -0.728749
     -0.04873      3.43984      3.66858        -0.379680     -6.211733     -3.731244
     -1.31245      3.90696      5.59822        -0.503877      0.602131     -1.753474
      0.08071      3.24067      8.15418        -0.465131     -0.355097      4.011872
     -2.76255      6.55928      1.01235        -0.101874      0.435543     -1.656054
     -1.62356      5.69583      3.57322         0.543040      0.812610      1.218857
     -2.79470      6.56997      5.61849        -1.227744      0.513728     -2.058799
     -1.41154      5.51674      8.44756        -0.049326     -0.908988      3.519925
      2.86185      1.42450      0.99522        -2.304151     16.851969      9.041812
      3.99089      0.54035      3.76957         7.884171      4.335081     -6.025810
      2.83777      1.58028      5.42957         0.267741      0.174158      0.942451
      4.11365      0.80742      8.34860         0.723238     -0.161623      3.165028
      1.61152      4.19331      0.88575        -2.609211     -2.587051      0.761960
      2.80521      3.28568      3.87902         0.373264     -4.954075     -5.048578
      1.29970      4.04400      5.71474         0.706927     -0.692597     -1.146121
      2.81800      2.96876      8.23670        -0.033447      0.422636      3.967719
      0.25724      6.28714      1.00951        -0.693343      2.009616      0.246834
      1.41902      5.68712      3.86630        -0.530122      0.384669     -2.003768
      0.18462      6.56103      5.82830        -1.290668     -0.105553     -2.626552
      1.42516      5.71538      8.37087         0.149211     -0.285727      3.822024
      5.36848      1.84338      0.64240        10.055505     -5.000831      6.239509
      6.94871      0.68577      3.83780         2.429002      0.881477     -1.109768
      5.59286      1.69283      5.53311         1.126660     -1.325612     -0.930990
      6.74047      0.90379      8.16230         1.047764      0.347490      3.820500
      3.98776      4.01079      1.14820         1.444990     -0.108769     -2.364019
      5.56158      3.18466      3.63792         3.041661      1.704985     -0.581850
      4.22940      3.86196      5.59314         0.379586      2.716537      0.150250
      5.47023      3.13678      8.35255         1.132153      0.722564      2.906142
      2.90043      6.48496      0.83052        -0.080544      2.187127     -0.967751
      4.18803      5.48594      3.59174         0.593895      0.275283      1.078928
      2.90331      6.41846      5.38609        -0.172240      0.760892      0.504711
      4.31364      5.69244      8.30954        -0.041734      0.302294      3.741949
    total drift:                               -0.002343      0.005387      0.009894

  FREE ENERGIE OF THE ION-ELECTRON SYSTEM (eV)
  free  energy   TOTEN  =      -292.1460366036 eV

  energy  without entropy=     -292.1002546598  energy(sigma->0) =     -292.12314563

volume of typ            1:    17.7 %

volume of typ            2:     9.0 %

total charge

# of ion       s       p       d       tot
    1        0.197   0.175   7.831   8.204
    2        0.252   0.262   7.866   8.379
    3        0.210   0.207   7.819   8.236
    4        0.251   0.300   7.816   8.367
    5        0.222   0.224   7.808   8.254
    6        0.261   0.287   7.787   8.335
    7        0.343   0.402   8.000   8.745
    8        0.330   0.450   7.897   8.678
    9        0.235   0.272   7.828   8.335
   10        0.416   0.592   8.052   9.060
   11        0.277   0.340   7.802   8.419
   12        0.333   0.448   7.847   8.628
   13        0.224   0.227   7.816   8.268
   14        0.273   0.352   7.814   8.439
   15        0.330   0.462   7.881   8.673
   16        0.336   0.463   7.854   8.653
   17        0.290   0.356   7.805   8.451
   18        0.327   0.463   7.844   8.634
   19        1.284   2.675   0.006   3.965
   20        1.311   2.863   0.035   4.208
   21        1.298   2.701   0.010   4.009
   22        1.313   2.579   0.004   3.896
   23        1.286   2.705   0.009   3.999
   24        1.287   2.754   0.013   4.053
   25        1.299   2.648   0.005   3.952
   26        1.315   2.553   0.002   3.870
   27        1.295   2.618   0.003   3.916
   28        1.293   2.653   0.005   3.950
   29        1.290   2.665   0.005   3.960
   30        1.312   2.562   0.002   3.876
   31        1.299   2.822   0.027   4.148
   32        1.283   2.808   0.017   4.108
   33        1.296   2.708   0.008   4.012
   34        1.316   2.576   0.004   3.896
   35        1.286   2.729   0.010   4.025
   36        1.279   2.817   0.015   4.111
   37        1.304   2.661   0.007   3.972
   38        1.311   2.587   0.004   3.902
   39        1.289   2.693   0.008   3.991
   40        1.282   2.734   0.009   4.025
   41        1.305   2.612   0.004   3.920
   42        1.312   2.567   0.003   3.882
   43        1.292   2.765   0.016   4.073
   44        1.278   2.722   0.008   4.008
   45        1.300   2.659   0.006   3.965
   46        1.313   2.552   0.002   3.867
   47        1.301   2.627   0.004   3.933
   48        1.291   2.699   0.008   3.997
   49        1.300   2.677   0.008   3.985
   50        1.314   2.574   0.003   3.892
   51        1.294   2.650   0.006   3.950
   52        1.302   2.630   0.005   3.937
   53        1.294   2.652   0.004   3.951
   54        1.308   2.559   0.002   3.869
tot          51.84  102.34  141.66  295.83