 vasp.5.4.4.18Apr17-6-g9f103f2a35 (build May 12 2020 04:58:55) complex

 MD_VERSION_INFO: Compiled 2020-05-12T11:58:55-UTC in devlin.sd.materialsdesign.
 com:/home/medea2/data/build/wwolf/vasp-gpu5.4.4/13047/x86_64/src/src/build/std
 from svn 13047

 executed on                        Lin64 date 2023.04.27  06:54:48

 INCAR:
 POTCAR:    PAW_PBE Ni 02Aug2007
 POTCAR:    PAW_PBE O 08Apr2002

 POTCAR:    PAW_PBE Ni 02Aug2007

 POTCAR:    PAW_PBE O 08Apr2002

 Optimization of the real space projectors (new method)

 maximal supplied QI-value         = 16.25
 optimisation between [QCUT,QGAM] = [ 11.38, 22.75] = [ 36.24,144.96] Ry
 Optimized for a Real-space Cutoff    1.47 Angstroem

   l    n(q)    QCUT    max X(q) W(low)/X(q) W(high)/X(q)  e(spline)
   2      9    11.376    60.317    0.17E-03    0.16E-04    0.16E-06
   2      9    11.376    55.921    0.17E-03    0.16E-04    0.17E-06
   0     10    11.376    51.690    0.45E-04    0.60E-04    0.21E-06
   0     10    11.376    30.015    0.37E-04    0.55E-04    0.19E-06
   1     10    11.376    18.849    0.83E-04    0.11E-03    0.92E-07
   1     10    11.376    14.624    0.69E-04    0.92E-04    0.82E-07
 Optimization of the real space projectors (new method)

 maximal supplied QI-value         = 24.76
 optimisation between [QCUT,QGAM] = [ 11.39, 22.77] = [ 36.31,145.25] Ry
 Optimized for a Real-space Cutoff    1.10 Angstroem

   l    n(q)    QCUT    max X(q) W(low)/X(q) W(high)/X(q)  e(spline)
   0      7    11.387    20.381    0.22E-03    0.48E-03    0.18E-06
   0      7    11.387    15.268    0.22E-03    0.52E-03    0.19E-06
   1      7    11.387     5.964    0.22E-03    0.73E-03    0.24E-06
   1      7    11.387     5.382    0.19E-03    0.60E-03    0.21E-06

  PAW_PBE Ni 02Aug2007                  :
  PAW_PBE O 08Apr2002                   :

 POSCAR: NiO2_C2_m_scale_1_050_disp_0_06_round_2
  positions in direct lattice
 exchange correlation table for  LEXCH =       14
   RHO(1)=    0.500       N(1)  =     2000
   RHO(2)=  100.500       N(2)  =     4000

 ion  position               nearest neighbor table
   1  0.995  0.005  0.007-  19 1.78  51 2.17  27 2.27  22 2.31  54 2.43  46 2.44   9 2.73   3 2.79
                             7 2.90
   2  0.995  0.998  0.466-  20 1.83  21 1.88  44 2.07  52 2.10  53 2.16  29 2.29  10 2.77   4 2.84
                             8 2.88
   3  0.002  0.325  0.996-  23 1.88  19 1.98  26 2.03  46 2.09  43 2.23  50 2.36   9 2.67  11 2.73
                             5 2.78   1 2.79  13 3.06
   4  0.001  0.323  0.489-  25 1.80  21 1.89  44 1.98  24 2.01  45 2.06  48 2.32  10 2.66  12 2.73
                             6 2.80   2 2.84  14 3.07
   5  1.000  0.640  0.006-  27 1.77  23 1.99  30 2.14  47 2.17  50 2.25  54 2.49  11 2.75   3 2.78
                             7 2.91  15 3.06
   6  0.002  0.642  0.482-  28 1.82  25 1.86  29 1.87  48 2.01  52 2.20  49 2.22   4 2.80  12 2.83
                             8 3.01  16 3.01
   7  0.315  0.985  0.005-  27 1.89  31 2.01  39 2.05  34 2.19  22 2.34  30 2.41  13 2.72  15 2.85
                             1 2.90   5 2.91   9 2.98  11 3.04
   8  0.325  0.002  0.476-  32 1.84  33 1.84  20 1.86  29 1.90  28 2.06  41 2.20  16 2.79  14 2.80
                             2 2.88  10 2.90   6 3.01
   9  0.303  0.319  0.996-  19 1.90  26 1.96  35 1.96  31 1.97  22 2.20  38 2.23   3 2.67   1 2.73
                            11 2.76  17 2.87  15 2.89   7 2.98
  10  0.303  0.321  0.472-  21 1.66  24 1.76  37 1.85  20 1.90  36 1.99  33 2.00  12 2.64   4 2.66
                             2 2.77  18 2.79   8 2.90  16 3.00
  11  0.311  0.637  0.997-  23 1.72  39 1.86  35 1.93  30 2.15  26 2.15  42 2.18   3 2.73   5 2.75
                             9 2.76  17 2.85  13 3.04   7 3.04
  12  0.317  0.628  0.482-  24 1.77  37 1.79  25 1.81  41 1.83  40 1.86  28 2.02  10 2.64  18 2.68
                             4 2.73   6 2.83  14 3.01
  13  0.633  0.003  0.997-  43 1.74  39 1.90  34 2.06  46 2.07  51 2.19  42 2.51   7 2.72  15 2.77
                            11 3.04   3 3.06
  14  0.637  0.989  0.475-  44 1.82  41 1.87  32 1.89  45 1.89  53 2.09  40 2.11   8 2.80  16 2.86
                            12 3.01   4 3.07  18 3.07
  15  0.631  0.317  0.005-  43 1.80  47 1.82  31 1.89  34 2.06  50 2.21  38 2.21  13 2.77  17 2.81
                             7 2.85   9 2.89   5 3.06
  16  0.643  0.318  0.469-  48 1.69  32 1.77  36 1.91  45 1.91  33 1.94  49 2.03   8 2.79  18 2.85
                            14 2.86  10 3.00   6 3.01
  17  0.636  0.639  0.988-  51 1.88  35 1.95  47 2.01  38 2.02  54 2.08  42 2.09  15 2.81  11 2.85
                             9 2.87
  18  0.625  0.633  0.476-  36 1.74  49 1.77  40 1.84  37 1.91  53 1.92  52 2.02  12 2.68  10 2.79
                            16 2.85  14 3.07
  19  0.097  0.202  0.106-   1 1.78   9 1.90   3 1.98
  20  0.210  0.101  0.382-   2 1.83   8 1.86  10 1.90
  21  0.120  0.212  0.563-  10 1.66   2 1.88   4 1.89
  22  0.212  0.108  0.841-   9 2.20   1 2.31   7 2.34
  23  0.127  0.534  0.098-  11 1.72   3 1.88   5 1.99
  24  0.223  0.437  0.377-  10 1.76  12 1.77   4 2.01
  25  0.110  0.534  0.573-   4 1.80  12 1.81   6 1.86
  26  0.206  0.413  0.862-   9 1.96   3 2.03  11 2.15
  27  0.102  0.840  0.099-   5 1.77   7 1.89   1 2.27
  28  0.209  0.757  0.388-   6 1.82  12 2.02   8 2.06
  29  0.117  0.855  0.578-   6 1.87   8 1.90   2 2.29
  30  0.199  0.737  0.851-   5 2.14  11 2.15   7 2.41
  31  0.417  0.216  0.106-  15 1.89   9 1.97   7 2.01
  32  0.538  0.111  0.387-  16 1.77   8 1.84  14 1.89
  33  0.424  0.212  0.571-   8 1.84  16 1.94  10 2.00
  34  0.537  0.116  0.863-  13 2.06  15 2.06   7 2.19
  35  0.425  0.537  0.102-  11 1.93  17 1.95   9 1.96
  36  0.538  0.439  0.383-  18 1.74  16 1.91  10 1.99
  37  0.411  0.522  0.578-  12 1.79  10 1.85  18 1.91
  38  0.533  0.435  0.853-  17 2.02  15 2.21   9 2.23
  39  0.423  0.849  0.093-  11 1.86  13 1.90   7 2.05
  40  0.524  0.741  0.380-  18 1.84  12 1.86  14 2.11
  41  0.427  0.842  0.567-  12 1.83  14 1.87   8 2.20
  42  0.525  0.736  0.848-  17 2.09  11 2.18  13 2.51
  43  0.731  0.203  0.083-  13 1.74  15 1.80   3 2.23
  44  0.848  0.102  0.388-  14 1.82   4 1.98   2 2.07
  45  0.750  0.208  0.568-  14 1.89  16 1.91   4 2.06
  46  0.845  0.117  0.863-  13 2.07   3 2.09   1 2.44
  47  0.742  0.523  0.101-  15 1.82  17 2.01   5 2.17
  48  0.833  0.423  0.380-  16 1.69   6 2.01   4 2.32
  49  0.738  0.549  0.572-  18 1.77  16 2.03   6 2.22
  50  0.849  0.422  0.855-  15 2.21   5 2.25   3 2.36
  51  0.735  0.846  0.093-  17 1.88   1 2.17  13 2.19
  52  0.856  0.749  0.374-  18 2.02   2 2.10   6 2.20
  53  0.746  0.854  0.572-  18 1.92  14 2.09   2 2.16
  54  0.850  0.753  0.854-  17 2.08   1 2.43   5 2.49

  LATTYP: Found a hexagonal cell.
 ALAT       =     8.7810134983
 C/A-ratio  =     1.1065328053

  Lattice vectors:

 A1 = (   8.7810135000,   0.0000000000,   0.0000000000)
 A2 = (  -4.3905067500,   7.6045807600,   0.0000000000)
 A3 = (   0.0000000000,   0.0000000000,   9.7164795000)

Analysis of symmetry for initial positions (statically):
 Subroutine PRICEL returns:
 Original cell was already a primitive cell.

 Routine SETGRP: Setting up the symmetry group for a
 hexagonal supercell.

 Subroutine GETGRP returns: Found  1 space group operations
 (whereof  1 operations were pure point group operations)
 out of a pool of 24 trial point group operations.

The static configuration has the point symmetry C_1 .

Analysis of symmetry for dynamics (positions and initial velocities):
 Subroutine PRICEL returns:
 Original cell was already a primitive cell.

 Routine SETGRP: Setting up the symmetry group for a
 hexagonal supercell.

 Subroutine GETGRP returns: Found  1 space group operations
 (whereof  1 operations were pure point group operations)
 out of a pool of 24 trial point group operations.

The dynamic configuration has the point symmetry C_1 .

 Subroutine INISYM returns: Found  1 space group operations
 (whereof  1 operations are pure point group operations),
 and found     1 'primitive' translations

 KPOINTS: Automatic mesh

Automatic generation of k-mesh.
Space group operators:
 irot       det(A)        alpha          n_x          n_y          n_z        tau_x        tau_y        tau_z
    1     1.000000     0.000000     1.000000     0.000000     0.000000     0.000000     0.000000     0.000000

 Subroutine IBZKPT returns following result:

 Found     26 irreducible k-points:

 Following reciprocal coordinates:
            Coordinates               Weight
  0.000000  0.000000  0.000000      1.000000
  0.250000  0.000000  0.000000      2.000000
  0.500000  0.000000  0.000000      1.000000
  0.000000  0.250000  0.000000      2.000000
  0.250000  0.250000  0.000000      2.000000
  0.500000  0.250000  0.000000      2.000000
 -0.250000  0.250000  0.000000      2.000000
  0.000000  0.500000  0.000000      1.000000
  0.250000  0.500000  0.000000      2.000000
  0.500000  0.500000  0.000000      1.000000
  0.000000  0.000000  0.333333      2.000000
  0.250000  0.000000  0.333333      2.000000
  0.500000  0.000000  0.333333      2.000000
 -0.250000  0.000000  0.333333      2.000000
  0.000000  0.250000  0.333333      2.000000
  0.250000  0.250000  0.333333      2.000000
  0.500000  0.250000  0.333333      2.000000
 -0.250000  0.250000  0.333333      2.000000
  0.000000  0.500000  0.333333      2.000000
  0.250000  0.500000  0.333333      2.000000
  0.500000  0.500000  0.333333      2.000000
 -0.250000  0.500000  0.333333      2.000000
  0.000000 -0.250000  0.333333      2.000000
  0.250000 -0.250000  0.333333      2.000000
  0.500000 -0.250000  0.333333      2.000000
 -0.250000 -0.250000  0.333333      2.000000

 Following cartesian coordinates:
            Coordinates               Weight
  0.000000  0.000000  0.000000      1.000000
  0.028471  0.016437  0.000000      2.000000
  0.056941  0.032875  0.000000      1.000000
  0.000000  0.032875  0.000000      2.000000
  0.028471  0.049312  0.000000      2.000000
  0.056941  0.065750  0.000000      2.000000
 -0.028471  0.016437  0.000000      2.000000
  0.000000  0.065750  0.000000      1.000000
  0.028471  0.082187  0.000000      2.000000
  0.056941  0.098625  0.000000      1.000000
  0.000000  0.000000  0.034306      2.000000
  0.028471  0.016437  0.034306      2.000000
  0.056941  0.032875  0.034306      2.000000
 -0.028471 -0.016437  0.034306      2.000000
  0.000000  0.032875  0.034306      2.000000
  0.028471  0.049312  0.034306      2.000000
  0.056941  0.065750  0.034306      2.000000
 -0.028471  0.016437  0.034306      2.000000
  0.000000  0.065750  0.034306      2.000000
  0.028471  0.082187  0.034306      2.000000
  0.056941  0.098625  0.034306      2.000000
 -0.028471  0.049312  0.034306      2.000000
  0.000000 -0.032875  0.034306      2.000000
  0.028471 -0.016437  0.034306      2.000000
  0.056941  0.000000  0.034306      2.000000
 -0.028471 -0.049312  0.034306      2.000000

 SYSTEM =  unknown system
 POSCAR =  NiO2_C2_m_scale_1_050_disp_0_06_round_2

 Startparameter for this run:
   NWRITE =      1    write-flag & timer
   PREC   = accura    normal or accurate (medium, high low for compatibility)
[...]
    234       3.6384      0.00000
    235       7.4406      0.00000
    236       8.3257      0.00000
    237       8.5998      0.00000
    238       9.1149      0.00000
    239       9.7676      0.00000
    240       9.9068      0.00000

 soft charge-density along one line, spin component           1
         0         1         2         3         4         5         6         7         8         9
 total charge-density along one line

------------------------ aborting loop because EDIFF is reached ----------------------------------------

  FORCE on cell =-STRESS in cart. coord.  units (eV):
  Direction    XX          YY          ZZ          XY          YZ          ZX
  Alpha Z  1069.12876  1069.12876  1069.12876
  Ewald   -2585.49674 -1980.74326-17108.95974   128.90240   159.41916  -225.73301
  Hartree  7911.36466  8143.69315 -2783.96496    -8.37169    69.65334  -111.84634
  E(xc)   -1998.27494 -1998.19331 -2001.50285    -0.03282    -0.14275     0.18393
  Local  -12876.85040-13664.83683 12175.68371  -105.55217  -222.38137   331.32152
  n-local  -908.14545  -901.60922  -917.55612     4.32761     4.38307    -4.18623
  augment  3372.46287  3343.85101  3421.33256    -9.39568    -4.37776     3.84389
  Kinetic  5955.57101  5926.06724  6079.74892    -9.71900     0.00040    -3.32024
  Fock        0.00000     0.00000     0.00000     0.00000     0.00000     0.00000
  Total      -60.2402356    -62.6424567    -66.0897349      0.1586467      6.5541033     -9.7364892
  in kB     -148.7539081   -154.6858199   -163.1983383      0.3917533     16.1843403    -24.0427483

 VOLUME and BASIS-vectors are now :
  energy-cutoff  :      500.00
  volume of cell :      648.83
      direct lattice vectors                 reciprocal lattice vectors
     8.781013500  0.000000000  0.000000000     0.113882071  0.065749844  0.000000000
    -4.390506750  7.604580760  0.000000000     0.000000000  0.131499688  0.000000000
     0.000000000  0.000000000  9.716479500     0.000000000  0.000000000  0.102917934

  length of vectors
     8.781013500  8.781013498  9.716479500     0.131499688  0.131499688  0.102917934

 FORCES acting on ions
    electron-ion (+dipol)            ewald-force                    non-local-force                 convergence-correction
   0.372E+02 0.186E+03 0.943E+02   -.387E+02 -.188E+03 -.951E+02   0.630E+00 -.575E+00 -.189E+01   -.132E-01 -.576E-01 0.578E-01
   0.867E+02 0.182E+03 -.343E+02   -.888E+02 -.185E+03 0.338E+02   0.170E+00 0.341E+00 0.170E+01   -.718E-02 -.178E-01 -.401E-01
   0.151E+03 0.955E+02 0.562E+02   -.151E+03 -.971E+02 -.594E+02   -.122E+01 0.427E+00 0.832E+00   -.471E-02 0.490E-01 0.575E-01
   0.161E+03 0.912E+02 -.723E+02   -.164E+03 -.934E+02 0.721E+02   -.172E+00 0.673E+00 -.181E+01   -.986E-02 0.442E-02 -.409E-01
   0.145E+03 0.402E+01 0.835E+02   -.146E+03 -.358E+01 -.856E+02   -.928E-01 -.130E+01 -.126E+01   -.215E-01 -.178E-02 0.539E-01
   0.162E+03 -.400E+01 -.675E+02   -.164E+03 0.575E+01 0.668E+02   -.868E+00 -.809E+00 0.364E+00   -.143E-01 -.414E-02 -.362E-01
   0.546E+02 0.303E+02 0.102E+03   -.550E+02 -.304E+02 -.102E+03   0.571E+00 -.395E+00 -.222E+01   0.318E-02 -.300E-01 0.701E-01
   -.164E+01 0.125E+03 -.682E+02   0.850E+00 -.128E+03 0.694E+02   0.128E+01 -.936E+00 -.408E+00   0.229E-01 0.184E-01 -.510E-01
   -.520E+02 0.898E+02 0.929E+02   0.540E+02 -.896E+02 -.946E+02   0.123E+00 -.594E+00 -.458E+00   0.190E-01 0.520E-01 0.729E-01
   -.935E+02 0.884E+02 0.954E+01   0.101E+03 -.881E+02 -.108E+02   -.135E+00 -.192E+00 0.527E+00   0.347E-01 0.221E-01 -.381E-01
   -.148E+02 -.116E+03 0.154E+03   0.176E+02 0.118E+03 -.157E+03   -.324E+00 -.122E+01 -.138E+01   -.612E-02 -.482E-02 0.570E-01
   0.942E+02 -.138E+03 -.450E+02   -.955E+02 0.143E+03 0.446E+02   -.211E+00 -.566E+00 -.873E+00   0.319E-01 0.120E-01 -.283E-01
   -.128E+03 0.113E+03 0.949E+02   0.130E+03 -.114E+03 -.972E+02   -.168E-01 -.104E+01 -.152E+01   -.889E-03 -.320E-01 0.565E-01
   -.823E+02 0.404E+02 -.528E+02   0.842E+02 -.422E+02 0.542E+02   0.137E+00 -.174E+00 -.832E+00   -.572E-02 -.133E-01 -.445E-01
   -.348E+02 -.410E+02 0.881E+02   0.351E+02 0.419E+02 -.904E+02   -.727E-01 -.457E+00 -.213E+01   -.158E-01 0.535E-01 0.683E-01
   -.511E+02 -.324E+02 -.995E+02   0.491E+02 0.342E+02 0.102E+03   -.243E+00 -.125E+00 0.106E+01   -.148E-01 0.938E-03 -.525E-01
   -.111E+03 -.123E+03 0.879E+02   0.112E+03 0.125E+03 -.903E+02   -.272E+00 -.996E+00 -.146E+00   0.248E-01 0.430E-02 0.528E-01
   -.116E+03 -.184E+03 -.547E+02   0.119E+03 0.189E+03 0.550E+02   -.262E+00 -.587E+00 0.293E+00   -.736E-02 -.265E-02 -.234E-01
   0.509E+02 0.588E+02 -.280E+03   -.516E+02 -.554E+02 0.308E+03   0.312E+00 -.268E+01 -.291E+02   0.103E-02 0.123E-01 0.310E-01
   0.105E+02 0.782E+02 0.341E+03   -.765E+01 -.780E+02 -.367E+03   -.293E+01 -.137E+00 0.253E+02   0.156E-01 0.168E-02 -.321E-01
   0.869E+02 0.131E+03 -.432E+03   -.901E+02 -.138E+03 0.462E+03   -.462E+00 0.453E+01 -.288E+02   0.183E-01 -.630E-02 -.543E-02
   0.199E+02 0.909E+02 0.242E+03   -.186E+02 -.918E+02 -.257E+03   -.163E+01 0.960E+00 0.199E+02   0.475E-02 -.551E-02 0.124E-01
   0.101E+03 0.199E+02 -.298E+03   -.104E+03 -.216E+02 0.327E+03   0.310E+00 0.685E+00 -.298E+02   -.271E-01 0.160E-01 0.989E-02
   0.102E+03 0.308E+02 0.407E+03   -.107E+03 -.306E+02 -.437E+03   0.312E+01 -.146E+01 0.295E+02   0.205E-01 0.240E-01 -.360E-01
   0.940E+02 -.519E+01 -.409E+03   -.954E+02 0.783E+01 0.437E+03   0.635E+00 -.310E+01 -.281E+02   0.933E-02 0.273E-01 0.337E-02
   0.424E+02 0.131E+02 0.335E+03   -.428E+02 -.115E+02 -.358E+03   0.347E-01 -.136E+01 0.265E+02   -.186E-02 0.230E-01 0.125E-01
   0.922E+02 -.382E+02 -.221E+03   -.967E+02 0.421E+02 0.245E+03   0.404E+01 -.208E+01 -.253E+02   -.177E-02 -.464E-01 0.448E-02
   0.210E+02 -.479E+02 0.317E+03   -.171E+02 0.516E+02 -.338E+03   -.325E+01 -.376E+01 0.216E+02   0.105E-01 0.404E-02 -.305E-01
   0.897E+02 -.135E+02 -.371E+03   -.937E+02 0.157E+02 0.393E+03   0.297E+01 -.129E+01 -.235E+02   -.934E-04 -.447E-02 -.864E-02
   0.488E+02 -.579E+02 0.274E+03   -.491E+02 0.601E+02 -.290E+03   0.326E+00 -.211E+01 0.212E+02   -.163E-01 -.134E-01 0.305E-01
   0.147E+02 0.511E+02 -.239E+03   -.172E+02 -.514E+02 0.264E+03   0.230E+01 -.419E+00 -.264E+02   0.861E-02 0.141E-01 0.302E-01
   -.303E+02 0.591E+02 0.340E+03   0.317E+02 -.620E+02 -.367E+03   -.153E+01 0.122E+01 0.262E+02   0.492E-02 0.487E-02 -.177E-01
   -.167E+02 0.162E+02 -.412E+03   0.156E+02 -.122E+02 0.437E+03   0.838E+00 -.380E+01 -.251E+02   0.165E-01 0.116E-01 -.281E-01
   0.113E+02 0.397E+02 0.325E+03   -.124E+02 -.388E+02 -.345E+03   0.751E+00 -.154E+01 0.246E+02   -.874E-02 0.726E-02 0.494E-02
   -.382E+02 -.293E+02 -.258E+03   0.402E+02 0.301E+02 0.283E+03   -.219E+01 -.108E+01 -.276E+02   0.185E-01 0.117E-01 0.207E-01
   -.370E+02 0.299E+02 0.345E+03   0.367E+02 -.344E+02 -.372E+03   -.552E+00 0.223E+01 0.253E+02   0.108E-01 0.137E-01 -.155E-01
   -.477E+02 -.176E+02 -.457E+03   0.517E+02 0.168E+02 0.487E+03   -.339E+01 0.787E+00 -.301E+02   0.182E-01 0.203E-01 -.124E-01
   -.410E+02 0.198E+02 0.286E+03   0.412E+02 -.224E+02 -.305E+03   -.461E+00 0.245E+01 0.231E+02   0.880E-02 0.298E-01 0.193E-01
   -.325E+01 -.358E+02 -.235E+03   0.330E+01 0.350E+02 0.260E+03   -.927E+00 0.224E+01 -.259E+02   -.133E-01 -.207E-01 0.350E-01
   -.258E+02 -.126E+03 0.345E+03   0.254E+02 0.132E+03 -.369E+03   0.910E-01 -.523E+01 0.245E+02   0.123E-01 -.211E-02 -.113E-01
   0.336E+02 -.729E+02 -.376E+03   -.377E+02 0.752E+02 0.399E+03   0.319E+01 -.543E+00 -.229E+02   0.173E-01 0.104E-02 -.198E-01
   -.106E+02 -.101E+03 0.255E+03   0.103E+02 0.103E+03 -.271E+03   0.204E+00 -.276E+01 0.204E+02   0.170E-01 -.160E-01 0.757E-02
   -.107E+03 -.336E+02 -.260E+03   0.115E+03 0.392E+02 0.285E+03   -.680E+01 -.462E+01 -.242E+02   -.101E-01 0.369E-01 0.450E-01
   -.378E+02 0.196E+02 0.299E+03   0.394E+02 -.173E+02 -.321E+03   0.406E+00 -.169E+01 0.222E+02   -.233E-01 -.278E-01 -.288E-01
   -.497E+02 -.909E+01 -.385E+03   0.510E+02 0.110E+02 0.408E+03   -.810E+00 -.169E+01 -.228E+02   -.302E-01 -.175E-01 -.235E-01
   -.447E+02 0.651E+02 0.282E+03   0.455E+02 -.666E+02 -.299E+03   -.293E+00 0.169E+01 0.212E+02   0.844E-02 -.291E-02 0.146E-02
   -.617E+02 -.992E+02 -.221E+03   0.625E+02 0.106E+03 0.245E+03   -.526E+00 -.586E+01 -.250E+02   0.446E-02 0.175E-01 0.683E-02
   -.108E+03 -.467E+02 0.314E+03   0.117E+03 0.502E+02 -.338E+03   -.479E+01 -.188E+01 0.239E+02   -.293E-01 -.152E-02 -.309E-01
   -.119E+03 -.439E+02 -.382E+03   0.126E+03 0.440E+02 0.405E+03   -.498E+01 -.175E+01 -.228E+02   -.221E-01 0.198E-02 -.182E-01
   -.851E+01 -.257E+02 0.261E+03   0.759E+01 0.246E+02 -.276E+03   0.147E+01 0.134E+01 0.192E+02   -.832E-02 0.342E-01 0.310E-01
   -.443E+02 -.772E+02 -.191E+03   0.431E+02 0.797E+02 0.210E+03   0.161E+01 -.127E+01 -.213E+02   0.999E-02 -.397E-01 0.233E-01
   -.447E+02 -.528E+02 0.262E+03   0.469E+02 0.509E+02 -.279E+03   -.165E+01 0.259E+01 0.188E+02   -.179E-01 -.157E-01 -.235E-01
   -.676E+02 -.825E+02 -.342E+03   0.695E+02 0.854E+02 0.362E+03   -.216E+01 -.163E+01 -.207E+02   -.133E-01 -.205E-01 -.149E-01
   -.597E+02 -.727E+02 0.227E+03   0.630E+02 0.740E+02 -.242E+03   -.333E+01 -.127E+01 0.183E+02   -.146E-02 -.226E-01 0.271E-01
   0.210E+02 0.427E+02 0.577E+02   0.540E-12 -.185E-12 -.284E-12   -.211E+02 -.428E+02 -.579E+02   0.259E-01 0.103E+00 0.191E+00

 POSITION                                       TOTAL-FORCE (eV/Angst)
      8.71875      0.03562      0.06616        -0.852791     -2.839107     -2.676286
      4.35978      7.58866      4.52987        -1.886340     -3.303098      1.140517
     -1.41009      2.47086      9.67886        -1.914377     -1.085422     -2.301153
     -1.40975      2.45537      4.74980        -2.935317     -1.568600     -2.031853
      5.96568      4.86960      0.06049        -1.302552     -0.868593     -3.254976
     -2.79703      4.88233      4.68692        -3.527448      0.941117     -0.334835
     -1.56161      7.49172      0.05160         0.191463     -0.592850     -2.470745
      2.84282      0.01624      4.62856         0.519208     -3.332680      0.702435
      1.26256      2.42221      9.67559         2.083901     -0.312082     -2.165682
      1.24845      2.43940      4.58625         7.347129      0.066350     -0.808224
     -0.06845      4.84541      9.68395         2.537121      1.537033     -4.309098
      0.02777      4.77663      4.67937        -1.440669      4.681363     -1.297778
      5.54262      0.02220      9.69038         1.848234     -2.380538     -3.844057
      1.25138      7.52290      4.61876         2.040165     -2.042165      0.535639
      4.14836      2.41116      0.05324         0.219892      0.454407     -4.291012
      4.25076      2.42107      4.55720        -2.246961      1.692865      3.599849
      2.77656      4.85635      9.59642         0.485984      1.116531     -2.490043
      2.70677      4.81509      4.62216         2.366140      4.115004      0.560197
     -0.03647      1.53467      1.03270        -0.389768      0.682540     -1.633295
      1.40445      0.76439      3.71185        -0.078115      0.090854     -0.603965
      0.12036      1.60979      5.46972        -3.683617     -1.936408      1.946032
      1.38962      0.81837      8.16812        -0.303110     -0.013359      4.510984
     -1.23168      4.05864      0.95524        -2.647182     -0.968867     -0.259219
      0.04134      3.32086      3.66551        -2.278135     -1.310041     -0.592828
     -1.37497      4.06180      5.56701        -0.781333     -0.441491      0.588082
     -0.00707      3.14229      8.37328        -0.314553      0.274724      4.034497
     -2.78727      6.38662      0.96489        -0.429344      1.813503     -0.796887
     -1.48461      5.75330      3.76751         0.655835     -0.060646     -0.097934
     -2.72523      6.50083      5.62010        -1.009298      0.886628     -1.323665
     -1.48902      5.60240      8.26614        -0.010869      0.051897      4.293633
      2.71946      1.63924      1.02552        -0.186083     -0.696487     -1.772976
      4.23672      0.84307      3.76501        -0.069032     -1.644210     -1.073851
      2.79691      1.60997      5.55132        -0.225017      0.213889     -0.626966
      4.20391      0.88404      8.38538        -0.390750     -0.599154      4.179884
      1.37619      4.08145      0.99272        -0.158447     -0.306139     -2.154866
      2.80201      3.33491      3.72151        -0.790330     -2.276019     -0.880528
      1.31656      3.96598      5.62077         0.673291     -0.001584     -0.114868
      2.76550      3.31027      8.29249        -0.205198     -0.140201      4.294121
     -0.01513      6.45509      0.90513        -0.893137      1.440005     -1.047237
      1.34653      5.63180      3.69068        -0.219453      0.651829      0.312343
      0.05608      6.40291      5.51379        -0.870972      1.834843      0.341654
      1.37826      5.59610      8.23712        -0.142304     -0.047241      4.065485
      5.52662      1.54433      0.81064         1.033067      1.015625      1.096265
      6.99692      0.77553      3.76783         2.019152      0.582371      0.377404
      5.66994      1.58206      5.51875         0.401955      0.213317      0.166008
      6.90350      0.88981      8.38823         0.542671      0.131382      3.849733
      4.21759      3.97494      0.97688         0.284451      0.877807     -1.291791
      5.45822      3.21565      3.68803         3.754539      1.560529     -0.356081
      4.06851      4.17489      5.56027         1.961970     -1.610160     -0.169194
      5.59789      3.21244      8.30600         0.536725      0.312908      4.052235
      2.73516      6.43663      0.90647         0.339068      1.207387     -1.461118
      4.23281      5.69395      3.63685         0.533140      0.729225      1.636020
      2.80548      6.49106      5.55628        -0.214757      1.228995     -1.550706
      4.15541      5.72532      8.29776         0.022159     -0.027787      3.800697
    total drift:                               -0.007033      0.031036      0.006618

  FREE ENERGIE OF THE ION-ELECTRON SYSTEM (eV)
  free  energy   TOTEN  =      -309.7636066629 eV

  energy  without entropy=     -309.7573401859  energy(sigma->0) =     -309.76047342

volume of typ            1:    17.7 %

volume of typ            2:     9.0 %

total charge

# of ion       s       p       d       tot
    1        0.210   0.196   7.833   8.239
    2        0.240   0.262   7.807   8.309
    3        0.228   0.245   7.819   8.292
    4        0.259   0.299   7.825   8.382
    5        0.232   0.246   7.802   8.280
    6        0.260   0.305   7.801   8.365
    7        0.220   0.222   7.807   8.249
    8        0.274   0.342   7.808   8.424
    9        0.245   0.286   7.796   8.328
   10        0.328   0.460   7.850   8.638
   11        0.272   0.336   7.803   8.411
   12        0.320   0.459   7.829   8.607
   13        0.256   0.284   7.801   8.340
   14        0.273   0.345   7.791   8.410
   15        0.270   0.330   7.783   8.383
   16        0.314   0.431   7.812   8.557
   17        0.246   0.294   7.758   8.298
   18        0.310   0.438   7.803   8.551
   19        1.287   2.692   0.009   3.987
   20        1.283   2.720   0.008   4.012
   21        1.286   2.749   0.012   4.048
   22        1.314   2.547   0.002   3.863
   23        1.287   2.713   0.010   4.010
   24        1.287   2.737   0.010   4.035
   25        1.281   2.741   0.010   4.032
   26        1.305   2.609   0.005   3.919
   27        1.288   2.679   0.007   3.974
   28        1.290   2.675   0.006   3.971
   29        1.297   2.648   0.006   3.950
   30        1.312   2.559   0.002   3.874
   31        1.290   2.664   0.006   3.959
   32        1.281   2.742   0.010   4.033
   33        1.290   2.689   0.007   3.986
   34        1.309   2.588   0.004   3.901
   35        1.294   2.660   0.006   3.960
   36        1.284   2.729   0.009   4.022
   37        1.293   2.713   0.009   4.015
   38        1.311   2.576   0.003   3.890
   39        1.288   2.676   0.006   3.970
   40        1.289   2.694   0.007   3.990
   41        1.288   2.691   0.006   3.985
   42        1.312   2.563   0.002   3.877
   43        1.285   2.709   0.009   4.003
   44        1.287   2.681   0.006   3.974
   45        1.293   2.668   0.006   3.967
   46        1.310   2.572   0.003   3.885
   47        1.292   2.656   0.006   3.954
   48        1.292   2.690   0.008   3.989
   49        1.295   2.666   0.006   3.967
   50        1.315   2.549   0.002   3.865
   51        1.294   2.629   0.004   3.927
   52        1.299   2.613   0.003   3.915
   53        1.297   2.630   0.004   3.931
   54        1.314   2.543   0.002   3.859
tot          51.38  101.44  140.75  293.56