 vasp.5.4.4.18Apr17-6-g9f103f2a35 (build May 12 2020 04:58:55) complex

 MD_VERSION_INFO: Compiled 2020-05-12T11:58:55-UTC in devlin.sd.materialsdesign.
 com:/home/medea2/data/build/wwolf/vasp-gpu5.4.4/13047/x86_64/src/src/build/std
 from svn 13047

 executed on                        Lin64 date 2023.04.27  07:54:11

 INCAR:
 POTCAR:    PAW_PBE Ni 02Aug2007
 POTCAR:    PAW_PBE O 08Apr2002

 POTCAR:    PAW_PBE Ni 02Aug2007

 POTCAR:    PAW_PBE O 08Apr2002

 Optimization of the real space projectors (new method)

 maximal supplied QI-value         = 16.25
 optimisation between [QCUT,QGAM] = [ 11.38, 22.75] = [ 36.24,144.96] Ry
 Optimized for a Real-space Cutoff    1.47 Angstroem

   l    n(q)    QCUT    max X(q) W(low)/X(q) W(high)/X(q)  e(spline)
   2      9    11.376    60.317    0.17E-03    0.16E-04    0.16E-06
   2      9    11.376    55.921    0.17E-03    0.16E-04    0.17E-06
   0     10    11.376    51.690    0.45E-04    0.60E-04    0.21E-06
   0     10    11.376    30.015    0.37E-04    0.55E-04    0.19E-06
   1     10    11.376    18.849    0.83E-04    0.11E-03    0.92E-07
   1     10    11.376    14.624    0.69E-04    0.92E-04    0.82E-07
 Optimization of the real space projectors (new method)

 maximal supplied QI-value         = 24.76
 optimisation between [QCUT,QGAM] = [ 11.39, 22.77] = [ 36.31,145.25] Ry
 Optimized for a Real-space Cutoff    1.10 Angstroem

   l    n(q)    QCUT    max X(q) W(low)/X(q) W(high)/X(q)  e(spline)
   0      7    11.387    20.381    0.22E-03    0.48E-03    0.18E-06
   0      7    11.387    15.268    0.22E-03    0.52E-03    0.19E-06
   1      7    11.387     5.964    0.22E-03    0.73E-03    0.24E-06
   1      7    11.387     5.382    0.19E-03    0.60E-03    0.21E-06

  PAW_PBE Ni 02Aug2007                  :
  PAW_PBE O 08Apr2002                   :

 POSCAR: NiO2_C2_m_scale_1_025_disp_0_12_round_2
  positions in direct lattice
 exchange correlation table for  LEXCH =       14
   RHO(1)=    0.500       N(1)  =     2000
   RHO(2)=  100.500       N(2)  =     4000

 ion  position               nearest neighbor table
   1  0.999  0.021  0.012-  19 1.60  22 1.70  51 1.86  46 2.00  27 2.07  54 2.28   9 2.75   3 2.75
                             7 2.75  13 2.92
   2  0.000  0.983  0.511-  29 1.83  53 1.94  21 1.95  20 2.02  52 2.05  44 2.34  10 2.57   8 2.76
                             4 2.83   6 2.83  18 2.89  14 3.07
   3  0.992  0.339  0.996-  23 1.89  19 1.91  50 1.94  43 1.98  46 2.00  26 2.25   5 2.60  11 2.63
                             1 2.75   9 2.81  15 2.86  13 3.04
   4  0.980  0.303  0.502-  21 1.69  44 1.78  48 2.15  45 2.18  24 2.26  25 2.29  10 2.60  14 2.68
                             2 2.83   6 2.94  12 2.97  16 2.98
   5  0.979  0.635  0.006-  50 1.84  47 1.92  23 1.93  27 2.08  54 2.20  30 2.30   3 2.60  15 2.83
                            11 2.85   7 3.00  17 3.02
   6  0.017  0.662  0.489-  29 1.81  25 1.82  28 1.90  48 1.97  49 2.06  52 2.13  12 2.57   2 2.83
                            16 2.85   8 2.85   4 2.94  18 3.05
   7  0.307  0.001  0.977-  27 1.86  22 1.89  31 1.94  34 2.09  30 2.20  39 2.45   1 2.75  15 2.79
                             9 2.86  13 2.96   5 3.00
   8  0.334  0.008  0.490-  20 1.84  33 1.92  28 1.93  32 1.94  41 1.94  29 1.97  10 2.75   2 2.76
                            14 2.79   6 2.85  16 2.92  12 2.92
   9  0.320  0.340  0.005-  35 1.78  22 1.91  26 1.91  31 1.99  38 2.06  19 2.07  11 2.56  17 2.74
                             1 2.75   3 2.81   7 2.86  15 2.92
  10  0.281  0.298  0.492-  20 1.68  21 1.83  24 2.02  33 2.09  36 2.20  37 2.35   2 2.57   4 2.60
                             8 2.75  12 2.95  16 3.06
  11  0.310  0.633  0.996-  42 1.83  23 1.83  26 1.84  35 1.98  30 2.05  39 2.08   9 2.56   3 2.63
                            17 2.72   5 2.85  13 2.92
  12  0.315  0.658  0.487-  28 1.73  40 1.83  25 1.87  37 1.96  24 1.96  41 2.03   6 2.57   8 2.92
                            10 2.95  18 2.95  14 2.95   4 2.97
  13  0.642  0.981  0.976-  34 1.70  39 1.85  42 1.94  43 1.96  46 2.02  51 2.21  17 2.76  15 2.81
                            11 2.92   1 2.92   7 2.96   3 3.04
  14  0.657  0.005  0.473-  41 1.71  44 1.84  32 1.93  45 1.97  40 2.03  53 2.14   4 2.68   8 2.79
                            12 2.95  16 3.00  18 3.02   2 3.07
  15  0.645  0.310  0.991-  31 1.80  34 1.93  38 1.99  50 2.01  43 2.02  47 2.05   7 2.79  13 2.81
                             5 2.83   3 2.86   9 2.92  17 3.02
  16  0.663  0.357  0.498-  49 1.68  33 1.81  36 1.91  48 1.99  45 2.02  32 2.28  18 2.57   6 2.85
                             8 2.92   4 2.98  14 3.00  10 3.06
  17  0.640  0.659  0.003-  35 1.73  51 1.81  42 1.83  47 1.96  54 2.04  38 2.18  11 2.72   9 2.74
                            13 2.76  15 3.02   5 3.02
  18  0.657  0.654  0.486-  49 1.73  36 1.84  52 1.84  53 1.86  40 1.88  37 1.92  16 2.57   2 2.89
                            12 2.95  14 3.02   6 3.05
  19  0.072  0.202  0.102-   1 1.60   3 1.91   9 2.07
  20  0.226  0.115  0.393-  10 1.68   8 1.84   2 2.02
  21  0.080  0.214  0.602-   4 1.69  10 1.83   2 1.95
  22  0.185  0.117  0.907-   1 1.70   7 1.89   9 1.91
  23  0.112  0.547  0.110-  11 1.83   3 1.89   5 1.93
  24  0.225  0.450  0.361-  12 1.96  10 2.02   4 2.26
  25  0.120  0.577  0.612-   6 1.82  12 1.87   4 2.29
  26  0.246  0.451  0.867-  11 1.84   9 1.91   3 2.25
  27  0.117  0.886  0.103-   7 1.86   1 2.07   5 2.08
  28  0.240  0.781  0.392-  12 1.73   6 1.90   8 1.93
  29  0.106  0.866  0.593-   6 1.81   2 1.83   8 1.97
  30  0.222  0.753  0.855-  11 2.05   7 2.20   5 2.30
  31  0.440  0.215  0.092-  15 1.80   7 1.94   9 1.99
  32  0.537  0.104  0.362-  14 1.93   8 1.94  16 2.28
  33  0.454  0.230  0.594-  16 1.81   8 1.92  10 2.09
  34  0.559  0.092  0.882-  13 1.70  15 1.93   7 2.09
  35  0.447  0.543  0.103-  17 1.73   9 1.78  11 1.98
  36  0.542  0.445  0.382-  18 1.84  16 1.91  10 2.20
  37  0.450  0.579  0.605-  18 1.92  12 1.96  10 2.35
  38  0.535  0.420  0.870-  15 1.99   9 2.06  17 2.18
  39  0.460  0.871  0.109-  13 1.85  11 2.08   7 2.45
  40  0.531  0.751  0.394-  12 1.83  18 1.88  14 2.03
  41  0.467  0.905  0.576-  14 1.71   8 1.94  12 2.03
  42  0.519  0.741  0.894-  11 1.83  17 1.83  13 1.94
  43  0.762  0.193  0.098-  13 1.96   3 1.98  15 2.02
  44  0.873  0.122  0.379-   4 1.78  14 1.84   2 2.34
  45  0.726  0.198  0.614-  14 1.97  16 2.02   4 2.18
  46  0.883  0.115  0.879-   3 2.00   1 2.00  13 2.02
  47  0.755  0.545  0.105-   5 1.92  17 1.96  15 2.05
  48  0.880  0.442  0.376-   6 1.97  16 1.99   4 2.15
  49  0.765  0.560  0.577-  16 1.68  18 1.73   6 2.06
  50  0.878  0.442  0.883-   5 1.84   3 1.94  15 2.01
  51  0.780  0.866  0.098-  17 1.81   1 1.86  13 2.21
  52  0.867  0.763  0.383-  18 1.84   2 2.05   6 2.13
  53  0.760  0.864  0.593-  18 1.86   2 1.94  14 2.14
  54  0.863  0.766  0.878-  17 2.04   5 2.20   1 2.28

  LATTYP: Found a hexagonal cell.
 ALAT       =     8.5719417516
 C/A-ratio  =     1.1065328049

  Lattice vectors:

 A1 = (   8.5719417500,   0.0000000000,   0.0000000000)
 A2 = (  -4.2859708800,   7.4235193200,   0.0000000000)
 A3 = (   0.0000000000,   0.0000000000,   9.4851347500)

Analysis of symmetry for initial positions (statically):
 Subroutine PRICEL returns:
 Original cell was already a primitive cell.

 Routine SETGRP: Setting up the symmetry group for a
 hexagonal supercell.

 Subroutine GETGRP returns: Found  1 space group operations
 (whereof  1 operations were pure point group operations)
 out of a pool of 24 trial point group operations.

The static configuration has the point symmetry C_1 .

Analysis of symmetry for dynamics (positions and initial velocities):
 Subroutine PRICEL returns:
 Original cell was already a primitive cell.

 Routine SETGRP: Setting up the symmetry group for a
 hexagonal supercell.

 Subroutine GETGRP returns: Found  1 space group operations
 (whereof  1 operations were pure point group operations)
 out of a pool of 24 trial point group operations.

The dynamic configuration has the point symmetry C_1 .

 Subroutine INISYM returns: Found  1 space group operations
 (whereof  1 operations are pure point group operations),
 and found     1 'primitive' translations

 KPOINTS: Automatic mesh

Automatic generation of k-mesh.
Space group operators:
 irot       det(A)        alpha          n_x          n_y          n_z        tau_x        tau_y        tau_z
    1     1.000000     0.000000     1.000000     0.000000     0.000000     0.000000     0.000000     0.000000

 Subroutine IBZKPT returns following result:

 Found     26 irreducible k-points:

 Following reciprocal coordinates:
            Coordinates               Weight
  0.000000  0.000000  0.000000      1.000000
  0.250000  0.000000  0.000000      2.000000
  0.500000  0.000000  0.000000      1.000000
  0.000000  0.250000  0.000000      2.000000
  0.250000  0.250000  0.000000      2.000000
  0.500000  0.250000  0.000000      2.000000
 -0.250000  0.250000  0.000000      2.000000
  0.000000  0.500000  0.000000      1.000000
  0.250000  0.500000  0.000000      2.000000
  0.500000  0.500000  0.000000      1.000000
  0.000000  0.000000  0.333333      2.000000
  0.250000  0.000000  0.333333      2.000000
  0.500000  0.000000  0.333333      2.000000
 -0.250000  0.000000  0.333333      2.000000
  0.000000  0.250000  0.333333      2.000000
  0.250000  0.250000  0.333333      2.000000
  0.500000  0.250000  0.333333      2.000000
 -0.250000  0.250000  0.333333      2.000000
  0.000000  0.500000  0.333333      2.000000
  0.250000  0.500000  0.333333      2.000000
  0.500000  0.500000  0.333333      2.000000
 -0.250000  0.500000  0.333333      2.000000
  0.000000 -0.250000  0.333333      2.000000
  0.250000 -0.250000  0.333333      2.000000
  0.500000 -0.250000  0.333333      2.000000
 -0.250000 -0.250000  0.333333      2.000000

 Following cartesian coordinates:
            Coordinates               Weight
  0.000000  0.000000  0.000000      1.000000
  0.029165  0.016838  0.000000      2.000000
  0.058330  0.033677  0.000000      1.000000
  0.000000  0.033677  0.000000      2.000000
  0.029165  0.050515  0.000000      2.000000
  0.058330  0.067353  0.000000      2.000000
 -0.029165  0.016838  0.000000      2.000000
  0.000000  0.067353  0.000000      1.000000
  0.029165  0.084192  0.000000      2.000000
  0.058330  0.101030  0.000000      1.000000
  0.000000  0.000000  0.035143      2.000000
  0.029165  0.016838  0.035143      2.000000
  0.058330  0.033677  0.035143      2.000000
 -0.029165 -0.016838  0.035143      2.000000
  0.000000  0.033677  0.035143      2.000000
  0.029165  0.050515  0.035143      2.000000
  0.058330  0.067353  0.035143      2.000000
 -0.029165  0.016838  0.035143      2.000000
  0.000000  0.067353  0.035143      2.000000
  0.029165  0.084192  0.035143      2.000000
  0.058330  0.101030  0.035143      2.000000
 -0.029165  0.050515  0.035143      2.000000
  0.000000 -0.033677  0.035143      2.000000
  0.029165 -0.016838  0.035143      2.000000
  0.058330  0.000000  0.035143      2.000000
 -0.029165 -0.050515  0.035143      2.000000

 SYSTEM =  unknown system
 POSCAR =  NiO2_C2_m_scale_1_025_disp_0_12_round_2

 Startparameter for this run:
[...]
    234       4.2298      0.00000
    235       9.2379      0.00000
    236       9.6485      0.00000
    237      10.1668      0.00000
    238      10.5349      0.00000
    239      10.6843      0.00000
    240      11.0480      0.00000

 soft charge-density along one line, spin component           1
         0         1         2         3         4         5         6         7         8         9
 total charge-density along one line

------------------------ aborting loop because EDIFF is reached ----------------------------------------

  FORCE on cell =-STRESS in cart. coord.  units (eV):
  Direction    XX          YY          ZZ          XY          YZ          ZX
  Alpha Z  1149.28122  1149.28122  1149.28122
  Ewald   -2933.82407 -2938.27180-16880.74657    92.74226    -6.23550  -100.85123
  Hartree  7546.61849  7516.40713 -2579.73069    49.68824   -14.56127   -36.70056
  E(xc)   -2005.32115 -2005.46040 -2008.01133    -0.00236    -0.03072     0.13486
  Local  -12243.62442-12201.79850 11679.69942  -142.22716    26.21621   132.93627
  n-local  -888.46168  -886.54705  -900.25463     1.30234     1.49684    -2.72732
  augment  3363.27977  3359.79573  3402.86090    -1.35744    -2.53084     1.36699
  Kinetic  5972.77237  5976.01047  6085.39561    -2.69049     0.08849     2.03233
  Fock        0.00000     0.00000     0.00000     0.00000     0.00000     0.00000
  Total      -39.2794757    -30.5831874    -51.5060635     -2.5446145      4.4432014     -3.8086546
  in kB     -104.2662382    -81.1821910   -136.7213638     -6.7546060     11.7943504    -10.1099641

 VOLUME and BASIS-vectors are now :
  energy-cutoff  :      500.00
  volume of cell :      603.58
      direct lattice vectors                 reciprocal lattice vectors
     8.571941750  0.000000000  0.000000000     0.116659682  0.067353499  0.000000000
    -4.285970880  7.423519320  0.000000000     0.000000000  0.134706998  0.000000000
     0.000000000  0.000000000  9.485134750     0.000000000  0.000000000  0.105428128

  length of vectors
     8.571941750  8.571941757  9.485134750     0.134706998  0.134706998  0.105428128

 FORCES acting on ions
    electron-ion (+dipol)            ewald-force                    non-local-force                 convergence-correction
   -.962E+01 0.226E+03 -.922E+01   0.726E+01 -.235E+03 0.674E+01   0.925E+00 0.656E+00 -.155E+01   -.364E-02 -.157E-01 0.111E-01
   0.605E+02 0.147E+01 -.495E+02   -.632E+02 -.494E+01 0.496E+02   -.322E-01 0.237E+01 -.275E+01   -.319E-03 -.252E-01 -.171E-02
   0.359E+02 -.604E+01 0.536E+02   -.380E+02 0.310E+01 -.540E+02   0.170E+01 0.247E+00 -.607E+00   -.280E-01 0.197E-01 0.163E-02
   0.883E+02 -.122E+03 -.682E+02   -.926E+02 0.124E+03 0.658E+02   0.874E+00 0.150E+01 0.675E+00   -.323E-01 0.170E-01 -.507E-02
   0.285E+02 -.160E+03 -.875E+01   -.309E+02 0.162E+03 0.835E+01   0.124E+01 0.100E+01 -.117E+01   -.170E-01 -.178E-01 0.114E-01
   0.755E+02 0.557E+02 0.542E+02   -.775E+02 -.573E+02 -.554E+02   -.147E+01 0.129E+01 0.883E-01   0.281E-03 -.163E-01 0.556E-02
   -.616E+02 0.117E+03 0.125E+03   0.619E+02 -.118E+03 -.124E+03   0.187E+01 0.181E+00 -.138E+00   0.152E-01 0.450E-02 0.529E-02
   0.248E+02 -.138E+02 -.497E+02   -.220E+02 0.138E+02 0.491E+02   -.495E+00 -.621E+00 0.126E+00   0.263E-01 0.333E-04 0.625E-02
   -.422E+02 0.864E+02 -.526E+02   0.448E+02 -.883E+02 0.501E+02   -.544E+00 -.388E+00 0.224E+00   0.247E-01 0.259E-01 0.136E-02
   -.318E+02 -.131E+03 -.769E+02   0.346E+02 0.137E+03 0.766E+02   0.228E+00 0.203E+00 0.138E+01   0.361E-01 0.266E-01 -.166E-02
   0.130E+03 -.124E+03 -.425E+02   -.131E+03 0.128E+03 0.416E+02   0.153E+01 -.183E+00 0.841E+00   0.855E-02 0.615E-02 0.121E-02
   -.216E+02 0.971E+02 -.507E+02   0.261E+02 -.986E+02 0.521E+02   0.176E-01 0.171E+01 0.485E+00   0.180E-02 0.127E-01 0.674E-02
   -.654E+02 0.249E+02 0.749E+02   0.672E+02 -.255E+02 -.728E+02   0.127E+01 -.191E+00 0.986E+00   -.144E-01 0.567E-03 -.387E-02
   -.110E+03 -.210E+02 0.882E+02   0.111E+03 0.210E+02 -.900E+02   0.795E-02 -.779E+00 0.154E+01   -.170E-01 -.447E-02 0.377E-02
   -.293E+02 -.437E+02 0.281E+02   0.293E+02 0.453E+02 -.288E+02   0.648E+00 0.702E-01 -.620E-01   0.319E-03 0.173E-01 0.304E-02
   -.867E+02 0.929E+02 0.646E+01   0.879E+02 -.974E+02 -.892E+01   -.258E+00 -.276E+00 -.103E+01   -.106E-01 0.131E-01 0.620E-02
   -.160E+03 -.201E+02 0.554E+02   0.165E+03 0.212E+02 -.572E+02   -.479E+00 -.143E+01 -.142E+01   0.642E-02 -.164E-01 0.909E-02
   0.385E+02 -.345E+02 0.122E+02   -.429E+02 0.369E+02 -.131E+02   0.114E+01 -.479E+00 0.574E+00   -.482E-03 -.250E-01 0.356E-02
   -.220E+01 -.546E+02 -.371E+03   0.325E+00 0.658E+02 0.403E+03   0.211E+01 -.512E+01 -.290E+02   -.212E-02 0.831E-02 0.305E-01
   0.234E+02 0.539E+02 0.366E+03   -.242E+02 -.601E+02 -.396E+03   -.320E+00 0.318E+01 0.305E+02   0.307E-01 -.335E-03 -.138E-01
   -.127E+02 0.198E+02 -.377E+03   0.146E+02 -.217E+02 0.408E+03   0.106E+00 0.275E+00 -.307E+02   -.102E-01 0.210E-01 0.138E-01
   -.488E+02 0.324E+02 0.373E+03   0.495E+02 -.283E+02 -.401E+03   0.186E+01 -.289E+01 0.278E+02   0.113E-01 0.462E-02 -.221E-01
   0.439E+02 -.452E+02 -.333E+03   -.440E+02 0.467E+02 0.361E+03   -.831E+00 -.230E+01 -.301E+02   -.912E-02 0.169E-01 0.119E-01
   0.237E+02 0.325E+02 0.269E+03   -.246E+02 -.327E+02 -.290E+03   0.864E-01 -.825E+00 0.243E+02   -.112E-02 0.169E-01 -.175E-02
   0.105E+02 0.824E+02 -.341E+03   -.933E+01 -.864E+02 0.367E+03   -.961E+00 0.249E+01 -.279E+02   -.732E-02 0.779E-02 -.799E-02
   0.383E+02 0.540E+02 0.372E+03   -.385E+02 -.570E+02 -.399E+03   -.135E+01 0.166E+01 0.293E+02   0.401E-02 0.192E-01 -.182E-01
   -.732E+01 0.503E+02 -.273E+03   0.751E+01 -.525E+02 0.295E+03   -.794E+00 0.201E+01 -.244E+02   0.403E-02 -.223E-01 0.178E-01
   0.534E+02 -.329E+02 0.366E+03   -.554E+02 0.382E+02 -.394E+03   -.481E+00 -.488E+01 0.279E+02   0.352E-03 -.336E-02 0.881E-02
   0.168E+01 -.205E+02 -.366E+03   0.186E+01 0.194E+02 0.394E+03   -.315E+01 0.236E+01 -.274E+02   0.299E-01 -.267E-01 0.335E-02
   0.624E+02 -.509E+02 0.239E+03   -.634E+02 0.502E+02 -.257E+03   0.641E-01 0.946E+00 0.215E+02   0.196E-02 -.109E-01 -.899E-02
   0.252E+01 0.431E+02 -.314E+03   -.407E+01 -.458E+02 0.340E+03   0.413E+00 0.185E+01 -.268E+02   0.242E-01 0.143E-01 0.134E-01
   0.303E+01 -.575E+02 0.324E+03   -.414E+01 0.623E+02 -.346E+03   0.125E+01 -.434E+01 0.246E+02   -.268E-02 0.563E-02 0.898E-02
   0.494E+02 0.248E+00 -.342E+03   -.521E+02 -.436E+00 0.366E+03   0.864E+00 -.412E+00 -.249E+02   0.214E-01 0.604E-02 -.417E-02
   0.772E+02 -.388E+01 0.330E+03   -.826E+02 0.700E+01 -.358E+03   0.239E+01 -.197E+01 0.276E+02   0.166E-03 0.168E-01 -.130E-01
   0.385E+01 -.163E+01 -.369E+03   -.630E+01 0.262E+01 0.400E+03   0.177E-01 -.129E+01 -.305E+02   0.132E-01 0.162E-01 0.110E-01
   0.395E+02 0.606E+02 0.315E+03   -.452E+02 -.662E+02 -.339E+03   0.575E+01 0.467E+01 0.251E+02   0.155E-01 0.882E-02 0.698E-02
   0.589E+01 0.586E+02 -.316E+03   -.610E+01 -.606E+02 0.338E+03   -.528E+00 0.351E+00 -.231E+02   0.976E-02 0.100E-01 -.524E-02
   -.360E+02 -.593E+01 0.323E+03   0.348E+02 0.814E+01 -.343E+03   0.113E+01 -.218E+01 0.236E+02   0.180E-01 0.690E-02 -.777E-02
   0.855E+02 -.223E+02 -.285E+03   -.899E+02 0.230E+02 0.306E+03   0.293E+01 -.942E+00 -.235E+02   0.125E-02 -.600E-02 0.123E-01
   -.319E+02 -.326E+02 0.313E+03   0.336E+02 0.338E+02 -.336E+03   -.105E+01 0.797E-01 0.229E+02   0.258E-02 -.680E-02 0.713E-02
   0.227E+02 0.243E+02 -.357E+03   -.251E+02 -.291E+02 0.384E+03   -.251E+00 0.349E+01 -.254E+02   -.355E-02 -.780E-03 -.276E-02
   -.207E+02 -.583E+02 0.358E+03   0.208E+02 0.576E+02 -.385E+03   0.364E+00 0.197E+01 0.282E+02   0.300E-02 -.103E-01 -.686E-02
   0.174E+02 -.931E+00 -.305E+03   -.165E+02 -.139E+01 0.328E+03   -.126E+01 0.328E+01 -.250E+02   -.220E-01 0.563E-02 0.140E-01
   -.567E+02 0.395E+02 0.320E+03   0.631E+02 -.422E+02 -.346E+03   -.576E+01 0.152E+01 0.273E+02   -.201E-01 0.398E-02 -.792E-02
   -.300E+02 -.297E+02 -.307E+03   0.287E+02 0.278E+02 0.328E+03   0.278E+01 0.313E+01 -.236E+02   -.166E-01 0.590E-02 -.278E-02
   -.316E+01 0.245E+02 0.335E+03   0.468E+01 -.245E+02 -.357E+03   -.158E+01 0.176E-01 0.243E+02   -.160E-01 -.262E-02 -.195E-01
   -.278E+02 0.740E+00 -.277E+03   0.258E+02 -.237E+01 0.300E+03   0.246E+01 0.108E+01 -.247E+02   0.797E-03 -.576E-02 0.209E-02
   -.238E+02 0.239E+02 0.291E+03   0.254E+02 -.268E+02 -.313E+03   -.933E+00 0.288E+01 0.248E+02   -.126E-01 0.615E-02 0.797E-02
   -.773E+02 -.451E+02 -.374E+03   0.842E+02 0.541E+02 0.403E+03   -.453E+01 -.779E+01 -.275E+02   -.414E-02 -.108E-01 -.889E-02
   0.288E+02 -.103E+02 0.345E+03   -.305E+02 0.943E+01 -.371E+03   0.180E+01 0.288E-01 0.285E+02   -.226E-01 0.914E-02 -.524E-02
   -.836E+01 -.249E+02 -.294E+03   0.516E+01 0.277E+02 0.319E+03   0.139E+01 -.155E+01 -.251E+02   -.960E-02 -.240E-01 0.144E-01
   -.474E+02 -.542E+02 0.329E+03   0.507E+02 0.570E+02 -.352E+03   -.156E+01 -.162E+01 0.239E+02   -.472E-02 -.342E-01 -.404E-02
   0.149E+02 -.545E+02 -.323E+03   -.208E+02 0.568E+02 0.345E+03   0.646E+01 -.932E+00 -.236E+02   -.252E-01 -.270E-01 0.324E-02
   -.531E+02 -.208E+02 0.280E+03   0.549E+02 0.227E+02 -.296E+03   -.155E+01 -.220E+01 0.197E+02   -.211E-02 -.243E-01 -.251E-02
   -.155E+02 -.930E+00 0.130E+02   -.107E-12 -.163E-12 0.568E-13   0.155E+02 0.910E+00 -.131E+02   -.398E-02 0.168E-01 0.880E-01

 POSITION                                       TOTAL-FORCE (eV/Angst)
      8.47018      0.15671      0.11090        -1.435666     -9.035075     -4.008342
     -4.20912      7.29695      4.84263        -2.734925     -1.116370     -2.572124
      7.05661      2.51296      9.44978        -0.479571     -2.672093     -1.021953
      7.10705      2.24688      4.75940        -3.461553      3.579969     -1.710463
      5.67242      4.71515      0.05239        -1.203799      3.453491     -1.556833
     -2.69224      4.91467      4.63741        -3.462215     -0.322970     -1.107423
      2.62887      0.00622      9.26496         2.177511     -1.424835      0.995467
      2.82690      0.05715      4.64711         2.314380     -0.688352     -0.444491
      1.29031      2.52302      0.05075         2.085408     -2.223198     -2.347166
      1.12831      2.21562      4.66546         3.051415      6.318122      1.037031
     -0.05556      4.69864      9.44748         0.397221      4.242614     -0.048018
     -0.12218      4.88826      4.62330         4.496913      0.231841      1.901198
      1.29495      7.28302      9.25563         3.030737     -0.803700      3.073256
      5.60786      0.03865      4.49117         1.140269     -0.779458     -0.258846
      4.20042      2.30368      9.39563         0.676163      1.734987     -0.697043
      4.15697      2.65009      4.72570         0.962034     -4.731449     -3.486958
      2.66074      4.89446      0.03289         5.042237     -0.255751     -3.213645
      2.83171      4.85184      4.61327        -3.227824      1.902338     -0.278686
     -0.25067      1.49668      0.96801         0.226222      6.151712      2.629064
      1.44511      0.85472      3.72820        -1.071846     -2.977541     -0.244400
     -0.23000      1.58781      5.71416         1.998589     -1.600787      0.381287
      1.08472      0.87163      8.60556         2.532593      1.229325     -0.895051
     -1.38628      4.05904      1.04793        -0.938204     -0.783552     -1.775418
     -0.00331      3.34135      3.42246        -0.836748     -1.031035      3.213566
     -1.44271      4.28663      5.80266         0.183729     -1.470670     -1.918733
      0.17150      3.34957      8.22443        -1.548874     -1.357600      2.620381
     -2.79675      6.57620      0.98156        -0.605343     -0.172121     -1.840411
     -1.28857      5.79997      3.72010        -2.479623      0.356521     -0.507826
     -2.80478      6.43087      5.62762         0.424107      1.236065     -0.045027
     -1.32530      5.59043      8.10842        -0.927634      0.192651      3.690441
      2.85081      1.59515      0.87419        -1.106100     -0.815573     -0.802442
      4.16076      0.76952      3.43542         0.136479      0.496330      2.622273
      2.90615      1.70788      5.63154        -1.876840     -0.594765     -0.451966
      4.39477      0.68656      8.36726        -3.043078      1.160301     -0.102674
      1.50570      4.02777      0.97840        -2.418575     -0.275497      0.704452
      2.73662      3.30707      3.62604         0.124444     -0.834962      1.292915
      1.38039      4.29550      5.73536        -0.726856     -1.644717     -1.737174
      2.78287      3.11894      8.25501        -0.086070      0.038026      3.200130
      0.21114      6.46342      1.03220        -1.430876     -0.322547     -2.438013
      1.32937      5.57639      3.73682         0.614185      1.205909     -0.783616
      0.12974      6.71537      5.46491        -2.673781     -1.309905      0.771449
      1.27316      5.49936      8.48075         0.440538      1.341036      0.383570
      5.70704      1.43502      0.93257        -0.470130      0.963099     -2.013114
      6.96134      0.90472      3.59264         0.665855     -1.214723      1.419848
      5.37380      1.47138      5.82368         1.426134      1.285379     -2.700405
      7.07687      0.85087      8.33726        -0.065257      0.037186      2.054356
      4.13723      4.04269      0.99371         0.527266     -0.559197     -1.816266
      5.64745      3.27810      3.56980         0.600565     -0.009370      3.176718
      4.15635      4.15438      5.47339         2.335447      1.216520      2.298112
      5.63435      3.28384      8.37946         0.094133     -0.818344      2.475479
      2.97446      6.43161      0.93237        -1.821223      1.316140     -0.277990
      4.15937      5.66312      3.62879         1.675127      1.127451      1.204790
      2.81369      6.41652      5.62100         0.467490      1.315179     -1.103047
      4.11299      5.68831      8.32350         0.285417     -0.286035      3.059780
    total drift:                                0.008676     -0.003499     -0.006375

  FREE ENERGIE OF THE ION-ELECTRON SYSTEM (eV)
  free  energy   TOTEN  =      -316.2572555404 eV

  energy  without entropy=     -316.2569837765  energy(sigma->0) =     -316.25711966

volume of typ            1:    19.0 %

volume of typ            2:     9.7 %

total charge

# of ion       s       p       d       tot
    1        0.329   0.447   7.850   8.626
    2        0.256   0.290   7.822   8.368
    3        0.256   0.312   7.816   8.384
    4        0.269   0.313   7.843   8.425
    5        0.248   0.281   7.794   8.323
    6        0.278   0.347   7.811   8.436
    7        0.243   0.263   7.811   8.318
    8        0.275   0.354   7.809   8.438
    9        0.271   0.345   7.830   8.446
   10        0.276   0.325   7.848   8.448
   11        0.282   0.372   7.816   8.470
   12        0.295   0.405   7.806   8.505
   13        0.289   0.360   7.808   8.458
   14        0.283   0.374   7.804   8.461
   15        0.264   0.324   7.792   8.380
   16        0.297   0.378   7.818   8.493
   17        0.296   0.390   7.810   8.495
   18        0.318   0.457   7.807   8.582
   19        1.290   2.743   0.013   4.046
   20        1.287   2.731   0.011   4.030
   21        1.285   2.737   0.012   4.033
   22        1.286   2.737   0.010   4.034
   23        1.287   2.699   0.008   3.995
   24        1.304   2.612   0.004   3.920
   25        1.295   2.672   0.007   3.973
   26        1.302   2.649   0.007   3.958
   27        1.293   2.651   0.005   3.949
   28        1.288   2.722   0.010   4.020
   29        1.285   2.713   0.009   4.007
   30        1.307   2.584   0.003   3.894
   31        1.289   2.689   0.007   3.985
   32        1.301   2.630   0.005   3.936
   33        1.290   2.685   0.007   3.982
   34        1.290   2.702   0.009   4.001
   35        1.287   2.737   0.011   4.035
   36        1.297   2.663   0.006   3.966
   37        1.298   2.641   0.004   3.944
   38        1.304   2.611   0.004   3.919
   39        1.303   2.623   0.004   3.930
   40        1.289   2.696   0.007   3.991
   41        1.294   2.704   0.009   4.007
   42        1.292   2.704   0.008   4.004
   43        1.299   2.640   0.005   3.944
   44        1.292   2.684   0.008   3.983
   45        1.304   2.617   0.004   3.926
   46        1.297   2.643   0.005   3.945
   47        1.294   2.653   0.005   3.952
   48        1.294   2.646   0.004   3.945
   49        1.287   2.753   0.013   4.052
   50        1.292   2.675   0.007   3.973
   51        1.288   2.693   0.007   3.988
   52        1.296   2.655   0.005   3.956
   53        1.295   2.661   0.006   3.962
   54        1.303   2.597   0.003   3.903
tot          51.61  102.59  140.95  295.14