 vasp.5.4.4.18Apr17-6-g9f103f2a35 (build May 12 2020 04:58:55) complex

 MD_VERSION_INFO: Compiled 2020-05-12T11:58:55-UTC in devlin.sd.materialsdesign.
 com:/home/medea2/data/build/wwolf/vasp-gpu5.4.4/13047/x86_64/src/src/build/std
 from svn 13047

 executed on                        Lin64 date 2023.04.27  08:09:22

 INCAR:
 POTCAR:    PAW_PBE Ni 02Aug2007
 POTCAR:    PAW_PBE O 08Apr2002

 POTCAR:    PAW_PBE Ni 02Aug2007

 POTCAR:    PAW_PBE O 08Apr2002

 Optimization of the real space projectors (new method)

 maximal supplied QI-value         = 16.25
 optimisation between [QCUT,QGAM] = [ 11.38, 22.75] = [ 36.24,144.96] Ry
 Optimized for a Real-space Cutoff    1.47 Angstroem

   l    n(q)    QCUT    max X(q) W(low)/X(q) W(high)/X(q)  e(spline)
   2      9    11.376    60.317    0.17E-03    0.16E-04    0.16E-06
   2      9    11.376    55.921    0.17E-03    0.16E-04    0.17E-06
   0     10    11.376    51.690    0.45E-04    0.60E-04    0.21E-06
   0     10    11.376    30.015    0.37E-04    0.55E-04    0.19E-06
   1     10    11.376    18.849    0.83E-04    0.11E-03    0.92E-07
   1     10    11.376    14.624    0.69E-04    0.92E-04    0.82E-07
 Optimization of the real space projectors (new method)

 maximal supplied QI-value         = 24.76
 optimisation between [QCUT,QGAM] = [ 11.39, 22.77] = [ 36.31,145.25] Ry
 Optimized for a Real-space Cutoff    1.10 Angstroem

   l    n(q)    QCUT    max X(q) W(low)/X(q) W(high)/X(q)  e(spline)
   0      7    11.387    20.381    0.22E-03    0.48E-03    0.18E-06
   0      7    11.387    15.268    0.22E-03    0.52E-03    0.19E-06
   1      7    11.387     5.964    0.22E-03    0.73E-03    0.24E-06
   1      7    11.387     5.382    0.19E-03    0.60E-03    0.21E-06

  PAW_PBE Ni 02Aug2007                  :
  PAW_PBE O 08Apr2002                   :

 POSCAR: NiO2_C2_m_scale_1_025_disp_0_08_round_2
  positions in direct lattice
 exchange correlation table for  LEXCH =       14
   RHO(1)=    0.500       N(1)  =     2000
   RHO(2)=  100.500       N(2)  =     4000

 ion  position               nearest neighbor table
   1  0.002  0.003  0.997-  19 1.90  46 2.00  22 2.02  51 2.08  54 2.09  27 2.09   3 2.70   7 2.78
                             9 2.83   5 2.90  13 3.04  17 3.07
   2  0.991  0.986  0.466-  20 1.73  52 1.78  44 1.91  53 1.98  21 2.02  29 2.07   8 2.70   4 2.84
                            18 2.88   6 2.97  14 3.03  10 3.07
   3  0.998  0.316  0.003-  46 1.78  19 1.85  23 1.87  43 1.92  26 2.02  50 2.25   9 2.65   1 2.70
                            11 2.80  13 2.86   5 2.98
   4  0.009  0.325  0.490-  21 1.82  24 1.86  25 1.97  44 2.01  48 2.02  45 2.27  10 2.78   6 2.78
                            12 2.78   2 2.84  14 2.94  16 3.09
   5  0.991  0.659  0.985-  54 1.92  30 1.93  50 1.95  27 2.01  47 2.04  23 2.05   7 2.78  17 2.80
                            11 2.87   1 2.90   3 2.98  15 2.98
   6  0.990  0.640  0.488-  48 1.78  25 1.85  28 1.87  29 1.95  49 2.04  52 2.07   4 2.78  18 2.82
                             8 2.89  16 2.91  12 2.92   2 2.97
   7  0.316  0.983  0.995-  27 1.66  31 1.89  22 1.94  39 1.99  30 2.03  34 2.06  13 2.76   1 2.78
                             5 2.78  15 2.81  11 2.90   9 3.07
   8  0.309  0.993  0.491-  29 1.74  33 1.84  20 1.91  32 1.98  28 2.05  41 2.12   2 2.70  16 2.79
                            14 2.87   6 2.89  10 2.92  12 3.07
   9  0.320  0.343  0.996-  26 1.70  35 1.78  38 1.85  19 1.88  31 2.05  22 2.07  11 2.61   3 2.65
                            17 2.70   1 2.83  15 2.85   7 3.07
  10  0.344  0.349  0.474-  37 1.75  24 1.77  36 1.77  33 1.90  20 1.96  21 2.09  12 2.61  18 2.64
                            16 2.74   4 2.78   8 2.92   2 3.07
  11  0.319  0.647  0.992-  39 1.82  23 1.82  35 1.88  30 1.97  42 2.04  26 2.05   9 2.61   3 2.80
                             5 2.87   7 2.90  17 2.92  13 2.94
  12  0.335  0.648  0.499-  24 1.78  40 1.78  41 1.83  25 1.89  37 1.90  28 2.00  10 2.61   4 2.78
                            18 2.85  14 2.88   6 2.92   8 3.07
  13  0.647  0.004  0.996-  34 1.85  46 1.91  43 1.96  39 2.06  42 2.13  51 2.14  15 2.72   7 2.76
                             3 2.86  11 2.94   1 3.04
  14  0.648  0.002  0.493-  41 1.85  45 1.86  32 1.92  44 1.99  53 2.06  40 2.13  16 2.66   8 2.87
                            12 2.88   4 2.94   2 3.03
  15  0.638  0.316  0.994-  43 1.85  38 1.85  31 1.88  34 1.88  47 1.94  50 2.03  17 2.68  13 2.72
                             7 2.81   9 2.85   5 2.98
  16  0.641  0.310  0.486-  33 1.67  36 1.79  45 1.82  32 1.82  48 1.96  49 2.02  14 2.66  10 2.74
                            18 2.77   8 2.79   6 2.91   4 3.09
  17  0.654  0.636  0.998-  35 1.79  47 1.79  38 1.82  51 1.91  54 1.94  42 2.29  15 2.68   9 2.70
                             5 2.80  11 2.92   1 3.07
  18  0.664  0.644  0.480-  52 1.79  49 1.83  36 1.85  40 2.00  53 2.05  37 2.05  10 2.64  16 2.77
                             6 2.82  12 2.85   2 2.88
  19  0.111  0.217  0.106-   3 1.85   9 1.88   1 1.90
  20  0.202  0.109  0.390-   2 1.73   8 1.91  10 1.96
  21  0.104  0.209  0.588-   4 1.82   2 2.02  10 2.09
  22  0.228  0.109  0.878-   7 1.94   1 2.02   9 2.07
  23  0.111  0.540  0.093-  11 1.82   3 1.87   5 2.05
  24  0.228  0.450  0.395-  10 1.77  12 1.78   4 1.86
  25  0.113  0.555  0.594-   6 1.85  12 1.89   4 1.97
  26  0.218  0.413  0.879-   9 1.70   3 2.02  11 2.05
  27  0.135  0.886  0.098-   7 1.66   5 2.01   1 2.09
  28  0.207  0.750  0.389-   6 1.87  12 2.00   8 2.05
  29  0.110  0.872  0.585-   8 1.74   6 1.95   2 2.07
  30  0.209  0.756  0.875-   5 1.93  11 1.97   7 2.03
  31  0.421  0.201  0.097-  15 1.88   7 1.89   9 2.05
  32  0.535  0.105  0.381-  16 1.82  14 1.92   8 1.98
  33  0.441  0.221  0.566-  16 1.67   8 1.84  10 1.90
  34  0.552  0.109  0.881-  13 1.85  15 1.88   7 2.06
  35  0.443  0.550  0.089-   9 1.78  17 1.79  11 1.88
  36  0.552  0.426  0.386-  10 1.77  16 1.79  18 1.85
  37  0.432  0.524  0.598-  10 1.75  12 1.90  18 2.05
  38  0.533  0.428  0.898-  17 1.82   9 1.85  15 1.85
  39  0.409  0.848  0.102-  11 1.82   7 1.99  13 2.06
  40  0.527  0.748  0.388-  12 1.78  18 2.00  14 2.13
  41  0.435  0.865  0.591-  12 1.83  14 1.85   8 2.12
  42  0.537  0.774  0.862-  11 2.04  13 2.13  17 2.29
  43  0.770  0.236  0.094-  15 1.85   3 1.92  13 1.96
  44  0.871  0.097  0.378-   2 1.91  14 1.99   4 2.01
  45  0.739  0.211  0.600-  16 1.82  14 1.86   4 2.27
  46  0.874  0.116  0.902-   3 1.78  13 1.91   1 2.00
  47  0.759  0.539  0.101-  17 1.79  15 1.94   5 2.04
  48  0.877  0.434  0.392-   6 1.78  16 1.96   4 2.02
  49  0.756  0.541  0.599-  18 1.83  16 2.02   6 2.04
  50  0.864  0.437  0.876-   5 1.95  15 2.03   3 2.25
  51  0.756  0.858  0.100-  17 1.91   1 2.08  13 2.14
  52  0.872  0.769  0.387-   2 1.78  18 1.79   6 2.07
  53  0.776  0.883  0.590-   2 1.98  18 2.05  14 2.06
  54  0.870  0.762  0.884-   5 1.92  17 1.94   1 2.09

  LATTYP: Found a hexagonal cell.
 ALAT       =     8.5719417516
 C/A-ratio  =     1.1065328049

  Lattice vectors:

 A1 = (   8.5719417500,   0.0000000000,   0.0000000000)
 A2 = (  -4.2859708800,   7.4235193200,   0.0000000000)
 A3 = (   0.0000000000,   0.0000000000,   9.4851347500)

Analysis of symmetry for initial positions (statically):
 Subroutine PRICEL returns:
 Original cell was already a primitive cell.

 Routine SETGRP: Setting up the symmetry group for a
 hexagonal supercell.

 Subroutine GETGRP returns: Found  1 space group operations
 (whereof  1 operations were pure point group operations)
 out of a pool of 24 trial point group operations.

The static configuration has the point symmetry C_1 .

Analysis of symmetry for dynamics (positions and initial velocities):
 Subroutine PRICEL returns:
 Original cell was already a primitive cell.

 Routine SETGRP: Setting up the symmetry group for a
 hexagonal supercell.

 Subroutine GETGRP returns: Found  1 space group operations
 (whereof  1 operations were pure point group operations)
 out of a pool of 24 trial point group operations.

The dynamic configuration has the point symmetry C_1 .

 Subroutine INISYM returns: Found  1 space group operations
 (whereof  1 operations are pure point group operations),
 and found     1 'primitive' translations

 KPOINTS: Automatic mesh

Automatic generation of k-mesh.
Space group operators:
 irot       det(A)        alpha          n_x          n_y          n_z        tau_x        tau_y        tau_z
    1     1.000000     0.000000     1.000000     0.000000     0.000000     0.000000     0.000000     0.000000

 Subroutine IBZKPT returns following result:

 Found     26 irreducible k-points:

 Following reciprocal coordinates:
            Coordinates               Weight
  0.000000  0.000000  0.000000      1.000000
  0.250000  0.000000  0.000000      2.000000
  0.500000  0.000000  0.000000      1.000000
  0.000000  0.250000  0.000000      2.000000
  0.250000  0.250000  0.000000      2.000000
  0.500000  0.250000  0.000000      2.000000
 -0.250000  0.250000  0.000000      2.000000
  0.000000  0.500000  0.000000      1.000000
  0.250000  0.500000  0.000000      2.000000
  0.500000  0.500000  0.000000      1.000000
  0.000000  0.000000  0.333333      2.000000
  0.250000  0.000000  0.333333      2.000000
  0.500000  0.000000  0.333333      2.000000
 -0.250000  0.000000  0.333333      2.000000
  0.000000  0.250000  0.333333      2.000000
  0.250000  0.250000  0.333333      2.000000
  0.500000  0.250000  0.333333      2.000000
 -0.250000  0.250000  0.333333      2.000000
  0.000000  0.500000  0.333333      2.000000
  0.250000  0.500000  0.333333      2.000000
  0.500000  0.500000  0.333333      2.000000
 -0.250000  0.500000  0.333333      2.000000
  0.000000 -0.250000  0.333333      2.000000
  0.250000 -0.250000  0.333333      2.000000
  0.500000 -0.250000  0.333333      2.000000
 -0.250000 -0.250000  0.333333      2.000000

 Following cartesian coordinates:
            Coordinates               Weight
  0.000000  0.000000  0.000000      1.000000
  0.029165  0.016838  0.000000      2.000000
  0.058330  0.033677  0.000000      1.000000
  0.000000  0.033677  0.000000      2.000000
  0.029165  0.050515  0.000000      2.000000
  0.058330  0.067353  0.000000      2.000000
 -0.029165  0.016838  0.000000      2.000000
  0.000000  0.067353  0.000000      1.000000
  0.029165  0.084192  0.000000      2.000000
  0.058330  0.101030  0.000000      1.000000
  0.000000  0.000000  0.035143      2.000000
  0.029165  0.016838  0.035143      2.000000
  0.058330  0.033677  0.035143      2.000000
 -0.029165 -0.016838  0.035143      2.000000
  0.000000  0.033677  0.035143      2.000000
  0.029165  0.050515  0.035143      2.000000
  0.058330  0.067353  0.035143      2.000000
 -0.029165  0.016838  0.035143      2.000000
  0.000000  0.067353  0.035143      2.000000
  0.029165  0.084192  0.035143      2.000000
  0.058330  0.101030  0.035143      2.000000
 -0.029165  0.050515  0.035143      2.000000
  0.000000 -0.033677  0.035143      2.000000
  0.029165 -0.016838  0.035143      2.000000
  0.058330  0.000000  0.035143      2.000000
 -0.029165 -0.050515  0.035143      2.000000

 SYSTEM =  unknown system
 POSCAR =  NiO2_C2_m_scale_1_025_disp_0_08_round_2

[...]
    234       4.1451      0.00000
    235       9.7514      0.00000
    236      10.5096      0.00000
    237      10.6241      0.00000
    238      10.8253      0.00000
    239      11.2848      0.00000
    240      11.5097      0.00000

 soft charge-density along one line, spin component           1
         0         1         2         3         4         5         6         7         8         9
 total charge-density along one line

------------------------ aborting loop because EDIFF is reached ----------------------------------------

  FORCE on cell =-STRESS in cart. coord.  units (eV):
  Direction    XX          YY          ZZ          XY          YZ          ZX
  Alpha Z  1149.28122  1149.28122  1149.28122
  Ewald   -2046.98611 -1981.81927-18149.54292   137.15372    51.79257   -61.24610
  Hartree  8225.68080  8246.58113 -3440.72812    36.86509    30.89598   -22.51816
  E(xc)   -2008.77322 -2008.74119 -2012.10254    -0.05540    -0.00002     0.16751
  Local  -13790.29547-13873.80215 13754.11514  -159.58597   -83.33994    83.85536
  n-local  -879.94430  -878.82576  -902.05696     2.93749    -0.00114    -3.46496
  augment  3352.37352  3351.24724  3419.76449    -8.50428    -0.11606    -0.15409
  Kinetic  5965.78335  5958.67326  6146.08410    -5.14964     0.87364    -3.87452
  Fock        0.00000     0.00000     0.00000     0.00000     0.00000     0.00000
  Total      -32.8802080    -37.4055047    -35.1855746      3.6610119      0.1050341     -7.2349581
  in kB      -87.2795663    -99.2918361    -93.3990955      9.7180508      0.2788100    -19.2049881

 VOLUME and BASIS-vectors are now :
  energy-cutoff  :      500.00
  volume of cell :      603.58
      direct lattice vectors                 reciprocal lattice vectors
     8.571941750  0.000000000  0.000000000     0.116659682  0.067353499  0.000000000
    -4.285970880  7.423519320  0.000000000     0.000000000  0.134706998  0.000000000
     0.000000000  0.000000000  9.485134750     0.000000000  0.000000000  0.105428128

  length of vectors
     8.571941750  8.571941757  9.485134750     0.134706998  0.134706998  0.105428128

 FORCES acting on ions
    electron-ion (+dipol)            ewald-force                    non-local-force                 convergence-correction
   0.507E+02 0.108E+03 0.434E+02   -.516E+02 -.110E+03 -.440E+02   0.286E+00 -.180E+00 0.203E+00   0.101E-01 0.108E-01 0.193E-01
   0.655E+02 0.180E+02 -.917E+01   -.687E+02 -.177E+02 0.114E+02   0.530E+00 0.235E+00 0.270E+01   0.978E-02 0.348E-02 -.351E-01
   0.916E+02 -.244E+02 0.139E+02   -.943E+02 0.263E+02 -.137E+02   0.909E-02 0.419E+00 -.183E+01   -.402E-02 -.487E-02 0.277E-01
   0.119E+03 0.848E+02 -.564E+02   -.121E+03 -.855E+02 0.563E+02   -.102E+01 0.453E+00 0.117E+00   0.357E-02 0.944E-02 -.260E-01
   0.180E+02 -.419E+01 0.139E+02   -.177E+02 0.279E+01 -.157E+02   0.197E+00 0.873E-01 0.204E+01   -.662E-03 -.387E-02 0.318E-01
   0.650E+02 -.400E+02 -.375E+02   -.653E+02 0.412E+02 0.382E+02   -.681E+00 0.119E+01 0.399E+00   -.331E-02 -.834E-02 -.184E-01
   -.616E+02 0.842E+01 0.958E+02   0.640E+02 -.643E+01 -.985E+02   0.479E+00 -.334E+00 -.503E+00   -.855E-02 0.423E-02 0.287E-01
   -.488E+02 0.739E+02 -.306E+02   0.508E+02 -.750E+02 0.293E+02   0.115E+01 -.334E-01 -.106E+01   0.188E-01 0.259E-01 -.170E-01
   -.284E+02 0.109E+03 -.126E+02   0.322E+02 -.114E+03 0.128E+02   0.830E+00 -.559E+00 0.276E+00   0.440E-02 0.102E-01 0.321E-01
   0.623E+02 0.109E+03 0.356E+02   -.633E+02 -.114E+03 -.346E+02   -.429E-01 -.108E+01 0.101E+01   0.198E-01 0.817E-02 -.288E-01
   -.105E+02 -.541E+02 0.878E+02   0.103E+02 0.567E+02 -.896E+02   0.619E+00 -.122E+01 -.105E+01   -.103E-01 -.189E-01 0.451E-01
   0.359E+02 -.875E+02 -.102E+03   -.377E+02 0.908E+02 0.103E+03   -.600E+00 -.113E+01 -.844E+00   0.599E-02 -.965E-02 -.191E-01
   -.742E+02 0.102E+03 -.422E+02   0.758E+02 -.105E+03 0.409E+02   0.306E+00 -.277E+00 0.750E+00   -.768E-02 0.363E-01 0.206E-01
   -.106E+03 0.400E+02 -.145E+02   0.108E+03 -.419E+02 0.150E+02   0.246E+00 -.785E+00 -.138E+01   -.262E-01 0.722E-02 -.267E-01
   -.671E+02 -.121E+01 0.228E+02   0.688E+02 0.163E+01 -.235E+02   0.154E+00 0.848E+00 -.263E+00   0.328E-02 0.360E-03 0.287E-01
   -.158E+03 -.455E+02 -.689E+01   0.163E+03 0.485E+02 0.641E+01   -.159E+01 0.322E+00 0.382E-01   -.272E-01 -.144E-01 -.307E-01
   -.279E+01 -.188E+03 0.677E+02   0.305E+01 0.193E+03 -.683E+02   -.147E+01 -.473E+00 -.140E+01   0.900E-02 -.342E-01 0.383E-01
   0.262E+02 -.137E+03 -.199E+02   -.273E+02 0.140E+03 0.215E+02   -.120E+01 -.716E+00 0.796E+00   -.241E-02 -.297E-01 -.339E-01
   0.138E+02 0.539E+02 -.343E+03   -.113E+02 -.558E+02 0.371E+03   -.277E+01 0.165E+01 -.290E+02   0.103E-01 -.267E-03 0.274E-01
   -.980E+01 -.148E+01 0.323E+03   0.151E+02 0.642E+01 -.348E+03   -.306E+01 -.464E+01 0.240E+02   0.146E-01 0.119E-01 -.173E-01
   0.447E+01 0.646E+02 -.374E+03   0.139E+01 -.686E+02 0.397E+03   -.552E+01 0.415E+01 -.244E+02   0.124E-01 0.709E-02 -.375E-02
   0.271E+02 0.298E+02 0.357E+03   -.268E+02 -.271E+02 -.380E+03   -.141E+01 -.306E+01 0.249E+02   0.555E-02 0.602E-03 0.273E-02
   0.739E+02 -.123E+02 -.312E+03   -.788E+02 0.147E+02 0.338E+03   0.391E+01 -.255E+01 -.266E+02   -.438E-02 0.871E-02 0.220E-01
   0.691E+02 0.188E+02 0.369E+03   -.744E+02 -.175E+02 -.398E+03   0.460E+01 -.220E+01 0.287E+02   0.155E-01 0.571E-02 -.173E-01
   0.301E+02 0.234E+02 -.377E+03   -.307E+02 -.237E+02 0.403E+03   0.688E+00 -.128E+01 -.266E+02   0.744E-02 0.476E-02 0.176E-03
   0.845E+02 -.103E+02 0.407E+03   -.907E+02 0.120E+02 -.436E+03   0.333E+01 0.243E+00 0.302E+02   0.252E-02 0.116E-02 -.150E-02
   0.945E+02 0.556E+02 -.330E+03   -.101E+03 -.606E+02 0.358E+03   0.291E+01 0.326E+01 -.286E+02   0.296E-02 -.247E-02 0.162E-01
   -.912E+01 -.354E+02 0.325E+03   0.131E+02 0.375E+02 -.348E+03   -.381E+01 -.142E+01 0.239E+02   0.852E-02 0.318E-02 -.118E-01
   0.684E+02 0.151E+02 -.374E+03   -.758E+02 -.181E+02 0.400E+03   0.523E+01 0.266E+01 -.266E+02   0.111E-01 0.573E-02 -.152E-02
   0.864E+01 -.139E+02 0.344E+03   -.665E+01 0.151E+02 -.367E+03   -.228E+01 -.106E+01 0.261E+02   -.797E-02 -.531E-03 0.606E-02
   0.866E+01 0.149E+02 -.317E+03   -.119E+02 -.143E+02 0.341E+03   0.332E+01 -.162E+00 -.252E+02   0.225E-02 0.205E-02 0.190E-01
   -.305E+02 0.692E+02 0.364E+03   0.295E+02 -.733E+02 -.391E+03   0.119E+01 0.299E+01 0.279E+02   -.131E-02 0.184E-02 -.758E-02
   0.557E+02 0.528E+02 -.396E+03   -.630E+02 -.537E+02 0.425E+03   0.414E+01 -.309E+00 -.265E+02   0.214E-03 0.132E-02 -.140E-01
   0.240E+01 0.304E+02 0.361E+03   -.408E+01 -.312E+02 -.388E+03   0.734E+00 0.308E+00 0.288E+02   -.944E-02 0.117E-01 -.543E-02
   0.896E+01 -.672E+02 -.346E+03   -.105E+02 0.713E+02 0.375E+03   0.259E+00 -.388E+01 -.290E+02   -.535E-02 -.846E-02 0.302E-01
   -.309E+02 -.297E+02 0.387E+03   0.340E+02 0.306E+02 -.417E+03   -.323E+01 0.712E+00 0.286E+02   -.414E-02 -.888E-02 -.145E-01
   -.251E+02 -.494E+02 -.420E+03   0.287E+02 0.517E+02 0.449E+03   -.294E+01 -.370E-02 -.296E+02   -.110E-02 -.900E-02 -.170E-01
   -.203E+02 -.250E+00 0.392E+03   0.203E+02 -.136E+01 -.421E+03   0.219E+00 0.141E+01 0.291E+02   0.442E-02 -.111E-01 0.964E-03
   -.415E+02 -.420E+02 -.312E+03   0.420E+02 0.438E+02 0.338E+03   -.757E-01 0.653E-01 -.270E+02   -.126E-01 -.381E-02 0.228E-01
   -.418E+02 -.928E+02 0.325E+03   0.445E+02 0.977E+02 -.349E+03   -.100E+01 -.375E+01 0.250E+02   -.712E-02 -.285E-02 -.862E-02
   0.189E+02 -.346E+02 -.341E+03   -.231E+02 0.368E+02 0.366E+03   0.344E+01 -.929E+00 -.251E+02   0.962E-03 0.865E-02 -.134E-01
   -.554E+02 -.401E+02 0.287E+03   0.581E+02 0.411E+02 -.306E+03   -.257E+01 -.100E+01 0.219E+02   -.520E-02 -.399E-02 -.521E-02
   -.292E+02 0.122E+02 -.318E+03   0.301E+02 -.103E+02 0.344E+03   -.630E+00 -.335E+01 -.255E+02   -.126E-01 0.118E-01 0.240E-01
   0.458E+02 0.113E+01 0.297E+03   -.497E+02 -.218E+00 -.320E+03   0.395E+01 0.786E-01 0.244E+02   -.128E-01 -.805E-03 -.192E-01
   -.986E+02 -.113E+02 -.364E+03   0.104E+03 0.149E+02 0.389E+03   -.375E+01 -.394E+01 -.268E+02   -.121E-01 -.107E-01 -.677E-02
   -.780E+01 0.745E+02 0.352E+03   0.743E+01 -.782E+02 -.378E+03   0.107E+01 0.220E+01 0.272E+02   0.335E-02 0.209E-02 -.817E-02
   -.812E+02 -.286E+02 -.329E+03   0.873E+02 0.279E+02 0.355E+03   -.520E+01 0.473E+00 -.274E+02   0.106E-01 -.985E-02 0.239E-01
   -.242E+02 0.445E+02 0.321E+03   0.240E+02 -.494E+02 -.345E+03   0.815E+00 0.360E+01 0.251E+02   -.100E-01 -.447E-02 -.227E-01
   -.468E+02 -.270E+02 -.379E+03   0.489E+02 0.261E+02 0.404E+03   -.767E+00 0.575E+00 -.268E+02   -.548E-02 -.967E-02 -.536E-02
   -.388E+02 0.169E+02 0.316E+03   0.408E+02 -.204E+02 -.336E+03   -.155E+01 0.361E+01 0.228E+02   -.700E-02 0.192E-02 0.718E-02
   0.904E+01 -.531E+02 -.253E+03   -.104E+02 0.554E+02 0.274E+03   0.157E+01 -.106E+01 -.222E+02   0.700E-02 0.293E-03 0.253E-01
   -.333E+02 0.461E+01 0.324E+03   0.379E+02 -.819E+01 -.351E+03   -.310E+01 0.209E+01 0.258E+02   -.513E-03 -.908E-02 -.233E-01
   0.207E+01 -.242E+02 -.339E+03   -.152E+01 0.242E+02 0.360E+03   -.924E+00 -.349E+00 -.230E+02   -.106E-01 0.162E-02 -.727E-02
   0.233E+02 -.699E+02 0.329E+03   -.259E+02 0.730E+02 -.353E+03   0.324E+01 -.263E+01 0.256E+02   0.141E-01 -.253E-02 0.178E-02
   0.175E+01 0.107E+02 0.586E+01   -.401E-12 0.270E-12 0.512E-12   -.175E+01 -.107E+02 -.589E+01   -.166E-02 -.141E-01 0.345E-01

 POSITION                                       TOTAL-FORCE (eV/Angst)
      0.00211      0.02083      9.45352        -0.630878     -2.155758     -0.383239
      4.26963      7.32179      4.41914        -2.646843      0.478404      4.868949
      7.20132      2.34426      0.03153        -2.705190      2.299095     -1.619149
     -1.31899      2.41287      4.64766        -3.000987     -0.266656     -0.064286
      5.66644      4.89248      9.34507         0.477118     -1.315273      0.232992
      5.74470      4.74764      4.62891        -0.979596      2.391699      1.040600
     -1.50810      7.29977      9.43658         2.911937      1.667737     -3.192419
     -1.60988      7.37330      4.65351         3.223442     -1.060219     -2.350347
      1.27049      2.54775      9.44517         4.653365     -5.370082      0.570961
      1.44765      2.59398      4.49455        -0.999328     -5.985980      1.942028
     -0.03799      4.80418      9.41065         0.420071      1.386323     -2.805617
      0.08884      4.81315      4.72917        -2.380343      2.084013      0.189977
      5.53095      0.02834      9.44991         1.955773     -2.457777     -0.526607
      5.54132      0.01825      4.67322         2.202249     -2.672210     -0.917366
      4.11314      2.34682      9.43268         1.824044      1.275218     -0.942825
      4.16973      2.30117      4.60525         3.969207      3.317563     -0.467651
      2.87798      4.72111      9.46519        -1.203086      4.607423     -2.022039
      2.92872      4.78097      4.55427        -2.323898      2.372195      2.294428
      0.02174      1.60905      1.00324        -0.285135     -0.267413     -1.084613
      1.26660      0.80919      3.70045         2.271506      0.312237     -1.720210
     -0.00727      1.55231      5.57810         0.343146      0.109150     -1.654473
      1.49004      0.81145      8.33199        -1.046468     -0.286714      2.513200
     -1.36394      4.00547      0.88121        -0.975588     -0.110850     -0.772864
      0.02513      3.33759      3.74416        -0.680872     -0.853577     -0.906538
     -1.41245      4.11840      5.63548         0.074347     -1.561756     -0.535534
      0.09732      3.06818      8.33658        -2.882075      1.888445      0.725945
     -2.64231      6.57718      0.93007        -4.009710     -1.699751     -0.165513
     -1.44100      5.56728      3.68781         0.159718      0.700711      1.100475
     -2.79446      6.47223      5.54607        -2.172691     -0.369535     -0.315887
     -1.44669      5.61332      8.30212        -0.294830      0.159737      2.439860
      2.74710      1.49433      0.91859         0.047064      0.436446     -0.510210
      4.13608      0.77681      3.60957         0.159432     -1.100003      1.070809
      2.83446      1.63917      5.36923        -3.206827     -1.232683      2.613458
      4.25860      0.81243      8.35318        -0.952879     -0.446049      2.096883
      1.44154      4.08203      0.83959        -1.265891      0.230035      0.969255
      2.90885      3.16303      3.66589        -0.089112      1.559902     -1.743321
      1.45641      3.88865      5.67512         0.644965      2.323493     -0.822132
      2.73735      3.17754      8.51461         0.231930     -0.210341     -0.148467
     -0.12662      6.29330      0.96515         0.412401      1.857775     -1.661906
      1.31195      5.55640      3.67590         1.681256      1.134084      0.595125
      0.02427      6.41866      5.60658        -0.752116      1.284897     -0.400155
      1.28353      5.74262      8.17388         0.105892     -0.064198      3.537198
      5.58581      1.75024      0.89258         0.213645     -1.463392     -0.116855
      7.04732      0.71983      3.58257         0.022073      0.989764      1.736456
      5.42787      1.56798      5.69200         1.407882     -0.403331     -1.308673
      6.99487      0.86059      8.55837         0.708101     -1.484732      0.682854
      4.19971      4.00129      0.95349         0.984088     -0.232550     -0.944539
      5.65385      3.22070      3.71807         0.673374     -1.340915      0.631773
      4.15916      4.01661      5.67950         1.341108     -0.384155     -1.847199
      5.53753      3.24363      8.30606         0.407804      0.073872      2.492618
      2.80371      6.36633      0.95058         0.235640      1.214038     -1.565167
      4.17938      5.70719      3.66856         1.470537     -1.493307     -0.842403
      2.87066      6.55147      5.59340        -0.383172     -0.340686     -2.192412
      4.19263      5.65429      8.38715         0.634399      0.475638      2.204775
    total drift:                                0.000321     -0.007068      0.001482

  FREE ENERGIE OF THE ION-ELECTRON SYSTEM (eV)
  free  energy   TOTEN  =      -323.9847910947 eV

  energy  without entropy=     -323.9847896033  energy(sigma->0) =     -323.98479035

volume of typ            1:    19.0 %

volume of typ            2:     9.7 %

total charge

# of ion       s       p       d       tot
    1        0.239   0.267   7.793   8.299
    2        0.296   0.387   7.805   8.487
    3        0.284   0.365   7.812   8.461
    4        0.262   0.310   7.805   8.377
    5        0.254   0.301   7.787   8.341
    6        0.284   0.364   7.804   8.452
    7        0.295   0.383   7.818   8.495
    8        0.283   0.357   7.818   8.458
    9        0.315   0.428   7.843   8.587
   10        0.315   0.432   7.844   8.591
   11        0.282   0.365   7.803   8.451
   12        0.311   0.439   7.817   8.567
   13        0.251   0.292   7.791   8.334
   14        0.266   0.323   7.788   8.378
   15        0.288   0.384   7.801   8.472
   16        0.327   0.469   7.840   8.636
   17        0.298   0.394   7.811   8.504
   18        0.285   0.366   7.809   8.460
   19        1.287   2.704   0.008   4.000
   20        1.280   2.739   0.009   4.027
   21        1.295   2.666   0.006   3.967
   22        1.297   2.643   0.005   3.945
   23        1.285   2.705   0.007   3.997
   24        1.284   2.751   0.011   4.045
   25        1.289   2.694   0.007   3.990
   26        1.294   2.698   0.009   4.001
   27        1.293   2.701   0.009   4.003
   28        1.295   2.661   0.006   3.962
   29        1.289   2.702   0.008   3.999
   30        1.296   2.651   0.005   3.952
   31        1.288   2.689   0.006   3.983
   32        1.290   2.695   0.007   3.992
   33        1.284   2.763   0.012   4.059
   34        1.293   2.678   0.007   3.977
   35        1.282   2.747   0.010   4.039
   36        1.281   2.757   0.011   4.050
   37        1.294   2.699   0.008   4.001
   38        1.286   2.729   0.009   4.025
   39        1.293   2.669   0.006   3.969
   40        1.290   2.686   0.006   3.982
   41        1.288   2.693   0.007   3.988
   42        1.304   2.596   0.003   3.903
   43        1.287   2.692   0.007   3.986
   44        1.290   2.665   0.005   3.960
   45        1.293   2.678   0.007   3.978
   46        1.289   2.695   0.008   3.992
   47        1.291   2.685   0.007   3.984
   48        1.283   2.711   0.007   4.001
   49        1.295   2.668   0.006   3.968
   50        1.300   2.622   0.004   3.927
   51        1.292   2.645   0.004   3.941
   52        1.283   2.723   0.009   4.014
   53        1.297   2.635   0.004   3.937
   54        1.293   2.655   0.005   3.954
tot          51.59  103.41  140.85  295.85