 vasp.5.4.4.18Apr17-6-g9f103f2a35 (build May 12 2020 04:58:55) complex

 MD_VERSION_INFO: Compiled 2020-05-12T11:58:55-UTC in devlin.sd.materialsdesign.
 com:/home/medea2/data/build/wwolf/vasp-gpu5.4.4/13047/x86_64/src/src/build/std
 from svn 13047

 executed on                        Lin64 date 2023.04.27  08:25:23

 INCAR:
 POTCAR:    PAW_PBE Ni 02Aug2007
 POTCAR:    PAW_PBE O 08Apr2002

 POTCAR:    PAW_PBE Ni 02Aug2007

 POTCAR:    PAW_PBE O 08Apr2002

 Optimization of the real space projectors (new method)

 maximal supplied QI-value         = 16.25
 optimisation between [QCUT,QGAM] = [ 11.38, 22.75] = [ 36.24,144.96] Ry
 Optimized for a Real-space Cutoff    1.47 Angstroem

   l    n(q)    QCUT    max X(q) W(low)/X(q) W(high)/X(q)  e(spline)
   2      9    11.376    60.317    0.17E-03    0.16E-04    0.16E-06
   2      9    11.376    55.921    0.17E-03    0.16E-04    0.17E-06
   0     10    11.376    51.690    0.45E-04    0.60E-04    0.21E-06
   0     10    11.376    30.015    0.37E-04    0.55E-04    0.19E-06
   1     10    11.376    18.849    0.83E-04    0.11E-03    0.92E-07
   1     10    11.376    14.624    0.69E-04    0.92E-04    0.82E-07
 Optimization of the real space projectors (new method)

 maximal supplied QI-value         = 24.76
 optimisation between [QCUT,QGAM] = [ 11.39, 22.77] = [ 36.31,145.25] Ry
 Optimized for a Real-space Cutoff    1.10 Angstroem

   l    n(q)    QCUT    max X(q) W(low)/X(q) W(high)/X(q)  e(spline)
   0      7    11.387    20.381    0.22E-03    0.48E-03    0.18E-06
   0      7    11.387    15.268    0.22E-03    0.52E-03    0.19E-06
   1      7    11.387     5.964    0.22E-03    0.73E-03    0.24E-06
   1      7    11.387     5.382    0.19E-03    0.60E-03    0.21E-06

  PAW_PBE Ni 02Aug2007                  :
  PAW_PBE O 08Apr2002                   :

 POSCAR: NiO2_C2_m_scale_1_025_disp_0_08_round_1
  positions in direct lattice
 exchange correlation table for  LEXCH =       14
   RHO(1)=    0.500       N(1)  =     2000
   RHO(2)=  100.500       N(2)  =     4000

 ion  position               nearest neighbor table
   1  0.014  0.002  0.999-  27 1.89  22 1.92  19 1.94  54 2.03  46 2.22  51 2.23   3 2.76   7 2.77
                             5 2.86   9 2.88  17 3.04
   2  0.004  0.007  0.508-  21 1.86  20 1.86  29 1.92  53 2.02  44 2.10  52 2.13   4 2.73   8 2.81
                            10 2.84  14 3.07
   3  0.969  0.299  0.005-  46 1.80  43 1.86  19 1.91  23 2.06  26 2.17  50 2.32   1 2.76  13 2.76
                            11 2.81  15 2.93   5 2.99   9 3.01
   4  0.001  0.324  0.494-  21 1.88  48 1.89  25 1.92  24 1.97  45 1.97  44 2.06   6 2.73   2 2.73
                            10 2.82  12 2.83  14 2.89  16 3.07
   5  0.991  0.658  0.009-  27 1.64  47 1.78  23 1.92  30 2.06  54 2.08  50 2.11  11 2.84  15 2.84
                             1 2.86  17 2.93   7 2.95   3 2.99
   6  0.997  0.640  0.497-  48 1.80  25 1.87  29 1.93  28 1.94  49 1.97  52 2.05   4 2.73  12 2.81
                            16 2.82   8 2.87
   7  0.336  0.999  0.991-  34 1.74  31 1.84  39 2.01  27 2.06  22 2.11  30 2.12  13 2.62   1 2.77
                            15 2.80   5 2.95   9 2.96
   8  0.321  0.985  0.489-  29 1.78  32 1.89  33 1.94  20 1.99  41 2.02  28 2.03  14 2.71   2 2.81
                             6 2.87  12 2.89  16 2.91  10 2.94
   9  0.341  0.346  0.017-  35 1.66  31 1.90  19 1.91  26 2.03  38 2.06  22 2.18  11 2.55  17 2.68
                            15 2.68   1 2.88   7 2.96   3 3.01
  10  0.336  0.336  0.492-  36 1.77  37 1.79  33 1.80  20 1.89  24 1.90  21 2.04  18 2.53  16 2.68
                            12 2.74   4 2.82   2 2.84   8 2.94
  11  0.302  0.622  0.007-  23 1.64  26 1.79  35 1.80  42 2.03  39 2.05  30 2.14   9 2.55   3 2.81
                             5 2.84  17 2.85  13 3.01
  12  0.331  0.653  0.480-  24 1.73  37 1.74  28 1.76  41 1.80  40 1.84  25 2.04  18 2.67  10 2.74
                             6 2.81   4 2.83  14 2.88   8 2.89
  13  0.636  0.989  0.003-  39 1.66  34 1.85  43 1.86  51 1.95  46 2.05  42 2.05   7 2.62   3 2.76
                            17 2.90  15 2.95  11 3.01
  14  0.647  0.006  0.483-  45 1.66  32 1.82  41 1.84  44 1.91  40 2.01  53 2.05   8 2.71  16 2.82
                            12 2.88   4 2.89   2 3.07
  15  0.649  0.339  0.994-  47 1.79  31 1.79  38 1.88  50 1.97  43 1.98  34 2.17   9 2.68  17 2.73
                             7 2.80   5 2.84   3 2.93  13 2.95
  16  0.649  0.335  0.489-  49 1.77  36 1.79  32 1.85  48 1.88  33 1.94  45 1.94  18 2.62  10 2.68
                            14 2.82   6 2.82   8 2.91   4 3.07
  17  0.651  0.658  0.990-  42 1.84  35 1.87  54 1.94  51 1.95  38 2.09  47 2.13   9 2.68  15 2.73
                            11 2.85  13 2.90   5 2.93   1 3.04
  18  0.631  0.632  0.480-  36 1.77  40 1.78  37 1.82  53 1.89  52 1.97  49 2.02  10 2.53  16 2.62
                            12 2.67
  19  0.111  0.223  0.108-   3 1.91   9 1.91   1 1.94
  20  0.209  0.114  0.396-   2 1.86  10 1.89   8 1.99
  21  0.105  0.220  0.609-   2 1.86   4 1.88  10 2.04
  22  0.215  0.119  0.872-   1 1.92   7 2.11   9 2.18
  23  0.115  0.549  0.098-  11 1.64   5 1.92   3 2.06
  24  0.230  0.450  0.390-  12 1.73  10 1.90   4 1.97
  25  0.107  0.539  0.605-   6 1.87   4 1.92  12 2.04
  26  0.217  0.436  0.885-  11 1.79   9 2.03   3 2.17
  27  0.090  0.855  0.088-   5 1.64   1 1.89   7 2.06
  28  0.218  0.745  0.388-  12 1.76   6 1.94   8 2.03
  29  0.114  0.876  0.583-   8 1.78   2 1.92   6 1.93
  30  0.207  0.758  0.873-   5 2.06   7 2.12  11 2.14
  31  0.443  0.212  0.090-  15 1.79   7 1.84   9 1.90
  32  0.542  0.118  0.393-  14 1.82  16 1.85   8 1.89
  33  0.421  0.212  0.589-  10 1.80   8 1.94  16 1.94
  34  0.529  0.081  0.887-   7 1.74  13 1.85  15 2.17
  35  0.438  0.546  0.096-   9 1.66  11 1.80  17 1.87
  36  0.533  0.424  0.388-  10 1.77  18 1.77  16 1.79
  37  0.423  0.548  0.579-  12 1.74  10 1.79  18 1.82
  38  0.540  0.425  0.867-  15 1.88   9 2.06  17 2.09
  39  0.446  0.873  0.094-  13 1.66   7 2.01  11 2.05
  40  0.553  0.763  0.393-  18 1.78  12 1.84  14 2.01
  41  0.439  0.858  0.581-  12 1.80  14 1.84   8 2.02
  42  0.532  0.753  0.891-  17 1.84  11 2.03  13 2.05
  43  0.750  0.209  0.098-   3 1.86  13 1.86  15 1.98
  44  0.864  0.091  0.376-  14 1.91   4 2.06   2 2.10
  45  0.754  0.201  0.570-  14 1.66  16 1.94   4 1.97
  46  0.866  0.113  0.885-   3 1.80  13 2.05   1 2.22
  47  0.781  0.536  0.097-   5 1.78  15 1.79  17 2.13
  48  0.878  0.429  0.406-   6 1.80  16 1.88   4 1.89
  49  0.762  0.533  0.593-  16 1.77   6 1.97  18 2.02
  50  0.857  0.442  0.866-  15 1.97   5 2.11   3 2.32
  51  0.748  0.875  0.107-  13 1.95  17 1.95   1 2.23
  52  0.873  0.760  0.394-  18 1.97   6 2.05   2 2.13
  53  0.747  0.857  0.573-  18 1.89   2 2.02  14 2.05
  54  0.875  0.773  0.885-  17 1.94   1 2.03   5 2.08

  LATTYP: Found a hexagonal cell.
 ALAT       =     8.5719417516
 C/A-ratio  =     1.1065328049

  Lattice vectors:

 A1 = (   8.5719417500,   0.0000000000,   0.0000000000)
 A2 = (  -4.2859708800,   7.4235193200,   0.0000000000)
 A3 = (   0.0000000000,   0.0000000000,   9.4851347500)

Analysis of symmetry for initial positions (statically):
 Subroutine PRICEL returns:
 Original cell was already a primitive cell.

 Routine SETGRP: Setting up the symmetry group for a
 hexagonal supercell.

 Subroutine GETGRP returns: Found  1 space group operations
 (whereof  1 operations were pure point group operations)
 out of a pool of 24 trial point group operations.

The static configuration has the point symmetry C_1 .

Analysis of symmetry for dynamics (positions and initial velocities):
 Subroutine PRICEL returns:
 Original cell was already a primitive cell.

 Routine SETGRP: Setting up the symmetry group for a
 hexagonal supercell.

 Subroutine GETGRP returns: Found  1 space group operations
 (whereof  1 operations were pure point group operations)
 out of a pool of 24 trial point group operations.

The dynamic configuration has the point symmetry C_1 .

 Subroutine INISYM returns: Found  1 space group operations
 (whereof  1 operations are pure point group operations),
 and found     1 'primitive' translations

 KPOINTS: Automatic mesh

Automatic generation of k-mesh.
Space group operators:
 irot       det(A)        alpha          n_x          n_y          n_z        tau_x        tau_y        tau_z
    1     1.000000     0.000000     1.000000     0.000000     0.000000     0.000000     0.000000     0.000000

 Subroutine IBZKPT returns following result:

 Found     26 irreducible k-points:

 Following reciprocal coordinates:
            Coordinates               Weight
  0.000000  0.000000  0.000000      1.000000
  0.250000  0.000000  0.000000      2.000000
  0.500000  0.000000  0.000000      1.000000
  0.000000  0.250000  0.000000      2.000000
  0.250000  0.250000  0.000000      2.000000
  0.500000  0.250000  0.000000      2.000000
 -0.250000  0.250000  0.000000      2.000000
  0.000000  0.500000  0.000000      1.000000
  0.250000  0.500000  0.000000      2.000000
  0.500000  0.500000  0.000000      1.000000
  0.000000  0.000000  0.333333      2.000000
  0.250000  0.000000  0.333333      2.000000
  0.500000  0.000000  0.333333      2.000000
 -0.250000  0.000000  0.333333      2.000000
  0.000000  0.250000  0.333333      2.000000
  0.250000  0.250000  0.333333      2.000000
  0.500000  0.250000  0.333333      2.000000
 -0.250000  0.250000  0.333333      2.000000
  0.000000  0.500000  0.333333      2.000000
  0.250000  0.500000  0.333333      2.000000
  0.500000  0.500000  0.333333      2.000000
 -0.250000  0.500000  0.333333      2.000000
  0.000000 -0.250000  0.333333      2.000000
  0.250000 -0.250000  0.333333      2.000000
  0.500000 -0.250000  0.333333      2.000000
 -0.250000 -0.250000  0.333333      2.000000

 Following cartesian coordinates:
            Coordinates               Weight
  0.000000  0.000000  0.000000      1.000000
  0.029165  0.016838  0.000000      2.000000
  0.058330  0.033677  0.000000      1.000000
  0.000000  0.033677  0.000000      2.000000
  0.029165  0.050515  0.000000      2.000000
  0.058330  0.067353  0.000000      2.000000
 -0.029165  0.016838  0.000000      2.000000
  0.000000  0.067353  0.000000      1.000000
  0.029165  0.084192  0.000000      2.000000
  0.058330  0.101030  0.000000      1.000000
  0.000000  0.000000  0.035143      2.000000
  0.029165  0.016838  0.035143      2.000000
  0.058330  0.033677  0.035143      2.000000
 -0.029165 -0.016838  0.035143      2.000000
  0.000000  0.033677  0.035143      2.000000
  0.029165  0.050515  0.035143      2.000000
  0.058330  0.067353  0.035143      2.000000
 -0.029165  0.016838  0.035143      2.000000
  0.000000  0.067353  0.035143      2.000000
  0.029165  0.084192  0.035143      2.000000
  0.058330  0.101030  0.035143      2.000000
 -0.029165  0.050515  0.035143      2.000000
  0.000000 -0.033677  0.035143      2.000000
  0.029165 -0.016838  0.035143      2.000000
  0.058330  0.000000  0.035143      2.000000
 -0.029165 -0.050515  0.035143      2.000000

 SYSTEM =  unknown system
 POSCAR =  NiO2_C2_m_scale_1_025_disp_0_08_round_1

 Startparameter for this run:
   NWRITE =      1    write-flag & timer
[...]
    234       4.5234      0.00000
    235       9.6771      0.00000
    236      10.4132      0.00000
    237      10.5634      0.00000
    238      10.7456      0.00000
    239      11.4018      0.00000
    240      11.5070      0.00000

 soft charge-density along one line, spin component           1
         0         1         2         3         4         5         6         7         8         9
 total charge-density along one line

------------------------ aborting loop because EDIFF is reached ----------------------------------------

  FORCE on cell =-STRESS in cart. coord.  units (eV):
  Direction    XX          YY          ZZ          XY          YZ          ZX
  Alpha Z  1149.28122  1149.28122  1149.28122
  Ewald   -1889.66696 -1640.80828-18453.44893    69.66645   119.63600  -120.66112
  Hartree  8380.53110  8459.87123 -3625.64054     0.15289    38.53406   -52.56047
  E(xc)   -2010.28876 -2010.50621 -2013.86034    -0.05047    -0.16955     0.17066
  Local  -14104.28558-14411.22342 14230.46861   -59.84737  -144.42726   168.07942
  n-local  -877.12420  -870.40224  -897.19112     3.34078     5.29855    -3.06469
  augment  3354.14698  3341.16836  3424.79985    -6.33526    -5.53449     3.07844
  Kinetic  5970.75444  5963.01215  6159.10032    -4.36482    -6.06405    -1.84759
  Fock        0.00000     0.00000     0.00000     0.00000     0.00000     0.00000
  Total      -26.6517484    -19.6071875    -26.4909284      2.5621956      7.2732559     -6.8053595
  in kB      -70.7462995    -52.0467153    -70.3194073      6.8012744     19.3066486    -18.0646310

 VOLUME and BASIS-vectors are now :
  energy-cutoff  :      500.00
  volume of cell :      603.58
      direct lattice vectors                 reciprocal lattice vectors
     8.571941750  0.000000000  0.000000000     0.116659682  0.067353499  0.000000000
    -4.285970880  7.423519320  0.000000000     0.000000000  0.134706998  0.000000000
     0.000000000  0.000000000  9.485134750     0.000000000  0.000000000  0.105428128

  length of vectors
     8.571941750  8.571941757  9.485134750     0.134706998  0.134706998  0.105428128

 FORCES acting on ions
    electron-ion (+dipol)            ewald-force                    non-local-force                 convergence-correction
   0.798E+02 0.292E+02 0.534E+01   -.809E+02 -.300E+02 -.733E+01   -.160E+01 -.307E+00 0.397E+00   -.193E-01 0.140E-01 0.368E-01
   0.750E+02 0.106E+03 -.966E+02   -.764E+02 -.109E+03 0.957E+02   -.287E+00 -.546E+00 -.148E+01   0.243E-01 0.181E-01 -.133E-01
   0.185E+02 -.460E+02 0.163E+02   -.184E+02 0.464E+02 -.171E+02   0.160E+00 0.248E+01 -.713E+00   -.870E-02 -.104E-03 0.488E-01
   0.166E+02 0.865E+02 -.134E+02   -.172E+02 -.870E+02 0.135E+02   -.688E+00 0.417E-01 -.345E+00   0.173E-01 0.146E-01 -.129E-01
   -.193E+02 0.269E+02 0.464E+02   0.201E+02 -.302E+02 -.513E+02   0.771E-01 0.163E+00 -.170E+01   0.121E-01 -.119E-01 0.399E-01
   0.827E+02 -.108E+03 -.415E+02   -.847E+02 0.110E+03 0.417E+02   -.313E+00 0.104E+00 -.251E+00   0.988E-02 -.501E-02 -.158E-01
   0.130E+03 0.940E+02 0.185E+02   -.132E+03 -.964E+02 -.201E+02   -.581E+00 -.693E+00 0.783E+00   0.174E-01 -.884E-02 0.386E-01
   0.187E+02 0.434E+02 0.151E+02   -.188E+02 -.432E+02 -.153E+02   0.357E+00 0.400E+00 -.535E+00   -.864E-02 0.137E-01 -.207E-01
   0.105E+02 0.150E+03 -.166E+02   -.110E+02 -.156E+03 0.130E+02   -.246E+00 0.845E+00 -.221E+01   -.200E-01 0.398E-02 0.488E-01
   0.777E+02 0.125E+03 -.512E+02   -.812E+02 -.129E+03 0.517E+02   -.170E+00 0.703E+00 -.567E+00   0.324E-02 -.115E-02 -.243E-01
   0.554E+02 -.126E+03 0.414E+02   -.544E+02 0.132E+03 -.461E+02   0.111E+01 0.692E+00 -.118E+00   -.186E-01 -.614E-02 0.470E-01
   0.957E+02 -.663E+02 -.367E+01   -.978E+02 0.682E+02 0.385E+01   0.805E+00 -.794E+00 0.149E+01   0.394E-02 -.160E-01 -.172E-01
   -.146E+03 -.123E+02 0.706E+02   0.152E+03 0.127E+02 -.729E+02   -.527E+00 -.538E+00 -.125E+01   -.796E-03 0.224E-01 0.366E-01
   -.850E+02 0.539E+02 0.433E+01   0.884E+02 -.586E+02 -.606E+01   0.284E+00 -.503E+00 -.384E+00   -.192E-01 0.109E-03 -.158E-01
   -.774E+02 0.224E+02 0.669E+02   0.802E+02 -.229E+02 -.698E+02   0.561E+00 -.138E+01 -.385E+00   0.300E-01 -.944E-02 0.431E-01
   -.706E+02 0.251E+02 -.389E+02   0.731E+02 -.276E+02 0.397E+02   -.292E-01 -.800E+00 -.173E+00   -.210E-01 0.717E-03 -.270E-01
   -.119E+03 -.669E+02 0.553E+02   0.120E+03 0.706E+02 -.572E+02   -.183E+00 -.270E+01 0.166E+01   -.133E-02 0.476E-02 0.268E-01
   -.175E+03 -.125E+03 -.142E+02   0.180E+03 0.131E+03 0.151E+02   -.552E+00 -.557E+00 0.865E+00   -.117E-01 -.256E-01 -.205E-01
   0.149E+02 0.598E+02 -.299E+03   -.156E+02 -.608E+02 0.324E+03   0.760E+00 0.159E+00 -.261E+02   -.375E-01 0.105E-01 0.904E-02
   0.208E+02 0.688E+02 0.356E+03   -.210E+02 -.698E+02 -.380E+03   0.892E+00 0.493E+00 0.255E+02   0.595E-02 0.928E-02 -.621E-02
   0.208E+02 0.326E+02 -.374E+03   -.186E+02 -.291E+02 0.399E+03   -.179E+01 -.325E+01 -.276E+02   0.683E-02 0.623E-02 -.982E-02
   0.117E+02 0.152E+02 0.307E+03   -.105E+02 -.107E+02 -.327E+03   -.630E+00 -.497E+01 0.244E+02   -.959E-02 -.146E-02 -.197E-02
   0.927E+02 0.346E+02 -.310E+03   -.100E+03 -.394E+02 0.339E+03   0.414E+01 0.230E+01 -.268E+02   -.546E-02 -.308E-01 0.100E-01
   0.601E+02 0.856E+02 0.372E+03   -.623E+02 -.917E+02 -.399E+03   0.157E+01 0.340E+01 0.269E+02   0.727E-02 -.723E-02 -.120E-01
   0.110E+02 -.996E+01 -.390E+03   -.713E+01 0.115E+02 0.416E+03   -.365E+01 -.186E+01 -.273E+02   0.837E-02 -.569E-02 -.976E-03
   0.454E+02 0.646E+02 0.363E+03   -.464E+02 -.705E+02 -.388E+03   0.726E+00 0.456E+01 0.273E+02   -.281E-01 -.108E-01 0.145E-01
   -.389E+01 -.844E+02 -.320E+03   0.645E+01 0.940E+02 0.349E+03   -.179E+01 -.453E+01 -.266E+02   0.191E-02 -.493E-02 0.231E-01
   0.882E+02 -.608E+02 0.355E+03   -.932E+02 0.638E+02 -.381E+03   0.324E+01 -.162E+01 0.258E+02   0.304E-02 0.422E-02 -.172E-01
   0.553E+02 0.317E+02 -.336E+03   -.572E+02 -.349E+02 0.362E+03   0.122E+01 0.270E+01 -.248E+02   0.579E-02 0.120E-01 -.712E-02
   0.122E+02 -.104E+02 0.309E+03   -.111E+02 0.977E+01 -.328E+03   -.119E+01 0.848E+00 0.223E+02   -.111E-03 -.740E-02 0.447E-02
   0.294E+02 0.510E+02 -.328E+03   -.290E+02 -.545E+02 0.355E+03   -.139E+01 0.394E+01 -.266E+02   0.487E-02 -.481E-02 0.352E-01
   0.192E+02 0.193E+02 0.359E+03   -.215E+02 -.179E+02 -.385E+03   0.163E+01 -.224E+01 0.264E+02   -.166E-01 0.372E-02 -.167E-01
   -.286E+02 0.631E+02 -.390E+03   0.308E+02 -.666E+02 0.417E+03   -.986E+00 0.325E+01 -.262E+02   -.903E-02 0.335E-03 -.174E-01
   -.379E+02 -.332E+02 0.396E+03   0.417E+02 0.389E+02 -.424E+03   -.326E+01 -.401E+01 0.283E+02   0.161E-01 -.287E-02 0.438E-02
   -.429E+02 -.660E+02 -.349E+03   0.467E+02 0.761E+02 0.380E+03   -.304E+01 -.802E+01 -.294E+02   -.498E-02 0.614E-02 0.271E-01
   -.428E+02 0.148E+02 0.416E+03   0.439E+02 -.176E+02 -.449E+03   -.795E+00 0.312E+01 0.313E+02   -.103E-01 -.142E-02 -.542E-02
   -.145E+02 -.234E+02 -.455E+03   0.143E+02 0.257E+02 0.487E+03   0.211E+01 -.262E+01 -.305E+02   0.496E-02 -.101E-01 -.140E-01
   0.155E+02 -.124E+02 0.353E+03   -.188E+02 0.117E+02 -.377E+03   0.293E+01 0.185E+01 0.272E+02   -.161E-02 0.723E-02 -.751E-02
   0.813E+02 0.459E+02 -.319E+03   -.888E+02 -.534E+02 0.346E+03   0.361E+01 0.624E+01 -.256E+02   0.449E-02 0.102E-02 0.188E-01
   -.314E+02 -.992E+02 0.352E+03   0.325E+02 0.108E+03 -.378E+03   -.263E+01 -.798E+01 0.235E+02   0.182E-02 -.150E-01 -.128E-01
   0.201E+02 -.459E+02 -.395E+03   -.206E+02 0.459E+02 0.422E+03   -.124E+01 0.190E+01 -.264E+02   -.908E-02 -.234E-02 -.270E-02
   0.403E+01 -.555E+02 0.362E+03   -.882E+01 0.581E+02 -.385E+03   0.463E+01 -.212E+01 0.248E+02   -.262E-03 0.575E-02 0.679E-02
   -.918E+01 -.260E+02 -.305E+03   0.531E+01 0.282E+02 0.330E+03   0.393E+01 -.177E+01 -.261E+02   0.361E-01 0.104E-01 0.337E-02
   -.581E+02 0.159E+02 0.312E+03   0.620E+02 -.180E+02 -.334E+03   -.320E+01 0.334E+01 0.235E+02   0.882E-02 0.944E-02 -.204E-01
   -.361E+02 -.306E+02 -.380E+03   0.369E+02 0.388E+02 0.407E+03   -.370E+00 -.517E+01 -.240E+02   -.129E-02 0.922E-02 0.331E-02
   -.245E+02 0.669E+02 0.344E+03   0.254E+02 -.722E+02 -.367E+03   -.494E+00 0.431E+01 0.258E+02   -.223E-02 0.335E-01 0.331E-01
   0.191E+02 -.415E+02 -.329E+03   -.235E+02 0.430E+02 0.357E+03   0.212E+01 -.493E+00 -.275E+02   0.109E-01 0.231E-02 0.243E-01
   -.695E+01 0.914E+01 0.343E+03   0.718E+01 -.123E+02 -.369E+03   0.230E+00 0.328E+01 0.251E+02   0.243E-02 -.443E-02 -.227E-01
   -.179E+02 -.914E+02 -.379E+03   0.176E+02 0.980E+02 0.405E+03   -.888E-01 -.540E+01 -.266E+02   -.107E-01 -.202E-02 -.720E-02
   -.594E+02 0.874E+00 0.306E+03   0.629E+02 -.728E-02 -.326E+03   -.310E+01 -.113E+01 0.229E+02   0.244E-01 -.833E-02 0.136E-01
   -.832E+02 -.338E+02 -.269E+03   0.865E+02 0.350E+02 0.290E+03   -.253E+01 -.122E+01 -.233E+02   -.522E-02 0.796E-02 0.102E-01
   -.407E+02 -.567E+02 0.286E+03   0.422E+02 0.609E+02 -.305E+03   -.697E+00 -.441E+01 0.196E+02   -.369E-02 -.251E-02 -.134E-01
   -.481E+02 -.483E+02 -.333E+03   0.458E+02 0.492E+02 0.353E+03   0.256E+01 0.332E+00 -.188E+02   0.252E-02 -.105E-01 -.127E-02
   -.213E+01 -.420E+02 0.325E+03   0.460E+01 0.418E+02 -.347E+03   -.227E+01 0.342E+00 0.243E+02   -.650E-03 0.622E-04 0.395E-02
   0.689E+00 0.198E+02 0.201E+02   0.906E-13 0.284E-13 0.568E-13   -.674E+00 -.198E+02 -.204E+02   -.109E-01 0.150E-01 0.247E+00

 POSITION                                       TOTAL-FORCE (eV/Angst)
      0.11239      0.01769      9.47351        -2.723341     -1.082670     -1.558755
      0.00986      0.04848      4.82072        -1.628113     -3.387760     -2.422742
      7.02482      2.22033      0.05170         0.201625      2.870398     -1.545340
     -1.37768      2.40159      4.68866        -1.341013     -0.435364     -0.238916
      5.67570      4.88447      0.08427         0.930636     -3.156771     -6.551894
      5.80590      4.75066      4.71073        -2.282958      2.299795     -0.012453
     -1.40084      7.41938      9.39647        -2.366501     -3.175376     -0.803495
     -1.47187      7.31458      4.63600         0.294400      0.622370     -0.714414
      1.43860      2.57077      0.16508        -0.777097     -5.605610     -5.703575
      1.44028      2.49421      4.66992        -3.677747     -3.237165     -0.148913
     -0.07397      4.61541      0.06294         2.146646      6.254754     -4.724616
      0.03979      4.84909      4.55543        -1.304564      1.125289      1.646971
      1.21124      7.34054      0.03254         4.924032     -0.138655     -3.461663
      5.52178      0.04823      4.57771         3.703626     -5.167977     -2.134413
      4.11041      2.51743      9.42931         3.419638     -1.977922     -3.195527
      4.12239      2.49016      4.63480         2.423689     -3.298583      0.539686
      2.75574      4.88760      9.39229         1.131909      1.018686     -0.192829
      2.70387      4.68802      4.54910         4.004583      5.696949      1.707983
     -0.00668      1.65828      1.02316         0.071731     -0.865323     -0.982409
      1.30487      0.84626      3.75534         0.697205     -0.434031      0.934179
     -0.04722      1.63666      5.77756         0.347088      0.254451     -1.868453
      1.33289      0.88406      8.26770         0.615336     -0.467049      3.447075
     -1.36521      4.07724      0.92570        -3.494958     -2.527087      1.581935
      0.04254      3.34089      3.70133        -0.566836     -2.755564     -0.384274
     -1.39132      4.00420      5.73843         0.271353     -0.281130     -1.728994
     -0.00843      3.23961      8.39899        -0.341448     -1.367775      2.299579
     -2.89074      6.34351      0.83099         0.771650      5.050098      1.968606
     -1.32627      5.53192      3.68058        -1.795697      1.453825      0.102859
     -2.77838      6.50025      5.52810        -0.633148     -0.518515      0.497766
     -1.47543      5.62356      8.27645        -0.059016      0.203913      3.399558
      2.89303      1.57028      0.85640        -1.000913      0.469829      0.962753
      4.14215      0.87608      3.72869        -0.694706     -0.812860     -0.450266
      2.69538      1.57748      5.58579         1.200800     -0.204485      0.042469
      4.18481      0.60055      8.41516         0.620163      1.748922      0.445846
      1.41166      4.05547      0.90645         0.804675      2.159878      2.150917
      2.75405      3.14660      3.67781         0.271944      0.238422     -1.114750
      1.27869      4.06972      5.49451         1.855437     -0.350131      2.028234
      2.81131      3.15204      8.22645        -0.438653      1.121066      3.349831
      0.08266      6.48186      0.89601        -3.908364     -1.313242      1.386938
      1.46873      5.66195      3.72488        -1.525954      0.464359     -1.933402
      0.08645      6.37063      5.51004        -1.813831      1.987056      0.351956
      1.33272      5.59218      8.45332        -0.158413      0.464457      1.525000
      5.53291      1.54822      0.92870         0.096210      0.426483     -0.644918
      7.01624      0.67866      3.56529         0.704093      1.247904      2.360591
      5.60218      1.48937      5.40227         0.348023      3.118300      2.649546
      6.93548      0.84202      8.38992         0.429759     -0.969310      2.312695
      4.39861      3.98184      0.92410        -2.266142      0.979227      0.294387
      5.68811      3.18150      3.84668         0.467049      0.116322     -0.944969
      4.24798      3.95364      5.62540        -0.397986      1.238579     -0.459817
      5.44983      3.28146      8.21034         0.442489     -0.273838      3.604732
      2.66388      6.49188      1.01881         0.720202     -0.049263     -1.872116
      4.23016      5.64159      3.73933         0.765402     -0.228763      0.936445
      2.72732      6.36310      5.43372         0.323798      1.247625      0.735214
      4.18837      5.73813      8.39140         0.192209      0.203261      2.530158
    total drift:                                0.004709     -0.012826     -0.003891

  FREE ENERGIE OF THE ION-ELECTRON SYSTEM (eV)
  free  energy   TOTEN  =      -320.9670614163 eV

  energy  without entropy=     -320.9670607432  energy(sigma->0) =     -320.96706108

volume of typ            1:    19.0 %

volume of typ            2:     9.7 %

total charge

# of ion       s       p       d       tot
    1        0.244   0.273   7.798   8.316
    2        0.260   0.310   7.793   8.363
    3        0.264   0.306   7.809   8.378
    4        0.266   0.332   7.807   8.405
    5        0.305   0.400   7.818   8.522
    6        0.279   0.357   7.798   8.434
    7        0.270   0.329   7.819   8.418
    8        0.274   0.346   7.806   8.426
    9        0.292   0.370   7.837   8.499
   10        0.314   0.438   7.839   8.591
   11        0.317   0.423   7.839   8.579
   12        0.341   0.511   7.849   8.701
   13        0.306   0.411   7.818   8.535
   14        0.312   0.419   7.829   8.561
   15        0.291   0.377   7.814   8.482
   16        0.307   0.426   7.832   8.565
   17        0.264   0.320   7.804   8.388
   18        0.306   0.422   7.834   8.562
   19        1.286   2.685   0.007   3.977
   20        1.290   2.691   0.007   3.987
   21        1.290   2.683   0.007   3.980
   22        1.303   2.615   0.004   3.922
   23        1.283   2.741   0.011   4.034
   24        1.284   2.736   0.009   4.029
   25        1.296   2.668   0.006   3.970
   26        1.302   2.648   0.006   3.957
   27        1.281   2.747   0.011   4.039
   28        1.285   2.712   0.008   4.005
   29        1.282   2.718   0.008   4.008
   30        1.304   2.607   0.003   3.914
   31        1.278   2.742   0.009   4.029
   32        1.282   2.736   0.009   4.026
   33        1.288   2.705   0.008   4.001
   34        1.293   2.701   0.009   4.003
   35        1.282   2.771   0.014   4.067
   36        1.282   2.769   0.012   4.064
   37        1.284   2.773   0.012   4.069
   38        1.301   2.637   0.005   3.943
   39        1.288   2.719   0.010   4.017
   40        1.288   2.718   0.009   4.015
   41        1.288   2.715   0.008   4.011
   42        1.297   2.658   0.006   3.961
   43        1.287   2.697   0.007   3.991
   44        1.298   2.640   0.005   3.942
   45        1.287   2.736   0.010   4.034
   46        1.295   2.657   0.006   3.958
   47        1.285   2.718   0.009   4.012
   48        1.283   2.728   0.009   4.020
   49        1.290   2.696   0.007   3.994
   50        1.304   2.608   0.003   3.916
   51        1.295   2.642   0.004   3.942
   52        1.295   2.637   0.004   3.936
   53        1.290   2.669   0.005   3.964
   54        1.299   2.634   0.005   3.937
tot          51.65  103.73  141.01  296.40