 vasp.5.4.4.18Apr17-6-g9f103f2a35 (build May 12 2020 04:58:55) complex

 MD_VERSION_INFO: Compiled 2020-05-12T11:58:55-UTC in devlin.sd.materialsdesign.
 com:/home/medea2/data/build/wwolf/vasp-gpu5.4.4/13047/x86_64/src/src/build/std
 from svn 13047

 executed on                        Lin64 date 2022.11.16  16:11:39

 INCAR:
 POTCAR:    PAW_PBE Li_sv 10Sep2004
 POTCAR:    PAW_PBE Mn_pv 02Aug2007
 POTCAR:    PAW_PBE O 08Apr2002
 POTCAR:    PAW_PBE Co 02Aug2007
 POTCAR:    PAW_PBE Ni 02Aug2007

 POTCAR:    PAW_PBE Li_sv 10Sep2004

 POTCAR:    PAW_PBE Mn_pv 02Aug2007

 POTCAR:    PAW_PBE O 08Apr2002

 POTCAR:    PAW_PBE Co 02Aug2007

 POTCAR:    PAW_PBE Ni 02Aug2007

 Optimization of the real space projectors (new method)

 maximal supplied QI-value         = 22.11
 optimisation between [QCUT,QGAM] = [ 11.28, 22.77] = [ 35.61,145.23] Ry
 Optimized for a Real-space Cutoff    1.10 Angstroem

   l    n(q)    QCUT    max X(q) W(low)/X(q) W(high)/X(q)  e(spline)
   0      7    11.276    10.506    0.54E-04    0.58E-04    0.16E-07
   0      7    11.276     8.367    0.11E-03    0.14E-03    0.35E-07
   1      7    11.276     8.983    0.23E-03    0.43E-03    0.86E-07
 Optimization of the real space projectors (new method)

[...]

   l    n(q)    QCUT    max X(q) W(low)/X(q) W(high)/X(q)  e(spline)
   2      9    11.376    65.824    0.18E-03    0.28E-04    0.14E-06
   2      9    11.376    61.429    0.18E-03    0.29E-04    0.14E-06
   0     10    11.376    56.174    0.51E-04    0.12E-03    0.20E-06
   0     10    11.376    31.263    0.46E-04    0.11E-03    0.18E-06
   1      9    11.376    19.828    0.23E-03    0.17E-03    0.10E-06
   1      9    11.376    15.139    0.20E-03    0.14E-03    0.89E-07
 Optimization of the real space projectors (new method)

 maximal supplied QI-value         = 16.25
 optimisation between [QCUT,QGAM] = [ 11.38, 22.75] = [ 36.24,144.96] Ry
 Optimized for a Real-space Cutoff    1.47 Angstroem

   l    n(q)    QCUT    max X(q) W(low)/X(q) W(high)/X(q)  e(spline)
   2      9    11.376    60.317    0.17E-03    0.16E-04    0.16E-06
   2      9    11.376    55.921    0.17E-03    0.16E-04    0.17E-06
   0     10    11.376    51.690    0.45E-04    0.60E-04    0.21E-06
   0     10    11.376    30.015    0.37E-04    0.55E-04    0.19E-06
   1     10    11.376    18.849    0.83E-04    0.11E-03    0.92E-07
   1     10    11.376    14.624    0.69E-04    0.92E-04    0.82E-07

  PAW_PBE Li_sv 10Sep2004               :
  PAW_PBE Mn_pv 02Aug2007               :
  PAW_PBE O 08Apr2002                   :
  PAW_PBE Co 02Aug2007                  :
  PAW_PBE Ni 02Aug2007                  :

 POSCAR: ce132341_1
  positions in direct lattice

 METAGGA = SCAN     LMAXTAU =  6    LMIXTAU =  T

 ion  position               nearest neighbor table
   1  0.259  0.200  0.754-  21 2.00  37 2.03  44 2.03  13 2.11  29 2.15  36 2.15  51 2.75  60 2.77
                            61 2.78
   2  0.741  0.800  0.246-  22 2.00  38 2.03  43 2.03  14 2.11  30 2.15  35 2.15  52 2.75  59 2.77
                            62 2.78
   3  0.000  0.000  0.000-   5 1.88   6 1.88  15 1.89  16 1.89  13 1.90  14 1.90  49 2.78  50 2.78
                            50 2.78  49 2.78  56 2.79  55 2.79
   4  0.000  0.500  0.500-  19 1.88  20 1.88  17 1.89  18 1.89   7 1.89   8 1.89  47 2.78  48 2.78
                            47 2.78  48 2.78  58 2.78  57 2.78
   5  0.106  0.004  0.375-  50 1.86  49 1.87   3 1.88
   6  0.894  0.996  0.625-  49 1.86  50 1.87   3 1.88
   7  0.106  0.499  0.876-  47 1.85  48 1.86   4 1.89
   8  0.894  0.501  0.124-  48 1.85  47 1.86   4 1.89
   9  0.395  0.003  0.125-  52 1.85  51 1.85  46 1.88
  10  0.605  0.997  0.875-  51 1.85  52 1.85  46 1.88
  11  0.395  0.499  0.625-  53 1.84  54 1.85  45 1.88
  12  0.605  0.501  0.375-  54 1.84  53 1.85  45 1.88
  13  0.100  0.104  0.864-  55 1.86  49 1.87   3 1.90   1 2.11
  14  0.900  0.896  0.136-  56 1.86  50 1.87   3 1.90   2 2.11
  15  0.887  0.099  0.126-  49 1.85  55 1.86   3 1.89
  16  0.113  0.901  0.874-  50 1.85  56 1.86   3 1.89
  17  0.111  0.599  0.371-  57 1.85  47 1.86   4 1.89
  18  0.889  0.401  0.629-  58 1.85  48 1.86   4 1.89
  19  0.899  0.604  0.632-  57 1.86  47 1.86   4 1.88
  20  0.101  0.396  0.368-  58 1.86  48 1.86   4 1.88
  21  0.400  0.104  0.635-  61 1.86  51 1.87  46 1.89   1 2.00
  22  0.600  0.896  0.365-  62 1.86  52 1.87  46 1.89   2 2.00
  23  0.612  0.099  0.374-  51 1.85  61 1.85  46 1.88
  24  0.388  0.901  0.626-  52 1.85  62 1.85  46 1.88
  25  0.390  0.599  0.128-  59 1.84  53 1.86  45 1.88
  26  0.610  0.401  0.872-  60 1.84  54 1.86  45 1.88
  27  0.600  0.603  0.869-  59 1.85  53 1.86  45 1.87
  28  0.400  0.397  0.131-  60 1.85  54 1.86  45 1.87
  29  0.095  0.200  0.371-  49 1.85  58 1.86  55 1.88   1 2.15
  30  0.905  0.800  0.629-  50 1.85  57 1.86  56 1.88   2 2.15
  31  0.883  0.199  0.627-  55 1.85  49 1.87  58 1.87
  32  0.117  0.801  0.373-  56 1.85  50 1.87  57 1.87
  33  0.115  0.699  0.876-  57 1.85  56 1.86  47 1.87
  34  0.885  0.301  0.124-  58 1.85  55 1.86  48 1.87
  35  0.903  0.703  0.136-  56 1.85  57 1.86  47 1.88   2 2.15
  36  0.097  0.297  0.864-  55 1.85  58 1.86  48 1.88   1 2.15
  37  0.403  0.200  0.129-  51 1.87  60 1.87  61 1.88   1 2.03
  38  0.597  0.800  0.871-  52 1.87  59 1.87  62 1.88   2 2.03
  39  0.616  0.199  0.871-  61 1.85  51 1.88  60 1.89
  40  0.384  0.801  0.129-  62 1.85  52 1.88  59 1.89
  41  0.385  0.699  0.625-  59 1.85  62 1.86  53 1.88
  42  0.615  0.301  0.375-  60 1.85  61 1.86  54 1.88
  43  0.599  0.703  0.364-  59 1.87  62 1.87  53 1.89   2 2.03
  44  0.401  0.297  0.636-  60 1.87  61 1.87  54 1.89   1 2.03
  45  0.500  0.500  0.000-  27 1.87  28 1.87  25 1.88  26 1.88  11 1.88  12 1.88  59 2.77  60 2.77
                            53 2.78  54 2.78  54 2.78  53 2.78
  46  0.500  0.000  0.500-   9 1.88  10 1.88  23 1.88  24 1.88  21 1.89  22 1.89  51 2.77  52 2.77
                            51 2.78  52 2.78  62 2.78  61 2.78
  47  0.004  0.600  0.002-   7 1.85  19 1.86  17 1.86   8 1.86  33 1.87  35 1.88  56 2.77  57 2.77
                            57 2.78   4 2.78   4 2.78  48 2.79
  48  0.996  0.400  0.998-   8 1.85  20 1.86  18 1.86   7 1.86  34 1.87  36 1.88  55 2.77  58 2.77
                            58 2.78   4 2.78   4 2.78  47 2.79
  49  0.991  0.100  0.496-  29 1.85  15 1.85   6 1.86   5 1.87  13 1.87  31 1.87   3 2.78  55 2.78
                            58 2.78   3 2.78  55 2.79  50 2.79
  50  0.009  0.900  0.504-  30 1.85  16 1.85   5 1.86   6 1.87  14 1.87  32 1.87   3 2.78  56 2.78
                            57 2.78   3 2.78  56 2.79  49 2.79
  51  0.509  0.099  0.005-  10 1.85  23 1.85   9 1.85  37 1.87  21 1.87  39 1.88   1 2.75  52 2.77
                            46 2.77  61 2.78  46 2.78  61 2.79  60 2.80
  52  0.491  0.901  0.995-   9 1.85  24 1.85  10 1.85  38 1.87  22 1.87  40 1.88   2 2.75  51 2.77
                            46 2.77  62 2.78  46 2.78  62 2.79  59 2.80
  53  0.496  0.600  0.498-  11 1.84  12 1.85  27 1.86  25 1.86  41 1.88  43 1.89  59 2.77  54 2.77
                            45 2.78  45 2.78  59 2.78  62 2.79
  54  0.504  0.400  0.502-  12 1.84  11 1.85  28 1.86  26 1.86  42 1.88  44 1.89  60 2.77  53 2.77
                            45 2.78  45 2.78  60 2.78  61 2.79
  55  0.989  0.201  0.996-  36 1.85  31 1.85  34 1.86  13 1.86  15 1.86  29 1.88  48 2.77  58 2.77
                            58 2.78  49 2.78  49 2.79   3 2.79
  56  0.011  0.799  0.004-  35 1.85  32 1.85  33 1.86  14 1.86  16 1.86  30 1.88  47 2.77  57 2.77
                            57 2.78  50 2.78  50 2.79   3 2.79
  57  0.012  0.700  0.505-  17 1.85  33 1.85  30 1.86  19 1.86  35 1.86  32 1.87  56 2.77  47 2.77
                            56 2.78  47 2.78  50 2.78   4 2.78
  58  0.988  0.300  0.495-  18 1.85  34 1.85  29 1.86  20 1.86  36 1.86  31 1.87  55 2.77  48 2.77
                            55 2.78  48 2.78  49 2.78   4 2.78
  59  0.489  0.699  0.995-  25 1.84  27 1.85  41 1.85  43 1.87  38 1.87  40 1.89   2 2.77  45 2.77
                            53 2.77  62 2.78  53 2.78  62 2.79  52 2.80
  60  0.511  0.301  0.005-  26 1.84  28 1.85  42 1.85  44 1.87  37 1.87  39 1.89   1 2.77  45 2.77
                            54 2.77  61 2.78  54 2.78  61 2.79  51 2.80
  61  0.511  0.200  0.503-  39 1.85  23 1.85  21 1.86  42 1.86  44 1.87  37 1.88  51 2.78  60 2.78
                            46 2.78   1 2.78  54 2.79  60 2.79  51 2.79
  62  0.489  0.800  0.497-  40 1.85  24 1.85  22 1.86  41 1.86  43 1.87  38 1.88  52 2.78  59 2.78
                            46 2.78   2 2.78  53 2.79  59 2.79  52 2.79

  LATTYP: Found a triclinic cell.
 ALAT       =    17.7887166892
 B/A-ratio  =     0.7816563878
 C/A-ratio  =     0.2704490155
 COS(alpha) =     0.0000209902
 COS(beta)  =     0.3664031330
 COS(gamma) =     0.7817757555

  Lattice vectors:

 A1 = (  10.0381226400, -13.9045657500,  -4.7262656100)
 A2 = (   0.0030779100, -13.9046636900,   0.0000000000)
 A3 = (   0.8986466900,   0.0000979400,  -4.7262656100)

Analysis of symmetry for initial positions (statically):
 Subroutine PRICEL returns:
 Original cell was already a primitive cell.

 Routine SETGRP: Setting up the symmetry group for a
 triclinic supercell.

 Subroutine GETGRP returns: Found  2 space group operations
 (whereof  2 operations were pure point group operations)
 out of a pool of  2 trial point group operations.

The static configuration has the point symmetry S_2 .

Analysis of symmetry for dynamics (positions and initial velocities):
 Subroutine PRICEL returns:
 Original cell was already a primitive cell.

[...]

The dynamic configuration has the point symmetry S_2 .

Analysis of structural, dynamic, and magnetic symmetry:
 Subroutine PRICEL returns:
 Original cell was already a primitive cell.

 Routine SETGRP: Setting up the symmetry group for a
 triclinic supercell.

 Subroutine GETGRP returns: Found  2 space group operations
 (whereof  2 operations were pure point group operations)
 out of a pool of  2 trial point group operations.

The magnetic configuration has the point symmetry S_2 .

 Subroutine INISYM returns: Found  2 space group operations
 (whereof  2 operations are pure point group operations),
 and found     1 'primitive' translations

 KPOINTS: Automatic mesh

Automatic generation of k-mesh.
Space group operators:
 irot       det(A)        alpha          n_x          n_y          n_z        tau_x        tau_y        tau_z
    1     1.000000     0.000001     1.000000     0.000000     0.000000     0.000000     0.000000     0.000000
    2    -1.000000     0.000001     1.000000     0.000000     0.000000     0.000000     0.000000     0.000000

 Subroutine IBZKPT returns following result:

 Found      5 irreducible k-points:

 Following reciprocal coordinates:
            Coordinates               Weight
  0.000000  0.000000  0.000000      1.000000
  0.333333  0.000000  0.000000      2.000000
  0.000000  0.000000  0.333333      2.000000
  0.333333  0.000000  0.333333      2.000000
 -0.333333 -0.000000  0.333333      2.000000

 Following cartesian coordinates:
            Coordinates               Weight
  0.000000  0.000000  0.000000      1.000000
[...]
   -.377E+03 0.244E+02 -.106E+03   0.406E+03 -.254E+02 0.113E+03   -.285E+02 0.104E+01 -.662E+01
   0.377E+03 -.244E+02 0.106E+03   -.406E+03 0.254E+02 -.113E+03   0.285E+02 -.104E+01 0.662E+01
   0.320E+03 -.197E+02 0.341E+02   -.346E+03 0.213E+02 -.380E+02   0.266E+02 -.162E+01 0.389E+01
   -.320E+03 0.197E+02 -.341E+02   0.346E+03 -.213E+02 0.380E+02   -.266E+02 0.162E+01 -.389E+01
   0.321E+03 0.227E+02 0.396E+02   -.347E+03 -.237E+02 -.436E+02   0.268E+02 0.982E+00 0.398E+01
   -.321E+03 -.227E+02 -.396E+02   0.347E+03 0.237E+02 0.436E+02   -.268E+02 -.982E+00 -.398E+01
   -.366E+03 -.328E+02 -.659E+02   0.390E+03 0.322E+02 0.711E+02   -.242E+02 0.573E+00 -.515E+01
   0.366E+03 0.328E+02 0.659E+02   -.390E+03 -.322E+02 -.711E+02   0.242E+02 -.573E+00 0.515E+01
   0.364E+03 -.191E+02 0.550E+02   -.393E+03 0.191E+02 -.605E+02   0.288E+02 -.246E-02 0.557E+01
   -.364E+03 0.191E+02 -.550E+02   0.393E+03 -.191E+02 0.605E+02   -.288E+02 0.246E-02 -.557E+01
   -.366E+03 -.457E+01 -.489E+02   0.396E+03 0.427E+01 0.533E+02   -.291E+02 0.305E+00 -.443E+01
   0.366E+03 0.457E+01 0.489E+02   -.396E+03 -.427E+01 -.533E+02   0.291E+02 -.305E+00 0.443E+01
   0.398E+03 -.420E+02 0.537E+02   -.426E+03 0.439E+02 -.585E+02   0.284E+02 -.186E+01 0.481E+01
   -.398E+03 0.420E+02 -.537E+02   0.426E+03 -.439E+02 0.585E+02   -.284E+02 0.186E+01 -.481E+01
   0.304E+03 0.329E+02 0.864E+02   -.325E+03 -.361E+02 -.922E+02   0.217E+02 0.316E+01 0.574E+01
   -.304E+03 -.329E+02 -.864E+02   0.325E+03 0.361E+02 0.922E+02   -.217E+02 -.316E+01 -.574E+01
   -.298E+03 0.378E+02 -.716E+02   0.324E+03 -.396E+02 0.776E+02   -.266E+02 0.182E+01 -.604E+01
   0.298E+03 -.378E+02 0.716E+02   -.324E+03 0.396E+02 -.776E+02   0.266E+02 -.182E+01 0.604E+01
   0.300E+03 0.521E+02 0.647E+02   -.327E+03 -.542E+02 -.693E+02   0.269E+02 0.210E+01 0.468E+01
   -.300E+03 -.521E+02 -.647E+02   0.327E+03 0.542E+02 0.693E+02   -.269E+02 -.210E+01 -.468E+01
   -.337E+03 0.196E+02 -.709E+02   0.364E+03 -.197E+02 0.761E+02   -.266E+02 0.770E-01 -.517E+01
   0.337E+03 -.196E+02 0.709E+02   -.364E+03 0.197E+02 -.761E+02   0.266E+02 -.770E-01 0.517E+01
   -.359E+03 -.218E+02 -.388E+02   0.384E+03 0.223E+02 0.406E+02   -.251E+02 -.464E+00 -.184E+01
   0.359E+03 0.218E+02 0.388E+02   -.384E+03 -.223E+02 -.406E+02   0.251E+02 0.464E+00 0.184E+01
   0.330E+03 -.648E+01 0.683E+02   -.359E+03 0.630E+01 -.742E+02   0.290E+02 0.173E+00 0.596E+01
   -.330E+03 0.648E+01 -.683E+02   0.359E+03 -.630E+01 0.742E+02   -.290E+02 -.173E+00 -.596E+01
   -.326E+03 0.175E+02 -.664E+02   0.355E+03 -.185E+02 0.727E+02   -.291E+02 0.102E+01 -.629E+01
   0.326E+03 -.175E+02 0.664E+02   -.355E+03 0.185E+02 -.727E+02   0.291E+02 -.102E+01 0.629E+01
   0.354E+03 0.283E+02 0.833E+02   -.379E+03 -.303E+02 -.889E+02   0.247E+02 0.200E+01 0.554E+01
   -.354E+03 -.283E+02 -.833E+02   0.379E+03 0.303E+02 0.889E+02   -.247E+02 -.200E+01 -.554E+01
   0.335E+03 -.130E+02 0.288E+02   -.357E+03 0.134E+02 -.301E+02   0.226E+02 -.424E+00 0.125E+01
   -.335E+03 0.130E+02 -.288E+02   0.357E+03 -.134E+02 0.301E+02   -.226E+02 0.424E+00 -.125E+01
   -.305E+03 0.207E+00 -.631E+02   0.332E+03 -.251E+00 0.691E+02   -.265E+02 0.368E-01 -.604E+01
   0.305E+03 -.207E+00 0.631E+02   -.332E+03 0.251E+00 -.691E+02   0.265E+02 -.368E-01 0.604E+01
   0.300E+03 0.259E+02 0.608E+02   -.327E+03 -.270E+02 -.671E+02   0.267E+02 0.110E+01 0.622E+01
   -.300E+03 -.259E+02 -.608E+02   0.327E+03 0.270E+02 0.671E+02   -.267E+02 -.110E+01 -.622E+01
   -.328E+03 0.419E+02 -.806E+02   0.350E+03 -.447E+02 0.866E+02   -.219E+02 0.275E+01 -.595E+01
   0.328E+03 -.419E+02 0.806E+02   -.350E+03 0.447E+02 -.866E+02   0.219E+02 -.275E+01 0.595E+01
   0.228E-11 -.342E-11 0.421E-11   -.111E-14 -.284E-13 0.208E-13   -.197E-18 0.481E-20 0.000E+00
   -.472E-11 0.194E-12 0.261E-11   -.924E-13 -.142E-12 -.128E-12   0.543E-18 0.352E-19 0.000E+00
   0.280E+02 -.137E+02 0.440E+01   -.278E+02 0.139E+02 -.437E+01   -.284E+00 -.153E+00 -.688E-03
   -.280E+02 0.137E+02 -.440E+01   0.278E+02 -.139E+02 0.437E+01   0.284E+00 0.153E+00 0.688E-03
   0.259E+02 -.182E+02 0.705E+01   -.271E+02 0.182E+02 -.751E+01   0.111E+01 0.101E-01 0.482E+00
   -.259E+02 0.182E+02 -.705E+01   0.271E+02 -.182E+02 0.751E+01   -.111E+01 -.101E-01 -.482E+00
   -.237E+02 0.167E+02 -.826E+01   0.248E+02 -.173E+02 0.872E+01   -.113E+01 0.743E+00 -.476E+00
   0.237E+02 -.167E+02 0.826E+01   -.248E+02 0.173E+02 -.872E+01   0.113E+01 -.743E+00 0.476E+00
   -.298E+02 0.214E+02 -.380E+01   0.295E+02 -.218E+02 0.384E+01   0.255E+00 0.496E+00 -.681E-01
   0.298E+02 -.214E+02 0.380E+01   -.295E+02 0.218E+02 -.384E+01   -.255E+00 -.496E+00 0.681E-01
   0.436E+01 -.360E+02 -.215E+02   -.570E+01 0.364E+02 0.216E+02   0.132E+01 -.408E+00 -.392E-01
   -.436E+01 0.360E+02 0.215E+02   0.570E+01 -.364E+02 -.216E+02   -.132E+01 0.408E+00 0.392E-01
   -.848E+01 0.614E+01 -.639E+01   0.961E+01 -.627E+01 0.673E+01   -.107E+01 0.144E+00 -.346E+00
   0.848E+01 -.614E+01 0.639E+01   -.961E+01 0.627E+01 -.673E+01   0.107E+01 -.144E+00 0.346E+00
   0.572E+01 0.391E+02 0.614E+01   -.685E+01 -.398E+02 -.655E+01   0.108E+01 0.808E+00 0.428E+00
   -.572E+01 -.391E+02 -.614E+01   0.685E+01 0.398E+02 0.655E+01   -.108E+01 -.808E+00 -.428E+00
   -.155E+01 -.542E+01 0.234E+02   0.293E+01 0.529E+01 -.235E+02   -.138E+01 0.180E+00 0.312E-01
   0.155E+01 0.542E+01 -.234E+02   -.293E+01 -.529E+01 0.235E+02   0.138E+01 -.180E+00 -.312E-01
   0.133E-09 0.110E-09 -.103E-09   0.129E-12 -.639E-12 -.192E-12   -.222E-15 0.111E-15 0.000E+00

 POSITION                                       TOTAL-FORCE (eV/Angst)
      1.69186      2.77696      3.56145        -0.008685      0.011256      0.013589
      6.54281     11.12760      1.16481         0.008685     -0.011256     -0.013589
      0.00000      0.00000      0.00000         0.000000      0.000000      0.000000
     -0.45086      6.95228      2.36313         0.000000      0.000000      0.000000
      0.63186      0.05056      1.77026         0.002903     -0.002708      0.002819
      7.60282     13.85401      2.95601        -0.002903      0.002708     -0.002819
      0.17838      6.93428      4.14256         0.000550     -0.002642      0.004232
      8.05629      6.97028      0.58371        -0.000550      0.002642     -0.004232
      3.49200      0.04861      0.59234        -0.006953     -0.001236      0.000740
      4.74268     13.85596      4.13392         0.006953      0.001236     -0.000740
      3.04585      6.93564      2.95234        -0.006683      0.000313     -0.008496
      5.18882      6.96892      1.77392         0.006683     -0.000313      0.008496
      0.13934      1.45097      4.08456         0.018467      0.002600      0.000755
      8.09534     12.45360      0.64170        -0.018467     -0.002600     -0.000755
      7.98733      1.37592      0.59690        -0.002569      0.001748      0.004951
      0.24734     12.52864      4.12937         0.002569     -0.001748     -0.004951
      0.68340      8.33075      1.75300         0.005186      0.001062      0.001890
      7.55128      5.57382      2.97326        -0.005186     -0.001062     -0.001890
      7.64781      8.39647      2.98479        -0.002957      0.005953      0.002112
      0.58686      5.50810      1.74147         0.002957     -0.005953     -0.002112
      3.08326      1.44680      3.00181        -0.014066     -0.002934     -0.004192
      5.15142     12.45777      1.72445         0.014066      0.002934      0.004192
      5.25750      1.37606      1.76843         0.006266     -0.003698     -0.000062
      2.97717     12.52850      2.95784        -0.006266      0.003698      0.000062
      3.44360      8.32701      0.60553        -0.013469      0.003670     -0.005021
      4.79108      5.57756      4.12074         0.013469     -0.003670      0.005021
      4.69923      8.39019      4.10774         0.012640      0.004674      0.002058
      3.53545      5.51438      0.61852        -0.012640     -0.004674     -0.002058
      0.53414      2.78635      1.75459         0.013862     -0.002738     -0.000445
      7.70053     11.11821      2.97168        -0.013862      0.002738      0.000445
      7.50582      2.77243      2.96424        -0.005018     -0.006888      0.001721
      0.72885     11.13214      1.76203         0.005018      0.006888     -0.001721
      0.25957      9.71704      4.13839         0.003049      0.006292      0.004799
      7.97511      4.18753      0.58787        -0.003049     -0.006292     -0.004799
      8.12651      9.76938      0.64459        -0.005593      0.007149     -0.001984
      0.10816      4.13519      4.08168         0.005593     -0.007149      0.001984
      3.56688      2.78463      0.61012        -0.012759     -0.004751      0.000437
      4.66779     11.11994      4.11615         0.012759      0.004751     -0.000437
      4.84783      2.77200      4.11744         0.014927     -0.006666      0.002502
      3.38685     11.13257      0.60882        -0.014927      0.006666     -0.002502
      2.95770      9.71893      2.95542        -0.011915      0.004806     -0.006241
      5.27697      4.18563      1.77085         0.011915     -0.004806      0.006241
      5.14015      9.76867      1.71807         0.018505      0.005355      0.000881
      3.09453      4.13589      3.00820        -0.018505     -0.005355     -0.000881
      4.56666      6.95233      0.00000         0.000000      0.000000      0.000000
      4.11888     -0.00005      2.36313         0.000000      0.000000      0.000000
      0.03617      8.34786      0.00840         0.009361     -0.004543      0.004827
      8.19850      5.55670      4.71786        -0.009361      0.004543     -0.004827
      8.60526      1.39209      2.34240        -0.001980     -0.003785     -0.002651
     -0.37059     12.51248      2.38386         0.001980      0.003785      0.002651
      4.64685      1.38087      0.02152        -0.000120      0.002217      0.003482
      3.58782     12.52369      4.70475         0.000120     -0.002217     -0.003482
      4.08230      8.33927      2.35526        -0.007606     -0.014336      0.002464
      4.15237      5.56530      2.37101         0.007606      0.014336     -0.002464
      8.13700      2.78909      4.70675        -0.001221      0.006974      0.001452
      0.09768     11.11548      0.01951         0.001221     -0.006974     -0.001452
     -0.34733      9.73290      2.38703         0.004193     -0.010536      0.006188
      8.58200      4.17167      2.33924        -0.004193      0.010536     -0.006188
      3.56946      9.72317      4.70374         0.000708     -0.015707     -0.002765
      4.66522      4.18139      0.02252        -0.000708      0.015707      0.002765
      4.21265      2.78037      2.37820        -0.001468      0.007371     -0.001490
      4.02203     11.12419      2.34806         0.001468     -0.007371      0.001490
    total drift:                                0.000000      0.000000     -0.000000

  FREE ENERGIE OF THE ION-ELECTRON SYSTEM (eV)
  free  energy   TOTEN  =     -1627.3444447086 eV

  energy  without entropy=    -1627.3420393256  energy(sigma->0) =    -1627.34324202

volume of typ            1:     2.6 %

[...]

volume of typ            5:    17.0 %

total charge

# of ion       s       p       d       tot
    1        2.077   0.250   0.108   2.435
    2        2.077   0.250   0.108   2.435
    3        0.239   6.266   4.561  11.065
    4        0.241   6.271   4.567  11.079
    5        1.289   2.778   0.008   4.074
    6        1.289   2.778   0.008   4.074
    7        1.290   2.772   0.008   4.070
    8        1.290   2.772   0.008   4.070
    9        1.285   2.776   0.008   4.069
   10        1.285   2.776   0.008   4.069
   11        1.286   2.771   0.008   4.065
   12        1.286   2.771   0.008   4.065
   13        1.280   2.806   0.007   4.093
   14        1.280   2.805   0.007   4.092
   15        1.290   2.774   0.008   4.071
   16        1.290   2.774   0.008   4.072
   17        1.290   2.774   0.008   4.072
   18        1.290   2.774   0.008   4.072
   19        1.289   2.778   0.008   4.074
   20        1.289   2.778   0.008   4.075
   21        1.275   2.808   0.007   4.091
   22        1.275   2.808   0.007   4.091
   23        1.286   2.772   0.008   4.066
   24        1.286   2.772   0.008   4.066
   25        1.287   2.773   0.008   4.067
   26        1.287   2.773   0.008   4.067
   27        1.286   2.775   0.008   4.068
   28        1.286   2.774   0.008   4.068
   29        1.283   2.789   0.007   4.079
   30        1.283   2.789   0.007   4.079
   31        1.297   2.744   0.008   4.048
   32        1.297   2.744   0.008   4.048
   33        1.296   2.748   0.008   4.052
   34        1.296   2.748   0.008   4.052
   35        1.284   2.785   0.007   4.076
   36        1.284   2.786   0.007   4.076
   37        1.277   2.804   0.007   4.088
   38        1.277   2.804   0.007   4.088
   39        1.290   2.759   0.007   4.056
   40        1.290   2.759   0.007   4.056
   41        1.289   2.763   0.007   4.060
   42        1.289   2.763   0.007   4.060
   43        1.278   2.801   0.007   4.085
   44        1.278   2.801   0.007   4.085
   45        0.269   0.386   6.828   7.482
   46        0.262   0.374   6.826   7.463
   47        0.295   0.418   7.768   8.481
   48        0.295   0.418   7.768   8.481
   49        0.298   0.424   7.776   8.498
   50        0.298   0.424   7.776   8.498
   51        0.301   0.424   7.773   8.499
   52        0.301   0.424   7.773   8.499
   53        0.297   0.416   7.766   8.480
   54        0.297   0.416   7.766   8.480
   55        0.298   0.421   7.772   8.491
   56        0.298   0.421   7.772   8.491
   57        0.300   0.427   7.775   8.502
   58        0.300   0.427   7.775   8.502
   59        0.302   0.426   7.773   8.501
   60        0.302   0.426   7.773   8.501
   61        0.300   0.423   7.767   8.489
   62        0.300   0.423   7.767   8.489
tot          61.40  131.65  147.64  340.69

magnetization (x)

# of ion       s       p       d       tot
    1       -0.000  -0.000  -0.000  -0.001
    2       -0.000  -0.000  -0.000  -0.001
    3        0.014   0.014   2.670   2.698
    4        0.015   0.014   2.674   2.703
    5        0.002   0.006   0.000   0.008
    6        0.002   0.006   0.000   0.008
    7        0.001  -0.001   0.000   0.001
    8        0.001  -0.001   0.000   0.001
    9       -0.000   0.000  -0.000   0.000
   10       -0.000   0.000  -0.000   0.000
   11       -0.000   0.002  -0.000   0.002
   12       -0.000   0.002  -0.000   0.002
   13        0.001   0.011   0.000   0.012
   14        0.001   0.011   0.000   0.012
   15        0.002   0.004   0.000   0.006
   16        0.002   0.004   0.000   0.006
   17        0.002   0.003   0.000   0.005
   18        0.002   0.003   0.000   0.005
   19        0.002   0.007   0.000   0.009
   20        0.002   0.007   0.000   0.009
   21        0.000   0.000  -0.000   0.000
   22        0.000   0.000  -0.000   0.000
   23        0.000   0.000  -0.000   0.000
   24        0.000   0.000  -0.000   0.000
   25        0.000   0.002  -0.000   0.003
   26        0.000   0.002  -0.000   0.003
   27        0.000   0.002  -0.000   0.002
   28        0.000   0.002  -0.000   0.002
   29        0.000   0.008  -0.000   0.008
   30        0.000   0.008  -0.000   0.008
   31        0.000   0.011  -0.000   0.011
   32        0.000   0.011  -0.000   0.011
   33        0.000   0.008  -0.000   0.009
   34        0.000   0.008  -0.000   0.009
   35        0.000   0.009  -0.000   0.009
   36        0.000   0.009  -0.000   0.009
   37        0.000   0.000  -0.000   0.000
   38        0.000   0.000  -0.000   0.000
   39       -0.000  -0.000  -0.000  -0.000
   40       -0.000  -0.000  -0.000  -0.000
   41       -0.000   0.000  -0.000   0.000
   42       -0.000   0.000  -0.000   0.000
   43       -0.000   0.000  -0.000   0.000
   44       -0.000   0.000  -0.000   0.000
   45        0.000   0.000   0.041   0.041
   46       -0.000  -0.000   0.003   0.003
   47        0.004   0.004   0.032   0.040
   48        0.004   0.004   0.032   0.040
   49        0.004   0.004   0.017   0.025
   50        0.004   0.004   0.017   0.025
   51       -0.000   0.000  -0.000  -0.000
   52       -0.000   0.000  -0.000  -0.000
   53        0.000   0.000  -0.003  -0.003
   54        0.000   0.000  -0.003  -0.003
   55        0.002   0.002  -0.004  -0.000
   56        0.002   0.002  -0.004  -0.000
   57        0.002   0.002   0.013   0.017
   58        0.002   0.002   0.013   0.017
   59       -0.000   0.000  -0.002  -0.002
   60       -0.000   0.000  -0.002  -0.002
   61       -0.000   0.000   0.000   0.000
   62       -0.000   0.000   0.000   0.000
tot           0.07    0.20    5.50    5.77