 vasp.5.4.4.18Apr17-6-g9f103f2a35 (build May 12 2020 04:58:55) complex

 MD_VERSION_INFO: Compiled 2020-05-12T11:58:55-UTC in devlin.sd.materialsdesign.
 com:/home/medea2/data/build/wwolf/vasp-gpu5.4.4/13047/x86_64/src/src/build/std
 from svn 13047

 executed on                        Lin64 date 2022.03.08  15:35:14

 INCAR:
 POTCAR:    PAW_PBE Ni 02Aug2007
 POTCAR:    PAW_PBE Ta_pv 07Sep2000
 POTCAR:    PAW_PBE Li_sv 10Sep2004
 POTCAR:    PAW_PBE Mn_pv 02Aug2007
 POTCAR:    PAW_PBE O 08Apr2002
 POTCAR:    PAW_PBE Co 02Aug2007

 POTCAR:    PAW_PBE Ni 02Aug2007

 POTCAR:    PAW_PBE Ta_pv 07Sep2000

 POTCAR:    PAW_PBE Li_sv 10Sep2004

 POTCAR:    PAW_PBE Mn_pv 02Aug2007

 POTCAR:    PAW_PBE O 08Apr2002

 POTCAR:    PAW_PBE Co 02Aug2007

 Optimization of the real space projectors (new method)

 maximal supplied QI-value         = 16.25
 optimisation between [QCUT,QGAM] = [ 11.38, 22.75] = [ 36.24,144.96] Ry
 Optimized for a Real-space Cutoff    1.47 Angstroem

   l    n(q)    QCUT    max X(q) W(low)/X(q) W(high)/X(q)  e(spline)
   2      9    11.376    60.317    0.17E-03    0.16E-04    0.16E-06
   2      9    11.376    55.921    0.17E-03    0.16E-04    0.17E-06
   0     10    11.376    51.690    0.45E-04    0.60E-04    0.21E-06
   0     10    11.376    30.015    0.37E-04    0.55E-04    0.19E-06
   1     10    11.376    18.849    0.83E-04    0.11E-03    0.92E-07
   1     10    11.376    14.624    0.69E-04    0.92E-04    0.82E-07
 Optimization of the real space projectors (new method)

[...]

   l    n(q)    QCUT    max X(q) W(low)/X(q) W(high)/X(q)  e(spline)
   0      7    11.387    20.381    0.22E-03    0.48E-03    0.18E-06
   0      7    11.387    15.268    0.22E-03    0.52E-03    0.19E-06
   1      7    11.387     5.964    0.22E-03    0.73E-03    0.24E-06
   1      7    11.387     5.382    0.19E-03    0.60E-03    0.21E-06
 Optimization of the real space projectors (new method)

 maximal supplied QI-value         = 16.25
 optimisation between [QCUT,QGAM] = [ 11.38, 22.75] = [ 36.24,144.96] Ry
 Optimized for a Real-space Cutoff    1.43 Angstroem

   l    n(q)    QCUT    max X(q) W(low)/X(q) W(high)/X(q)  e(spline)
   2      9    11.376    65.824    0.18E-03    0.28E-04    0.14E-06
   2      9    11.376    61.429    0.18E-03    0.29E-04    0.14E-06
   0     10    11.376    56.174    0.51E-04    0.12E-03    0.20E-06
   0     10    11.376    31.263    0.46E-04    0.11E-03    0.18E-06
   1      9    11.376    19.828    0.23E-03    0.17E-03    0.10E-06
   1      9    11.376    15.139    0.20E-03    0.14E-03    0.89E-07

  PAW_PBE Ni 02Aug2007                  :
  PAW_PBE Ta_pv 07Sep2000               :
  PAW_PBE Li_sv 10Sep2004               :
  PAW_PBE Mn_pv 02Aug2007               :
  PAW_PBE O 08Apr2002                   :
  PAW_PBE Co 02Aug2007                  :

 POSCAR: ce10_1
  positions in direct lattice

 METAGGA = SCAN     LMAXTAU =  6    LMIXTAU =  T

 ion  position               nearest neighbor table
   1  0.000  0.397  0.000-  63 2.03  64 2.03  41 2.04  42 2.04  47 2.04  48 2.04  10 2.81   2 2.86
                            38 2.86  38 2.86  11 2.86  11 2.86
   2  0.000  0.595  0.000-  41 2.02  42 2.02  49 2.06  50 2.06  65 2.08  66 2.08   1 2.86  38 2.89
                            38 2.89  15 2.95  15 2.95   9 3.04
   3  0.500  0.906  0.000-  39 2.02  40 2.02  51 2.03  52 2.03  67 2.13  68 2.13   4 2.83  17 2.83
                            18 2.83  25 2.84  26 2.84  37 2.86  37 2.86   9 2.89   9 2.89  15 2.91
   4  0.500  0.102  0.000-  69 2.03  70 2.03  39 2.03  40 2.03  53 2.05  54 2.05   3 2.83  11 2.86
                            37 2.87  37 2.87  10 2.88  10 2.88
   5  0.000  0.904  0.500-  43 2.01  44 2.01  59 2.06  60 2.06  75 2.06  76 2.06   6 2.83  80 2.89
                            80 2.89  16 2.94  16 2.94  13 3.03
   6  0.000  0.100  0.500-  43 1.88  44 1.88  77 1.90  78 1.90  61 1.91  62 1.91   5 2.83  80 2.85
                            80 2.85  14 2.88  14 2.88  12 2.89
   7  0.500  0.398  0.500-  45 1.89  46 1.89  71 1.90  72 1.90  55 1.90  56 1.90   8 2.83  14 2.86
                            79 2.87  79 2.87  12 2.87  12 2.87
   8  0.500  0.594  0.500-  45 2.02  46 2.02  57 2.02  58 2.02  73 2.14  74 2.14  19 2.83  20 2.83
                             7 2.83  79 2.87  79 2.87  13 2.88  13 2.88  16 2.92
   9  0.000  0.805  0.000-  51 2.04  52 2.04  67 2.06  68 2.06  65 2.08  66 2.08  33 2.82  34 2.82
                            25 2.83  26 2.83  37 2.86   3 2.89   3 2.89  15 2.89  15 2.89   2 3.04
  10  0.000  0.202  0.000-  63 1.86  64 1.86  69 1.90  70 1.90  53 1.91  54 1.91   1 2.81  37 2.86
                            11 2.87  11 2.87   4 2.88   4 2.88
  11  0.500  0.300  0.000-  69 1.90  70 1.90  47 1.91  48 1.91  63 2.06  64 2.06  38 2.80   4 2.86
                             1 2.86   1 2.86  10 2.87  10 2.87
  12  0.000  0.300  0.500-  55 2.01  56 2.01  77 2.04  78 2.04  71 2.05  72 2.05  79 2.82   7 2.87
                             7 2.87  14 2.89  14 2.89   6 2.89
  13  0.000  0.694  0.500-  57 2.00  58 2.00  73 2.07  74 2.07  75 2.11  76 2.11  31 2.78  32 2.78
                            23 2.83  24 2.83  79 2.87   8 2.88   8 2.88  16 2.90  16 2.90   5 3.03
  14  0.500  0.200  0.500-  77 1.88  78 1.88  71 1.99  72 1.99  61 2.01  62 2.01  80 2.81   7 2.86
                             6 2.88   6 2.88  12 2.89  12 2.89
  15  0.500  0.704  0.000-  67 1.93  68 1.93  65 1.98  66 1.98  49 2.07  50 2.07   9 2.89   9 2.89
                             3 2.91  34 2.94  33 2.94   2 2.95   2 2.95  31 3.02  32 3.02  38 3.04
  16  0.500  0.797  0.500-  73 1.94  74 1.94  75 1.99  76 1.99  59 2.06  60 2.06  13 2.90  13 2.90
                             8 2.92  32 2.93  31 2.93   5 2.94   5 2.94  33 2.97  34 2.97  25 3.00
  17  0.735  1.000  0.250-  51 2.03  59 2.04  62 2.07  39 2.12  54 2.24  43 2.24   3 2.83  80 2.85

  18  0.265  1.000  0.750-  52 2.03  60 2.04  61 2.07  40 2.12  53 2.24  44 2.24   3 2.83  80 2.85

[...]

  22  0.253  0.400  0.748-  46 2.01  42 2.04  48 2.05  72 2.09  56 2.19  64 2.22  79 2.85  38 2.86

  23  0.240  0.593  0.742-  57 2.00  42 2.06  49 2.11  46 2.13  65 2.16  73 2.16  79 2.81  13 2.83
                            15 3.05
  24  0.760  0.593  0.258-  58 2.00  41 2.06  50 2.11  45 2.13  66 2.16  74 2.16  79 2.81  13 2.83
                            15 3.05
  25  0.249  0.904  0.243-  39 2.01  51 2.03  59 2.07  67 2.11  75 2.12  43 2.23   9 2.83   3 2.84
                            37 2.84  16 3.00
  26  0.751  0.904  0.757-  40 2.01  52 2.03  60 2.07  68 2.11  76 2.12  44 2.23   9 2.83   3 2.84
                            37 2.84  16 3.00
  27  0.756  0.100  0.750-  40 2.01  53 2.02  44 2.04  77 2.07  61 2.20  69 2.20  37 2.86
  28  0.244  0.100  0.250-  39 2.01  54 2.02  43 2.04  78 2.07  62 2.20  70 2.20  37 2.86
  29  0.253  0.302  0.250-  71 2.04  63 2.04  70 2.08  55 2.10  47 2.12  78 2.23
  30  0.747  0.302  0.750-  72 2.04  64 2.04  69 2.08  56 2.10  48 2.12  77 2.23
  31  0.777  0.692  0.745-  65 2.02  57 2.04  76 2.08  73 2.12  68 2.20  49 2.21  13 2.78  16 2.93
                            15 3.02
  32  0.223  0.692  0.255-  66 2.02  58 2.04  75 2.08  74 2.12  67 2.20  50 2.21  13 2.78  16 2.93
                            15 3.02
  33  0.775  0.805  0.250-  75 2.00  66 2.06  74 2.12  51 2.13  67 2.13  59 2.20   9 2.82  15 2.94
                            16 2.97
  34  0.225  0.805  0.750-  76 2.00  65 2.06  73 2.12  52 2.13  68 2.13  60 2.20   9 2.82  15 2.94
                            16 2.97
  35  0.243  0.202  0.751-  64 2.00  53 2.12  61 2.16  72 2.17  77 2.19  69 2.22
  36  0.757  0.202  0.249-  63 2.00  54 2.12  62 2.16  71 2.17  78 2.19  70 2.22
  37  0.000  0.004  0.000-  51 1.90  52 1.90  39 1.91  40 1.91  53 1.94  54 1.94  25 2.84  26 2.84
                            27 2.86  28 2.86   9 2.86  10 2.86   3 2.86   3 2.86   4 2.87   4 2.87
  38  0.500  0.494  0.000-  47 1.88  48 1.88  41 1.90  42 1.90  49 1.96  50 1.96  11 2.80   1 2.86
                             1 2.86  22 2.86  21 2.86   2 2.89   2 2.89  15 3.04
  39  0.350  0.004  0.117-  37 1.91  25 2.01  28 2.01   3 2.02   4 2.03  17 2.12
  40  0.650  0.004  0.883-  37 1.91  26 2.01  27 2.01   3 2.02   4 2.03  18 2.12
  41  0.849  0.497  0.115-  38 1.90   2 2.02   1 2.04  21 2.04  24 2.06  19 2.18
  42  0.151  0.497  0.885-  38 1.90   2 2.02   1 2.04  22 2.04  23 2.06  20 2.18
  43  0.139  0.009  0.393-   6 1.88  80 1.91   5 2.01  28 2.04  25 2.23  17 2.24
  44  0.861  0.009  0.607-   6 1.88  80 1.91   5 2.01  27 2.04  26 2.23  18 2.24
  45  0.638  0.490  0.391-   7 1.89  79 1.93  21 2.01   8 2.02  24 2.13  19 2.18
  46  0.362  0.490  0.609-   7 1.89  79 1.93  22 2.01   8 2.02  23 2.13  20 2.18
  47  0.389  0.398  0.110-  38 1.88  11 1.91   1 2.04  21 2.05  29 2.12  19 2.24
  48  0.611  0.398  0.890-  38 1.88  11 1.91   1 2.04  22 2.05  30 2.12  20 2.24
  49  0.613  0.594  0.885-  38 1.96   2 2.06  15 2.07  23 2.11  20 2.15  31 2.21
  50  0.387  0.594  0.115-  38 1.96   2 2.06  15 2.07  24 2.11  19 2.15  32 2.21
  51  0.880  0.911  0.116-  37 1.90  25 2.03   3 2.03  17 2.03   9 2.04  33 2.13
  52  0.120  0.911  0.884-  37 1.90  26 2.03   3 2.03  18 2.03   9 2.04  34 2.13
  53  0.110  0.104  0.889-  10 1.91  37 1.94  27 2.02   4 2.05  35 2.12  18 2.24
  54  0.890  0.104  0.111-  10 1.91  37 1.94  28 2.02   4 2.05  36 2.12  17 2.24
  55  0.146  0.401  0.390-   7 1.90  79 1.94  12 2.01  19 2.02  29 2.10  21 2.19
  56  0.854  0.401  0.610-   7 1.90  79 1.94  12 2.01  20 2.02  30 2.10  22 2.19
  57  0.880  0.592  0.614-  79 1.93  20 1.98  23 2.00  13 2.00   8 2.02  31 2.04
  58  0.120  0.592  0.386-  79 1.93  19 1.98  24 2.00  13 2.00   8 2.02  32 2.04
  59  0.612  0.906  0.385-  80 1.95  17 2.04   5 2.06  16 2.06  25 2.07  33 2.20
  60  0.388  0.906  0.615-  80 1.95  18 2.04   5 2.06  16 2.06  26 2.07  34 2.20
  61  0.358  0.098  0.610-   6 1.91  80 1.92  14 2.01  18 2.07  35 2.16  27 2.20
  62  0.642  0.098  0.390-   6 1.91  80 1.92  14 2.01  17 2.07  36 2.16  28 2.20
  63  0.887  0.292  0.117-  10 1.86  36 2.00   1 2.03  29 2.04  11 2.06  21 2.22
  64  0.113  0.292  0.883-  10 1.86  35 2.00   1 2.03  30 2.04  11 2.06  22 2.22
  65  0.134  0.700  0.881-  15 1.98  31 2.02  34 2.06   2 2.08   9 2.08  23 2.16
  66  0.866  0.700  0.119-  15 1.98  32 2.02  33 2.06   2 2.08   9 2.08  24 2.16
  67  0.381  0.796  0.123-  15 1.93   9 2.06  25 2.11   3 2.13  33 2.13  32 2.20
  68  0.619  0.796  0.877-  15 1.93   9 2.06  26 2.11   3 2.13  34 2.13  31 2.20
  69  0.643  0.207  0.893-  10 1.90  11 1.90   4 2.03  30 2.08  27 2.20  35 2.22
  70  0.357  0.207  0.107-  10 1.90  11 1.90   4 2.03  29 2.08  28 2.20  36 2.22
  71  0.613  0.303  0.387-   7 1.90  14 1.99  29 2.04  12 2.05  21 2.09  36 2.17
  72  0.387  0.303  0.613-   7 1.90  14 1.99  30 2.04  12 2.05  22 2.09  35 2.17
  73  0.382  0.705  0.624-  16 1.94  13 2.07  31 2.12  34 2.12   8 2.14  23 2.16
  74  0.618  0.705  0.376-  16 1.94  13 2.07  32 2.12  33 2.12   8 2.14  24 2.16
  75  0.134  0.802  0.380-  16 1.99  33 2.00   5 2.06  32 2.08  13 2.11  25 2.12
  76  0.866  0.802  0.620-  16 1.99  34 2.00   5 2.06  31 2.08  13 2.11  26 2.12
  77  0.855  0.194  0.605-  14 1.88   6 1.90  12 2.04  27 2.07  35 2.19  30 2.23
[...]
   0.817E+02 -.397E+02 0.272E+03   -.856E+02 0.397E+02 -.284E+03   0.389E+01 0.206E-01 0.123E+02
   -.438E+01 0.679E+02 0.229E+03   0.355E+01 -.713E+02 -.244E+03   0.835E+00 0.342E+01 0.146E+02
   0.438E+01 0.679E+02 -.229E+03   -.355E+01 -.713E+02 0.244E+03   -.835E+00 0.342E+01 -.146E+02
   -.814E+01 -.655E+02 0.228E+03   0.755E+01 0.684E+02 -.242E+03   0.603E+00 -.293E+01 0.134E+02
   0.814E+01 -.655E+02 -.228E+03   -.755E+01 0.684E+02 0.242E+03   -.603E+00 -.293E+01 -.134E+02
   0.568E+02 0.242E+02 -.294E+03   -.612E+02 -.259E+02 0.309E+03   0.442E+01 0.170E+01 -.150E+02
   -.568E+02 0.242E+02 0.294E+03   0.612E+02 -.259E+02 -.309E+03   -.442E+01 0.170E+01 0.150E+02
   -.388E+02 -.948E+02 0.263E+03   0.416E+02 0.929E+02 -.277E+03   -.277E+01 0.188E+01 0.144E+02
   0.388E+02 -.948E+02 -.263E+03   -.416E+02 0.929E+02 0.277E+03   0.277E+01 0.188E+01 -.144E+02
   0.448E+02 0.109E+03 -.275E+03   -.468E+02 -.111E+03 0.287E+03   0.200E+01 0.290E+01 -.120E+02
   -.448E+02 0.109E+03 0.275E+03   0.468E+02 -.111E+03 -.287E+03   -.200E+01 0.290E+01 0.120E+02
   -.597E+02 -.188E+02 0.294E+03   0.633E+02 0.191E+02 -.307E+03   -.359E+01 -.300E+00 0.136E+02
   0.597E+02 -.188E+02 -.294E+03   -.633E+02 0.191E+02 0.307E+03   0.359E+01 -.300E+00 -.136E+02
   0.289E+02 -.642E+01 0.239E+03   -.310E+02 0.470E+01 -.252E+03   0.215E+01 0.172E+01 0.130E+02
   -.289E+02 -.642E+01 -.239E+03   0.310E+02 0.470E+01 0.252E+03   -.215E+01 0.172E+01 -.130E+02
   0.658E+01 -.496E+02 -.206E+03   -.783E+01 0.506E+02 0.216E+03   0.125E+01 -.104E+01 -.101E+02
   -.658E+01 -.496E+02 0.206E+03   0.783E+01 0.506E+02 -.216E+03   -.125E+01 -.104E+01 0.101E+02
   -.860E+01 0.453E+02 0.202E+03   0.114E+02 -.428E+02 -.216E+03   -.276E+01 -.253E+01 0.136E+02
   0.860E+01 0.453E+02 -.202E+03   -.114E+02 -.428E+02 0.216E+03   0.276E+01 -.253E+01 -.136E+02
[...]
   0.763E+01 0.271E+01 -.226E+03   -.118E+02 0.462E+01 0.242E+03   0.416E+01 -.732E+01 -.163E+02
   -.763E+01 0.271E+01 0.226E+03   0.118E+02 0.462E+01 -.242E+03   -.416E+01 -.732E+01 0.163E+02
   0.290E+02 0.210E+02 0.272E+03   -.307E+02 -.236E+02 -.285E+03   0.169E+01 0.263E+01 0.132E+02
   -.290E+02 0.210E+02 -.272E+03   0.307E+02 -.236E+02 0.285E+03   -.169E+01 0.263E+01 -.132E+02
   -.282E+02 0.239E+02 0.238E+03   0.302E+02 -.257E+02 -.250E+03   -.198E+01 0.189E+01 0.116E+02
   0.282E+02 0.239E+02 -.238E+03   -.302E+02 -.257E+02 0.250E+03   0.198E+01 0.189E+01 -.116E+02
   0.107E+02 0.139E+02 -.206E+03   -.148E+02 -.215E+02 0.221E+03   0.410E+01 0.762E+01 -.156E+02
   -.107E+02 0.139E+02 0.206E+03   0.148E+02 -.215E+02 -.221E+03   -.410E+01 0.762E+01 0.156E+02
   0.237E+02 0.135E+02 0.192E+03   -.304E+02 -.134E+02 -.204E+03   0.664E+01 -.155E+00 0.128E+02
   -.237E+02 0.135E+02 -.192E+03   0.304E+02 -.134E+02 0.204E+03   -.664E+01 -.155E+00 -.128E+02
   -.148E+02 -.261E+02 -.239E+03   0.168E+02 0.294E+02 0.253E+03   -.198E+01 -.328E+01 -.135E+02
   0.148E+02 -.261E+02 0.239E+03   -.168E+02 0.294E+02 -.253E+03   0.198E+01 -.328E+01 0.135E+02
   0.534E-07 -.626E+02 0.425E-06   -.259E-14 0.638E+02 0.476E-13   0.678E-20 -.118E+01 0.000E+00
   0.103E-06 0.802E+02 0.541E-06   -.142E-12 -.797E+02 0.465E-13   0.136E-19 -.520E+00 0.000E+00
   0.486E-05 -.506E+01 -.890E-05   -.131E-12 0.115E-11 -.219E-12   0.244E-14 0.513E+01 0.000E+00

 POSITION                                       TOTAL-FORCE (eV/Angst)
      0.00000      5.72903      0.00000         0.000000     -0.000136      0.000000
      0.00000      8.58594      0.00000         0.000000      0.006304      0.000000
      2.49534     13.07888      0.00000         0.000000      0.007011      0.000000
      2.49534      1.47284      0.00000         0.000000     -0.000220      0.000000
     -0.83029     13.04967      4.73615         0.000000      0.004542      0.000000
     -0.83029      1.44722      4.73615         0.000000      0.000973      0.000000
      1.66505      5.74597      4.73615         0.000000      0.007866      0.000000
      1.66505      8.57780      4.73615         0.000000     -0.004524      0.000000
      0.00000     11.62477      0.00000         0.000000      0.004902      0.000000
      0.00000      2.91567      0.00000         0.000000     -0.010212      0.000000
      2.49534      4.32890      0.00000         0.000000     -0.004558      0.000000
     -0.83029      4.33424      4.73615         0.000000     -0.016922      0.000000
     -0.83029     10.02155      4.73615         0.000000      0.003335      0.000000
      1.66505      2.88554      4.73615         0.000000     -0.018273      0.000000
      2.49534     10.16713      0.00000         0.000000      0.007279      0.000000
      1.66505     11.49789      4.73615         0.000000      0.008885      0.000000
      3.25431     14.42551      2.36753         0.002199     -0.000476     -0.001145
      0.07579     14.42551      7.10476        -0.002199     -0.000476      0.001145
      0.77367      7.20477      2.43170         0.004014     -0.000625      0.000660
      2.55644      7.20477      7.04059        -0.004014     -0.000625     -0.000660
      3.30880      5.77393      2.38935         0.000135      0.000586      0.000248
      0.02130      5.77393      7.08295        -0.000135      0.000586     -0.000248
     -0.03661      8.56378      7.03305        -0.000365      0.002023     -0.000519
      3.36671      8.56378      2.43925         0.000365      0.002023      0.000519
      0.83782     13.04278      2.30126         0.001414      0.000853     -0.000168
      2.49228     13.04278      7.17104        -0.001414      0.000853      0.000168
      2.52459      1.44146      7.10884         0.002780     -0.000551      0.000160
      0.80552      1.44146      2.36345        -0.002780     -0.000551     -0.000160
      0.84757      4.36426      2.36425        -0.000557      0.002316      0.001128
      2.48253      4.36426      7.10805         0.000557      0.002316     -0.001128
      2.63977      9.99057      7.05773         0.000343      0.000053      0.001608
      0.69033      9.99057      2.41457        -0.000343      0.000053     -0.001608
      3.45513     11.61407      2.36732         0.001897     -0.004209      0.000001
     -0.12503     11.61407      7.10497        -0.001897     -0.004209     -0.000001
     -0.03373      2.91532      7.11364         0.004804     -0.001421      0.005381
      3.36383      2.91532      2.35866        -0.004804     -0.001421     -0.005381
      0.00000      0.05369      0.00000         0.000000      0.006361      0.000000
      2.49534      7.12899      0.00000         0.000000     -0.000134      0.000000
      1.55538      0.05771      1.10557         0.000365     -0.000869     -0.004515
      1.77472      0.05771      8.36673        -0.000365     -0.000869      0.004515
      4.04724      7.16656      1.09237        -0.002014      0.001296     -0.000757
     -0.71714      7.16656      8.37993         0.002014      0.001296      0.000757
      0.04153      0.12528      3.72475         0.003309     -0.004698      0.001407
      3.28857      0.12528      5.74755        -0.003309     -0.004698     -0.001407
      2.53325      7.07545      3.70754         0.006109      0.001296     -0.001465
      0.79685      7.07545      5.76475        -0.006109      0.001296      0.001465
      1.75599      5.74734      1.04632         0.004376      0.004249      0.000382
      1.57411      5.74734      8.42598        -0.004376      0.004249     -0.000382
      1.58724      8.56959      8.38318        -0.000954     -0.001946     -0.002621
      1.74286      8.56959      1.08911         0.000954     -0.001946      0.002621
      4.19989     13.15137      1.09924        -0.000803     -0.002600     -0.000264
     -0.86979     13.15137      8.37305         0.000803     -0.002600      0.000264
     -0.92598      1.50225      8.41768         0.002521      0.000090     -0.000235
      4.25608      1.50225      1.05461        -0.002521      0.000090      0.000235
      0.07865      5.79446      3.69616        -0.002270     -0.002561     -0.006821
      3.25145      5.79446      5.77614         0.002270     -0.002561      0.006821
      3.36960      8.53803      5.81998         0.001056     -0.006530     -0.000270
     -0.03949      8.53803      3.65231        -0.001056     -0.006530      0.000270
      2.41667     13.07848      3.64649         0.000344     -0.010558      0.001668
      0.91343     13.07848      5.82580        -0.000344     -0.010558     -0.001668
[...]
      4.12332     10.10470      1.12691         0.007182      0.001272      0.005060
      1.69675     11.48902      1.16350        -0.001541      0.004886      0.001571
      1.63336     11.48902      8.30879         0.001541      0.004886     -0.001571
      1.72512      2.98646      8.46231        -0.006568      0.001684      0.000290
      1.60498      2.98646      1.00999         0.006568      0.001684     -0.000290
      2.41821      4.37680      3.66140         0.008094      0.000827      0.005740
      0.91189      4.37680      5.81089        -0.008094      0.000827     -0.005740
      0.87204     10.17525      5.91011        -0.000229     -0.003086      0.002348
      2.45807     10.17525      3.56218         0.000229     -0.003086     -0.002348
      0.03869     11.57149      3.59739        -0.000532     -0.006847     -0.000646
      3.29141     11.57149      5.87490         0.000532     -0.006847      0.000646
      3.26072      2.80179      5.72821        -0.006026      0.004554      0.003541
      0.06938      2.80179      3.74408         0.006026      0.004554     -0.003541
     -0.83029      7.15396      4.73615         0.000000      0.014272      0.000000
      1.66505      0.07170      4.73615         0.000000      0.005054      0.000000
    total drift:                                0.000005      0.073110     -0.000009

  FREE ENERGIE OF THE ION-ELECTRON SYSTEM (eV)
  free  energy   TOTEN  =     -2069.5078832533 eV

  energy  without entropy=    -2069.5078830882  energy(sigma->0) =    -2069.50788317

volume of typ            1:    13.1 %

[...]

volume of typ            6:     1.9 %

total charge

# of ion       s       p       d       tot
    1        0.211   0.247   7.861   8.319
    2        0.205   0.239   7.871   8.315
    3        0.205   0.237   7.874   8.316
    4        0.213   0.247   7.862   8.322
    5        0.210   0.245   7.870   8.325
    6        0.279   0.381   7.764   8.424
    7        0.281   0.386   7.751   8.418
    8        0.210   0.238   7.867   8.314
    9        0.202   0.236   7.873   8.311
   10        0.282   0.391   7.756   8.430
   11        0.252   0.323   7.799   8.374
   12        0.216   0.249   7.856   8.321
   13        0.207   0.238   7.876   8.320
   14        0.250   0.319   7.794   8.362
   15        0.296   6.199   1.892   8.387
   16        0.296   6.201   1.888   8.385
   17        2.078   0.253   0.103   2.434
   18        2.078   0.253   0.103   2.434
   19        2.080   0.257   0.104   2.441
   20        2.080   0.257   0.104   2.441
   21        2.084   0.269   0.110   2.463
   22        2.084   0.269   0.110   2.463
   23        2.082   0.268   0.110   2.460
   24        2.082   0.268   0.110   2.460
   25        2.085   0.277   0.115   2.477
   26        2.085   0.277   0.115   2.477
   27        2.087   0.278   0.114   2.478
   28        2.087   0.278   0.114   2.478
   29        2.083   0.265   0.108   2.456
   30        2.083   0.265   0.108   2.456
   31        2.080   0.266   0.109   2.454
   32        2.080   0.266   0.109   2.455
   33        2.080   0.267   0.109   2.456
   34        2.080   0.267   0.109   2.456
   35        2.070   0.229   0.091   2.390
   36        2.070   0.229   0.091   2.390
   37        0.227   6.244   4.542  11.013
   38        0.227   6.246   4.554  11.026
   39        1.255   2.862   0.004   4.121
   40        1.255   2.862   0.004   4.121
   41        1.256   2.858   0.004   4.118
   42        1.256   2.858   0.004   4.118
   43        1.262   2.835   0.005   4.103
   44        1.262   2.835   0.005   4.103
   45        1.260   2.840   0.005   4.104
   46        1.260   2.840   0.005   4.104
   47        1.261   2.849   0.005   4.115
   48        1.261   2.849   0.005   4.115
   49        1.257   2.871   0.004   4.132
   50        1.257   2.871   0.004   4.132
   51        1.254   2.859   0.004   4.117
   52        1.254   2.859   0.004   4.117
   53        1.261   2.843   0.004   4.108
   54        1.261   2.843   0.004   4.108
   55        1.259   2.839   0.005   4.103
   56        1.259   2.839   0.005   4.103
   57        1.249   2.864   0.004   4.117
   58        1.249   2.864   0.004   4.117
   59        1.254   2.874   0.004   4.133
   60        1.254   2.874   0.004   4.132
[...]
   66        1.256   2.877   0.005   4.137
   67        1.261   2.869   0.005   4.135
   68        1.261   2.869   0.005   4.135
   69        1.264   2.826   0.005   4.095
   70        1.264   2.826   0.005   4.095
   71        1.261   2.831   0.004   4.096
   72        1.261   2.831   0.004   4.096
   73        1.260   2.869   0.005   4.134
   74        1.260   2.869   0.005   4.134
   75        1.255   2.879   0.004   4.138
   76        1.255   2.879   0.004   4.138
   77        1.264   2.826   0.005   4.095
   78        1.264   2.826   0.005   4.095
   79        0.241   0.332   6.820   7.393
   80        0.241   0.335   6.824   7.400
tot          96.72  148.84  138.52  384.09

magnetization (x)

# of ion       s       p       d       tot
    1        0.005   0.001   1.625   1.631
    2        0.005   0.002   1.640   1.646
    3        0.006   0.002   1.628   1.636
    4        0.005   0.001   1.635   1.642
    5        0.002   0.001   1.624   1.627
    6        0.001   0.001   0.191   0.192
    7       -0.001  -0.001   0.021   0.019
    8        0.003   0.001   1.617   1.621
    9        0.004   0.001   1.632   1.637
   10        0.000   0.001   0.045   0.046
   11        0.005   0.002   0.889   0.895
   12        0.002   0.001   1.598   1.601
   13        0.002   0.001   1.618   1.621
   14        0.001   0.001   0.903   0.906
   15       -0.000   0.000  -0.003  -0.003
   16       -0.001  -0.001  -0.003  -0.005
   17        0.002   0.003   0.000   0.005
   18        0.002   0.003   0.000   0.005
   19        0.002   0.004   0.001   0.007
   20        0.002   0.004   0.001   0.007
   21        0.005   0.010   0.002   0.017
   22        0.005   0.010   0.002   0.017
   23        0.003   0.007   0.002   0.013
   24        0.003   0.007   0.002   0.013
   25        0.004   0.008   0.002   0.014
   26        0.004   0.008   0.002   0.014
   27        0.005   0.011   0.002   0.018
   28        0.005   0.011   0.002   0.018
   29        0.003   0.007   0.001   0.011
   30        0.003   0.007   0.001   0.011
   31        0.001   0.003   0.001   0.005
   32        0.001   0.003   0.001   0.005
   33        0.001   0.003   0.001   0.004
   34        0.001   0.003   0.001   0.004
   35        0.001   0.001  -0.001   0.002
   36        0.001   0.001  -0.001   0.002
   37        0.011   0.012   2.684   2.708
   38        0.012   0.012   2.693   2.717
   39        0.011   0.112   0.001   0.123
   40        0.011   0.112   0.001   0.123
   41        0.011   0.118   0.001   0.130
   42        0.011   0.118   0.001   0.130
   43        0.006   0.043   0.000   0.049
   44        0.006   0.043   0.000   0.049
   45        0.006   0.050   0.000   0.056
   46        0.006   0.050   0.000   0.056
   47        0.007   0.043   0.001   0.050
   48        0.007   0.042   0.001   0.050
   49        0.006   0.056   0.000   0.062
   50        0.006   0.056   0.000   0.062
   51        0.011   0.110   0.001   0.121
   52        0.011   0.110   0.001   0.121
   53        0.006   0.045   0.001   0.052
   54        0.006   0.045   0.001   0.052
   55        0.005   0.041   0.000   0.046
   56        0.005   0.041   0.000   0.046
   57        0.009   0.096   0.000   0.106
   58        0.009   0.096   0.000   0.106
   59        0.005   0.045   0.000   0.050
   60        0.005   0.045   0.000   0.050
[...]
   66        0.009   0.080   0.000   0.090
   67        0.009   0.076   0.000   0.085
   68        0.009   0.076   0.000   0.085
   69        0.008   0.029   0.000   0.037
   70        0.008   0.029   0.000   0.037
   71        0.011   0.094   0.000   0.104
   72        0.011   0.094   0.000   0.105
   73        0.009   0.072   0.000   0.081
   74        0.009   0.072   0.000   0.081
   75        0.009   0.073   0.000   0.082
   76        0.009   0.073   0.000   0.082
   77        0.006  -0.010   0.000  -0.003
   78        0.006  -0.009   0.000  -0.003
   79       -0.001  -0.001  -0.024  -0.027
   80       -0.001  -0.001  -0.032  -0.034
tot           0.44    2.77   22.02   25.22