 vasp.5.4.4.18Apr17-6-g9f103f2a35 (build May 12 2020 04:58:55) complex

 MD_VERSION_INFO: Compiled 2020-05-12T11:58:55-UTC in devlin.sd.materialsdesign.
 com:/home/medea2/data/build/wwolf/vasp-gpu5.4.4/13047/x86_64/src/src/build/std
 from svn 13047

 executed on                        Lin64 date 2023.03.16  10:58:39

 INCAR:
 POTCAR:    PAW_PBE Li_sv 10Sep2004
 POTCAR:    PAW_PBE Ni 02Aug2007
 POTCAR:    PAW_PBE O 08Apr2002

 POTCAR:    PAW_PBE Li_sv 10Sep2004

 POTCAR:    PAW_PBE Ni 02Aug2007

 POTCAR:    PAW_PBE O 08Apr2002

 Optimization of the real space projectors (new method)

 maximal supplied QI-value         = 22.11
 optimisation between [QCUT,QGAM] = [ 11.28, 22.77] = [ 35.61,145.23] Ry
 Optimized for a Real-space Cutoff    1.10 Angstroem

   l    n(q)    QCUT    max X(q) W(low)/X(q) W(high)/X(q)  e(spline)
   0      7    11.276    10.506    0.54E-04    0.58E-04    0.16E-07
   0      7    11.276     8.367    0.11E-03    0.14E-03    0.35E-07
   1      7    11.276     8.983    0.23E-03    0.43E-03    0.86E-07
 Optimization of the real space projectors (new method)

[...]

   l    n(q)    QCUT    max X(q) W(low)/X(q) W(high)/X(q)  e(spline)
   2      9    11.376    60.317    0.17E-03    0.16E-04    0.16E-06
   2      9    11.376    55.921    0.17E-03    0.16E-04    0.17E-06
   0     10    11.376    51.690    0.45E-04    0.60E-04    0.21E-06
   0     10    11.376    30.015    0.37E-04    0.55E-04    0.19E-06
   1     10    11.376    18.849    0.83E-04    0.11E-03    0.92E-07
   1     10    11.376    14.624    0.69E-04    0.92E-04    0.82E-07
 Optimization of the real space projectors (new method)

 maximal supplied QI-value         = 24.76
 optimisation between [QCUT,QGAM] = [ 11.39, 22.77] = [ 36.31,145.25] Ry
 Optimized for a Real-space Cutoff    1.10 Angstroem

   l    n(q)    QCUT    max X(q) W(low)/X(q) W(high)/X(q)  e(spline)
   0      7    11.387    20.381    0.22E-03    0.48E-03    0.18E-06
   0      7    11.387    15.268    0.22E-03    0.52E-03    0.19E-06
   1      7    11.387     5.964    0.22E-03    0.73E-03    0.24E-06
   1      7    11.387     5.382    0.19E-03    0.60E-03    0.21E-06

  PAW_PBE Li_sv 10Sep2004               :
  PAW_PBE Ni 02Aug2007                  :
  PAW_PBE O 08Apr2002                   :

 POSCAR: ce7
  positions in direct lattice
 exchange correlation table for  LEXCH =       14
   RHO(1)=    0.500       N(1)  =     2000
   RHO(2)=  100.500       N(2)  =     4000

 ion  position               nearest neighbor table
   1  0.998  0.004  0.000-   7 2.07  10 2.07   9 2.10   6 2.10  11 2.14   8 2.14
   2  0.335  0.330  0.000-   9 2.07   6 2.07   7 2.10  10 2.10  11 2.14   8 2.14
   3  0.502  0.995  0.500-  10 1.86   7 1.86   8 1.91  11 1.91   9 1.94   6 1.94   4 2.80   5 2.82
                             5 2.82   4 2.85   4 2.85   5 2.86
   4  0.831  0.338  0.500-   6 1.86   9 1.86   8 1.91  11 1.91   7 1.94  10 1.94   3 2.80   5 2.82
                             5 2.82   3 2.85   3 2.85   5 2.86
   5  0.167  0.667  0.500-   8 1.85  11 1.85   9 1.98   6 1.98  10 1.98   7 1.98   3 2.82   4 2.82
                             4 2.82   3 2.82   4 2.86   3 2.86
   6  0.757  0.020  0.287-   4 1.86   3 1.94   5 1.98   2 2.07   1 2.10
   7  0.111  0.313  0.287-   3 1.86   4 1.94   5 1.98   1 2.07   2 2.10
   8  0.422  0.667  0.296-   5 1.85   3 1.91   4 1.91   1 2.14   2 2.14
   9  0.223  0.020  0.713-   4 1.86   3 1.94   5 1.98   2 2.07   1 2.10
  10  0.576  0.313  0.713-   3 1.86   4 1.94   5 1.98   1 2.07   2 2.10
  11  0.911  0.667  0.704-   5 1.85   3 1.91   4 1.91   1 2.14   2 2.14

  LATTYP: Found a base centered monoclinic cell.
 ALAT       =     4.8877421200
 B/A-ratio  =     1.7430986519
 C/A-ratio  =     1.9267827085
 COS(beta)  =    -0.4303880126

  Lattice vectors:

 A1 = (   2.4438710200,   4.2599083500,   0.0000000000)
 A2 = (   2.4438711000,  -4.2599083500,   0.0000000000)
 A3 = (  -8.1452697400,   0.0000000000,  -4.7271652000)

Analysis of symmetry for initial positions (statically):
 Subroutine PRICEL returns:
 Original cell was already a primitive cell.

 Routine SETGRP: Setting up the symmetry group for a
 base centered monoclinic supercell.

 Subroutine GETGRP returns: Found  4 space group operations
 (whereof  2 operations were pure point group operations)
 out of a pool of  4 trial point group operations.

The static configuration has the point symmetry C_2 .
 The point group associated with its full space group is C_2h.

Analysis of symmetry for dynamics (positions and initial velocities):
 Subroutine PRICEL returns:
 Original cell was already a primitive cell.

[...]

The dynamic configuration has the point symmetry C_2 .
 The point group associated with its full space group is C_2h.

Analysis of structural, dynamic, and magnetic symmetry:
 Subroutine PRICEL returns:
 Original cell was already a primitive cell.

 Routine SETGRP: Setting up the symmetry group for a
 base centered monoclinic supercell.

 Subroutine GETGRP returns: Found  4 space group operations
 (whereof  2 operations were pure point group operations)
 out of a pool of  4 trial point group operations.

The magnetic configuration has the point symmetry C_2 .
 The point group associated with its full space group is C_2h.

 Subroutine INISYM returns: Found  4 space group operations
 (whereof  2 operations are pure point group operations),
 and found     1 'primitive' translations

 KPOINTS: Automatic mesh

Automatic generation of k-mesh.
Space group operators:
 irot       det(A)        alpha          n_x          n_y          n_z        tau_x        tau_y        tau_z
    1     1.000000     0.000001     1.000000     0.000000     0.000000     0.000000     0.000000     0.000000
    2     1.000000   179.999999     0.000000     1.000000     0.000000     0.000000     0.000000     0.000000
    3    -1.000000     0.000001     1.000000     0.000000     0.000000     0.333333     0.333333     0.000000
    4    -1.000000   179.999999     0.000000     1.000000     0.000000     0.333333     0.333333     0.000000

 Subroutine IBZKPT returns following result:

 Found    124 irreducible k-points:

 Following reciprocal coordinates:
            Coordinates               Weight
  0.000000  0.000000  0.000000      1.000000
  0.142857  0.000000 -0.000000      2.000000
  0.285714  0.000000 -0.000000      2.000000
  0.428571  0.000000  0.000000      2.000000
  0.000000  0.166667  0.000000      2.000000
  0.142857  0.166667 -0.000000      2.000000
  0.285714  0.166667 -0.000000      2.000000
  0.428571  0.166667  0.000000      2.000000
 -0.428571  0.166667  0.000000      2.000000
 -0.285714  0.166667  0.000000      2.000000
 -0.142857  0.166667  0.000000      2.000000
  0.000000  0.333333  0.000000      2.000000
  0.142857  0.333333 -0.000000      2.000000
  0.285714  0.333333 -0.000000      2.000000
  0.428571  0.333333  0.000000      2.000000
 -0.428571  0.333333  0.000000      2.000000
 -0.285714  0.333333  0.000000      2.000000
 -0.142857  0.333333  0.000000      2.000000
  0.000000  0.500000  0.000000      1.000000
  0.142857  0.500000 -0.000000      2.000000
  0.285714  0.500000 -0.000000      2.000000
  0.428571  0.500000  0.000000      2.000000
  0.000000  0.000000  0.166667      2.000000
  0.142857  0.000000  0.166667      2.000000
  0.285714  0.000000  0.166667      2.000000
  0.428571  0.000000  0.166667      2.000000
 -0.428571  0.000000  0.166667      2.000000
 -0.285714 -0.000000  0.166667      2.000000
 -0.142857 -0.000000  0.166667      2.000000
  0.000000  0.166667  0.166667      4.000000
  0.142857  0.166667  0.166667      2.000000
  0.285714  0.166667  0.166667      2.000000
  0.428571  0.166667  0.166667      2.000000
 -0.428571  0.166667  0.166667      2.000000
 -0.285714  0.166667  0.166667      2.000000
 -0.142857  0.166667  0.166667      2.000000
  0.000000  0.333333  0.166667      4.000000
  0.142857  0.333333  0.166667      2.000000
  0.285714  0.333333  0.166667      2.000000
  0.428571  0.333333  0.166667      2.000000
 -0.428571  0.333333  0.166667      2.000000
 -0.285714  0.333333  0.166667      2.000000
 -0.142857  0.333333  0.166667      2.000000
  0.000000  0.500000  0.166667      2.000000
  0.142857  0.500000  0.166667      2.000000
  0.285714  0.500000  0.166667      2.000000
  0.428571  0.500000  0.166667      2.000000
 -0.428571  0.500000  0.166667      2.000000
 -0.285714  0.500000  0.166667      2.000000
 -0.142857  0.500000  0.166667      2.000000
  0.142857 -0.333333  0.166667      2.000000
  0.285714 -0.333333  0.166667      2.000000
  0.428571 -0.333333  0.166667      2.000000
 -0.428571 -0.333333  0.166667      2.000000
 -0.285714 -0.333333  0.166667      2.000000
 -0.142857 -0.333333  0.166667      2.000000
  0.142857 -0.166667  0.166667      2.000000
  0.285714 -0.166667  0.166667      2.000000
  0.428571 -0.166667  0.166667      2.000000
 -0.428571 -0.166667  0.166667      2.000000
[...]
  0.428571  0.166667  0.500000      2.000000
 -0.428571  0.166667  0.500000      2.000000
 -0.285714  0.166667  0.500000      2.000000
 -0.142857  0.166667  0.500000      2.000000
  0.000000  0.333333  0.500000      2.000000
  0.142857  0.333333  0.500000      2.000000
  0.285714  0.333333  0.500000      2.000000
  0.428571  0.333333  0.500000      2.000000
 -0.428571  0.333333  0.500000      2.000000
 -0.285714  0.333333  0.500000      2.000000
 -0.142857  0.333333  0.500000      2.000000
  0.000000  0.500000  0.500000      1.000000
  0.142857  0.500000  0.500000      2.000000
  0.285714  0.500000  0.500000      2.000000
  0.428571  0.500000  0.500000      2.000000

 Following cartesian coordinates:
            Coordinates               Weight
  0.000000  0.000000  0.000000      1.000000
  0.029228 -0.016768  0.010079      2.000000
  0.058455 -0.033535  0.020159      2.000000
  0.087683 -0.050303  0.030238      2.000000
  0.000000  0.039124  0.000000      2.000000
  0.029228  0.022357  0.010079      2.000000
  0.058455  0.005589  0.020159      2.000000
  0.087683 -0.011178  0.030238      2.000000
 -0.087683  0.089427 -0.030238      2.000000
 -0.058455  0.072660 -0.020159      2.000000
 -0.029228  0.055892 -0.010079      2.000000
  0.000000  0.078249  0.000000      2.000000
  0.029228  0.061481  0.010079      2.000000
  0.058455  0.044714  0.020159      2.000000
  0.087683  0.027946  0.030238      2.000000
 -0.087683  0.128552 -0.030238      2.000000
 -0.058455  0.111784 -0.020159      2.000000
 -0.029228  0.095017 -0.010079      2.000000
  0.000000  0.117373  0.000000      1.000000
  0.029228  0.100606  0.010079      2.000000
  0.058455  0.083838  0.020159      2.000000
  0.087683  0.067071  0.030238      2.000000
  0.000000  0.000000  0.035257      2.000000
  0.029228 -0.016768  0.045337      2.000000
  0.058455 -0.033535  0.055416      2.000000
  0.087683 -0.050303  0.065496      2.000000
 -0.087683  0.050303  0.005019      2.000000
 -0.058455  0.033535  0.015098      2.000000
 -0.029228  0.016768  0.025178      2.000000
  0.000000  0.039124  0.035257      4.000000
  0.029228  0.022357  0.045337      2.000000
  0.058455  0.005589  0.055416      2.000000
  0.087683 -0.011178  0.065496      2.000000
 -0.087683  0.089427  0.005019      2.000000
[...]
 k-point 90 :  -0.1429 0.5000 0.3333  plane waves:    2497
 k-point 91 :   0.1429-0.3333 0.3333  plane waves:    2505
 k-point 92 :   0.2857-0.3333 0.3333  plane waves:    2522
 k-point 93 :   0.4286-0.3333 0.3333  plane waves:    2519
 k-point 94 :  -0.4286-0.3333 0.3333  plane waves:    2515
 k-point 95 :  -0.2857-0.3333 0.3333  plane waves:    2505
 k-point 96 :  -0.1429-0.3333 0.3333  plane waves:    2499
 k-point 97 :   0.1429-0.1667 0.3333  plane waves:    2485
 k-point 98 :   0.2857-0.1667 0.3333  plane waves:    2505
 k-point 99 :   0.4286-0.1667 0.3333  plane waves:    2509
 k-point ** :  -0.4286-0.1667 0.3333  plane waves:    2524
 k-point ** :  -0.2857-0.1667 0.3333  plane waves:    2498
 k-point ** :  -0.1429-0.1667 0.3333  plane waves:    2495
 k-point ** :   0.0000 0.0000 0.5000  plane waves:    2476
 k-point ** :   0.1429 0.0000 0.5000  plane waves:    2495
 k-point ** :   0.2857 0.0000 0.5000  plane waves:    2501
 k-point ** :   0.4286 0.0000 0.5000  plane waves:    2505
 k-point ** :   0.0000 0.1667 0.5000  plane waves:    2492
 k-point ** :   0.1429 0.1667 0.5000  plane waves:    2494
 k-point ** :   0.2857 0.1667 0.5000  plane waves:    2501
 k-point ** :   0.4286 0.1667 0.5000  plane waves:    2501
 k-point ** :  -0.4286 0.1667 0.5000  plane waves:    2513
 k-point ** :  -0.2857 0.1667 0.5000  plane waves:    2503
 k-point ** :  -0.1429 0.1667 0.5000  plane waves:    2487
 k-point ** :   0.0000 0.3333 0.5000  plane waves:    2498
 k-point ** :   0.1429 0.3333 0.5000  plane waves:    2496
 k-point ** :   0.2857 0.3333 0.5000  plane waves:    2500
 k-point ** :   0.4286 0.3333 0.5000  plane waves:    2501
 k-point ** :  -0.4286 0.3333 0.5000  plane waves:    2513
 k-point ** :  -0.2857 0.3333 0.5000  plane waves:    2514
 k-point ** :  -0.1429 0.3333 0.5000  plane waves:    2512
 k-point ** :   0.0000 0.5000 0.5000  plane waves:    2504
 k-point ** :   0.1429 0.5000 0.5000  plane waves:    2508
 k-point ** :   0.2857 0.5000 0.5000  plane waves:    2510
 k-point ** :   0.4286 0.5000 0.5000  plane waves:    2503

 maximum and minimum number of plane-waves per node :      2524     2476

 maximum number of plane-waves:      2524
 maximum index in each direction:
   IXMAX=    9   IYMAX=    9   IZMAX=    9
   IXMIN=   -9   IYMIN=   -9   IZMIN=   -9

 The following grids will avoid any aliasing or wrap around errors in the Hartre
 e energy
  - symmetry arguments have not been applied
  - exchange correlation energies might require even more grid points
  - we recommend to set PREC=Normal or Accurate and rely on VASP defaults
 WARNING: aliasing errors must be expected set NGX to    40 to avoid them
 WARNING: aliasing errors must be expected set NGY to    40 to avoid them
 WARNING: aliasing errors must be expected set NGZ to    40 to avoid them

 serial   3D FFT for wavefunctions
 parallel 3D FFT for charge:
    minimum data exchange during FFTs selected (reduces bandwidth)

 Broyden mixing: mesh for mixing (old mesh)
   NGX = 17   NGY = 17   NGZ = 19
  (NGX  = 72   NGY  = 72   NGZ  = 72)
  gives a total of   5491 points

 initial charge density was supplied:
 charge density of overlapping atoms calculated
 number of electron      72.0000000 magnetization       7.5000000
 keeping initial charge density in first step

 Maximum index for non-local projection operator         6183
 Maximum index for augmentation-charges         1282 (set IRDMAX)

 First call to EWALD:  gamma=   0.384
 Maximum number of real-space cells 3x 3x 3
 Maximum number of reciprocal cells 3x 3x 3

--------------------------------------- Iteration      1(   1)  ---------------------------------------

 eigenvalue-minimisations  : 23808
 total energy-change (2. order) : 0.6243346E+03  (-0.3436278E+04)
 number of electron      72.0000000 magnetization       7.5000000
 augmentation part       72.0000000 magnetization       7.5000000

 Free energy of the ion-electron system (eV)
  alpha Z        PSCENC =       224.79397398
  Ewald energy   TEWEN  =     -4352.70241620
  -Hartree energ DENC   =     -2004.69738626
  -exchange      EXHF   =         0.00000000
  -V(xc)+E(xc)   XCENC  =       293.38292848
  PAW double counting   =      5121.46913532    -5361.11212292
  entropy T*S    EENTRO =        -0.00228827
  eigenvalues    EBANDS =       486.10450556
  atomic energy  EATOM  =      6217.09824741
  Solvation  Ediel_sol  =         0.00000000
  free energy    TOTEN  =       624.33457710 eV

  energy without entropy =      624.33686536  energy(sigma->0) =      624.33572123

[...]

 eigenvalue-minimisations  : 25920
 total energy-change (2. order) :-0.6447460E+03  (-0.6071273E+03)
 number of electron      72.0000000 magnetization       7.5000000
 augmentation part       72.0000000 magnetization       7.5000000

[...]

 Broyden mixing:
  rms(total) = 0.49964E+01    rms(broyden)= 0.49958E+01
  rms(prec ) = 0.84548E+01
  weight for this iteration     100.00

[...]

 eigenvalues of (default mixing * dielectric matrix)
  average eigenvalue GAMMA=   0.2759
  0.2759

[...]

 eigenvalue-minimisations  : 31120
 total energy-change (2. order) : 0.1505723E+01  (-0.3804975E+00)
 number of electron      71.9999993 magnetization       1.2074887
 augmentation part       23.9785484 magnetization       0.6597245

[...]

 Broyden mixing:
  rms(total) = 0.10867E-02    rms(broyden)= 0.10859E-02
  rms(prec ) = 0.16620E-02
  weight for this iteration     100.00

 eigenvalues of (default mixing * dielectric matrix)
  average eigenvalue GAMMA=   1.0116
  2.6194  1.8453  1.3581  1.3581  0.9339  0.9339  0.1655  0.9286  0.5079  0.5079
  0.6867  0.6867  0.6193

[...]

--------------------------------------- Iteration      1(  19)  ---------------------------------------

 eigenvalue-minimisations  : 23584
 total energy-change (2. order) :-0.4292026E-05  (-0.5656776E-06)
 number of electron      71.9999993 magnetization       1.9995763
 augmentation part       23.8869938 magnetization       1.3861729

 Free energy of the ion-electron system (eV)
  alpha Z        PSCENC =       224.79397398
  Ewald energy   TEWEN  =     -4352.70241620
  -Hartree energ DENC   =     -1949.96550531
  -exchange      EXHF   =         0.00000000
  -V(xc)+E(xc)   XCENC  =       291.34000346
  PAW double counting   =      6722.58451053    -6973.25486952
  entropy T*S    EENTRO =        -0.00441411
  eigenvalues    EBANDS =      -246.49176595
  atomic energy  EATOM  =      6217.09824741
  Solvation  Ediel_sol  =         0.00000000
  free energy    TOTEN  =       -66.60223571 eV

  energy without entropy =      -66.59782160  energy(sigma->0) =      -66.60002866

 average (electrostatic) potential at core
  the test charge radii are     0.7079  0.9791  0.7215
  (the norm of the test charge is              1.0000)
       1 -58.0455       2 -58.0455       3 -87.4183       4 -87.4183       5 -87.0357
       6 -70.5651       7 -70.5651       8 -70.8224       9 -70.5651      10 -70.5651
      11 -70.8224

 E-fermi :   5.1502     XC(G=0): -11.5504     alpha+bet :-13.0637

 spin component 1

 k-point     1 :       0.0000    0.0000    0.0000
  band No.  band energies     occupation
      1     -38.7489      1.00000
      2     -38.7214      1.00000
      3     -15.2222      1.00000
      4     -13.4332      1.00000
      5     -13.4322      1.00000
      6     -13.2678      1.00000
      7     -13.1902      1.00000
      8     -13.1850      1.00000
      9      -2.0233      1.00000
     10      -1.7118      1.00000
     11      -1.7104      1.00000
     12      -1.4821      1.00000
     13      -1.2048      1.00000
     14      -1.1499      1.00000
     15      -1.0132      1.00000
     16      -0.9647      1.00000
     17      -0.6829      1.00000
     18       0.0782      1.00000
     19       0.3264      1.00000
     20       0.3621      1.00000
     21       0.5315      1.00000
     22       0.8990      1.00000
     23       0.9903      1.00000
     24       2.3036      1.00000
     25       2.3762      1.00000
     26       2.5200      1.00000
     27       2.6977      1.00000
     28       2.7850      1.00000
     29       2.9120      1.00000
     30       2.9331      1.00000
     31       3.3838      1.00000
     32       3.4097      1.00000
     33       3.4186      1.00000
     34       3.4325      1.00000
     35       3.5577      1.00000
     36       4.8358      1.00000
     37       5.0450      0.99853
     38       5.2423      0.00459
     39       5.4817      0.00000
     40       5.9158      0.00000
     41       5.9704      0.00000
     42      10.5015      0.00000
     43      13.2577      0.00000
     44      15.0400      0.00000
     45      15.1580      0.00000
     46      15.9649      0.00000
     47      16.2549      0.00000
     48      17.0971      0.00000

[...]

 spin component 2

[...]

 k-point   124 :       0.4286    0.5000    0.5000
  band No.  band energies     occupation
      1     -38.7253      1.00000
      2     -38.7174      1.00000
      3     -14.2665      1.00000
      4     -14.0482      1.00000
      5     -13.4431      1.00000
      6     -13.3080      1.00000
      7     -13.0042      1.00000
      8     -12.9786      1.00000
      9      -2.4025      1.00000
     10      -1.5286      1.00000
     11      -1.2974      1.00000
     12      -1.2044      1.00000
     13      -0.8780      1.00000
     14      -0.7778      1.00000
     15      -0.4058      1.00000
     16      -0.2541      1.00000
     17       0.0739      1.00000
     18       0.1642      1.00000
     19       0.3935      1.00000
     20       0.7287      1.00000
     21       0.9049      1.00000
     22       1.0569      1.00000
     23       1.3910      1.00000
     24       1.8661      1.00000
     25       2.3841      1.00000
     26       2.6531      1.00000
     27       2.9644      1.00000
     28       3.0590      1.00000
     29       3.1298      1.00000
     30       3.3008      1.00000
     31       3.6406      1.00000
     32       3.6891      1.00000
     33       3.7986      1.00000
     34       3.9602      1.00000
     35       4.0641      1.00000
     36       5.4295      0.00000
     37       5.5394      0.00000
     38       5.8998      0.00000
     39       5.9713      0.00000
     40       6.1358      0.00000
     41       6.3522      0.00000
     42      12.8591      0.00000
     43      13.4321      0.00000
     44      14.1052      0.00000
     45      15.1008      0.00000
     46      15.7148      0.00000
     47      16.2021      0.00000
     48      17.3803      0.00000

 soft charge-density along one line, spin component           1
         0         1         2         3         4         5         6         7         8         9
 total charge-density along one line

 soft charge-density along one line, spin component           2
         0         1         2         3         4         5         6         7         8         9
 total charge-density along one line

------------------------ aborting loop because EDIFF is reached ----------------------------------------

  FORCE on cell =-STRESS in cart. coord.  units (eV):
  Direction    XX          YY          ZZ          XY          YZ          ZX
  Alpha Z   224.79397   224.79397   224.79397
  Ewald    -787.40974  -816.55897 -2748.73471     0.00001     0.00002    -0.49191
  Hartree  1146.38706  1127.88747  -324.27702    -0.00000     0.00001     0.34561
  E(xc)    -365.36531  -365.36403  -365.59916     0.00002     0.00000     0.00123
  Local   -1718.06612 -1671.99086  1684.38481     0.00014    -0.00002    -0.52627
  n-local  -180.96178  -181.42255  -187.68793    -0.03664     0.08380    -0.29129
  augment   597.50031   598.47811   606.67491    -0.00004     0.00001     0.42586
  Kinetic  1083.20486  1084.20322  1110.56839    -0.00495    -0.34586     0.52527
  Fock        0.00000     0.00000     0.00000     0.00000     0.00000     0.00000
  Total        0.0832493      0.0263678      0.1232628     -0.0000000      0.0000000     -0.0115051
  in kB        1.3551320      0.4292153      2.0064729     -0.0000000      0.0000000     -0.1872803

 VOLUME and BASIS-vectors are now :
  energy-cutoff  :      500.00
  volume of cell :       98.43
      direct lattice vectors                 reciprocal lattice vectors
     4.887742120  0.000000000  0.000000000     0.204593445 -0.117373415  0.070556282
     2.443871020  4.259908350  0.000000000     0.000000000  0.234746834  0.000000000
    -1.630214500  0.000000000  4.727165200     0.000000000  0.000000000  0.211543273

  length of vectors
     4.887742120  4.911142913  5.000369001     0.246197452  0.234746834  0.211543273

 FORCES acting on ions
    electron-ion (+dipol)            ewald-force                    non-local-force                 convergence-correction
   0.141E-05 0.790E+01 -.655E-06   -.147E-05 -.734E+01 -.147E-05   0.514E-08 -.548E+00 0.000E+00   -.253E-06 0.128E-02 -.437E-08
   0.834E-05 -.790E+01 0.111E-05   0.175E-06 0.734E+01 0.254E-05   -.514E-08 0.548E+00 0.000E+00   0.257E-06 -.128E-02 0.248E-08
   -.146E-04 0.511E+02 -.324E-05   0.190E-04 -.506E+02 0.223E-05   0.432E-08 -.460E+00 0.000E+00   -.555E-07 0.657E-02 -.164E-06
   0.296E-05 -.511E+02 0.805E-06   -.974E-05 0.506E+02 0.911E-05   -.432E-08 0.460E+00 0.000E+00   0.601E-07 -.657E-02 0.152E-06
   0.118E-04 0.869E-06 -.202E-05   -.735E-05 -.174E-04 -.757E-05   -.529E-22 0.000E+00 0.000E+00   -.470E-08 0.304E-07 0.119E-07
   0.145E+02 0.438E+02 0.305E+03   -.156E+02 -.475E+02 -.320E+03   0.111E+01 0.372E+01 0.151E+02   -.531E-03 -.956E-04 -.226E-02
   0.145E+02 -.438E+02 0.305E+03   -.156E+02 0.475E+02 -.320E+03   0.111E+01 -.372E+01 0.151E+02   -.531E-03 0.956E-04 -.226E-02
   -.314E+02 -.131E-04 0.303E+03   0.342E+02 -.156E-04 -.321E+03   -.285E+01 0.000E+00 0.181E+02   0.671E-03 0.708E-07 -.331E-02
   -.145E+02 0.438E+02 -.305E+03   0.156E+02 -.475E+02 0.320E+03   -.111E+01 0.372E+01 -.151E+02   0.531E-03 -.956E-04 0.226E-02
   -.145E+02 -.438E+02 -.305E+03   0.156E+02 0.475E+02 0.320E+03   -.111E+01 -.372E+01 -.151E+02   0.531E-03 0.956E-04 0.226E-02
   0.314E+02 -.206E-04 -.303E+03   -.342E+02 -.347E-05 0.321E+03   0.285E+01 0.000E+00 -.181E+02   -.671E-03 -.326E-07 0.331E-02
   0.935E-05 -.491E-04 -.405E-06   0.000E+00 -.142E-13 -.568E-13   0.888E-15 0.888E-15 -.355E-14   0.688E-08 -.134E-07 -.272E-08

 POSITION                                       TOTAL-FORCE (eV/Angst)
      4.88774      0.01549      0.00000        -0.000000      0.009991      0.000000
      2.44387      1.40448      0.00000         0.000000     -0.009991      0.000000
      4.07263      4.23920      2.36358        -0.000000      0.009731      0.000000
      4.07263      1.44068      2.36358         0.000000     -0.009731      0.000000
      1.62876      2.83994      2.36358         0.000000      0.000000      0.000000
      3.28241      0.08679      1.35656         0.006357      0.003005     -0.003858
      0.83854      1.33318      1.35656         0.006357     -0.003005     -0.003858
      3.20957      2.83994      1.39700        -0.001511      0.000000     -0.007389
     -0.02488      0.08679      3.37060        -0.006357      0.003005      0.003858
      2.41899      1.33318      3.37060        -0.006357     -0.003005      0.003858
      4.93570      2.83994      3.33016         0.001511      0.000000      0.007389
    total drift:                                0.000009     -0.000049     -0.000000

  FREE ENERGIE OF THE ION-ELECTRON SYSTEM (eV)
  free  energy   TOTEN  =       -66.6022357121 eV

  energy  without entropy=      -66.5978216027  energy(sigma->0) =      -66.60002866

volume of typ            1:    15.8 %

[...]

volume of typ            3:     9.9 %

total charge

# of ion       s       p       d       tot
    1        2.079   0.254   0.097   2.430
    2        2.079   0.254   0.097   2.430
    3        0.281   0.375   7.839   8.494
    4        0.281   0.375   7.839   8.494
    5        0.266   0.344   7.853   8.464
    6        1.266   2.772   0.006   4.044
    7        1.266   2.773   0.006   4.044
    8        1.261   2.785   0.007   4.053
    9        1.266   2.773   0.006   4.044
   10        1.266   2.772   0.006   4.044
   11        1.261   2.785   0.007   4.053
tot          12.57   18.26   23.76   54.59

magnetization (x)

# of ion       s       p       d       tot
    1        0.005   0.012   0.001   0.019
    2        0.005   0.012   0.001   0.019
    3       -0.001  -0.000   0.355   0.355
    4       -0.001  -0.000   0.355   0.355
    5       -0.000  -0.000   0.709   0.708
    6        0.011   0.089   0.000   0.100
    7        0.010   0.090   0.000   0.100
    8        0.004  -0.000   0.000   0.004
    9        0.010   0.090   0.000   0.100
   10        0.011   0.089   0.000   0.100
   11        0.004  -0.000   0.000   0.004
tot           0.06    0.38    1.42    1.86