 vasp.5.4.4.18Apr17-6-g9f103f2a35 (build May 12 2020 04:58:55) complex

 MD_VERSION_INFO: Compiled 2020-05-12T11:58:55-UTC in devlin.sd.materialsdesign.
 com:/home/medea2/data/build/wwolf/vasp-gpu5.4.4/13047/x86_64/src/src/build/std
 from svn 13047

 executed on                        Lin64 date 2023.03.16  12:05:59

 INCAR:
 POTCAR:    PAW_PBE Li_sv 10Sep2004
 POTCAR:    PAW_PBE Ni 02Aug2007
 POTCAR:    PAW_PBE O 08Apr2002

 POTCAR:    PAW_PBE Li_sv 10Sep2004

 POTCAR:    PAW_PBE Ni 02Aug2007

 POTCAR:    PAW_PBE O 08Apr2002

 Optimization of the real space projectors (new method)

 maximal supplied QI-value         = 22.11
 optimisation between [QCUT,QGAM] = [ 11.28, 22.77] = [ 35.61,145.23] Ry
 Optimized for a Real-space Cutoff    1.10 Angstroem

   l    n(q)    QCUT    max X(q) W(low)/X(q) W(high)/X(q)  e(spline)
   0      7    11.276    10.506    0.54E-04    0.58E-04    0.16E-07
   0      7    11.276     8.367    0.11E-03    0.14E-03    0.35E-07
   1      7    11.276     8.983    0.23E-03    0.43E-03    0.86E-07
 Optimization of the real space projectors (new method)

[...]

   l    n(q)    QCUT    max X(q) W(low)/X(q) W(high)/X(q)  e(spline)
   2      9    11.376    60.317    0.17E-03    0.16E-04    0.16E-06
   2      9    11.376    55.921    0.17E-03    0.16E-04    0.17E-06
   0     10    11.376    51.690    0.45E-04    0.60E-04    0.21E-06
   0     10    11.376    30.015    0.37E-04    0.55E-04    0.19E-06
   1     10    11.376    18.849    0.83E-04    0.11E-03    0.92E-07
   1     10    11.376    14.624    0.69E-04    0.92E-04    0.82E-07
 Optimization of the real space projectors (new method)

 maximal supplied QI-value         = 24.76
 optimisation between [QCUT,QGAM] = [ 11.39, 22.77] = [ 36.31,145.25] Ry
 Optimized for a Real-space Cutoff    1.10 Angstroem

   l    n(q)    QCUT    max X(q) W(low)/X(q) W(high)/X(q)  e(spline)
   0      7    11.387    20.381    0.22E-03    0.48E-03    0.18E-06
   0      7    11.387    15.268    0.22E-03    0.52E-03    0.19E-06
   1      7    11.387     5.964    0.22E-03    0.73E-03    0.24E-06
   1      7    11.387     5.382    0.19E-03    0.60E-03    0.21E-06

  PAW_PBE Li_sv 10Sep2004               :
  PAW_PBE Ni 02Aug2007                  :
  PAW_PBE O 08Apr2002                   :

 POSCAR: ce27_1
  positions in direct lattice
 exchange correlation table for  LEXCH =       14
   RHO(1)=    0.500       N(1)  =     2000
   RHO(2)=  100.500       N(2)  =     4000

 ion  position               nearest neighbor table
   1  0.002  0.999  0.963-   8 2.02  13 2.03   9 2.06  14 2.16  11 2.28   4 2.80   5 2.80
   2  0.498  0.001  0.287-  12 2.02   7 2.03  11 2.06  10 2.16   9 2.28   4 2.80   3 2.80
   3  0.247  0.502  0.375-  12 1.86   9 1.86   7 1.88  11 1.90  13 1.90  10 1.90   5 2.80   2 2.80
                             6 2.80   4 2.81   5 2.81   6 2.83   4 2.84
   4  0.750  0.500  0.625-   7 1.88  13 1.88  10 1.92  14 1.92   8 1.94  12 1.94   1 2.80   2 2.80
                             6 2.80   6 2.80   3 2.81   5 2.81   5 2.84   3 2.84
   5  0.253  0.498  0.875-   8 1.86  11 1.86  13 1.88   9 1.90   7 1.90  14 1.90   3 2.80   1 2.80
                             6 2.80   4 2.81   3 2.81   6 2.83   4 2.84
   6  0.750  0.500  0.125-  10 1.86  14 1.86  12 1.87   8 1.87   9 2.01  11 2.01   4 2.80   4 2.80
                             5 2.80   3 2.80   5 2.83   3 2.83
   7  0.384  0.302  0.570-   4 1.88   3 1.88   5 1.90   2 2.03
   8  0.891  0.301  0.833-   5 1.86   6 1.87   4 1.94   1 2.02
   9  0.359  0.286  0.078-   3 1.86   5 1.90   6 2.01   1 2.06   2 2.28
  10  0.878  0.297  0.317-   6 1.86   3 1.90   4 1.92   2 2.16
  11  0.141  0.714  0.172-   5 1.86   3 1.90   6 2.01   2 2.06   1 2.28
  12  0.609  0.699  0.417-   3 1.86   6 1.87   4 1.94   2 2.02
  13  0.116  0.698  0.680-   4 1.88   5 1.88   3 1.90   1 2.03
  14  0.622  0.703  0.933-   6 1.86   5 1.90   4 1.92   1 2.16

  LATTYP: Found a triclinic cell.
 ALAT       =     6.4365379213
 B/A-ratio  =     0.7609488020
 C/A-ratio  =     0.8709341799
 COS(alpha) =     0.0000584323
 COS(beta)  =     0.2195711938
 COS(gamma) =     0.6268581354

  Lattice vectors:

 A1 = (   4.0347961600,   5.0149217700,   0.0000000000)
 A2 = (   4.8978758200,   0.0000000000,   0.0000000000)
 A3 = (   0.0003275600,   1.5795331500,  -5.3786688300)

Analysis of symmetry for initial positions (statically):
 Subroutine PRICEL returns:
 Original cell was already a primitive cell.

 Routine SETGRP: Setting up the symmetry group for a
 triclinic supercell.

 Subroutine GETGRP returns: Found  2 space group operations
 (whereof  1 operations were pure point group operations)
 out of a pool of  2 trial point group operations.

The static configuration has the point symmetry C_1 .
 The point group associated with its full space group is S_2 .

Analysis of symmetry for dynamics (positions and initial velocities):
 Subroutine PRICEL returns:
 Original cell was already a primitive cell.

[...]

The dynamic configuration has the point symmetry C_1 .
 The point group associated with its full space group is S_2 .

Analysis of structural, dynamic, and magnetic symmetry:
 Subroutine PRICEL returns:
 Original cell was already a primitive cell.

 Routine SETGRP: Setting up the symmetry group for a
 triclinic supercell.

 Subroutine GETGRP returns: Found  2 space group operations
 (whereof  1 operations were pure point group operations)
 out of a pool of  2 trial point group operations.

The magnetic configuration has the point symmetry C_1 .
 The point group associated with its full space group is S_2 .

 Subroutine INISYM returns: Found  2 space group operations
 (whereof  1 operations are pure point group operations),
 and found     1 'primitive' translations

 KPOINTS: Automatic mesh

Automatic generation of k-mesh.
Space group operators:
 irot       det(A)        alpha          n_x          n_y          n_z        tau_x        tau_y        tau_z
    1     1.000000     0.000001     1.000000     0.000000     0.000000     0.000000     0.000000     0.000000
    2    -1.000000     0.000001     1.000000     0.000000     0.000000     0.500000    -0.000000    -0.750000

 Subroutine IBZKPT returns following result:

 Found     92 irreducible k-points:

 Following reciprocal coordinates:
            Coordinates               Weight
  0.000000  0.000000  0.000000      1.000000
  0.166667 -0.000000  0.000000      2.000000
  0.333333  0.000000  0.000000      2.000000
  0.500000  0.000000 -0.000000      1.000000
  0.000000  0.166667  0.000000      2.000000
  0.166667  0.166667  0.000000      2.000000
  0.333333  0.166667  0.000000      2.000000
  0.500000  0.166667 -0.000000      2.000000
 -0.333333  0.166667  0.000000      2.000000
 -0.166667  0.166667 -0.000000      2.000000
  0.000000  0.333333  0.000000      2.000000
  0.166667  0.333333  0.000000      2.000000
  0.333333  0.333333  0.000000      2.000000
  0.500000  0.333333  0.000000      2.000000
 -0.333333  0.333333 -0.000000      2.000000
 -0.166667  0.333333 -0.000000      2.000000
  0.000000  0.500000 -0.000000      1.000000
  0.166667  0.500000 -0.000000      2.000000
  0.333333  0.500000 -0.000000      2.000000
  0.500000  0.500000 -0.000000      1.000000
  0.000000  0.000000  0.200000      2.000000
  0.166667 -0.000000  0.200000      2.000000
  0.333333  0.000000  0.200000      2.000000
  0.500000  0.000000  0.200000      2.000000
 -0.333333  0.000000  0.200000      2.000000
 -0.166667  0.000000  0.200000      2.000000
  0.000000  0.166667  0.200000      2.000000
  0.166667  0.166667  0.200000      2.000000
  0.333333  0.166667  0.200000      2.000000
  0.500000  0.166667  0.200000      2.000000
 -0.333333  0.166667  0.200000      2.000000
 -0.166667  0.166667  0.200000      2.000000
  0.000000  0.333333  0.200000      2.000000
  0.166667  0.333333  0.200000      2.000000
  0.333333  0.333333  0.200000      2.000000
  0.500000  0.333333  0.200000      2.000000
 -0.333333  0.333333  0.200000      2.000000
 -0.166667  0.333333  0.200000      2.000000
  0.000000  0.500000  0.200000      2.000000
  0.166667  0.500000  0.200000      2.000000
  0.333333  0.500000  0.200000      2.000000
  0.500000  0.500000  0.200000      2.000000
 -0.333333  0.500000  0.200000      2.000000
 -0.166667  0.500000  0.200000      2.000000
  0.000000 -0.333333  0.200000      2.000000
  0.166667 -0.333333  0.200000      2.000000
  0.333333 -0.333333  0.200000      2.000000
  0.500000 -0.333333  0.200000      2.000000
 -0.333333 -0.333333  0.200000      2.000000
 -0.166667 -0.333333  0.200000      2.000000
  0.000000 -0.166667  0.200000      2.000000
  0.166667 -0.166667  0.200000      2.000000
  0.333333 -0.166667  0.200000      2.000000
  0.500000 -0.166667  0.200000      2.000000
 -0.333333 -0.166667  0.200000      2.000000
 -0.166667 -0.166667  0.200000      2.000000
  0.000000  0.000000  0.400000      2.000000
  0.166667 -0.000000  0.400000      2.000000
  0.333333  0.000000  0.400000      2.000000
  0.500000  0.000000  0.400000      2.000000
[...]
  0.500000  0.500000  0.400000      2.000000
 -0.333333  0.500000  0.400000      2.000000
 -0.166667  0.500000  0.400000      2.000000
  0.000000 -0.333333  0.400000      2.000000
  0.166667 -0.333333  0.400000      2.000000
  0.333333 -0.333333  0.400000      2.000000
  0.500000 -0.333333  0.400000      2.000000
 -0.333333 -0.333333  0.400000      2.000000
 -0.166667 -0.333333  0.400000      2.000000
  0.000000 -0.166667  0.400000      2.000000
  0.166667 -0.166667  0.400000      2.000000
  0.333333 -0.166667  0.400000      2.000000
  0.500000 -0.166667  0.400000      2.000000
 -0.333333 -0.166667  0.400000      2.000000
 -0.166667 -0.166667  0.400000      2.000000

 Following cartesian coordinates:
            Coordinates               Weight
  0.000000  0.000000  0.000000      1.000000
  0.034028  0.005856  0.001722      2.000000
  0.068057  0.011713  0.003444      2.000000
  0.102085  0.017569  0.005166      1.000000
  0.000000  0.033234  0.009760      2.000000
  0.034028  0.039091  0.011482      2.000000
  0.068057  0.044947  0.013204      2.000000
  0.102085  0.050803  0.014925      2.000000
 -0.068057  0.021521  0.006316      2.000000
 -0.034028  0.027378  0.008038      2.000000
  0.000000  0.066468  0.019519      2.000000
  0.034028  0.072325  0.021241      2.000000
  0.068057  0.078181  0.022963      2.000000
  0.102085  0.084037  0.024685      2.000000
 -0.068057  0.054756  0.016076      2.000000
 -0.034028  0.060612  0.017798      2.000000
  0.000000  0.099702  0.029279      1.000000
  0.034028  0.105559  0.031001      2.000000
  0.068057  0.111415  0.032723      2.000000
  0.102085  0.117272  0.034445      1.000000
  0.000000  0.000000  0.037184      2.000000
  0.034028  0.005856  0.038906      2.000000
  0.068057  0.011713  0.040628      2.000000
  0.102085  0.017569  0.042350      2.000000
 -0.068057 -0.011713  0.033740      2.000000
 -0.034028 -0.005856  0.035462      2.000000
  0.000000  0.033234  0.046944      2.000000
  0.034028  0.039091  0.048666      2.000000
  0.068057  0.044947  0.050387      2.000000
  0.102085  0.050803  0.052109      2.000000
 -0.068057  0.021521  0.043500      2.000000
 -0.034028  0.027378  0.045222      2.000000
[...]
 k-point 92 :  -0.1667-0.1667 0.4000  plane waves:    3345

 maximum and minimum number of plane-waves per node :      3376     3338

 maximum number of plane-waves:      3376
 maximum index in each direction:
   IXMAX=    9   IYMAX=    9   IZMAX=   10
   IXMIN=   -9   IYMIN=   -9   IZMIN=  -10

 The following grids will avoid any aliasing or wrap around errors in the Hartre
 e energy
  - symmetry arguments have not been applied
  - exchange correlation energies might require even more grid points
  - we recommend to set PREC=Normal or Accurate and rely on VASP defaults
 WARNING: aliasing errors must be expected set NGX to    40 to avoid them
 NGY is ok and might be reduce to    40
 NGZ is ok and might be reduce to    42

 serial   3D FFT for wavefunctions
 parallel 3D FFT for charge:
    minimum data exchange during FFTs selected (reduces bandwidth)

 Broyden mixing: mesh for mixing (old mesh)
   NGX = 17   NGY = 19   NGZ = 21
  (NGX  = 72   NGY  = 80   NGZ  = 84)
  gives a total of   6783 points

 initial charge density was supplied:
 charge density of overlapping atoms calculated
 number of electron      94.0000000 magnetization      10.0000000
 keeping initial charge density in first step

 Maximum index for non-local projection operator         5952
 Maximum index for augmentation-charges         1004 (set IRDMAX)

 First call to EWALD:  gamma=   0.348
 Maximum number of real-space cells 3x 3x 3
 Maximum number of reciprocal cells 3x 3x 3

--------------------------------------- Iteration      1(   1)  ---------------------------------------

 eigenvalue-minimisations  : 23552
 total energy-change (2. order) : 0.9215091E+03  (-0.4427681E+04)
 number of electron      94.0000000 magnetization      10.0000000
 augmentation part       94.0000000 magnetization      10.0000000

 Free energy of the ion-electron system (eV)
  alpha Z        PSCENC =       287.88896670
  Ewald energy   TEWEN  =     -5447.64208145
  -Hartree energ DENC   =     -2879.56820278
  -exchange      EXHF   =         0.00000000
  -V(xc)+E(xc)   XCENC  =       382.15002514
  PAW double counting   =      6775.46300624    -7084.83456608
  entropy T*S    EENTRO =        -0.00282924
  eigenvalues    EBANDS =       732.60200546
  atomic energy  EATOM  =      8155.45276952
  Solvation  Ediel_sol  =         0.00000000
  free energy    TOTEN  =       921.50909350 eV

  energy without entropy =      921.51192274  energy(sigma->0) =      921.51050812

[...]

 eigenvalue-minimisations  : 26000
 total energy-change (2. order) :-0.9219875E+03  (-0.8263961E+03)
 number of electron      94.0000000 magnetization      10.0000000
 augmentation part       94.0000000 magnetization      10.0000000

[...]

 Broyden mixing:
  rms(total) = 0.59134E+01    rms(broyden)= 0.59129E+01
  rms(prec ) = 0.92190E+01
  weight for this iteration     100.00

[...]

 eigenvalues of (default mixing * dielectric matrix)
  average eigenvalue GAMMA=   0.2633
  0.2633

[...]

 eigenvalue-minimisations  : 38208
 total energy-change (2. order) : 0.3815366E-02  (-0.3388556E-02)
 number of electron      93.9999971 magnetization       1.7458141
 augmentation part       31.1049250 magnetization       1.1952857

[...]

 Broyden mixing:
  rms(total) = 0.16938E-02    rms(broyden)= 0.16920E-02
  rms(prec ) = 0.19909E-02
  weight for this iteration     100.00

 eigenvalues of (default mixing * dielectric matrix)
  average eigenvalue GAMMA=   1.0148
  2.7512  2.3482  2.3482  1.1386  1.1386  1.0270  1.0270  0.1766  0.1505  0.7104
  0.7104  0.6128  0.6128  0.4810  0.4810  0.5228

[...]

--------------------------------------- Iteration      1(  22)  ---------------------------------------

 eigenvalue-minimisations  : 20272
 total energy-change (2. order) :-0.1300292E-05  (-0.4160012E-06)
 number of electron      93.9999971 magnetization       1.9353820
 augmentation part       31.1049567 magnetization       1.3327179

 Free energy of the ion-electron system (eV)
  alpha Z        PSCENC =       287.88896670
  Ewald energy   TEWEN  =     -5447.64208145
  -Hartree energ DENC   =     -2806.04232877
  -exchange      EXHF   =         0.00000000
  -V(xc)+E(xc)   XCENC  =       379.20879709
  PAW double counting   =      8946.83208287    -9271.00929857
  entropy T*S    EENTRO =        -0.00963440
  eigenvalues    EBANDS =      -330.13708094
  atomic energy  EATOM  =      8155.45276952
  Solvation  Ediel_sol  =         0.00000000
  free energy    TOTEN  =       -85.45780795 eV

  energy without entropy =      -85.44817355  energy(sigma->0) =      -85.45299075

 average (electrostatic) potential at core
  the test charge radii are     0.7079  0.9791  0.7215
  (the norm of the test charge is              1.0000)
       1 -58.5407       2 -58.5407       3 -88.1510       4 -87.8130       5 -88.1510
       6 -87.6496       7 -71.3190       8 -71.1991       9 -71.1133      10 -71.2394
      11 -71.1133      12 -71.1991      13 -71.3190      14 -71.2394

 E-fermi :   4.6942     XC(G=0): -11.2779     alpha+bet :-12.2220

 spin component 1

 k-point     1 :       0.0000    0.0000    0.0000
  band No.  band energies     occupation
      1     -39.2291      1.00000
      2     -39.2207      1.00000
      3     -15.8029      1.00000
      4     -14.1778      1.00000
      5     -14.1751      1.00000
      6     -13.9778      1.00000
      7     -13.9746      1.00000
      8     -13.7378      1.00000
      9     -13.7221      1.00000
     10     -13.6935      1.00000
     11      -3.0462      1.00000
     12      -2.4499      1.00000
     13      -2.2150      1.00000
     14      -2.1392      1.00000
     15      -2.0583      1.00000
     16      -1.8827      1.00000
     17      -1.6781      1.00000
     18      -1.5773      1.00000
     19      -1.2822      1.00000
     20      -1.1546      1.00000
     21      -1.0483      1.00000
     22      -0.7111      1.00000
     23      -0.6745      1.00000
     24      -0.5077      1.00000
     25      -0.5053      1.00000
     26      -0.1668      1.00000
     27      -0.0636      1.00000
     28       0.9584      1.00000
     29       1.0240      1.00000
     30       1.1499      1.00000
     31       1.2782      1.00000
     32       1.7227      1.00000
     33       1.7738      1.00000
     34       2.0175      1.00000
     35       2.1901      1.00000
     36       2.2151      1.00000
     37       2.2834      1.00000
     38       2.3320      1.00000
     39       2.4050      1.00000
     40       2.4498      1.00000
     41       2.5568      1.00000
     42       2.5877      1.00000
     43       2.7090      1.00000
     44       3.0969      1.00000
     45       3.1228      1.00000
     46       3.2294      1.00000
     47       4.4379      1.00000
     48       4.7755      0.01069
     49       4.8324      0.00005
     50       4.8550      0.00000
     51       4.9359      0.00000
     52       5.4909      0.00000
     53       5.5405      0.00000
     54       5.6662      0.00000
     55      10.1798      0.00000
     56      13.2108      0.00000
     57      13.8331      0.00000
     58      14.3704      0.00000
     59      14.6047      0.00000
     60      15.8072      0.00000
     61      16.1522      0.00000
     62      16.4729      0.00000
     63      16.5488      0.00000
     64      16.6285      0.00000

[...]

 spin component 2

[...]

 k-point    92 :      -0.1667   -0.1667    0.4000
  band No.  band energies     occupation
      1     -39.2175      1.00000
      2     -39.2105      1.00000
      3     -15.2558      1.00000
      4     -14.8246      1.00000
      5     -14.0426      1.00000
      6     -13.9020      1.00000
      7     -13.6986      1.00000
      8     -13.6104      1.00000
      9     -13.6077      1.00000
     10     -13.4931      1.00000
     11      -2.3858      1.00000
     12      -2.0692      1.00000
     13      -2.0267      1.00000
     14      -1.9091      1.00000
     15      -1.7431      1.00000
     16      -1.6729      1.00000
     17      -1.6176      1.00000
     18      -1.3237      1.00000
     19      -1.2809      1.00000
     20      -1.0632      1.00000
     21      -0.9260      1.00000
     22      -0.6329      1.00000
     23      -0.3854      1.00000
     24      -0.2549      1.00000
     25      -0.0380      1.00000
     26       0.0777      1.00000
     27       0.1785      1.00000
     28       0.3740      1.00000
     29       0.6480      1.00000
     30       0.8640      1.00000
     31       1.1413      1.00000
     32       1.2167      1.00000
     33       2.1070      1.00000
     34       2.3463      1.00000
     35       2.4242      1.00000
     36       2.5011      1.00000
     37       2.6139      1.00000
     38       2.6880      1.00000
     39       2.8178      1.00000
     40       2.8762      1.00000
     41       3.1097      1.00000
     42       3.1263      1.00000
     43       3.3434      1.00000
     44       3.3714      1.00000
     45       3.3983      1.00000
     46       3.4871      1.00000
     47       4.8869      0.00000
     48       5.0005      0.00000
     49       5.0750      0.00000
     50       5.2079      0.00000
     51       5.3449      0.00000
     52       5.4700      0.00000
     53       5.6369      0.00000
     54       5.7533      0.00000
     55      11.5783      0.00000
     56      12.7564      0.00000
     57      14.4121      0.00000
     58      14.7119      0.00000
     59      15.0758      0.00000
     60      15.2846      0.00000
     61      16.0674      0.00000
     62      16.7823      0.00000
     63      17.0090      0.00000
     64      17.1840      0.00000

 soft charge-density along one line, spin component           1
         0         1         2         3         4         5         6         7         8         9
 total charge-density along one line

 soft charge-density along one line, spin component           2
         0         1         2         3         4         5         6         7         8         9
 total charge-density along one line

------------------------ aborting loop because EDIFF is reached ----------------------------------------

  FORCE on cell =-STRESS in cart. coord.  units (eV):
  Direction    XX          YY          ZZ          XY          YZ          ZX
  Alpha Z   287.88897   287.88897   287.88897
  Ewald    -750.02693 -3700.87147  -996.75600   -26.93296  -867.04237    -9.96323
  Hartree  1744.27292  -483.46505  1545.25474   -11.34422  -653.70993    -2.91005
  E(xc)    -477.57649  -477.97868  -477.66661     0.00505    -0.10406     0.00677
  Local   -2778.87194  2362.01081 -2331.91710    34.87676  1509.11758    11.00720
  n-local  -227.82305  -235.36904  -227.27485    -0.53472    -2.46588    -0.41382
  augment   784.94907   796.05374   783.67699     1.83965     3.53452     0.94453
  Kinetic  1417.18899  1451.90568  1416.81741     2.07539    10.74394     1.32305
  Fock        0.00000     0.00000     0.00000     0.00000     0.00000     0.00000
  Total        0.0015447      0.1749695      0.0235262     -0.0150505      0.0738055     -0.0055399
  in kB        0.0187329      2.1219061      0.2853086     -0.1825220      0.8950604     -0.0671843

 VOLUME and BASIS-vectors are now :
  energy-cutoff  :      500.00
  volume of cell :      132.11
      direct lattice vectors                 reciprocal lattice vectors
     4.897875820  0.000000000  0.000000000     0.204170142  0.035138155  0.010331322
    -0.863079660  5.014921770  0.000000000     0.000000000  0.199404905  0.058558478
    -0.000327560 -1.579533150  5.378668830     0.000000000  0.000000000  0.185919608

  length of vectors
     4.897875820  5.088648824  5.605800876     0.207429200  0.207825435  0.185919608

 FORCES acting on ions
    electron-ion (+dipol)            ewald-force                    non-local-force                 convergence-correction
   0.697E+01 0.510E+01 0.521E+01   -.659E+01 -.440E+01 -.581E+01   -.388E+00 -.691E+00 0.590E+00   0.473E-03 0.268E-03 -.945E-04
   -.697E+01 -.510E+01 -.521E+01   0.659E+01 0.440E+01 0.581E+01   0.388E+00 0.691E+00 -.590E+00   -.473E-03 -.268E-03 0.945E-04
   0.293E+02 -.134E+02 -.516E+02   -.294E+02 0.135E+02 0.519E+02   0.528E-01 -.851E-01 -.300E+00   0.229E-02 0.133E-02 -.148E-02
   -.528E-11 -.931E-11 0.694E-12   0.995E-13 -.142E-13 0.284E-13   -.239E-19 0.000E+00 0.000E+00   -.652E-13 0.707E-14 0.617E-13
   -.293E+02 0.134E+02 0.516E+02   0.294E+02 -.135E+02 -.519E+02   -.528E-01 0.851E-01 0.300E+00   -.229E-02 -.133E-02 0.148E-02
   -.776E-11 0.815E-13 0.371E-11   -.142E-13 0.114E-12 0.995E-13   -.457E-20 0.000E+00 0.000E+00   -.131E-12 -.935E-14 -.243E-13
   0.880E+01 0.336E+03 0.659E+02   -.106E+02 -.355E+03 -.695E+02   0.175E+01 0.199E+02 0.363E+01   -.461E-03 -.163E-02 -.511E-03
   0.271E+02 0.324E+03 0.139E+03   -.295E+02 -.342E+03 -.148E+03   0.235E+01 0.177E+02 0.868E+01   0.112E-02 -.232E-02 -.107E-02
   -.390E+02 0.316E+03 0.119E+03   0.436E+02 -.332E+03 -.125E+03   -.461E+01 0.162E+02 0.618E+01   -.502E-03 -.904E-03 -.232E-03
   -.892E+01 0.325E+03 0.594E+02   0.108E+02 -.343E+03 -.627E+02   -.185E+01 0.185E+02 0.327E+01   0.810E-03 -.230E-02 0.103E-03
   0.390E+02 -.316E+03 -.119E+03   -.436E+02 0.332E+03 0.125E+03   0.461E+01 -.162E+02 -.618E+01   0.502E-03 0.904E-03 0.232E-03
   -.271E+02 -.324E+03 -.139E+03   0.295E+02 0.342E+03 0.148E+03   -.235E+01 -.177E+02 -.868E+01   -.112E-02 0.232E-02 0.107E-02
   -.880E+01 -.336E+03 -.659E+02   0.106E+02 0.355E+03 0.695E+02   -.175E+01 -.199E+02 -.363E+01   0.461E-03 0.163E-02 0.511E-03
   0.892E+01 -.325E+03 -.594E+02   -.108E+02 0.343E+03 0.627E+02   0.185E+01 -.185E+02 -.327E+01   -.810E-03 0.230E-02 -.103E-03
   0.323E-09 -.225E-10 0.885E-11   -.124E-13 0.568E-13 0.142E-13   -.222E-15 -.711E-14 0.133E-14   -.139E-12 0.785E-13 0.688E-13

 POSITION                                       TOTAL-FORCE (eV/Angst)
     -0.85481      3.48972      5.17908        -0.008475      0.002424     -0.009176
      2.44026     -0.44922      1.54425         0.008475     -0.002424      0.009176
      0.77536      1.92673      2.01618        -0.002235     -0.002230     -0.003257
      3.24166      1.52025      3.36167         0.000000      0.000000     -0.000000
      0.81009      1.11377      4.70716         0.002235      0.002230      0.003257
      3.24183      2.31002      0.67233         0.000000      0.000000     -0.000000
      1.62130      0.61528      3.06586        -0.000481      0.009992      0.007630
      4.10355      0.19381      4.48057        -0.004821      0.012019      0.007711
      1.51321      1.31007      0.41917        -0.001116      0.007704      0.001937
      4.04444      0.99069      1.70436        -0.001711      0.006448      0.002063
      0.07257      3.30997      0.92550         0.001116     -0.007704     -0.001937
      2.37977      2.84669      2.24277         0.004821     -0.012019     -0.007711
     -0.03585      2.42523      3.65748         0.000481     -0.009992     -0.007630
      2.43889      2.04981      5.01898         0.001711     -0.006448     -0.002063
    total drift:                                0.000000     -0.000000      0.000000

  FREE ENERGIE OF THE ION-ELECTRON SYSTEM (eV)
  free  energy   TOTEN  =       -85.4578079497 eV

  energy  without entropy=      -85.4481735451  energy(sigma->0) =      -85.45299075

volume of typ            1:    11.8 %

[...]

volume of typ            3:     9.9 %

total charge

# of ion       s       p       d       tot
    1        2.072   0.234   0.089   2.395
    2        2.072   0.234   0.089   2.395
    3        0.291   0.397   7.828   8.516
    4        0.277   0.363   7.839   8.479
    5        0.291   0.397   7.828   8.516
    6        0.281   0.373   7.851   8.505
    7        1.270   2.763   0.007   4.040
    8        1.271   2.762   0.007   4.040
    9        1.269   2.765   0.006   4.040
   10        1.265   2.774   0.007   4.046
   11        1.269   2.765   0.006   4.040
   12        1.271   2.762   0.007   4.040
   13        1.270   2.763   0.007   4.040
   14        1.265   2.774   0.007   4.046
tot          15.43   24.12   31.58   71.14

magnetization (x)

# of ion       s       p       d       tot
    1        0.004   0.009   0.001   0.014
    2        0.004   0.009   0.001   0.014
    3       -0.001  -0.000   0.160   0.159
    4       -0.000   0.000   0.447   0.447
    5       -0.001  -0.000   0.160   0.159
    6        0.002  -0.000   0.584   0.586
    7        0.004   0.017   0.000   0.021
    8        0.007   0.051   0.000   0.058
    9        0.008   0.085   0.000   0.094
   10        0.005   0.028   0.000   0.033
   11        0.008   0.085   0.000   0.094
   12        0.007   0.051   0.000   0.058
   13        0.004   0.017   0.000   0.021
   14        0.005   0.028   0.000   0.033
tot           0.06    0.38    1.36    1.79