 vasp.5.4.4.18Apr17-6-g9f103f2a35 (build May 12 2020 04:58:55) complex

 MD_VERSION_INFO: Compiled 2020-05-12T11:58:55-UTC in devlin.sd.materialsdesign.
 com:/home/medea2/data/build/wwolf/vasp-gpu5.4.4/13047/x86_64/src/src/build/std
 from svn 13047

 executed on                        Lin64 date 2023.03.16  11:02:38

 INCAR:
 POTCAR:    PAW_PBE Ni 02Aug2007
 POTCAR:    PAW_PBE O 08Apr2002

 POTCAR:    PAW_PBE Ni 02Aug2007

 POTCAR:    PAW_PBE O 08Apr2002

 Optimization of the real space projectors (new method)

 maximal supplied QI-value         = 16.25
 optimisation between [QCUT,QGAM] = [ 11.38, 22.75] = [ 36.24,144.96] Ry
 Optimized for a Real-space Cutoff    1.47 Angstroem

   l    n(q)    QCUT    max X(q) W(low)/X(q) W(high)/X(q)  e(spline)
   2      9    11.376    60.317    0.17E-03    0.16E-04    0.16E-06
   2      9    11.376    55.921    0.17E-03    0.16E-04    0.17E-06
   0     10    11.376    51.690    0.45E-04    0.60E-04    0.21E-06
   0     10    11.376    30.015    0.37E-04    0.55E-04    0.19E-06
   1     10    11.376    18.849    0.83E-04    0.11E-03    0.92E-07
   1     10    11.376    14.624    0.69E-04    0.92E-04    0.82E-07
 Optimization of the real space projectors (new method)

 maximal supplied QI-value         = 24.76
 optimisation between [QCUT,QGAM] = [ 11.39, 22.77] = [ 36.31,145.25] Ry
 Optimized for a Real-space Cutoff    1.10 Angstroem

   l    n(q)    QCUT    max X(q) W(low)/X(q) W(high)/X(q)  e(spline)
   0      7    11.387    20.381    0.22E-03    0.48E-03    0.18E-06
   0      7    11.387    15.268    0.22E-03    0.52E-03    0.19E-06
   1      7    11.387     5.964    0.22E-03    0.73E-03    0.24E-06
   1      7    11.387     5.382    0.19E-03    0.60E-03    0.21E-06

  PAW_PBE Ni 02Aug2007                  :
  PAW_PBE O 08Apr2002                   :

 POSCAR: ce2
  positions in direct lattice
 exchange correlation table for  LEXCH =       14
   RHO(1)=    0.500       N(1)  =     2000
   RHO(2)=  100.500       N(2)  =     4000

 ion  position               nearest neighbor table
   1  0.500  0.500  0.500-   2 1.86   3 1.86   2 1.86   3 1.86   2 1.86   3 1.86
   2  0.234  0.766  0.298-   1 1.86   1 1.86   1 1.86
   3  0.766  0.234  0.702-   1 1.86   1 1.86   1 1.86

  LATTYP: Found a trigonal (rhomboedric) cell.
 ALAT       =     4.8762206074
 COS(alpha) =     0.8361847493

  Lattice vectors:

 A1 = (  -1.3955503600,   0.8057213500,  -4.6022581100)
 A2 = (   1.3955503600,   0.8057213500,  -4.6022581100)
 A3 = (  -0.0000000000,  -1.6114427700,  -4.6022581100)

Analysis of symmetry for initial positions (statically):
 Subroutine PRICEL returns:
 Original cell was already a primitive cell.

 Routine SETGRP: Setting up the symmetry group for a
 trigonal (rhombohedral) supercell.

 Subroutine GETGRP returns: Found 12 space group operations
 (whereof 12 operations were pure point group operations)
 out of a pool of 12 trial point group operations.

The static configuration has the point symmetry D_3d.

Analysis of symmetry for dynamics (positions and initial velocities):
 Subroutine PRICEL returns:
 Original cell was already a primitive cell.

[...]

The dynamic configuration has the point symmetry D_3d.

Analysis of structural, dynamic, and magnetic symmetry:
 Subroutine PRICEL returns:
 Original cell was already a primitive cell.

 Routine SETGRP: Setting up the symmetry group for a
 trigonal (rhombohedral) supercell.

 Subroutine GETGRP returns: Found 12 space group operations
 (whereof 12 operations were pure point group operations)
 out of a pool of 12 trial point group operations.

The magnetic configuration has the point symmetry D_3d.

 Subroutine INISYM returns: Found 12 space group operations
 (whereof 12 operations are pure point group operations),
 and found     1 'primitive' translations

 KPOINTS: Automatic mesh

Automatic generation of k-mesh.
Space group operators:
 irot       det(A)        alpha          n_x          n_y          n_z        tau_x        tau_y        tau_z
    1     1.000000     0.000001     1.000000     0.000000     0.000000     0.000000     0.000000     0.000000
    2    -1.000000     0.000001     1.000000     0.000000     0.000000     0.000000     0.000000     0.000000
    3     1.000000   180.000000     0.500000     0.866025    -0.000000     0.000000     0.000000     0.000000
    4    -1.000000   180.000000     0.500000     0.866025    -0.000000     0.000000     0.000000     0.000000
    5     1.000000   120.000000     0.000000     0.000000     1.000000     0.000000     0.000000     0.000000
    6    -1.000000   120.000000     0.000000     0.000000     1.000000     0.000000     0.000000     0.000000
    7     1.000000   180.000000     1.000000     0.000000     0.000000     0.000000     0.000000     0.000000
    8    -1.000000   180.000000     1.000000     0.000000     0.000000     0.000000     0.000000     0.000000
    9     1.000000   120.000000     0.000000    -0.000000    -1.000000     0.000000     0.000000     0.000000
   10    -1.000000   120.000000     0.000000    -0.000000    -1.000000     0.000000     0.000000     0.000000
   11     1.000000   180.000000    -0.500000     0.866025    -0.000000     0.000000     0.000000     0.000000
   12    -1.000000   180.000000    -0.500000     0.866025    -0.000000     0.000000     0.000000     0.000000

 Subroutine IBZKPT returns following result:

 Found    204 irreducible k-points:

 Following reciprocal coordinates:
            Coordinates               Weight
  0.000000  0.000000  0.000000      1.000000
  0.090909  0.000000 -0.000000      4.000000
  0.181818  0.000000 -0.000000      4.000000
  0.272727  0.000000 -0.000000      4.000000
  0.363636  0.000000 -0.000000      4.000000
  0.454545  0.000000  0.000000      4.000000
  0.090909  0.090909  0.000000      2.000000
  0.181818  0.090909  0.000000      4.000000
  0.272727  0.090909  0.000000      4.000000
  0.363636  0.090909  0.000000      4.000000
  0.454545  0.090909 -0.000000      4.000000
 -0.454545  0.090909  0.000000      4.000000
 -0.363636  0.090909  0.000000      4.000000
 -0.272727  0.090909  0.000000      4.000000
 -0.181818  0.090909  0.000000      4.000000
 -0.090909  0.090909  0.000000      2.000000
  0.181818  0.181818  0.000000      2.000000
  0.272727  0.181818  0.000000      4.000000
  0.363636  0.181818  0.000000      4.000000
  0.454545  0.181818  0.000000      4.000000
 -0.454545  0.181818  0.000000      4.000000
 -0.363636  0.181818  0.000000      4.000000
 -0.272727  0.181818  0.000000      4.000000
 -0.181818  0.181818  0.000000      2.000000
  0.272727  0.272727  0.000000      2.000000
  0.363636  0.272727  0.000000      4.000000
  0.454545  0.272727 -0.000000      4.000000
 -0.454545  0.272727  0.000000      4.000000
 -0.363636  0.272727  0.000000      4.000000
 -0.272727  0.272727 -0.000000      2.000000
  0.363636  0.363636  0.000000      2.000000
  0.454545  0.363636 -0.000000      4.000000
 -0.454545  0.363636 -0.000000      4.000000
 -0.363636  0.363636  0.000000      2.000000
  0.454545  0.454545 -0.000000      2.000000
 -0.454545  0.454545 -0.000000      2.000000
  0.000000  0.000000  0.166667      2.000000
  0.090909  0.000000  0.166667      4.000000
  0.181818  0.000000  0.166667      4.000000
  0.272727  0.000000  0.166667      4.000000
  0.363636  0.000000  0.166667      4.000000
  0.454545  0.000000  0.166667      4.000000
 -0.454545 -0.000000  0.166667      4.000000
 -0.363636 -0.000000  0.166667      4.000000
 -0.272727  0.000000  0.166667      4.000000
 -0.181818 -0.000000  0.166667      4.000000
 -0.090909 -0.000000  0.166667      4.000000
  0.090909  0.090909  0.166667      4.000000
  0.181818  0.090909  0.166667      4.000000
  0.272727  0.090909  0.166667      4.000000
  0.363636  0.090909  0.166667      4.000000
  0.454545  0.090909  0.166667      4.000000
 -0.454545  0.090909  0.166667      4.000000
 -0.363636  0.090909  0.166667      4.000000
 -0.272727  0.090909  0.166667      4.000000
 -0.181818  0.090909  0.166667      4.000000
 -0.090909  0.090909  0.166667      2.000000
  0.090909  0.181818  0.166667      4.000000
  0.181818  0.181818  0.166667      4.000000
  0.272727  0.181818  0.166667      4.000000
[...]
 -0.363636  0.181818  0.500000      4.000000
 -0.272727  0.181818  0.500000      4.000000
 -0.181818  0.181818  0.500000      2.000000
  0.272727  0.272727  0.500000      2.000000
  0.363636  0.272727  0.500000      4.000000
  0.454545  0.272727  0.500000      4.000000
 -0.454545  0.272727  0.500000      4.000000
 -0.363636  0.272727  0.500000      4.000000
 -0.272727  0.272727  0.500000      2.000000
  0.363636  0.363636  0.500000      2.000000
  0.454545  0.363636  0.500000      4.000000
 -0.454545  0.363636  0.500000      4.000000
 -0.363636  0.363636  0.500000      2.000000
  0.454545  0.454545  0.500000      2.000000
 -0.454545  0.454545  0.500000      2.000000

 Following cartesian coordinates:
            Coordinates               Weight
  0.000000  0.000000  0.000000      1.000000
  0.032571  0.018805 -0.006584      4.000000
  0.065142  0.037610 -0.013169      4.000000
  0.097713  0.056415 -0.019753      4.000000
  0.130284  0.075220 -0.026338      4.000000
  0.162855  0.094025 -0.032922      4.000000
  0.032571  0.056415 -0.000000      2.000000
  0.065142  0.075220 -0.006584      4.000000
  0.097713  0.094025 -0.013169      4.000000
  0.130284  0.112829 -0.019753      4.000000
  0.162855  0.131634 -0.026338      4.000000
 -0.162855 -0.056415  0.039506      4.000000
 -0.130284 -0.037610  0.032922      4.000000
 -0.097713 -0.018805  0.026338      4.000000
 -0.065142  0.000000  0.019753      4.000000
 -0.032571  0.018805  0.013169      2.000000
  0.065142  0.112829 -0.000000      2.000000
  0.097713  0.131634 -0.006584      4.000000
  0.130284  0.150439 -0.013169      4.000000
  0.162855  0.169244 -0.019753      4.000000
 -0.162855 -0.018805  0.046091      4.000000
 -0.130284  0.000000  0.039506      4.000000
 -0.097713  0.018805  0.032922      4.000000
 -0.065142  0.037610  0.026338      2.000000
  0.097713  0.169244 -0.000000      2.000000
  0.130284  0.188049 -0.006584      4.000000
  0.162855  0.206854 -0.013169      4.000000
 -0.162855  0.018805  0.052675      4.000000
 -0.130284  0.037610  0.046091      4.000000
 -0.097713  0.056415  0.039506      2.000000
  0.130284  0.225659 -0.000000      2.000000
  0.162855  0.244464 -0.006584      4.000000
 -0.162855  0.056415  0.059259      4.000000
 -0.130284  0.075220  0.052675      2.000000
  0.162855  0.282074 -0.000000      2.000000
 -0.162855  0.094025  0.065844      2.000000
  0.000000  0.000000  0.036214      2.000000
  0.032571  0.018805  0.029630      4.000000
  0.065142  0.037610  0.023045      4.000000
  0.097713  0.056415  0.016461      4.000000
  0.130284  0.075220  0.009877      4.000000
  0.162855  0.094025  0.003292      4.000000
 -0.162855 -0.094025  0.069136      4.000000
 -0.130284 -0.075220  0.062552      4.000000
 -0.097713 -0.056415  0.055967      4.000000
 -0.065142 -0.037610  0.049383      4.000000
 -0.032571 -0.018805  0.042798      4.000000
  0.032571  0.056415  0.036214      4.000000
  0.065142  0.075220  0.029630      4.000000
  0.097713  0.094025  0.023045      4.000000
[...]
 k-point 35 :   0.4545 0.4545-0.0000  plane waves:     789
 k-point 36 :  -0.4545 0.4545-0.0000  plane waves:     787
 k-point 37 :   0.0000 0.0000 0.1667  plane waves:     782
 k-point 38 :   0.0909 0.0000 0.1667  plane waves:     777
 k-point 39 :   0.1818 0.0000 0.1667  plane waves:     779
 k-point 40 :   0.2727 0.0000 0.1667  plane waves:     779
 k-point 41 :   0.3636 0.0000 0.1667  plane waves:     783
 k-point 42 :   0.4545 0.0000 0.1667  plane waves:     783
 k-point 43 :  -0.4545-0.0000 0.1667  plane waves:     794
 k-point 44 :  -0.3636-0.0000 0.1667  plane waves:     795
 k-point 45 :  -0.2727 0.0000 0.1667  plane waves:     782
 k-point 46 :  -0.1818-0.0000 0.1667  plane waves:     787
 k-point 47 :  -0.0909-0.0000 0.1667  plane waves:     780
 k-point 48 :   0.0909 0.0909 0.1667  plane waves:     776
 k-point 49 :   0.1818 0.0909 0.1667  plane waves:     782
 k-point 50 :   0.2727 0.0909 0.1667  plane waves:     786
 k-point 51 :   0.3636 0.0909 0.1667  plane waves:     785
 k-point 52 :   0.4545 0.0909 0.1667  plane waves:     790
 k-point 53 :  -0.4545 0.0909 0.1667  plane waves:     789
 k-point 54 :  -0.3636 0.0909 0.1667  plane waves:     793
 k-point 55 :  -0.2727 0.0909 0.1667  plane waves:     790
 k-point 56 :  -0.1818 0.0909 0.1667  plane waves:     778
 k-point 57 :  -0.0909 0.0909 0.1667  plane waves:     777
 k-point 58 :   0.0909 0.1818 0.1667  plane waves:     779
 k-point 59 :   0.1818 0.1818 0.1667  plane waves:     787
 k-point 60 :   0.2727 0.1818 0.1667  plane waves:     791
[...]
 k-point 85 :   0.3636 0.4545 0.1667  plane waves:     787
 k-point 86 :   0.4545 0.4545 0.1667  plane waves:     792
 k-point 87 :  -0.4545 0.4545 0.1667  plane waves:     790
 k-point 88 :   0.0909-0.4545 0.1667  plane waves:     787
 k-point 89 :   0.1818-0.4545 0.1667  plane waves:     794
 k-point 90 :   0.2727-0.4545 0.1667  plane waves:     791
 k-point 91 :   0.3636-0.4545 0.1667  plane waves:     785
 k-point 92 :   0.4545-0.4545 0.1667  plane waves:     789
 k-point 93 :   0.0909-0.3636 0.1667  plane waves:     778
 k-point 94 :   0.1818-0.3636 0.1667  plane waves:     785
 k-point 95 :   0.2727-0.3636 0.1667  plane waves:     780
 k-point 96 :   0.3636-0.3636 0.1667  plane waves:     787
 k-point 97 :   0.0909-0.2727 0.1667  plane waves:     780
 k-point 98 :   0.1818-0.2727 0.1667  plane waves:     779
 k-point 99 :   0.2727-0.2727 0.1667  plane waves:     778
 k-point ** :   0.0909-0.1818 0.1667  plane waves:     774
 k-point ** :   0.1818-0.1818 0.1667  plane waves:     782
 k-point ** :   0.0909-0.0909 0.1667  plane waves:     781
 k-point ** :   0.0000 0.0000 0.3333  plane waves:     782
 k-point ** :   0.0909 0.0000 0.3333  plane waves:     776
 k-point ** :   0.1818 0.0000 0.3333  plane waves:     779
 k-point ** :   0.2727 0.0000 0.3333  plane waves:     783
 k-point ** :   0.3636 0.0000 0.3333  plane waves:     795
 k-point ** :   0.4545 0.0000 0.3333  plane waves:     792
 k-point ** :  -0.4545-0.0000 0.3333  plane waves:     791
 k-point ** :  -0.3636-0.0000 0.3333  plane waves:     782
 k-point ** :  -0.2727 0.0000 0.3333  plane waves:     792
 k-point ** :  -0.1818-0.0000 0.3333  plane waves:     784
 k-point ** :  -0.0909-0.0000 0.3333  plane waves:     783
 k-point ** :   0.0909 0.0909 0.3333  plane waves:     779
 k-point ** :   0.1818 0.0909 0.3333  plane waves:     787
 k-point ** :   0.2727 0.0909 0.3333  plane waves:     790
 k-point ** :   0.3636 0.0909 0.3333  plane waves:     792
 k-point ** :   0.4545 0.0909 0.3333  plane waves:     790
 k-point ** :  -0.4545 0.0909 0.3333  plane waves:     793
 k-point ** :  -0.3636 0.0909 0.3333  plane waves:     794
 k-point ** :  -0.2727 0.0909 0.3333  plane waves:     789
 k-point ** :  -0.1818 0.0909 0.3333  plane waves:     777
 k-point ** :  -0.0909 0.0909 0.3333  plane waves:     774
 k-point ** :   0.0909 0.1818 0.3333  plane waves:     791
 k-point ** :   0.1818 0.1818 0.3333  plane waves:     793
 k-point ** :   0.2727 0.1818 0.3333  plane waves:     794
 k-point ** :   0.3636 0.1818 0.3333  plane waves:     786
 k-point ** :   0.4545 0.1818 0.3333  plane waves:     792
 k-point ** :  -0.4545 0.1818 0.3333  plane waves:     796
 k-point ** :  -0.3636 0.1818 0.3333  plane waves:     799
 k-point ** :  -0.2727 0.1818 0.3333  plane waves:     791
 k-point ** :  -0.1818 0.1818 0.3333  plane waves:     780
 k-point ** :   0.0909 0.2727 0.3333  plane waves:     795
 k-point ** :   0.1818 0.2727 0.3333  plane waves:     795
 k-point ** :   0.2727 0.2727 0.3333  plane waves:     790
 k-point ** :   0.3636 0.2727 0.3333  plane waves:     787
 k-point ** :   0.4545 0.2727 0.3333  plane waves:     792
 k-point ** :  -0.4545 0.2727 0.3333  plane waves:     792
 k-point ** :  -0.3636 0.2727 0.3333  plane waves:     791
 k-point ** :  -0.2727 0.2727 0.3333  plane waves:     794
 k-point ** :   0.0909 0.3636 0.3333  plane waves:     788
 k-point ** :   0.1818 0.3636 0.3333  plane waves:     797
 k-point ** :   0.2727 0.3636 0.3333  plane waves:     794
 k-point ** :   0.3636 0.3636 0.3333  plane waves:     792
 k-point ** :   0.4545 0.3636 0.3333  plane waves:     796
 k-point ** :  -0.4545 0.3636 0.3333  plane waves:     788
 k-point ** :  -0.3636 0.3636 0.3333  plane waves:     782
 k-point ** :   0.0909 0.4545 0.3333  plane waves:     795
 k-point ** :   0.1818 0.4545 0.3333  plane waves:     791
 k-point ** :   0.2727 0.4545 0.3333  plane waves:     791
 k-point ** :   0.3636 0.4545 0.3333  plane waves:     791
 k-point ** :   0.4545 0.4545 0.3333  plane waves:     792
 k-point ** :  -0.4545 0.4545 0.3333  plane waves:     794
 k-point ** :   0.0909-0.4545 0.3333  plane waves:     786
 k-point ** :   0.1818-0.4545 0.3333  plane waves:     789
 k-point ** :   0.2727-0.4545 0.3333  plane waves:     792
 k-point ** :   0.3636-0.4545 0.3333  plane waves:     786
 k-point ** :   0.4545-0.4545 0.3333  plane waves:     788
 k-point ** :   0.0909-0.3636 0.3333  plane waves:     790
[...]
 k-point ** :  -0.3636 0.1818 0.5000  plane waves:     795
 k-point ** :  -0.2727 0.1818 0.5000  plane waves:     790
 k-point ** :  -0.1818 0.1818 0.5000  plane waves:     781
 k-point ** :   0.2727 0.2727 0.5000  plane waves:     790
 k-point ** :   0.3636 0.2727 0.5000  plane waves:     790
 k-point ** :   0.4545 0.2727 0.5000  plane waves:     791
 k-point ** :  -0.4545 0.2727 0.5000  plane waves:     795
 k-point ** :  -0.3636 0.2727 0.5000  plane waves:     791
 k-point ** :  -0.2727 0.2727 0.5000  plane waves:     792
 k-point ** :   0.3636 0.3636 0.5000  plane waves:     794
 k-point ** :   0.4545 0.3636 0.5000  plane waves:     796
 k-point ** :  -0.4545 0.3636 0.5000  plane waves:     791
 k-point ** :  -0.3636 0.3636 0.5000  plane waves:     792
 k-point ** :   0.4545 0.4545 0.5000  plane waves:     792
 k-point ** :  -0.4545 0.4545 0.5000  plane waves:     793

 maximum and minimum number of plane-waves per node :       799      770

 maximum number of plane-waves:       799
 maximum index in each direction:
   IXMAX=    5   IYMAX=    5   IZMAX=    8
   IXMIN=   -5   IYMIN=   -5   IZMIN=   -9

 The following grids will avoid any aliasing or wrap around errors in the Hartre
 e energy
  - symmetry arguments have not been applied
  - exchange correlation energies might require even more grid points
  - we recommend to set PREC=Normal or Accurate and rely on VASP defaults
 WARNING: aliasing errors must be expected set NGX to    24 to avoid them
 WARNING: aliasing errors must be expected set NGY to    24 to avoid them
 NGZ is ok and might be reduce to    36

 serial   3D FFT for wavefunctions
 parallel 3D FFT for charge:
    minimum data exchange during FFTs selected (reduces bandwidth)

 Broyden mixing: mesh for mixing (old mesh)
   NGX = 11   NGY = 11   NGZ = 17
  (NGX  = 40   NGY  = 40   NGZ  = 72)
  gives a total of   2057 points

 initial charge density was supplied:
 charge density of overlapping atoms calculated
 number of electron      22.0000000 magnetization       2.5000000
 keeping initial charge density in first step

 Maximum index for non-local projection operator         6049
 Maximum index for augmentation-charges          934 (set IRDMAX)

 First call to EWALD:  gamma=   0.564
 Maximum number of real-space cells 3x 3x 2
 Maximum number of reciprocal cells 2x 2x 4

--------------------------------------- Iteration      1(   1)  ---------------------------------------

 eigenvalue-minimisations  : 13088
 total energy-change (2. order) : 0.7896416E+02  (-0.1271390E+04)
 number of electron      22.0000000 magnetization       2.5000000
 augmentation part       22.0000000 magnetization       2.5000000

 Free energy of the ion-electron system (eV)
  alpha Z        PSCENC =        68.95428215
  Ewald energy   TEWEN  =     -1257.07201754
  -Hartree energ DENC   =      -738.47468067
  -exchange      EXHF   =         0.00000000
  -V(xc)+E(xc)   XCENC  =        88.93696368
  PAW double counting   =      1653.99387093    -1723.72244317
  entropy T*S    EENTRO =        -0.00160819
  eigenvalues    EBANDS =        47.99527452
  atomic energy  EATOM  =      1938.35452211
  Solvation  Ediel_sol  =         0.00000000
  free energy    TOTEN  =        78.96416383 eV

  energy without entropy =       78.96577201  energy(sigma->0) =       78.96496792

[...]

 eigenvalue-minimisations  : 15616
 total energy-change (2. order) :-0.1016201E+03  (-0.1012403E+03)
 number of electron      22.0000000 magnetization       2.5000000
 augmentation part       22.0000000 magnetization       2.5000000

[...]

 Broyden mixing:
  rms(total) = 0.30463E+01    rms(broyden)= 0.30460E+01
  rms(prec ) = 0.53043E+01
  weight for this iteration     100.00

[...]

 eigenvalues of (default mixing * dielectric matrix)
  average eigenvalue GAMMA=   0.1956
  0.1956

[...]

 eigenvalue-minimisations  : 20688
 total energy-change (2. order) : 0.7592745E-01  (-0.3248147E+00)
 number of electron      22.0000004 magnetization      -0.1131534
 augmentation part        7.1619910 magnetization      -0.0912409

[...]

 Broyden mixing:
  rms(total) = 0.25122E-02    rms(broyden)= 0.25119E-02
  rms(prec ) = 0.34282E-02
  weight for this iteration     100.00

 eigenvalues of (default mixing * dielectric matrix)
  average eigenvalue GAMMA=   1.1286
  2.4529  1.9578  1.1819  1.1819  0.8227  0.8227  0.5114  0.6129  0.6129

[...]

--------------------------------------- Iteration      1(  15)  ---------------------------------------

 eigenvalue-minimisations  : 15536
 total energy-change (2. order) :-0.2004542E-05  (-0.1374560E-05)
 number of electron      22.0000004 magnetization       0.0003454
 augmentation part        7.2088819 magnetization       0.0003653

 Free energy of the ion-electron system (eV)
  alpha Z        PSCENC =        68.95428215
  Ewald energy   TEWEN  =     -1257.07201754
  -Hartree energ DENC   =      -716.10814046
  -exchange      EXHF   =         0.00000000
  -V(xc)+E(xc)   XCENC  =        87.95224428
  PAW double counting   =      2207.45656029    -2280.73109008
  entropy T*S    EENTRO =        -0.00000000
  eigenvalues    EBANDS =       -67.53522436
  atomic energy  EATOM  =      1938.35452211
  Solvation  Ediel_sol  =         0.00000000
  free energy    TOTEN  =       -18.72886359 eV

  energy without entropy =      -18.72886359  energy(sigma->0) =      -18.72886359

 average (electrostatic) potential at core
  the test charge radii are     0.9791  0.7215
  (the norm of the test charge is              1.0000)
       1 -89.2813       2 -72.3425       3 -72.3425

 E-fermi :   2.9860     XC(G=0): -11.0516     alpha+bet :-10.5922

 spin component 1

 k-point     1 :       0.0000    0.0000    0.0000
  band No.  band energies     occupation
      1     -16.9901      1.00000
      2     -14.3839      1.00000
      3      -3.1418      1.00000
      4      -2.9474      1.00000
      5      -2.9473      1.00000
      6       0.5745      1.00000
      7       0.5745      1.00000
      8       1.6376      1.00000
      9       1.6377      1.00000
     10       1.9610      1.00000
     11       2.3984      1.00000
     12       4.9652      0.00000
     13       4.9652      0.00000
     14      10.4744      0.00000
     15      13.7633      0.00000
     16      17.6730      0.00000

[...]

 spin component 2

[...]

 k-point   204 :      -0.4545    0.4545    0.5000
  band No.  band energies     occupation
      1     -15.1193      1.00000
      2     -14.8101      1.00000
      3      -3.8934      1.00000
      4      -2.2325      1.00000
      5      -2.0388      1.00000
      6      -1.2157      1.00000
      7      -0.1180      1.00000
      8       0.6926      1.00000
      9       1.0465      1.00000
     10       1.1789      1.00000
     11       1.7607      1.00000
     12       4.1255      0.00000
     13       4.8193      0.00000
     14      15.4484      0.00000
     15      16.2147      0.00000
     16      16.9273      0.00000

 soft charge-density along one line, spin component           1
         0         1         2         3         4         5         6         7         8         9
 total charge-density along one line

 soft charge-density along one line, spin component           2
         0         1         2         3         4         5         6         7         8         9
 total charge-density along one line

------------------------ aborting loop because EDIFF is reached ----------------------------------------

  FORCE on cell =-STRESS in cart. coord.  units (eV):
  Direction    XX          YY          ZZ          XY          YZ          ZX
  Alpha Z    68.95428    68.95428    68.95428
  Ewald     -85.36482   -85.36484 -1086.34278    -0.00001    -0.00000     0.00001
  Hartree   475.84554   475.84554  -235.56551    -0.00000     0.00000    -0.00000
  E(xc)    -112.27328  -112.27328  -112.46165    -0.00000    -0.00000     0.00000
  Local    -817.52971  -817.52983   877.13043    -0.00011    -0.00004     0.00007
  n-local   -47.18816   -47.48591   -49.35563     0.08705    -0.70249    -0.41417
  augment   185.34785   185.34847   190.82576     0.00054     0.00005    -0.00008
  Kinetic   332.90264   331.76946   346.86493     0.32711     1.18464     0.68403
  Fock        0.00000     0.00000     0.00000     0.00000     0.00000     0.00000
  Total       -0.0208837     -0.0208837      0.0498300      0.0000000      0.0000000      0.0000000
  in kB       -1.0776215     -1.0776215      2.5712782      0.0000000      0.0000000      0.0000000

 VOLUME and BASIS-vectors are now :
  energy-cutoff  :      500.00
  volume of cell :       31.05
      direct lattice vectors                 reciprocal lattice vectors
     2.791100720  0.000000000  0.000000000     0.358281589  0.206853972 -0.072428215
    -1.395550360  2.417164120  0.000000000     0.000000000  0.413707945  0.072428211
     1.395550360 -0.805721350  4.602258110     0.000000000  0.000000000  0.217284641

  length of vectors
     2.791100720  2.791100713  4.876220607     0.420000130  0.420000130  0.217284641

 FORCES acting on ions
    electron-ion (+dipol)            ewald-force                    non-local-force                 convergence-correction
   -.617E-12 0.843E-12 0.183E-11   0.903E-14 0.779E-14 -.114E-12   -.103E-23 0.646E-24 0.000E+00   -.117E-13 0.217E-13 0.172E-13
   0.138E-04 -.793E-05 0.368E+03   -.289E-05 0.177E-05 -.396E+03   0.444E-15 0.140E-06 0.277E+02   0.112E-06 -.647E-07 0.297E-02
   -.138E-04 0.793E-05 -.368E+03   0.289E-05 -.177E-05 0.396E+03   -.222E-15 -.140E-06 -.277E+02   -.112E-06 0.647E-07 -.297E-02
   -.153E-11 0.836E-12 -.649E-12   0.970E-14 0.228E-14 0.000E+00   0.222E-15 0.000E+00 0.000E+00   -.120E-13 0.138E-13 0.149E-13

 POSITION                                       TOTAL-FORCE (eV/Angst)
      1.39555      0.80572      2.30113        -0.000000      0.000000     -0.000000
      0.00000      1.61144      1.36933         0.000000     -0.000000     -0.012691
      2.79110      0.00000      3.23293        -0.000000      0.000000      0.012691
    total drift:                               -0.000000      0.000000     -0.000000

  FREE ENERGIE OF THE ION-ELECTRON SYSTEM (eV)
  free  energy   TOTEN  =       -18.7288635899 eV

  energy  without entropy=      -18.7288635899  energy(sigma->0) =      -18.72886359

volume of typ            1:    20.5 %

volume of typ            2:    10.5 %

total charge

# of ion       s       p       d       tot
    1        0.306   0.425   7.817   8.548
    2        1.285   2.726   0.008   4.019
    3        1.285   2.726   0.008   4.019
tot           2.88    5.88    7.83   16.59

magnetization (x)

# of ion       s       p       d       tot
    1        0.000   0.000   0.000   0.000
    2       -0.000  -0.000  -0.000  -0.000
    3       -0.000  -0.000  -0.000  -0.000
tot           0.00   -0.00    0.00    0.00