 vasp.5.4.4.18Apr17-6-g9f103f2a35 (build May 12 2020 04:58:55) complex

 MD_VERSION_INFO: Compiled 2020-05-12T11:58:55-UTC in devlin.sd.materialsdesign.
 com:/home/medea2/data/build/wwolf/vasp-gpu5.4.4/13047/x86_64/src/src/build/std
 from svn 13047

 executed on                        Lin64 date 2023.03.17  05:40:26

 INCAR:
 POTCAR:    PAW_PBE Li_sv 10Sep2004
 POTCAR:    PAW_PBE Ni 02Aug2007
 POTCAR:    PAW_PBE O 08Apr2002

 POTCAR:    PAW_PBE Li_sv 10Sep2004

 POTCAR:    PAW_PBE Ni 02Aug2007

 POTCAR:    PAW_PBE O 08Apr2002

 Optimization of the real space projectors (new method)

 maximal supplied QI-value         = 22.11
 optimisation between [QCUT,QGAM] = [ 11.28, 22.77] = [ 35.61,145.23] Ry
 Optimized for a Real-space Cutoff    1.10 Angstroem

   l    n(q)    QCUT    max X(q) W(low)/X(q) W(high)/X(q)  e(spline)
   0      7    11.276    10.506    0.54E-04    0.58E-04    0.16E-07
   0      7    11.276     8.367    0.11E-03    0.14E-03    0.35E-07
   1      7    11.276     8.983    0.23E-03    0.43E-03    0.86E-07
 Optimization of the real space projectors (new method)

[...]

   l    n(q)    QCUT    max X(q) W(low)/X(q) W(high)/X(q)  e(spline)
   2      9    11.376    60.317    0.17E-03    0.16E-04    0.16E-06
   2      9    11.376    55.921    0.17E-03    0.16E-04    0.17E-06
   0     10    11.376    51.690    0.45E-04    0.60E-04    0.21E-06
   0     10    11.376    30.015    0.37E-04    0.55E-04    0.19E-06
   1     10    11.376    18.849    0.83E-04    0.11E-03    0.92E-07
   1     10    11.376    14.624    0.69E-04    0.92E-04    0.82E-07
 Optimization of the real space projectors (new method)

 maximal supplied QI-value         = 24.76
 optimisation between [QCUT,QGAM] = [ 11.39, 22.77] = [ 36.31,145.25] Ry
 Optimized for a Real-space Cutoff    1.10 Angstroem

   l    n(q)    QCUT    max X(q) W(low)/X(q) W(high)/X(q)  e(spline)
   0      7    11.387    20.381    0.22E-03    0.48E-03    0.18E-06
   0      7    11.387    15.268    0.22E-03    0.52E-03    0.19E-06
   1      7    11.387     5.964    0.22E-03    0.73E-03    0.24E-06
   1      7    11.387     5.382    0.19E-03    0.60E-03    0.21E-06

  PAW_PBE Li_sv 10Sep2004               :
  PAW_PBE Ni 02Aug2007                  :
  PAW_PBE O 08Apr2002                   :

 POSCAR: Li2AlNiO4.cif_1
  positions in direct lattice
 exchange correlation table for  LEXCH =       14
   RHO(1)=    0.500       N(1)  =     2000
   RHO(2)=  100.500       N(2)  =     4000

 ion  position               nearest neighbor table
   1  0.313  0.669  0.999-  19 1.92  27 1.95  30 1.95  21 2.00
   2  0.687  0.169  0.501-  20 1.92  28 1.95  29 1.95  22 2.00
   3  0.687  0.331  0.001-  17 1.92  25 1.95  32 1.95  23 2.00
   4  0.313  0.831  0.499-  18 1.92  26 1.95  31 1.95  24 2.00
   5  0.556  0.424  0.744-  30 1.93  20 1.94  23 1.96  25 2.09  14 2.66
   6  0.444  0.924  0.756-  29 1.93  19 1.94  24 1.96  26 2.09  13 2.66
   7  0.444  0.576  0.256-  32 1.93  18 1.94  21 1.96  27 2.09  16 2.66
   8  0.556  0.076  0.244-  31 1.93  17 1.94  22 1.96  28 2.09  15 2.66
   9  0.935  0.086  0.745-  26 1.81  22 1.82  29 1.82  17 1.83  14 3.04
  10  0.065  0.586  0.755-  25 1.81  21 1.82  30 1.82  18 1.83  13 3.04
  11  0.065  0.914  0.255-  28 1.81  24 1.82  31 1.82  19 1.83  16 3.04
  12  0.935  0.414  0.245-  27 1.81  23 1.82  32 1.82  20 1.83  15 3.04
  13  0.816  0.830  0.003-  21 1.80  19 1.82  26 1.83  31 1.84   6 2.66  10 3.04
  14  0.184  0.330  0.497-  22 1.80  20 1.82  25 1.83  32 1.84   5 2.66   9 3.04
  15  0.184  0.170  0.997-  23 1.80  17 1.82  28 1.83  29 1.84   8 2.66  12 3.04
  16  0.816  0.670  0.503-  24 1.80  18 1.82  27 1.83  30 1.84   7 2.66  11 3.04
  17  0.851  0.165  0.974-  15 1.82   9 1.83   3 1.92   8 1.94
  18  0.149  0.665  0.526-  16 1.82  10 1.83   4 1.92   7 1.94
  19  0.149  0.835  0.026-  13 1.82  11 1.83   1 1.92   6 1.94
  20  0.851  0.335  0.474-  14 1.82  12 1.83   2 1.92   5 1.94
  21  0.716  0.671  0.989-  13 1.80  10 1.82   7 1.96   1 2.00
  22  0.284  0.171  0.511-  14 1.80   9 1.82   8 1.96   2 2.00
  23  0.284  0.329  0.011-  15 1.80  12 1.82   5 1.96   3 2.00
  24  0.716  0.829  0.489-  16 1.80  11 1.82   6 1.96   4 2.00
  25  0.974  0.426  0.737-  10 1.81  14 1.83   3 1.95   5 2.09
  26  0.026  0.926  0.763-   9 1.81  13 1.83   4 1.95   6 2.09
  27  0.026  0.574  0.263-  12 1.81  16 1.83   1 1.95   7 2.09
  28  0.974  0.074  0.237-  11 1.81  15 1.83   2 1.95   8 2.09
  29  0.564  0.094  0.760-   9 1.82  15 1.84   6 1.93   2 1.95
  30  0.436  0.594  0.740-  10 1.82  16 1.84   5 1.93   1 1.95
  31  0.436  0.906  0.240-  11 1.82  13 1.84   8 1.93   4 1.95
  32  0.564  0.406  0.260-  12 1.82  14 1.84   7 1.93   3 1.95

  LATTYP: Found a simple monoclinic cell.
 ALAT       =     8.1553495633
 B/A-ratio  =     1.3138485477
 C/A-ratio  =     1.6707133762
 COS(beta)  =    -0.9577077610

  Lattice vectors:

 A1 = (  -5.2157837300,   0.0000000000,  -6.2693960300)
 A2 = (   0.0000000000, -10.7148941800,   0.0000000000)
 A3 = (   5.3316202900,   0.0000000000,  12.5387920600)

Analysis of symmetry for initial positions (statically):
 Subroutine PRICEL returns:
 Original cell was already a primitive cell.

 Routine SETGRP: Setting up the symmetry group for a
 simple monoclinic supercell.

 Subroutine GETGRP returns: Found  4 space group operations
 (whereof  2 operations were pure point group operations)
 out of a pool of  4 trial point group operations.

The static configuration has the point symmetry S_2 .
 The point group associated with its full space group is C_2h.

Analysis of symmetry for dynamics (positions and initial velocities):
 Subroutine PRICEL returns:
 Original cell was already a primitive cell.

[...]

The dynamic configuration has the point symmetry S_2 .
 The point group associated with its full space group is C_2h.

Analysis of structural, dynamic, and magnetic symmetry:
 Subroutine PRICEL returns:
 Original cell was already a primitive cell.

 Routine SETGRP: Setting up the symmetry group for a
 simple monoclinic supercell.

 Subroutine GETGRP returns: Found  4 space group operations
 (whereof  2 operations were pure point group operations)
 out of a pool of  4 trial point group operations.

The magnetic configuration has the point symmetry S_2 .
 The point group associated with its full space group is C_2h.

 Subroutine INISYM returns: Found  4 space group operations
 (whereof  2 operations are pure point group operations),
 and found     1 'primitive' translations

 KPOINTS: Automatic mesh

Automatic generation of k-mesh.
Space group operators:
 irot       det(A)        alpha          n_x          n_y          n_z        tau_x        tau_y        tau_z
    1     1.000000     0.000001     1.000000     0.000000     0.000000     0.000000     0.000000     0.000000
    2    -1.000000     0.000001     1.000000     0.000000     0.000000     0.000000     0.000000     0.000000
    3     1.000000   180.000000     0.000000     1.000000     0.000000     0.000000    -0.500000    -0.500000
    4    -1.000000   180.000000     0.000000     1.000000     0.000000     0.000000    -0.500000    -0.500000

 Subroutine IBZKPT returns following result:

 Found     36 irreducible k-points:

 Following reciprocal coordinates:
            Coordinates               Weight
  0.000000  0.000000  0.000000      1.000000
  0.142857  0.000000  0.000000      2.000000
  0.285714  0.000000  0.000000      2.000000
  0.428571  0.000000  0.000000      2.000000
  0.000000  0.333333  0.000000      2.000000
  0.142857  0.333333  0.000000      4.000000
  0.285714  0.333333  0.000000      4.000000
  0.428571  0.333333  0.000000      4.000000
  0.000000  0.000000  0.200000      2.000000
  0.142857  0.000000  0.200000      2.000000
  0.285714  0.000000  0.200000      2.000000
  0.428571  0.000000  0.200000      2.000000
 -0.428571  0.000000  0.200000      2.000000
 -0.285714  0.000000  0.200000      2.000000
 -0.142857  0.000000  0.200000      2.000000
  0.000000  0.333333  0.200000      4.000000
  0.142857  0.333333  0.200000      4.000000
  0.285714  0.333333  0.200000      4.000000
  0.428571  0.333333  0.200000      4.000000
 -0.428571  0.333333  0.200000      4.000000
 -0.285714  0.333333  0.200000      4.000000
 -0.142857  0.333333  0.200000      4.000000
  0.000000  0.000000  0.400000      2.000000
  0.142857  0.000000  0.400000      2.000000
  0.285714  0.000000  0.400000      2.000000
  0.428571  0.000000  0.400000      2.000000
 -0.428571  0.000000  0.400000      2.000000
 -0.285714  0.000000  0.400000      2.000000
 -0.142857  0.000000  0.400000      2.000000
  0.000000  0.333333  0.400000      4.000000
  0.142857  0.333333  0.400000      4.000000
  0.285714  0.333333  0.400000      4.000000
  0.428571  0.333333  0.400000      4.000000
 -0.428571  0.333333  0.400000      4.000000
 -0.285714  0.333333  0.400000      4.000000
 -0.142857  0.333333  0.400000      4.000000

 Following cartesian coordinates:
            Coordinates               Weight
  0.000000  0.000000  0.000000      1.000000
  0.028011  0.000000 -0.023304      2.000000
  0.056023  0.000000 -0.046608      2.000000
  0.084034  0.000000 -0.069912      2.000000
  0.000000  0.031109  0.000000      2.000000
  0.028011  0.031109 -0.023304      4.000000
  0.056023  0.031109 -0.046608      4.000000
  0.084034  0.031109 -0.069912      4.000000
  0.000000  0.000000  0.031901      2.000000
  0.028011  0.000000  0.008597      2.000000
  0.056023  0.000000 -0.014707      2.000000
  0.084034  0.000000 -0.038011      2.000000
 -0.084034  0.000000  0.101813      2.000000
 -0.056023  0.000000  0.078509      2.000000
 -0.028011  0.000000  0.055205      2.000000
  0.000000  0.031109  0.031901      4.000000
  0.028011  0.031109  0.008597      4.000000
  0.056023  0.031109 -0.014707      4.000000
  0.084034  0.031109 -0.038011      4.000000
 -0.084034  0.031109  0.101813      4.000000
 -0.056023  0.031109  0.078509      4.000000
 -0.028011  0.031109  0.055205      4.000000
  0.000000  0.000000  0.063802      2.000000
  0.028011  0.000000  0.040498      2.000000
  0.056023  0.000000  0.017194      2.000000
  0.084034  0.000000 -0.006110      2.000000
 -0.084034  0.000000  0.133714      2.000000
 -0.056023  0.000000  0.110410      2.000000
 -0.028011  0.000000  0.087106      2.000000
  0.000000  0.031109  0.063802      4.000000
  0.028011  0.031109  0.040498      4.000000
  0.056023  0.031109  0.017194      4.000000
  0.084034  0.031109 -0.006110      4.000000
 -0.084034  0.031109  0.133714      4.000000
 -0.056023  0.031109  0.110410      4.000000
 -0.028011  0.031109  0.087106      4.000000

 SYSTEM =  unknown system
 POSCAR =  Li2AlNiO4.cif_1

 Startparameter for this run:
   NWRITE =      1    write-flag & timer
   PREC   = accura    normal or accurate (medium, high low for compatibility)
   ISTART =      0    job   : 0-new  1-cont  2-samecut
   ICHARG =      2    charge: 1-file 2-atom 10-const
   ISPIN  =      2    spin polarized calculation?
   LNONCOLLINEAR =      F non collinear calculations
   LSORBIT =      F    spin-orbit coupling
   INIWAV =      1    electr: 0-lowe 1-rand  2-diag
   LASPH  =      F    aspherical Exc in radial PAW
   METAGGA=      F    non-selfconsistent MetaGGA calc.
[...]
     32      -2.6692      1.00000
     33      -2.6579      1.00000
     34      -2.6256      1.00000
     35      -2.6022      1.00000
     36      -2.5653      1.00000
     37      -2.5366      1.00000
     38      -2.5196      1.00000
     39      -2.5173      1.00000
     40      -2.4860      1.00000
     41      -2.3963      1.00000
     42      -2.3772      1.00000
     43      -2.2051      1.00000
     44      -2.1716      1.00000
     45      -2.1336      1.00000
     46      -2.1277      1.00000
     47      -2.0007      1.00000
     48      -1.9538      1.00000
     49      -1.9263      1.00000
     50      -1.8513      1.00000
     51      -1.7496      1.00000
     52      -1.6165      1.00000
     53      -1.6116      1.00000
     54      -1.6038      1.00000
     55      -1.5048      1.00000
     56      -1.4831      1.00000
     57      -1.4757      1.00000
     58      -1.4115      1.00000
     59      -0.9532      1.00000
     60      -0.9008      1.00000
[...]
    130      12.6317      0.00000
    131      12.6472      0.00000
    132      13.0699      0.00000
    133      13.1320      0.00000
    134      13.2219      0.00000
    135      13.7513      0.00000
    136      13.9038      0.00000
    137      13.9741      0.00000
    138      14.2708      0.00000
    139      14.4081      0.00000
    140      14.4330      0.00000
    141      14.4711      0.00000
    142      14.8863      0.00000
    143      14.9026      0.00000
    144      14.9891      0.00000

[...]

 spin component 2

[...]

 k-point    36 :      -0.1429    0.3333    0.4000
  band No.  band energies     occupation
      1     -40.1645      1.00000
      2     -40.1645      1.00000
      3     -40.1643      1.00000
      4     -40.1642      1.00000
      5     -39.9817      1.00000
      6     -39.9817      1.00000
      7     -39.9815      1.00000
      8     -39.9814      1.00000
      9     -15.2054      1.00000
     10     -15.1700      1.00000
     11     -15.0578      1.00000
     12     -15.0297      1.00000
     13     -14.7917      1.00000
     14     -14.7599      1.00000
     15     -14.6894      1.00000
     16     -14.6613      1.00000
     17     -14.5480      1.00000
     18     -14.5320      1.00000
     19     -14.5086      1.00000
     20     -14.4999      1.00000
     21     -14.4685      1.00000
     22     -14.4497      1.00000
     23     -14.3912      1.00000
     24     -14.3887      1.00000
     25      -2.7184      1.00000
     26      -2.6910      1.00000
     27      -2.5456      1.00000
     28      -2.4959      1.00000
     29      -2.3816      1.00000
     30      -2.3480      1.00000
     31      -2.2460      1.00000
     32      -2.2244      1.00000
     33      -2.0789      1.00000
     34      -2.0410      1.00000
     35      -2.0147      1.00000
     36      -1.9993      1.00000
     37      -1.9634      1.00000
     38      -1.9455      1.00000
     39      -1.8807      1.00000
     40      -1.8671      1.00000
     41      -1.8086      1.00000
     42      -1.7963      1.00000
     43      -1.7563      1.00000
     44      -1.7294      1.00000
     45      -1.5605      1.00000
     46      -1.5350      1.00000
     47      -1.4388      1.00000
     48      -1.4094      1.00000
     49      -1.3927      1.00000
     50      -1.3832      1.00000
     51      -1.2319      1.00000
     52      -1.2185      1.00000
     53      -1.0944      1.00000
     54      -1.0293      1.00000
     55      -0.8421      1.00000
     56      -0.7756      1.00000
     57      -0.5702      1.00000
     58      -0.5089      1.00000
     59      -0.4686      1.00000
     60      -0.4004      1.00000
[...]
    130      13.3506      0.00000
    131      13.4218      0.00000
    132      13.4369      0.00000
    133      13.7336      0.00000
    134      13.8033      0.00000
    135      13.9108      0.00000
    136      14.0467      0.00000
    137      14.2415      0.00000
    138      14.5066      0.00000
    139      14.5706      0.00000
    140      14.6796      0.00000
    141      15.0161      0.00000
    142      15.0806      0.00000
    143      15.1717      0.00000
    144      15.3934      0.00000

 soft charge-density along one line, spin component           1
         0         1         2         3         4         5         6         7         8         9
 total charge-density along one line

 soft charge-density along one line, spin component           2
         0         1         2         3         4         5         6         7         8         9
 total charge-density along one line

------------------------ aborting loop because EDIFF is reached ----------------------------------------

  FORCE on cell =-STRESS in cart. coord.  units (eV):
  Direction    XX          YY          ZZ          XY          YZ          ZX
  Alpha Z   490.33415   490.33415   490.33415
  Ewald   -3732.68253 -3502.11918 -4029.16299     0.00000     0.00000  -140.12601
  Hartree  1877.73952  1976.94102  1610.67135    -0.00000    -0.00000   -83.25126
  E(xc)   -1008.38624 -1008.10628 -1008.26495    -0.00000     0.00000     0.03900
  Local   -1756.44180 -2082.00393 -1199.81711    -0.00000    -0.00000   220.90381
  n-local  -533.83311  -537.48159  -539.51489     0.01915     0.08158    -1.01030
  augment  1647.28142  1645.98083  1652.62841     0.00000    -0.00000    -0.13078
  Kinetic  3015.22557  3016.36796  3022.86282    -0.04313     0.10049     3.13029
  Fock        0.00000     0.00000     0.00000     0.00000     0.00000     0.00000
  Total       -0.7630224     -0.0870307     -0.2632095      0.0000000      0.0000000     -0.4452475
  in kB       -3.5683593     -0.4070089     -1.2309285      0.0000000      0.0000000     -2.0822497

 VOLUME and BASIS-vectors are now :
  energy-cutoff  :      500.00
  volume of cell :      342.59
      direct lattice vectors                 reciprocal lattice vectors
     5.099947170  0.000000000  0.000000000     0.196080463  0.000000000 -0.163127880
     0.000000000 10.714894180  0.000000000     0.000000000  0.093328033  0.000000000
     5.215783730  0.000000000  6.269396030     0.000000000  0.000000000  0.159504998

  length of vectors
     5.099947170 10.714894180  8.155349563     0.255065194  0.093328033  0.159504998

 FORCES acting on ions
    electron-ion (+dipol)            ewald-force                    non-local-force                 convergence-correction
   0.354E+01 0.168E+02 0.241E+01   -.363E+01 -.165E+02 -.236E+01   0.956E-01 -.284E+00 -.876E-01   -.978E-05 0.112E-03 0.651E-05
   -.354E+01 0.168E+02 -.241E+01   0.363E+01 -.165E+02 0.236E+01   -.956E-01 -.284E+00 0.876E-01   0.978E-05 0.112E-03 -.651E-05
   -.354E+01 -.168E+02 -.241E+01   0.363E+01 0.165E+02 0.236E+01   -.956E-01 0.284E+00 0.876E-01   0.978E-05 -.112E-03 -.651E-05
   0.354E+01 -.168E+02 0.241E+01   -.363E+01 0.165E+02 -.236E+01   0.956E-01 0.284E+00 -.876E-01   -.978E-05 -.112E-03 0.651E-05
   0.319E+02 0.459E+01 -.304E+02   -.315E+02 -.440E+01 0.302E+02   -.397E+00 -.199E+00 0.285E+00   0.109E-03 -.108E-03 -.860E-04
   -.319E+02 0.459E+01 0.304E+02   0.315E+02 -.440E+01 -.302E+02   0.397E+00 -.199E+00 -.285E+00   -.109E-03 -.108E-03 0.860E-04
   -.319E+02 -.459E+01 0.304E+02   0.315E+02 0.440E+01 -.302E+02   0.397E+00 0.199E+00 -.285E+00   -.109E-03 0.108E-03 0.860E-04
   0.319E+02 -.459E+01 -.304E+02   -.315E+02 0.440E+01 0.302E+02   -.397E+00 0.199E+00 0.285E+00   0.109E-03 0.108E-03 -.860E-04
   0.202E+02 0.494E+02 0.725E+02   -.202E+02 -.492E+02 -.716E+02   0.114E+00 -.444E+00 -.928E+00   0.130E-03 -.955E-04 0.519E-03
   -.202E+02 0.494E+02 -.725E+02   0.202E+02 -.492E+02 0.716E+02   -.114E+00 -.444E+00 0.928E+00   -.130E-03 -.955E-04 -.519E-03
   -.202E+02 -.494E+02 -.725E+02   0.202E+02 0.492E+02 0.716E+02   -.114E+00 0.444E+00 0.928E+00   -.130E-03 0.955E-04 -.519E-03
   0.202E+02 -.494E+02 0.725E+02   -.202E+02 0.492E+02 -.716E+02   0.114E+00 0.444E+00 -.928E+00   0.130E-03 0.955E-04 0.519E-03
   0.414E+02 0.396E+02 -.300E+01   -.409E+02 -.392E+02 0.375E+01   -.515E+00 -.358E+00 -.839E+00   0.499E-03 -.105E-04 0.472E-03
   -.414E+02 0.396E+02 0.300E+01   0.409E+02 -.392E+02 -.375E+01   0.515E+00 -.358E+00 0.839E+00   -.499E-03 -.105E-04 -.472E-03
   -.414E+02 -.396E+02 0.300E+01   0.409E+02 0.392E+02 -.375E+01   0.515E+00 0.358E+00 0.839E+00   -.499E-03 0.105E-04 -.472E-03
   0.414E+02 -.396E+02 -.300E+01   -.409E+02 0.392E+02 0.375E+01   -.515E+00 0.358E+00 -.839E+00   0.499E-03 0.105E-04 0.472E-03
   0.895E+02 -.768E+02 -.958E+02   -.969E+02 0.815E+02 0.103E+03   0.744E+01 -.470E+01 -.663E+01   0.982E-03 0.659E-03 0.123E-02
   -.895E+02 -.768E+02 0.958E+02   0.969E+02 0.815E+02 -.103E+03   -.744E+01 -.470E+01 0.663E+01   -.982E-03 0.659E-03 -.123E-02
   -.895E+02 0.768E+02 0.958E+02   0.969E+02 -.815E+02 -.103E+03   -.744E+01 0.470E+01 0.663E+01   -.982E-03 -.659E-03 -.123E-02
   0.895E+02 0.768E+02 -.958E+02   -.969E+02 -.815E+02 0.103E+03   0.744E+01 0.470E+01 -.663E+01   0.982E-03 -.659E-03 0.123E-02
   0.741E+02 0.846E+02 -.114E+03   -.805E+02 -.894E+02 0.122E+03   0.637E+01 0.489E+01 -.800E+01   -.408E-03 0.144E-02 0.164E-02
   -.741E+02 0.846E+02 0.114E+03   0.805E+02 -.894E+02 -.122E+03   -.637E+01 0.489E+01 0.800E+01   0.408E-03 0.144E-02 -.164E-02
   -.741E+02 -.846E+02 0.114E+03   0.805E+02 0.894E+02 -.122E+03   -.637E+01 -.489E+01 0.800E+01   0.408E-03 -.144E-02 -.164E-02
   0.741E+02 -.846E+02 -.114E+03   -.805E+02 0.894E+02 0.122E+03   0.637E+01 -.489E+01 -.800E+01   -.408E-03 -.144E-02 0.164E-02
   -.954E+01 0.553E+02 -.138E+03   0.893E+01 -.600E+02 0.146E+03   0.697E+00 0.469E+01 -.808E+01   -.701E-03 -.165E-02 -.541E-03
   0.954E+01 0.553E+02 0.138E+03   -.893E+01 -.600E+02 -.146E+03   -.697E+00 0.469E+01 0.808E+01   0.701E-03 -.165E-02 0.541E-03
   0.954E+01 -.553E+02 0.138E+03   -.893E+01 0.600E+02 -.146E+03   -.697E+00 -.469E+01 0.808E+01   0.701E-03 0.165E-02 0.541E-03
   -.954E+01 -.553E+02 -.138E+03   0.893E+01 0.600E+02 0.146E+03   0.697E+00 -.469E+01 -.808E+01   -.701E-03 0.165E-02 -.541E-03
   0.749E+02 0.608E+02 0.127E+03   -.822E+02 -.644E+02 -.135E+03   0.724E+01 0.354E+01 0.794E+01   -.187E-02 0.435E-03 0.288E-03
   -.749E+02 0.608E+02 -.127E+03   0.822E+02 -.644E+02 0.135E+03   -.724E+01 0.354E+01 -.794E+01   0.187E-02 0.435E-03 -.288E-03
   -.749E+02 -.608E+02 -.127E+03   0.822E+02 0.644E+02 0.135E+03   -.724E+01 -.354E+01 -.794E+01   0.187E-02 -.435E-03 -.288E-03
   0.749E+02 -.608E+02 0.127E+03   -.822E+02 0.644E+02 -.135E+03   0.724E+01 -.354E+01 0.794E+01   -.187E-02 -.435E-03 0.288E-03
   -.379E-09 0.147E-08 -.424E-09   -.142E-13 -.284E-13 0.284E-13   -.888E-15 0.444E-15 -.888E-15   -.392E-12 0.525E-12 0.400E-12

 POSITION                                       TOTAL-FORCE (eV/Angst)
      6.80524      7.16443      6.26132         0.000008      0.007354     -0.032617
      6.11838      1.80699      3.14278        -0.000008      0.007354      0.032617
      3.51049      3.55046      0.00808        -0.000008     -0.007354      0.032617
      4.19735      8.90791      3.12662         0.000008     -0.007354     -0.032617
      6.71891      4.53885      4.66645         0.015363     -0.005586      0.023110
      6.20472      9.89630      4.73765        -0.015363     -0.005586     -0.023110
      3.59683      6.17604      1.60295        -0.015363      0.005586     -0.023110
      4.11101      0.81860      1.53175         0.015363      0.005586      0.023110
      8.65411      0.92157      4.67341         0.126216     -0.237163     -0.029912
      4.26951      6.27902      4.73068        -0.126216     -0.237163      0.029912
      1.66162      9.79333      1.59599        -0.126216      0.237163      0.029912
      6.04622      4.43588      1.53871         0.126216      0.237163     -0.029912
      4.17668      8.89421      0.01692         0.048767      0.076230     -0.093085
      3.53116      3.53676      3.11778        -0.048767      0.076230      0.093085
      6.13905      1.82068      6.25248        -0.048767     -0.076230      0.093085
      6.78457      7.17813      3.15161         0.048767     -0.076230     -0.093085
      9.42066      1.76439      6.10724         0.040028      0.019609      0.043820
      3.50296      7.12184      3.29686        -0.040028      0.019609     -0.043820
      0.89507      8.95050      0.16216        -0.040028     -0.019609     -0.043820
      6.81277      3.59306      2.97254         0.040028     -0.019609      0.043820
      8.80817      7.18896      6.19849        -0.017626      0.056005      0.044919
      4.11546      1.83151      3.20560         0.017626      0.056005     -0.044919
      1.50756      3.52594      0.07090         0.017626     -0.056005     -0.044919
      6.20028      8.88338      3.06379        -0.017626     -0.056005      0.044919
      8.80846      4.56412      4.61786         0.086829      0.054708     -0.090262
      4.11516      9.92156      4.78623        -0.086829      0.054708      0.090262
      1.50727      6.15078      1.65153        -0.086829     -0.054708      0.090262
      6.20057      0.79333      1.48316         0.086829     -0.054708     -0.090262
      6.84234      1.00217      4.76563        -0.080909      0.022213      0.022812
      6.08128      6.35961      4.63847         0.080909      0.022213     -0.022812
      3.47339      9.71273      1.50377         0.080909     -0.022213     -0.022812
      4.23445      4.35528      1.63093        -0.080909     -0.022213      0.022812
    total drift:                               -0.000000      0.000000     -0.000000

  FREE ENERGIE OF THE ION-ELECTRON SYSTEM (eV)
  free  energy   TOTEN  =      -183.8217729313 eV

  energy  without entropy=     -183.7931995396  energy(sigma->0) =     -183.80748624

volume of typ            1:    18.2 %

[...]

volume of typ            3:     7.6 %

total charge

# of ion       s       p       d       tot
    1        2.104   0.318   0.116   2.538
    2        2.104   0.318   0.116   2.538
    3        2.104   0.318   0.116   2.538
    4        2.104   0.318   0.116   2.538
    5        2.098   0.307   0.112   2.517
    6        2.098   0.307   0.112   2.517
    7        2.098   0.307   0.112   2.517
    8        2.098   0.307   0.112   2.517
    9        0.289   0.348   7.831   8.467
   10        0.289   0.347   7.828   8.465
   11        0.289   0.348   7.831   8.467
   12        0.289   0.347   7.828   8.465
   13        0.286   0.345   7.832   8.462
   14        0.286   0.344   7.832   8.462
   15        0.286   0.345   7.832   8.462
   16        0.286   0.344   7.832   8.462
   17        1.258   2.790   0.006   4.054
   18        1.258   2.791   0.006   4.055
   19        1.258   2.790   0.006   4.054
   20        1.258   2.791   0.006   4.055
   21        1.257   2.791   0.007   4.054
   22        1.257   2.791   0.007   4.055
   23        1.257   2.791   0.007   4.054
   24        1.257   2.791   0.007   4.055
   25        1.258   2.782   0.006   4.047
   26        1.258   2.781   0.006   4.046
   27        1.258   2.782   0.006   4.047
   28        1.258   2.781   0.006   4.046
   29        1.255   2.797   0.006   4.058
   30        1.255   2.795   0.006   4.056
   31        1.255   2.797   0.006   4.058
   32        1.255   2.795   0.006   4.056
tot          39.22   49.91   63.66  152.78

magnetization (x)

# of ion       s       p       d       tot
    1        0.005   0.012   0.004   0.021
    2        0.005   0.012   0.004   0.021
    3        0.005   0.012   0.004   0.021
    4        0.005   0.012   0.004   0.021
    5        0.004   0.007   0.004   0.016
    6        0.004   0.008   0.004   0.016
    7        0.004   0.007   0.004   0.016
    8        0.004   0.008   0.004   0.016
    9        0.002   0.026   1.086   1.114
   10        0.002   0.026   1.084   1.112
   11        0.002   0.026   1.086   1.114
   12        0.002   0.026   1.084   1.112
   13        0.002   0.023   1.049   1.075
   14        0.002   0.023   1.048   1.073
   15        0.002   0.023   1.049   1.075
   16        0.002   0.023   1.048   1.073
   17        0.010   0.202   0.000   0.212
   18        0.010   0.203   0.000   0.212
   19        0.010   0.202   0.000   0.212
   20        0.010   0.203   0.000   0.212
   21        0.009   0.206   0.000   0.215
   22        0.009   0.207   0.000   0.216
   23        0.009   0.206   0.000   0.215
   24        0.009   0.207   0.000   0.216
   25        0.009   0.195   0.000   0.204
   26        0.009   0.195   0.000   0.204
   27        0.009   0.195   0.000   0.204
   28        0.009   0.195   0.000   0.204
   29        0.008   0.181   0.000   0.189
   30        0.008   0.179   0.000   0.188
   31        0.008   0.181   0.000   0.189
   32        0.008   0.179   0.000   0.188
tot           0.19    3.41    8.57   12.18