 vasp.5.4.4.18Apr17-6-g9f103f2a35 (build May 12 2020 04:58:55) complex

 MD_VERSION_INFO: Compiled 2020-05-12T11:58:55-UTC in devlin.sd.materialsdesign.
 com:/home/medea2/data/build/wwolf/vasp-gpu5.4.4/13047/x86_64/src/src/build/std
 from svn 13047

 executed on                        Lin64 date 2023.03.16  14:18:02

 INCAR:
 POTCAR:    PAW_PBE Li_sv 10Sep2004
 POTCAR:    PAW_PBE Ni 02Aug2007
 POTCAR:    PAW_PBE O 08Apr2002

 POTCAR:    PAW_PBE Li_sv 10Sep2004

 POTCAR:    PAW_PBE Ni 02Aug2007

 POTCAR:    PAW_PBE O 08Apr2002

 Optimization of the real space projectors (new method)

 maximal supplied QI-value         = 22.11
 optimisation between [QCUT,QGAM] = [ 11.28, 22.77] = [ 35.61,145.23] Ry
 Optimized for a Real-space Cutoff    1.10 Angstroem

   l    n(q)    QCUT    max X(q) W(low)/X(q) W(high)/X(q)  e(spline)
   0      7    11.276    10.506    0.54E-04    0.58E-04    0.16E-07
   0      7    11.276     8.367    0.11E-03    0.14E-03    0.35E-07
   1      7    11.276     8.983    0.23E-03    0.43E-03    0.86E-07
 Optimization of the real space projectors (new method)

[...]

   l    n(q)    QCUT    max X(q) W(low)/X(q) W(high)/X(q)  e(spline)
   2      9    11.376    60.317    0.17E-03    0.16E-04    0.16E-06
   2      9    11.376    55.921    0.17E-03    0.16E-04    0.17E-06
   0     10    11.376    51.690    0.45E-04    0.60E-04    0.21E-06
   0     10    11.376    30.015    0.37E-04    0.55E-04    0.19E-06
   1     10    11.376    18.849    0.83E-04    0.11E-03    0.92E-07
   1     10    11.376    14.624    0.69E-04    0.92E-04    0.82E-07
 Optimization of the real space projectors (new method)

 maximal supplied QI-value         = 24.76
 optimisation between [QCUT,QGAM] = [ 11.39, 22.77] = [ 36.31,145.25] Ry
 Optimized for a Real-space Cutoff    1.10 Angstroem

   l    n(q)    QCUT    max X(q) W(low)/X(q) W(high)/X(q)  e(spline)
   0      7    11.387    20.381    0.22E-03    0.48E-03    0.18E-06
   0      7    11.387    15.268    0.22E-03    0.52E-03    0.19E-06
   1      7    11.387     5.964    0.22E-03    0.73E-03    0.24E-06
   1      7    11.387     5.382    0.19E-03    0.60E-03    0.21E-06

  PAW_PBE Li_sv 10Sep2004               :
  PAW_PBE Ni 02Aug2007                  :
  PAW_PBE O 08Apr2002                   :

 POSCAR: Li(NiO2)2_p4332.cif
  positions in direct lattice
 exchange correlation table for  LEXCH =       14
   RHO(1)=    0.500       N(1)  =     2000
   RHO(2)=  100.500       N(2)  =     4000

 ion  position               nearest neighbor table
   1  0.750  0.750  0.750-  42 1.93  39 1.93  48 1.93  53 1.93
   2  0.250  0.750  0.250-  41 1.93  40 1.93  47 1.93  54 1.93
   3  0.250  0.250  0.750-  44 1.93  37 1.93  46 1.93  55 1.93
   4  0.750  0.250  0.250-  43 1.93  38 1.93  45 1.93  56 1.93
   5  0.500  0.500  0.500-  35 1.93  32 1.93  26 1.93  49 1.93
   6  0.000  1.000  0.500-  36 1.93  31 1.93  25 1.93  50 1.93
   7  0.500  0.000  1.000-  33 1.93  30 1.93  28 1.93  51 1.93
   8  1.000  0.500  0.000-  34 1.93  29 1.93  27 1.93  52 1.93
   9  0.125  0.625  0.625-  25 1.89  41 1.89  35 1.90  48 1.90  52 1.90  55 1.90  18 2.83  19 2.83
                            14 2.83  16 2.83  24 2.83  23 2.83
  10  0.625  0.875  0.375-  26 1.89  42 1.89  36 1.90  47 1.90  51 1.90  56 1.90  17 2.83  20 2.83
                            13 2.83  15 2.83  23 2.83  24 2.83
  11  0.875  0.125  0.875-  27 1.89  43 1.89  33 1.90  46 1.90  50 1.90  53 1.90  17 2.83  20 2.83
                            14 2.83  16 2.83  22 2.83  21 2.83
  12  0.375  0.375  0.125-  28 1.89  44 1.89  34 1.90  45 1.90  49 1.90  54 1.90  18 2.83  19 2.83
                            13 2.83  15 2.83  21 2.83  22 2.83
  13  0.625  0.625  0.125-  29 1.89  45 1.89  39 1.90  26 1.90  51 1.90  54 1.90  19 2.83  20 2.83
                            10 2.83  12 2.83  22 2.83  23 2.83
  14  0.125  0.875  0.875-  30 1.89  46 1.89  40 1.90  25 1.90  52 1.90  53 1.90  19 2.83  20 2.83
                             9 2.83  11 2.83  21 2.83  24 2.83
  15  0.375  0.125  0.375-  31 1.89  47 1.89  37 1.90  28 1.90  49 1.90  56 1.90  17 2.83  18 2.83
                            10 2.83  12 2.83  21 2.83  24 2.83
  16  0.875  0.375  0.625-  32 1.89  48 1.89  38 1.90  27 1.90  50 1.90  55 1.90  17 2.83  18 2.83
                             9 2.83  11 2.83  22 2.83  23 2.83
  17  0.625  0.125  0.625-  33 1.89  37 1.89  32 1.90  42 1.90  50 1.90  56 1.90  15 2.83  16 2.83
                            10 2.83  11 2.83  24 2.83  22 2.83
  18  0.125  0.375  0.375-  34 1.89  38 1.89  31 1.90  41 1.90  49 1.90  55 1.90  15 2.83  16 2.83
                             9 2.83  12 2.83  23 2.83  21 2.83
  19  0.375  0.625  0.875-  35 1.89  39 1.89  30 1.90  44 1.90  52 1.90  54 1.90  13 2.83  14 2.83
                             9 2.83  12 2.83  22 2.83  24 2.83
  20  0.875  0.875  0.125-  36 1.89  40 1.89  29 1.90  43 1.90  51 1.90  53 1.90  13 2.83  14 2.83
                            10 2.83  11 2.83  21 2.83  23 2.83
  21  0.125  0.125  0.125-  28 1.90  31 1.90  34 1.90  40 1.90  43 1.90  46 1.90  12 2.83  20 2.83
                            18 2.83  11 2.83  14 2.83  15 2.83
  22  0.625  0.375  0.875-  27 1.90  32 1.90  33 1.90  39 1.90  44 1.90  45 1.90  11 2.83  19 2.83
                            17 2.83  12 2.83  13 2.83  16 2.83
  23  0.875  0.625  0.375-  26 1.90  29 1.90  36 1.90  38 1.90  41 1.90  48 1.90  10 2.83  18 2.83
                             9 2.83  20 2.83  13 2.83  16 2.83
  24  0.375  0.875  0.625-  25 1.90  30 1.90  35 1.90  37 1.90  42 1.90  47 1.90   9 2.83  17 2.83
                            10 2.83  19 2.83  14 2.83  15 2.83
  25  0.139  0.860  0.639-   9 1.89  14 1.90  24 1.90   6 1.93
  26  0.639  0.640  0.361-  10 1.89  13 1.90  23 1.90   5 1.93
  27  0.861  0.360  0.861-  11 1.89  16 1.90  22 1.90   8 1.93
  28  0.361  0.140  0.139-  12 1.89  15 1.90  21 1.90   7 1.93
  29  0.860  0.639  0.139-  13 1.89  20 1.90  23 1.90   8 1.93
  30  0.360  0.861  0.861-  14 1.89  19 1.90  24 1.90   7 1.93
  31  0.140  0.139  0.361-  15 1.89  18 1.90  21 1.90   6 1.93
  32  0.640  0.361  0.639-  16 1.89  17 1.90  22 1.90   5 1.93
  33  0.639  0.139  0.860-  17 1.89  11 1.90  22 1.90   7 1.93
  34  0.139  0.361  0.140-  18 1.89  12 1.90  21 1.90   8 1.93
  35  0.361  0.639  0.640-  19 1.89   9 1.90  24 1.90   5 1.93
  36  0.861  0.861  0.360-  20 1.89  10 1.90  23 1.90   6 1.93
  37  0.390  0.111  0.611-  17 1.89  15 1.90  24 1.90   3 1.93
  38  0.890  0.389  0.389-  18 1.89  16 1.90  23 1.90   4 1.93
  39  0.610  0.611  0.889-  19 1.89  13 1.90  22 1.90   1 1.93
  40  0.110  0.889  0.111-  20 1.89  14 1.90  21 1.90   2 1.93
  41  0.111  0.611  0.390-   9 1.89  18 1.90  23 1.90   2 1.93
  42  0.611  0.889  0.610-  10 1.89  17 1.90  24 1.90   1 1.93
  43  0.889  0.111  0.110-  11 1.89  20 1.90  21 1.90   4 1.93
  44  0.389  0.389  0.890-  12 1.89  19 1.90  22 1.90   3 1.93
  45  0.611  0.390  0.111-  13 1.89  12 1.90  22 1.90   4 1.93
  46  0.111  0.110  0.889-  14 1.89  11 1.90  21 1.90   3 1.93
  47  0.389  0.890  0.389-  15 1.89  10 1.90  24 1.90   2 1.93
  48  0.889  0.610  0.611-  16 1.89   9 1.90  23 1.90   1 1.93
  49  0.361  0.361  0.361-  12 1.90  15 1.90  18 1.90   5 1.93
  50  0.861  0.139  0.639-  11 1.90  16 1.90  17 1.90   6 1.93
  51  0.639  0.861  0.139-  10 1.90  13 1.90  20 1.90   7 1.93
  52  0.139  0.639  0.861-   9 1.90  14 1.90  19 1.90   8 1.93
  53  0.889  0.889  0.889-  11 1.90  14 1.90  20 1.90   1 1.93
  54  0.389  0.611  0.111-  12 1.90  13 1.90  19 1.90   2 1.93
  55  0.111  0.389  0.611-   9 1.90  16 1.90  18 1.90   3 1.93
  56  0.611  0.111  0.389-  10 1.90  15 1.90  17 1.90   4 1.93

  LATTYP: Found a simple cubic cell.
 ALAT       =     8.0116379300

  Lattice vectors:

 A1 = (   8.0116379300,   0.0000000000,   0.0000000000)
 A2 = (   0.0000000000,   8.0116379300,   0.0000000000)
 A3 = (   0.0000000000,   0.0000000000,   8.0116379300)

Analysis of symmetry for initial positions (statically):
 Subroutine PRICEL returns:
 Original cell was already a primitive cell.

 Routine SETGRP: Setting up the symmetry group for a
 simple cubic supercell.

 Subroutine GETGRP returns: Found 24 space group operations
 (whereof  3 operations were pure point group operations)
 out of a pool of 48 trial point group operations.

The static configuration has the point symmetry C_3 .
 The point group associated with its full space group is O   .

Analysis of symmetry for dynamics (positions and initial velocities):
 Subroutine PRICEL returns:
 Original cell was already a primitive cell.

[...]

The dynamic configuration has the point symmetry C_3 .
 The point group associated with its full space group is O   .

Analysis of structural, dynamic, and magnetic symmetry:
 Subroutine PRICEL returns:
 Original cell was already a primitive cell.

 Routine SETGRP: Setting up the symmetry group for a
 simple cubic supercell.

 Subroutine GETGRP returns: Found 24 space group operations
 (whereof  3 operations were pure point group operations)
 out of a pool of 48 trial point group operations.

The magnetic configuration has the point symmetry C_3 .
 The point group associated with its full space group is O   .

 Subroutine INISYM returns: Found 24 space group operations
 (whereof  3 operations are pure point group operations),
 and found     1 'primitive' translations

 KPOINTS: Automatic mesh

Automatic generation of k-mesh.
Space group operators:
 irot       det(A)        alpha          n_x          n_y          n_z        tau_x        tau_y        tau_z
    1     1.000000     0.000000     1.000000     0.000000     0.000000     0.000000     0.000000     0.000000
    2     1.000000   120.000000    -0.577350    -0.577350    -0.577350     0.000000     0.000000     0.000000
    3     1.000000   120.000000     0.577350     0.577350     0.577350     0.000000     0.000000     0.000000
    4     1.000000    90.000000     0.000000     0.000000    -1.000000     0.750000     0.250000     0.750000
    5     1.000000   180.000000     0.000000     0.707107     0.707107     0.750000     0.250000     0.750000
    6     1.000000    90.000000     0.000000     1.000000     0.000000     0.750000     0.250000     0.750000
    7     1.000000   180.000000     0.000000     0.000000     1.000000     0.500000     0.000000     0.500000
    8     1.000000   120.000000    -0.577350     0.577350     0.577350     0.500000     0.000000     0.500000
    9     1.000000   120.000000    -0.577350     0.577350    -0.577350     0.500000     0.000000     0.500000
   10     1.000000    90.000000     0.000000     0.000000     1.000000     0.750000     0.750000     0.250000
   11     1.000000    90.000000    -1.000000     0.000000     0.000000     0.750000     0.750000     0.250000
   12     1.000000   180.000000     0.707107     0.000000     0.707107     0.750000     0.750000     0.250000
   13     1.000000   120.000000     0.577350    -0.577350     0.577350     0.500000     0.500000     0.000000
   14     1.000000   120.000000    -0.577350    -0.577350     0.577350     0.500000     0.500000     0.000000
   15     1.000000   180.000000     1.000000     0.000000     0.000000     0.500000     0.500000     0.000000
[...]
   0.536E-02 -.536E-02 0.536E-02   0.102E-02 -.102E-02 0.102E-02   0.470E-02 -.470E-02 0.470E-02   0.409E-03 -.409E-03 0.409E-03
   0.536E-02 0.536E-02 -.536E-02   0.102E-02 0.102E-02 -.102E-02   0.470E-02 0.470E-02 -.470E-02   0.409E-03 0.409E-03 -.409E-03
   0.235E-06 -.679E-01 0.679E-01   0.142E-12 0.728E-01 -.728E-01   0.000E+00 -.126E-01 0.126E-01   -.864E-13 -.296E-02 0.296E-02
   0.235E-06 0.679E-01 -.679E-01   0.179E-12 -.728E-01 0.728E-01   -.102E-19 0.126E-01 -.126E-01   -.142E-12 0.296E-02 -.296E-02
   -.106E-06 -.679E-01 -.679E-01   0.128E-12 0.728E-01 0.728E-01   0.339E-20 -.126E-01 -.126E-01   0.127E-12 -.296E-02 -.296E-02
   -.106E-06 0.679E-01 0.679E-01   0.782E-13 -.728E-01 -.728E-01   0.678E-20 0.126E-01 0.126E-01   0.349E-12 0.296E-02 0.296E-02
   -.679E-01 0.679E-01 -.123E-10   0.728E-01 -.728E-01 0.284E-13   -.126E-01 0.126E-01 0.000E+00   -.296E-02 0.296E-02 0.225E-12
   -.679E-01 -.679E-01 -.126E-05   0.728E-01 0.728E-01 0.189E-13   -.126E-01 -.126E-01 -.106E-20   -.296E-02 -.296E-02 -.162E-14
   0.679E-01 0.679E-01 0.126E-05   -.728E-01 -.728E-01 0.178E-14   0.126E-01 0.126E-01 0.678E-20   0.296E-02 0.296E-02 0.292E-12
   0.679E-01 -.679E-01 -.486E-11   -.728E-01 0.728E-01 -.817E-13   0.126E-01 -.126E-01 -.847E-21   0.296E-02 -.296E-02 -.562E-12
   0.679E-01 -.235E-06 -.679E-01   -.728E-01 0.444E-13 0.728E-01   0.126E-01 0.000E+00 -.126E-01   0.296E-02 -.215E-12 -.296E-02
   0.679E-01 0.106E-06 0.679E-01   -.728E-01 0.107E-13 -.728E-01   0.126E-01 0.339E-20 0.126E-01   0.296E-02 0.582E-13 0.296E-02
   -.679E-01 -.235E-06 0.679E-01   0.728E-01 -.755E-14 -.728E-01   -.126E-01 0.339E-20 0.126E-01   -.296E-02 -.276E-12 0.296E-02
   -.679E-01 0.106E-06 -.679E-01   0.728E-01 0.107E-12 0.728E-01   -.126E-01 0.000E+00 -.126E-01   -.296E-02 0.462E-12 -.296E-02
   -.219E-07 0.219E-07 0.606E-11   0.613E-13 0.422E-14 0.639E-13   -.678E-20 0.000E+00 0.000E+00   -.191E-12 -.258E-12 0.699E-13
   -.219E-07 -.219E-07 -.473E-11   0.126E-12 -.178E-13 -.271E-13   -.339E-20 0.678E-20 0.119E-19   -.329E-12 0.214E-13 -.132E-12
   0.219E-07 0.219E-07 -.148E-10   0.604E-13 -.977E-14 -.115E-13   0.102E-19 0.000E+00 0.508E-20   -.506E-14 0.177E-13 0.283E-12
   0.219E-07 -.219E-07 -.109E-10   0.995E-13 0.284E-13 0.142E-13   0.212E-20 -.106E-19 -.169E-20   0.428E-12 0.384E-12 -.632E-12
   0.174E+03 -.175E+03 0.176E+03   -.183E+03 0.185E+03 -.185E+03   0.930E+01 -.938E+01 0.937E+01   -.651E-02 -.296E-02 0.403E-02
   0.174E+03 0.175E+03 -.176E+03   -.183E+03 -.185E+03 0.185E+03   0.930E+01 0.938E+01 -.937E+01   -.651E-02 0.296E-02 -.403E-02
   -.174E+03 -.175E+03 -.176E+03   0.183E+03 0.185E+03 0.185E+03   -.930E+01 -.938E+01 -.937E+01   0.651E-02 -.296E-02 -.403E-02
   -.174E+03 0.175E+03 0.176E+03   0.183E+03 -.185E+03 -.185E+03   -.930E+01 0.938E+01 0.937E+01   0.651E-02 0.296E-02 0.403E-02
   -.175E+03 0.176E+03 0.174E+03   0.185E+03 -.185E+03 -.183E+03   -.938E+01 0.937E+01 0.930E+01   -.296E-02 0.403E-02 -.651E-02
   -.175E+03 -.176E+03 -.174E+03   0.185E+03 0.185E+03 0.183E+03   -.938E+01 -.937E+01 -.930E+01   -.296E-02 -.403E-02 0.651E-02
   0.175E+03 0.176E+03 -.174E+03   -.185E+03 -.185E+03 0.183E+03   0.938E+01 0.937E+01 -.930E+01   0.296E-02 0.403E-02 0.651E-02
   0.175E+03 -.176E+03 0.174E+03   -.185E+03 0.185E+03 -.183E+03   0.938E+01 -.937E+01 0.930E+01   0.296E-02 -.403E-02 -.651E-02
   0.176E+03 0.174E+03 -.175E+03   -.185E+03 -.183E+03 0.185E+03   0.937E+01 0.930E+01 -.938E+01   0.403E-02 -.651E-02 -.296E-02
   0.176E+03 -.174E+03 0.175E+03   -.185E+03 0.183E+03 -.185E+03   0.937E+01 -.930E+01 0.938E+01   0.403E-02 0.651E-02 0.296E-02
   -.176E+03 0.174E+03 0.175E+03   0.185E+03 -.183E+03 -.185E+03   -.937E+01 0.930E+01 0.938E+01   -.403E-02 -.651E-02 0.296E-02
   -.176E+03 -.174E+03 -.175E+03   0.185E+03 0.183E+03 0.185E+03   -.937E+01 -.930E+01 -.938E+01   -.403E-02 0.651E-02 -.296E-02
   0.175E+03 -.174E+03 -.176E+03   -.185E+03 0.183E+03 0.185E+03   0.938E+01 -.930E+01 -.937E+01   0.296E-02 0.651E-02 -.403E-02
   0.175E+03 0.174E+03 0.176E+03   -.185E+03 -.183E+03 -.185E+03   0.938E+01 0.930E+01 0.937E+01   0.296E-02 -.651E-02 0.403E-02
   -.175E+03 -.174E+03 0.176E+03   0.185E+03 0.183E+03 -.185E+03   -.938E+01 -.930E+01 0.937E+01   -.296E-02 0.651E-02 0.403E-02
   -.175E+03 0.174E+03 -.176E+03   0.185E+03 -.183E+03 0.185E+03   -.938E+01 0.930E+01 -.937E+01   -.296E-02 -.651E-02 -.403E-02
   -.174E+03 -.176E+03 0.175E+03   0.183E+03 0.185E+03 -.185E+03   -.930E+01 -.937E+01 0.938E+01   0.651E-02 -.403E-02 0.296E-02
   -.174E+03 0.176E+03 -.175E+03   0.183E+03 -.185E+03 0.185E+03   -.930E+01 0.937E+01 -.938E+01   0.651E-02 0.403E-02 -.296E-02
   0.174E+03 -.176E+03 -.175E+03   -.183E+03 0.185E+03 0.185E+03   0.930E+01 -.937E+01 -.938E+01   -.651E-02 -.403E-02 -.296E-02
   0.174E+03 0.176E+03 0.175E+03   -.183E+03 -.185E+03 -.185E+03   0.930E+01 0.937E+01 0.938E+01   -.651E-02 0.403E-02 0.296E-02
   -.176E+03 0.175E+03 -.174E+03   0.185E+03 -.185E+03 0.183E+03   -.937E+01 0.938E+01 -.930E+01   -.403E-02 0.296E-02 0.651E-02
   -.176E+03 -.175E+03 0.174E+03   0.185E+03 0.185E+03 -.183E+03   -.937E+01 -.938E+01 0.930E+01   -.403E-02 -.296E-02 -.651E-02
   0.176E+03 0.175E+03 0.174E+03   -.185E+03 -.185E+03 -.183E+03   0.937E+01 0.938E+01 0.930E+01   0.403E-02 0.296E-02 -.651E-02
   0.176E+03 -.175E+03 -.174E+03   -.185E+03 0.185E+03 0.183E+03   0.937E+01 -.938E+01 -.930E+01   0.403E-02 -.296E-02 0.651E-02
   -.175E+03 -.175E+03 -.175E+03   0.185E+03 0.185E+03 0.185E+03   -.943E+01 -.943E+01 -.943E+01   -.286E-02 -.286E-02 -.286E-02
   -.175E+03 0.175E+03 0.175E+03   0.185E+03 -.185E+03 -.185E+03   -.943E+01 0.943E+01 0.943E+01   -.286E-02 0.286E-02 0.286E-02
   0.175E+03 -.175E+03 0.175E+03   -.185E+03 0.185E+03 -.185E+03   0.943E+01 -.943E+01 0.943E+01   0.286E-02 -.286E-02 0.286E-02
   0.175E+03 0.175E+03 -.175E+03   -.185E+03 -.185E+03 0.185E+03   0.943E+01 0.943E+01 -.943E+01   0.286E-02 0.286E-02 -.286E-02
   0.175E+03 0.175E+03 0.175E+03   -.185E+03 -.185E+03 -.185E+03   0.943E+01 0.943E+01 0.943E+01   0.286E-02 0.286E-02 0.286E-02
   0.175E+03 -.175E+03 -.175E+03   -.185E+03 0.185E+03 0.185E+03   0.943E+01 -.943E+01 -.943E+01   0.286E-02 -.286E-02 -.286E-02
   -.175E+03 0.175E+03 -.175E+03   0.185E+03 -.185E+03 0.185E+03   -.943E+01 0.943E+01 -.943E+01   -.286E-02 0.286E-02 -.286E-02
   -.175E+03 -.175E+03 0.175E+03   0.185E+03 0.185E+03 -.185E+03   -.943E+01 -.943E+01 0.943E+01   -.286E-02 -.286E-02 0.286E-02
   -.271E-07 0.271E-07 -.180E-10   0.199E-12 -.568E-13 0.341E-12   -.160E-13 -.160E-13 0.178E-14   0.380E-12 0.367E-12 -.107E-11

 POSITION                                       TOTAL-FORCE (eV/Angst)
      6.00556      6.00556      6.00556         0.011486      0.011486      0.011486
      1.99974      6.01189      2.00607         0.011486     -0.011486     -0.011486
      2.00607      1.99974      6.01189        -0.011486      0.011486     -0.011486
      6.01189      2.00607      1.99974        -0.011486     -0.011486      0.011486
      4.00898      4.00898      4.00898        -0.011486     -0.011486     -0.011486
      0.00317      8.00847      4.00265        -0.011486      0.011486      0.011486
      4.00265      0.00317      8.00847         0.011486     -0.011486      0.011486
      8.00847      4.00265      0.00317         0.011486      0.011486     -0.011486
      1.00145      5.00560      5.00895        -0.000000     -0.010709      0.010709
      5.00727      7.01186      3.00269        -0.000000      0.010709     -0.010709
      7.01018      0.99978      7.00851        -0.000000     -0.010709     -0.010709
      3.00436      3.00604      1.00313        -0.000000      0.010709      0.010709
      5.00560      5.00895      1.00145        -0.010709      0.010709     -0.000000
      0.99978      7.00851      7.01018        -0.010709     -0.010709     -0.000000
      3.00604      1.00313      3.00436         0.010709      0.010709     -0.000000
      7.01186      3.00269      5.00727         0.010709     -0.010709     -0.000000
      5.00895      1.00145      5.00560         0.010709      0.000000     -0.010709
      1.00313      3.00436      3.00604         0.010709      0.000000      0.010709
      3.00269      5.00727      7.01186        -0.010709      0.000000      0.010709
      7.00851      7.01018      0.99978        -0.010709      0.000000     -0.010709
      1.00145      1.00145      1.00145        -0.000000      0.000000     -0.000000
      5.00727      3.00436      7.01018        -0.000000      0.000000     -0.000000
      7.01018      5.00727      3.00436        -0.000000      0.000000     -0.000000
      3.00436      7.01018      5.00727        -0.000000      0.000000     -0.000000
      1.11325      6.89369      5.12160         0.007645      0.011885     -0.006387
      5.11907      5.12376      2.89004         0.007645     -0.011885      0.006387
      6.89839      2.88787      6.89586        -0.007645      0.011885      0.006387
      2.89257      1.11795      1.11578        -0.007645     -0.011885     -0.006387
      6.89369      5.12160      1.11325         0.011885     -0.006387      0.007645
      2.88787      6.89586      6.89839         0.011885      0.006387     -0.007645
      1.11795      1.11578      2.89257        -0.011885     -0.006387     -0.007645
      5.12376      2.89004      5.11907        -0.011885      0.006387      0.007645
      5.12160      1.11325      6.89369        -0.006387      0.007645      0.011885
      1.11578      2.89257      1.11795        -0.006387     -0.007645     -0.011885
      2.89004      5.11907      5.12376         0.006387      0.007645     -0.011885
      6.89586      6.89839      2.88787         0.006387     -0.007645      0.011885
      3.12085      0.88966      4.89295        -0.011885     -0.007645      0.006387
      7.12667      3.11616      3.11869        -0.011885      0.007645     -0.006387
      4.89078      4.89548      7.12451         0.011885     -0.007645     -0.006387
      0.88496      7.12198      0.88713         0.011885      0.007645      0.006387
      0.88966      4.89295      3.12085        -0.007645      0.006387     -0.011885
      4.89548      7.12451      4.89078        -0.007645     -0.006387      0.011885
      7.12198      0.88713      0.88496         0.007645      0.006387      0.011885
      3.11616      3.11869      7.12667         0.007645     -0.006387     -0.011885
      4.89295      3.12085      0.88966         0.006387     -0.011885     -0.007645
      0.88713      0.88496      7.12198         0.006387      0.011885      0.007645
      3.11869      7.12667      3.11616        -0.006387     -0.011885      0.007645
      7.12451      4.89078      4.89548        -0.006387      0.011885     -0.007645
      2.89255      2.89255      2.89255         0.003937      0.003937      0.003937
      6.89837      1.11327      5.11909         0.003937     -0.003937     -0.003937
      5.11909      6.89837      1.11327        -0.003937      0.003937     -0.003937
      1.11327      5.11909      6.89837        -0.003937     -0.003937      0.003937
      7.12200      7.12200      7.12200        -0.003937     -0.003937     -0.003937
      3.11618      4.89546      0.88964        -0.003937      0.003937      0.003937
      0.88964      3.11618      4.89546         0.003937     -0.003937      0.003937
      4.89546      0.88964      3.11618         0.003937      0.003937     -0.003937
    total drift:                               -0.000000      0.000000     -0.000000

  FREE ENERGIE OF THE ION-ELECTRON SYSTEM (eV)
  free  energy   TOTEN  =      -344.5198163002 eV

  energy  without entropy=     -344.4557282477  energy(sigma->0) =     -344.48777227

volume of typ            1:    12.1 %

[...]

volume of typ            3:    10.1 %

total charge

# of ion       s       p       d       tot
    1        2.110   0.326   0.120   2.556
    2        2.110   0.326   0.120   2.556
    3        2.110   0.326   0.120   2.556
    4        2.110   0.326   0.120   2.556
    5        2.110   0.326   0.120   2.556
    6        2.110   0.326   0.120   2.556
    7        2.110   0.326   0.120   2.556
    8        2.110   0.326   0.120   2.556
    9        0.283   0.378   7.809   8.470
   10        0.283   0.379   7.832   8.495
   11        0.283   0.379   7.841   8.503
   12        0.283   0.379   7.827   8.489
   13        0.283   0.378   7.808   8.470
   14        0.283   0.379   7.832   8.494
   15        0.283   0.379   7.841   8.503
   16        0.283   0.379   7.827   8.489
   17        0.283   0.378   7.808   8.470
   18        0.283   0.379   7.832   8.494
   19        0.283   0.379   7.840   8.503
   20        0.283   0.379   7.827   8.489
   21        0.282   0.375   7.808   8.465
   22        0.282   0.375   7.833   8.491
   23        0.282   0.376   7.843   8.500
   24        0.282   0.376   7.828   8.486
   25        1.267   2.768   0.006   4.041
   26        1.267   2.771   0.006   4.044
   27        1.267   2.779   0.007   4.052
   28        1.267   2.773   0.006   4.046
   29        1.267   2.773   0.006   4.047
   30        1.267   2.779   0.007   4.053
   31        1.267   2.771   0.006   4.044
   32        1.267   2.768   0.006   4.041
   33        1.267   2.771   0.006   4.044
   34        1.267   2.768   0.006   4.041
   35        1.267   2.773   0.006   4.046
   36        1.267   2.779   0.007   4.052
   37        1.267   2.773   0.006   4.046
   38        1.267   2.779   0.007   4.053
   39        1.267   2.771   0.006   4.044
   40        1.267   2.768   0.006   4.041
   41        1.267   2.771   0.006   4.044
   42        1.267   2.768   0.006   4.041
   43        1.267   2.773   0.006   4.046
   44        1.267   2.779   0.007   4.052
   45        1.267   2.768   0.006   4.041
   46        1.267   2.771   0.006   4.044
   47        1.267   2.779   0.007   4.053
   48        1.267   2.773   0.006   4.047
   49        1.267   2.778   0.007   4.052
   50        1.267   2.772   0.006   4.046
   51        1.267   2.768   0.006   4.041
   52        1.267   2.770   0.006   4.043
   53        1.267   2.778   0.007   4.052
   54        1.267   2.772   0.006   4.046
   55        1.267   2.768   0.006   4.041
   56        1.267   2.770   0.006   4.043
tot          61.94   97.38  126.41  285.73

magnetization (x)

# of ion       s       p       d       tot
    1        0.004   0.008   0.001   0.013
    2        0.004   0.008   0.001   0.013
    3        0.004   0.008   0.001   0.013
    4        0.004   0.008   0.001   0.013
    5        0.004   0.008   0.001   0.013
    6        0.004   0.008   0.001   0.013
    7        0.004   0.008   0.001   0.013
    8        0.004   0.008   0.001   0.013
    9       -0.001  -0.000   0.314   0.313
   10       -0.001  -0.000   0.340   0.339
   11       -0.001   0.000   0.350   0.350
   12       -0.001   0.000   0.335   0.335
   13       -0.001  -0.000   0.313   0.312
   14       -0.001  -0.000   0.340   0.339
   15       -0.001   0.000   0.350   0.350
   16       -0.001   0.000   0.335   0.335
   17       -0.001  -0.000   0.313   0.312
   18       -0.001  -0.000   0.340   0.339
   19       -0.001   0.000   0.350   0.349
   20       -0.001   0.000   0.335   0.335
   21       -0.001  -0.000   0.334   0.333
   22       -0.000  -0.000   0.362   0.361
   23       -0.000   0.000   0.373   0.372
   24       -0.000   0.000   0.357   0.357
   25        0.007   0.037   0.000   0.044
   26        0.007   0.039   0.000   0.046
   27        0.007   0.047   0.000   0.054
   28        0.007   0.042   0.000   0.049
   29        0.007   0.042   0.000   0.049
   30        0.007   0.047   0.000   0.055
   31        0.007   0.040   0.000   0.047
   32        0.007   0.038   0.000   0.044
   33        0.007   0.040   0.000   0.047
   34        0.007   0.037   0.000   0.044
   35        0.007   0.042   0.000   0.049
   36        0.007   0.047   0.000   0.054
   37        0.007   0.042   0.000   0.049
   38        0.007   0.047   0.000   0.054
   39        0.007   0.040   0.000   0.047
   40        0.007   0.037   0.000   0.044
   41        0.007   0.039   0.000   0.046
   42        0.007   0.037   0.000   0.044
   43        0.007   0.042   0.000   0.049
   44        0.007   0.047   0.000   0.054
   45        0.007   0.037   0.000   0.044
   46        0.007   0.040   0.000   0.047
   47        0.007   0.047   0.000   0.055
   48        0.007   0.042   0.000   0.049
   49        0.007   0.045   0.000   0.053
   50        0.007   0.040   0.000   0.047
   51        0.007   0.036   0.000   0.043
   52        0.007   0.038   0.000   0.045
   53        0.007   0.045   0.000   0.053
   54        0.007   0.040   0.000   0.047
   55        0.007   0.036   0.000   0.043
   56        0.007   0.038   0.000   0.045
tot           0.25    1.37    5.46    7.08