 vasp.5.4.4.18Apr17-6-g9f103f2a35 (build May 12 2020 05:39:39) gamma-only

 MD_VERSION_INFO: Compiled 2020-05-12T12:39:39-UTC in devlin.sd.materialsdesign.
 com:/home/medea2/data/build/wwolf/vasp-gpu5.4.4/13047/x86_64/src/src/build/gam
 from svn 13047

 executed on                        Lin64 date 2023.03.20  07:29:24

 INCAR:
 POTCAR:    PAW_PBE Li_sv 10Sep2004
 POTCAR:    PAW_PBE Ta_pv 07Sep2000
 POTCAR:    PAW_PBE Ni 02Aug2007
 POTCAR:    PAW_PBE O 08Apr2002

 POTCAR:    PAW_PBE Li_sv 10Sep2004

 POTCAR:    PAW_PBE Ta_pv 07Sep2000

 POTCAR:    PAW_PBE Ni 02Aug2007

 POTCAR:    PAW_PBE O 08Apr2002

 Optimization of the real space projectors (new method)

 maximal supplied QI-value         = 22.11
 optimisation between [QCUT,QGAM] = [ 11.28, 22.77] = [ 35.61,145.23] Ry
 Optimized for a Real-space Cutoff    1.10 Angstroem

   l    n(q)    QCUT    max X(q) W(low)/X(q) W(high)/X(q)  e(spline)
   0      7    11.276    10.506    0.54E-04    0.58E-04    0.16E-07
   0      7    11.276     8.367    0.11E-03    0.14E-03    0.35E-07
   1      7    11.276     8.983    0.23E-03    0.43E-03    0.86E-07
 Optimization of the real space projectors (new method)

[...]

   l    n(q)    QCUT    max X(q) W(low)/X(q) W(high)/X(q)  e(spline)
   2      9    11.376    60.317    0.17E-03    0.16E-04    0.16E-06
   2      9    11.376    55.921    0.17E-03    0.16E-04    0.17E-06
   0     10    11.376    51.690    0.45E-04    0.60E-04    0.21E-06
   0     10    11.376    30.015    0.37E-04    0.55E-04    0.19E-06
   1     10    11.376    18.849    0.83E-04    0.11E-03    0.92E-07
   1     10    11.376    14.624    0.69E-04    0.92E-04    0.82E-07
 Optimization of the real space projectors (new method)

 maximal supplied QI-value         = 24.76
 optimisation between [QCUT,QGAM] = [ 11.39, 22.77] = [ 36.31,145.25] Ry
 Optimized for a Real-space Cutoff    1.10 Angstroem

   l    n(q)    QCUT    max X(q) W(low)/X(q) W(high)/X(q)  e(spline)
   0      7    11.387    20.381    0.22E-03    0.48E-03    0.18E-06
   0      7    11.387    15.268    0.22E-03    0.52E-03    0.19E-06
   1      7    11.387     5.964    0.22E-03    0.73E-03    0.24E-06
   1      7    11.387     5.382    0.19E-03    0.60E-03    0.21E-06

  PAW_PBE Li_sv 10Sep2004               :
  PAW_PBE Ta_pv 07Sep2000               :
  PAW_PBE Ni 02Aug2007                  :
  PAW_PBE O 08Apr2002                   :

 POSCAR: ConfSearched 4.2 ce283491_1_2x1x2_2
  positions in direct lattice
 exchange correlation table for  LEXCH =       14
   RHO(1)=    0.500       N(1)  =     2000
   RHO(2)=  100.500       N(2)  =     4000

 ion  position               nearest neighbor table
   1  0.005  0.498  0.500- 328 2.07 227 2.08 329 2.11 226 2.14 208 2.15 347 2.21  83 2.83
   2  0.059  0.833  0.111- 174 2.04 187 2.08 169 2.14 193 2.15 192 2.18 294 2.20
   3  0.101  0.165  0.057- 170 1.96 171 2.02 261 2.13 194 2.21 177 2.23  65 2.81  91 2.82
   4  0.181  0.500  0.010- 178 1.96 179 2.01 173 2.06 268 2.14  69 2.79  68 2.79
   5  0.225  0.833  0.099- 175 1.96 180 2.02 174 2.05 199 2.15  67 2.79  69 2.80
   6  0.486  0.499  0.162- 203 1.96 184 2.01 298 2.06 185 2.13  81 2.79  71 2.79
   7  0.072  0.837  0.292- 211 1.94 210 1.98 192 2.11 313 2.28  85 2.78  84 2.83
   8  0.277  0.170  0.226- 201 2.03 194 2.10 218 2.12 195 2.13 177 2.20 200 2.20  77 2.84
   9  0.388  0.833  0.283- 222 2.09 217 2.10 198 2.12 205 2.15 204 2.20 199 2.25
  10  0.440  0.166  0.206- 188 1.97 183 2.04 297 2.04 200 2.15  71 2.80  73 2.80
  11  0.110  0.167  0.386- 207 2.02 176 2.09 189 2.09 212 2.13 213 2.16 206 2.19
  12  0.162  0.502  0.328- 190 2.08 215 2.08 196 2.12 209 2.14 191 2.15 214 2.22  75 2.84
  13  0.292  0.169  0.406- 219 1.96 182 2.00 213 2.04 218 2.05  89 2.76  97 2.78
  14  0.333  0.500  0.326- 202 1.97 197 1.97 221 2.17 196 2.17 215 2.26 220 2.27  80 2.80  78 2.81

  15  0.373  0.835  0.446- 216 2.01 181 2.02 217 2.06 240 2.10  97 2.77  87 2.78
  16  0.004  0.498  0.999- 382 2.08 173 2.09 383 2.11 262 2.14 172 2.16 293 2.22 110 2.84
  17  0.063  0.831  0.622- 241 2.01 228 2.04 247 2.10 246 2.13 348 2.20 223 2.26 102 2.81  61 3.03

[...]

  46  0.504  0.498  0.999- 281 2.08 274 2.08 275 2.12 280 2.14 370 2.15 185 2.22 161 2.84
  47  0.555  0.834  0.611- 336 2.00 349 2.05 331 2.15 240 2.16 354 2.18 355 2.21
  48  0.598  0.163  0.556- 332 1.96 333 1.97 315 2.14 356 2.23 118 2.79 144 2.82
  49  0.681  0.500  0.511- 340 1.96 341 2.01 335 2.06 322 2.13 147 2.79 148 2.79
  50  0.721  0.831  0.604- 342 1.95 337 1.98 336 2.05 361 2.19 355 2.22 146 2.78 148 2.84
  51  0.985  0.500  0.662- 365 1.96 346 2.01 244 2.06 347 2.13 159 2.79 149 2.79
  52  0.566  0.835  0.790- 373 1.96 372 2.02 354 2.13 259 2.21 258 2.23 162 2.81 163 2.82
  53  0.776  0.167  0.726- 356 2.12 380 2.13 357 2.13 363 2.13 339 2.14 362 2.24
  54  0.890  0.833  0.783- 367 2.12 379 2.13 384 2.13 360 2.13 366 2.14 361 2.24
  55  0.946  0.169  0.716- 345 1.95 350 1.98 243 2.05 362 2.19 260 2.22 151 2.78 149 2.84
  56  0.608  0.167  0.885- 351 2.04 338 2.08 374 2.14 368 2.15 369 2.18 375 2.20
  57  0.662  0.502  0.828- 377 2.08 352 2.09 358 2.11 353 2.14 371 2.16 376 2.22 153 2.84
  58  0.791  0.168  0.905- 381 1.96 344 2.01 380 2.06 375 2.08 167 2.77 124 2.77
  59  0.833  0.500  0.827- 359 1.97 364 1.97 358 2.18 383 2.18 377 2.26 382 2.26 156 2.81 158 2.81

  60  0.876  0.832  0.948- 378 1.96 343 2.01 379 2.06 294 2.08 165 2.77 124 2.77
  61  0.016  0.004  0.506- 225 1.89 207 1.93 228 1.95 327 2.08 348 2.08 330 2.10  94 2.71 103 2.75
                            18 2.85 136 2.87 151 2.95  17 3.03  63 3.15  64 3.17
  62  0.651  0.996  0.324- 318 1.89 300 1.93 297 1.95 324 2.08 321 2.08 303 2.10  73 2.71  82 2.75
                            37 2.85 130 2.87 146 2.95  41 3.03  63 3.15  64 3.17
  63  0.833  0.000  0.318- 306 1.93 309 1.93 303 1.98 330 1.98 327 2.10 324 2.10 133 2.70 130 2.76
                           136 2.76  38 2.95  39 2.95  61 3.15  62 3.15  64 3.35
  64  0.833  0.000  0.515- 342 1.90 345 1.90 321 2.00 348 2.00 324 2.13 327 2.13 157 2.69 151 2.77
                           146 2.77  43 3.02  45 3.02  62 3.17  61 3.17  63 3.35
  65  0.058  0.332  0.112- 170 1.85 293 1.87 191 1.89 194 1.90 296 2.05 173 2.07  77 2.79   3 2.81
                            68 2.82  74 2.84 167 2.85 110 2.85 125 2.88
  66  0.113  0.666  0.056- 178 1.85 175 1.86 193 1.87 262 1.87 169 1.90 172 1.90  69 2.80 168 2.81
                            75 2.82  78 2.83 126 2.83 111 2.84
  67  0.167  0.998  0.001- 180 1.84 261 1.85 264 1.96 177 1.97 174 1.98 267 2.00  79 2.78   5 2.79
                            91 2.81 160 2.82  70 2.83  76 2.84 112 2.84
  68  0.224  0.336  0.111- 179 1.86 194 1.86 173 1.90 200 1.91 197 2.04 230 2.07   4 2.79  71 2.80
                            65 2.82 113 2.83  80 2.85 110 2.85  77 2.88
  69  0.278  0.665  0.056- 175 1.86 178 1.86 235 1.90 184 1.90 199 1.91 268 1.92   4 2.79  81 2.80
                            66 2.80   5 2.80 114 2.81  72 2.86 111 2.88  78 2.88
  70  0.333  0.998  0.999- 270 1.86 183 1.89 186 1.90 273 1.90 267 1.90 180 1.92  73 2.76  28 2.77
                            30 2.78 112 2.82  67 2.83 115 2.83 143 2.84  79 2.86
  71  0.389  0.334  0.111- 188 1.86 203 1.87 179 1.90 200 1.91 185 1.91 236 1.91   6 2.79  10 2.80
                            68 2.80 128 2.81 116 2.81 113 2.86 119 2.88  80 2.88
  72  0.446  0.665  0.055- 295 1.87 274 1.88 235 1.88 184 1.88 277 1.89 280 1.89 129 2.79 117 2.80
                           114 2.83  81 2.84 120 2.84  69 2.86
  73  0.495  1.000  0.162- 183 1.88 279 1.93 300 1.98 204 1.98 186 2.01 297 2.14  62 2.71  70 2.76
                            10 2.80  79 2.83 143 2.84 130 2.88  82 2.94
  74  0.054  0.335  0.276- 311 1.86 296 1.86 206 1.87 191 1.87 212 1.90 209 1.91 125 2.81  77 2.81
                            83 2.82 134 2.83  65 2.84  86 2.84
  75  0.111  0.665  0.220- 190 1.85 187 1.86 211 1.86 196 1.90 193 1.91 172 1.92  78 2.79 126 2.80
                            66 2.82  12 2.84 135 2.85  84 2.86  87 2.87
  76  0.168  0.997  0.168- 174 1.84 177 1.87 171 1.87 195 1.89 198 1.91 192 1.91  88 2.78  79 2.78
                            85 2.78 127 2.81  67 2.84  91 2.84
  77  0.220  0.333  0.278- 218 1.85 197 1.86 215 1.86 191 1.91 212 1.91 194 1.91  65 2.79  86 2.80
                            74 2.81   8 2.84  80 2.85  89 2.86  68 2.88
  78  0.277  0.665  0.224- 202 1.84 199 1.87 193 1.89 196 1.90 178 2.04 217 2.08  75 2.79  14 2.81
                            87 2.82  66 2.83  81 2.84  90 2.85  69 2.88
  79  0.330  0.002  0.166- 201 1.88 183 1.88 204 1.88 177 1.88 180 1.89 198 1.89  76 2.78  67 2.78
                            88 2.82  73 2.83  82 2.84  70 2.86
  80  0.389  0.336  0.281- 197 1.84 200 1.87 314 1.89 221 1.90 203 2.04 218 2.07 137 2.80  14 2.80
                            89 2.82 128 2.83  77 2.85  68 2.85  71 2.88
  81  0.442  0.662  0.220- 184 1.85 205 1.86 298 1.91 199 1.91 202 2.04 295 2.07   6 2.79  69 2.80
                           138 2.82  72 2.84  78 2.84 129 2.86  90 2.88
  82  0.495  0.003  0.335- 204 1.88 315 1.89 222 1.90 297 1.97 201 2.01 318 2.07  62 2.75  88 2.77
                           118 2.77  79 2.84 146 2.88  73 2.94
  83  0.056  0.336  0.443- 224 1.86 227 1.86 176 1.86 329 1.90 206 1.91 209 1.92  86 2.79 134 2.80
                            74 2.82   1 2.83  92 2.86  95 2.86 141 2.87
  84  0.108  0.667  0.386- 211 1.85 214 1.87 208 1.89 313 1.89 229 2.05 190 2.08 142 2.80 135 2.82
                             7 2.83  93 2.84  87 2.85  75 2.86  96 2.88
  85  0.167  0.003  0.331- 210 1.84 213 1.87 189 1.88 195 1.89 216 1.90 192 1.92  88 2.77   7 2.78
                            76 2.78 136 2.81 127 2.83  97 2.84  94 2.84
  86  0.221  0.335  0.443- 176 1.87 215 1.88 182 1.88 233 1.88 212 1.89 209 1.89  83 2.79  77 2.80
                            89 2.83  95 2.84  74 2.84  98 2.86
  87  0.278  0.669  0.391- 181 1.85 196 1.86 217 1.91 214 1.92 211 2.03 220 2.06  15 2.78  96 2.81
                            78 2.82  99 2.83  84 2.85  90 2.85  75 2.87
  88  0.331  0.002  0.332- 222 1.85 219 1.87 195 1.87 216 1.87 201 1.89 198 1.90  82 2.77  85 2.77
                            76 2.78  79 2.82  97 2.83 118 2.87
  89  0.389  0.332  0.446- 182 1.85 221 1.86 218 1.91 239 1.92 332 2.04 215 2.07  13 2.76  98 2.81
                            80 2.82  86 2.83 144 2.85  77 2.86 137 2.87
  90  0.446  0.667  0.391- 217 1.86 202 1.86 220 1.86 205 1.91 316 1.91 331 1.91 138 2.79  99 2.80
                           145 2.82  87 2.85  78 2.85  81 2.88
  91  0.001  0.998  0.999- 171 1.86 294 1.86 384 1.89 261 1.89 381 2.02 174 2.05 160 2.75  67 2.81
                           127 2.82 166 2.82   3 2.82 124 2.84  76 2.84
  92  0.059  0.333  0.612- 224 1.85 347 1.87 245 1.89 248 1.91 350 2.05 227 2.08  18 2.76 104 2.79
                            95 2.82 101 2.84 141 2.85  83 2.86 149 2.88
  93  0.113  0.665  0.556- 232 1.85 229 1.86 247 1.87 208 1.88 223 1.90 226 1.91  96 2.81 142 2.82
                           102 2.82 150 2.83 105 2.83  84 2.84
  94  0.172  0.000  0.501- 234 1.88 210 1.93 207 1.98 231 1.98 213 2.01 228 2.14  61 2.71  97 2.76
                            20 2.80 106 2.83  85 2.84 136 2.88 103 2.94
[...]
   0.501E+01 0.140E+01 0.115E+02   -.610E+01 -.150E+01 -.109E+02   0.114E+01 0.119E+00 -.671E+00   -.436E-01 -.152E-01 0.347E-01
   0.303E+01 0.817E+01 -.285E+01   -.209E+01 -.842E+01 0.378E+01   -.923E+00 0.236E+00 -.881E+00   -.159E-02 0.906E-02 -.350E-01
   -.679E+01 -.688E+01 0.184E+02   0.653E+01 0.658E+01 -.183E+02   0.228E+00 0.257E+00 -.117E+00   0.249E-01 0.333E-01 -.128E-01
   -.126E+02 0.694E+01 0.150E+02   0.126E+02 -.665E+01 -.147E+02   -.122E-01 -.258E+00 -.255E+00   -.136E-02 -.334E-01 -.279E-01
   0.690E+01 0.698E+01 0.135E+02   -.580E+01 -.721E+01 -.144E+02   -.108E+01 0.193E+00 0.891E+00   -.130E-01 0.311E-01 0.721E-02
   0.295E+00 0.534E+01 -.106E+02   -.313E+00 -.512E+01 0.104E+02   0.309E-01 -.151E+00 0.246E+00   -.913E-03 -.613E-01 -.915E-01
   -.732E+00 -.627E+01 -.398E+01   0.908E+00 0.603E+01 0.394E+01   -.211E+00 0.227E+00 0.120E+00   0.349E-01 0.124E-01 -.869E-01
   0.266E+01 -.284E+01 -.706E+01   -.186E+01 0.258E+01 0.784E+01   -.850E+00 0.279E+00 -.700E+00   0.525E-01 -.116E-01 -.728E-01
   -.244E-01 0.120E-03 0.423E-01   0.695E+00 -.236E-02 -.120E+01   -.727E+00 0.247E-02 0.126E+01   0.513E-01 -.174E-03 -.885E-01
   0.480E+01 0.282E+01 -.583E+01   -.588E+01 -.255E+01 0.553E+01   0.103E+01 -.279E+00 0.390E+00   0.370E-01 0.113E-01 -.818E-01
[...]
   0.329E+02 -.337E+03 0.982E+01   -.353E+02 0.355E+03 -.105E+02   0.233E+01 -.183E+02 0.894E+00   0.161E-01 0.432E-01 -.247E+00
   -.142E+02 0.351E+03 -.420E+02   0.143E+02 -.371E+03 0.451E+02   -.180E-01 0.194E+02 -.303E+01   -.474E-01 -.449E-03 -.787E-01
   -.471E+02 -.340E+03 -.415E+02   0.531E+02 0.358E+03 0.446E+02   -.609E+01 -.179E+02 -.293E+01   0.343E-01 0.220E-01 -.158E+00
   -.103E+02 0.343E+03 0.328E+02   0.108E+02 -.361E+03 -.347E+02   -.645E+00 0.185E+02 0.208E+01   0.103E+00 -.127E-01 -.190E+00
   0.217E+02 -.317E+03 -.543E+02   -.241E+02 0.333E+03 0.582E+02   0.235E+01 -.158E+02 -.380E+01   0.390E-01 -.606E-01 -.930E-01
   -.314E+02 0.298E+03 -.896E+01   0.334E+02 -.314E+03 0.925E+01   -.205E+01 0.166E+02 -.832E-01   0.172E-02 0.182E-01 -.211E+00
   -.412E+02 -.329E+03 -.490E+02   0.454E+02 0.346E+03 0.534E+02   -.428E+01 -.169E+02 -.410E+01   0.115E+00 -.996E-02 -.230E+00
   0.710E+02 0.359E+03 0.219E+02   -.778E+02 -.379E+03 -.257E+02   0.677E+01 0.196E+02 0.387E+01   0.548E-01 0.302E-03 -.997E-01
   0.349E+02 -.316E+03 0.504E+02   -.377E+02 0.332E+03 -.550E+02   0.267E+01 -.157E+02 0.488E+01   0.903E-01 -.601E-01 -.233E+00
   -.606E+02 0.316E+03 -.613E+01   0.659E+02 -.332E+03 0.626E+01   -.553E+01 0.157E+02 0.645E-01   0.158E+00 0.593E-01 -.195E+00
   -.549E+02 -.359E+03 -.496E+02   0.616E+02 0.379E+03 0.536E+02   -.676E+01 -.196E+02 -.388E+01   0.592E-01 -.689E-03 -.971E-01
   0.636E+02 0.329E+03 0.103E+02   -.695E+02 -.346E+03 -.117E+02   0.571E+01 0.169E+02 0.162E+01   0.142E+00 0.909E-02 -.215E+00
   -.116E+02 -.303E+03 0.206E+02   0.127E+02 0.321E+03 -.211E+02   -.117E+01 -.174E+02 0.785E+00   0.987E-01 -.650E-01 -.242E+00
   -.428E+02 0.333E+03 -.146E+02   0.444E+02 -.352E+03 0.160E+02   -.162E+01 0.195E+02 -.130E+01   0.391E-01 -.311E-02 -.851E-01
   -.445E+01 0.361E-01 0.772E+01   -.590E-12 0.233E-11 -.426E-12   0.441E+01 -.150E-01 -.762E+01   0.825E-01 -.267E-03 -.143E+00

 POSITION                                       TOTAL-FORCE (eV/Angst)
     -4.15753      7.20259      7.36106         0.005523      0.002199     -0.000754
      0.09524     12.01965      1.63235        -0.015373     -0.004722     -0.004659
      1.23388      2.37929      0.83929        -0.017710     -0.002426     -0.001013
      3.01939      7.21030      0.15447         0.002288     -0.002435     -0.003817
      3.01980     12.02095      1.46491        -0.006301     -0.001518     -0.004759
      6.89196      7.21143      2.38977         0.003364     -0.002090     -0.000668
     -1.23159     12.09216      4.30399         0.009405      0.000744      0.012033
      2.78299      2.46161      3.32626        -0.002914      0.004057      0.003908
      4.21306     12.02731      4.17646        -0.004669     -0.002865      0.004758
      5.73071      2.39570      3.03077         0.000889     -0.001673      0.003004
     -1.41523      2.42216      5.69396        -0.003288      0.005508     -0.004023
     -0.01419      7.25073      4.83389        -0.002299      0.000848     -0.005724
      1.51067      2.45050      5.98882         0.003966      0.006631      0.005355
      2.89975      7.22357      4.80895        -0.004199      0.001116      0.007179
      2.57747     12.05699      6.57584        -0.017986     -0.005685      0.001899
     -8.41856      7.21625     14.71740         0.005954     -0.000522     -0.003302
     -4.19619     12.00755      9.16199        -0.003823      0.004735      0.000395
     -2.85676      2.53765      8.26831         0.003668      0.002886     -0.000129
     -1.24740      7.23690      7.51535        -0.001092      0.002083     -0.003256
     -1.21670     12.05647      8.82738        -0.003045      0.001680      0.000721
      2.61962      7.23805      9.76023         0.002175      0.002419     -0.003892
     -5.54978     12.09266     11.66057        -0.002227      0.005126      0.016871
     -1.47078      2.43088     10.74238        -0.001796      0.002887      0.006409
     -0.00499     11.99646     11.53088        -0.001945     -0.004040      0.004485
      1.47486      2.43128     10.42668         0.007267      0.001515      0.003089
     -5.67980      2.41658     13.10095         0.005354      0.002937     -0.001112
     -4.28102      7.25663     12.20879        -0.001709     -0.002099     -0.005349
     -2.73690      2.41106     13.35573         0.007321      0.005721      0.016525
     -1.35699      7.23870     12.18207        -0.004136     -0.001088      0.007220
     -1.68018     12.01758     13.96016        -0.006630     -0.006622     -0.000753
      4.33281      7.21070      7.35791         0.005493      0.002086     -0.001188
      8.56319     12.02107      1.61403         0.005116     -0.005514      0.000864
      9.66056      2.34671      0.79103        -0.015120     -0.000725     -0.002161
     11.51071      7.22003      0.13355        -0.000632     -0.005522     -0.002625
     11.54277     12.05133      1.46951         0.004203     -0.003198     -0.003206
     15.40274      7.21377      2.38653         0.002600      0.005515     -0.000775
      7.04855     11.91561      4.14649        -0.001720     -0.002892     -0.003237
     11.32657      2.52111      3.14086        -0.005560      0.003732     -0.008735
     12.89465     11.92184      4.03008         0.010337     -0.003748      0.000483
     14.22005      2.38639      3.03831         0.000692      0.003181     -0.005251
      6.92451      2.45069      5.78096         0.001554     -0.004727      0.003526
      8.47515      7.25025      4.83637        -0.002101     -0.002211     -0.005158
     10.00454      2.49537      5.88738        -0.003066      0.001898     -0.001493
     11.39604      7.22390      4.81990        -0.000909      0.000003      0.001571
     11.17144     11.95793      6.54425         0.002819     -0.001897      0.001921
      0.07257      7.21657     14.72141         0.006107     -0.000861     -0.000855
      4.26405     12.05574      9.00093        -0.001707     -0.002950     -0.005188
      5.43184      2.37524      8.19934        -0.013530     -0.005072      0.010349
      7.24922      7.23211      7.52332         0.003216     -0.001560     -0.005241
      7.13854     12.01286      8.89464         0.006392     -0.000106     -0.002306
     11.11698      7.23073      9.76224         0.002946      0.001539     -0.005403
      2.92325     12.07409     11.63538         0.009702      0.002453      0.014846
      7.00808      2.43773     10.70055        -0.001055     -0.003764      0.005650
      8.49009     12.03485     11.53956        -0.004367      0.003782      0.003717
      9.97480      2.45424     10.55526        -0.001184      0.000089     -0.006691
      2.78618      2.43806     13.04613         0.011705      0.004734      0.010997
      4.21813      7.26552     12.19505        -0.000101      0.000502     -0.006810
      5.72572      2.44757     13.34192         0.006809     -0.000442      0.011765
      7.13205      7.23839     12.18599        -0.005302      0.000018      0.009160
      6.83824     12.03499     13.96706        -0.013592      0.000465     -0.000047
[...]
      1.44392      8.68021     13.94060         0.000714     -0.004666     -0.001173
      2.84064      5.84660     13.05320        -0.000263      0.005776      0.000560
      2.85114     13.54353     13.01865         0.002218      0.003299      0.006781
      4.11579     10.61641     12.17756         0.002226     -0.002972      0.001358
      4.19124      3.85520     12.28156        -0.001192      0.004021      0.000113
      4.29016      1.03049     13.82859         0.010899      0.011428     -0.002554
      4.18770      8.70668     13.88628         0.000225     -0.004353     -0.001237
      5.53576      5.87048     13.00957        -0.000778      0.003349     -0.000755
      5.76536     13.45461     13.14192        -0.003397      0.001997     -0.004247
      7.13228     10.67711     12.45135        -0.000731     -0.002600      0.000525
      6.89596      3.80047     12.32807        -0.000087      0.002603      0.000888
      6.97316      1.02735     13.86551         0.005372     -0.002004      0.000836
      7.21522      8.61144     13.97636         0.001036     -0.003350      0.000308
      8.42942      5.78909     13.16395         0.000540      0.002144     -0.000640
      8.48470     13.48422     13.09576         0.001898     -0.000880     -0.002517
    total drift:                                0.049289      0.020812     -0.045976

  FREE ENERGIE OF THE ION-ELECTRON SYSTEM (eV)
  free  energy   TOTEN  =     -2387.8274690401 eV

  energy  without entropy=    -2387.6860318360  energy(sigma->0) =    -2387.75675044

volume of typ            1:    12.9 %

[...]

volume of typ            4:     9.7 %

total charge

# of ion       s       p       d       tot
    1        2.072   0.233   0.088   2.393
    2        2.072   0.232   0.087   2.391
    3        2.073   0.235   0.089   2.397
    4        2.080   0.257   0.098   2.435
    5        2.079   0.254   0.096   2.429
    6        2.081   0.259   0.100   2.440
    7        2.075   0.242   0.091   2.408
    8        2.072   0.234   0.089   2.395
    9        2.067   0.218   0.081   2.365
   10        2.074   0.244   0.093   2.412
   11        2.076   0.247   0.095   2.418
   12        2.071   0.231   0.087   2.390
   13        2.086   0.272   0.105   2.462
   14        2.078   0.249   0.095   2.421
   15        2.075   0.242   0.091   2.408
   16        2.070   0.228   0.086   2.385
   17        2.076   0.247   0.096   2.419
   18        2.077   0.256   0.098   2.431
   19        2.081   0.259   0.100   2.440
   20        2.074   0.244   0.093   2.412
   21        2.080   0.257   0.098   2.435
   22        2.074   0.237   0.089   2.400
   23        2.067   0.218   0.081   2.365
   24        2.072   0.234   0.089   2.395
   25        2.079   0.254   0.096   2.429
   26        2.076   0.244   0.093   2.413
   27        2.071   0.230   0.087   2.387
   28        2.075   0.242   0.091   2.408
   29        2.078   0.249   0.095   2.421
   30        2.086   0.272   0.105   2.462
   31        2.071   0.230   0.087   2.387
   32        2.076   0.247   0.095   2.418
   33        2.075   0.242   0.091   2.408
   34        2.081   0.260   0.100   2.442
   35        2.072   0.237   0.091   2.401
   36        2.081   0.260   0.100   2.442
   37        2.077   0.256   0.098   2.431
   38        2.070   0.235   0.090   2.395
   39        2.070   0.235   0.090   2.395
   40        2.072   0.237   0.091   2.401
   41        2.076   0.247   0.096   2.419
   42        2.072   0.233   0.088   2.393
   43        2.077   0.255   0.099   2.431
   44        2.079   0.251   0.096   2.426
   45        2.077   0.255   0.099   2.431
   46        2.071   0.231   0.087   2.390
   47        2.076   0.244   0.093   2.413
   48        2.074   0.237   0.089   2.400
   49        2.081   0.259   0.099   2.439
   50        2.083   0.267   0.104   2.453
   51        2.081   0.259   0.099   2.439
   52        2.073   0.235   0.089   2.397
   53        2.066   0.216   0.080   2.362
   54        2.066   0.216   0.080   2.362
   55        2.083   0.267   0.104   2.453
   56        2.072   0.232   0.087   2.391
   57        2.070   0.228   0.086   2.385
   58        2.082   0.262   0.100   2.444
   59        2.078   0.248   0.094   2.420
   60        2.082   0.262   0.100   2.444
[...]
  370        1.265   2.775   0.007   4.047
  371        1.268   2.765   0.006   4.040
  372        1.270   2.768   0.007   4.045
  373        1.270   2.763   0.007   4.039
  374        1.269   2.765   0.006   4.040
  375        1.267   2.770   0.006   4.043
  376        1.264   2.775   0.007   4.046
  377        1.268   2.764   0.006   4.039
  378        1.274   2.760   0.007   4.040
  379        1.265   2.771   0.006   4.042
  380        1.265   2.771   0.006   4.042
  381        1.274   2.760   0.007   4.040
  382        1.268   2.764   0.006   4.039
  383        1.260   2.786   0.007   4.053
  384        1.265   2.775   0.007   4.047
tot         428.26  677.06  830.42 1935.74

magnetization (x)

# of ion       s       p       d       tot
    1        0.003   0.007   0.001   0.011
    2        0.004   0.008   0.001   0.013
    3        0.003   0.006   0.001   0.011
    4        0.004   0.010   0.002   0.017
    5        0.005   0.011   0.002   0.018
    6        0.004   0.011   0.002   0.017
    7        0.004   0.009   0.002   0.015
    8        0.004   0.008   0.001   0.013
    9        0.003   0.006   0.001   0.009
   10        0.003   0.006   0.001   0.010
   11        0.003   0.007   0.001   0.012
   12        0.003   0.006   0.001   0.010
   13        0.005   0.013   0.003   0.021
   14        0.004   0.010   0.002   0.016
   15        0.004   0.009   0.001   0.014
   16        0.003   0.006   0.001   0.010
   17        0.004   0.007   0.002   0.013
   18        0.003   0.010   0.002   0.015
   19        0.004   0.011   0.002   0.017
   20        0.003   0.006   0.001   0.010
   21        0.004   0.010   0.002   0.017
   22        0.004   0.009   0.002   0.015
   23        0.003   0.006   0.001   0.009
   24        0.004   0.008   0.001   0.013
   25        0.005   0.011   0.002   0.018
   26        0.005   0.010   0.002   0.017
   27        0.003   0.006   0.001   0.011
   28        0.004   0.009   0.001   0.014
   29        0.004   0.010   0.002   0.016
   30        0.005   0.013   0.003   0.021
   31        0.003   0.006   0.001   0.011
   32        0.003   0.007   0.001   0.012
   33        0.004   0.009   0.002   0.015
   34        0.004   0.011   0.002   0.017
   35        0.003   0.006   0.001   0.010
   36        0.004   0.011   0.002   0.017
   37        0.003   0.010   0.002   0.015
   38        0.002   0.005   0.001   0.008
   39        0.002   0.005   0.001   0.008
   40        0.003   0.006   0.001   0.010
   41        0.004   0.007   0.002   0.013
   42        0.003   0.007   0.001   0.011
   43        0.004   0.008   0.002   0.014
   44        0.004   0.010   0.002   0.017
   45        0.004   0.008   0.002   0.014
   46        0.003   0.006   0.001   0.010
   47        0.005   0.010   0.002   0.017
   48        0.004   0.009   0.002   0.015
   49        0.004   0.011   0.002   0.017
   50        0.003   0.009   0.002   0.014
   51        0.004   0.011   0.002   0.017
   52        0.003   0.006   0.001   0.011
   53        0.003   0.006   0.001   0.010
   54        0.003   0.006   0.001   0.010
   55        0.003   0.009   0.002   0.014
   56        0.004   0.008   0.001   0.013
   57        0.003   0.006   0.001   0.010
   58        0.005   0.012   0.002   0.019
   59        0.004   0.010   0.002   0.016
   60        0.005   0.012   0.002   0.019
[...]
  370        0.002   0.001   0.000   0.003
  371        0.001  -0.008   0.000  -0.007
  372        0.006   0.042   0.000   0.048
  373        0.009   0.103   0.000   0.113
  374        0.000  -0.011   0.000  -0.010
  375        0.008   0.061   0.000   0.069
  376        0.006   0.039   0.000   0.046
  377        0.007   0.081   0.000   0.088
  378        0.007   0.078   0.000   0.086
  379        0.009   0.115   0.000   0.125
  380        0.009   0.115   0.000   0.125
  381        0.007   0.078   0.000   0.086
  382        0.007   0.081   0.000   0.088
  383        0.003   0.010   0.000   0.013
  384        0.002   0.003   0.000   0.005
tot           1.48   12.42   41.42   55.32