 vasp.5.4.4.18Apr17-6-g9f103f2a35 (build May 12 2020 04:58:55) complex

 MD_VERSION_INFO: Compiled 2020-05-12T11:58:55-UTC in devlin.sd.materialsdesign.
 com:/home/medea2/data/build/wwolf/vasp-gpu5.4.4/13047/x86_64/src/src/build/std
 from svn 13047

 executed on                        Lin64 date 2023.03.16  11:18:43

 INCAR:
 POTCAR:    PAW_PBE Li_sv 10Sep2004
 POTCAR:    PAW_PBE Ni 02Aug2007
 POTCAR:    PAW_PBE O 08Apr2002

 POTCAR:    PAW_PBE Li_sv 10Sep2004

 POTCAR:    PAW_PBE Ni 02Aug2007

 POTCAR:    PAW_PBE O 08Apr2002

 Optimization of the real space projectors (new method)

 maximal supplied QI-value         = 22.11
 optimisation between [QCUT,QGAM] = [ 11.28, 22.77] = [ 35.61,145.23] Ry
 Optimized for a Real-space Cutoff    1.10 Angstroem

   l    n(q)    QCUT    max X(q) W(low)/X(q) W(high)/X(q)  e(spline)
   0      7    11.276    10.506    0.54E-04    0.58E-04    0.16E-07
   0      7    11.276     8.367    0.11E-03    0.14E-03    0.35E-07
   1      7    11.276     8.983    0.23E-03    0.43E-03    0.86E-07
 Optimization of the real space projectors (new method)

[...]

   l    n(q)    QCUT    max X(q) W(low)/X(q) W(high)/X(q)  e(spline)
   2      9    11.376    60.317    0.17E-03    0.16E-04    0.16E-06
   2      9    11.376    55.921    0.17E-03    0.16E-04    0.17E-06
   0     10    11.376    51.690    0.45E-04    0.60E-04    0.21E-06
   0     10    11.376    30.015    0.37E-04    0.55E-04    0.19E-06
   1     10    11.376    18.849    0.83E-04    0.11E-03    0.92E-07
   1     10    11.376    14.624    0.69E-04    0.92E-04    0.82E-07
 Optimization of the real space projectors (new method)

 maximal supplied QI-value         = 24.76
 optimisation between [QCUT,QGAM] = [ 11.39, 22.77] = [ 36.31,145.25] Ry
 Optimized for a Real-space Cutoff    1.10 Angstroem

   l    n(q)    QCUT    max X(q) W(low)/X(q) W(high)/X(q)  e(spline)
   0      7    11.387    20.381    0.22E-03    0.48E-03    0.18E-06
   0      7    11.387    15.268    0.22E-03    0.52E-03    0.19E-06
   1      7    11.387     5.964    0.22E-03    0.73E-03    0.24E-06
   1      7    11.387     5.382    0.19E-03    0.60E-03    0.21E-06

  PAW_PBE Li_sv 10Sep2004               :
  PAW_PBE Ni 02Aug2007                  :
  PAW_PBE O 08Apr2002                   :

 POSCAR: ce18
  positions in direct lattice
 exchange correlation table for  LEXCH =       14
   RHO(1)=    0.500       N(1)  =     2000
   RHO(2)=  100.500       N(2)  =     4000

 ion  position               nearest neighbor table
   1  0.001  0.998  0.988-  14 2.05   9 2.06  10 2.09  15 2.13  11 2.14  12 2.18   7 2.84   5 2.84

   2  0.500  0.000  0.250-  11 2.08  12 2.08  10 2.09  13 2.09   8 2.11  15 2.11   5 2.84   6 2.84
                             4 2.84   7 2.84
   3  0.999  0.002  0.512-   9 2.05  14 2.06  13 2.09   8 2.13  12 2.14  11 2.18   4 2.84   6 2.84

   4  0.250  0.509  0.378-   8 1.87  10 1.87  14 1.90  12 1.90  13 1.94  11 1.97   5 2.83   5 2.83
                             7 2.84   3 2.84   2 2.84   6 2.85   7 2.85   6 2.85
   5  0.745  0.498  0.623-  14 1.87   8 1.89  15 1.93  11 1.95  13 1.98   9 2.00   6 2.80   4 2.83
                             4 2.83   1 2.84   2 2.84   7 2.85   7 2.85   6 2.89
   6  0.255  0.502  0.877-   9 1.87  15 1.89   8 1.93  12 1.95  10 1.98  14 2.00   5 2.80   7 2.83
                             7 2.83   3 2.84   2 2.84   4 2.85   4 2.85   5 2.89
   7  0.750  0.491  0.122-  15 1.87  13 1.87   9 1.90  11 1.90  10 1.94  12 1.97   6 2.83   6 2.83
                             4 2.84   1 2.84   2 2.84   5 2.85   4 2.85   5 2.85
   8  0.377  0.297  0.563-   4 1.87   5 1.89   6 1.93   2 2.11   3 2.13
   9  0.898  0.288  0.826-   6 1.87   7 1.90   5 2.00   3 2.05   1 2.06
  10  0.374  0.285  0.087-   4 1.87   7 1.94   6 1.98   2 2.09   1 2.09
  11  0.876  0.279  0.315-   7 1.90   5 1.95   4 1.97   2 2.08   1 2.14   3 2.18
  12  0.124  0.721  0.185-   4 1.90   6 1.95   7 1.97   2 2.08   3 2.14   1 2.18
  13  0.626  0.715  0.413-   7 1.87   4 1.94   5 1.98   2 2.09   3 2.09
  14  0.102  0.712  0.674-   5 1.87   4 1.90   6 2.00   1 2.05   3 2.06
  15  0.623  0.703  0.937-   7 1.87   6 1.89   5 1.93   2 2.11   1 2.13

  LATTYP: Found a triclinic cell.
 ALAT       =     4.9906017849
 B/A-ratio  =     1.1423717338
 C/A-ratio  =     0.9822111323
 COS(alpha) =     0.0069917197
 COS(beta)  =     0.1669399074
 COS(gamma) =     0.2930809543

  Lattice vectors:

 A1 = (  -0.8331306000,   4.9205690300,   0.0000000000)
 A2 = (  -0.0398606500,   1.6879225600,  -5.4453765100)
 A3 = (  -4.9018246300,   0.0000000000,   0.0000000000)

Analysis of symmetry for initial positions (statically):
 Subroutine PRICEL returns:
 Original cell was already a primitive cell.

 Routine SETGRP: Setting up the symmetry group for a
 triclinic supercell.

 Subroutine GETGRP returns: Found  2 space group operations
 (whereof  1 operations were pure point group operations)
 out of a pool of  2 trial point group operations.

The static configuration has the point symmetry C_1 .
 The point group associated with its full space group is S_2 .

Analysis of symmetry for dynamics (positions and initial velocities):
 Subroutine PRICEL returns:
 Original cell was already a primitive cell.

[...]

The dynamic configuration has the point symmetry C_1 .
 The point group associated with its full space group is S_2 .

Analysis of structural, dynamic, and magnetic symmetry:
 Subroutine PRICEL returns:
 Original cell was already a primitive cell.

 Routine SETGRP: Setting up the symmetry group for a
 triclinic supercell.

 Subroutine GETGRP returns: Found  2 space group operations
 (whereof  1 operations were pure point group operations)
 out of a pool of  2 trial point group operations.

The magnetic configuration has the point symmetry C_1 .
 The point group associated with its full space group is S_2 .

 Subroutine INISYM returns: Found  2 space group operations
 (whereof  1 operations are pure point group operations),
 and found     1 'primitive' translations

 KPOINTS: Automatic mesh

Automatic generation of k-mesh.
Space group operators:
 irot       det(A)        alpha          n_x          n_y          n_z        tau_x        tau_y        tau_z
    1     1.000000     0.000000     1.000000     0.000000     0.000000     0.000000     0.000000     0.000000
    2    -1.000000     0.000000     1.000000     0.000000     0.000000     0.000000     0.000000    -0.500000

 Subroutine IBZKPT returns following result:

 Found     92 irreducible k-points:

 Following reciprocal coordinates:
            Coordinates               Weight
  0.000000  0.000000  0.000000      1.000000
  0.166667 -0.000000 -0.000000      2.000000
  0.333333 -0.000000  0.000000      2.000000
  0.500000 -0.000000  0.000000      1.000000
  0.000000  0.166667 -0.000000      2.000000
  0.166667  0.166667 -0.000000      2.000000
  0.333333  0.166667 -0.000000      2.000000
  0.500000  0.166667 -0.000000      2.000000
 -0.333333  0.166667  0.000000      2.000000
 -0.166667  0.166667 -0.000000      2.000000
  0.000000  0.333333 -0.000000      2.000000
  0.166667  0.333333 -0.000000      2.000000
  0.333333  0.333333 -0.000000      2.000000
  0.500000  0.333333 -0.000000      2.000000
 -0.333333  0.333333  0.000000      2.000000
 -0.166667  0.333333  0.000000      2.000000
  0.000000  0.500000  0.000000      1.000000
  0.166667  0.500000  0.000000      2.000000
  0.333333  0.500000  0.000000      2.000000
  0.500000  0.500000  0.000000      1.000000
  0.000000  0.000000  0.200000      2.000000
  0.166667 -0.000000  0.200000      2.000000
  0.333333 -0.000000  0.200000      2.000000
  0.500000 -0.000000  0.200000      2.000000
 -0.333333  0.000000  0.200000      2.000000
 -0.166667  0.000000  0.200000      2.000000
  0.000000  0.166667  0.200000      2.000000
  0.166667  0.166667  0.200000      2.000000
  0.333333  0.166667  0.200000      2.000000
  0.500000  0.166667  0.200000      2.000000
 -0.333333  0.166667  0.200000      2.000000
 -0.166667  0.166667  0.200000      2.000000
  0.000000  0.333333  0.200000      2.000000
  0.166667  0.333333  0.200000      2.000000
  0.333333  0.333333  0.200000      2.000000
  0.500000  0.333333  0.200000      2.000000
 -0.333333  0.333333  0.200000      2.000000
 -0.166667  0.333333  0.200000      2.000000
  0.000000  0.500000  0.200000      2.000000
  0.166667  0.500000  0.200000      2.000000
  0.333333  0.500000  0.200000      2.000000
  0.500000  0.500000  0.200000      2.000000
 -0.333333  0.500000  0.200000      2.000000
 -0.166667  0.500000  0.200000      2.000000
  0.000000 -0.333333  0.200000      2.000000
  0.166667 -0.333333  0.200000      2.000000
  0.333333 -0.333333  0.200000      2.000000
  0.500000 -0.333333  0.200000      2.000000
 -0.333333 -0.333333  0.200000      2.000000
 -0.166667 -0.333333  0.200000      2.000000
  0.000000 -0.166667  0.200000      2.000000
  0.166667 -0.166667  0.200000      2.000000
  0.333333 -0.166667  0.200000      2.000000
  0.500000 -0.166667  0.200000      2.000000
 -0.333333 -0.166667  0.200000      2.000000
 -0.166667 -0.166667  0.200000      2.000000
  0.000000  0.000000  0.400000      2.000000
  0.166667 -0.000000  0.400000      2.000000
  0.333333 -0.000000  0.400000      2.000000
  0.500000 -0.000000  0.400000      2.000000
[...]
  0.500000  0.500000  0.400000      2.000000
 -0.333333  0.500000  0.400000      2.000000
 -0.166667  0.500000  0.400000      2.000000
  0.000000 -0.333333  0.400000      2.000000
  0.166667 -0.333333  0.400000      2.000000
  0.333333 -0.333333  0.400000      2.000000
  0.500000 -0.333333  0.400000      2.000000
 -0.333333 -0.333333  0.400000      2.000000
 -0.166667 -0.333333  0.400000      2.000000
  0.000000 -0.166667  0.400000      2.000000
  0.166667 -0.166667  0.400000      2.000000
  0.333333 -0.166667  0.400000      2.000000
  0.500000 -0.166667  0.400000      2.000000
 -0.333333 -0.166667  0.400000      2.000000
 -0.166667 -0.166667  0.400000      2.000000

 Following cartesian coordinates:
            Coordinates               Weight
  0.000000  0.000000  0.000000      1.000000
  0.034001  0.005757  0.001536      2.000000
  0.068002  0.011514  0.003071      2.000000
  0.102003  0.017271  0.004607      1.000000
  0.000000  0.033871  0.010499      2.000000
  0.034001  0.039628  0.012035      2.000000
  0.068002  0.045385  0.013570      2.000000
  0.102003  0.051142  0.015106      2.000000
 -0.068002  0.022358  0.007428      2.000000
 -0.034001  0.028115  0.008964      2.000000
  0.000000  0.067743  0.020998      2.000000
  0.034001  0.073500  0.022534      2.000000
  0.068002  0.079257  0.024070      2.000000
  0.102003  0.085014  0.025605      2.000000
 -0.068002  0.056229  0.017927      2.000000
 -0.034001  0.061986  0.019463      2.000000
  0.000000  0.101614  0.031498      1.000000
  0.034001  0.107371  0.033033      2.000000
  0.068002  0.113128  0.034569      2.000000
  0.102003  0.118885  0.036105      1.000000
  0.000000  0.000000  0.036728      2.000000
  0.034001  0.005757  0.038264      2.000000
  0.068002  0.011514  0.039800      2.000000
  0.102003  0.017271  0.041335      2.000000
 -0.068002 -0.011514  0.033657      2.000000
 -0.034001 -0.005757  0.035193      2.000000
[...]
 e energy
  - symmetry arguments have not been applied
  - exchange correlation energies might require even more grid points
  - we recommend to set PREC=Normal or Accurate and rely on VASP defaults
 WARNING: aliasing errors must be expected set NGX to    40 to avoid them
 WARNING: aliasing errors must be expected set NGY to    40 to avoid them
 NGZ is ok and might be reduce to    42

 serial   3D FFT for wavefunctions
 parallel 3D FFT for charge:
    minimum data exchange during FFTs selected (reduces bandwidth)

 Broyden mixing: mesh for mixing (old mesh)
   NGX = 17   NGY = 19   NGZ = 21
  (NGX  = 72   NGY  = 72   NGZ  = 84)
  gives a total of   6783 points

 initial charge density was supplied:
 charge density of overlapping atoms calculated
 number of electron      97.0000000 magnetization      10.0000000
 keeping initial charge density in first step

 Maximum index for non-local projection operator         5395
 Maximum index for augmentation-charges          910 (set IRDMAX)

 First call to EWALD:  gamma=   0.349
 Maximum number of real-space cells 3x 3x 3
 Maximum number of reciprocal cells 3x 3x 3

--------------------------------------- Iteration      1(   1)  ---------------------------------------

 eigenvalue-minimisations  : 23552
 total energy-change (2. order) : 0.9505468E+03  (-0.4531903E+04)
 number of electron      97.0000000 magnetization      10.0000000
 augmentation part       97.0000000 magnetization      10.0000000

 Free energy of the ion-electron system (eV)
  alpha Z        PSCENC =       304.49040620
  Ewald energy   TEWEN  =     -5952.96878321
  -Hartree energ DENC   =     -2593.93282500
  -exchange      EXHF   =         0.00000000
  -V(xc)+E(xc)   XCENC  =       395.65080901
  PAW double counting   =      6855.20676751    -7179.80696279
  entropy T*S    EENTRO =        -0.00276736
  eigenvalues    EBANDS =       765.44003750
  atomic energy  EATOM  =      8356.47011005
  Solvation  Ediel_sol  =         0.00000000
  free energy    TOTEN  =       950.54679192 eV

  energy without entropy =      950.54955928  energy(sigma->0) =      950.54817560

[...]

 eigenvalue-minimisations  : 25952
 total energy-change (2. order) :-0.9525037E+03  (-0.8605829E+03)
 number of electron      97.0000000 magnetization      10.0000000
 augmentation part       97.0000000 magnetization      10.0000000

[...]

 Broyden mixing:
  rms(total) = 0.56156E+01    rms(broyden)= 0.56151E+01
  rms(prec ) = 0.87997E+01
  weight for this iteration     100.00

[...]

 eigenvalues of (default mixing * dielectric matrix)
  average eigenvalue GAMMA=   0.2713
  0.2713

[...]

 eigenvalue-minimisations  : 38704
 total energy-change (2. order) : 0.2955226E-02  (-0.4219285E-02)
 number of electron      96.9999946 magnetization       3.0405388
 augmentation part       32.2195768 magnetization       2.1410943

[...]

 Broyden mixing:
  rms(total) = 0.77976E-02    rms(broyden)= 0.77962E-02
  rms(prec ) = 0.11228E-01
  weight for this iteration     100.00

 eigenvalues of (default mixing * dielectric matrix)
  average eigenvalue GAMMA=   0.9486
  2.3702  1.6610  1.1348  1.1348  1.0161  1.0161  0.1578  0.4833  0.4833  0.6558
  0.6558  0.6139

[...]

--------------------------------------- Iteration      1(  18)  ---------------------------------------

 eigenvalue-minimisations  : 25344
 total energy-change (2. order) :-0.8722491E-05  (-0.5927972E-05)
 number of electron      96.9999946 magnetization       2.9997031
 augmentation part       32.2165110 magnetization       2.0982220

 Free energy of the ion-electron system (eV)
  alpha Z        PSCENC =       304.49040620
  Ewald energy   TEWEN  =     -5952.96878321
  -Hartree energ DENC   =     -2520.71464166
  -exchange      EXHF   =         0.00000000
  -V(xc)+E(xc)   XCENC  =       393.00638631
  PAW double counting   =      8962.87377696    -9302.10112104
  entropy T*S    EENTRO =        -0.00952598
  eigenvalues    EBANDS =      -331.41947625
  atomic energy  EATOM  =      8356.47011005
  Solvation  Ediel_sol  =         0.00000000
  free energy    TOTEN  =       -90.37286860 eV

  energy without entropy =      -90.36334262  energy(sigma->0) =      -90.36810561

 average (electrostatic) potential at core
  the test charge radii are     0.7079  0.9791  0.7215
  (the norm of the test charge is              1.0000)
       1 -57.9173       2 -57.8091       3 -57.9173       4 -87.1497       5 -86.8672
       6 -86.8672       7 -87.1497       8 -70.5412       9 -70.3657      10 -70.3351
      11 -70.4124      12 -70.4124      13 -70.3351      14 -70.3657      15 -70.5412

 E-fermi :   5.3405     XC(G=0): -11.6560     alpha+bet :-13.4327

 spin component 1

 k-point     1 :       0.0000    0.0000    0.0000
  band No.  band energies     occupation
      1     -38.6182      1.00000
      2     -38.5979      1.00000
      3     -38.5021      1.00000
      4     -14.9634      1.00000
      5     -13.4418      1.00000
      6     -13.4365      1.00000
      7     -13.2303      1.00000
      8     -13.2040      1.00000
      9     -13.0434      1.00000
     10     -13.0147      1.00000
     11     -12.9707      1.00000
     12      -2.2306      1.00000
     13      -1.8365      1.00000
     14      -1.4606      1.00000
     15      -1.4520      1.00000
     16      -1.2810      1.00000
     17      -1.1034      1.00000
     18      -0.7783      1.00000
     19      -0.7228      1.00000
     20      -0.5380      1.00000
     21      -0.3584      1.00000
     22      -0.3279      1.00000
     23      -0.1214      1.00000
     24      -0.1031      1.00000
     25      -0.0256      1.00000
     26       0.1834      1.00000
     27       0.5922      1.00000
     28       0.6969      1.00000
     29       1.5336      1.00000
     30       1.6773      1.00000
     31       1.7219      1.00000
     32       1.7273      1.00000
     33       2.5604      1.00000
     34       2.6178      1.00000
     35       2.7341      1.00000
     36       2.9295      1.00000
     37       3.0255      1.00000
     38       3.0337      1.00000
     39       3.0927      1.00000
     40       3.1031      1.00000
     41       3.2316      1.00000
     42       3.2551      1.00000
     43       3.3002      1.00000
     44       3.5266      1.00000
     45       3.7385      1.00000
     46       3.8115      1.00000
     47       3.8132      1.00000
     48       5.1553      1.00000
     49       5.2077      0.99991
     50       5.2933      0.90868
     51       5.3307      0.60829
     52       5.3988      0.04953
     53       5.9342      0.00000
     54       6.0293      0.00000
     55       6.1168      0.00000
     56      10.6075      0.00000
     57      13.1088      0.00000
     58      14.1321      0.00000
     59      14.6837      0.00000
     60      14.8561      0.00000
     61      15.8468      0.00000
     62      16.4880      0.00000
     63      16.6372      0.00000
     64      16.7844      0.00000

[...]

 spin component 2

[...]

 k-point    92 :      -0.1667   -0.1667    0.4000
  band No.  band energies     occupation
      1     -38.5999      1.00000
      2     -38.5908      1.00000
      3     -38.4854      1.00000
      4     -14.4003      1.00000
      5     -13.9736      1.00000
      6     -13.2450      1.00000
      7     -13.0998      1.00000
      8     -12.9370      1.00000
      9     -12.8815      1.00000
     10     -12.8305      1.00000
     11     -12.7211      1.00000
     12      -1.5400      1.00000
     13      -1.2533      1.00000
     14      -1.2251      1.00000
     15      -1.1424      1.00000
     16      -0.9866      1.00000
     17      -0.8362      1.00000
     18      -0.6891      1.00000
     19      -0.5497      1.00000
     20      -0.4590      1.00000
     21      -0.1527      1.00000
     22      -0.0961      1.00000
     23       0.1722      1.00000
     24       0.4158      1.00000
     25       0.5651      1.00000
     26       0.7127      1.00000
     27       0.7891      1.00000
     28       1.0136      1.00000
     29       1.1161      1.00000
     30       1.3587      1.00000
     31       1.5032      1.00000
     32       1.7649      1.00000
     33       2.0795      1.00000
     34       2.7888      1.00000
     35       3.1807      1.00000
     36       3.3037      1.00000
     37       3.3848      1.00000
     38       3.5148      1.00000
     39       3.5688      1.00000
     40       3.6716      1.00000
     41       3.7555      1.00000
     42       3.9218      1.00000
     43       3.9531      1.00000
     44       4.1291      1.00000
     45       4.1497      1.00000
     46       4.2168      1.00000
     47       4.2994      1.00000
     48       5.7704      0.00000
     49       5.8287      0.00000
     50       5.8863      0.00000
     51       5.9737      0.00000
     52       6.0905      0.00000
     53       6.2021      0.00000
     54       6.3166      0.00000
     55       6.4139      0.00000
     56      12.0224      0.00000
     57      13.2871      0.00000
     58      14.5626      0.00000
     59      14.9611      0.00000
     60      15.0852      0.00000
     61      15.3589      0.00000
     62      16.3129      0.00000
     63      16.8579      0.00000
     64      17.3267      0.00000

 soft charge-density along one line, spin component           1
         0         1         2         3         4         5         6         7         8         9
 total charge-density along one line

 soft charge-density along one line, spin component           2
         0         1         2         3         4         5         6         7         8         9
 total charge-density along one line

------------------------ aborting loop because EDIFF is reached ----------------------------------------

  FORCE on cell =-STRESS in cart. coord.  units (eV):
  Direction    XX          YY          ZZ          XY          YZ          ZX
  Alpha Z   304.49041   304.49041   304.49041
  Ewald   -1185.99290 -3358.88922 -1408.10149    18.00375  -647.66148   -21.47364
  Hartree  1437.36974  -185.63565  1269.09118     6.85440  -494.45266    -9.68091
  E(xc)    -491.86150  -492.10295  -491.86529    -0.00158    -0.08425     0.00576
  Local   -2077.79510  1682.11543 -1690.24655   -21.73422  1135.45594    29.09393
  n-local  -248.46365  -256.94635  -249.33175     0.78174    -1.70752    -0.28069
  augment   803.40489   814.89903   804.55710    -1.50551     1.21906     0.98583
  Kinetic  1458.84453  1492.15949  1461.45345    -2.43555     7.23348     1.37075
  Fock        0.00000     0.00000     0.00000     0.00000     0.00000     0.00000
  Total       -0.0035879      0.0901867      0.0470673     -0.0369820      0.0025612      0.0210311
  in kB       -0.0437677      1.1001504      0.5741547     -0.4511287      0.0312434      0.2565500

 VOLUME and BASIS-vectors are now :
  energy-cutoff  :      500.00
  volume of cell :      131.34
      direct lattice vectors                 reciprocal lattice vectors
     4.901824630  0.000000000  0.000000000     0.204005666  0.034541404  0.009213581
    -0.833130600  4.920569030  0.000000000     0.000000000  0.203228528  0.062995463
     0.039860650 -1.687922560  5.445376510     0.000000000  0.000000000  0.183642031

  length of vectors
     4.901824630  4.990601785  5.701122414     0.207114245  0.212768097  0.183642031

 FORCES acting on ions
    electron-ion (+dipol)            ewald-force                    non-local-force                 convergence-correction
   -.405E+00 0.200E+01 0.777E+01   0.490E+00 -.153E+01 -.810E+01   -.779E-01 -.464E+00 0.339E+00   -.386E-03 0.110E-02 -.240E-02
   -.193E-11 0.998E-11 -.427E-12   0.000E+00 -.249E-13 -.355E-13   0.173E-23 -.703E-23 0.000E+00   0.113E-13 0.623E-13 0.646E-13
   0.405E+00 -.200E+01 -.777E+01   -.490E+00 0.153E+01 0.810E+01   0.779E-01 0.464E+00 -.339E+00   0.386E-03 -.110E-02 0.240E-02
   -.152E+01 -.376E+02 -.471E+02   0.200E+01 0.379E+02 0.473E+02   -.480E+00 -.296E+00 -.161E+00   -.587E-02 0.583E-02 0.947E-02
   0.300E+02 0.198E+02 -.293E+02   -.300E+02 -.197E+02 0.295E+02   0.117E-01 -.175E+00 -.178E+00   0.101E-01 0.219E-02 0.519E-02
   -.300E+02 -.198E+02 0.293E+02   0.300E+02 0.197E+02 -.295E+02   -.117E-01 0.175E+00 0.178E+00   -.101E-01 -.219E-02 -.519E-02
   0.152E+01 0.376E+02 0.471E+02   -.200E+01 -.379E+02 -.473E+02   0.480E+00 0.296E+00 0.161E+00   0.587E-02 -.583E-02 -.947E-02
   -.145E+02 0.286E+03 0.419E+02   0.148E+02 -.303E+03 -.445E+02   -.283E+00 0.167E+02 0.264E+01   -.311E-02 -.238E-02 -.486E-02
   0.402E+02 0.274E+03 0.105E+03   -.440E+02 -.287E+03 -.112E+03   0.385E+01 0.133E+02 0.659E+01   -.659E-02 -.919E-02 0.683E-02
   -.166E+02 0.273E+03 0.136E+03   0.173E+02 -.286E+03 -.143E+03   -.776E+00 0.131E+02 0.750E+01   0.489E-02 -.476E-02 -.130E-02
   -.387E+01 0.268E+03 0.690E+02   0.525E+01 -.281E+03 -.719E+02   -.138E+01 0.126E+02 0.291E+01   0.382E-02 0.496E-02 -.787E-02
   0.387E+01 -.268E+03 -.690E+02   -.525E+01 0.281E+03 0.719E+02   0.138E+01 -.126E+02 -.291E+01   -.382E-02 -.496E-02 0.787E-02
   0.166E+02 -.273E+03 -.136E+03   -.173E+02 0.286E+03 0.143E+03   0.776E+00 -.131E+02 -.750E+01   -.489E-02 0.476E-02 0.130E-02
   -.402E+02 -.274E+03 -.105E+03   0.440E+02 0.287E+03 0.112E+03   -.385E+01 -.133E+02 -.659E+01   0.659E-02 0.919E-02 -.683E-02
   0.145E+02 -.286E+03 -.419E+02   -.148E+02 0.303E+03 0.445E+02   0.283E+00 -.167E+02 -.264E+01   0.311E-02 0.238E-02 0.486E-02
   -.598E-10 0.386E-09 0.120E-10   0.355E-14 0.568E-13 0.114E-12   0.944E-15 0.711E-14 0.178E-14   -.155E-12 -.822E-12 0.118E-12

 POSITION                                       TOTAL-FORCE (eV/Angst)
     -0.78499      3.24158      5.38059         0.007080      0.003013      0.001871
      2.46088     -0.42198      1.36134         0.000000     -0.000000      0.000000
      4.91347     -0.85289      2.78747        -0.007080     -0.003013     -0.001871
      0.81459      1.86380      2.05972        -0.005551     -0.016745     -0.005368
      3.26276      1.40086      3.39195         0.003058     -0.006520      0.007767
      0.86572      0.98783      4.77611        -0.003058      0.006520     -0.007767
      3.27403      2.21281      0.66297         0.005551      0.016745      0.005368
      1.62507      0.50906      3.06446        -0.000682      0.007602      0.005655
      4.19509      0.02041      4.50019         0.005486     -0.000695     -0.002868
      1.59843      1.25745      0.47154         0.004299     -0.006417      0.010249
      4.07259      0.84219      1.71383         0.007532      0.004974      0.004272
      0.01604      3.23442      1.00886        -0.007532     -0.004974     -0.004272
      2.49020      2.81915      2.25115        -0.004299      0.006417     -0.010249
     -0.06661      2.36827      3.66788        -0.005486      0.000695      0.002868
      2.50342      1.87963      5.10360         0.000682     -0.007602     -0.005655
    total drift:                               -0.000000      0.000000      0.000000

  FREE ENERGIE OF THE ION-ELECTRON SYSTEM (eV)
  free  energy   TOTEN  =       -90.3728686019 eV

  energy  without entropy=      -90.3633426243  energy(sigma->0) =      -90.36810561

volume of typ            1:    17.8 %

[...]

volume of typ            3:     9.9 %

total charge

# of ion       s       p       d       tot
    1        2.080   0.258   0.099   2.436
    2        2.084   0.268   0.103   2.455
    3        2.080   0.258   0.099   2.436
    4        0.278   0.371   7.841   8.490
    5        0.264   0.340   7.850   8.455
    6        0.264   0.340   7.850   8.455
    7        0.278   0.371   7.841   8.490
    8        1.262   2.781   0.007   4.050
    9        1.262   2.782   0.006   4.050
   10        1.267   2.771   0.006   4.043
   11        1.259   2.789   0.005   4.054
   12        1.259   2.789   0.005   4.054
   13        1.267   2.771   0.006   4.043
   14        1.262   2.782   0.006   4.050
   15        1.262   2.781   0.007   4.050
tot          17.43   24.45   31.73   73.61

magnetization (x)

# of ion       s       p       d       tot
    1        0.005   0.011   0.001   0.017
    2        0.006   0.015   0.002   0.023
    3        0.005   0.011   0.001   0.017
    4       -0.001  -0.000   0.417   0.416
    5        0.000   0.000   0.664   0.665
    6        0.000   0.000   0.664   0.665
    7       -0.001  -0.000   0.417   0.416
    8        0.007   0.037   0.000   0.044
    9        0.009   0.057   0.000   0.067
   10        0.012   0.096   0.000   0.108
   11        0.010   0.066   0.000   0.076
   12        0.010   0.066   0.000   0.076
   13        0.012   0.096   0.000   0.108
   14        0.009   0.057   0.000   0.067
   15        0.007   0.037   0.000   0.044
tot           0.09    0.55    2.17    2.81