 vasp.5.4.4.18Apr17-6-g9f103f2a35 (build May 12 2020 04:58:55) complex

 MD_VERSION_INFO: Compiled 2020-05-12T11:58:55-UTC in devlin.sd.materialsdesign.
 com:/home/medea2/data/build/wwolf/vasp-gpu5.4.4/13047/x86_64/src/src/build/std
 from svn 13047

 executed on                        Lin64 date 2022.03.07  19:42:25

 INCAR:
 POTCAR:    PAW_PBE Ni 02Aug2007
 POTCAR:    PAW_PBE Ta_pv 07Sep2000
 POTCAR:    PAW_PBE Li_sv 10Sep2004
 POTCAR:    PAW_PBE Mn_pv 02Aug2007
 POTCAR:    PAW_PBE O 08Apr2002
 POTCAR:    PAW_PBE Co 02Aug2007

 POTCAR:    PAW_PBE Ni 02Aug2007

 POTCAR:    PAW_PBE Ta_pv 07Sep2000

 POTCAR:    PAW_PBE Li_sv 10Sep2004

 POTCAR:    PAW_PBE Mn_pv 02Aug2007

 POTCAR:    PAW_PBE O 08Apr2002

 POTCAR:    PAW_PBE Co 02Aug2007

 Optimization of the real space projectors (new method)

 maximal supplied QI-value         = 16.25
 optimisation between [QCUT,QGAM] = [ 11.38, 22.75] = [ 36.24,144.96] Ry
 Optimized for a Real-space Cutoff    1.47 Angstroem

   l    n(q)    QCUT    max X(q) W(low)/X(q) W(high)/X(q)  e(spline)
   2      9    11.376    60.317    0.17E-03    0.16E-04    0.16E-06
   2      9    11.376    55.921    0.17E-03    0.16E-04    0.17E-06
   0     10    11.376    51.690    0.45E-04    0.60E-04    0.21E-06
   0     10    11.376    30.015    0.37E-04    0.55E-04    0.19E-06
   1     10    11.376    18.849    0.83E-04    0.11E-03    0.92E-07
   1     10    11.376    14.624    0.69E-04    0.92E-04    0.82E-07
 Optimization of the real space projectors (new method)

[...]

   l    n(q)    QCUT    max X(q) W(low)/X(q) W(high)/X(q)  e(spline)
   0      7    11.387    20.381    0.22E-03    0.48E-03    0.18E-06
   0      7    11.387    15.268    0.22E-03    0.52E-03    0.19E-06
   1      7    11.387     5.964    0.22E-03    0.73E-03    0.24E-06
   1      7    11.387     5.382    0.19E-03    0.60E-03    0.21E-06
 Optimization of the real space projectors (new method)

 maximal supplied QI-value         = 16.25
 optimisation between [QCUT,QGAM] = [ 11.38, 22.75] = [ 36.24,144.96] Ry
 Optimized for a Real-space Cutoff    1.43 Angstroem

   l    n(q)    QCUT    max X(q) W(low)/X(q) W(high)/X(q)  e(spline)
   2      9    11.376    65.824    0.18E-03    0.28E-04    0.14E-06
   2      9    11.376    61.429    0.18E-03    0.29E-04    0.14E-06
   0     10    11.376    56.174    0.51E-04    0.12E-03    0.20E-06
   0     10    11.376    31.263    0.46E-04    0.11E-03    0.18E-06
   1      9    11.376    19.828    0.23E-03    0.17E-03    0.10E-06
   1      9    11.376    15.139    0.20E-03    0.14E-03    0.89E-07

  PAW_PBE Ni 02Aug2007                  :
  PAW_PBE Ta_pv 07Sep2000               :
  PAW_PBE Li_sv 10Sep2004               :
  PAW_PBE Mn_pv 02Aug2007               :
  PAW_PBE O 08Apr2002                   :
  PAW_PBE Co 02Aug2007                  :

 POSCAR: ce34_1
  positions in direct lattice

 METAGGA = SCAN     LMAXTAU =  6    LMIXTAU =  T

 ion  position               nearest neighbor table
   1  0.402  0.195  0.000-  20 2.01  21 2.01  25 2.03  24 2.03  33 2.12  32 2.12   2 2.82  19 2.82
                            19 2.82   8 2.87   5 2.87   5 2.87
   2  0.597  0.805  0.000-  21 2.03  20 2.03  27 2.04  26 2.04  35 2.08  34 2.08   1 2.82  19 2.89
                            19 2.89   8 2.93   8 2.93   5 2.98
   3  0.902  0.197  0.500-  28 1.89  29 1.89  23 1.99  22 1.99  36 2.01  37 2.01  16 2.79  15 2.79
                             4 2.86  40 2.87  40 2.87   6 2.88   6 2.88   7 2.95
   4  0.099  0.801  0.500-  22 1.91  23 1.91  38 1.93  39 1.93  30 2.04  31 2.04  40 2.86  40 2.86
                             7 2.86   7 2.86   3 2.86   6 2.92
   5  0.803  0.394  0.000-  24 2.02  25 2.02  34 2.06  35 2.06  32 2.08  33 2.08  19 2.79   8 2.86
                             8 2.86   1 2.87   1 2.87   2 2.98
   6  0.301  0.398  0.500-  37 1.89  36 1.89  29 2.01  28 2.01  39 2.01  38 2.01   3 2.88   3 2.88
                             7 2.90   7 2.90  40 2.90   4 2.92
   7  0.698  0.605  0.500-  38 1.88  39 1.88  31 1.98  30 1.98  37 2.04  36 2.04  17 2.76  18 2.76
                            40 2.84   4 2.86   4 2.86   6 2.90   6 2.90   3 2.95
   8  0.205  0.591  0.000-  32 1.95  33 1.95  35 1.98  34 1.98  26 2.05  27 2.05   5 2.86   5 2.86
                             1 2.87   2 2.93   2 2.93  16 2.97  15 2.97  14 3.02  13 3.02  19 3.03
   9  0.256  0.997  0.252-  31 2.06  24 2.08  28 2.09  27 2.11  20 2.15  22 2.16
  10  0.747  0.997  0.748-  30 2.06  25 2.08  29 2.09  26 2.11  21 2.15  23 2.16
  11  0.647  0.200  0.250-  24 2.04  20 2.05  32 2.10  36 2.10  28 2.16  22 2.20  19 2.86
  12  0.153  0.200  0.750-  25 2.04  21 2.05  33 2.10  37 2.10  29 2.16  23 2.20  19 2.86
  13  0.352  0.810  0.744-  30 1.97  23 2.03  21 2.04  26 2.08  38 2.14  34 2.15  40 2.79   8 3.02

  14  0.838  0.810  0.256-  31 1.97  22 2.03  20 2.04  27 2.08  39 2.14  35 2.15  40 2.79   8 3.02

[...]

  18  0.468  0.602  0.260-  36 2.03  35 2.04  31 2.08  32 2.11  39 2.22  27 2.26   7 2.76   8 3.04

  19  0.995  0.009  0.000-  25 1.87  24 1.87  21 1.90  20 1.90  27 1.98  26 1.98   5 2.79   1 2.82
                             1 2.82  11 2.86  12 2.86   2 2.89   2 2.89   8 3.03
  20  0.647  0.001  0.116-  19 1.90   1 2.01   2 2.03  14 2.04  11 2.05   9 2.15
  21  0.351  0.001  0.884-  19 1.90   1 2.01   2 2.03  13 2.04  12 2.05  10 2.15
  22  0.869  0.992  0.394-   4 1.91  40 1.91   3 1.99  14 2.03   9 2.16  11 2.20
  23  0.140  0.992  0.606-   4 1.91  40 1.91   3 1.99  13 2.03  10 2.16  12 2.20
  24  0.024  0.187  0.117-  19 1.87   5 2.02   1 2.03  11 2.04   9 2.08  15 2.17
  25  0.789  0.187  0.883-  19 1.87   5 2.02   1 2.03  12 2.04  10 2.08  16 2.17
  26  0.985  0.807  0.885-  19 1.98   2 2.04   8 2.05  13 2.08  10 2.11  17 2.26
  27  0.209  0.807  0.115-  19 1.98   2 2.04   8 2.05  14 2.08   9 2.11  18 2.26
  28  0.263  0.192  0.393-   3 1.89  40 1.95   6 2.01   9 2.09  15 2.10  11 2.16
  29  0.545  0.192  0.607-   3 1.89  40 1.95   6 2.01  10 2.09  16 2.10  12 2.16
  30  0.709  0.809  0.615-  40 1.90  13 1.97   7 1.98   4 2.04  10 2.06  17 2.08
  31  0.482  0.809  0.385-  40 1.90  14 1.97   7 1.98   4 2.04   9 2.06  18 2.08
  32  0.411  0.410  0.127-   8 1.95  15 2.07   5 2.08  11 2.10  18 2.11   1 2.12
  33  0.179  0.410  0.873-   8 1.95  16 2.07   5 2.08  12 2.10  17 2.11   1 2.12
  34  0.569  0.598  0.879-   8 1.98  17 2.04   5 2.06   2 2.08  16 2.12  13 2.15
  35  0.833  0.598  0.121-   8 1.98  18 2.04   5 2.06   2 2.08  15 2.12  14 2.15
  36  0.656  0.399  0.390-   6 1.89   3 2.01  18 2.03   7 2.04  15 2.09  11 2.10
  37  0.946  0.399  0.610-   6 1.89   3 2.01  17 2.03   7 2.04  16 2.09  12 2.10
  38  0.338  0.608  0.604-   7 1.88   4 1.93   6 2.01  13 2.14  16 2.19  17 2.22
  39  0.054  0.608  0.396-   7 1.88   4 1.93   6 2.01  14 2.14  15 2.19  18 2.22
  40  0.501  0.997  0.500-  30 1.90  31 1.90  22 1.91  23 1.91  28 1.95  29 1.95  14 2.79  13 2.79
                             7 2.84   4 2.86   4 2.86   3 2.87   3 2.87   6 2.90

  LATTYP: Found a base centered monoclinic cell.
 ALAT       =     4.9637185500
 B/A-ratio  =     2.9165220055
 C/A-ratio  =     3.0251622936
 COS(beta)  =    -0.2516882546

  Lattice vectors:

 A1 = (   2.4818592800,   7.2383971900,   0.0000000000)
 A2 = (   2.4818592700,  -7.2383971900,   0.0000000000)
 A3 = ( -11.6525233000,   0.0000000000,  -9.4710392400)

Analysis of symmetry for initial positions (statically):
 Subroutine PRICEL returns:
 Original cell was already a primitive cell.

 Routine SETGRP: Setting up the symmetry group for a
 base centered monoclinic supercell.

 Subroutine GETGRP returns: Found  2 space group operations
 (whereof  2 operations were pure point group operations)
 out of a pool of  4 trial point group operations.

The static configuration has the point symmetry C_2 .

Analysis of symmetry for dynamics (positions and initial velocities):
 Subroutine PRICEL returns:
 Original cell was already a primitive cell.

[...]

The dynamic configuration has the point symmetry C_2 .

Analysis of structural, dynamic, and magnetic symmetry:
 Subroutine PRICEL returns:
 Original cell was already a primitive cell.

 Routine SETGRP: Setting up the symmetry group for a
 base centered monoclinic supercell.

 Subroutine GETGRP returns: Found  2 space group operations
 (whereof  2 operations were pure point group operations)
 out of a pool of  4 trial point group operations.

The magnetic configuration has the point symmetry C_2 .

 Subroutine INISYM returns: Found  2 space group operations
 (whereof  2 operations are pure point group operations),
 and found     1 'primitive' translations

 KPOINTS: Automatic mesh

Automatic generation of k-mesh.
Space group operators:
 irot       det(A)        alpha          n_x          n_y          n_z        tau_x        tau_y        tau_z
    1     1.000000     0.000000     1.000000     0.000000     0.000000     0.000000     0.000000     0.000000
    2     1.000000   180.000000     0.000000     1.000000     0.000000     0.000000     0.000000     0.000000

 Subroutine IBZKPT returns following result:

 Found     10 irreducible k-points:

 Following reciprocal coordinates:
            Coordinates               Weight
  0.000000  0.000000  0.000000      1.000000
  0.333333 -0.000000  0.000000      4.000000
  0.000000  0.333333  0.000000      2.000000
 -0.333333  0.333333  0.000000      2.000000
  0.000000  0.000000  0.333333      2.000000
  0.333333 -0.000000  0.333333      4.000000
 -0.333333  0.000000  0.333333      4.000000
  0.000000  0.333333  0.333333      4.000000
 -0.333333  0.333333  0.333333      2.000000
  0.333333 -0.333333  0.333333      2.000000

 Following cartesian coordinates:
            Coordinates               Weight
  0.000000  0.000000  0.000000      1.000000
  0.067154 -0.023025 -0.012232      4.000000
  0.000000  0.046051  0.000000      2.000000
 -0.067154  0.069076  0.012232      2.000000
  0.000000  0.000000  0.035195      2.000000
  0.067154 -0.023025  0.022963      4.000000
 -0.067154  0.023025  0.047427      4.000000
  0.000000  0.046051  0.035195      4.000000
 -0.067154  0.069076  0.047427      2.000000
  0.067154 -0.069076  0.022963      2.000000

 SYSTEM =  unknown system
 POSCAR =  ce34_1

 Startparameter for this run:
   NWRITE =      1    write-flag & timer
   PREC   = accura    normal or accurate (medium, high low for compatibility)
   ISTART =      0    job   : 0-new  1-cont  2-samecut
   ICHARG =      2    charge: 1-file 2-atom 10-const
   ISPIN  =      2    spin polarized calculation?
   LNONCOLLINEAR =      F non collinear calculations
   LSORBIT =      F    spin-orbit coupling
   INIWAV =      1    electr: 0-lowe 1-rand  2-diag
   LASPH  =      T    aspherical Exc in radial PAW
   METAGGA=      F    non-selfconsistent MetaGGA calc.

 Electronic Relaxation 1
   ENCUT  =  500.0 eV  36.75 Ry    6.06 a.u.   9.05 13.95 17.55*2*pi/ulx,y,z
   ENINI  =  500.0     initial cutoff
   ENAUG  =  628.9 eV  augmentation charge cutoff
   NELM   =   1000;   NELMIN=  2; NELMDL= -5     # of ELM steps
   EDIFF  = 0.1E-04   stopping-criterion for ELM
   LREAL  =      T    real-space projection
   NLSPLINE    = F    spline interpolate recip. space projectors
[...]
    243      29.3725      0.00000
    244      29.3949      0.00000
    245      29.4128      0.00000
    246      29.4640      0.00000
    247      29.6302      0.00000
    248      29.8300      0.00000
    249      30.0621      0.00000
    250      30.2041      0.00000
    251      30.3082      0.00000
    252      30.4797      0.00000
    253      30.5930      0.00000
    254      30.7518      0.00000
    255      30.8934      0.00000
    256      31.0803      0.00000

[...]

 spin component 2

[...]

 k-point    10 :       0.3333   -0.3333    0.3333
  band No.  band energies     occupation
      1     -44.1276      1.00000
      2     -44.0995      1.00000
      3     -44.0459      1.00000
      4     -40.7798      1.00000
      5     -40.7770      1.00000
      6     -40.6173      1.00000
      7     -40.6161      1.00000
      8     -40.3823      1.00000
      9     -40.3813      1.00000
     10     -40.3750      1.00000
     11     -40.3737      1.00000
     12     -40.0358      1.00000
     13     -40.0354      1.00000
     14     -31.0175      1.00000
     15     -31.0123      1.00000
     16     -30.9009      1.00000
     17     -14.9859      1.00000
     18     -14.8750      1.00000
     19     -14.7927      1.00000
     20     -14.5664      1.00000
     21     -14.4470      1.00000
     22     -14.4167      1.00000
     23     -14.3261      1.00000
     24     -14.0823      1.00000
     25     -13.9883      1.00000
     26     -13.9162      1.00000
     27     -13.8761      1.00000
     28     -13.8595      1.00000
     29     -13.8132      1.00000
     30     -13.7524      1.00000
     31     -13.7063      1.00000
     32     -13.6773      1.00000
     33     -13.5477      1.00000
     34     -13.4817      1.00000
     35     -13.4668      1.00000
     36     -13.3822      1.00000
     37      -1.7195      1.00000
     38      -1.5875      1.00000
     39      -1.5545      1.00000
     40      -1.4047      1.00000
     41      -1.1207      1.00000
     42      -1.0708      1.00000
     43      -0.9925      1.00000
     44      -0.8969      1.00000
     45      -0.7658      1.00000
     46      -0.6868      1.00000
     47      -0.6498      1.00000
     48      -0.6188      1.00000
     49      -0.5304      1.00000
     50      -0.4266      1.00000
     51      -0.3483      1.00000
     52      -0.2841      1.00000
     53      -0.2313      1.00000
     54      -0.1084      1.00000
     55      -0.0724      1.00000
     56      -0.0115      1.00000
     57       0.1345      1.00000
     58       0.4095      1.00000
     59       0.4248      1.00000
     60       0.4621      1.00000
[...]
    242      29.4436      0.00000
    243      29.6942      0.00000
    244      29.8234      0.00000
    245      30.5154      0.00000
    246      30.7235      0.00000
    247      30.8108      0.00000
    248      30.9410      0.00000
    249      31.0466      0.00000
    250      31.2001      0.00000
    251      31.2924      0.00000
    252      31.3337      0.00000
    253      31.4161      0.00000
    254      31.6663      0.00000
    255      31.9431      0.00000
    256      32.3947      0.00000

 soft charge-density along one line, spin component           1
         0         1         2         3         4         5         6         7         8         9
 total charge-density along one line

 soft charge-density along one line, spin component           2
         0         1         2         3         4         5         6         7         8         9
 total charge-density along one line

------------------------ aborting loop because EDIFF is reached ----------------------------------------

  FORCE on cell =-STRESS in cart. coord.  units (eV):
  Direction    XX          YY          ZZ          XY          YZ          ZX
  Alpha Z   925.74923   925.74923   925.74923
  Ewald   -3988.08705 -4198.96601 -8146.55975    -0.00000    -0.00000  -121.35167
  Hartree  3014.33584  2892.00309   -45.96810    -0.00011    -0.00006   -52.16571
  E(xc)    -727.03484  -726.57716  -725.28730     0.00106    -0.02538     0.40705
  Local   -3600.92346 -3287.94291  3554.44394     0.00038     0.00005   159.12739
  n-local  -933.53146  -938.01176  -947.69520    -0.05554     0.18058    -4.19913
  augment  1422.06259  1433.47068  1443.45463     0.00004     0.00001     7.54587
  Kinetic  3887.53392  3900.32168  3941.92129     0.06610    -0.75169    10.50236
  Fock        0.00000     0.00000     0.00000     0.00000     0.00000     0.00000
  Total        0.1047724      0.0468282      0.0587436      0.0000000      0.0000000     -0.1338472
  in kB        0.4932989      0.2204808      0.2765822      0.0000000      0.0000000     -0.6301918

 VOLUME and BASIS-vectors are now :
  energy-cutoff  :      500.00
  volume of cell :      340.29
      direct lattice vectors                 reciprocal lattice vectors
     4.963718550  0.000000000  0.000000000     0.201461866 -0.069076066 -0.036694926
     2.481859280  7.238397190  0.000000000     0.000000000  0.138152131  0.000000000
     1.725086200  0.000000000  9.471039240     0.000000000  0.000000000  0.105585034

  length of vectors
     4.963718550  7.652059812  9.626863803     0.216113174  0.138152131  0.105585034

 FORCES acting on ions:
    Electron-Ion                     Ewald-Force                    Non-Local-Force
   0.211E-04 -.922E+02 -.579E-04   -.121E-06 0.882E+02 -.224E-07   0.285E-08 0.412E+01 0.000E+00
   -.221E-04 0.855E+02 -.201E-04   0.623E-07 -.830E+02 0.106E-07   -.171E-08 -.247E+01 0.000E+00
   0.579E-05 -.391E+02 0.287E-04   0.167E-07 0.385E+02 0.698E-08   0.426E-09 0.617E+00 0.000E+00
   0.450E-04 0.272E+02 0.440E-04   -.147E-07 -.266E+02 0.305E-09   -.409E-09 -.591E+00 0.000E+00
   -.235E-04 -.773E+02 -.663E-04   0.107E-06 0.757E+02 -.683E-08   0.115E-08 0.167E+01 0.000E+00
   -.721E-04 0.204E+01 0.215E-04   -.245E-08 -.189E+01 -.227E-08   -.986E-10 -.143E+00 0.000E+00
   0.683E-04 0.522E+02 0.416E-04   -.274E-07 -.511E+02 -.120E-07   -.852E-09 -.123E+01 0.000E+00
   -.142E-06 0.246E+02 -.457E-04   -.402E-07 -.235E+02 -.476E-07   -.691E-09 -.100E+01 0.000E+00
   -.426E+01 -.364E+00 -.493E+01   0.440E+01 0.428E+00 0.510E+01   -.136E+00 -.702E-01 -.174E+00
   0.426E+01 -.364E+00 0.493E+01   -.440E+01 0.428E+00 -.510E+01   0.136E+00 -.702E-01 0.174E+00
   0.632E+01 -.133E+02 -.190E+02   -.600E+01 0.132E+02 0.183E+02   -.320E+00 0.827E-01 0.703E+00
   -.632E+01 -.133E+02 0.190E+02   0.600E+01 0.132E+02 -.183E+02   0.320E+00 0.827E-01 -.703E+00
   0.247E+01 0.171E+02 -.717E+01   -.184E+01 -.164E+02 0.656E+01   -.636E+00 -.687E+00 0.602E+00
   -.247E+01 0.171E+02 0.717E+01   0.184E+01 -.164E+02 -.656E+01   0.636E+00 -.687E+00 -.602E+00
   -.555E+00 -.194E+01 0.739E+01   0.663E+00 0.193E+01 -.747E+01   -.108E+00 -.145E-02 0.732E-01
   0.555E+00 -.194E+01 -.739E+01   -.663E+00 0.193E+01 0.747E+01   0.108E+00 -.145E-02 -.732E-01
   -.948E+01 -.196E+01 -.157E+02   0.849E+01 0.132E+01 0.155E+02   0.978E+00 0.636E+00 0.197E+00
   0.948E+01 -.196E+01 0.157E+02   -.849E+01 0.132E+01 -.155E+02   -.978E+00 0.636E+00 -.197E+00
   -.886E-04 0.458E+02 0.736E-05   -.785E-09 -.431E+02 0.562E-07   -.191E-08 -.276E+01 0.000E+00
   0.754E+02 0.644E+01 -.273E+03   -.789E+02 -.709E+01 0.286E+03   0.355E+01 0.650E+00 -.128E+02
   -.754E+02 0.644E+01 0.273E+03   0.789E+02 -.709E+01 -.286E+03   -.355E+01 0.650E+00 0.128E+02
   0.129E+01 -.212E+02 0.234E+03   -.114E-01 0.228E+02 -.247E+03   -.128E+01 -.164E+01 0.132E+02
   -.129E+01 -.212E+02 -.234E+03   0.114E-01 0.228E+02 0.247E+03   0.128E+01 -.164E+01 -.132E+02
   -.511E+02 -.881E+02 -.284E+03   0.539E+02 0.917E+02 0.298E+03   -.284E+01 -.359E+01 -.138E+02
   0.511E+02 -.881E+02 0.284E+03   -.539E+02 0.917E+02 -.298E+03   0.284E+01 -.359E+01 0.138E+02
   0.383E+02 0.737E+02 0.258E+03   -.413E+02 -.710E+02 -.273E+03   0.297E+01 -.268E+01 0.147E+02
   -.383E+02 0.737E+02 -.258E+03   0.413E+02 -.710E+02 0.273E+03   -.297E+01 -.268E+01 -.147E+02
   -.167E+02 -.144E+02 0.235E+03   0.192E+02 0.151E+02 -.248E+03   -.252E+01 -.710E+00 0.128E+02
   0.167E+02 -.144E+02 -.235E+03   -.192E+02 0.151E+02 0.248E+03   0.252E+01 -.710E+00 -.128E+02
   -.179E+02 0.104E+02 -.238E+03   0.197E+02 -.116E+02 0.250E+03   -.177E+01 0.127E+01 -.112E+02
   0.179E+02 0.104E+02 0.238E+03   -.197E+02 -.116E+02 -.250E+03   0.177E+01 0.127E+01 0.112E+02
   -.601E+01 0.421E+01 -.225E+03   0.102E+02 -.113E+02 0.241E+03   -.417E+01 0.713E+01 -.153E+02
   0.601E+01 0.421E+01 0.225E+03   -.102E+02 -.113E+02 -.241E+03   0.417E+01 0.713E+01 0.153E+02
   -.245E+02 0.101E+02 0.214E+03   0.313E+02 -.908E+01 -.228E+03   -.681E+01 -.978E+00 0.139E+02
   0.245E+02 0.101E+02 -.214E+03   -.313E+02 -.908E+01 0.228E+03   0.681E+01 -.978E+00 -.139E+02
   -.174E+02 -.692E+00 0.233E+03   0.205E+02 0.674E+00 -.244E+03   -.306E+01 0.223E-01 0.112E+02
   0.174E+02 -.692E+00 -.233E+03   -.205E+02 0.674E+00 0.244E+03   0.306E+01 0.223E-01 -.112E+02
   0.174E+02 0.260E+02 -.250E+03   -.199E+02 -.273E+02 0.263E+03   0.252E+01 0.135E+01 -.135E+02
   -.174E+02 0.260E+02 0.250E+03   0.199E+02 -.273E+02 -.263E+03   -.252E+01 0.135E+01 0.135E+02
   -.342E-04 -.412E+02 0.509E-04   0.266E-07 0.402E+02 0.775E-08   0.774E-09 0.112E+01 0.000E+00
   -.765E-03 -.911E+00 0.411E-03   -.673E-13 -.242E-12 0.959E-13   0.613E-09 0.888E+00 0.000E+00

 POSITION                                       TOTAL-FORCE (eV/Angst)
      2.48186      1.41174      0.00000         0.000000      0.000705      0.000000
      4.96372      5.82809      0.00000        -0.000000     -0.002666      0.000000
      5.82626      1.42547      4.73552        -0.000000     -0.002911      0.000000
      3.34440      5.80138      4.73552        -0.000000     -0.008255      0.000000
      4.96372      2.85301      0.00000         0.000000      0.001787      0.000000
      3.34440      2.88353      4.73552         0.000000      0.009877      0.000000
      5.82626      4.37710      4.73552         0.000000      0.005916      0.000000
      2.48186      4.27690      0.00000        -0.000000     -0.004449      0.000000
      4.17929      7.21932      2.38358         0.000215     -0.005178     -0.001068
      7.47324      7.21932      7.08746        -0.000215     -0.005178      0.001068
      4.13843      1.44734      2.36662         0.004349      0.003705      0.000937
      2.55037      1.44734      7.10442        -0.004349      0.003705     -0.000937
      5.04145      5.86628      7.04303        -0.003007      0.001086     -0.007413
      6.61108      5.86628      2.42801         0.003007      0.001086      0.007413
      1.62970      2.83762      2.45045        -0.000132     -0.006196     -0.001139
      5.05910      2.83762      7.02059         0.000132     -0.006196      0.001139
      7.39002      4.35706      7.01326        -0.011558      0.000247      0.001084
      4.26251      4.35706      2.45778         0.011558      0.000247     -0.001084
      4.96372      0.06641      0.00000         0.000000      0.003524      0.000000
      3.41805      0.01061      1.10154         0.007686     -0.000392      0.000086
      3.27076      0.01061      8.36950        -0.007686     -0.000392     -0.000086
      7.45223      7.17864      3.73026        -0.001810     -0.002045     -0.001117
      4.20029      7.17864      5.74078         0.001810     -0.002045      0.001117
      0.78426      1.35246      1.10888         0.003869     -0.003510      0.000553
      5.90454      1.35246      8.36215        -0.003869     -0.003510     -0.000553
      8.41579      5.83857      8.38214        -0.004399      0.004531      0.000954
      3.23674      5.83857      1.08890         0.004399      0.004531     -0.000954
      2.46159      1.39019      3.72323        -0.003797     -0.001165      0.003475
      4.22721      1.39019      5.74781         0.003797     -0.001165     -0.003475
      6.58570      5.85389      5.82035         0.004202      0.003653     -0.000237
      5.06683      5.85389      3.65069        -0.004202      0.003653      0.000237
      3.27764      2.97074      1.20483         0.004339      0.001768     -0.004534
      3.41117      2.97074      8.26621        -0.004339      0.001768      0.004534
      5.82307      4.32635      8.32218        -0.007695      0.002397     -0.001411
      5.82946      4.32635      1.14886         0.007695      0.002397      0.001411
      4.91569      2.88550      3.69203        -0.001679      0.004105     -0.001070
      6.73683      2.88550      5.77901         0.001679      0.004105      0.001070
      4.22979      4.39800      5.71915         0.003685      0.002422      0.000102
      2.45902      4.39800      3.75189        -0.003685      0.002422     -0.000102
      5.82626      7.21754      4.73552        -0.000000     -0.014390      0.000000
    total drift:                               -0.000765     -0.023527      0.000411

  FREE ENERGIE OF THE ION-ELECTRON SYSTEM (eV)
  free  energy   TOTEN  =     -1034.7159074855 eV

  energy  without entropy=    -1034.7159074843  energy(sigma->0) =    -1034.71590748

volume of typ            1:    13.1 %

[...]

volume of typ            6:     1.9 %

total charge

# of ion       s       p       d       tot
    1        0.207   0.241   7.876   8.325
    2        0.207   0.242   7.873   8.322
    3        0.248   0.314   7.795   8.357
    4        0.252   0.320   7.800   8.371
    5        0.205   0.243   7.876   8.325
    6        0.247   0.311   7.794   8.351
    7        0.250   0.318   7.795   8.364
    8        0.296   6.203   1.894   8.393
    9        2.077   0.252   0.103   2.432
   10        2.077   0.252   0.103   2.432
   11        2.079   0.257   0.105   2.441
   12        2.079   0.257   0.105   2.441
   13        2.093   0.298   0.126   2.516
   14        2.093   0.298   0.126   2.516
   15        2.072   0.242   0.098   2.413
   16        2.072   0.242   0.098   2.413
   17        2.077   0.253   0.103   2.432
   18        2.077   0.253   0.103   2.432
   19        0.227   6.245   4.560  11.032
   20        1.256   2.861   0.004   4.121
   21        1.256   2.862   0.004   4.122
   22        1.261   2.839   0.005   4.105
   23        1.261   2.838   0.005   4.103
   24        1.256   2.857   0.005   4.118
   25        1.257   2.857   0.005   4.119
   26        1.257   2.876   0.005   4.138
   27        1.257   2.875   0.005   4.137
   28        1.259   2.834   0.005   4.098
   29        1.259   2.837   0.005   4.100
   30        1.257   2.847   0.004   4.109
   31        1.257   2.850   0.004   4.112
   32        1.260   2.871   0.005   4.136
   33        1.260   2.871   0.005   4.136
   34        1.257   2.874   0.005   4.135
   35        1.257   2.875   0.005   4.136
   36        1.259   2.834   0.004   4.097
   37        1.259   2.836   0.004   4.099
   38        1.263   2.826   0.005   4.094
   39        1.263   2.826   0.005   4.094
   40        0.246   0.342   6.814   7.403
tot          48.35   74.43   69.24  192.02

magnetization (x)

# of ion       s       p       d       tot
    1        0.006   0.002   1.629   1.637
    2        0.004   0.001   1.634   1.639
    3        0.002   0.001   0.927   0.930
    4        0.003   0.001   0.929   0.932
    5        0.004   0.000   1.631   1.636
    6        0.002   0.002   0.936   0.940
    7        0.001   0.001   0.886   0.889
    8       -0.001  -0.001  -0.007  -0.009
    9        0.002   0.005   0.001   0.008
   10        0.002   0.005   0.001   0.008
   11        0.004   0.006   0.001   0.011
   12        0.004   0.006   0.001   0.011
   13        0.005   0.014   0.004   0.023
   14        0.005   0.014   0.004   0.023
   15        0.001   0.002  -0.000   0.003
   16        0.001   0.002  -0.000   0.003
   17        0.001   0.002  -0.000   0.003
   18        0.001   0.002  -0.000   0.003
   19        0.011   0.012   2.664   2.687
   20        0.012   0.129   0.001   0.141
   21        0.012   0.129   0.001   0.142
   22        0.007   0.021   0.000   0.028
   23        0.007   0.020   0.000   0.026
   24        0.011   0.121   0.001   0.132
   25        0.011   0.121   0.001   0.132
   26        0.006   0.051   0.000   0.057
   27        0.006   0.051   0.000   0.057
   28        0.004  -0.006   0.000  -0.002
   29        0.004  -0.005   0.000  -0.000
   30        0.011   0.103   0.000   0.114
   31        0.011   0.106   0.000   0.117
   32        0.009   0.076   0.000   0.085
   33        0.009   0.077   0.000   0.086
   34        0.009   0.082   0.000   0.091
   35        0.009   0.082   0.000   0.091
   36        0.009   0.031   0.000   0.040
   37        0.008   0.032   0.000   0.041
   38        0.007  -0.008   0.000  -0.001
   39        0.006  -0.008   0.000  -0.001
   40       -0.001  -0.001  -0.101  -0.103
tot           0.23    1.28   11.15   12.65